time zIndex S11 S22 S12 block gridPoints
f i f f f i l
 1.0000e-001 69562 -5.3950e+001 -2.3276e+001  3.5057e+001 69254 69484,69536,69510
 1.0000e-001 70009 -2.1139e+001 -2.4263e+001  1.7132e+001 68942 69686,69842,69816
 1.0000e-001 69986 -1.2617e+001 -2.0452e+000  9.9876e+000 68942 69686,69868,69842
 1.0000e-001 69963 -5.8857e-001 -2.2863e-001  2.5877e+001 68942 69686,69816,69712
 1.0000e-001 69940 -7.0973e+000 -3.2412e+000  3.7794e+001 68942 69712,69790,69738
 1.0000e-001 69917 -2.6667e+001 -5.8693e+001  3.0741e+001 68942 69712,69816,69790
 1.0000e-001 69894  1.5472e+000 -3.2579e+001  1.6944e+001 68942 69738,69790,69764
 1.0000e-001 70110 -4.9408e+000 -1.5294e+000  2.5230e+000 68766 70032,70084,70058
 1.0000e-001 70746  2.5260e+001  2.4189e+000  5.3732e+000 68448 70400,70556,70426
 1.0000e-001 70723  2.3842e+000  1.4765e+000  7.4511e+000 68448 70374,70556,70400
 1.0000e-001 70700  2.9605e+000 -7.2572e+000  6.5592e+000 68448 70426,70556,70478
 1.0000e-001 70677  6.9667e-001  3.7505e+000  1.0219e+001 68448 70478,70556,70504
 1.0000e-001 70654  7.7759e+000 -6.1499e+000  4.0305e+000 68448 70426,70478,70452
 1.0000e-001 70631  1.2413e+000 -1.3888e+000  7.2505e+000 68448 70374,70582,70556
 1.0000e-001 70608  1.4870e+000  1.4490e+001  4.0733e+000 68448 70504,70556,70530
 1.0000e-001 70896  1.5184e+000  1.8488e+000 -1.5928e+000 68250 70795,70847,70821
 1.0000e-001 70873  2.3264e+000  1.6585e+000 -1.0149e-001 68250 70769,70847,70795
 1.0000e-001 70997 -1.2442e+002 -5.3641e+001  4.4992e+001 68052 70919,70971,70945
 1.0000e-001 71367 -3.6108e+001 -5.7208e+001  2.5789e+001 67740 71096,71226,71200
 1.0000e-001 71344 -2.5969e+001 -3.4159e+001  2.9532e+001 67740 71044,71226,71096
 1.0000e-001 71321  2.3073e-001 -2.3073e-001  4.6150e+001 67740 71044,71096,71070
 1.0000e-001 71298 -2.9858e+001 -6.0573e+001  4.6303e+001 67740 71096,71200,71174
 1.0000e-001 71275 -1.6155e+001 -3.7785e+001  1.8727e+001 67740 71096,71148,71122
 1.0000e-001 71252 -2.3110e+001 -4.3951e+001  3.1487e+001 67740 71096,71174,71148
 1.0000e-001 71519  3.4821e+001  1.5465e+001  4.1543e+000 67542 71418,71470,71444
 1.0000e-001 71496  3.0002e+001  6.9378e+001  4.1563e+001 67542 71392,71470,71418
 1.0000e-001 71923 -2.6405e+000 -5.4578e-001  2.6061e+000 67230 71649,71779,71675
 1.0000e-001 71900  5.4785e+001  4.2437e+001  2.1896e+001 67230 71649,71805,71779
 1.0000e-001 71877  1.9169e+000  1.4009e+000  2.8371e+000 67230 71675,71727,71701
 1.0000e-001 71854 -1.4702e+000 -1.9418e+000  1.1398e+000 67230 71675,71753,71727
 1.0000e-001 71831 -1.2335e-001  4.6462e-001  1.8844e+000 67230 71675,71779,71753
 1.0000e-001 72433  1.7347e+001  4.3904e+000  5.6010e+000 67032 72038,72246,72220
 1.0000e-001 72410 -6.3737e+000 -1.9680e+000 -3.6158e+000 67032 72012,72246,72038
 1.0000e-001 72387  1.1999e+001  7.6391e+000  5.4569e+000 67032 72064,72194,72168
 1.0000e-001 72364  9.8812e+000  4.7174e+000  6.3854e+000 67032 72038,72194,72064
 1.0000e-001 72341  1.8884e+001  9.3963e+000  1.4223e+001 67032 72038,72220,72194
 1.0000e-001 72318 -9.5483e+000 -4.6104e+000  7.8380e+000 67032 72090,72168,72142
 1.0000e-001 72295  1.9851e+001  9.1176e+000  1.6579e+000 67032 72064,72168,72090
 1.0000e-001 72272 -1.1650e+001 -4.5474e+000  7.8340e+000 67032 72090,72142,72116
 1.0000e-001 72933 -1.7434e-001  1.2578e+000  1.3352e+000 66628 72956,72665,72613
 1.0000e-001 72910  3.8921e+000  5.3493e+000  2.9956e+000 66628 73100,72956,72613
 1.0000e-001 72887 -6.1286e+000 -2.4858e+000  2.9110e+000 66628 73028,72691,72665
 1.0000e-001 72864  6.8527e+000  1.2932e+001  5.7932e-001 66628 73100,72613,72587
 1.0000e-001 72841 -2.4171e+000  6.8635e-002  5.6355e+000 66628 72613,72665,72639
 1.0000e-001 72818  2.4077e+001  1.1103e+001 -4.3133e+000 66628 72587,72769,72743
 1.0000e-001 72795  2.1443e+001  5.2565e+000 -6.4867e-001 66628 72561,72769,72587
 1.0000e-001 72982 -2.9945e+000  3.2365e+000  1.6327e+000 66628 73028,72665,72956
 1.0000e-001 73005 -2.3895e-001  5.8756e-001 -1.0700e+000 66628 72717,72956,72743
 1.0000e-001 73054 -3.4792e+000  3.1867e+000 -2.0610e+000 66628 72717,72691,73028
 1.0000e-001 73077 -2.4657e+000  4.6395e+000 -2.9406e+000 66628 72717,73028,72956
 1.0000e-001 73126  7.5890e+000  7.0034e+000 -4.8084e+000 66628 72743,72956,73100
 1.0000e-001 73149  8.7754e+000  1.2673e+001 -6.9537e+000 66628 72743,73100,72587
 1.0000e-001 73606  1.5340e+001  8.3059e+000  7.1981e+000 66281 73332,73384,73358
 1.0000e-001 73583  1.0730e+000  2.2941e+000 -4.5647e+000 66281 73332,73462,73384
 1.0000e-001 73560 -1.8741e+001  1.1825e+001  1.8602e+000 66281 73384,73462,73436
 1.0000e-001 73537 -5.2207e+000  6.1149e+000 -3.2900e+000 66281 73332,73488,73462
 1.0000e-001 73514 -1.1166e+001  1.0318e+001  2.9411e+001 66281 73384,73436,73410
 1.0000e-001 73984  3.4518e-004 -4.2313e+000 -6.3171e-001 65969 73736,73814,73788
 1.0000e-001 73961  9.0287e+000 -5.3939e-001 -1.0448e+000 65969 73736,73866,73814
 1.0000e-001 73938 -6.4164e+000 -3.8253e+000  1.1655e+001 65969 73814,73866,73840
 1.0000e-001 73915 -3.2910e-001  3.5765e+000 -2.0575e+000 65969 73710,73866,73736
 1.0000e-001 73892  2.0101e+000  4.5550e+000  4.3978e-001 65969 73736,73788,73762
 1.0000e-001 74232  5.4129e+000 -9.2440e+000  6.6047e+000 65572 74255,74085,74033
 1.0000e-001 74209 -7.6623e+000 -1.1715e+001  8.0885e+000 65572 74327,74255,74033
 1.0000e-001 74186 -1.5833e+001 -2.4453e+000  5.4550e+000 65572 74327,74033,74007
 1.0000e-001 74163  1.5710e+001  1.4215e+001 -4.1026e+000 65572 74033,74085,74059
 1.0000e-001 74281  1.2781e+001 -6.0315e+000 -3.3562e+000 65572 74111,74085,74255
 1.0000e-001 74304 -2.0016e+000 -1.2045e+001 -2.7291e+000 65572 74111,74255,74137
 1.0000e-001 74353  4.5232e+000 -3.0078e+000  4.2466e+000 65572 74137,74255,74327
 1.0000e-001 74376 -6.2204e+000  3.9824e+000  2.6340e+000 65572 74137,74327,74007
 1.0000e-001 74884 -1.6321e+000  1.0352e+001 -1.4237e+000 65174 74587,74717,74613
 1.0000e-001 74861 -3.5713e+000  4.3803e+000 -8.5886e+000 65174 74561,74717,74587
 1.0000e-001 74838  2.2778e+000 -6.1217e+000  4.6720e+000 65174 74613,74691,74639
 1.0000e-001 74815 -2.0968e-001 -1.1779e+001 -4.9483e+000 65174 74613,74717,74691
 1.0000e-001 74792 -1.7246e+001 -7.4633e+000  5.2172e-001 65174 74639,74691,74665
 1.0000e-001 74769 -1.3043e+000 -3.4492e+000 -7.3315e+000 65174 74561,74743,74717
 1.0000e-001 75412 -3.1520e-002 -1.3463e-001  1.3051e+001 64770 75167,75245,75219
 1.0000e-001 75389 -3.9464e+000 -1.0934e+001  8.1122e+000 64770 75115,75245,75167
 1.0000e-001 75366  2.3967e+001 -7.8305e+000  1.3337e+001 64770 75089,75245,75115
 1.0000e-001 75343  1.0583e+001  4.8242e+000  1.1746e+001 64770 75167,75219,75193
 1.0000e-001 75320 -1.1889e+000 -4.5259e+000  8.5602e+000 64770 75115,75167,75141
 1.0000e-001 75297  8.7348e+000  1.9722e+001  4.2677e+001 64770 75089,75271,75245
 1.0000e-001 75861 -6.5425e+000 -2.4475e+000  2.1284e+001 64316 75538,75694,75564
 1.0000e-001 75838  1.5953e+001  6.9869e+000  1.9970e+001 64316 75538,75720,75694
 1.0000e-001 75815 -1.2856e+001 -6.2094e+000  1.4749e+001 64316 75590,75694,75642
 1.0000e-001 75792 -1.4335e+001 -1.5503e+001  1.6883e+001 64316 75564,75694,75590
 1.0000e-001 75769 -8.0768e+000 -1.3669e+001  1.2025e+001 64316 75590,75642,75616
 1.0000e-001 75746 -2.4198e+001 -1.0189e+001  1.8602e+001 64316 75642,75694,75668
 1.0000e-001 76239 -1.2845e+001 -1.7003e+001  1.5126e+001 64018 76262,76095,76043
 1.0000e-001 76216 -1.1289e+001 -2.5304e+001  1.6118e+001 64018 76262,76043,76017
 1.0000e-001 76193 -5.1420e+000 -2.9605e+000  4.6792e+000 64018 75991,76121,76017
 1.0000e-001 76170 -8.9570e+000 -9.6681e+000  1.2938e+001 64018 76043,76095,76069
 1.0000e-001 76147 -5.7790e-002 -4.6249e+000  1.1266e+000 64018 75965,76121,75991
 1.0000e-001 76288 -1.0922e+001 -6.4715e+000  1.4889e+001 64018 76121,76095,76262
 1.0000e-001 76311 -1.1598e+001 -1.8102e+001  1.5305e+001 64018 76121,76262,76017
 1.0000e-001 76866 -3.6813e+000 -6.1297e+000  7.0803e+000 63728 76520,76676,76546
 1.0000e-001 76843 -5.7273e+000 -8.6221e+000  2.8412e+000 63728 76520,76702,76676
 1.0000e-001 76820  8.2618e-001 -6.6275e+000  9.3460e+000 63728 76546,76650,76572
 1.0000e-001 76797 -1.1656e+001 -1.6702e+001  3.5648e+000 63728 76546,76676,76650
 1.0000e-001 76774 -7.2767e+000 -1.0020e+001  3.5900e+000 63728 76572,76650,76624
 1.0000e-001 76751 -4.8641e+000 -4.0773e+000  3.7921e+000 63728 76494,76702,76520
 1.0000e-001 76728 -1.8613e+000 -4.0469e+000  5.9924e+000 63728 76572,76624,76598
 1.0000e-001 77065  7.2009e+000 -3.5246e+001  1.4124e+001 63288 77088,76941,76915
 1.0000e-001 77042 -1.7892e+000 -3.5974e+001  7.6595e+000 63288 77088,76915,76993
 1.0000e-001 77019 -8.8873e+000 -2.0666e+001  1.3510e+001 63288 76889,76993,76915
 1.0000e-001 77114 -2.0984e+000 -4.9801e+001  1.0142e+001 63288 76967,76941,77088
 1.0000e-001 77137 -1.3862e-002 -3.5058e+001  9.0909e+000 63288 77160,77088,76993
 1.0000e-001 77186 -5.6387e+000 -3.7405e+001  8.2987e+000 63288 76967,77088,77160
 1.0000e-001 77417  9.8554e-001 -2.1138e+001  3.7078e+000 62884 77440,77342,77316
 1.0000e-001 77394 -1.0134e+001 -2.0377e+001 -7.7037e-001 62884 77770,77440,77316
 1.0000e-001 77466  2.7858e+000 -2.0148e+001 -1.9061e+000 62884 77512,77440,77368
 1.0000e-001 77489 -1.8674e+000 -1.5082e+001 -3.6596e+000 62884 77642,77440,77290
 1.0000e-001 77538 -5.9796e-001 -2.7588e+001  1.6526e+000 62884 77342,77440,77512
 1.0000e-001 77668 -1.1827e-003 -1.5313e+001  9.3196e-001 62884 77368,77440,77642
 1.0000e-001 77796 -8.5955e+000 -1.9618e+001 -1.0540e+000 62884 77290,77440,77770
 1.0000e-001 78479 -3.7097e+001 -5.0174e+001  2.5758e+001 62480 78084,78240,78214
 1.0000e-001 78456 -2.2631e+001 -4.6898e+001  1.1522e+001 62480 78084,78266,78240
 1.0000e-001 78433 -1.7644e+001 -5.2643e+001  4.8388e+000 62480 78110,78214,78136
 1.0000e-001 78410 -5.8573e+001 -6.6771e+001  3.3038e+001 62480 78084,78214,78110
 1.0000e-001 78387 -1.5129e+001 -3.1175e+001  1.0156e+001 62480 78136,78214,78188
 1.0000e-001 78364 -2.6138e+001 -3.4880e+001  1.4176e+001 62480 78058,78266,78084
 1.0000e-001 78341  6.9421e+000 -1.9796e+001 -5.3392e-001 62480 78136,78188,78162
 1.0000e-001 78318  7.5953e-001 -1.7665e+001 -8.2460e-001 62480 78058,78292,78266
 1.0000e-001 78678 -9.3770e+000 -4.6035e+001  2.1067e+001 61926 78528,78606,78554
 1.0000e-001 78655 -1.3446e+001 -3.4735e+001  1.8322e+001 61926 78502,78606,78528
 1.0000e-001 78632  1.5924e+000 -3.8269e+001  2.5996e+000 61926 78554,78606,78580
 1.0000e-001 79058 -1.2753e+001 -1.9586e+001  1.3955e-001 61614 78836,78914,78862
 1.0000e-001 79035 -2.6061e+001 -1.7935e+001  1.3660e+000 61614 78810,78914,78836
 1.0000e-001 79012 -2.7724e+001 -1.9271e+001 -2.3437e+000 61614 78784,78914,78810
 1.0000e-001 78989 -1.9767e+001 -3.3370e+001 -3.6472e+000 61614 78862,78914,78888
 1.0000e-001 78966 -1.3644e+001 -1.8961e+001 -3.4863e+000 61614 78784,78940,78914
 1.0000e-001 79208 -2.1022e+000 -4.7609e+000  3.4142e+000 61366 79081,79133,79107
 1.0000e-001 79185 -9.4614e+000 -1.4898e+000  2.1686e+001 61366 79081,79159,79133
 1.0000e-001 79358  4.0374e+000 -1.2492e+001  6.0900e+000 60962 79231,79283,79257
 1.0000e-001 79335 -5.8556e+000 -1.3738e+001  1.4524e+001 60962 79231,79309,79283
 1.0000e-001 79608 -2.2022e+001 -1.8442e+001  1.2381e+001 60508 79631,79435,79409
 1.0000e-001 79585 -9.2186e+000 -1.5260e+001  9.9620e+000 60508 79703,79631,79409
 1.0000e-001 79562 -1.1382e+001 -9.7325e+000  1.0022e+001 60508 79703,79409,79383
 1.0000e-001 79539 -2.8028e+001 -2.7257e+001  2.6803e+001 60508 79435,79487,79461
 1.0000e-001 79657 -2.5014e+001 -2.5356e+001  2.7755e+001 60508 79487,79435,79631
 1.0000e-001 79680 -4.5071e+000 -1.4288e+001  2.1738e+001 60508 79487,79631,79513
 1.0000e-001 79729 -6.2771e+000 -9.7951e+000  8.1632e+000 60508 79513,79631,79703
 1.0000e-001 79752 -8.2869e+000 -8.2245e+000  6.9500e+000 60508 79513,79703,79383
 1.0000e-001 80390  1.1375e+001 -3.4417e+000 -2.2956e+000 59997 80413,80096,80018
 1.0000e-001 80367  3.3092e+001  7.6298e-001 -8.7631e+000 59997 80413,80018,80226
 1.0000e-001 80344 -9.5668e+000 -2.0545e+001 -7.5153e+000 59997 80096,80174,80148
 1.0000e-001 80321  2.5383e+001 -5.0683e+000 -1.8951e+000 59997 80018,80096,80070
 1.0000e-001 80298 -7.6113e+000  7.9889e+000  6.3467e+000 59997 80096,80148,80122
 1.0000e-001 80275  1.9362e+001 -5.4663e+000 -2.4901e+001 59997 80174,80226,80200
 1.0000e-001 80252  1.8705e+001  2.8050e+000  6.9811e+000 59997 80018,80070,80044
 1.0000e-001 80439  4.8426e+000 -2.3223e+000  3.1202e+000 59997 80174,80096,80413
 1.0000e-001 80462  1.3658e+001 -1.1712e+001 -2.2371e-001 59997 80174,80413,80226
 1.0000e-001 80840 -7.3210e+000 -3.1647e+000  7.1518e+000 59443 80863,80644,80618
 1.0000e-001 80817 -1.2434e+001 -1.4552e+001  1.9062e+000 59443 80863,80618,80566
 1.0000e-001 80794 -1.0534e+001 -1.7829e+001  4.8429e+000 59443 81007,80935,80670
 1.0000e-001 80771 -7.3113e+000 -1.7115e+001  6.3431e+000 59443 80566,80722,80696
 1.0000e-001 80748 -1.1589e+001 -2.0610e+000  1.3226e+001 59443 80566,80618,80592
 1.0000e-001 80889 -1.0460e+001 -1.5456e+001  5.1953e+000 59443 80935,80644,80863
 1.0000e-001 80912 -8.4740e+000 -1.7643e+001  2.1598e+000 59443 80696,80863,80566
 1.0000e-001 80961 -1.3367e+001 -2.1371e+001  1.4869e-001 59443 80696,80670,80935
 1.0000e-001 80984 -9.8075e+000 -1.3522e+001  2.3780e+000 59443 80696,80935,80863
 1.0000e-001 81033 -1.0192e+001 -1.2128e+001  4.8880e+000 59443 80644,80935,81007
 1.0000e-001 81360 -2.6169e+001 -5.2672e+001  3.1018e+001 59031 81383,81187,81161
 1.0000e-001 81337 -6.0751e+001 -5.5002e+001  4.7466e+001 59031 81455,81383,81161
 1.0000e-001 81314 -8.7674e+001 -4.9239e+001  4.4060e+001 59031 81455,81161,81135
 1.0000e-001 81291 -1.6884e+001 -2.0099e+001  1.4971e+001 59031 81187,81239,81213
 1.0000e-001 81409 -2.4099e+001 -2.9296e+001  1.1523e+001 59031 81239,81187,81383
 1.0000e-001 81432 -2.9830e+001 -3.9201e+001  3.4768e+001 59031 81239,81383,81265
 1.0000e-001 81481 -2.9596e+001 -5.2589e+001  3.7730e+001 59031 81265,81383,81455
 1.0000e-001 81504 -4.7788e+001 -4.1747e+001  3.8309e+001 59031 81265,81455,81135
 1.0000e-001 81835 -8.0288e+000 -2.0141e+001  9.0418e+000 58577 81610,81714,81636
 1.0000e-001 81812  1.2320e+001 -1.4085e+001  5.4462e+000 58577 81610,81740,81714
 1.0000e-001 81789 -2.0281e+001 -2.6020e+001 -6.6566e+000 58577 81636,81714,81688
 1.0000e-001 81766 -1.8800e+001 -2.0178e+001 -2.5413e+000 58577 81636,81688,81662
 1.0000e-001 81985 -5.0762e+000 -1.1878e+001  9.7584e+000 58030 81884,81936,81910
 1.0000e-001 81962 -1.4185e+001 -8.7658e+000  5.5479e+000 58030 81858,81936,81884
 1.0000e-001 82414 -8.3140e+000 -1.1359e+001  6.1619e+000 57690 82437,82169,82117
 1.0000e-001 82391 -5.8036e+000 -1.2820e+001  5.5592e+000 57690 82437,82117,82247
 1.0000e-001 82368 -3.9958e+000 -9.3356e+000  5.9295e+000 57690 82195,82247,82221
 1.0000e-001 82345 -2.4492e+000 -1.1692e+001  2.7260e+000 57690 82091,82247,82117
 1.0000e-001 82322 -3.1752e+000 -1.0347e+000  8.0416e+000 57690 82117,82169,82143
 1.0000e-001 82299 -7.4823e+000 -2.0579e+001  6.8669e+000 57690 82091,82273,82247
 1.0000e-001 82463 -6.4151e+000 -1.0070e+001  6.7661e+000 57690 82195,82169,82437
 1.0000e-001 82486 -4.9817e+000 -1.2066e+001  5.8845e+000 57690 82195,82437,82247
 1.0000e-001 83041 -1.5988e+001 -1.5527e+001 -1.5885e+000 57172 83064,82721,82695
 1.0000e-001 83018 -1.7963e+001 -1.8515e+001  4.9755e-001 57172 83064,82695,82851
 1.0000e-001 82995 -1.9777e+001 -1.9084e+001  8.4145e-001 57172 82669,82851,82695
 1.0000e-001 82972 -1.9516e+001 -1.8907e+001  2.5039e+000 57172 82773,82851,82825
 1.0000e-001 82949 -1.4526e+001 -1.7118e+001  3.3553e+000 57172 82773,82825,82799
 1.0000e-001 82926 -1.2188e+001 -6.0983e+000 -2.4373e+000 57172 82721,82773,82747
 1.0000e-001 82903 -1.8358e+001 -2.1949e+001 -2.3566e+000 57172 82669,82877,82851
 1.0000e-001 83090 -1.9109e+001 -1.7622e+001  5.5587e-001 57172 82773,82721,83064
 1.0000e-001 83113 -1.8707e+001 -1.9239e+001  2.3358e+000 57172 82773,83064,82851
 1.0000e-001 83747  4.2666e+000 -7.7760e+000  4.9488e+000 56554 83770,83427,83401
 1.0000e-001 83724 -3.2460e+000 -1.2688e+001  7.0773e+000 56554 83842,83770,83401
 1.0000e-001 83701 -2.8679e-001 -1.2334e+001  5.0518e+000 56554 83842,83401,83583
 1.0000e-001 83678 -1.5355e+001 -1.4635e+001  1.0811e+001 56554 83914,83531,83505
 1.0000e-001 83655 -1.6549e+001 -1.6797e+001  7.4493e+000 56554 83531,83583,83557
 1.0000e-001 83632  1.4931e+001 -8.3378e+000  1.1149e+001 56554 83375,83583,83401
 1.0000e-001 83609 -8.4335e+000 -9.1515e+000  8.1964e+000 56554 83427,83479,83453
 1.0000e-001 83796 -3.1443e+000 -5.7176e+000  5.5082e+000 56554 83479,83427,83770
 1.0000e-001 83819 -4.9895e+000 -7.5179e+000  6.2992e+000 56554 83479,83770,83505
 1.0000e-001 83868 -2.5103e+000 -7.1895e+000  4.9607e+000 56554 83505,83770,83842
 1.0000e-001 83891 -9.8532e+000 -1.2408e+001  7.2381e+000 56554 83914,83505,83842
 1.0000e-001 83940 -6.6655e+000 -1.4112e+001  7.2554e+000 56554 83583,83531,83914
 1.0000e-001 83963 -1.2061e+000 -1.4308e+001  5.3243e+000 56554 83583,83914,83842
 1.0000e-001 84341 -3.0063e+001 -9.4438e+001  4.6803e+001 56192 84067,84145,84119
 1.0000e-001 84318 -1.1110e-001 -3.6577e+001  3.2462e+001 56192 84067,84223,84145
 1.0000e-001 84295 -2.0655e+001 -7.8992e+001  2.3182e+001 56192 84145,84223,84197
 1.0000e-001 84272 -2.9322e+001 -7.9215e+000  5.4702e+000 56192 84067,84119,84093
 1.0000e-001 84249 -3.3291e+001 -2.0693e+001  2.6561e+001 56192 84145,84197,84171
 1.0000e-001 84611 -1.3500e+001 -3.1831e+001  3.0572e+001 55538 84386,84490,84412
 1.0000e-001 84588 -4.1076e+001 -2.6358e+001  3.4288e+001 55538 84386,84516,84490
 1.0000e-001 84565 -2.7188e+001 -3.7598e+001  3.0857e+001 55538 84412,84490,84464
 1.0000e-001 84542 -1.1889e+001 -2.7892e+001  2.2288e+001 55538 84412,84464,84438
 1.0000e-001 84942 -1.2359e+001 -1.8712e+001  1.0488e+001 55084 84769,84847,84795
 1.0000e-001 84919 -2.9150e+001 -2.1228e+001  1.2535e+001 55084 84717,84847,84769
 1.0000e-001 84896 -3.5198e+001 -4.2711e+001  1.5484e+001 55084 84717,84769,84743
 1.0000e-001 84873 -1.3729e+001 -7.8010e+000  8.3635e+000 55084 84795,84847,84821
 1.0000e-001 85271 -1.2172e+001 -4.8836e+000  6.7618e+000 54580 85294,85098,85072
 1.0000e-001 85248 -1.2803e+001 -9.2293e+000  8.2042e+000 54580 85294,85072,85176
 1.0000e-001 85225 -1.7866e+001 -1.7771e+001  1.0876e+001 54580 85124,85176,85150
 1.0000e-001 85202 -7.5296e+000 -1.1172e+001  2.5205e+000 54580 85046,85176,85072
 1.0000e-001 85320 -1.3894e+001 -2.7411e+000  8.4218e+000 54580 85124,85098,85294
 1.0000e-001 85343 -1.3757e+001 -6.1004e+000  8.8241e+000 54580 85124,85294,85176
 1.0000e-001 85542 -5.8850e+001 -5.5554e+001  5.5044e+001 53976 85565,85444,85418
 1.0000e-001 85519 -6.8678e+001 -4.9412e+001  4.5595e+001 53976 85565,85418,85366
 1.0000e-001 85496 -5.9035e+001 -2.3741e+001  4.6535e+001 53976 85366,85418,85392
 1.0000e-001 85591 -4.5573e+001 -5.0633e+001  5.6029e+001 53976 85470,85444,85565
 1.0000e-001 85614 -5.4380e+001 -4.5537e+001  4.3408e+001 53976 85470,85565,85366
 1.0000e-001 85960 -1.1758e+002 -9.5041e+001  8.6426e+001 53572 85663,85715,85689
 1.0000e-001 85937 -8.3494e+001 -4.4775e+001  5.2809e+001 53572 85983,85715,85663
 1.0000e-001 85914 -4.4093e+001 -1.4086e+001  3.9437e+001 53572 86055,85983,85663
 1.0000e-001 85891 -4.1755e+001 -1.1806e+001  2.5970e+001 53572 86055,85663,85637
 1.0000e-001 85868 -6.7365e+001 -1.0410e+002  4.9623e+001 53572 85637,85793,85767
 1.0000e-001 85845 -1.6987e+001 -5.9282e+000  1.3511e+001 53572 85637,85819,85793
 1.0000e-001 86009 -4.2102e+001 -8.9132e+001  4.8903e+001 53572 85741,85715,85983
 1.0000e-001 86032 -1.1571e+001 -4.8099e+001  3.5589e+001 53572 85741,85983,85767
 1.0000e-001 86081 -5.0386e+001 -4.9970e+001  5.2703e+001 53572 85767,85983,86055
 1.0000e-001 86104 -3.7510e+001 -3.1166e+001  3.8843e+001 53572 85767,86055,85637
 1.0000e-001 86693 -4.3582e+001  1.4649e+000  3.2114e+001 52946 86474,86526,86500
 1.0000e-001 86670 -1.0390e+001 -4.8101e+000  1.2410e+001 52946 86396,86526,86474
 1.0000e-001 86647 -4.4576e+001 -4.6877e+001  2.9901e+001 52946 86370,86526,86396
 1.0000e-001 86624 -1.5097e+000  2.8609e+000  6.2368e+000 52946 86422,86474,86448
 1.0000e-001 86601 -1.3547e+001 -1.1213e+001  1.1399e+001 52946 86396,86474,86422
 1.0000e-001 86578 -6.4765e+001 -4.1191e+001 -5.2494e+000 52946 86370,86552,86526
 1.0000e-001 87376 -4.1526e+001 -6.8024e+001  2.6320e+001 52420 87007,87085,87033
 1.0000e-001 87353 -2.8068e+001 -5.1566e+001  1.1411e+001 52420 87007,87163,87085
 1.0000e-001 87330 -4.4660e+001 -4.2845e+001  1.8845e+001 52420 87007,87189,87163
 1.0000e-001 87307 -2.0082e+001 -7.2884e+001  1.7088e+001 52420 87033,87085,87059
 1.0000e-001 87284 -4.0256e+001 -4.9687e+001  8.6515e-001 52420 87085,87137,87111
 1.0000e-001 87261 -2.3159e+001 -6.2082e+001 -1.5656e+000 52420 87085,87163,87137
 1.0000e-001 87238 -4.1839e+001 -3.5656e+001  1.8755e+001 52420 86955,87189,87007
 1.0000e-001 87215 -3.8583e+001 -3.3628e+001  1.4341e+001 52420 86955,87007,86981
 1.0000e-001 87624 -5.8901e+001 -5.4031e+001  4.6585e+001 51916 87451,87503,87477
 1.0000e-001 87601 -3.7732e+001 -4.8304e+001  5.5882e+001 51916 87425,87503,87451
 1.0000e-001 87578 -2.3083e+001 -2.2112e+001  7.4399e+001 51916 87425,87529,87503
 1.0000e-001 87555  1.1955e+001  2.4804e+001  9.2800e+001 51916 87399,87529,87425
 1.0000e-001 88053 -3.3747e+001 -2.9211e+001  9.6221e+000 51568 87782,87834,87808
 1.0000e-001 88030 -2.4036e+001 -2.5019e+001  7.0687e+000 51568 88076,87782,87886
 1.0000e-001 88007 -2.4573e+001 -2.6670e+001  5.5310e+000 51568 88076,87886,87860
 1.0000e-001 87984 -3.3652e+001 -2.4822e+001  3.3345e+000 51568 87756,87886,87782
 1.0000e-001 87961 -1.9623e+001 -1.8852e+001  3.5189e+000 51568 87756,87912,87886
 1.0000e-001 87938 -2.7264e+001 -4.2736e+001 -6.1001e-002 51568 87730,87912,87756
 1.0000e-001 88102 -2.3154e+001 -2.4046e+001  7.6654e+000 51568 87834,87782,88076
 1.0000e-001 88125 -2.2804e+001 -2.5031e+001  6.3155e+000 51568 87834,88076,87860
 1.0000e-001 88324 -3.1261e+000 -7.8396e+000  9.6586e+000 51164 88419,88347,88200
 1.0000e-001 88301 -4.2799e+000 -8.2237e+000  6.8113e+000 51164 88347,88148,88252
 1.0000e-001 88278 -2.1184e-001  3.3130e-001  9.5189e+000 51164 88419,88200,88174
 1.0000e-001 88373 -3.9050e+000 -1.3214e+001  8.5280e+000 51164 88226,88200,88347
 1.0000e-001 88396 -5.6101e+000 -8.2700e+000  6.9470e+000 51164 88226,88347,88252
 1.0000e-001 88445 -9.4795e-001 -6.9433e+000  5.0319e+000 51164 88148,88347,88419
 1.0000e-001 88468 -1.2632e+000 -7.6039e+000  4.6545e+000 51164 88148,88419,88174
 1.0000e-001 88738 -3.7946e+000 -8.2749e+000  5.7969e+000 50560 88513,88617,88539
 1.0000e-001 88715 -4.3233e+000 -1.0100e+001  6.0773e+000 50560 88513,88643,88617
 1.0000e-001 88692 -7.5582e+000 -7.2668e+000  7.0570e+000 50560 88539,88591,88565
 1.0000e-001 88669 -2.9771e+000 -6.9602e+000  6.2752e+000 50560 88539,88617,88591
 1.0000e-001 88939 -1.9193e+001 -1.9587e+001  3.5936e+000 50106 88962,88789,88763
 1.0000e-001 88916 -2.0548e+001 -2.3206e+001  4.3122e+000 50106 88962,88763,88841
 1.0000e-001 88893 -1.9581e+001 -2.0970e+001 -3.6127e+000 50106 88763,88867,88841
 1.0000e-001 88988 -2.0055e+001 -1.6142e+001  6.3350e+000 50106 88815,88789,88962
 1.0000e-001 89011 -2.5194e+001 -2.1775e+001  4.4282e+000 50106 89034,88962,88841
 1.0000e-001 89060 -2.0325e+001 -2.0257e+001  5.4616e+000 50106 88815,88962,89034
 1.0000e-001 89472 -1.8378e+001 -1.3216e+001  1.1032e+001 49666 89273,89351,89325
 1.0000e-001 89449 -1.6786e+001 -1.3685e+001  1.0970e+001 49666 89273,89377,89351
 1.0000e-001 89426 -1.9951e+001 -1.5055e+001  9.0838e+000 49666 89273,89325,89299
 1.0000e-001 89403 -1.5664e+001 -7.8022e+000  1.1401e+001 49666 89247,89377,89273
 1.0000e-001 89978 -1.6398e+001 -7.0663e+001  3.5469e+001 49205 89681,89837,89733
 1.0000e-001 89955 -5.4188e+001 -7.1743e+001  3.9504e+001 49205 89655,89837,89681
 1.0000e-001 89932 -5.0595e+001 -1.4038e+002  3.6804e+001 49205 89785,89837,89811
 1.0000e-001 89909 -2.0055e+001 -3.6653e+001  1.6987e+001 49205 89733,89837,89785
 1.0000e-001 89886 -4.3431e+001 -4.4396e+001  2.1657e+001 49205 89733,89785,89759
 1.0000e-001 89863 -5.3267e+001 -1.4730e+002  7.2559e+001 49205 89681,89733,89707
 1.0000e-001 90177 -3.4379e+001 -4.3527e+001  1.8421e+001 48865 90530,90200,90053
 1.0000e-001 90154 -4.9852e+001 -8.2479e+001  4.2413e+001 48865 90402,90200,90001
 1.0000e-001 90131 -5.7886e+001 -3.1491e+000  1.5324e+001 48865 90530,90053,90027
 1.0000e-001 90226 -4.8126e+001 -5.4784e+001  3.3205e+001 48865 90079,90053,90200
 1.0000e-001 90249 -4.6886e+001 -4.4951e+001  2.5309e+001 48865 90272,90200,90105
 1.0000e-001 90298 -2.9319e+001 -4.5053e+001  2.9400e+001 48865 90079,90200,90272
 1.0000e-001 90428 -3.3958e+001 -1.5151e+001  2.9822e+001 48865 90105,90200,90402
 1.0000e-001 90556 -4.6566e+001 -9.8324e+001  1.4124e+001 48865 90001,90200,90530
 1.0000e-001 90579 -6.3654e+001 -4.5606e+001 -5.9204e-001 48865 90001,90530,90027
 1.0000e-001 90827 -4.8849e+001 -4.1791e+001  2.7461e+001 48404 90850,90654,90628
 1.0000e-001 90804 -6.2276e+001 -4.8883e+001  3.4224e+001 48404 90850,90628,90732
 1.0000e-001 90781 -4.9015e+001 -3.3405e+001  1.6548e+001 48404 90680,90732,90706
 1.0000e-001 90758 -4.2508e+001 -3.5734e+001  4.1367e+001 48404 90602,90732,90628
 1.0000e-001 90876 -5.4725e+001 -3.1440e+001  1.8686e+001 48404 90680,90654,90850
 1.0000e-001 90899 -6.3130e+001 -4.0711e+001  2.4637e+001 48404 90680,90850,90732
 1.0000e-001 91000 -4.4218e+001 -1.0574e+002  8.4270e+001 48156 90922,90974,90948
 1.0000e-001 91250 -4.8555e+001 -1.1573e+002  8.2177e+001 47752 91051,91103,91077
 1.0000e-001 91227 -3.9482e+001 -1.2778e+001  5.0378e+001 47752 91025,91103,91051
 1.0000e-001 91204 -1.2457e+002 -6.7509e+001  9.9667e+001 47752 91025,91155,91103
 1.0000e-001 91181 -1.2887e+002 -5.0764e+001  8.3499e+001 47752 91103,91155,91129
 1.0000e-001 91402 -6.6376e+001 -3.4667e+001  5.1851e+000 47191 91425,91301,91275
 1.0000e-001 91379 -7.9091e+001 -3.9154e+001  1.4866e+001 47191 91497,91425,91275
 1.0000e-001 91451 -6.3949e+001 -3.7710e+001  1.1139e+001 47191 91327,91301,91425
 1.0000e-001 91474 -3.0060e+001 -2.9121e+001  1.3077e+001 47191 91327,91425,91353
 1.0000e-001 91523 -5.3691e+001 -2.3717e+001  2.2434e+000 47191 91353,91425,91497
 1.0000e-001 91854 -4.2506e+001 -5.6279e+001  5.0905e+001 46744 91949,91877,91707
 1.0000e-001 91831 -9.3090e+000 -5.6070e+001  2.8699e+001 46744 91877,91655,91629
 1.0000e-001 91808 -5.1584e+001 -4.8307e+001  4.5331e+001 46744 91949,91707,91681
 1.0000e-001 91785 -2.4103e+001 -5.2815e+001  1.3903e+001 46744 91629,91759,91733
 1.0000e-001 91903 -5.3254e+001 -6.3741e+001  5.5224e+001 46744 91733,91707,91877
 1.0000e-001 91926 -3.9306e+001 -8.3296e+001  4.2782e+001 46744 91733,91877,91629
 1.0000e-001 91975 -5.4010e+001 -7.0752e+001  4.4923e+001 46744 91655,91877,91949
 1.0000e-001 91998 -6.7128e+001 -6.2891e+001  3.9125e+001 46744 91655,91949,91681
 1.0000e-001 92378 -9.1636e+000 -6.9703e+000  4.2389e+000 46090 92130,92208,92182
 1.0000e-001 92355 -5.7599e+000 -4.8295e+000  6.9949e+000 46090 92104,92208,92130
 1.0000e-001 92332 -4.9305e+000 -2.5292e+000  6.2933e+000 46090 92104,92260,92208
 1.0000e-001 92309 -3.4952e+000 -4.5939e+000  8.4824e+000 46090 92208,92260,92234
 1.0000e-001 92286 -1.5309e+001 -1.1038e+001  6.0210e+000 46090 92130,92182,92156
 1.0000e-001 92626 -3.3577e+001 -4.3214e+001  7.7151e+000 45693 92721,92649,92505
 1.0000e-001 92603 -4.2376e+001 -4.3546e+001  1.6374e+001 45693 92649,92453,92427
 1.0000e-001 92580 -3.7118e+001 -3.3309e+001  6.3217e+000 45693 92721,92505,92479
 1.0000e-001 92557 -8.0466e+001 -4.6010e+001  1.8872e+001 45693 92401,92531,92427
 1.0000e-001 92675 -4.9414e+001 -4.3246e+001  9.9609e+000 45693 92531,92505,92649
 1.0000e-001 92698 -5.3641e+001 -4.6271e+001  2.4819e+001 45693 92531,92649,92427
 1.0000e-001 92747 -3.6571e+001 -3.1101e+001  7.3288e+000 45693 92453,92649,92721
 1.0000e-001 92770 -2.4575e+001  1.4223e+000  1.1279e+001 45693 92453,92721,92479
 1.0000e-001 93172 -4.0793e+000 -6.6716e+000  9.0377e+000 45331 92898,93028,92924
 1.0000e-001 93149 -1.9971e+000 -4.6782e+000  7.1951e+000 45331 92898,93054,93028
 1.0000e-001 93126 -7.5010e+000 -9.0641e+000  1.0610e+001 45331 92924,93002,92976
 1.0000e-001 93103 -2.5410e+000 -5.9570e+000  8.8549e+000 45331 92924,93028,93002
 1.0000e-001 93080 -8.3208e+000 -1.4241e+001  1.1340e+001 45331 92924,92976,92950
 1.0000e-001 93518 -1.0796e+001 -6.5344e+001  3.4568e+001 44820 93613,93273,93247
 1.0000e-001 93495 -7.3908e+001 -7.8254e+001  3.2528e+001 44820 93685,93541,93247
 1.0000e-001 93472 -6.2502e+001 -5.5305e+001  2.9874e+001 44820 93541,93195,93377
 1.0000e-001 93449 -8.3064e+001 -6.8972e+001  2.1011e+001 44820 93685,93247,93221
 1.0000e-001 93426 -6.9364e+001 -5.9501e+001  2.1955e+001 44820 93299,93377,93351
 1.0000e-001 93403 -3.8926e+001 -2.5867e+001  3.4680e+001 44820 93299,93351,93325
 1.0000e-001 93567 -5.9738e+001 -8.6815e+001  3.1186e+001 44820 93613,93247,93541
 1.0000e-001 93590 -7.5175e+001 -7.2717e+001  2.3086e+001 44820 93299,93541,93377
 1.0000e-001 93639 -6.2150e+001 -8.4914e+001  2.8999e+001 44820 93299,93273,93613
 1.0000e-001 93662 -6.2119e+001 -8.3923e+001  2.6581e+001 44820 93299,93613,93541
 1.0000e-001 93711 -5.7218e+001 -6.1998e+001  2.3575e+001 44820 93195,93541,93685
 1.0000e-001 93734 -5.4226e+001 -3.6522e+001  8.5439e+000 44820 93195,93685,93221
 1.0000e-001 94163 -3.3236e+001 -2.7004e+001  1.0895e+001 44237 94258,94186,93996
 1.0000e-001 94140 -4.3123e+001 -3.7615e+001  6.7349e+000 44237 94330,94022,93996
 1.0000e-001 94117 -4.8016e+001 -2.8450e+001  5.5782e+000 44237 94186,93918,93866
 1.0000e-001 94094 -3.3417e+001 -2.7415e+001  1.0862e+001 44237 94258,93996,93970
 1.0000e-001 94071 -3.6254e+001 -1.0451e+001  1.5432e+001 44237 94402,93944,93918
 1.0000e-001 94048 -3.5907e+001 -2.6906e+001  8.4630e+000 44237 93866,93918,93892
 1.0000e-001 94212 -4.3458e+001 -3.7721e+001  6.0422e+000 44237 94330,93996,94186
 1.0000e-001 94235 -4.3345e+001 -2.7420e+001  5.7803e+000 44237 93840,94186,93866
 1.0000e-001 94284 -4.7373e+001 -2.4733e+001  7.3503e+000 44237 93918,94186,94258
 1.0000e-001 94307 -3.5435e+001 -1.3171e+001  1.2107e+001 44237 94402,93918,94258
 1.0000e-001 94356 -5.5261e+001 -4.6361e+001  1.0555e+001 44237 93840,94022,94330
 1.0000e-001 94379 -4.3935e+001 -3.8227e+001  6.7986e+000 44237 93840,94330,94186
 1.0000e-001 94428 -2.7952e+001 -2.0351e+001  1.4763e+001 44237 93970,93944,94402
 1.0000e-001 94451 -3.2698e+001 -2.6224e+001  9.5190e+000 44237 93970,94402,94258
 1.0000e-001 94908 -2.7881e+001 -5.9413e+001  1.8967e+001 43890 94660,94790,94712
 1.0000e-001 94885 -4.3817e+001 -1.9180e+001  2.2994e+001 43890 94634,94790,94660
 1.0000e-001 94862 -4.4211e+001 -2.3148e+001  2.8996e+001 43890 94712,94764,94738
 1.0000e-001 94839 -3.0456e+001 -6.7785e+001  3.1305e+001 43890 94712,94790,94764
 1.0000e-001 94816 -2.7336e+001 -7.0837e+001  3.3403e+001 43890 94660,94712,94686
 1.0000e-001 95414 -2.5922e+001 -2.0914e+001  5.9252e+000 43186 95437,95143,95117
 1.0000e-001 95391 -2.6794e+001 -2.0331e+001  4.7271e+000 43186 95437,95117,95091
 1.0000e-001 95368 -2.1227e+001 -1.3932e+001  4.5830e+000 43186 95143,95221,95195
 1.0000e-001 95345 -2.7290e+001 -2.0212e+001  4.7591e+000 43186 95091,95273,95221
 1.0000e-001 95322 -2.7169e+001 -1.9536e+001  2.9767e+000 43186 95221,95273,95247
 1.0000e-001 95299 -1.8103e+001 -1.5954e+001  9.1690e+000 43186 95143,95195,95169
 1.0000e-001 95463 -2.4580e+001 -2.0457e+001  5.8514e+000 43186 95221,95143,95437
 1.0000e-001 95486 -2.5489e+001 -1.9865e+001  4.7198e+000 43186 95221,95437,95091
 1.0000e-001 96041 -2.1273e+001 -2.6029e+001  5.8844e+000 42782 95695,95851,95799
 1.0000e-001 96018 -2.2228e+001 -2.0972e+001  5.8438e+000 42782 95669,95851,95695
 1.0000e-001 95995 -3.5680e+001 -1.9681e+001  7.9865e+000 42782 95695,95747,95721
 1.0000e-001 95972 -2.0886e+001 -2.5876e+001  5.4676e+000 42782 95695,95799,95747
 1.0000e-001 95949 -1.5759e+001 -2.3481e+001  1.4652e+001 42782 95747,95799,95773
 1.0000e-001 95926 -2.8075e+001 -2.6484e+001  1.1488e+001 42782 95799,95851,95825
 1.0000e-001 95903 -1.8185e+001 -1.8258e+001  3.3845e+000 42782 95669,95877,95851
 1.0000e-001 96370 -7.4368e+001 -8.0940e+001  3.3972e+001 42420 96197,96275,96223
 1.0000e-001 96347 -7.2820e+001 -5.4132e+001  2.1093e+001 42420 96145,96275,96197
 1.0000e-001 96324 -6.1442e+001 -4.6131e+001  1.6713e+001 42420 96145,96197,96171
 1.0000e-001 96301 -5.8719e+001 -5.0150e+001  2.8575e+001 42420 96223,96275,96249
 1.0000e-001 96699 -6.8077e+001 -4.8656e+001  2.2790e+001 41816 96474,96578,96526
 1.0000e-001 96676 -3.8647e+001 -4.4437e+001  2.9976e+001 41816 96474,96604,96578
 1.0000e-001 96653 -3.3669e+001 -3.1690e+001  3.0867e+001 41816 96526,96578,96552
 1.0000e-001 96630 -5.9170e+001 -1.7445e+001  2.7934e+001 41816 96474,96526,96500
 1.0000e-001 96947 -2.6901e+001 -6.3642e+001  4.9491e+001 41212 96722,96800,96748
 1.0000e-001 96924 -4.5938e+001 -6.0806e+001  5.7899e+001 41212 96722,96826,96800
 1.0000e-001 96901 -7.4475e+001 -5.2115e+001  3.4788e+001 41212 96722,96852,96826
 1.0000e-001 96878 -6.0844e+001 -8.2535e+001  3.3075e+001 41212 96748,96800,96774
 1.0000e-001 97097 -1.5662e+001 -1.9363e+001  1.2213e+001 40793 97120,97022,96996
 1.0000e-001 97074 -2.6687e+001 -2.8116e+001  6.6354e+000 40793 97192,97120,96996
 1.0000e-001 97146 -1.0710e+001 -2.5028e+001  1.0508e+001 40793 97324,97120,97048
 1.0000e-001 97169 -1.1680e+001 -2.5543e+001  1.0109e+001 40793 97048,97120,96970
 1.0000e-001 97218 -7.4540e+000 -1.9828e+001  8.2333e+000 40793 96970,97120,97192
 1.0000e-001 97350 -1.0710e+001 -2.5028e+001  1.0508e+001 40793 97022,97120,97324
 1.0000e-001 97878 -2.7167e+001 -2.5699e+001  4.1117e+000 40446 97901,97607,97555
 1.0000e-001 97855 -3.0620e+001 -2.0841e+001  5.5837e+000 40446 97973,97901,97555
 1.0000e-001 97832 -3.0897e+001 -1.9317e+001  4.1274e+000 40446 97973,97555,97737
 1.0000e-001 97809 -2.2512e+001 -2.8615e+001  3.6457e+000 40446 97633,97685,97659
 1.0000e-001 97786 -2.0455e+001 -3.1240e+001  5.8722e+000 40446 97633,97711,97685
 1.0000e-001 97763 -1.5485e+001 -1.9451e+001  1.3388e+001 40446 97555,97607,97581
 1.0000e-001 97927 -3.2236e+001 -3.0427e+001  1.0910e+000 40446 97633,97607,97901
 1.0000e-001 97950 -3.1943e+001 -2.6000e+001  5.4415e+000 40446 97633,97901,97711
 1.0000e-001 97999 -3.0378e+001 -2.5408e+001  5.7472e+000 40446 97711,97901,97973
 1.0000e-001 98022 -2.9882e+001 -2.2281e+001  4.7403e+000 40446 97711,97973,97737
 1.0000e-001 98449 -7.5572e+001 -1.8359e+001  1.3016e+001 39935 98152,98204,98178
 1.0000e-001 98426 -6.8639e+001 -2.4488e+001  1.7256e+001 39935 98152,98230,98204
 1.0000e-001 98403 -7.1800e+001 -4.1777e+001  1.5703e+001 39935 98152,98256,98230
 1.0000e-001 98380 -8.3542e+001 -4.4006e+001  1.6577e+001 39935 98126,98256,98152
 1.0000e-001 98357 -7.3579e+001 -3.2654e+001  1.0837e+001 39935 98126,98282,98256
 1.0000e-001 98334 -5.2726e+001 -6.4005e+001  2.3980e+001 39935 98126,98308,98282
 1.0000e-001 98746 -9.7889e+001 -6.3665e+001  1.2416e+001 39531 98498,98602,98524
 1.0000e-001 98723 -8.9669e+001 -5.2846e+001  1.7978e+001 39531 98472,98602,98498
 1.0000e-001 98700 -7.8911e+001 -3.7970e+001  2.2964e+001 39531 98524,98602,98576
 1.0000e-001 98677 -5.8648e+001 -5.6484e+001  2.4419e+001 39531 98472,98628,98602
 1.0000e-001 98654 -1.0637e+002 -5.0226e+001  1.8521e+001 39531 98524,98576,98550
 1.0000e-001 99224 -9.6139e+001 -2.6527e+001  8.8093e+001 39027 99247,98956,98930
 1.0000e-001 99201 -1.0089e+002 -8.2262e+001  3.9330e+001 39027 99247,98930,98878
 1.0000e-001 99178 -6.4156e+001 -7.5913e+001  4.5078e+001 39027 99319,98982,98956
 1.0000e-001 99155 -8.1154e+001 -5.2302e+001  5.3712e+001 39027 98852,99060,98878
 1.0000e-001 99132 -1.1270e+002 -6.5823e+001  2.9139e+001 39027 98878,98930,98904
 1.0000e-001 99109 -1.1043e+002 -1.3596e+002  7.4115e+001 39027 98982,99060,99034
 1.0000e-001 99086 -1.1267e+002 -1.2211e+002  9.3942e+001 39027 98982,99034,99008
 1.0000e-001 99273 -5.7474e+001 -7.0780e+001  5.7713e+001 39027 99319,98956,99247
 1.0000e-001 99296 -8.2769e+001 -7.1718e+001  4.9983e+001 39027 99060,99247,98878
 1.0000e-001 99345 -7.6408e+001 -7.8976e+001  4.5871e+001 39027 99060,98982,99319
 1.0000e-001 99368 -8.3810e+001 -7.8960e+001  5.4448e+001 39027 99060,99319,99247
 1.0000e-001 99923 -5.9055e+001 -4.7012e+001  7.0816e+000 38523 99946,99655,99603
 1.0000e-001 99900 -5.2243e+001 -4.0331e+001  1.4143e+001 38523 99946,99603,99759
 1.0000e-001 99877 -5.8172e+001 -4.7148e+001  1.8222e+001 38523 100018,99707,99681
 1.0000e-001 99854 -5.9458e+001 -3.1617e+001  1.0027e+001 38523 99551,99759,99603
 1.0000e-001 99831 -7.2569e+001 -3.9454e+001  2.0634e+001 38523 99551,99603,99577
 1.0000e-001 99808 -5.6741e+001 -5.4972e+001  1.5046e+001 38523 99707,99759,99733
 1.0000e-001 99785 -8.5056e+001 -4.5797e+001  9.1301e+000 38523 99603,99655,99629
 1.0000e-001 99972 -4.7565e+001 -1.8535e+001  4.8883e+000 38523 99681,99655,99946
 1.0000e-001 99995 -5.3998e+001 -3.5596e+001  1.6643e+001 38523 100018,99681,99946
 1.0000e-001 100044 -5.2539e+001 -4.9248e+001  1.2049e+001 38523 99759,99707,100018
 1.0000e-001 100067 -5.4064e+001 -4.6976e+001  1.2416e+001 38523 99759,100018,99946
 1.0000e-001 100467 -4.5607e+001 -6.3560e+001  3.0239e+001 38125 100219,100349,100323
 1.0000e-001 100444  3.1573e+000  6.3983e+000  5.2368e+001 38125 100193,100349,100219
 1.0000e-001 100421 -1.8352e+001 -9.0404e+001  3.6840e+001 38125 100245,100323,100297
 1.0000e-001 100398 -2.2086e+001 -5.2064e+001  3.8548e+001 38125 100219,100323,100245
 1.0000e-001 100375 -5.3054e+001 -9.1489e+001  6.4449e+001 38125 100245,100297,100271
 1.0000e-001 100666 -9.9810e+001 -5.4590e+001  1.5433e+001 37607 100689,100568,100542
 1.0000e-001 100643 -1.0337e+002 -6.0481e+001  1.3020e+001 37607 100689,100542,100490
 1.0000e-001 100620 -1.1194e+002 -7.0123e+001  1.6770e+001 37607 100490,100542,100516
 1.0000e-001 100715 -9.6432e+001 -6.1116e+001  1.5490e+001 37607 100594,100568,100689
 1.0000e-001 100738 -9.9278e+001 -6.3048e+001  1.4458e+001 37607 100594,100689,100490
 1.0000e-001 100937 -7.9425e+001 -4.2023e+001  3.2133e+001 37017 100960,100813,100787
 1.0000e-001 100914 -8.9653e+001 -4.2604e+001  3.9729e+001 37017 100960,100787,100761
 1.0000e-001 100891 -5.1538e+001 -3.5158e+001  3.0302e+001 37017 100813,100865,100839
 1.0000e-001 100986 -6.6821e+001 -3.4263e+001  2.1680e+001 37017 100865,100813,100960
 1.0000e-001 101009 -8.5477e+001 -4.0193e+001  2.9595e+001 37017 100865,100960,100761
 1.0000e-001 101519 -9.9536e+001 -9.7076e+001  5.4016e+001 36613 101222,101274,101248
 1.0000e-001 101496 -7.5082e+001 -6.8649e+001  3.6651e+001 36613 101222,101352,101274
 1.0000e-001 101473 -8.5361e+001 -8.5696e+001  4.1276e+001 36613 101274,101352,101326
 1.0000e-001 101450 -5.7870e+001 -4.0415e+001  4.8711e+001 36613 101222,101378,101352
 1.0000e-001 101427 -7.9132e+001 -5.9129e+001  4.2701e+001 36613 101274,101326,101300
 1.0000e-001 101404 -5.0407e+001  4.0422e+000  4.0189e+000 36613 101196,101378,101222
 1.0000e-001 101718 -1.0220e+002 -4.2832e+001  2.3903e+001 36308 101594,101646,101620
 1.0000e-001 101695 -1.1067e+002 -5.6896e+001  1.6185e+001 36308 101568,101646,101594
 1.0000e-001 101672 -1.1938e+002 -4.0946e+001  1.5847e+001 36308 101542,101646,101568
 1.0000e-001 102098 -1.0714e+002 -5.1770e+001  2.2184e+001 35918 102121,101954,101876
 1.0000e-001 102075 -8.6809e+001 -6.0307e+001  1.9377e+001 35918 102121,101876,101824
 1.0000e-001 102052 -1.2329e+002 -6.0241e+001  1.2059e+001 35918 101876,101954,101928
 1.0000e-001 102029 -1.4177e+002 -3.8759e+001  1.2582e+001 35918 101876,101928,101902
 1.0000e-001 102006 -8.4394e+001 -5.4169e+001  1.6700e+001 35918 101824,101876,101850
 1.0000e-001 102147 -1.2570e+002 -5.9783e+001  2.5087e+001 35918 101980,101954,102121
 1.0000e-001 102170 -1.0175e+002 -6.6271e+001  2.2328e+001 35918 101980,102121,101824
 1.0000e-001 102489 -1.9424e+001 -3.4766e+001  1.9196e+001 35514 102241,102345,102267
 1.0000e-001 102466 -2.4125e+001 -3.2376e+001  1.5422e+001 35514 102215,102345,102241
 1.0000e-001 102443 -1.3604e+001 -3.1817e+001  1.4571e+001 35514 102215,102371,102345
 1.0000e-001 102420 -1.8126e+001 -4.3740e+001  1.8213e+001 35514 102267,102345,102293
 1.0000e-001 102397 -1.4274e+001 -3.3408e+001  1.6913e+001 35514 102293,102345,102319
 1.0000e-001 102820 -1.2703e+002 -8.1247e+001  1.4404e+001 35224 102843,102699,102647
 1.0000e-001 102797 -1.3288e+002 -7.8746e+001  3.1528e+001 35224 102971,102725,102699
 1.0000e-001 102774 -9.0317e+001 -7.6331e+001  5.3722e+001 35224 102595,102725,102621
 1.0000e-001 102751 -1.1614e+002 -4.4019e+001  2.3313e+001 35224 102647,102699,102673
 1.0000e-001 102869 -1.0647e+002 -7.0390e+001  2.7664e+001 35224 102971,102699,102843
 1.0000e-001 102997 -1.0037e+002 -9.2241e+001  3.3671e+001 35224 102621,102725,102971
 1.0000e-001 103020 -7.0611e+001 -8.2154e+001  3.2517e+001 35224 102621,102971,102843
 1.0000e-001 103349 -5.9811e+001 -3.1609e+001  2.5609e+001 34820 103150,103228,103176
 1.0000e-001 103326 -7.0802e+001 -3.2003e+001  2.4081e+001 34820 103124,103228,103150
 1.0000e-001 103303 -6.2308e+001 -4.3762e+001  2.9919e+001 34820 103176,103228,103202
 1.0000e-001 103280 -9.3021e+001 -4.3287e+001  1.3601e+001 34820 103124,103254,103228
 1.0000e-001 103806 -1.1229e+002 -6.6494e+001  1.9324e+001 34530 103558,103662,103636
 1.0000e-001 103783 -1.0762e+002 -6.0066e+001  2.4766e+001 34530 103558,103688,103662
 1.0000e-001 103760 -1.1279e+002 -7.2788e+001  2.4561e+001 34530 103532,103688,103558
 1.0000e-001 103737 -1.7077e+002 -8.7980e+001  3.2073e+001 34530 103584,103636,103610
 1.0000e-001 103714 -1.5924e+002 -9.2639e+001  2.9933e+001 34530 103558,103636,103584
 1.0000e-001 104263 -2.6770e+001 -1.2249e+001  1.4899e+001 34019 103989,104119,104015
 1.0000e-001 104240 -3.8019e+001 -1.5339e+001  1.8546e+001 34019 103989,104145,104119
 1.0000e-001 104217 -2.5632e+001 -2.6641e+001  4.6400e+000 34019 104015,104067,104041
 1.0000e-001 104194 -2.5733e+001 -2.6978e+001  1.3312e+001 34019 104015,104119,104067
 1.0000e-001 104171 -3.2062e+001  3.0299e+000  1.1445e+001 34019 104067,104119,104093
 1.0000e-001 104641 -1.0007e+002 -4.3682e+001  2.1757e+001 33351 104419,104497,104445
 1.0000e-001 104618 -1.0593e+002 -6.0559e+001  1.1972e+001 33351 104393,104497,104419
 1.0000e-001 104595 -1.3370e+002 -6.9488e+001  2.0194e+001 33351 104367,104497,104393
 1.0000e-001 104572 -9.7191e+001 -3.7671e+001  1.8351e+001 33351 104445,104497,104471
 1.0000e-001 104549 -1.3080e+002 -7.0181e+001  1.8340e+001 33351 104367,104523,104497
 1.0000e-001 105019 -3.5261e+001 -4.4104e+001  2.0153e+001 32861 104823,104901,104875
 1.0000e-001 104996 -3.6652e+001 -3.5227e+001  1.8600e+001 32861 104745,104901,104823
 1.0000e-001 104973 -4.7812e+001 -5.0057e+001  1.7006e+001 32861 104823,104875,104849
 1.0000e-001 104950 -3.8057e+001 -3.7572e+001  2.0194e+001 32861 104745,104823,104797
 1.0000e-001 104927 -1.9323e+001  9.1470e+000  2.9042e+001 32861 104745,104797,104771
 1.0000e-001 105397 -5.2437e+001 -3.5103e+001  2.4795e+001 32457 105149,105253,105175
 1.0000e-001 105374 -6.0348e+001 -3.7409e+001  2.5499e+001 32457 105149,105279,105253
 1.0000e-001 105351 -7.7303e+001 -4.4884e+001  2.2586e+001 32457 105123,105279,105149
 1.0000e-001 105328 -1.2248e+002 -1.4581e+001  5.0576e+001 32457 105175,105227,105201
 1.0000e-001 105305 -1.1144e+002 -6.0192e+001  2.5168e+001 32457 105175,105253,105227
 1.0000e-001 105726 -5.1292e+001 -4.4816e+001  1.3887e+001 32003 105527,105605,105553
 1.0000e-001 105703 -7.6870e+001 -3.3956e+001  8.1299e+000 32003 105501,105605,105527
 1.0000e-001 105680 -7.0729e+001 -3.0640e+001  6.4600e+000 32003 105501,105631,105605
 1.0000e-001 105657 -4.0374e+001 -3.3984e+001  7.6663e+000 32003 105553,105605,105579
 1.0000e-001 106104 -1.0149e+002 -4.3058e+001  5.9738e+001 31492 106127,105908,105856
 1.0000e-001 106081 -1.2811e+002 -5.4062e+001  4.7118e+001 31492 106127,105856,105830
 1.0000e-001 106058 -1.1286e+002 -5.2464e+001  6.3788e+001 31492 105856,105908,105882
 1.0000e-001 106035 -1.2825e+002 -8.7680e+001  3.4565e+001 31492 105830,105986,105960
 1.0000e-001 106012 -7.7251e+001 -3.9827e+001  4.7360e+001 31492 105908,105960,105934
 1.0000e-001 106153 -9.2883e+001 -6.2576e+001  4.0551e+001 31492 105960,105908,106127
 1.0000e-001 106176 -1.0923e+002 -7.5690e+001  2.9381e+001 31492 105960,106127,105830
 1.0000e-001 106375 -9.7434e+001 -3.2379e+001  3.0241e+001 30788 106398,106277,106251
 1.0000e-001 106352 -1.2631e+002 -5.0581e+001  1.0393e+001 30788 106398,106251,106225
 1.0000e-001 106329 -1.1380e+002 -6.9070e+001  2.0541e+001 30788 106600,106199,106303
 1.0000e-001 106424 -1.0415e+002 -6.3170e+001  2.7774e+001 30788 106470,106398,106303
 1.0000e-001 106447 -1.0873e+002 -6.2831e+001  2.4549e+001 30788 106600,106303,106398
 1.0000e-001 106496 -4.0424e+001 -3.6304e+001  1.9106e+001 30788 106277,106398,106470
 1.0000e-001 106626 -1.1309e+002 -5.9880e+001  2.4803e+001 30788 106225,106199,106600
 1.0000e-001 106649 -1.1295e+002 -5.6752e+001  2.7566e+001 30788 106225,106600,106398
 1.0000e-001 106799 -3.8670e+001 -3.3327e+001  2.6502e+001 30426 106698,106750,106724
 1.0000e-001 106776 -1.5532e+001 -3.6674e+001  3.4895e+001 30426 106672,106750,106698
 1.0000e-001 107356 -1.3733e+002 -6.3514e+001  1.0312e+001 29972 107010,107166,107114
 1.0000e-001 107333 -1.3662e+002 -5.1006e+001  2.3484e+001 29972 106984,107166,107010
 1.0000e-001 107310 -1.3679e+002 -4.4359e+001  7.7631e-001 29972 107010,107114,107088
 1.0000e-001 107287 -1.0487e+002 -9.2444e+000  2.6979e+001 29972 107114,107166,107140
 1.0000e-001 107264 -1.5924e+002 -8.4337e+001  4.2310e+001 29972 106984,107192,107166
 1.0000e-001 107241 -1.2429e+002 -7.2651e+001 -1.4394e+001 29972 107010,107088,107036
 1.0000e-001 107218 -1.0230e+002 -6.2897e+001 -2.5169e+001 29972 107036,107088,107062
 1.0000e-001 107783 -4.1981e+001 -4.1234e+001  2.0946e+001 29724 107878,107806,107590
 1.0000e-001 107760 -7.8081e+001 -4.3917e+001  1.6825e+001 29724 107806,107512,107486
 1.0000e-001 107737 -4.0228e+001 -4.0511e+001  2.1099e+001 29724 107878,107590,107538
 1.0000e-001 107714 -5.0540e+001 -4.9485e+001  2.2471e+001 29724 107950,107460,107616
 1.0000e-001 107691 -4.7478e+001 -4.8179e+001  2.2452e+001 29724 107460,107642,107616
 1.0000e-001 107668 -8.3995e+000 -3.9891e+001  2.6796e+001 29724 107538,107590,107564
 1.0000e-001 107832 -2.3262e+001 -4.0344e+001  3.1526e+001 29724 107616,107590,107806
 1.0000e-001 107855 -5.2507e+001 -4.9500e+001  2.4218e+001 29724 107950,107616,107806
 1.0000e-001 107904 -4.9687e+001 -4.0682e+001  2.9891e+001 29724 107512,107806,107878
 1.0000e-001 107927 -3.3504e+001 -3.3119e+001  3.2250e+001 29724 107512,107878,107538
 1.0000e-001 107976 -3.5574e+001 -4.1835e+001  1.9753e+001 29724 107486,107460,107950
 1.0000e-001 107999 -4.9621e+001 -4.8592e+001  2.3108e+001 29724 107486,107950,107806
 1.0000e-001 108296 -2.8440e+001 -3.9290e+001  2.2664e+001 29206 108319,108100,108048
 1.0000e-001 108273 -2.6699e+001 -3.7781e+001  2.1125e+001 29206 108319,108048,108022
 1.0000e-001 108250 -1.7377e+001 -4.0707e+001  2.1300e+001 29206 108391,108152,108126
 1.0000e-001 108227 -5.6680e+001 -3.3250e+001  3.6147e+001 29206 108048,108100,108074
 1.0000e-001 108204 -1.9602e+001 -4.2118e+001  1.7893e+001 29206 108022,108178,108152
 1.0000e-001 108345 -2.8274e+001 -4.1811e+001  2.5811e+001 29206 108126,108100,108319
 1.0000e-001 108368 -2.1491e+001 -3.7587e+001  2.4011e+001 29206 108391,108126,108319
 1.0000e-001 108417 -2.5792e+001 -4.5201e+001  1.9608e+001 29206 108022,108152,108391
 1.0000e-001 108440 -2.8363e+001 -4.1704e+001  2.2125e+001 29206 108022,108391,108319
 1.0000e-001 108688 -1.2536e+002 -6.9701e+001  2.8735e+001 28595 108711,108541,108515
 1.0000e-001 108665 -1.3816e+002 -6.9579e+001  3.7987e+001 28595 108783,108711,108515
 1.0000e-001 108642 -1.4898e+002 -6.1276e+001  3.7602e+001 28595 108783,108515,108489
 1.0000e-001 108619 -1.6887e+002 -7.2013e+001  3.2111e+001 28595 108463,108593,108489
 1.0000e-001 108737 -1.2088e+002 -6.0414e+001  2.6065e+001 28595 108567,108541,108711
 1.0000e-001 108760 -1.1456e+002 -6.0902e+001  3.7287e+001 28595 108567,108711,108593
 1.0000e-001 108809 -1.1973e+002 -6.5357e+001  3.1375e+001 28595 108593,108711,108783
 1.0000e-001 108832 -1.3502e+002 -5.8931e+001  2.8747e+001 28595 108593,108783,108489
 1.0000e-001 109033 -1.2966e+002 -5.9540e+001  3.0132e+001 28091 108909,108961,108935
 1.0000e-001 109010 -1.3220e+002 -5.3130e+001  3.0104e+001 28091 108857,108961,108909
 1.0000e-001 108987 -1.4853e+002 -6.7738e+001  4.5118e+001 28091 108857,108909,108883
 1.0000e-001 109136 -2.3407e+001 -5.4761e+001  2.0291e+001 27587 109058,109110,109084
 1.0000e-001 109695 -1.0442e+002 -7.6865e+001  1.7883e+001 26969 109718,109375,109323
 1.0000e-001 109672 -1.0723e+002 -6.9566e+001  2.5906e+001 26969 109718,109323,109505
 1.0000e-001 109649 -1.2698e+002 -1.7790e+001  3.5719e+000 26969 109790,109453,109427
 1.0000e-001 109626 -4.7820e+001 -9.8011e+001  3.2333e+001 26969 109323,109375,109349
 1.0000e-001 109603 -1.4230e+002 -1.0002e+002  4.2418e+001 26969 109323,109531,109505
 1.0000e-001 109580 -7.0951e+001 -7.3759e+001 -2.1200e+000 26969 109375,109427,109401
 1.0000e-001 109557 -1.2114e+002 -2.8378e+000 -1.5864e+001 26969 109453,109505,109479
 1.0000e-001 109744 -1.1326e+002 -9.0155e+001  2.8141e+000 26969 109427,109375,109718
 1.0000e-001 109767 -9.2961e+001 -4.4334e+001  7.1479e+000 26969 109790,109427,109718
 1.0000e-001 109816 -1.4810e+002 -4.3884e+001  1.6072e+001 26969 109505,109453,109790
 1.0000e-001 109839 -1.2562e+002 -7.7160e+001  2.3787e+001 26969 109505,109790,109718
 1.0000e-001 110266 -9.4461e+001 -9.7283e+001  5.5019e+001 26515 110361,110289,110099
 1.0000e-001 110243 -1.1685e+002 -1.0622e+002  8.5699e+001 26515 110289,109995,109943
 1.0000e-001 110220 -7.2882e+001 -8.8958e+001  6.0211e+001 26515 110361,110099,110021
 1.0000e-001 110197 -8.1097e+000 -2.6437e+001  4.5813e+000 26515 110047,110099,110073
 1.0000e-001 110174 -2.7186e+001 -9.6284e+001  5.6829e+001 26515 110021,110099,110047
 1.0000e-001 110151 -1.6459e+000 -1.1468e+001  1.4565e+002 26515 109943,109995,109969
 1.0000e-001 110315 -1.3987e+002 -1.0232e+002  5.8321e+001 26515 110125,110099,110289
 1.0000e-001 110338 -9.2011e+001 -6.8677e+001  7.4876e+001 26515 110125,110289,109943
 1.0000e-001 110387 -7.5156e+001 -9.3102e+001  7.7754e+001 26515 109995,110289,110361
 1.0000e-001 110410 -5.9062e+001 -9.1909e+001  8.0800e+001 26515 109995,110361,110021
 1.0000e-001 110609 -6.1042e+001 -3.6760e+001  9.6469e+000 25789 110906,110762,110632
 1.0000e-001 110586 -5.1036e+001 -3.7152e+001  2.0655e+001 25789 110762,110433,110537
 1.0000e-001 110563 -7.0354e+001 -4.7556e+001  1.9189e+001 25789 110834,110459,110433
 1.0000e-001 110658 -6.3430e+001 -4.7719e+001  1.0058e+001 25789 110906,110632,110834
 1.0000e-001 110788 -4.9094e+001 -1.0531e+001  1.2924e+001 25789 110511,110632,110762
 1.0000e-001 110811 -3.9429e+001 -2.8197e+001  2.6306e+001 25789 110511,110762,110537
 1.0000e-001 110860 -5.6640e+001 -4.1558e+001  1.8380e+001 25789 110485,110459,110834
 1.0000e-001 110883 -6.5183e+001 -5.9455e+001  1.5846e+001 25789 110485,110834,110632
 1.0000e-001 110932 -6.5788e+001 -2.9960e+001  1.7959e+001 25789 110433,110762,110906
 1.0000e-001 110955 -6.4524e+001 -3.4422e+001  1.6995e+001 25789 110433,110906,110834
 1.0000e-001 111350 -1.5244e+002 -8.9179e+001  3.1199e+001 25228 111445,111373,111186
 1.0000e-001 111327 -1.9809e+002 -1.0319e+002  2.7388e+001 25228 110978,111186,111004
 1.0000e-001 111304 -1.4531e+002 -8.9429e+001  3.1998e+001 25228 111373,111108,111082
 1.0000e-001 111281 -1.1695e+002 -9.1239e+001  4.4915e+000 25228 111134,111186,111160
 1.0000e-001 111258 -1.5359e+002 -8.8284e+001  2.4972e+001 25228 111445,111186,111134
 1.0000e-001 111235 -1.4780e+002 -8.9248e+001  3.2996e+001 25228 111517,111030,111004
 1.0000e-001 111212 -1.4285e+002 -9.7170e+001  2.8284e+001 25228 111030,111082,111056
 1.0000e-001 111399 -1.4668e+002 -8.1026e+001  3.3769e+001 25228 111004,111186,111373
 1.0000e-001 111422 -1.4745e+002 -8.8445e+001  3.3054e+001 25228 111517,111004,111373
 1.0000e-001 111471 -1.4316e+002 -8.5210e+001  3.1123e+001 25228 111108,111373,111445
 1.0000e-001 111494 -1.4450e+002 -8.4404e+001  2.4787e+001 25228 111108,111445,111134
 1.0000e-001 111543 -1.4814e+002 -8.9814e+001  3.1656e+001 25228 111082,111030,111517
 1.0000e-001 111566 -1.4757e+002 -8.8505e+001  3.1759e+001 25228 111082,111517,111373
 1.0000e-001 112074 -1.7337e+002 -9.0761e+001  2.2663e+001 24338 112097,111907,111881
 1.0000e-001 112051 -1.6587e+002 -8.8875e+001  2.5454e+001 24338 112097,111881,111829
 1.0000e-001 112028 -1.3563e+002 -8.8085e+001  2.6094e+001 24338 111829,111881,111855
 1.0000e-001 112005 -1.5488e+002 -9.0100e+001  1.5139e+001 24338 111777,111933,111829
 1.0000e-001 111982 -1.6597e+002 -3.3375e+001  1.7514e+001 24338 111751,111933,111777
 1.0000e-001 111959 -1.6203e+002 -1.2594e+002  3.8637e+001 24338 111777,111829,111803
 1.0000e-001 112123 -1.6777e+002 -8.7437e+001  2.9025e+001 24338 111933,111907,112097
 1.0000e-001 112146 -1.6090e+002 -8.9951e+001  2.9575e+001 24338 111933,112097,111829
 1.0000e-001 112443 -1.2830e+002 -8.8354e+001  1.3832e+001 23998 112466,112299,112247
 1.0000e-001 112420 -1.4458e+002 -1.1256e+002  2.0928e+001 23998 112466,112247,112221
 1.0000e-001 112397 -1.7174e+002 -1.0880e+002  2.3377e+001 23998 112169,112325,112221
 1.0000e-001 112374 -1.5119e+002 -7.9921e+001  3.5005e+001 23998 112169,112221,112195
 1.0000e-001 112351 -1.4731e+002 -7.9670e+001  1.1405e+001 23998 112247,112299,112273
 1.0000e-001 112492 -1.4244e+002 -9.5429e+001  2.7976e+001 23998 112325,112299,112466
 1.0000e-001 112515 -1.4796e+002 -1.0525e+002  3.1547e+001 23998 112325,112466,112221
 1.0000e-001 113200 -8.4938e+001 -8.8735e+001  3.3352e+001 23480 112779,112961,112805
 1.0000e-001 113177 -7.7054e+001 -6.8124e+001  2.8740e+001 23480 112779,112987,112961
 1.0000e-001 113154 -6.2639e+001 -6.1407e+001  2.3595e+001 23480 112805,112961,112883
 1.0000e-001 113131 -1.1729e+002 -8.6723e+001  2.0540e+001 23480 112883,112935,112909
 1.0000e-001 113108 -9.9433e+001 -7.9575e+001  1.6037e+001 23480 112883,112961,112935
 1.0000e-001 113085 -1.0765e+002 -7.5008e+001  1.7419e+001 23480 112831,112883,112857
 1.0000e-001 113062 -8.2120e+001 -7.7619e+001  9.3434e+000 23480 112805,112883,112831
 1.0000e-001 113039 -1.0777e+002 -4.6554e+001  3.2910e+001 23480 112779,113013,112987
 1.0000e-001 113676 -5.5646e+001 -5.0533e+001  2.0606e+001 23018 113699,113434,113356
 1.0000e-001 113653 -4.5572e+001 -4.5515e+001  2.4300e+001 23018 113771,113699,113356
 1.0000e-001 113630 -4.3235e+001 -4.7034e+001  2.3823e+001 23018 113771,113356,113512
 1.0000e-001 113607 -3.9941e+001 -5.2253e+001  2.7631e+001 23018 113330,113512,113356
 1.0000e-001 113584 -8.4201e+001 -3.5513e+001  2.7443e+001 23018 113356,113434,113382
 1.0000e-001 113561 -1.0628e+001 -4.5221e+001  2.9491e+001 23018 113304,113512,113330
 1.0000e-001 113538 -9.4612e+001 -2.5405e+001  1.2759e+001 23018 113382,113434,113408
 1.0000e-001 113725 -5.3443e+001 -4.8822e+001  2.8552e+001 23018 113460,113434,113699
 1.0000e-001 113748 -3.8870e+001 -4.1895e+001  3.2277e+001 23018 113460,113699,113486
 1.0000e-001 113797 -5.0926e+001 -4.7274e+001  2.7524e+001 23018 113486,113699,113771
 1.0000e-001 113820 -4.5265e+001 -4.6039e+001  2.6777e+001 23018 113486,113771,113512
 1.0000e-001 114424 -1.5714e+002 -1.1362e+002  1.5939e+001 22514 114447,114133,114029
 1.0000e-001 114401 -1.5864e+002 -1.2068e+002  1.6881e+001 22514 114447,114029,114237
 1.0000e-001 114378 -1.7429e+002 -1.0461e+002 -6.8420e+000 22514 114133,114211,114185
 1.0000e-001 114355 -2.3329e+002 -1.2049e+002 -1.3360e+001 22514 114133,114185,114159
 1.0000e-001 114332 -1.6696e+002 -1.2928e+002  3.8346e+001 22514 114003,114237,114029
 1.0000e-001 114309 -1.5945e+002 -1.0029e+002  8.4141e+000 22514 114029,114133,114055
 1.0000e-001 114286 -1.2603e+002 -9.4869e+001 -3.3975e+000 22514 114055,114133,114107
 1.0000e-001 114263 -1.1495e+002 -1.8322e+001 -4.1250e+001 22514 114055,114107,114081
 1.0000e-001 114473 -1.6047e+002 -1.0917e+002  1.8297e+001 22514 114211,114133,114447
 1.0000e-001 114496 -1.6070e+002 -1.1448e+002  1.8949e+001 22514 114211,114447,114237
 1.0000e-001 114597 -5.7312e+001 -1.3662e+002  8.9546e+001 22316 114620,114571,114545
 1.0000e-001 114646 -5.7312e+001 -1.3662e+002  8.9546e+001 22316 114519,114571,114620
 1.0000e-001 115127 -2.0516e+002 -1.0841e+002  2.6620e+001 21612 115150,114905,114879
 1.0000e-001 115104 -2.1151e+002 -8.1278e+001  2.8656e+001 21612 115150,114879,114853
 1.0000e-001 115081 -2.0316e+002 -8.8232e+001  3.6543e+001 21612 115222,114931,114905
 1.0000e-001 115058 -2.0194e+002 -9.1689e+001  3.6419e+001 21612 115222,114905,115009
 1.0000e-001 115035 -1.6821e+002 -7.3471e+001  2.5957e+001 21612 114957,115009,114983
 1.0000e-001 115176 -2.0137e+002 -8.5826e+001  2.7075e+001 21612 115009,114905,115150
 1.0000e-001 115199 -2.0522e+002 -5.4993e+001  2.8235e+001 21612 115009,115150,114853
 1.0000e-001 115248 -2.0379e+002 -9.0910e+001  3.6594e+001 21612 114957,114931,115222
 1.0000e-001 115271 -2.0233e+002 -9.4035e+001  3.6389e+001 21612 114957,115222,115009
 1.0000e-001 115519 -8.2498e+001 -4.5808e+001  6.0648e+001 21208 115542,115372,115320
 1.0000e-001 115496 -5.8311e+001 -3.1575e+001  2.8631e+001 21208 115542,115320,115294
 1.0000e-001 115473 -3.5909e+001 -8.5250e+001  6.3742e+001 21208 115320,115372,115346
 1.0000e-001 115450 -1.1502e+002 -5.1335e+001 -4.5296e+000 21208 115294,115424,115398
 1.0000e-001 115568 -9.0614e+001 -6.1503e+001  6.3585e+001 21208 115398,115372,115542
 1.0000e-001 115591 -8.6576e+001 -8.8955e+001  3.7717e+001 21208 115398,115542,115294
 1.0000e-001 115839 -1.9116e+002 -8.8192e+001  3.5219e+001 20668 115862,115640,115614
 1.0000e-001 115816 -2.0931e+002 -7.7811e+001  4.3313e+001 20668 115862,115614,115744
 1.0000e-001 115793 -2.6553e+002 -1.1618e+002  2.6057e+001 20668 115640,115718,115692
 1.0000e-001 115770 -2.7737e+002 -1.1882e+002  2.4671e+001 20668 115640,115692,115666
 1.0000e-001 115888 -2.1117e+002 -9.7180e+001  3.0380e+001 20668 115718,115640,115862
 1.0000e-001 115911 -2.2276e+002 -8.2100e+001  4.1923e+001 20668 115718,115862,115744
 1.0000e-001 116134 -1.4070e+001 -4.5576e+001  3.1776e+001 20264 115958,116036,115984
 1.0000e-001 116111 -2.0462e+001 -4.8102e+001  3.1539e+001 20264 115958,116062,116036
 1.0000e-001 116088 -2.1311e+001 -5.0037e+001  2.9532e+001 20264 115984,116036,116010
 1.0000e-001 116384 -1.5349e+002 -7.7957e+001  1.8501e+001 19924 116407,116211,116159
 1.0000e-001 116361 -1.5408e+002 -9.3721e+001  1.7868e+001 19924 116407,116159,116263
 1.0000e-001 116338 -1.4952e+002 -6.9574e+001  1.9613e+001 19924 116159,116211,116185
 1.0000e-001 116315 -1.4544e+002 -9.8343e+001  3.0509e+001 19924 116159,116289,116263
 1.0000e-001 116433 -1.5717e+002 -6.7236e+001  2.1388e+001 19924 116237,116211,116407
 1.0000e-001 116456 -1.5395e+002 -7.8842e+001  2.2253e+001 19924 116237,116407,116263
 1.0000e-001 116608 -1.5678e+002 -6.7118e+001  2.3587e+001 19520 116703,116631,116533
 1.0000e-001 116585 -1.5300e+002 -6.2101e+001  2.6098e+001 19520 116631,116507,116481
 1.0000e-001 116657 -1.7088e+002 -6.2238e+001  1.9735e+001 19520 116559,116533,116631
 1.0000e-001 116680 -1.6055e+002 -4.9900e+001  2.4594e+001 19520 116559,116631,116481
 1.0000e-001 116729 -1.5678e+002 -6.7118e+001  2.3587e+001 19520 116507,116631,116703
 1.0000e-001 116952 -2.7214e+001 -2.6597e+001  3.8402e+001 19208 116975,116802,116776
 1.0000e-001 116929 -3.4490e+001 -5.1704e+001  2.6415e+001 19208 116975,116776,116880
 1.0000e-001 116906 -5.7834e+001 -2.4729e+001  2.4327e+001 19208 116802,116854,116828
 1.0000e-001 117001 -2.4834e+001 -2.1714e+001  4.1112e+001 19208 116854,116802,116975
 1.0000e-001 117024 -1.2145e+001 -2.8792e+001  3.5473e+001 19208 116854,116975,116880
 1.0000e-001 117428 -9.5823e+001 -4.0875e+001  1.8230e+001 18796 117154,117206,117180
 1.0000e-001 117405 -9.5715e+001 -5.5603e+001  2.0897e+001 18796 117154,117284,117206
 1.0000e-001 117382 -1.1200e+002 -6.1688e+001  2.2210e+001 18796 117154,117310,117284
 1.0000e-001 117359 -8.4503e+001 -3.8380e+001  2.6491e+001 18796 117206,117284,117258
 1.0000e-001 117336 -9.5592e+001 -4.0946e+001  2.6018e+001 18796 117206,117258,117232
 1.0000e-001 117529 -7.2006e+001 -2.4926e+001  2.0847e+001 18228 117810,117552,117477
 1.0000e-001 117578 -7.0786e+001 -5.8065e+001  2.0743e+001 18228 117682,117552,117503
 1.0000e-001 117708 -3.6232e+001 -4.3397e+001  2.0732e+001 18228 117477,117552,117682
 1.0000e-001 117836 -7.5199e+001 -5.0560e+001  1.2598e+001 18228 117451,117552,117810
 1.0000e-001 118364 -1.5141e+002 -6.4886e+001  2.6952e+001 17722 118067,118223,118093
 1.0000e-001 118341 -1.4536e+002  2.1191e+001 -9.5155e-001 17722 118041,118223,118067
 1.0000e-001 118318 -9.6298e+001 -2.4513e+001  8.6435e+000 17722 118093,118223,118197
 1.0000e-001 118295 -8.8648e+001 -5.6398e+001  2.3713e+001 17722 118119,118197,118171
 1.0000e-001 118272 -9.3704e+001 -3.9974e+001  1.8526e+001 17722 118093,118197,118119
 1.0000e-001 118249 -6.4540e+001 -1.0914e+001  3.3140e+001 17722 118119,118171,118145
 1.0000e-001 118514 -7.4071e+001 -3.1668e+001  2.3406e+001 17268 118387,118439,118413
 1.0000e-001 118491 -4.6066e+001 -2.3401e+001  2.1113e+001 17268 118387,118465,118439
 1.0000e-001 118916 -2.0490e+002 -8.7804e+001  2.6626e+001 16828 118668,118772,118694
 1.0000e-001 118893 -2.4597e+002 -1.0720e+002  1.8535e+001 16828 118668,118798,118772
 1.0000e-001 118870 -2.6515e+002 -1.6273e+002  1.7017e+001 16828 118642,118798,118668
 1.0000e-001 118847 -2.1230e+002 -9.1210e+001  3.9121e+001 16828 118694,118746,118720
 1.0000e-001 118824 -2.1207e+002 -1.0260e+002  2.9046e+001 16828 118694,118772,118746
 1.0000e-001 119316 -1.1808e+002 -5.0417e+001  5.2497e+001 16422 119042,119172,119094
 1.0000e-001 119293 -1.8353e+002 -8.7772e+001  3.7474e+001 16422 119042,119198,119172
 1.0000e-001 119270 -1.3714e+002 -5.9217e+001  5.4685e+001 16422 119042,119094,119068
 1.0000e-001 119247 -1.4213e+002 -6.1572e+001  8.7636e+001 16422 119094,119146,119120
 1.0000e-001 119224 -1.2422e+002 -6.7735e+001  5.3648e+001 16422 119094,119172,119146
 1.0000e-001 119466 -2.7641e+002 -1.1643e+002 -3.8872e+001 16010 119339,119391,119365
 1.0000e-001 119443 -2.2891e+002 -1.2983e+002  3.2385e+001 16010 119339,119417,119391
 1.0000e-001 119616 -2.0868e+002 -8.9556e+001  3.3056e+001 15547 119515,119567,119541
 1.0000e-001 119593  4.9069e+000  1.0186e+001  5.9243e+001 15547 119489,119567,119515
 1.0000e-001 119719 -1.5901e+002 -6.6813e+001 -2.1399e+001 421 119641,119693,119667
 2.0000e-001 69562 -1.1831e+002 -5.1517e+001  7.6235e+001 69254 69484,69536,69510
 2.0000e-001 70009 -3.9060e+001 -3.5054e+001  3.8157e+001 68942 69686,69842,69816
 2.0000e-001 69986 -3.2591e+001 -1.3896e+001  2.1204e+001 68942 69686,69868,69842
 2.0000e-001 69963 -1.3185e+000 -5.2894e-001  5.3189e+001 68942 69686,69816,69712
 2.0000e-001 69940 -1.6977e+001 -8.0910e+000  7.6137e+001 68942 69712,69790,69738
 2.0000e-001 69917 -5.2005e+001 -1.1342e+002  6.3475e+001 68942 69712,69816,69790
 2.0000e-001 69894  9.3115e-001 -6.4684e+001  3.3703e+001 68942 69738,69790,69764
 2.0000e-001 70110 -1.8709e+001 -5.8648e+000  8.7736e+000 68766 70032,70084,70058
 2.0000e-001 70746  3.1536e+001 -3.0970e+000  1.1752e+001 68448 70400,70556,70426
 2.0000e-001 70723 -1.8329e+001 -6.1389e+000  1.6985e+001 68448 70374,70556,70400
 2.0000e-001 70700  3.9808e+000 -1.1989e+001  6.1088e+000 68448 70426,70556,70478
 2.0000e-001 70677 -3.3065e+000 -2.9154e+000  8.9055e+000 68448 70478,70556,70504
 2.0000e-001 70654  1.2175e+001 -1.6566e+001  1.1831e+000 68448 70426,70478,70452
 2.0000e-001 70631 -1.8202e+001 -4.3351e+000  1.9024e+001 68448 70374,70582,70556
 2.0000e-001 70608 -1.9335e+000  8.2239e+000  3.8242e+000 68448 70504,70556,70530
 2.0000e-001 70896 -6.9173e+000 -2.6538e+000  1.0770e+000 68250 70795,70847,70821
 2.0000e-001 70873 -5.2370e+001 -1.9563e+001 -3.9367e+000 68250 70769,70847,70795
 2.0000e-001 70997 -2.5128e+002 -1.0901e+002  9.2321e+001 68052 70919,70971,70945
 2.0000e-001 71367 -7.4411e+001 -1.1472e+002  4.9991e+001 67740 71096,71226,71200
 2.0000e-001 71344 -5.2434e+001 -6.9240e+001  5.8524e+001 67740 71044,71226,71096
 2.0000e-001 71321  9.2306e-001 -9.2306e-001  9.2301e+001 67740 71044,71096,71070
 2.0000e-001 71298 -6.0751e+001 -1.2120e+002  9.0713e+001 67740 71096,71200,71174
 2.0000e-001 71275 -3.1638e+001 -7.4271e+001  3.6726e+001 67740 71096,71148,71122
 2.0000e-001 71252 -4.5056e+001 -8.6872e+001  6.0967e+001 67740 71096,71174,71148
 2.0000e-001 71519  2.6126e+001  1.2306e+001  2.8918e+001 67542 71418,71470,71444
 2.0000e-001 71496  4.5820e+001  1.0404e+002  8.9245e+001 67542 71392,71470,71418
 2.0000e-001 71923 -1.0950e+001 -2.7920e+000  1.3437e+001 67230 71649,71779,71675
 2.0000e-001 71900 -9.4313e+000 -1.2418e+001  1.0946e+001 67230 71649,71805,71779
 2.0000e-001 71877 -1.1142e+001 -3.3943e+000  2.3542e+001 67230 71675,71727,71701
 2.0000e-001 71854 -1.4854e+001 -3.3527e+001  2.4760e+001 67230 71675,71753,71727
 2.0000e-001 71831 -1.3768e+001 -2.1144e+001  1.7376e+001 67230 71675,71779,71753
 2.0000e-001 72433  2.5599e+001  2.7690e+000  2.3874e+001 67032 72038,72246,72220
 2.0000e-001 72410 -1.4519e+001 -3.4879e+000 -1.6465e+000 67032 72012,72246,72038
 2.0000e-001 72387  1.3589e+001  1.9882e+001  2.3204e+001 67032 72064,72194,72168
 2.0000e-001 72364  5.3771e+000  3.5165e+000  2.6885e+001 67032 72038,72194,72064
 2.0000e-001 72341  2.3268e+001 -2.7375e-001  4.6545e+001 67032 72038,72220,72194
 2.0000e-001 72318 -1.6274e+001 -7.4270e+000  1.1846e+001 67032 72090,72168,72142
 2.0000e-001 72295  2.0003e+001  1.1382e+001 -3.1005e+000 67032 72064,72168,72090
 2.0000e-001 72272 -1.8165e+001 -5.8337e+000  1.2522e+001 67032 72090,72142,72116
 2.0000e-001 72933 -1.0967e+001 -1.0022e+001  1.5205e+001 66628 72956,72665,72613
 2.0000e-001 72910  3.3097e+000 -1.7724e+001  1.8569e+001 66628 73100,72956,72613
 2.0000e-001 72887 -3.8247e+001 -3.6814e+001  2.3258e+001 66628 73028,72691,72665
 2.0000e-001 72864  5.6484e+000 -1.3333e+001  2.1985e+001 66628 73100,72613,72587
 2.0000e-001 72841 -1.7522e+001 -1.3837e+001  3.0036e+001 66628 72613,72665,72639
 2.0000e-001 72818  3.2223e+001  1.4927e+001  2.8729e+001 66628 72587,72769,72743
 2.0000e-001 72795  1.7980e+001 -1.9455e+001  2.3481e+000 66628 72561,72769,72587
 2.0000e-001 72982 -2.9980e+001 -1.8898e+001  2.1127e+001 66628 73028,72665,72956
 2.0000e-001 73005 -9.4532e+000 -2.4130e+000  1.8454e+001 66628 72717,72956,72743
 2.0000e-001 73054 -3.3753e+001 -2.0174e+001  7.8660e+000 66628 72717,72691,73028
 2.0000e-001 73077 -3.1297e+001 -1.5457e+001  6.7095e+000 66628 72717,73028,72956
 2.0000e-001 73126 -1.7995e+000 -1.9756e+001  1.3023e+001 66628 72743,72956,73100
 2.0000e-001 73149  1.6726e+000 -1.5700e+001  1.6489e+001 66628 72743,73100,72587
 2.0000e-001 73606  3.8374e+000  1.4672e+001  3.1940e+001 66281 73332,73384,73358
 2.0000e-001 73583 -2.7074e+001 -3.0494e+001  1.6471e+001 66281 73332,73462,73384
 2.0000e-001 73560 -3.8286e+001 -1.4693e+001  2.5751e+001 66281 73384,73462,73436
 2.0000e-001 73537 -5.2938e+001 -4.9897e+000  2.0658e+001 66281 73332,73488,73462
 2.0000e-001 73514 -1.5793e+001 -6.9263e+000  3.5707e+001 66281 73384,73436,73410
 2.0000e-001 73984  6.5108e-001 -6.6608e+000  2.0792e+000 65969 73736,73814,73788
 2.0000e-001 73961  9.9988e+000 -9.1786e-001 -8.7460e-001 65969 73736,73866,73814
 2.0000e-001 73938 -1.1228e+001 -7.5873e+000  1.6492e+001 65969 73814,73866,73840
 2.0000e-001 73915  5.3474e-001  4.9720e+000 -1.4144e+000 65969 73710,73866,73736
 2.0000e-001 73892  1.5155e+000 -7.7573e+000  6.9739e-001 65969 73736,73788,73762
 2.0000e-001 74232 -1.1989e+001 -5.8670e+000  1.5163e+001 65572 74255,74085,74033
 2.0000e-001 74209 -5.7122e+000 -1.2364e+001  7.1905e+000 65572 74327,74255,74033
 2.0000e-001 74186 -5.4529e+000 -5.2621e+000  7.6837e+000 65572 74327,74033,74007
 2.0000e-001 74163 -9.9696e+000 -1.8963e+001  2.1147e+001 65572 74033,74085,74059
 2.0000e-001 74281 -2.0401e+001 -1.8136e+001  2.1259e+001 65572 74111,74085,74255
 2.0000e-001 74304 -1.2800e+001 -1.8896e+001  6.5383e+000 65572 74111,74255,74137
 2.0000e-001 74353 -7.3878e+000 -3.1381e+000  4.1247e+000 65572 74137,74255,74327
 2.0000e-001 74376 -8.4567e+000  2.3316e+000  4.7628e+000 65572 74137,74327,74007
 2.0000e-001 74884 -1.1730e+001 -2.4845e+001  1.8478e+001 65174 74587,74717,74613
 2.0000e-001 74861 -8.8555e+000 -2.9868e+001  9.8333e+000 65174 74561,74717,74587
 2.0000e-001 74838 -7.7850e+000 -1.9318e+001  1.6322e+001 65174 74613,74691,74639
 2.0000e-001 74815 -1.9295e+001 -2.3680e+001  1.7022e+001 65174 74613,74717,74691
 2.0000e-001 74792 -7.9749e+000 -4.2810e+001  1.1373e+001 65174 74639,74691,74665
 2.0000e-001 74769 -5.2749e+000 -4.7580e+000  3.9648e+000 65174 74561,74743,74717
 2.0000e-001 75412 -1.5481e+000 -4.2815e+000  4.3069e+001 64770 75167,75245,75219
 2.0000e-001 75389 -2.2895e+001 -3.3951e+001  2.9640e+001 64770 75115,75245,75167
 2.0000e-001 75366 -1.9484e+001 -4.2607e+001  3.8417e+001 64770 75089,75245,75115
 2.0000e-001 75343 -2.1997e+001  2.1713e+000  2.1069e+001 64770 75167,75219,75193
 2.0000e-001 75320 -1.8211e+001 -2.3190e+001  3.1584e+001 64770 75115,75167,75141
 2.0000e-001 75297 -2.7104e+001 -6.3762e+001  3.8441e+001 64770 75089,75271,75245
 2.0000e-001 75861 -4.5887e+001 -1.8208e+001  4.8881e+001 64316 75538,75694,75564
 2.0000e-001 75838 -9.1511e-001  1.6355e-001  4.0969e+001 64316 75538,75720,75694
 2.0000e-001 75815 -4.6100e+001 -2.9526e+001  3.6316e+001 64316 75590,75694,75642
 2.0000e-001 75792 -4.3455e+001 -4.0549e+001  4.3665e+001 64316 75564,75694,75590
 2.0000e-001 75769 -1.7162e+001 -5.9497e+001  2.5134e+001 64316 75590,75642,75616
 2.0000e-001 75746 -5.6340e+001 -2.3488e+001  3.8919e+001 64316 75642,75694,75668
 2.0000e-001 76239 -6.8685e+001 -5.1684e+001  4.5280e+001 64018 76262,76095,76043
 2.0000e-001 76216 -4.9926e+001 -5.8253e+001  4.1700e+001 64018 76262,76043,76017
 2.0000e-001 76193 -2.2027e+001 -2.0684e+001  1.5862e+001 64018 75991,76121,76017
 2.0000e-001 76170 -6.0150e+001 -2.7214e+001  4.9760e+001 64018 76043,76095,76069
 2.0000e-001 76147 -8.6316e+000 -2.1514e+001  1.0005e+001 64018 75965,76121,75991
 2.0000e-001 76288 -5.3150e+001 -4.9271e+001  5.4812e+001 64018 76121,76095,76262
 2.0000e-001 76311 -3.8198e+001 -6.0346e+001  4.8346e+001 64018 76121,76262,76017
 2.0000e-001 76866 -2.2165e+001 -2.5231e+001  2.5226e+001 63728 76520,76676,76546
 2.0000e-001 76843 -1.9737e+001 -2.7340e+001  1.6961e+001 63728 76520,76702,76676
 2.0000e-001 76820 -1.8202e+001 -3.0694e+001  3.2477e+001 63728 76546,76650,76572
 2.0000e-001 76797 -3.6769e+001 -5.0578e+001  1.9035e+001 63728 76546,76676,76650
 2.0000e-001 76774 -2.8393e+001 -3.4701e+001  2.5241e+001 63728 76572,76650,76624
 2.0000e-001 76751 -1.9257e+001 -1.7313e+001  1.8756e+001 63728 76494,76702,76520
 2.0000e-001 76728  1.1953e+001 -1.2588e+001  3.5907e+001 63728 76572,76624,76598
 2.0000e-001 77065 -7.0513e-001 -4.5511e+001  1.5159e+001 63288 77088,76941,76915
 2.0000e-001 77042 -7.1241e+000 -5.0031e+001  1.9192e+001 63288 77088,76915,76993
 2.0000e-001 77019 -1.0299e+001 -1.4005e+001  3.3619e+001 63288 76889,76993,76915
 2.0000e-001 77114 -6.5176e+000 -4.1853e+001  1.1544e+001 63288 76967,76941,77088
 2.0000e-001 77137 -5.8171e+000 -3.9349e+001  1.7152e+001 63288 77160,77088,76993
 2.0000e-001 77186 -1.1936e+001 -4.6431e+001  1.3543e+001 63288 76967,77088,77160
 2.0000e-001 77417  2.8145e+000 -1.4868e+001 -2.3240e+000 62884 77440,77342,77316
 2.0000e-001 77394  6.2519e+000 -2.1469e+001 -1.1324e+000 62884 77770,77440,77316
 2.0000e-001 77466 -1.6878e+001 -2.3086e+001 -2.7082e+000 62884 77512,77440,77368
 2.0000e-001 77489 -4.2288e+000 -1.1015e+001 -1.2640e+000 62884 77642,77440,77290
 2.0000e-001 77538 -2.5973e+000 -2.6186e+001 -6.2619e-001 62884 77342,77440,77512
 2.0000e-001 77668 -6.1673e+000 -1.6941e+001 -1.6357e-001 62884 77368,77440,77642
 2.0000e-001 77796 -1.0936e+001 -3.0167e+001  2.4271e+000 62884 77290,77440,77770
 2.0000e-001 78479 -2.1992e+001 -4.6987e+001  1.9448e+001 62480 78084,78240,78214
 2.0000e-001 78456 -1.6872e+001 -4.6474e+001  1.0427e+001 62480 78084,78266,78240
 2.0000e-001 78433 -8.7668e+000 -6.8472e+001 -4.4276e+000 62480 78110,78214,78136
 2.0000e-001 78410 -6.6297e+001 -8.8939e+001  3.6773e+001 62480 78084,78214,78110
 2.0000e-001 78387 -1.2746e+001 -2.9360e+001  4.0681e+000 62480 78136,78214,78188
 2.0000e-001 78364 -2.4280e+001 -2.2162e+001  1.5920e+001 62480 78058,78266,78084
 2.0000e-001 78341  3.0710e+000 -2.2337e+001  2.4840e+000 62480 78136,78188,78162
 2.0000e-001 78318 -2.3703e+001 -1.3556e+001 -3.8730e+000 62480 78058,78292,78266
 2.0000e-001 78678 -1.0429e+001 -3.9151e+001  2.0724e+001 61926 78528,78606,78554
 2.0000e-001 78655 -1.5083e+001 -2.7424e+001  1.7775e+001 61926 78502,78606,78528
 2.0000e-001 78632 -6.8460e+000 -3.9420e+001  1.1508e+001 61926 78554,78606,78580
 2.0000e-001 79058 -2.3554e+001 -3.0399e+001  2.6814e+001 61614 78836,78914,78862
 2.0000e-001 79035 -4.4965e+001 -4.0292e+001  2.2788e+001 61614 78810,78914,78836
 2.0000e-001 79012 -3.8943e+001 -3.9421e+001  1.1232e+001 61614 78784,78914,78810
 2.0000e-001 78989 -4.0931e+001 -6.5243e+001  1.8654e+001 61614 78862,78914,78888
 2.0000e-001 78966 -3.1514e+001 -4.7730e+001  1.3374e+001 61614 78784,78940,78914
 2.0000e-001 79208 -4.1024e+000 -9.4383e+000  6.4227e+000 61366 79081,79133,79107
 2.0000e-001 79185 -1.8754e+001 -3.3522e+000  4.2661e+001 61366 79081,79159,79133
 2.0000e-001 79358 -2.2097e+001 -5.6193e+001  1.6250e+001 60962 79231,79283,79257
 2.0000e-001 79335 -2.8702e+001 -6.7097e+001  1.9121e+001 60962 79231,79309,79283
 2.0000e-001 79608 -3.6618e+001 -3.6018e+001  2.7880e+001 60508 79631,79435,79409
 2.0000e-001 79585 -2.2001e+001 -3.8705e+001  1.5843e+001 60508 79703,79631,79409
 2.0000e-001 79562 -2.4345e+001 -8.9236e+000  1.8910e+001 60508 79703,79409,79383
 2.0000e-001 79539 -4.4354e+001 -5.7562e+001  5.2347e+001 60508 79435,79487,79461
 2.0000e-001 79657 -4.5945e+001 -5.8263e+001  5.1914e+001 60508 79487,79435,79631
 2.0000e-001 79680 -1.6217e+001 -3.5073e+001  2.7909e+001 60508 79487,79631,79513
 2.0000e-001 79729 -1.1966e+001 -1.1154e+001  7.6177e+000 60508 79513,79631,79703
 2.0000e-001 79752 -2.0702e+001 -6.2235e+000  2.5795e+000 60508 79513,79703,79383
 2.0000e-001 80390 -1.0735e+001 -1.5315e+001  1.6991e+001 59997 80413,80096,80018
 2.0000e-001 80367 -1.7040e+001 -1.8002e+001  1.6629e+001 59997 80413,80018,80226
 2.0000e-001 80344 -1.5238e+001 -2.5464e+001  8.6439e+000 59997 80096,80174,80148
 2.0000e-001 80321 -3.9497e+001 -3.7894e+001  2.6795e+001 59997 80018,80096,80070
 2.0000e-001 80298 -4.0723e+001 -2.3474e+001  1.0770e+001 59997 80096,80148,80122
 2.0000e-001 80275 -5.1200e+000 -1.4380e+001  2.1742e+000 59997 80174,80226,80200
 2.0000e-001 80252 -1.8297e+001 -3.6019e+001  6.5255e+000 59997 80018,80070,80044
 2.0000e-001 80439 -8.3480e+000 -1.8235e+001  1.4378e+001 59997 80174,80096,80413
 2.0000e-001 80462 -1.1228e+001 -1.8976e+001  1.4000e+001 59997 80174,80413,80226
 2.0000e-001 80840 -1.9545e+001 -4.2107e+001  2.8896e+001 59443 80863,80644,80618
 2.0000e-001 80817 -1.6360e+001 -4.4028e+001  2.7895e+001 59443 80863,80618,80566
 2.0000e-001 80794 -2.9571e+001 -4.8126e+001  2.5527e+001 59443 81007,80935,80670
 2.0000e-001 80771 -2.8092e+001 -4.0919e+001  2.7830e+001 59443 80566,80722,80696
 2.0000e-001 80748 -3.6511e+001 -7.4597e+001  4.7815e+001 59443 80566,80618,80592
 2.0000e-001 80889 -2.0775e+001 -4.4595e+001  2.9295e+001 59443 80935,80644,80863
 2.0000e-001 80912 -2.1757e+001 -3.8202e+001  2.7155e+001 59443 80696,80863,80566
 2.0000e-001 80961 -3.5472e+001 -5.4614e+001  1.7372e+001 59443 80696,80670,80935
 2.0000e-001 80984 -3.0816e+001 -4.5213e+001  2.3796e+001 59443 80696,80935,80863
 2.0000e-001 81033 -2.7457e+001 -4.2934e+001  2.4691e+001 59443 80644,80935,81007
 2.0000e-001 81360 -4.1667e+001 -4.8508e+001  3.0647e+001 59031 81383,81187,81161
 2.0000e-001 81337 -6.2373e+001 -4.5698e+001  4.7543e+001 59031 81455,81383,81161
 2.0000e-001 81314 -7.5803e+001 -4.7714e+001  4.4841e+001 59031 81455,81161,81135
 2.0000e-001 81291 -1.6763e+001 -1.7582e+001  1.6590e+001 59031 81187,81239,81213
 2.0000e-001 81409 -3.7284e+001 -2.0336e+001  1.3214e+001 59031 81239,81187,81383
 2.0000e-001 81432 -5.1412e+001 -3.4466e+001  3.6969e+001 59031 81239,81383,81265
 2.0000e-001 81481 -4.7282e+001 -5.1196e+001  4.3330e+001 59031 81265,81383,81455
 2.0000e-001 81504 -5.4638e+001 -4.8559e+001  4.3179e+001 59031 81265,81455,81135
 2.0000e-001 81835 -9.1354e+000 -2.4440e+001  1.2346e+001 58577 81610,81714,81636
 2.0000e-001 81812  1.0260e+001 -3.4720e+001  1.4136e+001 58577 81610,81740,81714
 2.0000e-001 81789 -2.8762e+001 -3.3231e+001 -6.2147e+000 58577 81636,81714,81688
 2.0000e-001 81766 -2.6405e+001 -3.2073e+001 -1.4665e+001 58577 81636,81688,81662
 2.0000e-001 81985 -1.0553e+001 -2.5030e+001  3.3604e+001 58030 81884,81936,81910
 2.0000e-001 81962 -4.4716e+001 -1.5444e+001  1.7935e+001 58030 81858,81936,81884
 2.0000e-001 82414 -3.0945e+001 -4.5695e+001  2.8433e+001 57690 82437,82169,82117
 2.0000e-001 82391 -2.3239e+001 -4.0716e+001  2.5575e+001 57690 82437,82117,82247
 2.0000e-001 82368 -1.7262e+001 -4.0491e+001  2.4382e+001 57690 82195,82247,82221
 2.0000e-001 82345 -2.6395e+001 -4.3219e+001  1.4318e+001 57690 82091,82247,82117
 2.0000e-001 82322 -1.2719e+001 -1.1227e+001  3.5423e+001 57690 82117,82169,82143
 2.0000e-001 82299  1.1054e+000 -5.8929e+001  2.2834e+001 57690 82091,82273,82247
 2.0000e-001 82463 -2.3288e+001 -4.6428e+001  2.6006e+001 57690 82195,82169,82437
 2.0000e-001 82486 -1.9177e+001 -4.4816e+001  2.3929e+001 57690 82195,82437,82247
 2.0000e-001 83041 -3.3076e+001 -3.1387e+001  1.6271e+001 57172 83064,82721,82695
 2.0000e-001 83018 -3.6520e+001 -3.7515e+001  1.8932e+001 57172 83064,82695,82851
 2.0000e-001 82995 -7.0478e+001 -5.3838e+001  2.7284e+001 57172 82669,82851,82695
 2.0000e-001 82972 -4.3382e+001 -2.7633e+001  2.8419e+001 57172 82773,82851,82825
 2.0000e-001 82949 -3.6143e+001 -2.4633e+001  2.8449e+001 57172 82773,82825,82799
 2.0000e-001 82926 -2.7041e+001 -1.6922e+001  1.6800e+001 57172 82721,82773,82747
 2.0000e-001 82903 -8.6817e+001 -7.3255e+001  3.9361e+001 57172 82669,82877,82851
 2.0000e-001 83090 -3.6790e+001 -3.4756e+001  2.0970e+001 57172 82773,82721,83064
 2.0000e-001 83113 -3.7101e+001 -3.8748e+001  2.3058e+001 57172 82773,83064,82851
 2.0000e-001 83747 -5.1615e+001 -3.4984e+001  1.5812e+001 56554 83770,83427,83401
 2.0000e-001 83724 -4.5260e+001 -4.7678e+001  2.1907e+001 56554 83842,83770,83401
 2.0000e-001 83701 -7.2056e+000 -3.6626e+001  1.0899e+001 56554 83842,83401,83583
 2.0000e-001 83678 -7.9195e+001 -5.4981e+001  5.2592e+001 56554 83914,83531,83505
 2.0000e-001 83655 -6.2537e+001 -7.6413e+001  4.6603e+001 56554 83531,83583,83557
 2.0000e-001 83632 -1.2127e+001 -5.8592e+001  8.1997e+000 56554 83375,83583,83401
 2.0000e-001 83609 -5.3393e+001 -3.0148e+001  2.3164e+001 56554 83427,83479,83453
 2.0000e-001 83796 -4.3380e+001 -2.4624e+001  2.0159e+001 56554 83479,83427,83770
 2.0000e-001 83819 -4.9936e+001 -3.2828e+001  2.3008e+001 56554 83479,83770,83505
 2.0000e-001 83868 -3.0275e+001 -2.1717e+001  2.9406e+001 56554 83505,83770,83842
 2.0000e-001 83891 -5.5013e+001 -4.0497e+001  3.7640e+001 56554 83914,83505,83842
 2.0000e-001 83940 -4.1497e+001 -5.4215e+001  3.4729e+001 56554 83583,83531,83914
 2.0000e-001 83963 -1.9709e+001 -5.3153e+001  2.6777e+001 56554 83583,83914,83842
 2.0000e-001 84341 -5.1477e+001 -1.1125e+002  5.2446e+001 56192 84067,84145,84119
 2.0000e-001 84318  1.1163e+001 -4.2275e+001  2.5862e+001 56192 84067,84223,84145
 2.0000e-001 84295 -1.2749e+001 -1.0365e+002  3.0841e+001 56192 84145,84223,84197
 2.0000e-001 84272 -4.2868e+001 -1.4180e+000  1.3936e+001 56192 84067,84119,84093
 2.0000e-001 84249 -4.0937e+001 -3.8984e+001  3.1998e+001 56192 84145,84197,84171
 2.0000e-001 84611 -2.6157e+001 -6.1994e+001  5.1858e+001 55538 84386,84490,84412
 2.0000e-001 84588 -3.1623e+001 -3.2384e+001  4.6354e+001 55538 84386,84516,84490
 2.0000e-001 84565 -4.3059e+001 -6.8909e+001  5.3395e+001 55538 84412,84490,84464
 2.0000e-001 84542 -2.0526e+001 -4.8473e+001  4.1586e+001 55538 84412,84464,84438
 2.0000e-001 84942 -4.2812e+001 -4.0976e+001  2.8524e+001 55084 84769,84847,84795
 2.0000e-001 84919 -4.7612e+001 -5.3585e+001  1.8960e+001 55084 84717,84847,84769
 2.0000e-001 84896 -5.0267e+001 -6.2539e+001  1.9927e+001 55084 84717,84769,84743
 2.0000e-001 84873 -2.8630e+001 -1.1466e+001  3.3806e+001 55084 84795,84847,84821
 2.0000e-001 85271 -4.4288e+001 -8.5161e+000  2.8610e+001 54580 85294,85098,85072
 2.0000e-001 85248 -3.7674e+001 -3.2638e+001  3.5606e+001 54580 85294,85072,85176
 2.0000e-001 85225 -5.6485e+001 -6.2824e+001  4.6676e+001 54580 85124,85176,85150
 2.0000e-001 85202 -2.0070e+001 -3.7852e+001  1.8231e+001 54580 85046,85176,85072
 2.0000e-001 85320 -4.6057e+001  5.7731e+000  3.8359e+001 54580 85124,85098,85294
 2.0000e-001 85343 -3.9676e+001 -1.5962e+001  3.9416e+001 54580 85124,85294,85176
 2.0000e-001 85542 -6.6428e+001 -6.2577e+001  6.9545e+001 53976 85565,85444,85418
 2.0000e-001 85519 -7.9724e+001 -4.8778e+001  5.5817e+001 53976 85565,85418,85366
 2.0000e-001 85496 -5.3316e+001 -2.6514e+001  2.4372e+001 53976 85366,85418,85392
 2.0000e-001 85591 -5.4345e+001 -5.4941e+001  6.4013e+001 53976 85470,85444,85565
 2.0000e-001 85614 -5.9411e+001 -2.9528e+001  4.7722e+001 53976 85470,85565,85366
 2.0000e-001 85960 -1.4126e+002 -1.0545e+002  9.9423e+001 53572 85663,85715,85689
 2.0000e-001 85937 -1.1074e+002 -5.7148e+001  7.1380e+001 53572 85983,85715,85663
 2.0000e-001 85914 -6.2353e+001 -4.0244e+001  6.3637e+001 53572 86055,85983,85663
 2.0000e-001 85891 -6.2976e+001 -3.9739e+001  5.6779e+001 53572 86055,85663,85637
 2.0000e-001 85868 -8.0976e+001 -1.3864e+002  6.4307e+001 53572 85637,85793,85767
 2.0000e-001 85845  1.9664e+000  2.6559e+000  1.1677e+001 53572 85637,85819,85793
 2.0000e-001 86009 -5.9210e+001 -1.0799e+002  6.6712e+001 53572 85741,85715,85983
 2.0000e-001 86032  6.2173e+000 -5.1267e+001  3.8458e+001 53572 85741,85983,85767
 2.0000e-001 86081 -6.6457e+001 -5.7447e+001  6.7967e+001 53572 85767,85983,86055
 2.0000e-001 86104 -6.2298e+001 -4.8835e+001  6.1191e+001 53572 85767,86055,85637
 2.0000e-001 86693 -7.5276e+001 -7.5010e+000  4.3987e+001 52946 86474,86526,86500
 2.0000e-001 86670 -1.4115e+001 -6.9698e+000  1.9210e+001 52946 86396,86526,86474
 2.0000e-001 86647 -4.8848e+001 -3.0190e+001  2.9553e+001 52946 86370,86526,86396
 2.0000e-001 86624 -1.6397e+001  4.0755e+000  7.3760e+000 52946 86422,86474,86448
 2.0000e-001 86601 -2.1038e+001  2.4744e-001  9.1208e+000 52946 86396,86474,86422
 2.0000e-001 86578 -7.5023e+001 -4.4272e+001 -6.5575e-001 52946 86370,86552,86526
 2.0000e-001 87376 -6.2716e+001 -9.0623e+001  3.8049e+001 52420 87007,87085,87033
 2.0000e-001 87353 -5.7925e+001 -7.3676e+001  1.8764e+001 52420 87007,87163,87085
 2.0000e-001 87330 -5.3346e+001 -6.3413e+001  2.4661e+001 52420 87007,87189,87163
 2.0000e-001 87307 -6.5939e+001 -1.0409e+002  2.7522e+001 52420 87033,87085,87059
 2.0000e-001 87284 -3.0140e+001 -8.5221e+001  2.0295e+001 52420 87085,87137,87111
 2.0000e-001 87261 -6.5323e+001 -1.0894e+002  9.5438e+000 52420 87085,87163,87137
 2.0000e-001 87238 -4.0681e+001 -5.1345e+001  3.8543e+001 52420 86955,87189,87007
 2.0000e-001 87215 -2.8876e+001 -4.1682e+001  2.3596e+001 52420 86955,87007,86981
 2.0000e-001 87624 -5.3856e+001 -5.4846e+001  5.1860e+001 51916 87451,87503,87477
 2.0000e-001 87601 -3.5126e+001 -6.1219e+001  6.0117e+001 51916 87425,87503,87451
 2.0000e-001 87578 -1.4122e+001 -3.7040e+001  7.5329e+001 51916 87425,87529,87503
 2.0000e-001 87555  1.3599e+001  2.9353e+001  8.1581e+001 51916 87399,87529,87425
 2.0000e-001 88053 -5.9815e+001 -5.0328e+001  2.1967e+001 51568 87782,87834,87808
 2.0000e-001 88030 -5.6414e+001 -6.0204e+001  1.7233e+001 51568 88076,87782,87886
 2.0000e-001 88007 -6.1875e+001 -7.5180e+001  7.3454e+000 51568 88076,87886,87860
 2.0000e-001 87984 -7.0745e+001 -6.6564e+001  1.1500e+001 51568 87756,87886,87782
 2.0000e-001 87961 -3.7402e+001 -5.1182e+001  1.6879e+001 51568 87756,87912,87886
 2.0000e-001 87938 -5.1572e+001 -1.2766e+002  9.3256e+000 51568 87730,87912,87756
 2.0000e-001 88102 -5.2487e+001 -5.1708e+001  2.3471e+001 51568 87834,87782,88076
 2.0000e-001 88125 -5.1494e+001 -6.0864e+001  1.4788e+001 51568 87834,88076,87860
 2.0000e-001 88324 -9.6490e+000 -3.8766e+001  3.8564e+001 51164 88419,88347,88200
 2.0000e-001 88301 -1.9663e+001 -3.3263e+001  3.2682e+001 51164 88347,88148,88252
 2.0000e-001 88278  2.1871e+000 -2.0497e+001  4.5079e+001 51164 88419,88200,88174
 2.0000e-001 88373 -1.4339e+001 -5.9390e+001  3.3833e+001 51164 88226,88200,88347
 2.0000e-001 88396 -2.1859e+001 -4.1023e+001  2.8096e+001 51164 88226,88347,88252
 2.0000e-001 88445 -1.4603e+001 -4.0942e+001  2.9091e+001 51164 88148,88347,88419
 2.0000e-001 88468 -1.5165e+001 -4.3087e+001  3.3036e+001 51164 88148,88419,88174
 2.0000e-001 88738 -1.5170e+001 -3.8096e+001  2.3454e+001 50560 88513,88617,88539
 2.0000e-001 88715 -1.8092e+001 -4.2434e+001  2.4748e+001 50560 88513,88643,88617
 2.0000e-001 88692 -2.5693e+001 -3.2815e+001  2.4638e+001 50560 88539,88591,88565
 2.0000e-001 88669 -1.5506e+001 -3.6386e+001  2.3923e+001 50560 88539,88617,88591
 2.0000e-001 88939 -4.8708e+001 -4.1711e+001  1.3775e+001 50106 88962,88789,88763
 2.0000e-001 88916 -4.5582e+001 -5.2843e+001  1.3415e+001 50106 88962,88763,88841
 2.0000e-001 88893 -4.3600e+001 -5.3403e+001  1.9323e+001 50106 88763,88867,88841
 2.0000e-001 88988 -4.2640e+001 -2.6399e+001  2.4103e+001 50106 88815,88789,88962
 2.0000e-001 89011 -6.4531e+001 -5.2009e+001  1.2262e+001 50106 89034,88962,88841
 2.0000e-001 89060 -3.9467e+001 -4.3761e+001  1.6544e+001 50106 88815,88962,89034
 2.0000e-001 89472 -5.4094e+001 -5.3855e+001  3.7773e+001 49666 89273,89351,89325
 2.0000e-001 89449 -5.7914e+001 -7.8771e+001  2.8732e+001 49666 89273,89377,89351
 2.0000e-001 89426 -5.8674e+001 -6.1795e+001  2.7934e+001 49666 89273,89325,89299
 2.0000e-001 89403 -4.5314e+001 -3.8722e+001  2.7775e+001 49666 89247,89377,89273
 2.0000e-001 89978 -2.5323e+001 -9.4333e+001  3.7656e+001 49205 89681,89837,89733
 2.0000e-001 89955 -4.3460e+001 -7.9836e+001  4.9510e+001 49205 89655,89837,89681
 2.0000e-001 89932 -5.5948e+001 -1.7750e+002  4.8039e+001 49205 89785,89837,89811
 2.0000e-001 89909 -2.2100e+001 -5.6300e+001  2.6328e+001 49205 89733,89837,89785
 2.0000e-001 89886 -5.3955e+001 -6.5266e+001  3.7749e+001 49205 89733,89785,89759
 2.0000e-001 89863 -5.5283e+001 -1.9211e+002  8.4629e+001 49205 89681,89733,89707
 2.0000e-001 90177 -5.2386e+001 -5.3590e+001  2.3370e+001 48865 90530,90200,90053
 2.0000e-001 90154 -6.7945e+001 -1.2212e+002  6.1547e+001 48865 90402,90200,90001
 2.0000e-001 90131 -7.9857e+001  2.3121e+000  1.8597e+001 48865 90530,90053,90027
 2.0000e-001 90226 -6.9056e+001 -6.6358e+001  4.2392e+001 48865 90079,90053,90200
 2.0000e-001 90249 -6.0260e+001 -7.9390e+001  4.1636e+001 48865 90272,90200,90105
 2.0000e-001 90298 -5.4820e+001 -6.3015e+001  4.5711e+001 48865 90079,90200,90272
 2.0000e-001 90428 -4.0483e+001 -3.3452e+001  4.3472e+001 48865 90105,90200,90402
 2.0000e-001 90556 -6.1636e+001 -1.4333e+002  2.0862e+001 48865 90001,90200,90530
 2.0000e-001 90579 -6.7140e+001 -5.8884e+001 -3.9852e+000 48865 90001,90530,90027
 2.0000e-001 90827 -6.4211e+001 -7.4388e+001  3.8571e+001 48404 90850,90654,90628
 2.0000e-001 90804 -7.1411e+001 -8.1156e+001  5.5331e+001 48404 90850,90628,90732
 2.0000e-001 90781 -5.8511e+001 -4.6108e+001  4.0926e+001 48404 90680,90732,90706
 2.0000e-001 90758 -6.6993e+001 -4.3058e+001  6.1580e+001 48404 90602,90732,90628
 2.0000e-001 90876 -6.4011e+001 -4.9945e+001  3.1483e+001 48404 90680,90654,90850
 2.0000e-001 90899 -7.0448e+001 -6.8022e+001  4.5610e+001 48404 90680,90850,90732
 2.0000e-001 91000 -4.7633e+001 -1.1417e+002  9.1595e+001 48156 90922,90974,90948
 2.0000e-001 91250 -6.0762e+001 -1.4569e+002  1.0399e+002 47752 91051,91103,91077
 2.0000e-001 91227 -4.9020e+001 -2.0212e+001  6.5545e+001 47752 91025,91103,91051
 2.0000e-001 91204 -1.6426e+002 -1.0937e+002  1.3045e+002 47752 91025,91155,91103
 2.0000e-001 91181 -1.6498e+002 -9.6375e+001  1.2211e+002 47752 91103,91155,91129
 2.0000e-001 91402 -7.7504e+001 -4.8050e+001  1.5328e+001 47191 91425,91301,91275
 2.0000e-001 91379 -6.4203e+001 -4.2394e+001  1.4903e+001 47191 91497,91425,91275
 2.0000e-001 91451 -7.5166e+001 -5.8430e+001  2.5516e+001 47191 91327,91301,91425
 2.0000e-001 91474 -4.7899e+001 -5.3649e+001  2.8835e+001 47191 91327,91425,91353
 2.0000e-001 91523 -7.3270e+001 -7.1058e+001  1.7643e+001 47191 91353,91425,91497
 2.0000e-001 91854 -6.0706e+001 -7.6661e+001  7.1010e+001 46744 91949,91877,91707
 2.0000e-001 91831 -1.0811e+001 -6.5909e+001  3.6058e+001 46744 91877,91655,91629
 2.0000e-001 91808 -6.6933e+001 -7.1516e+001  6.7468e+001 46744 91949,91707,91681
 2.0000e-001 91785 -3.1736e+001 -5.9404e+001  4.7766e+000 46744 91629,91759,91733
 2.0000e-001 91903 -7.3040e+001 -8.2129e+001  7.5856e+001 46744 91733,91707,91877
 2.0000e-001 91926 -5.3860e+001 -1.1308e+002  5.5915e+001 46744 91733,91877,91629
 2.0000e-001 91975 -6.9394e+001 -8.3620e+001  6.5631e+001 46744 91655,91877,91949
 2.0000e-001 91998 -8.0504e+001 -7.9995e+001  6.2571e+001 46744 91655,91949,91681
 2.0000e-001 92378 -2.3303e+001 -2.9272e+001  1.1515e+001 46090 92130,92208,92182
 2.0000e-001 92355 -1.6342e+001 -2.3173e+001  2.4188e+001 46090 92104,92208,92130
 2.0000e-001 92332 -1.8360e+001 -2.0118e+001  2.3738e+001 46090 92104,92260,92208
 2.0000e-001 92309 -1.4137e+001 -2.5940e+001  3.0033e+001 46090 92208,92260,92234
 2.0000e-001 92286 -4.9855e+001 -4.0348e+001  1.6518e+001 46090 92130,92182,92156
 2.0000e-001 92626 -5.9361e+001 -7.1313e+001  2.7298e+001 45693 92721,92649,92505
 2.0000e-001 92603 -6.7007e+001 -6.9217e+001  4.0935e+001 45693 92649,92453,92427
 2.0000e-001 92580 -6.3639e+001 -5.9832e+001  2.5687e+001 45693 92721,92505,92479
 2.0000e-001 92557 -1.1422e+002 -7.1728e+001  4.1445e+001 45693 92401,92531,92427
 2.0000e-001 92675 -7.9803e+001 -7.5740e+001  2.7400e+001 45693 92531,92505,92649
 2.0000e-001 92698 -8.2990e+001 -7.4442e+001  4.7764e+001 45693 92531,92649,92427
 2.0000e-001 92747 -6.1586e+001 -5.7855e+001  2.6607e+001 45693 92453,92649,92721
 2.0000e-001 92770 -4.9661e+001 -2.2150e+001  3.0329e+001 45693 92453,92721,92479
 2.0000e-001 93172 -1.6390e+001 -3.0518e+001  3.1373e+001 45331 92898,93028,92924
 2.0000e-001 93149 -1.1757e+001 -2.7682e+001  2.6388e+001 45331 92898,93054,93028
 2.0000e-001 93126 -2.5981e+001 -3.2402e+001  3.5325e+001 45331 92924,93002,92976
 2.0000e-001 93103 -1.2130e+001 -2.8649e+001  3.1050e+001 45331 92924,93028,93002
 2.0000e-001 93080 -3.0787e+001 -5.2704e+001  3.6688e+001 45331 92924,92976,92950
 2.0000e-001 93518 -6.0874e+000 -1.2560e+002  6.0483e+001 44820 93613,93273,93247
 2.0000e-001 93495 -8.8856e+001 -1.3186e+002  5.9624e+001 44820 93685,93541,93247
 2.0000e-001 93472 -9.8530e+001 -9.5136e+001  4.3552e+001 44820 93541,93195,93377
 2.0000e-001 93449 -9.9909e+001 -1.1691e+002  4.4707e+001 44820 93685,93247,93221
 2.0000e-001 93426 -1.1549e+002 -1.0163e+002  6.0256e+001 44820 93299,93377,93351
 2.0000e-001 93403 -8.4188e+001 -7.8759e+001  7.1768e+001 44820 93299,93351,93325
 2.0000e-001 93567 -8.2524e+001 -1.6121e+002  5.0893e+001 44820 93613,93247,93541
 2.0000e-001 93590 -1.2069e+002 -1.2318e+002  3.2414e+001 44820 93299,93541,93377
 2.0000e-001 93639 -8.7355e+001 -1.6117e+002  4.8760e+001 44820 93299,93273,93613
 2.0000e-001 93662 -8.7199e+001 -1.5901e+002  4.3678e+001 44820 93299,93613,93541
 2.0000e-001 93711 -8.7501e+001 -9.6713e+001  3.3450e+001 44820 93195,93541,93685
 2.0000e-001 93734 -6.8540e+001 -3.1928e+001  1.9134e+001 44820 93195,93685,93221
 2.0000e-001 94163 -7.4777e+001 -7.2252e+001  2.6113e+001 44237 94258,94186,93996
 2.0000e-001 94140 -9.4027e+001 -8.4585e+001  1.6178e+001 44237 94330,94022,93996
 2.0000e-001 94117 -9.8829e+001 -7.6036e+001  1.9994e+001 44237 94186,93918,93866
 2.0000e-001 94094 -6.0458e+001 -5.2282e+001  3.7484e+001 44237 94258,93996,93970
 2.0000e-001 94071 -8.2752e+001 -4.6269e+001  2.4382e+001 44237 94402,93944,93918
 2.0000e-001 94048 -9.2938e+001 -8.2940e+001  2.9517e+001 44237 93866,93918,93892
 2.0000e-001 94212 -9.3922e+001 -8.4821e+001  2.0677e+001 44237 94330,93996,94186
 2.0000e-001 94235 -1.0802e+002 -6.9132e+001  2.4604e+001 44237 93840,94186,93866
 2.0000e-001 94284 -8.8747e+001 -5.7537e+001  1.4578e+001 44237 93918,94186,94258
 2.0000e-001 94307 -7.5963e+001 -4.8506e+001  1.9177e+001 44237 94402,93918,94258
 2.0000e-001 94356 -6.2248e+001 -3.8897e+001 -3.0453e+000 44237 93840,94022,94330
 2.0000e-001 94379 -9.0811e+001 -7.8408e+001  1.9404e+001 44237 93840,94330,94186
 2.0000e-001 94428 -9.9913e+001 -5.4553e+001  3.0032e+001 44237 93970,93944,94402
 2.0000e-001 94451 -8.6980e+001 -5.3648e+001  2.4950e+001 44237 93970,94402,94258
 2.0000e-001 94908 -2.3779e+001 -7.6336e+001  1.1229e+001 43890 94660,94790,94712
 2.0000e-001 94885 -2.1962e+001 -2.3471e+001  2.1821e+001 43890 94634,94790,94660
 2.0000e-001 94862 -4.7244e+001 -3.7892e+001  4.1541e+001 43890 94712,94764,94738
 2.0000e-001 94839 -2.2688e+001 -8.2817e+001  4.6969e+001 43890 94712,94790,94764
 2.0000e-001 94816 -1.9036e+001 -1.0337e+002  4.5951e+001 43890 94660,94712,94686
 2.0000e-001 95414 -6.1440e+001 -5.4129e+001  2.3144e+001 43186 95437,95143,95117
 2.0000e-001 95391 -6.0628e+001 -6.0169e+001  2.6355e+001 43186 95437,95117,95091
 2.0000e-001 95368 -4.7948e+001 -3.6611e+001  1.8343e+001 43186 95143,95221,95195
 2.0000e-001 95345 -8.2008e+001 -6.4128e+001  3.1305e+001 43186 95091,95273,95221
 2.0000e-001 95322 -6.4949e+001 -5.3318e+001  2.0957e+001 43186 95221,95273,95247
 2.0000e-001 95299 -4.9203e+001 -4.9755e+001  2.2442e+001 43186 95143,95195,95169
 2.0000e-001 95463 -6.4037e+001 -5.8296e+001  2.5755e+001 43186 95221,95143,95437
 2.0000e-001 95486 -6.2502e+001 -6.3169e+001  2.8951e+001 43186 95221,95437,95091
 2.0000e-001 96041 -5.8457e+001 -7.4039e+001  1.2654e+001 42782 95695,95851,95799
 2.0000e-001 96018 -5.7242e+001 -6.6603e+001  1.3549e+001 42782 95669,95851,95695
 2.0000e-001 95995 -7.4296e+001 -6.0104e+001  1.7769e+001 42782 95695,95747,95721
 2.0000e-001 95972 -5.4379e+001 -7.2238e+001  1.4895e+001 42782 95695,95799,95747
 2.0000e-001 95949 -5.0561e+001 -6.5223e+001  1.6984e+001 42782 95747,95799,95773
 2.0000e-001 95926 -7.9059e+001 -7.5123e+001  2.9916e+001 42782 95799,95851,95825
 2.0000e-001 95903 -5.6433e+001 -6.5923e+001  1.2744e+001 42782 95669,95877,95851
 2.0000e-001 96370 -1.3641e+002 -1.5202e+002  6.0548e+001 42420 96197,96275,96223
 2.0000e-001 96347 -1.3018e+002 -1.0309e+002  4.2631e+001 42420 96145,96275,96197
 2.0000e-001 96324 -1.2693e+002 -1.0653e+002  4.1834e+001 42420 96145,96197,96171
 2.0000e-001 96301 -1.0862e+002 -9.7718e+001  5.0855e+001 42420 96223,96275,96249
 2.0000e-001 96699 -9.2424e+001 -7.3539e+001  4.2376e+001 41816 96474,96578,96526
 2.0000e-001 96676 -8.7375e+001 -6.2516e+001  3.2012e+001 41816 96474,96604,96578
 2.0000e-001 96653 -8.9534e+001 -4.4034e+001  5.3361e+001 41816 96526,96578,96552
 2.0000e-001 96630 -7.3924e+001 -5.7411e+001  2.2681e+001 41816 96474,96526,96500
 2.0000e-001 96947 -5.1337e+001 -1.2152e+002  6.9631e+001 41212 96722,96800,96748
 2.0000e-001 96924 -6.2972e+001 -9.2978e+001  7.4979e+001 41212 96722,96826,96800
 2.0000e-001 96901 -7.2660e+001 -7.0160e+001  4.3479e+001 41212 96722,96852,96826
 2.0000e-001 96878 -1.2011e+002 -1.6098e+002  3.0980e+001 41212 96748,96800,96774
 2.0000e-001 97097 -3.5464e+001 -5.2583e+001  3.0375e+001 40793 97120,97022,96996
 2.0000e-001 97074 -5.4709e+001 -8.2226e+001  2.2088e+001 40793 97192,97120,96996
 2.0000e-001 97146 -3.0005e+001 -7.0308e+001  2.8865e+001 40793 97324,97120,97048
 2.0000e-001 97169 -2.4574e+001 -8.6845e+001  3.0425e+001 40793 97048,97120,96970
 2.0000e-001 97218 -4.2075e+000 -6.0594e+001  2.1521e+001 40793 96970,97120,97192
 2.0000e-001 97350 -3.0005e+001 -7.0308e+001  2.8865e+001 40793 97022,97120,97324
 2.0000e-001 97878 -4.6878e+001 -8.8863e+001  2.2997e+001 40446 97901,97607,97555
 2.0000e-001 97855 -5.6554e+001 -5.8869e+001  2.7112e+001 40446 97973,97901,97555
 2.0000e-001 97832 -6.5550e+001 -5.1310e+001  1.7824e+001 40446 97973,97555,97737
 2.0000e-001 97809 -4.1551e+001 -6.7515e+001  1.3292e+001 40446 97633,97685,97659
 2.0000e-001 97786 -3.9426e+001 -7.4333e+001  1.8446e+001 40446 97633,97711,97685
 2.0000e-001 97763 -4.8299e+001 -9.4419e+001  2.3378e+001 40446 97555,97607,97581
 2.0000e-001 97927 -6.6657e+001 -1.1814e+002  3.7759e-001 40446 97633,97607,97901
 2.0000e-001 97950 -5.5901e+001 -8.0648e+001  1.4400e+001 40446 97633,97901,97711
 2.0000e-001 97999 -6.3272e+001 -8.6134e+001  2.4351e+001 40446 97711,97901,97973
 2.0000e-001 98022 -6.5036e+001 -6.6514e+001  1.8607e+001 40446 97711,97973,97737
 2.0000e-001 98449 -9.4824e+001 -1.2027e+001  2.3444e+001 39935 98152,98204,98178
 2.0000e-001 98426 -1.0792e+002 -4.7557e+001  1.8864e+001 39935 98152,98230,98204
 2.0000e-001 98403 -1.2429e+002 -4.6415e+001  3.2957e+001 39935 98152,98256,98230
 2.0000e-001 98380 -1.0451e+002 -6.1027e+001  3.9527e+001 39935 98126,98256,98152
 2.0000e-001 98357 -1.0375e+002 -7.8060e+001  3.3994e+001 39935 98126,98282,98256
 2.0000e-001 98334 -4.9651e+001 -1.3325e+002  5.6594e+001 39935 98126,98308,98282
 2.0000e-001 98746 -1.6275e+002 -1.0534e+002  2.7331e+001 39531 98498,98602,98524
 2.0000e-001 98723 -1.5274e+002 -8.8433e+001  3.6445e+001 39531 98472,98602,98498
 2.0000e-001 98700 -1.4462e+002 -6.3010e+001  3.1365e+001 39531 98524,98602,98576
 2.0000e-001 98677 -1.0648e+002 -1.0308e+002  5.1505e+001 39531 98472,98628,98602
 2.0000e-001 98654 -1.9044e+002 -6.1975e+001  3.6610e+001 39531 98524,98576,98550
 2.0000e-001 99224 -1.3155e+002 -4.9670e+001  1.0588e+002 39027 99247,98956,98930
 2.0000e-001 99201 -1.4656e+002 -1.2504e+002  6.0521e+001 39027 99247,98930,98878
 2.0000e-001 99178 -1.1725e+002 -1.2337e+002  8.1228e+001 39027 99319,98982,98956
 2.0000e-001 99155 -1.2620e+002 -7.1686e+001  7.0841e+001 39027 98852,99060,98878
 2.0000e-001 99132 -1.5001e+002 -8.6236e+001  3.8948e+001 39027 98878,98930,98904
 2.0000e-001 99109 -1.6841e+002 -2.3779e+002  1.3065e+002 39027 98982,99060,99034
 2.0000e-001 99086 -1.7110e+002 -2.2778e+002  1.4788e+002 39027 98982,99034,99008
 2.0000e-001 99273 -1.1183e+002 -1.1314e+002  8.4344e+001 39027 99319,98956,99247
 2.0000e-001 99296 -1.1802e+002 -1.1172e+002  6.5499e+001 39027 99060,99247,98878
 2.0000e-001 99345 -1.1719e+002 -1.2847e+002  7.6324e+001 39027 99060,98982,99319
 2.0000e-001 99368 -1.1803e+002 -1.2605e+002  7.8381e+001 39027 99060,99319,99247
 2.0000e-001 99923 -1.1679e+002 -8.4321e+001  3.0103e+001 38523 99946,99655,99603
 2.0000e-001 99900 -1.0864e+002 -7.9528e+001  3.2908e+001 38523 99946,99603,99759
 2.0000e-001 99877 -9.8517e+001 -9.2241e+001  3.7279e+001 38523 100018,99707,99681
 2.0000e-001 99854 -1.0385e+002 -5.2366e+001  3.4052e+001 38523 99551,99759,99603
 2.0000e-001 99831 -9.8909e+001 -4.9216e+001  3.0077e+001 38523 99551,99603,99577
 2.0000e-001 99808 -9.8773e+001 -1.2172e+002  4.2987e+001 38523 99707,99759,99733
 2.0000e-001 99785 -1.5368e+002 -6.1288e+001  2.6552e+001 38523 99603,99655,99629
 2.0000e-001 99972 -1.0779e+002 -6.4168e+001  3.2013e+001 38523 99681,99655,99946
 2.0000e-001 99995 -1.0204e+002 -7.3127e+001  3.9962e+001 38523 100018,99681,99946
 2.0000e-001 100044 -1.0308e+002 -9.9519e+001  2.9131e+001 38523 99759,99707,100018
 2.0000e-001 100067 -1.1346e+002 -9.2201e+001  3.2269e+001 38523 99759,100018,99946
 2.0000e-001 100467 -6.6042e+001 -1.0975e+002  4.8212e+001 38125 100219,100349,100323
 2.0000e-001 100444 -9.3431e+000 -2.3694e+001  7.3157e+001 38125 100193,100349,100219
 2.0000e-001 100421 -4.4871e+001 -1.3625e+002  5.4292e+001 38125 100245,100323,100297
 2.0000e-001 100398 -4.1211e+001 -9.7388e+001  5.8586e+001 38125 100219,100323,100245
 2.0000e-001 100375 -7.1674e+001 -1.3142e+002  8.7980e+001 38125 100245,100297,100271
 2.0000e-001 100666 -1.7252e+002 -1.0180e+002  3.6012e+001 37607 100689,100568,100542
 2.0000e-001 100643 -1.7938e+002 -9.2913e+001  1.5246e+001 37607 100689,100542,100490
 2.0000e-001 100620 -1.8576e+002 -1.1741e+002  1.7853e+001 37607 100490,100542,100516
 2.0000e-001 100715 -1.3445e+002 -9.9261e+001  2.5535e+001 37607 100594,100568,100689
 2.0000e-001 100738 -1.6142e+002 -9.8077e+001  1.8424e+001 37607 100594,100689,100490
 2.0000e-001 100937 -1.2860e+002 -4.9941e+001  8.3574e+001 37017 100960,100813,100787
 2.0000e-001 100914 -1.4755e+002 -5.8234e+001  8.2348e+001 37017 100960,100787,100761
 2.0000e-001 100891 -1.0917e+002 -3.6753e+001  5.9884e+001 37017 100813,100865,100839
 2.0000e-001 100986 -1.0895e+002 -5.3471e+001  6.1334e+001 37017 100865,100813,100960
 2.0000e-001 101009 -1.4532e+002 -6.9359e+001  5.9208e+001 37017 100865,100960,100761
 2.0000e-001 101519 -1.9634e+002 -1.5466e+002  6.7003e+001 36613 101222,101274,101248
 2.0000e-001 101496 -1.2521e+002 -1.0956e+002  4.7046e+001 36613 101222,101352,101274
 2.0000e-001 101473 -1.4279e+002 -1.5043e+002  5.0905e+001 36613 101274,101352,101326
 2.0000e-001 101450 -1.1990e+002 -8.9122e+001  5.5752e+001 36613 101222,101378,101352
 2.0000e-001 101427 -6.1179e+001 -1.1940e+002  9.2651e+001 36613 101274,101326,101300
 2.0000e-001 101404 -1.1367e+002 -5.0191e+001  1.6887e+001 36613 101196,101378,101222
 2.0000e-001 101718 -1.6444e+002 -6.3717e+001  4.9382e+001 36308 101594,101646,101620
 2.0000e-001 101695 -1.6960e+002 -7.3028e+001  4.5799e+001 36308 101568,101646,101594
 2.0000e-001 101672 -2.1526e+002 -6.7770e+001  3.4272e+001 36308 101542,101646,101568
 2.0000e-001 102098 -1.3660e+002 -6.5030e+001  3.1145e+001 35918 102121,101954,101876
 2.0000e-001 102075 -1.0676e+002 -8.2537e+001  2.4830e+001 35918 102121,101876,101824
 2.0000e-001 102052 -1.4428e+002 -6.9397e+001  2.3686e+001 35918 101876,101954,101928
 2.0000e-001 102029 -1.8467e+002 -2.1417e+001  2.5071e+001 35918 101876,101928,101902
 2.0000e-001 102006 -1.0253e+002 -7.0496e+001  1.4935e+001 35918 101824,101876,101850
 2.0000e-001 102147 -1.5949e+002 -8.1288e+001  3.8321e+001 35918 101980,101954,102121
 2.0000e-001 102170 -1.2575e+002 -9.7301e+001  3.1243e+001 35918 101980,102121,101824
 2.0000e-001 102489 -5.7329e+001 -1.1264e+002  4.3641e+001 35514 102241,102345,102267
 2.0000e-001 102466 -6.2006e+001 -1.0402e+002  3.3986e+001 35514 102215,102345,102241
 2.0000e-001 102443 -4.8664e+001 -1.1403e+002  3.6637e+001 35514 102215,102371,102345
 2.0000e-001 102420 -5.4273e+001 -1.2569e+002  4.2468e+001 35514 102267,102345,102293
 2.0000e-001 102397 -3.9087e+001 -9.1954e+001  4.5695e+001 35514 102293,102345,102319
 2.0000e-001 102820 -1.6675e+002 -1.2279e+002  2.2363e+001 35224 102843,102699,102647
 2.0000e-001 102797 -1.9776e+002 -1.1094e+002  4.8797e+001 35224 102971,102725,102699
 2.0000e-001 102774 -1.5266e+002 -1.1925e+002  7.1821e+001 35224 102595,102725,102621
 2.0000e-001 102751 -1.0358e+002 -5.9797e+001  4.7622e+001 35224 102647,102699,102673
 2.0000e-001 102869 -1.4669e+002 -1.1054e+002  4.7672e+001 35224 102971,102699,102843
 2.0000e-001 102997 -1.4072e+002 -1.2446e+002  5.4555e+001 35224 102621,102725,102971
 2.0000e-001 103020 -7.8393e+001 -1.1381e+002  6.0436e+001 35224 102621,102971,102843
 2.0000e-001 103349 -9.4102e+001 -4.7993e+001  5.2293e+001 34820 103150,103228,103176
 2.0000e-001 103326 -1.2012e+002 -7.9538e+001  4.0230e+001 34820 103124,103228,103150
 2.0000e-001 103303 -9.1940e+001 -6.1511e+001  6.5883e+001 34820 103176,103228,103202
 2.0000e-001 103280 -9.6267e+001 -6.6870e+001  5.5130e+001 34820 103124,103254,103228
 2.0000e-001 103806 -1.6606e+002 -9.8803e+001  3.8752e+001 34530 103558,103662,103636
 2.0000e-001 103783 -1.4343e+002 -9.0910e+001  3.8533e+001 34530 103558,103688,103662
 2.0000e-001 103760 -1.6208e+002 -1.0762e+002  1.8381e+001 34530 103532,103688,103558
 2.0000e-001 103737 -1.9166e+002 -1.0475e+002  5.5291e+001 34530 103584,103636,103610
 2.0000e-001 103714 -2.3882e+002 -1.2465e+002  4.6841e+001 34530 103558,103636,103584
 2.0000e-001 104263 -5.3177e+001 -4.4732e+001  2.2231e+001 34019 103989,104119,104015
 2.0000e-001 104240 -5.0125e+001 -3.8316e+001  3.4843e+001 34019 103989,104145,104119
 2.0000e-001 104217 -5.3603e+001 -5.7252e+001  1.0888e+001 34019 104015,104067,104041
 2.0000e-001 104194 -5.2594e+001 -5.7274e+001  2.0742e+001 34019 104015,104119,104067
 2.0000e-001 104171 -7.1234e+001 -2.7907e+001  2.2661e+001 34019 104067,104119,104093
 2.0000e-001 104641 -1.3533e+002 -4.1087e+001  3.9164e+001 33351 104419,104497,104445
 2.0000e-001 104618 -1.6487e+002 -6.3601e+001  2.8749e+001 33351 104393,104497,104419
 2.0000e-001 104595 -1.9524e+002 -7.6743e+001  2.7426e+001 33351 104367,104497,104393
 2.0000e-001 104572 -1.2677e+002 -2.3428e+001  2.5573e+001 33351 104445,104497,104471
 2.0000e-001 104549 -1.8384e+002 -8.5664e+001  1.9225e+001 33351 104367,104523,104497
 2.0000e-001 105019 -7.1501e+001 -1.0919e+002  4.6537e+001 32861 104823,104901,104875
 2.0000e-001 104996 -8.1478e+001 -9.9158e+001  4.0122e+001 32861 104745,104901,104823
 2.0000e-001 104973 -1.0517e+002 -1.2326e+002  4.7812e+001 32861 104823,104875,104849
 2.0000e-001 104950 -8.6306e+001 -1.0403e+002  5.1117e+001 32861 104745,104823,104797
 2.0000e-001 104927 -7.3542e+001 -1.4477e+001  5.9106e+001 32861 104745,104797,104771
 2.0000e-001 105397 -8.1281e+001 -7.2626e+001  4.7373e+001 32457 105149,105253,105175
 2.0000e-001 105374 -1.2740e+002 -7.2517e+001  4.4422e+001 32457 105149,105279,105253
 2.0000e-001 105351 -1.2092e+002 -6.8335e+001  4.6227e+001 32457 105123,105279,105149
 2.0000e-001 105328 -1.8782e+002 -2.6249e+001  1.0862e+002 32457 105175,105227,105201
 2.0000e-001 105305 -1.6440e+002 -1.0622e+002  5.9517e+001 32457 105175,105253,105227
 2.0000e-001 105726 -6.5850e+001 -8.0016e+001  3.4669e+001 32003 105527,105605,105553
 2.0000e-001 105703 -8.9981e+001 -5.4671e+001  3.1349e+001 32003 105501,105605,105527
 2.0000e-001 105680 -9.9220e+001 -5.1826e+001  1.8588e+001 32003 105501,105631,105605
 2.0000e-001 105657 -3.8652e+001 -4.8833e+001  1.9981e+001 32003 105553,105605,105579
 2.0000e-001 106104 -1.3625e+002 -7.6468e+001  8.0630e+001 31492 106127,105908,105856
 2.0000e-001 106081 -1.6335e+002 -8.7320e+001  6.3659e+001 31492 106127,105856,105830
 2.0000e-001 106058 -1.3338e+002 -1.0904e+002  8.9326e+001 31492 105856,105908,105882
 2.0000e-001 106035 -1.6862e+002 -1.2871e+002  5.0503e+001 31492 105830,105986,105960
 2.0000e-001 106012 -9.9918e+001 -8.7230e+001  7.3718e+001 31492 105908,105960,105934
 2.0000e-001 106153 -1.2811e+002 -9.9632e+001  5.9994e+001 31492 105960,105908,106127
 2.0000e-001 106176 -1.4529e+002 -1.1519e+002  4.5003e+001 31492 105960,106127,105830
 2.0000e-001 106375 -1.4005e+002 -5.3836e+001  6.0394e+001 30788 106398,106277,106251
 2.0000e-001 106352 -1.8008e+002 -8.4413e+001  3.4532e+001 30788 106398,106251,106225
 2.0000e-001 106329 -1.7661e+002 -1.1557e+002  4.5813e+001 30788 106600,106199,106303
 2.0000e-001 106424 -1.6015e+002 -1.1159e+002  4.9653e+001 30788 106470,106398,106303
 2.0000e-001 106447 -1.5857e+002 -1.0554e+002  4.9754e+001 30788 106600,106303,106398
 2.0000e-001 106496 -4.3288e+001 -6.1879e+001  4.1371e+001 30788 106277,106398,106470
 2.0000e-001 106626 -1.7952e+002 -1.0207e+002  5.8230e+001 30788 106225,106199,106600
 2.0000e-001 106649 -1.7423e+002 -9.8978e+001  5.9529e+001 30788 106225,106600,106398
 2.0000e-001 106799 -5.3132e+001 -1.2971e+002  3.3769e+001 30426 106698,106750,106724
 2.0000e-001 106776 -3.3586e+001 -7.9036e+001  4.3579e+001 30426 106672,106750,106698
 2.0000e-001 107356 -1.6775e+002 -8.2726e+001  2.8760e+001 29972 107010,107166,107114
 2.0000e-001 107333 -1.3732e+002 -5.2183e+001  5.0621e+001 29972 106984,107166,107010
 2.0000e-001 107310 -1.5275e+002 -4.2830e+001  9.7884e+000 29972 107010,107114,107088
 2.0000e-001 107287 -1.2923e+002  2.0586e+000  3.7814e+001 29972 107114,107166,107140
 2.0000e-001 107264 -1.4623e+002 -9.3731e+001  7.6635e+001 29972 106984,107192,107166
 2.0000e-001 107241 -1.3896e+002 -7.7425e+001 -8.1528e+000 29972 107010,107088,107036
 2.0000e-001 107218 -1.3477e+002 -7.5980e+001 -6.1735e-001 29972 107036,107088,107062
 2.0000e-001 107783 -8.5030e+001 -8.2171e+001  4.0938e+001 29724 107878,107806,107590
 2.0000e-001 107760 -1.4386e+002 -1.0126e+002  3.9211e+001 29724 107806,107512,107486
 2.0000e-001 107737 -8.0407e+001 -8.2869e+001  3.8900e+001 29724 107878,107590,107538
 2.0000e-001 107714 -9.8481e+001 -1.0924e+002  5.3527e+001 29724 107950,107460,107616
 2.0000e-001 107691 -9.3973e+001 -1.0728e+002  5.3343e+001 29724 107460,107642,107616
 2.0000e-001 107668 -3.9309e+001 -7.9387e+001  4.6679e+001 29724 107538,107590,107564
 2.0000e-001 107832 -7.1298e+001 -9.0811e+001  6.3455e+001 29724 107616,107590,107806
 2.0000e-001 107855 -1.0054e+002 -1.0987e+002  5.4014e+001 29724 107950,107616,107806
 2.0000e-001 107904 -1.0133e+002 -8.5613e+001  5.8344e+001 29724 107512,107806,107878
 2.0000e-001 107927 -6.9734e+001 -7.4473e+001  5.9893e+001 29724 107512,107878,107538
 2.0000e-001 107976 -6.7672e+001 -1.0284e+002  5.5469e+001 29724 107486,107460,107950
 2.0000e-001 107999 -9.5751e+001 -1.1392e+002  5.2418e+001 29724 107486,107950,107806
 2.0000e-001 108296 -5.7805e+001 -8.8499e+001  4.3933e+001 29206 108319,108100,108048
 2.0000e-001 108273 -4.8121e+001 -8.3980e+001  4.2735e+001 29206 108319,108048,108022
 2.0000e-001 108250 -3.8946e+001 -9.1680e+001  4.7323e+001 29206 108391,108152,108126
 2.0000e-001 108227 -1.1284e+002 -6.0846e+001  7.1130e+001 29206 108048,108100,108074
 2.0000e-001 108204 -4.4230e+001 -1.0273e+002  4.2699e+001 29206 108022,108178,108152
 2.0000e-001 108345 -5.3684e+001 -8.4880e+001  5.0590e+001 29206 108126,108100,108319
 2.0000e-001 108368 -4.3602e+001 -8.4187e+001  5.0835e+001 29206 108391,108126,108319
 2.0000e-001 108417 -4.8748e+001 -1.0020e+002  4.2785e+001 29206 108022,108152,108391
 2.0000e-001 108440 -5.2498e+001 -9.4439e+001  4.6633e+001 29206 108022,108391,108319
 2.0000e-001 108688 -1.8756e+002 -1.1108e+002  5.9293e+001 28595 108711,108541,108515
 2.0000e-001 108665 -2.2361e+002 -1.1898e+002  7.1297e+001 28595 108783,108711,108515
 2.0000e-001 108642 -2.4184e+002 -1.0965e+002  6.9857e+001 28595 108783,108515,108489
 2.0000e-001 108619 -2.4548e+002 -1.3296e+002  4.8925e+001 28595 108463,108593,108489
 2.0000e-001 108737 -1.8020e+002 -1.0137e+002  4.1666e+001 28595 108567,108541,108711
 2.0000e-001 108760 -1.7922e+002 -1.0682e+002  6.1552e+001 28595 108567,108711,108593
 2.0000e-001 108809 -1.8680e+002 -1.2167e+002  5.8627e+001 28595 108593,108711,108783
 2.0000e-001 108832 -2.1717e+002 -1.2022e+002  5.1732e+001 28595 108593,108783,108489
 2.0000e-001 109033 -1.1810e+002 -7.5726e+001  5.7863e+001 28091 108909,108961,108935
 2.0000e-001 109010 -1.6704e+002 -8.1188e+001  4.3195e+001 28091 108857,108961,108909
 2.0000e-001 108987 -1.8821e+002 -1.0466e+002  6.0666e+001 28091 108857,108909,108883
 2.0000e-001 109136 -6.3110e+001 -1.4753e+002  2.8145e+001 27587 109058,109110,109084
 2.0000e-001 109695 -1.3406e+002 -1.0943e+002  3.9471e+001 26969 109718,109375,109323
 2.0000e-001 109672 -1.3542e+002 -1.0095e+002  4.6334e+001 26969 109718,109323,109505
 2.0000e-001 109649 -1.5921e+002 -2.7863e+001  1.7543e+001 26969 109790,109453,109427
 2.0000e-001 109626 -6.9509e+001 -1.3101e+002  5.5543e+001 26969 109323,109375,109349
 2.0000e-001 109603 -1.7449e+002 -1.4454e+002  7.2160e+001 26969 109323,109531,109505
 2.0000e-001 109580 -1.0782e+002 -1.2006e+002  1.8553e+001 26969 109375,109427,109401
 2.0000e-001 109557 -1.6396e+002 -2.7735e+001  1.6436e+001 26969 109453,109505,109479
 2.0000e-001 109744 -1.4268e+002 -1.2620e+002  1.8220e+001 26969 109427,109375,109718
 2.0000e-001 109767 -1.1581e+002 -6.4274e+001  2.1107e+001 26969 109790,109427,109718
 2.0000e-001 109816 -1.8442e+002 -6.4078e+001  3.4962e+001 26969 109505,109453,109790
 2.0000e-001 109839 -1.5573e+002 -1.0915e+002  4.4190e+001 26969 109505,109790,109718
 2.0000e-001 110266 -1.1955e+002 -1.4760e+002  6.3095e+001 26515 110361,110289,110099
 2.0000e-001 110243 -1.3009e+002 -1.4724e+002  9.5047e+001 26515 110289,109995,109943
 2.0000e-001 110220 -1.0333e+002 -1.4141e+002  6.7194e+001 26515 110361,110099,110021
 2.0000e-001 110197 -9.4992e+001 -1.4417e+002  2.9752e+001 26515 110047,110099,110073
 2.0000e-001 110174 -1.1097e+002 -1.9327e+002  4.4123e+001 26515 110021,110099,110047
 2.0000e-001 110151 -6.6326e+000 -2.4259e+001  1.5652e+002 26515 109943,109995,109969
 2.0000e-001 110315 -2.0323e+002 -1.4309e+002  6.4085e+001 26515 110125,110099,110289
 2.0000e-001 110338 -1.1921e+002 -8.0246e+001  9.6693e+001 26515 110125,110289,109943
 2.0000e-001 110387 -1.0482e+002 -1.4404e+002  8.0072e+001 26515 109995,110289,110361
 2.0000e-001 110410 -9.2804e+001 -1.4343e+002  8.2537e+001 26515 109995,110361,110021
 2.0000e-001 110609 -8.4891e+001 -7.8576e+001  2.8736e+001 25789 110906,110762,110632
 2.0000e-001 110586 -7.6240e+001 -9.7671e+001  4.2617e+001 25789 110762,110433,110537
 2.0000e-001 110563 -1.1820e+002 -8.2630e+001  4.3925e+001 25789 110834,110459,110433
 2.0000e-001 110658 -9.7530e+001 -8.3989e+001  3.5475e+001 25789 110906,110632,110834
 2.0000e-001 110788 -6.8117e+001 -3.5439e+001  2.4165e+001 25789 110511,110632,110762
 2.0000e-001 110811 -6.0805e+001 -7.1378e+001  4.9086e+001 25789 110511,110762,110537
 2.0000e-001 110860 -9.3711e+001 -7.5010e+001  5.2628e+001 25789 110485,110459,110834
 2.0000e-001 110883 -1.0974e+002 -1.1464e+002  5.0008e+001 25789 110485,110834,110632
 2.0000e-001 110932 -1.0818e+002 -7.9318e+001  3.5937e+001 25789 110433,110762,110906
 2.0000e-001 110955 -1.1566e+002 -7.7372e+001  4.0136e+001 25789 110433,110906,110834
 2.0000e-001 111350 -1.9179e+002 -1.2863e+002  5.6189e+001 25228 111445,111373,111186
 2.0000e-001 111327 -2.6805e+002 -1.6672e+002  5.5319e+001 25228 110978,111186,111004
 2.0000e-001 111304 -1.9174e+002 -1.2618e+002  5.5291e+001 25228 111373,111108,111082
 2.0000e-001 111281 -1.5429e+002 -1.5519e+002  2.9085e+001 25228 111134,111186,111160
 2.0000e-001 111258 -1.9166e+002 -1.2604e+002  5.2540e+001 25228 111445,111186,111134
 2.0000e-001 111235 -1.9226e+002 -1.2730e+002  5.3150e+001 25228 111517,111030,111004
 2.0000e-001 111212 -1.9172e+002 -1.3260e+002  4.7833e+001 25228 111030,111082,111056
 2.0000e-001 111399 -1.9156e+002 -1.3382e+002  5.5809e+001 25228 111004,111186,111373
 2.0000e-001 111422 -1.9004e+002 -1.2693e+002  5.5948e+001 25228 111517,111004,111373
 2.0000e-001 111471 -1.8698e+002 -1.2605e+002  5.2795e+001 25228 111108,111373,111445
 2.0000e-001 111494 -1.8674e+002 -1.2299e+002  4.9113e+001 25228 111108,111445,111134
 2.0000e-001 111543 -1.9743e+002 -1.3006e+002  5.1175e+001 25228 111082,111030,111517
 2.0000e-001 111566 -1.9464e+002 -1.2888e+002  5.4173e+001 25228 111082,111517,111373
 2.0000e-001 112074 -2.1572e+002 -1.2481e+002  4.0019e+001 24338 112097,111907,111881
 2.0000e-001 112051 -2.1155e+002 -1.2332e+002  4.0499e+001 24338 112097,111881,111829
 2.0000e-001 112028 -1.6011e+002 -1.1620e+002  4.3739e+001 24338 111829,111881,111855
 2.0000e-001 112005 -2.0237e+002 -1.2762e+002  2.5198e+001 24338 111777,111933,111829
 2.0000e-001 111982 -2.1448e+002 -5.5033e+001  2.9351e+001 24338 111751,111933,111777
 2.0000e-001 111959 -1.9874e+002 -1.7381e+002  5.7013e+001 24338 111777,111829,111803
 2.0000e-001 112123 -2.1352e+002 -1.2619e+002  4.3909e+001 24338 111933,111907,112097
 2.0000e-001 112146 -2.0851e+002 -1.2496e+002  4.3169e+001 24338 111933,112097,111829
 2.0000e-001 112443 -1.6376e+002 -1.2165e+002  3.2462e+001 23998 112466,112299,112247
 2.0000e-001 112420 -2.0344e+002 -1.6384e+002  5.1622e+001 23998 112466,112247,112221
 2.0000e-001 112397 -2.5742e+002 -1.6518e+002  5.4107e+001 23998 112169,112325,112221
 2.0000e-001 112374 -2.3623e+002 -1.3081e+002  6.4333e+001 23998 112169,112221,112195
 2.0000e-001 112351 -1.8451e+002 -1.0287e+002  3.1841e+001 23998 112247,112299,112273
 2.0000e-001 112492 -2.0096e+002 -1.3980e+002  5.6578e+001 23998 112325,112299,112466
 2.0000e-001 112515 -2.1151e+002 -1.5249e+002  7.0052e+001 23998 112325,112466,112221
 2.0000e-001 113200 -1.3860e+002 -1.4562e+002  6.4542e+001 23480 112779,112961,112805
 2.0000e-001 113177 -1.2864e+002 -1.1396e+002  4.8123e+001 23480 112779,112987,112961
 2.0000e-001 113154 -9.0415e+001 -9.4319e+001  4.4705e+001 23480 112805,112961,112883
 2.0000e-001 113131 -1.3451e+002 -1.3622e+002  4.5155e+001 23480 112883,112935,112909
 2.0000e-001 113108 -1.3839e+002 -1.1566e+002  4.0834e+001 23480 112883,112961,112935
 2.0000e-001 113085 -1.1461e+002 -1.0001e+002  2.8959e+001 23480 112831,112883,112857
 2.0000e-001 113062 -1.1213e+002 -1.1223e+002  2.9121e+001 23480 112805,112883,112831
 2.0000e-001 113039 -1.6909e+002 -7.7445e+001  5.2922e+001 23480 112779,113013,112987
 2.0000e-001 113676 -1.0816e+002 -9.3059e+001  4.4262e+001 23018 113699,113434,113356
 2.0000e-001 113653 -9.1672e+001 -8.5580e+001  4.6765e+001 23018 113771,113699,113356
 2.0000e-001 113630 -8.6874e+001 -9.4255e+001  4.3596e+001 23018 113771,113356,113512
 2.0000e-001 113607 -7.9030e+001 -1.0054e+002  5.1112e+001 23018 113330,113512,113356
 2.0000e-001 113584 -1.7337e+002 -6.2816e+001  6.0940e+001 23018 113356,113434,113382
 2.0000e-001 113561 -2.4265e+001 -9.3103e+001  5.1276e+001 23018 113304,113512,113330
 2.0000e-001 113538 -1.2947e+002 -1.7157e+001  2.8997e+001 23018 113382,113434,113408
 2.0000e-001 113725 -1.0625e+002 -9.3880e+001  5.5627e+001 23018 113460,113434,113699
 2.0000e-001 113748 -8.2416e+001 -8.2770e+001  6.0939e+001 23018 113460,113699,113486
 2.0000e-001 113797 -1.0312e+002 -9.7424e+001  5.2575e+001 23018 113486,113699,113771
 2.0000e-001 113820 -9.1416e+001 -9.7999e+001  4.7590e+001 23018 113486,113771,113512
 2.0000e-001 114424 -2.0698e+002 -1.5361e+002  2.9853e+001 22514 114447,114133,114029
 2.0000e-001 114401 -2.1328e+002 -1.7214e+002  3.3100e+001 22514 114447,114029,114237
 2.0000e-001 114378 -2.2801e+002 -1.3141e+002  2.8081e+000 22514 114133,114211,114185
 2.0000e-001 114355 -2.6574e+002 -1.4203e+002 -5.3968e-001 22514 114133,114185,114159
 2.0000e-001 114332 -2.1509e+002 -1.8169e+002  6.7526e+001 22514 114003,114237,114029
 2.0000e-001 114309 -1.9957e+002 -1.1696e+002  2.4436e+001 22514 114029,114133,114055
 2.0000e-001 114286 -1.7346e+002 -1.3838e+002  1.6691e+001 22514 114055,114133,114107
 2.0000e-001 114263 -1.3099e+002  3.4856e+000 -7.6488e+000 22514 114055,114107,114081
 2.0000e-001 114473 -2.1808e+002 -1.4175e+002  3.6445e+001 22514 114211,114133,114447
 2.0000e-001 114496 -2.2091e+002 -1.5542e+002  3.8731e+001 22514 114211,114447,114237
 2.0000e-001 114597 -8.0835e+001 -1.9402e+002  1.2217e+002 22316 114620,114571,114545
 2.0000e-001 114646 -8.0835e+001 -1.9402e+002  1.2217e+002 22316 114519,114571,114620
 2.0000e-001 115127 -2.6467e+002 -1.4401e+002  4.3573e+001 21612 115150,114905,114879
 2.0000e-001 115104 -2.7675e+002 -1.0252e+002  4.6382e+001 21612 115150,114879,114853
 2.0000e-001 115081 -2.5832e+002 -9.9590e+001  6.2526e+001 21612 115222,114931,114905
 2.0000e-001 115058 -2.5788e+002 -1.2130e+002  5.9616e+001 21612 115222,114905,115009
 2.0000e-001 115035 -2.6926e+002 -1.4279e+002  5.7105e+001 21612 114957,115009,114983
 2.0000e-001 115176 -2.5710e+002 -1.1064e+002  4.3186e+001 21612 115009,114905,115150
 2.0000e-001 115199 -2.6531e+002 -6.3436e+001  4.4545e+001 21612 115009,115150,114853
 2.0000e-001 115248 -2.5906e+002 -1.1855e+002  6.0447e+001 21612 114957,114931,115222
 2.0000e-001 115271 -2.5746e+002 -1.3848e+002  5.7239e+001 21612 114957,115222,115009
 2.0000e-001 115519 -5.4354e+001  6.1617e+000  6.5094e+001 21208 115542,115372,115320
 2.0000e-001 115496 -3.4799e+001  2.0018e+001  2.4113e+001 21208 115542,115320,115294
 2.0000e-001 115473 -3.5843e+001 -8.6265e+001  8.5440e+001 21208 115320,115372,115346
 2.0000e-001 115450 -1.1596e+002 -4.4811e+001  1.5655e+000 21208 115294,115424,115398
 2.0000e-001 115568 -6.0189e+001 -1.8274e+001  6.1222e+001 21208 115398,115372,115542
 2.0000e-001 115591 -6.4027e+001 -5.6980e+001  2.7039e+001 21208 115398,115542,115294
 2.0000e-001 115839 -2.4224e+002 -1.1651e+002  6.9935e+001 20668 115862,115640,115614
 2.0000e-001 115816 -2.7537e+002 -1.0057e+002  8.5191e+001 20668 115862,115614,115744
 2.0000e-001 115793 -3.3750e+002 -1.4709e+002  5.6739e+001 20668 115640,115718,115692
 2.0000e-001 115770 -3.5720e+002 -1.5312e+002  5.6210e+001 20668 115640,115692,115666
 2.0000e-001 115888 -2.7974e+002 -1.2793e+002  6.2656e+001 20668 115718,115640,115862
 2.0000e-001 115911 -3.0237e+002 -1.0577e+002  8.4389e+001 20668 115718,115862,115744
 2.0000e-001 116134 -2.6650e+001 -9.4648e+001  6.7453e+001 20264 115958,116036,115984
 2.0000e-001 116111 -4.2730e+001 -1.0136e+002  6.7732e+001 20264 115958,116062,116036
 2.0000e-001 116088 -4.3530e+001 -1.0299e+002  6.2740e+001 20264 115984,116036,116010
 2.0000e-001 116384 -2.0874e+002 -1.0314e+002  4.1943e+001 19924 116407,116211,116159
 2.0000e-001 116361 -2.0801e+002 -1.2314e+002  4.0189e+001 19924 116407,116159,116263
 2.0000e-001 116338 -2.0053e+002 -8.9241e+001  4.5992e+001 19924 116159,116211,116185
 2.0000e-001 116315 -1.9192e+002 -1.2949e+002  5.9405e+001 19924 116159,116289,116263
 2.0000e-001 116433 -2.1178e+002 -9.0377e+001  4.5650e+001 19924 116237,116211,116407
 2.0000e-001 116456 -2.0554e+002 -1.0477e+002  4.5994e+001 19924 116237,116407,116263
 2.0000e-001 116608 -2.1782e+002 -9.2969e+001  4.5665e+001 19520 116703,116631,116533
 2.0000e-001 116585 -2.2483e+002 -8.6579e+001  5.0059e+001 19520 116631,116507,116481
 2.0000e-001 116657 -2.2249e+002 -8.7067e+001  4.2124e+001 19520 116559,116533,116631
 2.0000e-001 116680 -2.2300e+002 -7.2799e+001  4.6673e+001 19520 116559,116631,116481
 2.0000e-001 116729 -2.1782e+002 -9.2969e+001  4.5665e+001 19520 116507,116631,116703
 2.0000e-001 116952 -5.0211e+001 -5.3230e+001  7.5080e+001 19208 116975,116802,116776
 2.0000e-001 116929 -6.8576e+001 -1.1131e+002  5.1467e+001 19208 116975,116776,116880
 2.0000e-001 116906 -1.0268e+002 -4.3950e+001  5.3003e+001 19208 116802,116854,116828
 2.0000e-001 117001 -4.8317e+001 -4.0812e+001  8.2575e+001 19208 116854,116802,116975
 2.0000e-001 117024 -2.3726e+001 -5.7202e+001  7.1404e+001 19208 116854,116975,116880
 2.0000e-001 117428 -1.4042e+002 -5.9644e+001  4.1956e+001 18796 117154,117206,117180
 2.0000e-001 117405 -1.2495e+002 -8.6232e+001  4.3164e+001 18796 117154,117284,117206
 2.0000e-001 117382 -1.2300e+002 -8.7687e+001  3.7811e+001 18796 117154,117310,117284
 2.0000e-001 117359 -1.0702e+002 -6.8384e+001  5.5376e+001 18796 117206,117284,117258
 2.0000e-001 117336 -1.0449e+002 -4.5321e+001  6.8451e+001 18796 117206,117258,117232
 2.0000e-001 117529 -9.6438e+001 -2.0830e+001  4.7415e+001 18228 117810,117552,117477
 2.0000e-001 117578 -1.3342e+002 -1.0640e+002  4.3396e+001 18228 117682,117552,117503
 2.0000e-001 117708 -4.0270e+001 -6.8734e+001  5.1534e+001 18228 117477,117552,117682
 2.0000e-001 117836 -1.2268e+002 -9.7581e+001  4.3981e+001 18228 117451,117552,117810
 2.0000e-001 118364 -1.6304e+002 -6.8978e+001  3.4135e+001 17722 118067,118223,118093
 2.0000e-001 118341 -1.4813e+002 -1.6393e+001  3.0606e+001 17722 118041,118223,118067
 2.0000e-001 118318 -1.3334e+002 -4.8824e+001  2.4625e+001 17722 118093,118223,118197
 2.0000e-001 118295 -1.5537e+002 -1.2334e+002  5.4944e+001 17722 118119,118197,118171
 2.0000e-001 118272 -1.3058e+002 -5.4891e+001  3.0346e+001 17722 118093,118197,118119
 2.0000e-001 118249 -9.7286e+001 -1.2013e+001  7.6624e+001 17722 118119,118171,118145
 2.0000e-001 118514 -1.2505e+002 -5.3398e+001  4.9725e+001 17268 118387,118439,118413
 2.0000e-001 118491 -9.6150e+001 -4.8771e+001  4.9367e+001 17268 118387,118465,118439
 2.0000e-001 118916 -3.0271e+002 -1.2905e+002  3.9396e+001 16828 118668,118772,118694
 2.0000e-001 118893 -3.5788e+002 -1.4820e+002  3.2050e+001 16828 118668,118798,118772
 2.0000e-001 118870 -4.0660e+002 -2.3632e+002  5.2641e+001 16828 118642,118798,118668
 2.0000e-001 118847 -2.6995e+002 -1.1646e+002  7.5140e+001 16828 118694,118746,118720
 2.0000e-001 118824 -3.1588e+002 -1.6858e+002  4.1117e+001 16828 118694,118772,118746
 2.0000e-001 119316 -1.3815e+002 -7.7304e+001  9.2136e+001 16422 119042,119172,119094
 2.0000e-001 119293 -1.7189e+002 -8.8821e+001  8.9972e+001 16422 119042,119198,119172
 2.0000e-001 119270 -1.4160e+002 -6.1177e+001  6.7136e+001 16422 119042,119094,119068
 2.0000e-001 119247 -2.0466e+002 -9.0089e+001  1.4369e+002 16422 119094,119146,119120
 2.0000e-001 119224 -1.3723e+002 -8.0588e+001  9.5743e+001 16422 119094,119172,119146
 2.0000e-001 119466 -3.7800e+002 -1.5731e+002 -3.0927e+001 16010 119339,119391,119365
 2.0000e-001 119443 -2.4320e+002 -1.4625e+002  5.9203e+001 16010 119339,119417,119391
 2.0000e-001 119616 -8.3534e+001 -3.6885e+001  8.4356e+001 15547 119515,119567,119541
 2.0000e-001 119593  3.8162e+000  5.4684e+000  9.7624e+001 15547 119489,119567,119515
 2.0000e-001 119719 -1.9922e+002 -8.2424e+001 -5.5413e+000 421 119641,119693,119667
 3.0000e-001 69562 -1.8026e+002 -7.9298e+001  1.1895e+002 69254 69484,69536,69510
 3.0000e-001 70009 -6.0400e+001 -4.7867e+001  5.7865e+001 68942 69686,69842,69816
 3.0000e-001 69986 -5.5755e+001 -2.7085e+001  3.2760e+001 68942 69686,69868,69842
 3.0000e-001 69963 -1.0945e+000 -4.3830e-001  8.0617e+001 68942 69686,69816,69712
 3.0000e-001 69940 -2.4497e+001 -1.2358e+001  1.1474e+002 68942 69712,69790,69738
 3.0000e-001 69917 -7.6295e+001 -1.6841e+002  9.5489e+001 68942 69712,69816,69790
 3.0000e-001 69894  2.0882e+000 -9.6561e+001  5.0361e+001 68942 69738,69790,69764
 3.0000e-001 70110 -3.8569e+001 -1.2166e+001  1.9309e+001 68766 70032,70084,70058
 3.0000e-001 70746  1.7266e+001 -1.6208e+001  2.7177e+001 68448 70400,70556,70426
 3.0000e-001 70723 -4.8149e+001 -1.7378e+001  3.3600e+001 68448 70374,70556,70400
 3.0000e-001 70700 -1.1514e+000 -1.6865e+001  1.1991e+001 68448 70426,70556,70478
 3.0000e-001 70677 -2.5301e+001 -1.2407e+001  1.2354e+001 68448 70478,70556,70504
 3.0000e-001 70654 -1.6941e+001 -3.9962e+001  1.8897e+001 68448 70426,70478,70452
 3.0000e-001 70631 -4.7308e+001 -1.1835e+001  3.8918e+001 68448 70374,70582,70556
 3.0000e-001 70608 -2.5600e+001 -3.9951e+000  6.5606e+000 68448 70504,70556,70530
 3.0000e-001 70896 -6.5202e+000 -5.4624e+000  1.3276e+001 68250 70795,70847,70821
 3.0000e-001 70873 -1.0996e+002 -4.0696e+001 -4.7531e+000 68250 70769,70847,70795
 3.0000e-001 70997 -3.8113e+002 -1.6639e+002  1.4113e+002 68052 70919,70971,70945
 3.0000e-001 71367 -1.1351e+002 -1.7327e+002  7.3489e+001 67740 71096,71226,71200
 3.0000e-001 71344 -7.9054e+001 -1.0465e+002  8.7140e+001 67740 71044,71226,71096
 3.0000e-001 71321  2.0769e+000 -2.0769e+000  1.3844e+002 67740 71044,71096,71070
 3.0000e-001 71298 -9.2722e+001 -1.8354e+002  1.3518e+002 67740 71096,71200,71174
 3.0000e-001 71275 -4.6832e+001 -1.1025e+002  5.2991e+001 67740 71096,71148,71122
 3.0000e-001 71252 -6.7395e+001 -1.3040e+002  8.9843e+001 67740 71096,71174,71148
 3.0000e-001 71519  3.9170e+001  1.9285e+001  4.3265e+001 67542 71418,71470,71444
 3.0000e-001 71496  6.9290e+001  1.5520e+002  1.3423e+002 67542 71392,71470,71418
 3.0000e-001 71923 -2.7306e+001 -8.6343e+000  3.5970e+001 67230 71649,71779,71675
 3.0000e-001 71900 -2.4109e+001 -3.4463e+001  2.8922e+001 67230 71649,71805,71779
 3.0000e-001 71877 -2.8665e+001 -1.1100e+001  6.2641e+001 67230 71675,71727,71701
 3.0000e-001 71854 -3.8110e+001 -8.9780e+001  6.5468e+001 67230 71675,71753,71727
 3.0000e-001 71831 -3.5842e+001 -5.8078e+001  4.6512e+001 67230 71675,71779,71753
 3.0000e-001 72433 -3.5705e+001 -2.3342e+001  4.3302e+001 67032 72038,72246,72220
 3.0000e-001 72410 -2.1853e+001 -4.4651e+000  1.2516e+001 67032 72012,72246,72038
 3.0000e-001 72387 -5.1392e+001 -8.5949e+000  4.4007e+001 67032 72064,72194,72168
 3.0000e-001 72364 -6.4531e+001 -2.5571e+001  4.9733e+001 67032 72038,72194,72064
 3.0000e-001 72341 -5.9562e+001 -7.7639e+001  7.1882e+001 67032 72038,72220,72194
 3.0000e-001 72318 -2.6330e+001 -6.6696e+000  2.1567e+001 67032 72090,72168,72142
 3.0000e-001 72295  6.7817e+000  6.9509e+000  2.2951e+001 67032 72064,72168,72090
 3.0000e-001 72272 -2.9593e+001 -8.4428e+000  2.0796e+001 67032 72090,72142,72116
 3.0000e-001 72933 -4.4202e+001 -4.6144e+001  5.1721e+001 66628 72956,72665,72613
 3.0000e-001 72910 -3.5036e+001 -6.6688e+001  5.2004e+001 66628 73100,72956,72613
 3.0000e-001 72887 -7.2528e+001 -9.0155e+001  5.2638e+001 66628 73028,72691,72665
 3.0000e-001 72864 -3.5579e+001 -6.8695e+001  5.4094e+001 66628 73100,72613,72587
 3.0000e-001 72841 -4.6547e+001 -4.7514e+001  5.6138e+001 66628 72613,72665,72639
 3.0000e-001 72818  3.8874e+001  1.6220e+001  8.8326e+001 66628 72587,72769,72743
 3.0000e-001 72795  5.8717e+000 -6.4150e+001  6.1821e+000 66628 72561,72769,72587
 3.0000e-001 72982 -6.8496e+001 -6.2695e+001  6.0202e+001 66628 73028,72665,72956
 3.0000e-001 73005 -4.1327e+001 -1.6318e+001  5.9602e+001 66628 72717,72956,72743
 3.0000e-001 73054 -8.6356e+001 -7.2497e+001  3.0293e+001 66628 72717,72691,73028
 3.0000e-001 73077 -8.6145e+001 -6.3626e+001  3.7976e+001 66628 72717,73028,72956
 3.0000e-001 73126 -3.8136e+001 -6.8088e+001  5.3765e+001 66628 72743,72956,73100
 3.0000e-001 73149 -3.7559e+001 -6.9360e+001  5.5752e+001 66628 72743,73100,72587
 3.0000e-001 73606 -1.3199e+001 -5.2149e+001  3.5258e+001 66281 73332,73384,73358
 3.0000e-001 73583 -3.0658e+001 -1.0068e+002  3.3724e+001 66281 73332,73462,73384
 3.0000e-001 73560 -5.1487e+001 -5.2357e+001  6.0553e+001 66281 73384,73462,73436
 3.0000e-001 73537 -9.2380e+001 -2.7387e+001  4.1879e+001 66281 73332,73488,73462
 3.0000e-001 73514 -1.8115e+001 -3.1933e+001  2.3247e+001 66281 73384,73436,73410
 3.0000e-001 73984  1.1051e+000 -1.0670e+001  6.7533e+000 65969 73736,73814,73788
 3.0000e-001 73961  1.1688e+001 -6.6937e-001 -9.3116e-001 65969 73736,73866,73814
 3.0000e-001 73938 -2.2479e+001 -1.5101e+001  2.6682e+001 65969 73814,73866,73840
 3.0000e-001 73915  8.8130e-001  7.3226e+000 -1.1356e+000 65969 73710,73866,73736
 3.0000e-001 73892  4.1351e+000 -1.6323e+001  1.0618e+000 65969 73736,73788,73762
 3.0000e-001 74232 -4.0913e+001 -4.7322e+001  4.6992e+001 65572 74255,74085,74033
 3.0000e-001 74209 -3.5165e+001 -5.7534e+001  3.5578e+001 65572 74327,74255,74033
 3.0000e-001 74186 -4.1391e+001 -3.5475e+001  3.4630e+001 65572 74327,74033,74007
 3.0000e-001 74163 -4.2435e+001 -5.1496e+001  4.8853e+001 65572 74033,74085,74059
 3.0000e-001 74281 -5.5031e+001 -6.5094e+001  5.9282e+001 65572 74111,74085,74255
 3.0000e-001 74304 -3.8213e+001 -6.4422e+001  3.4419e+001 65572 74111,74255,74137
 3.0000e-001 74353 -2.8526e+001 -3.1951e+001  2.6365e+001 65572 74137,74255,74327
 3.0000e-001 74376 -3.9562e+001 -1.5137e+001  2.6564e+001 65572 74137,74327,74007
 3.0000e-001 74884 -4.1845e+001 -5.3038e+001  3.2877e+001 65174 74587,74717,74613
 3.0000e-001 74861 -5.1761e+001 -5.7290e+001  3.2190e+001 65174 74561,74717,74587
 3.0000e-001 74838 -3.7399e+001 -5.3547e+001  1.7246e+001 65174 74613,74691,74639
 3.0000e-001 74815 -4.4564e+001 -4.9222e+001  3.2968e+001 65174 74613,74717,74691
 3.0000e-001 74792 -4.6839e+000 -9.0410e+001  1.5554e+001 65174 74639,74691,74665
 3.0000e-001 74769 -4.3266e+001 -5.4152e+001  2.9900e+001 65174 74561,74743,74717
 3.0000e-001 75412 -4.7642e+000 -1.4043e+001  9.0010e+001 64770 75167,75245,75219
 3.0000e-001 75389 -5.0002e+001 -7.3984e+001  6.2693e+001 64770 75115,75245,75167
 3.0000e-001 75366 -3.9285e+001 -8.9921e+001  7.9738e+001 64770 75089,75245,75115
 3.0000e-001 75343 -4.5452e+001  6.9359e-001  4.4951e+001 64770 75167,75219,75193
 3.0000e-001 75320 -4.1043e+001 -5.3324e+001  6.4709e+001 64770 75115,75167,75141
 3.0000e-001 75297 -5.5808e+001 -1.3258e+002  8.1050e+001 64770 75089,75271,75245
 3.0000e-001 75861 -9.0996e+001 -3.6442e+001  7.6929e+001 64316 75538,75694,75564
 3.0000e-001 75838 -2.5704e+001 -9.7940e+000  6.2046e+001 64316 75538,75720,75694
 3.0000e-001 75815 -9.1286e+001 -5.0807e+001  6.2791e+001 64316 75590,75694,75642
 3.0000e-001 75792 -8.9897e+001 -6.5027e+001  6.9728e+001 64316 75564,75694,75590
 3.0000e-001 75769 -3.8054e+001 -1.0656e+002  4.0877e+001 64316 75590,75642,75616
 3.0000e-001 75746 -9.9682e+001 -4.1641e+001  6.4648e+001 64316 75642,75694,75668
 3.0000e-001 76239 -1.0695e+002 -9.7445e+001  7.2116e+001 64018 76262,76095,76043
 3.0000e-001 76216 -8.1204e+001 -9.8366e+001  6.5791e+001 64018 76262,76043,76017
 3.0000e-001 76193 -4.0881e+001 -5.1462e+001  3.4287e+001 64018 75991,76121,76017
 3.0000e-001 76170 -1.0293e+002 -8.3908e+001  7.6786e+001 64018 76043,76095,76069
 3.0000e-001 76147 -1.4492e+001 -5.2527e+001  2.3014e+001 64018 75965,76121,75991
 3.0000e-001 76288 -8.6173e+001 -1.0488e+002  8.5962e+001 64018 76121,76095,76262
 3.0000e-001 76311 -6.3765e+001 -1.0893e+002  7.6029e+001 64018 76121,76262,76017
 3.0000e-001 76866 -4.6018e+001 -5.3661e+001  5.3261e+001 63728 76520,76676,76546
 3.0000e-001 76843 -4.3341e+001 -5.8383e+001  3.7004e+001 63728 76520,76702,76676
 3.0000e-001 76820 -3.4109e+001 -6.5018e+001  6.7530e+001 63728 76546,76650,76572
 3.0000e-001 76797 -7.1714e+001 -1.0269e+002  4.2478e+001 63728 76546,76676,76650
 3.0000e-001 76774 -5.5048e+001 -6.6543e+001  5.1377e+001 63728 76572,76650,76624
 3.0000e-001 76751 -4.3182e+001 -3.8468e+001  4.0505e+001 63728 76494,76702,76520
 3.0000e-001 76728  2.3047e+001 -2.0445e+001  7.3006e+001 63728 76572,76624,76598
 3.0000e-001 77065 -1.3405e+001 -5.6881e+001  2.4966e+001 63288 77088,76941,76915
 3.0000e-001 77042 -3.1857e+001 -6.1148e+001  1.8549e+001 63288 77088,76915,76993
 3.0000e-001 77019 -2.2650e+001 -3.8316e+001  2.8162e+001 63288 76889,76993,76915
 3.0000e-001 77114 -2.3169e+001 -7.1588e+001  2.0737e+001 63288 76967,76941,77088
 3.0000e-001 77137 -4.4328e+001 -6.8203e+001  9.1059e+000 63288 77160,77088,76993
 3.0000e-001 77186 -1.1219e+001 -5.2736e+001  1.4637e+001 63288 76967,77088,77160
 3.0000e-001 77417  3.9681e+000 -3.7109e+001  8.4275e-001 62884 77440,77342,77316
 3.0000e-001 77394  9.0122e+000 -5.0081e+001  2.3553e+000 62884 77770,77440,77316
 3.0000e-001 77466 -2.1056e+001 -5.3294e+001  2.4342e+000 62884 77512,77440,77368
 3.0000e-001 77489  1.5577e+000 -4.1145e+001  3.1590e+000 62884 77642,77440,77290
 3.0000e-001 77538  3.4306e+000 -4.1956e+001 -2.2417e+000 62884 77342,77440,77512
 3.0000e-001 77668 -9.7015e+000 -6.1528e+001 -3.1977e+000 62884 77368,77440,77642
 3.0000e-001 77796  4.9125e+000 -5.1904e+001  2.6904e+000 62884 77290,77440,77770
 3.0000e-001 78479 -8.5564e+001 -1.0160e+002  5.8703e+001 62480 78084,78240,78214
 3.0000e-001 78456 -4.1395e+001 -8.9661e+001  1.9188e+001 62480 78084,78266,78240
 3.0000e-001 78433 -5.3812e+001 -1.0810e+002  1.5783e+001 62480 78110,78214,78136
 3.0000e-001 78410 -1.0327e+002 -1.2443e+002  6.7404e+001 62480 78084,78214,78110
 3.0000e-001 78387 -3.9866e+001 -6.9643e+001  2.7206e+001 62480 78136,78214,78188
 3.0000e-001 78364 -4.4457e+001 -8.7550e+001  1.9371e+001 62480 78058,78266,78084
 3.0000e-001 78341  5.4713e+000 -4.5383e+001  3.8860e+000 62480 78136,78188,78162
 3.0000e-001 78318 -1.2153e+001 -6.1026e+001 -1.0532e+001 62480 78058,78292,78266
 3.0000e-001 78678 -5.6708e+001 -1.1678e+002  5.8902e+001 61926 78528,78606,78554
 3.0000e-001 78655 -4.3608e+001 -1.0987e+002  6.5138e+001 61926 78502,78606,78528
 3.0000e-001 78632 -3.1384e+001 -8.7533e+001  2.5010e+001 61926 78554,78606,78580
 3.0000e-001 79058 -5.8412e+001 -6.3455e+001  3.0269e+001 61614 78836,78914,78862
 3.0000e-001 79035 -8.2579e+001 -7.1606e+001  2.7235e+001 61614 78810,78914,78836
 3.0000e-001 79012 -7.1706e+001 -6.7413e+001  2.4138e+001 61614 78784,78914,78810
 3.0000e-001 78989 -6.6810e+001 -8.4544e+001  3.1307e+001 61614 78862,78914,78888
 3.0000e-001 78966 -6.7052e+001 -9.7996e+001  3.3870e+001 61614 78784,78940,78914
 3.0000e-001 79208 -5.9423e+000 -1.3747e+001  9.2026e+000 61366 79081,79133,79107
 3.0000e-001 79185 -2.7379e+001 -5.6452e+000  6.1913e+001 61366 79081,79159,79133
 3.0000e-001 79358 -4.3120e+001 -1.1288e+002  3.2021e+001 60962 79231,79283,79257
 3.0000e-001 79335 -5.9917e+001 -1.4036e+002  3.9407e+001 60962 79231,79309,79283
 3.0000e-001 79608 -5.7638e+001 -7.7923e+001  5.3569e+001 60508 79631,79435,79409
 3.0000e-001 79585 -4.6580e+001 -8.1225e+001  4.2380e+001 60508 79703,79631,79409
 3.0000e-001 79562 -5.2805e+001 -2.3306e+001  4.8064e+001 60508 79703,79409,79383
 3.0000e-001 79539 -7.4616e+001 -8.8455e+001  7.9831e+001 60508 79435,79487,79461
 3.0000e-001 79657 -6.5307e+001 -9.7052e+001  7.9324e+001 60508 79487,79435,79631
 3.0000e-001 79680 -3.8131e+001 -7.1037e+001  4.7832e+001 60508 79487,79631,79513
 3.0000e-001 79729 -2.6218e+001 -2.7217e+001  2.6303e+001 60508 79513,79631,79703
 3.0000e-001 79752 -4.3760e+001 -1.6939e+001  1.6332e+001 60508 79513,79703,79383
 3.0000e-001 80390 -3.8955e+001 -5.3423e+001  5.9982e+001 59997 80413,80096,80018
 3.0000e-001 80367 -7.3732e+001 -6.2967e+001  6.6874e+001 59997 80413,80018,80226
 3.0000e-001 80344 -4.0407e+001 -4.8918e+001  2.7572e+001 59997 80096,80174,80148
 3.0000e-001 80321 -1.3348e+002 -1.0204e+002  8.2274e+001 59997 80018,80096,80070
 3.0000e-001 80298 -5.3993e+001 -4.5218e+001  3.0148e+001 59997 80096,80148,80122
 3.0000e-001 80275 -3.7453e+001 -4.2966e+001  2.4661e+001 59997 80174,80226,80200
 3.0000e-001 80252 -9.8106e+001 -1.0411e+002  4.5459e+001 59997 80018,80070,80044
 3.0000e-001 80439 -2.8068e+001 -5.9596e+001  4.9388e+001 59997 80174,80096,80413
 3.0000e-001 80462 -4.2642e+001 -5.0534e+001  5.2756e+001 59997 80174,80413,80226
 3.0000e-001 80840 -5.6537e+001 -8.2397e+001  5.8490e+001 59443 80863,80644,80618
 3.0000e-001 80817 -4.9506e+001 -8.2122e+001  5.8390e+001 59443 80863,80618,80566
 3.0000e-001 80794 -5.0954e+001 -8.7628e+001  5.5996e+001 59443 81007,80935,80670
 3.0000e-001 80771 -5.8353e+001 -7.7126e+001  5.8805e+001 59443 80566,80722,80696
 3.0000e-001 80748 -7.3656e+001 -1.1952e+002  8.2380e+001 59443 80566,80618,80592
 3.0000e-001 80889 -6.0644e+001 -8.5842e+001  6.2385e+001 59443 80935,80644,80863
 3.0000e-001 80912 -5.6174e+001 -7.6176e+001  5.7872e+001 59443 80696,80863,80566
 3.0000e-001 80961 -6.8899e+001 -9.9874e+001  4.5785e+001 59443 80696,80670,80935
 3.0000e-001 80984 -5.9924e+001 -8.1651e+001  5.6109e+001 59443 80696,80935,80863
 3.0000e-001 81033 -6.1255e+001 -8.1706e+001  6.1434e+001 59443 80644,80935,81007
 3.0000e-001 81360 -8.0807e+001 -5.6587e+001  4.1110e+001 59031 81383,81187,81161
 3.0000e-001 81337 -7.8509e+001 -5.4704e+001  4.2675e+001 59031 81455,81383,81161
 3.0000e-001 81314 -7.4873e+001 -5.6565e+001  4.2822e+001 59031 81455,81161,81135
 3.0000e-001 81291 -4.3190e+001 -5.6336e+001  4.2466e+001 59031 81187,81239,81213
 3.0000e-001 81409 -7.9474e+001 -5.1568e+001  3.9396e+001 59031 81239,81187,81383
 3.0000e-001 81432 -8.5997e+001 -5.4983e+001  4.1325e+001 59031 81239,81383,81265
 3.0000e-001 81481 -8.2542e+001 -5.6507e+001  4.4130e+001 59031 81265,81383,81455
 3.0000e-001 81504 -7.9610e+001 -5.8497e+001  4.3893e+001 59031 81265,81455,81135
 3.0000e-001 81835 -2.3264e+001 -4.4611e+001  2.1445e+001 58577 81610,81714,81636
 3.0000e-001 81812  2.2928e+000 -4.2038e+001  1.8461e+001 58577 81610,81740,81714
 3.0000e-001 81789 -3.7609e+001 -5.1211e+001 -7.2844e+000 58577 81636,81714,81688
 3.0000e-001 81766 -3.1255e+001 -4.7607e+001 -2.9551e+001 58577 81636,81688,81662
 3.0000e-001 81985 -1.6094e+001 -3.9078e+001  6.4982e+001 58030 81884,81936,81910
 3.0000e-001 81962 -8.2549e+001 -2.4364e+001  3.4791e+001 58030 81858,81936,81884
 3.0000e-001 82414 -3.5793e+001 -2.8524e+001  3.6452e+001 57690 82437,82169,82117
 3.0000e-001 82391 -3.7408e+001 -4.9526e+001  3.9047e+001 57690 82437,82117,82247
 3.0000e-001 82368  4.9300e+000  9.3209e+000  7.7707e+001 57690 82195,82247,82221
 3.0000e-001 82345 -4.1365e+001 -5.2273e+001  2.7303e+001 57690 82091,82247,82117
 3.0000e-001 82322 -1.0335e+001  1.3101e+000  4.8800e+001 57690 82117,82169,82143
 3.0000e-001 82299  7.9964e+000 -9.4839e+001  4.9196e+001 57690 82091,82273,82247
 3.0000e-001 82463 -4.1162e+001 -1.8644e+001  4.5998e+001 57690 82195,82169,82437
 3.0000e-001 82486 -4.1444e+001 -3.5246e+001  4.5013e+001 57690 82195,82437,82247
 3.0000e-001 83041 -5.1847e+001 -6.1581e+001  2.4265e+001 57172 83064,82721,82695
 3.0000e-001 83018 -6.1055e+001 -7.1082e+001  4.0210e+001 57172 83064,82695,82851
 3.0000e-001 82995 -1.1858e+002 -8.9030e+001  5.1394e+001 57172 82669,82851,82695
 3.0000e-001 82972 -7.6067e+001 -6.3507e+001  4.8793e+001 57172 82773,82851,82825
 3.0000e-001 82949 -6.3686e+001 -6.0122e+001  5.3651e+001 57172 82773,82825,82799
 3.0000e-001 82926 -7.3201e+001 -5.8420e+001  2.7130e+001 57172 82721,82773,82747
 3.0000e-001 82903 -1.6598e+002 -1.0733e+002  1.0671e+002 57172 82669,82877,82851
 3.0000e-001 83090 -7.6983e+001 -7.3659e+001  2.8569e+001 57172 82773,82721,83064
 3.0000e-001 83113 -6.8645e+001 -7.5015e+001  4.3164e+001 57172 82773,83064,82851
 3.0000e-001 83747 -7.4726e+001 -6.9031e+001  3.2327e+001 56554 83770,83427,83401
 3.0000e-001 83724 -7.7872e+001 -8.7985e+001  4.1093e+001 56554 83842,83770,83401
 3.0000e-001 83701 -1.4990e+001 -6.9677e+001  2.2611e+001 56554 83842,83401,83583
 3.0000e-001 83678 -1.3740e+002 -9.9983e+001  9.2652e+001 56554 83914,83531,83505
 3.0000e-001 83655 -1.0118e+002 -1.1615e+002  7.0640e+001 56554 83531,83583,83557
 3.0000e-001 83632 -2.0576e+001 -7.6438e+001  2.0201e+001 56554 83375,83583,83401
 3.0000e-001 83609 -8.0362e+001 -6.8890e+001  3.9196e+001 56554 83427,83479,83453
 3.0000e-001 83796 -7.2555e+001 -6.3463e+001  3.4604e+001 56554 83479,83427,83770
 3.0000e-001 83819 -8.5352e+001 -6.3631e+001  3.9935e+001 56554 83479,83770,83505
 3.0000e-001 83868 -5.3297e+001 -4.4409e+001  5.2752e+001 56554 83505,83770,83842
 3.0000e-001 83891 -9.6189e+001 -7.6464e+001  6.6784e+001 56554 83914,83505,83842
 3.0000e-001 83940 -7.2764e+001 -9.7714e+001  6.2599e+001 56554 83583,83531,83914
 3.0000e-001 83963 -3.5188e+001 -9.6571e+001  4.8724e+001 56554 83583,83914,83842
 3.0000e-001 84341 -5.5039e+001 -1.6346e+002  7.5553e+001 56192 84067,84145,84119
 3.0000e-001 84318  1.7035e+001 -6.3814e+001  4.3990e+001 56192 84067,84223,84145
 3.0000e-001 84295 -2.1968e+001 -1.4969e+002  3.5035e+001 56192 84145,84223,84197
 3.0000e-001 84272 -5.1816e+001 -2.8019e+001  2.3522e+001 56192 84067,84119,84093
 3.0000e-001 84249 -5.8411e+001 -4.5185e+001  4.1321e+001 56192 84145,84197,84171
 3.0000e-001 84611 -3.7981e+001 -9.1844e+001  9.4490e+001 55538 84386,84490,84412
 3.0000e-001 84588 -4.7456e+001 -6.8114e+001  9.1152e+001 55538 84386,84516,84490
 3.0000e-001 84565 -7.5741e+001 -1.0794e+002  9.4397e+001 55538 84412,84490,84464
 3.0000e-001 84542 -3.7081e+001 -8.8317e+001  7.1724e+001 55538 84412,84464,84438
 3.0000e-001 84942 -6.5143e+001 -6.0487e+001  4.1589e+001 55084 84769,84847,84795
 3.0000e-001 84919 -7.0615e+001 -7.3769e+001  3.1581e+001 55084 84717,84847,84769
 3.0000e-001 84896 -8.0707e+001 -9.9753e+001  3.1122e+001 55084 84717,84769,84743
 3.0000e-001 84873 -7.0757e+001 -4.4007e+001  3.6440e+001 55084 84795,84847,84821
 3.0000e-001 85271 -4.6133e+001 -4.3362e+001  3.7414e+001 54580 85294,85098,85072
 3.0000e-001 85248 -8.4757e+001 -4.7839e+001  4.2627e+001 54580 85294,85072,85176
 3.0000e-001 85225 -1.0681e+002 -6.5396e+001  4.4836e+001 54580 85124,85176,85150
 3.0000e-001 85202 -4.1248e+001 -4.3847e+001  2.3372e+001 54580 85046,85176,85072
 3.0000e-001 85320 -7.7122e+001 -5.0324e+001  3.7486e+001 54580 85124,85098,85294
 3.0000e-001 85343 -9.7962e+001 -4.1614e+001  4.2260e+001 54580 85124,85294,85176
 3.0000e-001 85542 -5.3826e+001 -6.3649e+001  6.3910e+001 53976 85565,85444,85418
 3.0000e-001 85519 -6.9301e+001 -4.9631e+001  4.8407e+001 53976 85565,85418,85366
 3.0000e-001 85496 -4.8684e+001 -2.1673e+001  3.1322e+001 53976 85366,85418,85392
 3.0000e-001 85591 -3.7430e+001 -5.5244e+001  6.0334e+001 53976 85470,85444,85565
 3.0000e-001 85614 -4.6192e+001 -3.3140e+001  4.1129e+001 53976 85470,85565,85366
 3.0000e-001 85960 -1.7391e+002 -1.3551e+002  1.1898e+002 53572 85663,85715,85689
 3.0000e-001 85937 -1.3534e+002 -7.2469e+001  8.5274e+001 53572 85983,85715,85663
 3.0000e-001 85914 -7.2219e+001 -3.9993e+001  7.0790e+001 53572 86055,85983,85663
 3.0000e-001 85891 -6.9853e+001 -3.7408e+001  5.7666e+001 53572 86055,85663,85637
 3.0000e-001 85868 -1.1183e+002 -1.7449e+002  8.6433e+001 53572 85637,85793,85767
 3.0000e-001 85845 -1.1656e+001  8.9996e+000  1.9420e+001 53572 85637,85819,85793
 3.0000e-001 86009 -6.7608e+001 -1.3870e+002  7.8906e+001 53572 85741,85715,85983
 3.0000e-001 86032 -1.5505e-001 -7.0235e+001  4.9593e+001 53572 85741,85983,85767
 3.0000e-001 86081 -7.8009e+001 -7.5497e+001  8.3860e+001 53572 85767,85983,86055
 3.0000e-001 86104 -6.5290e+001 -5.6758e+001  7.0355e+001 53572 85767,86055,85637
 3.0000e-001 86693 -1.3115e+002 -1.9260e+001  6.0316e+001 52946 86474,86526,86500
 3.0000e-001 86670 -3.9704e+001 -1.4567e+001  2.5349e+001 52946 86396,86526,86474
 3.0000e-001 86647 -9.4021e+001 -7.9489e+001  5.1660e+001 52946 86370,86526,86396
 3.0000e-001 86624 -1.2739e+001 -4.0051e+000  9.3679e+000 52946 86422,86474,86448
 3.0000e-001 86601 -4.5623e+001 -1.5608e+001  1.9679e+001 52946 86396,86474,86422
 3.0000e-001 86578 -1.2005e+002 -4.8113e+001 -8.8868e-001 52946 86370,86552,86526
 3.0000e-001 87376 -9.2819e+001 -1.1010e+002  3.7184e+001 52420 87007,87085,87033
 3.0000e-001 87353 -8.1986e+001 -9.5638e+001  2.4061e+001 52420 87007,87163,87085
 3.0000e-001 87330 -9.9879e+001 -9.6322e+001  2.6010e+001 52420 87007,87189,87163
 3.0000e-001 87307 -8.7675e+001 -1.0782e+002  3.7857e+001 52420 87033,87085,87059
 3.0000e-001 87284 -8.8384e+001 -9.1308e+001  1.8339e+001 52420 87085,87137,87111
 3.0000e-001 87261 -8.2577e+001 -1.2549e+002  7.4952e+000 52420 87085,87163,87137
 3.0000e-001 87238 -7.3902e+001 -7.3973e+001  5.5590e+001 52420 86955,87189,87007
 3.0000e-001 87215 -5.2040e+001 -5.7532e+001  2.6193e+001 52420 86955,87007,86981
 3.0000e-001 87624 -6.4752e+001 -7.2426e+001  5.5606e+001 51916 87451,87503,87477
 3.0000e-001 87601 -4.0005e+001 -6.8916e+001  6.6418e+001 51916 87425,87503,87451
 3.0000e-001 87578 -1.2528e+001 -3.6715e+001  8.6896e+001 51916 87425,87529,87503
 3.0000e-001 87555  2.0085e+001  4.3730e+001  9.3633e+001 51916 87399,87529,87425
 3.0000e-001 88053 -8.6086e+001 -8.0397e+001  2.8246e+001 51568 87782,87834,87808
 3.0000e-001 88030 -9.1947e+001 -9.2828e+001  2.5316e+001 51568 88076,87782,87886
 3.0000e-001 88007 -9.6599e+001 -1.0429e+002  2.2471e+001 51568 88076,87886,87860
 3.0000e-001 87984 -9.9512e+001 -9.5930e+001  2.2315e+001 51568 87756,87886,87782
 3.0000e-001 87961 -7.0130e+001 -7.8383e+001  4.4183e+001 51568 87756,87912,87886
 3.0000e-001 87938 -8.7018e+001 -1.2782e+002  3.6241e+001 51568 87730,87912,87756
 3.0000e-001 88102 -9.3311e+001 -8.6507e+001  3.1094e+001 51568 87834,87782,88076
 3.0000e-001 88125 -9.4929e+001 -9.3819e+001  2.8608e+001 51568 87834,88076,87860
 3.0000e-001 88324 -4.7291e+001 -1.1169e+002  4.8422e+001 51164 88419,88347,88200
 3.0000e-001 88301 -3.9280e+001 -9.6789e+001  4.7354e+001 51164 88347,88148,88252
 3.0000e-001 88278 -5.0984e+001 -1.0528e+002  4.0685e+001 51164 88419,88200,88174
 3.0000e-001 88373 -3.5680e+001 -1.3448e+002  4.6845e+001 51164 88226,88200,88347
 3.0000e-001 88396 -2.8116e+001 -1.0962e+002  3.7847e+001 51164 88226,88347,88252
 3.0000e-001 88445 -3.4619e+001 -1.0627e+002  4.3810e+001 51164 88148,88347,88419
 3.0000e-001 88468 -3.5024e+001 -1.0600e+002  3.8157e+001 51164 88148,88419,88174
 3.0000e-001 88738 -7.3032e+001 -1.2430e+002  2.4042e+001 50560 88513,88617,88539
 3.0000e-001 88715 -5.6819e+001 -1.3269e+002  1.8241e+001 50560 88513,88643,88617
 3.0000e-001 88692 -6.2684e+001 -7.9228e+001  3.1006e+001 50560 88539,88591,88565
 3.0000e-001 88669 -4.3791e+001 -1.0258e+002  3.3706e+001 50560 88539,88617,88591
 3.0000e-001 88939 -8.0918e+001 -6.6596e+001  3.0619e+001 50106 88962,88789,88763
 3.0000e-001 88916 -6.6495e+001 -7.5611e+001  2.6096e+001 50106 88962,88763,88841
 3.0000e-001 88893 -6.8845e+001 -7.8667e+001  3.4565e+001 50106 88763,88867,88841
 3.0000e-001 88988 -5.9535e+001 -4.6819e+001  4.1295e+001 50106 88815,88789,88962
 3.0000e-001 89011 -9.6255e+001 -8.2787e+001  2.1468e+001 50106 89034,88962,88841
 3.0000e-001 89060 -4.5629e+001 -6.3468e+001  2.4221e+001 50106 88815,88962,89034
 3.0000e-001 89472 -8.6882e+001 -9.9709e+001  5.4688e+001 49666 89273,89351,89325
 3.0000e-001 89449 -8.9776e+001 -1.2115e+002  4.6878e+001 49666 89273,89377,89351
 3.0000e-001 89426 -7.7271e+001 -9.5339e+001  5.5676e+001 49666 89273,89325,89299
 3.0000e-001 89403 -7.9767e+001 -6.9860e+001  5.0716e+001 49666 89247,89377,89273
 3.0000e-001 89978 -4.5768e+001 -1.1075e+002  5.1633e+001 49205 89681,89837,89733
 3.0000e-001 89955 -5.7240e+001 -1.0820e+002  5.5084e+001 49205 89655,89837,89681
 3.0000e-001 89932 -9.9739e+001 -2.3080e+002  6.6351e+001 49205 89785,89837,89811
 3.0000e-001 89909 -4.5552e+001 -6.5404e+001  3.5094e+001 49205 89733,89837,89785
 3.0000e-001 89886 -8.3604e+001 -7.7355e+001  4.6554e+001 49205 89733,89785,89759
 3.0000e-001 89863 -7.7815e+001 -2.2538e+002  1.0536e+002 49205 89681,89733,89707
 3.0000e-001 90177 -6.8423e+001 -6.6907e+001  3.3121e+001 48865 90530,90200,90053
 3.0000e-001 90154 -1.0992e+002 -1.5021e+002  7.8690e+001 48865 90402,90200,90001
 3.0000e-001 90131 -1.1233e+002  9.5434e+000  2.8669e+001 48865 90530,90053,90027
 3.0000e-001 90226 -8.1850e+001 -7.8527e+001  4.7928e+001 48865 90079,90053,90200
 3.0000e-001 90249 -8.1199e+001 -9.8339e+001  4.9833e+001 48865 90272,90200,90105
 3.0000e-001 90298 -5.9702e+001 -7.6981e+001  5.8416e+001 48865 90079,90200,90272
 3.0000e-001 90428 -5.5798e+001 -3.9099e+001  5.0404e+001 48865 90105,90200,90402
 3.0000e-001 90556 -9.0639e+001 -1.7339e+002  2.4538e+001 48865 90001,90200,90530
 3.0000e-001 90579 -1.2025e+002 -7.0205e+001 -2.5006e+000 48865 90001,90530,90027
 3.0000e-001 90827 -8.7272e+001 -1.0275e+002  4.6838e+001 48404 90850,90654,90628
 3.0000e-001 90804 -8.3282e+001 -1.0652e+002  7.0564e+001 48404 90850,90628,90732
 3.0000e-001 90781 -6.5507e+001 -6.8347e+001  5.7844e+001 48404 90680,90732,90706
 3.0000e-001 90758 -8.1791e+001 -6.6969e+001  7.6310e+001 48404 90602,90732,90628
 3.0000e-001 90876 -7.9108e+001 -6.9023e+001  4.4512e+001 48404 90680,90654,90850
 3.0000e-001 90899 -8.0331e+001 -9.2051e+001  6.4167e+001 48404 90680,90850,90732
 3.0000e-001 91000 -6.0518e+001 -1.4525e+002  1.0575e+002 48156 90922,90974,90948
 3.0000e-001 91250 -7.2319e+001 -1.7448e+002  1.2583e+002 47752 91051,91103,91077
 3.0000e-001 91227 -6.4930e+001 -2.7968e+001  8.2117e+001 47752 91025,91103,91051
 3.0000e-001 91204 -1.8722e+002 -1.2730e+002  1.5077e+002 47752 91025,91155,91103
 3.0000e-001 91181 -1.8972e+002 -1.0753e+002  1.3628e+002 47752 91103,91155,91129
 3.0000e-001 91402 -9.8038e+001 -6.9334e+001  2.7856e+001 47191 91425,91301,91275
 3.0000e-001 91379 -9.3612e+001 -6.7581e+001  2.5881e+001 47191 91497,91425,91275
 3.0000e-001 91451 -1.0135e+002 -8.3123e+001  3.1079e+001 47191 91327,91301,91425
 3.0000e-001 91474 -6.8887e+001 -8.1092e+001  3.8198e+001 47191 91327,91425,91353
 3.0000e-001 91523 -9.8806e+001 -1.1227e+002  2.5096e+001 47191 91353,91425,91497
 3.0000e-001 91854 -6.7038e+001 -9.5531e+001  8.2290e+001 46744 91949,91877,91707
 3.0000e-001 91831  1.1270e+001 -6.7274e+001  3.2844e+001 46744 91877,91655,91629
 3.0000e-001 91808 -7.0908e+001 -9.2981e+001  8.0492e+001 46744 91949,91707,91681
 3.0000e-001 91785 -2.6122e+001 -5.4995e+001 -6.2091e+000 46744 91629,91759,91733
 3.0000e-001 91903 -8.9562e+001 -9.2937e+001  9.0655e+001 46744 91733,91707,91877
 3.0000e-001 91926 -5.5753e+001 -1.3073e+002  6.4689e+001 46744 91733,91877,91629
 3.0000e-001 91975 -7.3904e+001 -9.3479e+001  7.6399e+001 46744 91655,91877,91949
 3.0000e-001 91998 -8.5171e+001 -9.4904e+001  7.6221e+001 46744 91655,91949,91681
 3.0000e-001 92378 -4.1933e+001 -4.3807e+001  2.6795e+001 46090 92130,92208,92182
 3.0000e-001 92355 -5.3083e+001 -4.6424e+001  3.5618e+001 46090 92104,92208,92130
 3.0000e-001 92332 -3.6569e+001 -5.8279e+001  3.5945e+001 46090 92104,92260,92208
 3.0000e-001 92309 -2.6594e+001 -5.6728e+001  4.5490e+001 46090 92208,92260,92234
 3.0000e-001 92286 -9.6595e+001 -7.5783e+001  4.0954e+001 46090 92130,92182,92156
 3.0000e-001 92626 -7.8688e+001 -9.3367e+001  3.3740e+001 45693 92721,92649,92505
 3.0000e-001 92603 -9.1740e+001 -9.2249e+001  5.0946e+001 45693 92649,92453,92427
 3.0000e-001 92580 -7.9437e+001 -8.7717e+001  3.3529e+001 45693 92721,92505,92479
 3.0000e-001 92557 -1.4506e+002 -9.5742e+001  5.0999e+001 45693 92401,92531,92427
 3.0000e-001 92675 -1.0597e+002 -9.9661e+001  3.3662e+001 45693 92531,92505,92649
 3.0000e-001 92698 -1.0973e+002 -9.8295e+001  5.8150e+001 45693 92531,92649,92427
 3.0000e-001 92747 -8.7832e+001 -8.4261e+001  3.5654e+001 45693 92453,92649,92721
 3.0000e-001 92770 -6.9777e+001 -5.6114e+001  4.3400e+001 45693 92453,92721,92479
 3.0000e-001 93172 -3.5248e+001 -6.4388e+001  5.2581e+001 45331 92898,93028,92924
 3.0000e-001 93149 -2.6128e+001 -6.1575e+001  4.1198e+001 45331 92898,93054,93028
 3.0000e-001 93126 -5.5599e+001 -5.8281e+001  6.0184e+001 45331 92924,93002,92976
 3.0000e-001 93103 -2.5389e+001 -6.0218e+001  5.2085e+001 45331 92924,93028,93002
 3.0000e-001 93080 -5.3790e+001 -8.4213e+001  6.8857e+001 45331 92924,92976,92950
 3.0000e-001 93518 -8.9437e+001 -2.0026e+002  5.6353e+001 44820 93613,93273,93247
 3.0000e-001 93495 -1.3391e+002 -1.6281e+002  8.6107e+001 44820 93685,93541,93247
 3.0000e-001 93472 -1.2375e+002 -1.1556e+002  7.1056e+001 44820 93541,93195,93377
 3.0000e-001 93449 -1.5482e+002 -1.3923e+002  5.9709e+001 44820 93685,93247,93221
 3.0000e-001 93426 -1.2190e+002 -1.1962e+002  5.6977e+001 44820 93299,93377,93351
 3.0000e-001 93403 -1.0159e+002 -8.9199e+001  6.6645e+001 44820 93299,93351,93325
 3.0000e-001 93567 -1.1617e+002 -2.0269e+002  7.4776e+001 44820 93613,93247,93541
 3.0000e-001 93590 -1.3483e+002 -1.4945e+002  5.8656e+001 44820 93299,93541,93377
 3.0000e-001 93639 -1.1776e+002 -1.8927e+002  6.7916e+001 44820 93299,93273,93613
 3.0000e-001 93662 -1.1364e+002 -1.8918e+002  7.1617e+001 44820 93299,93613,93541
 3.0000e-001 93711 -1.0805e+002 -1.1655e+002  5.6800e+001 44820 93195,93541,93685
 3.0000e-001 93734 -9.2650e+001 -3.8612e+001  2.5552e+001 44820 93195,93685,93221
 3.0000e-001 94163 -1.0744e+002 -1.2021e+002  3.9475e+001 44237 94258,94186,93996
 3.0000e-001 94140 -1.3060e+002 -1.3414e+002  2.4968e+001 44237 94330,94022,93996
 3.0000e-001 94117 -1.3650e+002 -1.3497e+002  2.6645e+001 44237 94186,93918,93866
 3.0000e-001 94094 -9.4150e+001 -9.6801e+001  4.6486e+001 44237 94258,93996,93970
 3.0000e-001 94071 -1.1683e+002 -7.4146e+001  3.9826e+001 44237 94402,93944,93918
 3.0000e-001 94048 -1.3335e+002 -1.5605e+002  5.0005e+001 44237 93866,93918,93892
 3.0000e-001 94212 -1.3097e+002 -1.3490e+002  3.3175e+001 44237 94330,93996,94186
 3.0000e-001 94235 -1.3760e+002 -1.1687e+002  3.6942e+001 44237 93840,94186,93866
 3.0000e-001 94284 -1.2051e+002 -9.8796e+001  2.3942e+001 44237 93918,94186,94258
 3.0000e-001 94307 -1.0764e+002 -7.9436e+001  3.0087e+001 44237 94402,93918,94258
 3.0000e-001 94356 -1.0032e+002 -5.6589e+001 -6.7372e+000 44237 93840,94022,94330
 3.0000e-001 94379 -1.2517e+002 -1.2118e+002  3.2945e+001 44237 93840,94330,94186
 3.0000e-001 94428 -1.3102e+002 -9.3961e+001  4.6328e+001 44237 93970,93944,94402
 3.0000e-001 94451 -1.1918e+002 -9.8161e+001  3.4971e+001 44237 93970,94402,94258
 3.0000e-001 94908 -3.4020e+001 -8.3988e+001  1.9595e+001 43890 94660,94790,94712
 3.0000e-001 94885 -3.1080e+001 -2.9397e+001  3.1293e+001 43890 94634,94790,94660
 3.0000e-001 94862 -4.8248e+001 -3.9713e+001  5.0041e+001 43890 94712,94764,94738
 3.0000e-001 94839 -3.2793e+001 -9.1290e+001  5.1168e+001 43890 94712,94790,94764
 3.0000e-001 94816 -3.8555e+001 -1.2812e+002  6.8953e+001 43890 94660,94712,94686
 3.0000e-001 95414 -9.7527e+001 -8.7776e+001  3.7327e+001 43186 95437,95143,95117
 3.0000e-001 95391 -9.1446e+001 -9.9272e+001  4.8260e+001 43186 95437,95117,95091
 3.0000e-001 95368 -7.5484e+001 -5.9802e+001  2.5022e+001 43186 95143,95221,95195
 3.0000e-001 95345 -1.4354e+002 -1.0788e+002  5.7135e+001 43186 95091,95273,95221
 3.0000e-001 95322 -9.8840e+001 -8.3319e+001  4.0832e+001 43186 95221,95273,95247
 3.0000e-001 95299 -8.8748e+001 -1.1675e+002  3.3335e+001 43186 95143,95195,95169
 3.0000e-001 95463 -1.0816e+002 -9.5835e+001  4.1246e+001 43186 95221,95143,95437
 3.0000e-001 95486 -1.0088e+002 -1.0581e+002  5.1806e+001 43186 95221,95437,95091
 3.0000e-001 96041 -1.0148e+002 -1.2464e+002  2.2317e+001 42782 95695,95851,95799
 3.0000e-001 96018 -9.3715e+001 -1.1936e+002  2.5381e+001 42782 95669,95851,95695
 3.0000e-001 95995 -1.1830e+002 -9.8450e+001  2.9646e+001 42782 95695,95747,95721
 3.0000e-001 95972 -9.0928e+001 -1.2006e+002  2.6286e+001 42782 95695,95799,95747
 3.0000e-001 95949 -8.4041e+001 -1.0403e+002  2.7068e+001 42782 95747,95799,95773
 3.0000e-001 95926 -1.4262e+002 -1.3385e+002  5.5464e+001 42782 95799,95851,95825
 3.0000e-001 95903 -1.0942e+002 -1.2399e+002  2.1411e+001 42782 95669,95877,95851
 3.0000e-001 96370 -1.4449e+002 -1.7210e+002  7.2252e+001 42420 96197,96275,96223
 3.0000e-001 96347 -1.3261e+002 -1.3281e+002  6.7892e+001 42420 96145,96275,96197
 3.0000e-001 96324 -1.3749e+002 -1.0485e+002  6.7247e+001 42420 96145,96197,96171
 3.0000e-001 96301 -1.1584e+002 -1.3026e+002  5.7676e+001 42420 96223,96275,96249
 3.0000e-001 96699 -9.2070e+001 -8.4193e+001  4.8573e+001 41816 96474,96578,96526
 3.0000e-001 96676 -5.1413e+001 -4.4769e+001  2.0870e+001 41816 96474,96604,96578
 3.0000e-001 96653 -9.8108e+001 -4.9924e+001  6.1050e+001 41816 96526,96578,96552
 3.0000e-001 96630 -7.4592e+001 -6.7840e+001  3.0266e+001 41816 96474,96526,96500
 3.0000e-001 96947 -5.9588e+001 -1.4094e+002  7.2805e+001 41212 96722,96800,96748
 3.0000e-001 96924 -9.6403e+001 -1.2021e+002  8.9380e+001 41212 96722,96826,96800
 3.0000e-001 96901 -1.0042e+002 -8.3349e+001  4.3990e+001 41212 96722,96852,96826
 3.0000e-001 96878 -1.2540e+002 -1.7590e+002  4.6199e+001 41212 96748,96800,96774
 3.0000e-001 97097 -5.5243e+001 -8.0128e+001  5.0790e+001 40793 97120,97022,96996
 3.0000e-001 97074 -8.5272e+001 -1.3690e+002  3.8846e+001 40793 97192,97120,96996
 3.0000e-001 97146 -4.9262e+001 -1.1583e+002  4.9586e+001 40793 97324,97120,97048
 3.0000e-001 97169 -3.7291e+001 -1.4980e+002  5.2971e+001 40793 97048,97120,96970
 3.0000e-001 97218 -2.6167e+000 -1.0148e+002  3.7486e+001 40793 96970,97120,97192
 3.0000e-001 97350 -4.9262e+001 -1.1583e+002  4.9586e+001 40793 97022,97120,97324
 3.0000e-001 97878 -7.1448e+001 -1.4352e+002  3.4402e+001 40446 97901,97607,97555
 3.0000e-001 97855 -8.4832e+001 -1.0495e+002  4.0288e+001 40446 97973,97901,97555
 3.0000e-001 97832 -9.0393e+001 -9.4790e+001  2.9774e+001 40446 97973,97555,97737
 3.0000e-001 97809 -8.2632e+001 -1.1573e+002  2.5936e+001 40446 97633,97685,97659
 3.0000e-001 97786 -7.1653e+001 -1.1951e+002  3.0379e+001 40446 97633,97711,97685
 3.0000e-001 97763 -6.9579e+001 -1.4830e+002  3.7659e+001 40446 97555,97607,97581
 3.0000e-001 97927 -9.7823e+001 -1.8314e+002  3.3469e+000 40446 97633,97607,97901
 3.0000e-001 97950 -8.4097e+001 -1.3279e+002  2.5151e+001 40446 97633,97901,97711
 3.0000e-001 97999 -8.6798e+001 -1.3756e+002  3.9597e+001 40446 97711,97901,97973
 3.0000e-001 98022 -8.5581e+001 -1.1485e+002  3.2706e+001 40446 97711,97973,97737
 3.0000e-001 98449 -8.0455e+001 -3.6886e+001  2.8758e+001 39935 98152,98204,98178
 3.0000e-001 98426 -1.0412e+002 -5.3115e+001  1.7235e+001 39935 98152,98230,98204
 3.0000e-001 98403 -1.3137e+002 -6.2079e+001  3.8117e+001 39935 98152,98256,98230
 3.0000e-001 98380 -9.6089e+001 -8.1962e+001  4.6985e+001 39935 98126,98256,98152
 3.0000e-001 98357 -1.2280e+002 -1.3151e+002  5.7097e+001 39935 98126,98282,98256
 3.0000e-001 98334 -7.0161e+001 -1.9037e+002  8.0955e+001 39935 98126,98308,98282
 3.0000e-001 98746 -2.1122e+002 -1.3884e+002  4.0355e+001 39531 98498,98602,98524
 3.0000e-001 98723 -1.7571e+002 -1.1412e+002  5.1338e+001 39531 98472,98602,98498
 3.0000e-001 98700 -1.8206e+002 -9.0916e+001  5.3490e+001 39531 98524,98602,98576
 3.0000e-001 98677 -1.4803e+002 -1.3177e+002  6.5565e+001 39531 98472,98628,98602
 3.0000e-001 98654 -2.6540e+002 -1.1645e+002  4.7235e+001 39531 98524,98576,98550
 3.0000e-001 99224 -1.7677e+002 -6.6924e+001  1.5482e+002 39027 99247,98956,98930
 3.0000e-001 99201 -1.8487e+002 -1.5073e+002  7.3341e+001 39027 99247,98930,98878
 3.0000e-001 99178 -1.3407e+002 -1.4922e+002  1.0088e+002 39027 99319,98982,98956
 3.0000e-001 99155 -1.1926e+002 -8.3257e+001  9.4214e+001 39027 98852,99060,98878
 3.0000e-001 99132 -1.7013e+002 -1.1628e+002  5.5837e+001 39027 98878,98930,98904
 3.0000e-001 99109 -2.1530e+002 -2.8277e+002  1.5502e+002 39027 98982,99060,99034
 3.0000e-001 99086 -2.3293e+002 -3.1821e+002  1.6205e+002 39027 98982,99034,99008
 3.0000e-001 99273 -1.2428e+002 -1.3405e+002  1.0960e+002 39027 99319,98956,99247
 3.0000e-001 99296 -1.4241e+002 -1.3114e+002  8.0322e+001 39027 99060,99247,98878
 3.0000e-001 99345 -1.3836e+002 -1.5699e+002  9.4625e+001 39027 99060,98982,99319
 3.0000e-001 99368 -1.4201e+002 -1.5395e+002  1.0052e+002 39027 99060,99319,99247
 3.0000e-001 99923 -1.7501e+002 -1.2156e+002  4.8076e+001 38523 99946,99655,99603
 3.0000e-001 99900 -1.4853e+002 -1.0944e+002  5.0894e+001 38523 99946,99603,99759
 3.0000e-001 99877 -1.2065e+002 -1.4402e+002  6.6936e+001 38523 100018,99707,99681
 3.0000e-001 99854 -1.4438e+002 -7.3770e+001  5.1426e+001 38523 99551,99759,99603
 3.0000e-001 99831 -1.3148e+002 -6.8015e+001  4.0098e+001 38523 99551,99603,99577
 3.0000e-001 99808 -1.4674e+002 -1.8156e+002  5.5100e+001 38523 99707,99759,99733
 3.0000e-001 99785 -1.8916e+002 -9.0528e+001  3.9952e+001 38523 99603,99655,99629
 3.0000e-001 99972 -1.5428e+002 -7.9799e+001  5.9733e+001 38523 99681,99655,99946
 3.0000e-001 99995 -1.3154e+002 -9.4073e+001  7.4919e+001 38523 100018,99681,99946
 3.0000e-001 100044 -1.3640e+002 -1.6426e+002  4.5878e+001 38523 99759,99707,100018
 3.0000e-001 100067 -1.6435e+002 -1.4422e+002  5.4464e+001 38523 99759,100018,99946
 3.0000e-001 100467 -6.3961e+001 -1.1961e+002  5.4459e+001 38125 100219,100349,100323
 3.0000e-001 100444 -6.6702e+000 -1.7663e+001  7.7307e+001 38125 100193,100349,100219
 3.0000e-001 100421 -4.8674e+001 -1.6333e+002  6.2201e+001 38125 100245,100323,100297
 3.0000e-001 100398 -4.6443e+001 -1.0999e+002  6.7230e+001 38125 100219,100323,100245
 3.0000e-001 100375 -9.7892e+001 -1.6488e+002  1.0213e+002 38125 100245,100297,100271
 3.0000e-001 100666 -1.8226e+002 -1.1915e+002  5.2406e+001 37607 100689,100568,100542
 3.0000e-001 100643 -1.8591e+002 -1.1413e+002  4.1493e+001 37607 100689,100542,100490
 3.0000e-001 100620 -1.5378e+002 -1.2308e+002  2.6621e+001 37607 100490,100542,100516
 3.0000e-001 100715 -1.6264e+002 -1.1748e+002  4.6855e+001 37607 100594,100568,100689
 3.0000e-001 100738 -1.7718e+002 -1.1694e+002  4.3104e+001 37607 100594,100689,100490
 3.0000e-001 100937 -1.4465e+002 -5.7505e+001  1.0672e+002 37017 100960,100813,100787
 3.0000e-001 100914 -1.5889e+002 -6.7888e+001  9.6379e+001 37017 100960,100787,100761
 3.0000e-001 100891 -1.3644e+002 -4.8268e+001  8.4482e+001 37017 100813,100865,100839
 3.0000e-001 100986 -1.3242e+002 -7.0987e+001  8.8370e+001 37017 100865,100813,100960
 3.0000e-001 101009 -1.6074e+002 -8.5614e+001  7.6486e+001 37017 100865,100960,100761
 3.0000e-001 101519 -2.1100e+002 -1.8017e+002  8.4233e+001 36613 101222,101274,101248
 3.0000e-001 101496 -1.3991e+002 -1.2735e+002  5.8186e+001 36613 101222,101352,101274
 3.0000e-001 101473 -1.5954e+002 -1.7970e+002  6.0049e+001 36613 101274,101352,101326
 3.0000e-001 101450 -1.0699e+002 -8.7664e+001  7.5382e+001 36613 101222,101378,101352
 3.0000e-001 101427 -8.9240e+001 -1.9462e+002  9.8405e+001 36613 101274,101326,101300
 3.0000e-001 101404 -1.0131e+002 -3.3999e+001  1.2482e+001 36613 101196,101378,101222
 3.0000e-001 101718 -1.7836e+002 -7.7938e+001  6.6929e+001 36308 101594,101646,101620
 3.0000e-001 101695 -1.8181e+002 -8.5908e+001  6.6564e+001 36308 101568,101646,101594
 3.0000e-001 101672 -2.2302e+002 -7.4476e+001  5.7278e+001 36308 101542,101646,101568
 3.0000e-001 102098 -1.6452e+002 -8.4364e+001  3.7667e+001 35918 102121,101954,101876
 3.0000e-001 102075 -1.3490e+002 -1.1037e+002  2.7826e+001 35918 102121,101876,101824
 3.0000e-001 102052 -1.7928e+002 -9.0931e+001  3.5788e+001 35918 101876,101954,101928
 3.0000e-001 102029 -2.3654e+002 -2.0826e+001  3.7618e+001 35918 101876,101928,101902
 3.0000e-001 102006 -1.2981e+002 -9.9226e+001  3.1553e+001 35918 101824,101876,101850
 3.0000e-001 102147 -1.7903e+002 -1.0809e+002  4.9706e+001 35918 101980,101954,102121
 3.0000e-001 102170 -1.4819e+002 -1.3538e+002  3.7647e+001 35918 101980,102121,101824
 3.0000e-001 102489 -8.3221e+001 -1.8741e+002  7.0394e+001 35514 102241,102345,102267
 3.0000e-001 102466 -9.9695e+001 -1.7957e+002  5.8015e+001 35514 102215,102345,102241
 3.0000e-001 102443 -8.3096e+001 -1.9529e+002  6.2353e+001 35514 102215,102371,102345
 3.0000e-001 102420 -8.8114e+001 -2.0890e+002  6.5909e+001 35514 102267,102345,102293
 3.0000e-001 102397 -6.6035e+001 -1.5564e+002  6.5779e+001 35514 102293,102345,102319
 3.0000e-001 102820 -1.6464e+002 -1.3598e+002  3.2110e+001 35224 102843,102699,102647
 3.0000e-001 102797 -2.3087e+002 -1.3361e+002  6.4584e+001 35224 102971,102725,102699
 3.0000e-001 102774 -1.5927e+002 -1.4318e+002  8.0810e+001 35224 102595,102725,102621
 3.0000e-001 102751 -8.9183e+001 -5.5285e+001  6.3267e+001 35224 102647,102699,102673
 3.0000e-001 102869 -1.6894e+002 -1.3372e+002  6.3162e+001 35224 102971,102699,102843
 3.0000e-001 102997 -1.6174e+002 -1.4949e+002  7.1203e+001 35224 102621,102725,102971
 3.0000e-001 103020 -8.6032e+001 -1.3710e+002  7.8336e+001 35224 102621,102971,102843
 3.0000e-001 103349 -1.3703e+002 -9.3234e+001  6.4610e+001 34820 103150,103228,103176
 3.0000e-001 103326 -1.4384e+002 -1.0574e+002  6.0263e+001 34820 103124,103228,103150
 3.0000e-001 103303 -1.1666e+002 -8.1598e+001  9.2652e+001 34820 103176,103228,103202
 3.0000e-001 103280 -1.0933e+002 -8.8397e+001  7.6279e+001 34820 103124,103254,103228
 3.0000e-001 103806 -2.2021e+002 -1.2418e+002  6.0204e+001 34530 103558,103662,103636
 3.0000e-001 103783 -1.8569e+002 -1.1769e+002  5.3195e+001 34530 103558,103688,103662
 3.0000e-001 103760 -2.0494e+002 -1.3231e+002  3.1276e+001 34530 103532,103688,103558
 3.0000e-001 103737 -2.2944e+002 -1.2802e+002  7.6108e+001 34530 103584,103636,103610
 3.0000e-001 103714 -3.1732e+002 -1.5120e+002  6.7016e+001 34530 103558,103636,103584
 3.0000e-001 104263 -7.5330e+001 -7.3404e+001  4.4454e+001 34019 103989,104119,104015
 3.0000e-001 104240 -7.2040e+001 -6.7214e+001  5.6634e+001 34019 103989,104145,104119
 3.0000e-001 104217 -7.0973e+001 -9.3640e+001  2.8831e+001 34019 104015,104067,104041
 3.0000e-001 104194 -8.6274e+001 -1.0071e+002  3.7823e+001 34019 104015,104119,104067
 3.0000e-001 104171 -9.6355e+001 -6.3034e+001  3.6494e+001 34019 104067,104119,104093
 3.0000e-001 104641 -1.4607e+002 -4.4516e+001  5.8029e+001 33351 104419,104497,104445
 3.0000e-001 104618 -1.8065e+002 -7.2437e+001  4.4808e+001 33351 104393,104497,104419
 3.0000e-001 104595 -2.1228e+002 -8.7439e+001  3.9058e+001 33351 104367,104497,104393
 3.0000e-001 104572 -1.3386e+002 -2.4297e+001  9.1760e+000 33351 104445,104497,104471
 3.0000e-001 104549 -2.1653e+002 -9.8327e+001  4.0317e+001 33351 104367,104523,104497
 3.0000e-001 105019 -1.0940e+002 -1.7808e+002  7.7255e+001 32861 104823,104901,104875
 3.0000e-001 104996 -1.2504e+002 -1.6429e+002  6.7508e+001 32861 104745,104901,104823
 3.0000e-001 104973 -1.5992e+002 -1.9789e+002  8.6582e+001 32861 104823,104875,104849
 3.0000e-001 104950 -1.2568e+002 -1.5911e+002  7.9155e+001 32861 104745,104823,104797
 3.0000e-001 104927 -1.2360e+002 -5.8712e+001  8.3580e+001 32861 104745,104797,104771
 3.0000e-001 105397 -1.0535e+002 -1.1165e+002  5.7909e+001 32457 105149,105253,105175
 3.0000e-001 105374 -1.4925e+002 -1.1046e+002  5.4624e+001 32457 105149,105279,105253
 3.0000e-001 105351 -1.1933e+002 -9.1975e+001  6.2503e+001 32457 105123,105279,105149
 3.0000e-001 105328 -2.5955e+002 -4.4468e+001  1.6942e+002 32457 105175,105227,105201
 3.0000e-001 105305 -2.1005e+002 -1.5235e+002  8.4503e+001 32457 105175,105253,105227
 3.0000e-001 105726 -7.6626e+001 -1.3009e+002  6.2453e+001 32003 105527,105605,105553
 3.0000e-001 105703 -1.1334e+002 -1.0390e+002  5.6019e+001 32003 105501,105605,105527
 3.0000e-001 105680 -1.0027e+002 -9.2811e+001  4.4867e+001 32003 105501,105631,105605
 3.0000e-001 105657 -3.3515e+001 -7.3386e+001  4.0680e+001 32003 105553,105605,105579
 3.0000e-001 106104 -1.6195e+002 -9.1160e+001  9.2314e+001 31492 106127,105908,105856
 3.0000e-001 106081 -1.9599e+002 -1.0452e+002  7.2301e+001 31492 106127,105856,105830
 3.0000e-001 106058 -1.5392e+002 -1.3504e+002  1.0322e+002 31492 105856,105908,105882
 3.0000e-001 106035 -1.7139e+002 -1.4475e+002  5.4124e+001 31492 105830,105986,105960
 3.0000e-001 106012 -1.0925e+002 -1.0817e+002  8.7448e+001 31492 105908,105960,105934
 3.0000e-001 106153 -1.5193e+002 -1.1899e+002  6.6568e+001 31492 105960,105908,106127
 3.0000e-001 106176 -1.7344e+002 -1.3765e+002  4.8778e+001 31492 105960,106127,105830
 3.0000e-001 106375 -1.4673e+002 -7.4371e+001  8.0624e+001 30788 106398,106277,106251
 3.0000e-001 106352 -1.8616e+002 -1.0840e+002  5.6224e+001 30788 106398,106251,106225
 3.0000e-001 106329 -1.9589e+002 -1.3413e+002  6.4538e+001 30788 106600,106199,106303
 3.0000e-001 106424 -1.7685e+002 -1.4591e+002  5.9281e+001 30788 106470,106398,106303
 3.0000e-001 106447 -1.6594e+002 -1.2621e+002  6.3577e+001 30788 106600,106303,106398
 3.0000e-001 106496 -3.7930e+001 -8.6374e+001  5.9634e+001 30788 106277,106398,106470
 3.0000e-001 106626 -2.0474e+002 -1.2577e+002  8.3108e+001 30788 106225,106199,106600
 3.0000e-001 106649 -1.9235e+002 -1.2630e+002  7.9063e+001 30788 106225,106600,106398
 3.0000e-001 106799 -7.2779e+001 -1.5895e+002  3.4376e+001 30426 106698,106750,106724
 3.0000e-001 106776 -4.2748e+001 -1.0057e+002  4.8442e+001 30426 106672,106750,106698
 3.0000e-001 107356 -1.8078e+002 -9.7200e+001  4.8809e+001 29972 107010,107166,107114
 3.0000e-001 107333 -1.7911e+002 -7.4991e+001  7.3015e+001 29972 106984,107166,107010
 3.0000e-001 107310 -1.7661e+002 -4.6757e+001  2.4714e+001 29972 107010,107114,107088
 3.0000e-001 107287 -1.5207e+002 -1.2908e+001  4.5054e+001 29972 107114,107166,107140
 3.0000e-001 107264 -1.8615e+002 -1.1657e+002  9.8952e+001 29972 106984,107192,107166
 3.0000e-001 107241 -1.8018e+002 -1.0312e+002  1.5073e+001 29972 107010,107088,107036
 3.0000e-001 107218 -1.4956e+002 -9.1026e+001  3.0494e+001 29972 107036,107088,107062
 3.0000e-001 107783 -1.1377e+002 -1.2810e+002  6.8288e+001 29724 107878,107806,107590
 3.0000e-001 107760 -1.8578e+002 -1.5634e+002  6.5427e+001 29724 107806,107512,107486
 3.0000e-001 107737 -1.0981e+002 -1.2573e+002  6.9328e+001 29724 107878,107590,107538
 3.0000e-001 107714 -1.2876e+002 -1.6677e+002  8.9571e+001 29724 107950,107460,107616
 3.0000e-001 107691 -1.4493e+002 -1.7193e+002  8.0768e+001 29724 107460,107642,107616
 3.0000e-001 107668 -7.5654e+001 -7.5234e+001  8.6819e+001 29724 107538,107590,107564
 3.0000e-001 107832 -9.5997e+001 -1.4042e+002  9.8783e+001 29724 107616,107590,107806
 3.0000e-001 107855 -1.2899e+002 -1.6807e+002  8.6773e+001 29724 107950,107616,107806
 3.0000e-001 107904 -1.3121e+002 -1.2586e+002  8.9661e+001 29724 107512,107806,107878
 3.0000e-001 107927 -9.2660e+001 -1.0698e+002  9.5933e+001 29724 107512,107878,107538
 3.0000e-001 107976 -9.5085e+001 -1.6993e+002  9.9790e+001 29724 107486,107460,107950
 3.0000e-001 107999 -1.2503e+002 -1.7893e+002  8.5772e+001 29724 107486,107950,107806
 3.0000e-001 108296 -7.8735e+001 -1.1488e+002  6.1141e+001 29206 108319,108100,108048
 3.0000e-001 108273 -5.6791e+001 -1.0551e+002  6.0036e+001 29206 108319,108048,108022
 3.0000e-001 108250 -5.0185e+001 -1.1898e+002  7.2091e+001 29206 108391,108152,108126
 3.0000e-001 108227 -1.6067e+002 -4.9682e+001  1.0325e+002 29206 108048,108100,108074
 3.0000e-001 108204 -6.3858e+001 -1.4161e+002  6.8148e+001 29206 108022,108178,108152
 3.0000e-001 108345 -6.9638e+001 -1.0527e+002  7.3856e+001 29206 108126,108100,108319
 3.0000e-001 108368 -5.4539e+001 -1.0753e+002  7.5890e+001 29206 108391,108126,108319
 3.0000e-001 108417 -5.9669e+001 -1.3080e+002  6.4864e+001 29206 108022,108152,108391
 3.0000e-001 108440 -6.4120e+001 -1.2341e+002  6.9599e+001 29206 108022,108391,108319
 3.0000e-001 108688 -2.2392e+002 -1.4367e+002  8.2017e+001 28595 108711,108541,108515
 3.0000e-001 108665 -2.8387e+002 -1.5885e+002  9.8908e+001 28595 108783,108711,108515
 3.0000e-001 108642 -3.1301e+002 -1.4326e+002  9.6947e+001 28595 108783,108515,108489
 3.0000e-001 108619 -3.4576e+002 -1.8866e+002  6.6165e+001 28595 108463,108593,108489
 3.0000e-001 108737 -2.1229e+002 -1.2945e+002  4.9166e+001 28595 108567,108541,108711
 3.0000e-001 108760 -2.1898e+002 -1.4110e+002  7.8199e+001 28595 108567,108711,108593
 3.0000e-001 108809 -2.2675e+002 -1.6189e+002  7.8869e+001 28595 108593,108711,108783
 3.0000e-001 108832 -2.7434e+002 -1.5798e+002  6.8496e+001 28595 108593,108783,108489
 3.0000e-001 109033 -1.0015e+002 -8.6945e+001  7.8432e+001 28091 108909,108961,108935
 3.0000e-001 109010 -1.9248e+002 -1.0085e+002  5.0747e+001 28091 108857,108961,108909
 3.0000e-001 108987 -2.3437e+002 -1.4447e+002  8.7526e+001 28091 108857,108909,108883
 3.0000e-001 109136 -9.0544e+001 -2.1184e+002  4.0216e+001 27587 109058,109110,109084
 3.0000e-001 109695 -1.4041e+002 -1.3459e+002  4.0294e+001 26969 109718,109375,109323
 3.0000e-001 109672 -1.4568e+002 -1.3170e+002  5.0060e+001 26969 109718,109323,109505
 3.0000e-001 109649 -1.7198e+002 -3.5384e+001  1.9454e+001 26969 109790,109453,109427
 3.0000e-001 109626 -4.6777e+001 -1.4530e+002  6.5327e+001 26969 109323,109375,109349
 3.0000e-001 109603 -1.9413e+002 -1.8533e+002  8.1360e+001 26969 109323,109531,109505
 3.0000e-001 109580 -8.5627e+001 -1.3989e+002  1.3200e+001 26969 109375,109427,109401
 3.0000e-001 109557 -1.7867e+002 -5.8256e+001  8.4887e+000 26969 109453,109505,109479
 3.0000e-001 109744 -1.5781e+002 -1.5671e+002  1.5316e+001 26969 109427,109375,109718
 3.0000e-001 109767 -1.2401e+002 -8.0500e+001  2.1993e+001 26969 109790,109427,109718
 3.0000e-001 109816 -1.9714e+002 -8.0988e+001  4.1539e+001 26969 109505,109453,109790
 3.0000e-001 109839 -1.6553e+002 -1.3572e+002  5.1017e+001 26969 109505,109790,109718
 3.0000e-001 110266 -1.3031e+002 -1.8730e+002  8.1809e+001 26515 110361,110289,110099
 3.0000e-001 110243 -1.3169e+002 -1.6425e+002  1.1005e+002 26515 110289,109995,109943
 3.0000e-001 110220 -1.2271e+002 -1.8558e+002  8.9763e+001 26515 110361,110099,110021
 3.0000e-001 110197 -4.6959e+001 -1.5154e+002  7.3655e+001 26515 110047,110099,110073
 3.0000e-001 110174 -8.6947e+001 -2.4709e+002  6.1318e+001 26515 110021,110099,110047
 3.0000e-001 110151  1.1847e+000 -7.9499e+000  1.7317e+002 26515 109943,109995,109969
 3.0000e-001 110315 -2.1196e+002 -1.5869e+002  7.3974e+001 26515 110125,110099,110289
 3.0000e-001 110338 -1.3338e+002 -8.0661e+001  1.2206e+002 26515 110125,110289,109943
 3.0000e-001 110387 -1.2078e+002 -1.7087e+002  8.6178e+001 26515 109995,110289,110361
 3.0000e-001 110410 -1.1758e+002 -1.7786e+002  9.2747e+001 26515 109995,110361,110021
 3.0000e-001 110609 -9.0746e+001 -1.2828e+002  5.5636e+001 25789 110906,110762,110632
 3.0000e-001 110586 -8.3877e+001 -1.6714e+002  7.1952e+001 25789 110762,110433,110537
 3.0000e-001 110563 -1.4404e+002 -1.2986e+002  7.8045e+001 25789 110834,110459,110433
 3.0000e-001 110658 -1.1115e+002 -1.2773e+002  6.7597e+001 25789 110906,110632,110834
 3.0000e-001 110788 -6.9483e+001 -6.5725e+001  3.9561e+001 25789 110511,110632,110762
 3.0000e-001 110811 -7.0755e+001 -1.2147e+002  7.5940e+001 25789 110511,110762,110537
 3.0000e-001 110860 -1.1124e+002 -1.1941e+002  8.8106e+001 25789 110485,110459,110834
 3.0000e-001 110883 -1.3008e+002 -1.6263e+002  8.3740e+001 25789 110485,110834,110632
 3.0000e-001 110932 -1.2831e+002 -1.3605e+002  6.0816e+001 25789 110433,110762,110906
 3.0000e-001 110955 -1.4292e+002 -1.2839e+002  6.9499e+001 25789 110433,110906,110834
 3.0000e-001 111350 -1.7563e+002 -1.4973e+002  7.7177e+001 25228 111445,111373,111186
 3.0000e-001 111327 -2.0768e+002 -1.8345e+002  7.5866e+001 25228 110978,111186,111004
 3.0000e-001 111304 -1.9654e+002 -1.3876e+002  7.2205e+001 25228 111373,111108,111082
 3.0000e-001 111281 -1.5210e+002 -2.0574e+002  7.0308e+001 25228 111134,111186,111160
 3.0000e-001 111258 -1.7133e+002 -1.4580e+002  8.6787e+001 25228 111445,111186,111134
 3.0000e-001 111235 -1.9833e+002 -1.5162e+002  6.6934e+001 25228 111517,111030,111004
 3.0000e-001 111212 -2.2587e+002 -1.6521e+002  6.5832e+001 25228 111030,111082,111056
 3.0000e-001 111399 -1.9133e+002 -1.7618e+002  6.9753e+001 25228 111004,111186,111373
 3.0000e-001 111422 -1.9149e+002 -1.4929e+002  7.4798e+001 25228 111517,111004,111373
 3.0000e-001 111471 -1.9182e+002 -1.5516e+002  6.8557e+001 25228 111108,111373,111445
 3.0000e-001 111494 -1.8655e+002 -1.4965e+002  7.8438e+001 25228 111108,111445,111134
 3.0000e-001 111543 -2.1276e+002 -1.5994e+002  5.8940e+001 25228 111082,111030,111517
 3.0000e-001 111566 -2.0388e+002 -1.5439e+002  6.7436e+001 25228 111082,111517,111373
 3.0000e-001 112074 -2.3937e+002 -1.4771e+002  7.2292e+001 24338 112097,111907,111881
 3.0000e-001 112051 -2.4103e+002 -1.4426e+002  6.3411e+001 24338 112097,111881,111829
 3.0000e-001 112028 -1.8955e+002 -1.4227e+002  6.4115e+001 24338 111829,111881,111855
 3.0000e-001 112005 -2.3532e+002 -1.6929e+002  5.0906e+001 24338 111777,111933,111829
 3.0000e-001 111982 -2.3256e+002 -6.2388e+001  6.3843e+001 24338 111751,111933,111777
 3.0000e-001 111959 -2.3651e+002 -2.3120e+002  9.1785e+001 24338 111777,111829,111803
 3.0000e-001 112123 -2.4618e+002 -1.7643e+002  7.7935e+001 24338 111933,111907,112097
 3.0000e-001 112146 -2.3574e+002 -1.5344e+002  6.9204e+001 24338 111933,112097,111829
 3.0000e-001 112443 -2.1334e+002 -1.5062e+002  5.2075e+001 23998 112466,112299,112247
 3.0000e-001 112420 -2.5159e+002 -2.0718e+002  6.8870e+001 23998 112466,112247,112221
 3.0000e-001 112397 -3.1992e+002 -2.1435e+002  7.2301e+001 23998 112169,112325,112221
 3.0000e-001 112374 -2.3427e+002 -1.4364e+002  1.3685e+002 23998 112169,112221,112195
 3.0000e-001 112351 -1.9375e+002 -1.2702e+002  6.0727e+001 23998 112247,112299,112273
 3.0000e-001 112492 -2.4606e+002 -1.6829e+002  8.5010e+001 23998 112325,112299,112466
 3.0000e-001 112515 -2.5877e+002 -1.9094e+002  9.3846e+001 23998 112325,112466,112221
 3.0000e-001 113200 -1.6675e+002 -1.7863e+002  9.3370e+001 23480 112779,112961,112805
 3.0000e-001 113177 -1.5712e+002 -1.3619e+002  5.7144e+001 23480 112779,112987,112961
 3.0000e-001 113154 -9.8429e+001 -1.1326e+002  6.6311e+001 23480 112805,112961,112883
 3.0000e-001 113131 -1.3685e+002 -1.6090e+002  6.9862e+001 23480 112883,112935,112909
 3.0000e-001 113108 -1.4246e+002 -1.3236e+002  6.4138e+001 23480 112883,112961,112935
 3.0000e-001 113085 -1.0351e+002 -1.0275e+002  4.2830e+001 23480 112831,112883,112857
 3.0000e-001 113062 -1.1915e+002 -1.2409e+002  4.9765e+001 23480 112805,112883,112831
 3.0000e-001 113039 -2.1305e+002 -9.3883e+001  6.5603e+001 23480 112779,113013,112987
 3.0000e-001 113676 -1.5906e+002 -1.0980e+002  7.2140e+001 23018 113699,113434,113356
 3.0000e-001 113653 -1.3283e+002 -1.0000e+002  6.4445e+001 23018 113771,113699,113356
 3.0000e-001 113630 -1.2381e+002 -1.2188e+002  5.6176e+001 23018 113771,113356,113512
 3.0000e-001 113607 -1.0827e+002 -1.3629e+002  7.1163e+001 23018 113330,113512,113356
 3.0000e-001 113584 -2.6933e+002 -1.1376e+002  1.0645e+002 23018 113356,113434,113382
 3.0000e-001 113561 -3.9159e+001 -1.2734e+002  7.0753e+001 23018 113304,113512,113330
 3.0000e-001 113538 -2.4391e+002 -4.3495e+001  4.3657e+001 23018 113382,113434,113408
 3.0000e-001 113725 -1.6127e+002 -1.2355e+002  8.9561e+001 23018 113460,113434,113699
 3.0000e-001 113748 -1.2018e+002 -1.0625e+002  8.8465e+001 23018 113460,113699,113486
 3.0000e-001 113797 -1.5489e+002 -1.3083e+002  7.4515e+001 23018 113486,113699,113771
 3.0000e-001 113820 -1.3282e+002 -1.3496e+002  6.1550e+001 23018 113486,113771,113512
 3.0000e-001 114424 -2.0724e+002 -1.7295e+002  3.5531e+001 22514 114447,114133,114029
 3.0000e-001 114401 -2.1391e+002 -1.9154e+002  3.8861e+001 22514 114447,114029,114237
 3.0000e-001 114378 -2.3294e+002 -1.5679e+002  1.9347e+001 22514 114133,114211,114185
 3.0000e-001 114355 -3.1893e+002 -1.7083e+002  6.9828e-001 22514 114133,114185,114159
 3.0000e-001 114332 -2.1707e+002 -2.0550e+002  8.5583e+001 22514 114003,114237,114029
 3.0000e-001 114309 -2.0775e+002 -1.2633e+002  1.8632e+001 22514 114029,114133,114055
 3.0000e-001 114286 -1.8191e+002 -1.3087e+002  9.6288e+000 22514 114055,114133,114107
 3.0000e-001 114263 -1.3605e+002 -4.8253e+000  6.5744e+000 22514 114055,114107,114081
 3.0000e-001 114473 -2.1869e+002 -1.6116e+002  4.2286e+001 22514 114211,114133,114447
 3.0000e-001 114496 -2.2190e+002 -1.7484e+002  4.4628e+001 22514 114211,114447,114237
 3.0000e-001 114597 -1.0597e+002 -2.5526e+002  1.4846e+002 22316 114620,114571,114545
 3.0000e-001 114646 -1.0597e+002 -2.5526e+002  1.4846e+002 22316 114519,114571,114620
 3.0000e-001 115127 -3.1278e+002 -1.8536e+002  6.4850e+001 21612 115150,114905,114879
 3.0000e-001 115104 -3.2824e+002 -1.1960e+002  7.0876e+001 21612 115150,114879,114853
 3.0000e-001 115081 -3.0600e+002 -9.2023e+001  8.7827e+001 21612 115222,114931,114905
 3.0000e-001 115058 -3.0463e+002 -1.4129e+002  8.0906e+001 21612 115222,114905,115009
 3.0000e-001 115035 -1.7418e+002 -1.3015e+002  7.3849e+001 21612 114957,115009,114983
 3.0000e-001 115176 -3.0376e+002 -1.3075e+002  6.6803e+001 21612 115009,114905,115150
 3.0000e-001 115199 -3.1345e+002 -5.6275e+001  7.0726e+001 21612 115009,115150,114853
 3.0000e-001 115248 -3.0899e+002 -1.3455e+002  8.3684e+001 21612 114957,114931,115222
 3.0000e-001 115271 -3.0512e+002 -1.7995e+002  7.6063e+001 21612 114957,115222,115009
 3.0000e-001 115519 -7.2221e+001  3.6314e+001  7.6025e+001 21208 115542,115372,115320
 3.0000e-001 115496 -1.1350e+001  7.2705e+001  8.9572e+000 21208 115542,115320,115294
 3.0000e-001 115473 -4.6044e+001 -1.1167e+002  1.0835e+002 21208 115320,115372,115346
 3.0000e-001 115450 -8.9774e+001 -1.5297e+001  8.7061e+000 21208 115294,115424,115398
 3.0000e-001 115568 -9.5456e+001  6.3477e+000  9.1594e+001 21208 115398,115372,115542
 3.0000e-001 115591 -7.8695e+001 -4.5413e+001  3.7688e+001 21208 115398,115542,115294
 3.0000e-001 115839 -2.9667e+002 -1.2964e+002  9.8346e+001 20668 115862,115640,115614
 3.0000e-001 115816 -3.2072e+002 -1.1296e+002  1.0984e+002 20668 115862,115614,115744
 3.0000e-001 115793 -3.8374e+002 -1.6179e+002  7.7406e+001 20668 115640,115718,115692
 3.0000e-001 115770 -3.6309e+002 -1.5527e+002  7.7630e+001 20668 115640,115692,115666
 3.0000e-001 115888 -3.2344e+002 -1.4648e+002  9.0518e+001 20668 115718,115640,115862
 3.0000e-001 115911 -3.3702e+002 -1.2137e+002  1.0650e+002 20668 115718,115862,115744
 3.0000e-001 116134 -3.1492e+001 -1.1875e+002  1.0199e+002 20264 115958,116036,115984
 3.0000e-001 116111 -5.2923e+001 -1.2721e+002  1.0129e+002 20264 115958,116062,116036
 3.0000e-001 116088 -5.5868e+001 -1.3360e+002  9.4539e+001 20264 115984,116036,116010
 3.0000e-001 116384 -2.1673e+002 -1.1055e+002  6.2776e+001 19924 116407,116211,116159
 3.0000e-001 116361 -2.1993e+002 -1.3080e+002  6.2974e+001 19924 116407,116159,116263
 3.0000e-001 116338 -2.1713e+002 -9.8155e+001  5.6374e+001 19924 116159,116211,116185
 3.0000e-001 116315 -2.2506e+002 -1.5180e+002  9.0969e+001 19924 116159,116289,116263
 3.0000e-001 116433 -2.2435e+002 -9.5181e+001  6.7056e+001 19924 116237,116211,116407
 3.0000e-001 116456 -2.2359e+002 -1.1068e+002  6.8874e+001 19924 116237,116407,116263
 3.0000e-001 116608 -2.2724e+002 -9.6178e+001  6.3464e+001 19520 116703,116631,116533
 3.0000e-001 116585 -2.5196e+002 -9.2310e+001  6.8398e+001 19520 116631,116507,116481
 3.0000e-001 116657 -2.0738e+002 -9.3202e+001  6.3172e+001 19520 116559,116533,116631
 3.0000e-001 116680 -2.3125e+002 -8.6668e+001  6.3355e+001 19520 116559,116631,116481
 3.0000e-001 116729 -2.2724e+002 -9.6178e+001  6.3464e+001 19520 116507,116631,116703
 3.0000e-001 116952 -7.3817e+001 -7.6967e+001  1.1629e+002 19208 116975,116802,116776
 3.0000e-001 116929 -9.6008e+001 -1.4899e+002  8.2948e+001 19208 116975,116776,116880
 3.0000e-001 116906 -1.5538e+002 -6.6295e+001  7.7125e+001 19208 116802,116854,116828
 3.0000e-001 117001 -6.7926e+001 -6.2413e+001  1.2473e+002 19208 116854,116802,116975
 3.0000e-001 117024 -3.3545e+001 -8.2557e+001  1.0882e+002 19208 116854,116975,116880
 3.0000e-001 117428 -1.3413e+002 -5.6558e+001  6.7203e+001 18796 117154,117206,117180
 3.0000e-001 117405 -1.1462e+002 -9.1815e+001  6.8649e+001 18796 117154,117284,117206
 3.0000e-001 117382 -1.0413e+002 -8.7650e+001  6.8244e+001 18796 117154,117310,117284
 3.0000e-001 117359 -9.3169e+001 -7.1539e+001  8.3359e+001 18796 117206,117284,117258
 3.0000e-001 117336 -8.3198e+001 -3.6873e+001  1.0276e+002 18796 117206,117258,117232
 3.0000e-001 117529 -1.0409e+002 -4.1938e+001  4.4647e+001 18228 117810,117552,117477
 3.0000e-001 117578 -1.5944e+002 -1.1992e+002  4.6574e+001 18228 117682,117552,117503
 3.0000e-001 117708 -6.4496e+001 -8.0166e+001  4.8310e+001 18228 117477,117552,117682
 3.0000e-001 117836 -1.4435e+002 -1.2029e+002  5.9394e+001 18228 117451,117552,117810
 3.0000e-001 118364 -2.0573e+002 -8.5965e+001  4.8969e+001 17722 118067,118223,118093
 3.0000e-001 118341 -1.7667e+002 -2.0902e+001  5.6342e+001 17722 118041,118223,118067
 3.0000e-001 118318 -1.3960e+002 -5.4412e+001  3.0956e+001 17722 118093,118223,118197
 3.0000e-001 118295 -2.3639e+002 -1.8202e+002  9.8861e+001 17722 118119,118197,118171
 3.0000e-001 118272 -1.2431e+002 -5.0955e+001  4.6809e+001 17722 118093,118197,118119
 3.0000e-001 118249 -1.7214e+002 -2.1654e+001  1.0592e+002 17722 118119,118171,118145
 3.0000e-001 118514 -1.9496e+002 -8.2988e+001  7.3085e+001 17268 118387,118439,118413
 3.0000e-001 118491 -1.0169e+002 -6.3745e+001  6.9120e+001 17268 118387,118465,118439
 3.0000e-001 118916 -3.3486e+002 -1.4154e+002  5.3138e+001 16828 118668,118772,118694
 3.0000e-001 118893 -3.7812e+002 -1.5983e+002  4.5924e+001 16828 118668,118798,118772
 3.0000e-001 118870 -4.1111e+002 -2.4535e+002  4.6857e+001 16828 118642,118798,118668
 3.0000e-001 118847 -2.4907e+002 -1.0787e+002  1.0177e+002 16828 118694,118746,118720
 3.0000e-001 118824 -3.4756e+002 -1.9366e+002  5.1400e+001 16828 118694,118772,118746
 3.0000e-001 119316 -1.6507e+002 -9.8032e+001  1.1841e+002 16422 119042,119172,119094
 3.0000e-001 119293 -2.1337e+002 -1.0329e+002  1.2373e+002 16422 119042,119198,119172
 3.0000e-001 119270 -1.9046e+002 -8.1652e+001  8.2476e+001 16422 119042,119094,119068
 3.0000e-001 119247 -1.7098e+002 -7.7392e+001  1.6948e+002 16422 119094,119146,119120
 3.0000e-001 119224 -1.5949e+002 -8.9821e+001  1.2217e+002 16422 119094,119172,119146
 3.0000e-001 119466 -3.5571e+002 -1.4282e+002 -3.6952e+001 16010 119339,119391,119365
 3.0000e-001 119443 -2.3446e+002 -1.5378e+002  7.9661e+001 16010 119339,119417,119391
 3.0000e-001 119616 -1.1162e+002 -4.9198e+001  1.0539e+002 15547 119515,119567,119541
 3.0000e-001 119593  1.3548e+001  2.3951e+001  1.4572e+002 15547 119489,119567,119515
 3.0000e-001 119719 -2.9364e+002 -1.2137e+002  1.8873e+001 421 119641,119693,119667
 4.0000e-001 69562 -2.4730e+002 -1.0981e+002  1.6182e+002 69254 69484,69536,69510
 4.0000e-001 70009 -7.7952e+001 -5.5585e+001  7.9897e+001 68942 69686,69842,69816
 4.0000e-001 69986 -8.1516e+001 -4.8489e+001  4.4075e+001 68942 69686,69868,69842
 4.0000e-001 69963  6.5567e-001  2.1053e-001  1.0904e+002 68942 69686,69816,69712
 4.0000e-001 69940 -2.8000e+001 -1.5340e+001  1.5353e+002 68942 69712,69790,69738
 4.0000e-001 69917 -9.6885e+001 -2.1887e+002  1.2709e+002 68942 69712,69816,69790
 4.0000e-001 69894  5.7925e+000 -1.2770e+002  6.7772e+001 68942 69738,69790,69764
 4.0000e-001 70110 -5.9969e+001 -1.8544e+001  3.1699e+001 68766 70032,70084,70058
 4.0000e-001 70746 -1.1914e+001 -3.4648e+001  4.4512e+001 68448 70400,70556,70426
 4.0000e-001 70723 -9.0459e+001 -3.3656e+001  5.2053e+001 68448 70374,70556,70400
 4.0000e-001 70700 -1.9560e+001 -2.6456e+001  2.0751e+001 68448 70426,70556,70478
 4.0000e-001 70677 -7.4978e+001 -1.4425e+001  2.2735e+001 68448 70478,70556,70504
 4.0000e-001 70654 -7.2184e+001 -6.6526e+001  4.7583e+001 68448 70426,70478,70452
 4.0000e-001 70631 -8.6853e+001 -1.8519e+001  6.2984e+001 68448 70374,70582,70556
 4.0000e-001 70608 -7.5393e+001 -2.3027e+001  2.7467e+001 68448 70504,70556,70530
 4.0000e-001 70896  1.7938e+000 -2.4602e+000  1.7819e+001 68250 70795,70847,70821
 4.0000e-001 70873 -2.1134e+002 -7.8932e+001 -6.8651e+000 68250 70769,70847,70795
 4.0000e-001 70997 -5.0631e+002 -2.2246e+002  1.8953e+002 68052 70919,70971,70945
 4.0000e-001 71367 -1.4952e+002 -2.2946e+002  9.8526e+001 67740 71096,71226,71200
 4.0000e-001 71344 -1.0383e+002 -1.3792e+002  1.1667e+002 67740 71044,71226,71096
 4.0000e-001 71321  3.6921e+000 -3.6921e+000  1.8457e+002 67740 71044,71096,71070
 4.0000e-001 71298 -1.2021e+002 -2.4285e+002  1.7971e+002 67740 71096,71200,71174
 4.0000e-001 71275 -6.2723e+001 -1.4811e+002  7.0499e+001 67740 71096,71148,71122
 4.0000e-001 71252 -8.9460e+001 -1.7363e+002  1.2039e+002 67740 71096,71174,71148
 4.0000e-001 71519  5.2288e+001  2.6849e+001  5.7609e+001 67542 71418,71470,71444
 4.0000e-001 71496  9.3097e+001  2.0568e+002  1.7944e+002 67542 71392,71470,71418
 4.0000e-001 71923 -3.9111e+001 -1.1682e+001  5.1889e+001 67230 71649,71779,71675
 4.0000e-001 71900 -3.4097e+001 -4.9568e+001  4.1182e+001 67230 71649,71805,71779
 4.0000e-001 71877 -4.2564e+001 -1.6695e+001  9.0038e+001 67230 71675,71727,71701
 4.0000e-001 71854 -5.5603e+001 -1.3035e+002  9.3654e+001 67230 71675,71753,71727
 4.0000e-001 71831 -5.2151e+001 -8.2831e+001  6.6788e+001 67230 71675,71779,71753
 4.0000e-001 72433 -5.4657e+001 -3.5888e+001  6.5891e+001 67032 72038,72246,72220
 4.0000e-001 72410 -2.7983e+001 -3.4603e+000  1.8477e+001 67032 72012,72246,72038
 4.0000e-001 72387 -8.3264e+001 -2.0539e+001  6.9107e+001 67032 72064,72194,72168
 4.0000e-001 72364 -9.8771e+001 -3.9479e+001  7.5869e+001 67032 72038,72194,72064
 4.0000e-001 72341 -9.0636e+001 -1.2021e+002  1.0917e+002 67032 72038,72220,72194
 4.0000e-001 72318 -3.9745e+001 -7.5327e+000  3.3458e+001 67032 72090,72168,72142
 4.0000e-001 72295 -7.7315e+000  2.2472e+000  4.6707e+001 67032 72064,72168,72090
 4.0000e-001 72272 -4.4130e+001 -1.1762e+001  3.1592e+001 67032 72090,72142,72116
 4.0000e-001 72933 -7.0979e+001 -7.7995e+001  8.3231e+001 66628 72956,72665,72613
 4.0000e-001 72910 -6.8577e+001 -9.6927e+001  8.1602e+001 66628 73100,72956,72613
 4.0000e-001 72887 -8.9531e+001 -1.2245e+002  7.3182e+001 66628 73028,72691,72665
 4.0000e-001 72864 -6.9651e+001 -9.9747e+001  8.2359e+001 66628 73100,72613,72587
 4.0000e-001 72841 -6.1810e+001 -7.2773e+001  7.0796e+001 66628 72613,72665,72639
 4.0000e-001 72818  2.8844e+001  1.0847e+001  1.2740e+002 66628 72587,72769,72743
 4.0000e-001 72795 -3.7873e+001 -1.4600e+002  2.1128e+001 66628 72561,72769,72587
 4.0000e-001 72982 -9.1506e+001 -9.1597e+001  9.0388e+001 66628 73028,72665,72956
 4.0000e-001 73005 -6.9313e+001 -2.8162e+001  9.0290e+001 66628 72717,72956,72743
 4.0000e-001 73054 -1.2167e+002 -1.0852e+002  4.9087e+001 66628 72717,72691,73028
 4.0000e-001 73077 -1.2397e+002 -9.7364e+001  6.5282e+001 66628 72717,73028,72956
 4.0000e-001 73126 -6.9665e+001 -9.7566e+001  8.4527e+001 66628 72743,72956,73100
 4.0000e-001 73149 -7.0137e+001 -9.9695e+001  8.5191e+001 66628 72743,73100,72587
 4.0000e-001 73606 -3.5207e+001 -8.4574e+001  6.5009e+001 66281 73332,73384,73358
 4.0000e-001 73583 -5.8214e+001 -1.3598e+002  5.8957e+001 66281 73332,73462,73384
 4.0000e-001 73560 -9.1165e+001 -8.0528e+001  9.0805e+001 66281 73384,73462,73436
 4.0000e-001 73537 -1.8105e+002 -7.6440e+001  8.7079e+001 66281 73332,73488,73462
 4.0000e-001 73514 -2.8259e+001 -4.5257e+001  4.2885e+001 66281 73384,73436,73410
 4.0000e-001 73984  1.9470e+000 -1.8363e+001  9.1860e+000 65969 73736,73814,73788
 4.0000e-001 73961  1.9791e+001 -3.6513e+000 -8.6515e-001 65969 73736,73866,73814
 4.0000e-001 73938 -3.0617e+001 -2.4087e+001  4.1117e+001 65969 73814,73866,73840
 4.0000e-001 73915 -2.0108e-001  1.1663e+001 -9.1145e-001 65969 73710,73866,73736
 4.0000e-001 73892  8.4997e+000 -1.8285e+001  1.6119e+000 65969 73736,73788,73762
 4.0000e-001 74232 -6.7587e+001 -7.6455e+001  7.8377e+001 65572 74255,74085,74033
 4.0000e-001 74209 -5.8544e+001 -9.2320e+001  6.0324e+001 65572 74327,74255,74033
 4.0000e-001 74186 -6.6161e+001 -6.2447e+001  5.9495e+001 65572 74327,74033,74007
 4.0000e-001 74163 -7.0604e+001 -8.2875e+001  8.1212e+001 65572 74033,74085,74059
 4.0000e-001 74281 -8.8474e+001 -1.0449e+002  9.5661e+001 65572 74111,74085,74255
 4.0000e-001 74304 -6.5060e+001 -1.0368e+002  5.8509e+001 65572 74111,74255,74137
 4.0000e-001 74353 -5.1053e+001 -5.7456e+001  4.8044e+001 65572 74137,74255,74327
 4.0000e-001 74376 -6.5114e+001 -3.4718e+001  4.8691e+001 65572 74137,74327,74007
 4.0000e-001 74884 -6.7442e+001 -7.8372e+001  5.5538e+001 65174 74587,74717,74613
 4.0000e-001 74861 -8.1274e+001 -8.9688e+001  4.6848e+001 65174 74561,74717,74587
 4.0000e-001 74838 -5.9410e+001 -8.8067e+001  3.7293e+001 65174 74613,74691,74639
 4.0000e-001 74815 -7.3896e+001 -8.7154e+001  5.2526e+001 65174 74613,74717,74691
 4.0000e-001 74792 -1.0582e+001 -1.5679e+002  3.1224e+001 65174 74639,74691,74665
 4.0000e-001 74769 -6.9442e+001 -8.6085e+001  4.3783e+001 65174 74561,74743,74717
 4.0000e-001 75412 -5.7713e+000 -2.1249e+001  1.4674e+002 64770 75167,75245,75219
 4.0000e-001 75389 -8.0107e+001 -1.1800e+002  1.0223e+002 64770 75115,75245,75167
 4.0000e-001 75366 -6.2236e+001 -1.4395e+002  1.2938e+002 64770 75089,75245,75115
 4.0000e-001 75343 -1.1658e+002 -3.0761e+001  9.9695e+001 64770 75167,75219,75193
 4.0000e-001 75320 -6.5243e+001 -8.3099e+001  1.0124e+002 64770 75115,75167,75141
 4.0000e-001 75297 -8.9901e+001 -2.1600e+002  1.3109e+002 64770 75089,75271,75245
 4.0000e-001 75861 -1.7249e+002 -6.9887e+001  1.0957e+002 64316 75538,75694,75564
 4.0000e-001 75838 -8.8884e+001 -3.5859e+001  8.2584e+001 64316 75538,75720,75694
 4.0000e-001 75815 -1.4098e+002 -7.4040e+001  9.1320e+001 64316 75590,75694,75642
 4.0000e-001 75792 -1.4012e+002 -1.0689e+002  1.0419e+002 64316 75564,75694,75590
 4.0000e-001 75769 -5.5270e+001 -1.6218e+002  5.4770e+001 64316 75590,75642,75616
 4.0000e-001 75746 -1.4044e+002 -5.8559e+001  8.9857e+001 64316 75642,75694,75668
 4.0000e-001 76239 -1.8078e+002 -1.3829e+002  1.0882e+002 64018 76262,76095,76043
 4.0000e-001 76216 -1.2524e+002 -1.3451e+002  9.3770e+001 64018 76262,76043,76017
 4.0000e-001 76193 -4.7617e+001 -6.3959e+001  5.2728e+001 64018 75991,76121,76017
 4.0000e-001 76170 -1.7139e+002 -1.1350e+002  1.1194e+002 64018 76043,76095,76069
 4.0000e-001 76147 -4.6543e+000 -7.7867e+001  1.9364e+001 64018 75965,76121,75991
 4.0000e-001 76288 -1.3481e+002 -1.6242e+002  1.3905e+002 64018 76121,76095,76262
 4.0000e-001 76311 -8.5613e+001 -1.6326e+002  1.1640e+002 64018 76121,76262,76017
 4.0000e-001 76866 -7.9931e+001 -8.3850e+001  7.9917e+001 63728 76520,76676,76546
 4.0000e-001 76843 -6.4911e+001 -8.5626e+001  5.6109e+001 63728 76520,76702,76676
 4.0000e-001 76820 -7.4862e+001 -1.0321e+002  9.1054e+001 63728 76546,76650,76572
 4.0000e-001 76797 -1.1191e+002 -1.4001e+002  6.6261e+001 63728 76546,76676,76650
 4.0000e-001 76774 -1.1359e+002 -5.8122e+001  5.1389e+001 63728 76572,76650,76624
 4.0000e-001 76751 -6.3401e+001 -5.8086e+001  6.1433e+001 63728 76494,76702,76520
 4.0000e-001 76728 -4.0522e+001 -6.8843e+001  5.3545e+001 63728 76572,76624,76598
 4.0000e-001 77065 -1.9715e+001 -7.2525e+001  5.4732e+001 63288 77088,76941,76915
 4.0000e-001 77042 -6.4910e+001 -8.2211e+001  3.8793e+001 63288 77088,76915,76993
 4.0000e-001 77019 -3.0149e+001 -6.6756e+001  4.5596e+001 63288 76889,76993,76915
 4.0000e-001 77114 -4.7025e+001 -1.0645e+002  4.2412e+001 63288 76967,76941,77088
 4.0000e-001 77137 -9.1460e+001 -9.6115e+001  1.8995e+001 63288 77160,77088,76993
 4.0000e-001 77186 -2.8085e+001 -6.4546e+001  3.0667e+001 63288 76967,77088,77160
 4.0000e-001 77417 -5.1064e+000 -4.9486e+001  5.5223e+000 62884 77440,77342,77316
 4.0000e-001 77394  6.4155e+000 -8.6820e+001  8.3054e+000 62884 77770,77440,77316
 4.0000e-001 77466 -7.1389e+001 -9.8161e+001  2.3314e+001 62884 77512,77440,77368
 4.0000e-001 77489 -4.6443e-001 -6.1202e+001  5.3205e+000 62884 77642,77440,77290
 4.0000e-001 77538 -1.2238e+001 -6.3667e+001  8.5188e+000 62884 77342,77440,77512
 4.0000e-001 77668 -2.4314e+001 -1.2065e+002  5.6879e+000 62884 77368,77440,77642
 4.0000e-001 77796 -1.0138e+000 -8.9147e+001  7.1080e+000 62884 77290,77440,77770
 4.0000e-001 78479 -1.4204e+002 -1.4771e+002  9.2703e+001 62480 78084,78240,78214
 4.0000e-001 78456 -7.9702e+001 -1.3230e+002  2.3317e+001 62480 78084,78266,78240
 4.0000e-001 78433 -8.5352e+001 -1.4635e+002  3.2590e+001 62480 78110,78214,78136
 4.0000e-001 78410 -1.3440e+002 -1.6190e+002  9.5950e+001 62480 78084,78214,78110
 4.0000e-001 78387 -8.0086e+001 -1.0178e+002  4.4166e+001 62480 78136,78214,78188
 4.0000e-001 78364 -7.0543e+001 -1.4976e+002  1.9533e+001 62480 78058,78266,78084
 4.0000e-001 78341 -2.6225e+001 -7.5426e+001  2.8176e+001 62480 78136,78188,78162
 4.0000e-001 78318 -4.3062e+000 -1.0828e+002 -1.1502e+001 62480 78058,78292,78266
 4.0000e-001 78678 -9.1303e+001 -1.7443e+002  8.2489e+001 61926 78528,78606,78554
 4.0000e-001 78655 -6.0052e+001 -1.7730e+002  9.7965e+001 61926 78502,78606,78528
 4.0000e-001 78632 -5.5388e+001 -1.2816e+002  3.8369e+001 61926 78554,78606,78580
 4.0000e-001 79058 -9.0074e+001 -1.0153e+002  4.7619e+001 61614 78836,78914,78862
 4.0000e-001 79035 -1.2338e+002 -1.1433e+002  4.2701e+001 61614 78810,78914,78836
 4.0000e-001 79012 -9.4061e+001 -1.0230e+002  3.9186e+001 61614 78784,78914,78810
 4.0000e-001 78989 -9.0307e+001 -1.1640e+002  6.3685e+001 61614 78862,78914,78888
 4.0000e-001 78966 -7.5817e+001 -1.4234e+002  5.0793e+001 61614 78784,78940,78914
 4.0000e-001 79208 -7.8945e+000 -1.8326e+001  1.2282e+001 61366 79081,79133,79107
 4.0000e-001 79185 -3.6512e+001 -8.1305e+000  8.2693e+001 61366 79081,79159,79133
 4.0000e-001 79358 -2.3910e+001 -8.2852e+001  2.6722e+001 60962 79231,79283,79257
 4.0000e-001 79335 -6.6236e+001 -1.5525e+002  4.4459e+001 60962 79231,79309,79283
 4.0000e-001 79608 -6.7370e+001 -1.0136e+002  7.3884e+001 60508 79631,79435,79409
 4.0000e-001 79585 -4.6254e+001 -1.1056e+002  4.7709e+001 60508 79703,79631,79409
 4.0000e-001 79562 -5.1874e+001 -2.5041e+001  5.7445e+001 60508 79703,79409,79383
 4.0000e-001 79539 -1.1177e+002 -1.3219e+002  1.1842e+002 60508 79435,79487,79461
 4.0000e-001 79657 -8.5475e+001 -1.4698e+002  1.1906e+002 60508 79487,79435,79631
 4.0000e-001 79680 -3.4615e+001 -9.8117e+001  6.1884e+001 60508 79487,79631,79513
 4.0000e-001 79729 -1.8570e+001 -3.1364e+001  2.4780e+001 60508 79513,79631,79703
 4.0000e-001 79752 -4.3841e+001 -1.7379e+001  1.0768e+001 60508 79513,79703,79383
 4.0000e-001 80390 -8.2269e+001 -9.6001e+001  8.7424e+001 59997 80413,80096,80018
 4.0000e-001 80367 -1.3606e+002 -1.0673e+002  1.0591e+002 59997 80413,80018,80226
 4.0000e-001 80344 -6.4696e+001 -6.5341e+001  6.2342e+001 59997 80096,80174,80148
 4.0000e-001 80321 -2.2297e+002 -1.7550e+002  1.2372e+002 59997 80018,80096,80070
 4.0000e-001 80298 -4.4670e+001 -8.6315e+001  5.0008e+001 59997 80096,80148,80122
 4.0000e-001 80275 -7.3373e+001 -6.0922e+001  6.2381e+001 59997 80174,80226,80200
 4.0000e-001 80252 -1.6381e+002 -1.6379e+002  6.5591e+001 59997 80018,80070,80044
 4.0000e-001 80439 -6.7174e+001 -9.7027e+001  7.4171e+001 59997 80174,80096,80413
 4.0000e-001 80462 -8.8527e+001 -7.2008e+001  8.4339e+001 59997 80174,80413,80226
 4.0000e-001 80840 -1.2478e+002 -1.3612e+002  6.8532e+001 59443 80863,80644,80618
 4.0000e-001 80817 -8.1181e+001 -9.7307e+001  8.5944e+001 59443 80863,80618,80566
 4.0000e-001 80794 -2.0355e+001 -1.0038e+002  7.8422e+001 59443 81007,80935,80670
 4.0000e-001 80771 -8.6038e+001 -1.0010e+002  9.1196e+001 59443 80566,80722,80696
 4.0000e-001 80748 -1.1053e+002 -1.5184e+002  1.0540e+002 59443 80566,80618,80592
 4.0000e-001 80889 -1.2922e+002 -1.0604e+002  9.1610e+001 59443 80935,80644,80863
 4.0000e-001 80912 -1.0103e+002 -1.0653e+002  9.1294e+001 59443 80696,80863,80566
 4.0000e-001 80961 -8.6644e+001 -1.2880e+002  7.5351e+001 59443 80696,80670,80935
 4.0000e-001 80984 -6.5882e+001 -8.8773e+001  1.0274e+002 59443 80696,80935,80863
 4.0000e-001 81033 -8.5929e+001 -7.0008e+001  1.1403e+002 59443 80644,80935,81007
 4.0000e-001 81360 -8.2866e+001 -6.8935e+001  6.1719e+001 59031 81383,81187,81161
 4.0000e-001 81337 -7.6025e+001 -7.1839e+001  5.2471e+001 59031 81455,81383,81161
 4.0000e-001 81314 -5.6931e+001 -7.0767e+001  5.5660e+001 59031 81455,81161,81135
 4.0000e-001 81291 -1.2231e+002 -5.5295e+001  5.2376e+001 59031 81187,81239,81213
 4.0000e-001 81409 -8.5710e+001 -6.6766e+001  5.3353e+001 59031 81239,81187,81383
 4.0000e-001 81432 -1.2575e+002 -7.8433e+001  4.0685e+001 59031 81239,81383,81265
 4.0000e-001 81481 -9.6888e+001 -6.5444e+001  5.8859e+001 59031 81265,81383,81455
 4.0000e-001 81504 -8.5831e+001 -7.0207e+001  5.8593e+001 59031 81265,81455,81135
 4.0000e-001 81835 -3.3681e+001 -5.7508e+001  2.8986e+001 58577 81610,81714,81636
 4.0000e-001 81812 -5.6959e+000 -7.0133e+001  3.0671e+001 58577 81610,81740,81714
 4.0000e-001 81789 -5.8303e+001 -6.8239e+001  2.5906e+000 58577 81636,81714,81688
 4.0000e-001 81766 -5.3045e+001 -7.8714e+001 -4.3187e+001 58577 81636,81688,81662
 4.0000e-001 81985 -4.2487e+001 -1.0060e+002  6.3883e+001 58030 81884,81936,81910
 4.0000e-001 81962 -8.1804e+001 -2.9721e+001  4.5260e+001 58030 81858,81936,81884
 4.0000e-001 82414 -9.9350e+000 -2.6586e+001  5.2224e+001 57690 82437,82169,82117
 4.0000e-001 82391 -3.9534e+001 -3.9312e+001  6.2670e+001 57690 82437,82117,82247
 4.0000e-001 82368  1.3264e+001  2.5883e+001  1.1844e+002 57690 82195,82247,82221
 4.0000e-001 82345 -5.9736e+001 -4.9848e+001  3.9048e+001 57690 82091,82247,82117
 4.0000e-001 82322 -4.1429e+001 -3.8261e+001  3.3410e+001 57690 82117,82169,82143
 4.0000e-001 82299 -4.9965e+001 -1.1290e+002  6.9112e+001 57690 82091,82273,82247
 4.0000e-001 82463 -3.8328e+001 -2.7081e+001  5.8788e+001 57690 82195,82169,82437
 4.0000e-001 82486 -5.4341e+001 -2.8008e+001  6.7340e+001 57690 82195,82437,82247
 4.0000e-001 83041 -7.4218e+001 -8.1681e+001  4.4348e+001 57172 83064,82721,82695
 4.0000e-001 83018 -8.6905e+001 -9.3434e+001  6.8678e+001 57172 83064,82695,82851
 4.0000e-001 82995 -1.9119e+002 -1.1978e+002  8.7340e+001 57172 82669,82851,82695
 4.0000e-001 82972 -1.1830e+002 -8.9309e+001  7.6151e+001 57172 82773,82851,82825
 4.0000e-001 82949 -1.0089e+002 -8.4845e+001  8.3590e+001 57172 82773,82825,82799
 4.0000e-001 82926 -1.0296e+002 -7.8646e+001  4.4355e+001 57172 82721,82773,82747
 4.0000e-001 82903 -2.5112e+002 -1.4122e+002  1.6018e+002 57172 82669,82877,82851
 4.0000e-001 83090 -1.1277e+002 -9.9243e+001  4.8474e+001 57172 82773,82721,83064
 4.0000e-001 83113 -9.8804e+001 -9.9035e+001  7.0935e+001 57172 82773,83064,82851
 4.0000e-001 83747 -9.9710e+001 -8.2153e+001  4.8148e+001 56554 83770,83427,83401
 4.0000e-001 83724 -1.0012e+002 -1.1047e+002  6.1271e+001 56554 83842,83770,83401
 4.0000e-001 83701 -1.5805e+001 -8.7834e+001  3.1322e+001 56554 83842,83401,83583
 4.0000e-001 83678 -1.6750e+002 -1.4402e+002  1.2608e+002 56554 83914,83531,83505
 4.0000e-001 83655 -9.1056e+001 -1.4911e+002  7.5445e+001 56554 83531,83583,83557
 4.0000e-001 83632 -2.1197e+001 -9.0322e+001  2.9163e+001 56554 83375,83583,83401
 4.0000e-001 83609 -8.8848e+001 -8.3489e+001  5.2028e+001 56554 83427,83479,83453
 4.0000e-001 83796 -9.0978e+001 -8.2454e+001  4.8256e+001 56554 83479,83427,83770
 4.0000e-001 83819 -9.4603e+001 -6.9666e+001  4.9624e+001 56554 83479,83770,83505
 4.0000e-001 83868 -6.5178e+001 -4.5117e+001  7.5870e+001 56554 83505,83770,83842
 4.0000e-001 83891 -1.1414e+002 -9.2037e+001  9.6688e+001 56554 83914,83505,83842
 4.0000e-001 83940 -8.5767e+001 -1.4941e+002  7.6468e+001 56554 83583,83531,83914
 4.0000e-001 83963 -4.7546e+001 -1.3934e+002  6.1793e+001 56554 83583,83914,83842
 4.0000e-001 84341 -5.8473e+001 -1.9564e+002  9.3759e+001 56192 84067,84145,84119
 4.0000e-001 84318  3.7235e+001 -7.9053e+001  5.2216e+001 56192 84067,84223,84145
 4.0000e-001 84295 -8.1998e+000 -1.8541e+002  4.7791e+001 56192 84145,84223,84197
 4.0000e-001 84272 -6.8880e+001 -4.2344e+001  2.6699e+001 56192 84067,84119,84093
 4.0000e-001 84249 -8.9621e+001 -5.7639e+001  5.0451e+001 56192 84145,84197,84171
 4.0000e-001 84611 -5.5064e+001 -1.3324e+002  1.1475e+002 55538 84386,84490,84412
 4.0000e-001 84588 -5.3022e+001 -9.0770e+001  1.0536e+002 55538 84386,84516,84490
 4.0000e-001 84565 -8.6666e+001 -1.4626e+002  1.1753e+002 55538 84412,84490,84464
 4.0000e-001 84542 -4.5493e+001 -1.0937e+002  9.5641e+001 55538 84412,84464,84438
 4.0000e-001 84942 -7.3366e+001 -7.4232e+001  6.0344e+001 55084 84769,84847,84795
 4.0000e-001 84919 -8.8661e+001 -9.0433e+001  5.0298e+001 55084 84717,84847,84769
 4.0000e-001 84896 -1.0740e+002 -1.3594e+002  4.7993e+001 55084 84717,84769,84743
 4.0000e-001 84873 -9.8503e+001 -3.8694e+001  4.1582e+001 55084 84795,84847,84821
 4.0000e-001 85271 -4.6747e+001 -4.8183e+001  5.5060e+001 54580 85294,85098,85072
 4.0000e-001 85248 -1.1449e+002 -5.5598e+001  6.4305e+001 54580 85294,85072,85176
 4.0000e-001 85225 -1.4546e+002 -4.7104e+001  4.6191e+001 54580 85124,85176,85150
 4.0000e-001 85202 -4.2047e+001 -5.0004e+001  2.9397e+001 54580 85046,85176,85072
 4.0000e-001 85320 -1.0104e+002 -6.0685e+001  5.5116e+001 54580 85124,85098,85294
 4.0000e-001 85343 -1.3774e+002 -4.5128e+001  6.3685e+001 54580 85124,85294,85176
 4.0000e-001 85542 -7.0100e+001 -8.0623e+001  9.2074e+001 53976 85565,85444,85418
 4.0000e-001 85519 -9.5009e+001 -5.6071e+001  6.7336e+001 53976 85565,85418,85366
 4.0000e-001 85496 -5.4491e+001 -2.5537e+001  1.5168e+001 53976 85366,85418,85392
 4.0000e-001 85591 -4.6190e+001 -6.6824e+001  8.4036e+001 53976 85470,85444,85565
 4.0000e-001 85614 -5.8173e+001 -2.5045e+001  5.4053e+001 53976 85470,85565,85366
 4.0000e-001 85960 -2.0660e+002 -1.7751e+002  1.6484e+002 53572 85663,85715,85689
 4.0000e-001 85937 -1.5111e+002 -9.9862e+001  1.0223e+002 53572 85983,85715,85663
 4.0000e-001 85914 -9.4084e+001 -7.2714e+001  9.0115e+001 53572 86055,85983,85663
 4.0000e-001 85891 -9.3200e+001 -7.1178e+001  7.9658e+001 53572 86055,85663,85637
 4.0000e-001 85868 -1.5594e+002 -2.3239e+002  1.1314e+002 53572 85637,85793,85767
 4.0000e-001 85845 -1.0188e+002 -2.1215e+001  4.1610e+001 53572 85637,85819,85793
 4.0000e-001 86009 -8.8891e+001 -1.6803e+002  9.4952e+001 53572 85741,85715,85983
 4.0000e-001 86032 -1.5884e+001 -9.4585e+001  6.3314e+001 53572 85741,85983,85767
 4.0000e-001 86081 -9.9276e+001 -1.0019e+002  9.9298e+001 53572 85767,85983,86055
 4.0000e-001 86104 -9.0463e+001 -8.5967e+001  8.8682e+001 53572 85767,86055,85637
 4.0000e-001 86693 -1.8539e+002 -3.6102e+001  9.7487e+001 52946 86474,86526,86500
 4.0000e-001 86670 -4.8729e+001 -2.6410e+001  4.4052e+001 52946 86396,86526,86474
 4.0000e-001 86647 -1.4273e+002 -1.1421e+002  8.0752e+001 52946 86370,86526,86396
 4.0000e-001 86624 -1.6713e+001 -1.1085e+001  1.3647e+001 52946 86422,86474,86448
 4.0000e-001 86601 -6.3855e+001 -2.2543e+001  2.8278e+001 52946 86396,86474,86422
 4.0000e-001 86578 -1.8732e+002 -7.3092e+001  3.1585e+000 52946 86370,86552,86526
 4.0000e-001 87376 -9.1112e+001 -1.1785e+002  3.4838e+001 52420 87007,87085,87033
 4.0000e-001 87353 -1.0527e+002 -1.1998e+002  3.1120e+001 52420 87007,87163,87085
 4.0000e-001 87330 -1.1267e+002 -1.1308e+002  3.6606e+001 52420 87007,87189,87163
 4.0000e-001 87307 -7.5833e+001 -1.0560e+002  4.1494e+001 52420 87033,87085,87059
 4.0000e-001 87284 -1.2911e+002 -1.1923e+002  2.7426e+001 52420 87085,87137,87111
 4.0000e-001 87261 -1.0989e+002 -1.5633e+002  1.6464e+001 52420 87085,87163,87137
 4.0000e-001 87238 -8.5400e+001 -1.0393e+002  7.6450e+001 52420 86955,87189,87007
 4.0000e-001 87215 -6.0973e+001 -8.3259e+001  4.4461e+001 52420 86955,87007,86981
 4.0000e-001 87624 -6.2495e+001 -8.8753e+001  6.5146e+001 51916 87451,87503,87477
 4.0000e-001 87601 -4.4827e+001 -8.8531e+001  7.2839e+001 51916 87425,87503,87451
 4.0000e-001 87578 -2.7649e+001 -6.2100e+001  9.1073e+001 51916 87425,87529,87503
 4.0000e-001 87555  1.9034e+001  4.0529e+001  1.0427e+002 51916 87399,87529,87425
 4.0000e-001 88053 -1.4114e+002 -1.1934e+002  3.9676e+001 51568 87782,87834,87808
 4.0000e-001 88030 -1.3096e+002 -1.2064e+002  4.2417e+001 51568 88076,87782,87886
 4.0000e-001 88007 -1.3033e+002 -1.1879e+002  4.4427e+001 51568 88076,87886,87860
 4.0000e-001 87984 -1.4583e+002 -1.3300e+002  3.6272e+001 51568 87756,87886,87782
 4.0000e-001 87961 -1.0249e+002 -1.0775e+002  6.6736e+001 51568 87756,87912,87886
 4.0000e-001 87938 -1.3668e+002 -1.6027e+002  5.1755e+001 51568 87730,87912,87756
 4.0000e-001 88102 -1.3229e+002 -1.2172e+002  4.1836e+001 51568 87834,87782,88076
 4.0000e-001 88125 -1.3276e+002 -1.2061e+002  4.3600e+001 51568 87834,88076,87860
 4.0000e-001 88324 -8.1468e+001 -1.4923e+002  6.4996e+001 51164 88419,88347,88200
 4.0000e-001 88301 -6.5237e+001 -1.3031e+002  6.6054e+001 51164 88347,88148,88252
 4.0000e-001 88278 -9.0856e+001 -1.5636e+002  5.6417e+001 51164 88419,88200,88174
 4.0000e-001 88373 -5.7793e+001 -1.8105e+002  6.4323e+001 51164 88226,88200,88347
 4.0000e-001 88396 -2.5095e+001 -1.4698e+002  5.0350e+001 51164 88226,88347,88252
 4.0000e-001 88445 -7.0786e+001 -1.4465e+002  6.7906e+001 51164 88148,88347,88419
 4.0000e-001 88468 -7.0690e+001 -1.4317e+002  6.2145e+001 51164 88148,88419,88174
 4.0000e-001 88738 -1.0268e+002 -1.7097e+002  3.5693e+001 50560 88513,88617,88539
 4.0000e-001 88715 -7.7083e+001 -1.8010e+002  2.6311e+001 50560 88513,88643,88617
 4.0000e-001 88692 -8.2528e+001 -1.0314e+002  4.3968e+001 50560 88539,88591,88565
 4.0000e-001 88669 -5.9903e+001 -1.4065e+002  4.9389e+001 50560 88539,88617,88591
 4.0000e-001 88939 -1.0860e+002 -8.2779e+001  4.5150e+001 50106 88962,88789,88763
 4.0000e-001 88916 -8.6328e+001 -9.5770e+001  3.7949e+001 50106 88962,88763,88841
 4.0000e-001 88893 -1.0698e+002 -1.0912e+002  5.6279e+001 50106 88763,88867,88841
 4.0000e-001 88988 -8.3577e+001 -8.0641e+001  4.1476e+001 50106 88815,88789,88962
 4.0000e-001 89011 -9.4496e+001 -9.1122e+001  3.8984e+001 50106 89034,88962,88841
 4.0000e-001 89060 -5.5845e+001 -6.6387e+001  2.0227e+001 50106 88815,88962,89034
 4.0000e-001 89472 -1.1582e+002 -1.5137e+002  7.3578e+001 49666 89273,89351,89325
 4.0000e-001 89449 -1.0637e+002 -1.6149e+002  7.0518e+001 49666 89273,89377,89351
 4.0000e-001 89426 -8.2040e+001 -1.2565e+002  9.3829e+001 49666 89273,89325,89299
 4.0000e-001 89403 -8.2872e+001 -8.1373e+001  7.0218e+001 49666 89247,89377,89273
 4.0000e-001 89978 -5.3700e+001 -1.3927e+002  6.9701e+001 49205 89681,89837,89733
 4.0000e-001 89955 -7.3255e+001 -1.2872e+002  8.0344e+001 49205 89655,89837,89681
 4.0000e-001 89932 -1.4226e+002 -2.7965e+002  9.1874e+001 49205 89785,89837,89811
 4.0000e-001 89909 -5.3987e+001 -7.5019e+001  4.7279e+001 49205 89733,89837,89785
 4.0000e-001 89886 -1.1738e+002 -9.5024e+001  6.8607e+001 49205 89733,89785,89759
 4.0000e-001 89863 -9.0333e+001 -2.7209e+002  1.2996e+002 49205 89681,89733,89707
 4.0000e-001 90177 -8.5488e+001 -7.9072e+001  3.7511e+001 48865 90530,90200,90053
 4.0000e-001 90154 -1.2037e+002 -1.7841e+002  9.6483e+001 48865 90402,90200,90001
 4.0000e-001 90131 -1.3734e+002  1.3353e+001  3.2870e+001 48865 90530,90053,90027
 4.0000e-001 90226 -9.8009e+001 -8.5909e+001  5.4502e+001 48865 90079,90053,90200
 4.0000e-001 90249 -1.2570e+002 -1.2921e+002  5.1045e+001 48865 90272,90200,90105
 4.0000e-001 90298 -7.7365e+001 -8.8028e+001  6.9084e+001 48865 90079,90200,90272
 4.0000e-001 90428 -9.0584e+001 -5.1757e+001  7.4345e+001 48865 90105,90200,90402
 4.0000e-001 90556 -1.1042e+002 -2.1232e+002  2.7393e+001 48865 90001,90200,90530
 4.0000e-001 90579 -1.4120e+002 -8.3302e+001 -5.6998e+000 48865 90001,90530,90027
 4.0000e-001 90827 -1.1167e+002 -1.2596e+002  5.6908e+001 48404 90850,90654,90628
 4.0000e-001 90804 -1.1301e+002 -1.3522e+002  9.1172e+001 48404 90850,90628,90732
 4.0000e-001 90781 -7.5203e+001 -1.0137e+002  5.6426e+001 48404 90680,90732,90706
 4.0000e-001 90758 -1.2422e+002 -6.3951e+001  9.8288e+001 48404 90602,90732,90628
 4.0000e-001 90876 -1.0437e+002 -7.6729e+001  4.9745e+001 48404 90680,90654,90850
 4.0000e-001 90899 -1.0983e+002 -1.1183e+002  7.8086e+001 48404 90680,90850,90732
 4.0000e-001 91000 -6.6882e+001 -1.6113e+002  1.1844e+002 48156 90922,90974,90948
 4.0000e-001 91250 -8.7289e+001 -2.1062e+002  1.3833e+002 47752 91051,91103,91077
 4.0000e-001 91227 -7.3530e+001 -3.5455e+001  8.5883e+001 47752 91025,91103,91051
 4.0000e-001 91204 -2.5256e+002 -1.6216e+002  1.9066e+002 47752 91025,91155,91103
 4.0000e-001 91181 -2.5601e+002 -1.1434e+002  1.6025e+002 47752 91103,91155,91129
 4.0000e-001 91402 -1.3269e+002 -1.0794e+002  3.2997e+001 47191 91425,91301,91275
 4.0000e-001 91379 -1.0031e+002 -9.3449e+001  4.3835e+001 47191 91497,91425,91275
 4.0000e-001 91451 -1.2010e+002 -9.4921e+001  4.4547e+001 47191 91327,91301,91425
 4.0000e-001 91474 -8.4194e+001 -1.1030e+002  6.7576e+001 47191 91327,91425,91353
 4.0000e-001 91523 -1.2283e+002 -1.6055e+002  5.0715e+001 47191 91353,91425,91497
 4.0000e-001 91854 -9.9876e+001 -1.1050e+002  9.3446e+001 46744 91949,91877,91707
 4.0000e-001 91831 -2.3974e+001 -9.5829e+001  4.1894e+001 46744 91877,91655,91629
 4.0000e-001 91808 -1.0166e+002 -1.0839e+002  9.2097e+001 46744 91949,91707,91681
 4.0000e-001 91785 -3.7572e+001 -7.0361e+001 -1.9171e+001 46744 91629,91759,91733
 4.0000e-001 91903 -1.2733e+002 -1.2173e+002  1.0433e+002 46744 91733,91707,91877
 4.0000e-001 91926 -8.6349e+001 -1.7113e+002  7.0389e+001 46744 91733,91877,91629
 4.0000e-001 91975 -1.0131e+002 -1.1740e+002  9.3837e+001 46744 91655,91877,91949
 4.0000e-001 91998 -1.0119e+002 -1.1343e+002  9.1620e+001 46744 91655,91949,91681
 4.0000e-001 92378 -5.5917e+001 -4.8608e+001  4.6020e+001 46090 92130,92208,92182
 4.0000e-001 92355 -8.3738e+001 -5.9359e+001  5.0594e+001 46090 92104,92208,92130
 4.0000e-001 92332 -4.9305e+001 -8.5139e+001  5.1319e+001 46090 92104,92260,92208
 4.0000e-001 92309 -3.7410e+001 -7.6564e+001  6.0354e+001 46090 92208,92260,92234
 4.0000e-001 92286 -1.2983e+002 -1.0437e+002  7.0316e+001 46090 92130,92182,92156
 4.0000e-001 92626 -9.3226e+001 -1.2292e+002  3.9060e+001 45693 92721,92649,92505
 4.0000e-001 92603 -1.0448e+002 -1.2038e+002  7.0059e+001 45693 92649,92453,92427
 4.0000e-001 92580 -9.8321e+001 -1.0828e+002  3.7295e+001 45693 92721,92505,92479
 4.0000e-001 92557 -1.7583e+002 -1.3764e+002  7.6828e+001 45693 92401,92531,92427
 4.0000e-001 92675 -1.3252e+002 -1.2662e+002  4.2700e+001 45693 92531,92505,92649
 4.0000e-001 92698 -1.4234e+002 -1.3351e+002  8.4638e+001 45693 92531,92649,92427
 4.0000e-001 92747 -9.7506e+001 -1.0528e+002  3.8717e+001 45693 92453,92649,92721
 4.0000e-001 92770 -7.9927e+001 -5.7972e+001  4.4793e+001 45693 92453,92721,92479
 4.0000e-001 93172 -5.0515e+001 -8.9864e+001  7.6349e+001 45331 92898,93028,92924
 4.0000e-001 93149 -3.8281e+001 -9.0555e+001  5.8493e+001 45331 92898,93054,93028
 4.0000e-001 93126 -7.9825e+001 -7.3667e+001  8.7255e+001 45331 92924,93002,92976
 4.0000e-001 93103 -3.4880e+001 -8.3468e+001  7.5903e+001 45331 92924,93028,93002
 4.0000e-001 93080 -7.1579e+001 -1.0371e+002  1.0243e+002 45331 92924,92976,92950
 4.0000e-001 93518 -5.8671e+001 -2.2917e+002  7.0636e+001 44820 93613,93273,93247
 4.0000e-001 93495 -1.7076e+002 -1.9737e+002  1.0598e+002 44820 93685,93541,93247
 4.0000e-001 93472 -1.5564e+002 -1.3354e+002  8.2962e+001 44820 93541,93195,93377
 4.0000e-001 93449 -1.9452e+002 -1.6934e+002  7.6296e+001 44820 93685,93247,93221
 4.0000e-001 93426 -1.4724e+002 -1.4143e+002  8.5453e+001 44820 93299,93377,93351
 4.0000e-001 93403 -9.5406e+001 -1.0341e+002  1.0437e+002 44820 93299,93351,93325
 4.0000e-001 93567 -1.3913e+002 -2.5370e+002  8.9935e+001 44820 93613,93247,93541
 4.0000e-001 93590 -1.6260e+002 -1.8245e+002  6.5350e+001 44820 93299,93541,93377
 4.0000e-001 93639 -1.4234e+002 -2.3515e+002  7.9853e+001 44820 93299,93273,93613
 4.0000e-001 93662 -1.3853e+002 -2.3454e+002  8.1953e+001 44820 93299,93613,93541
 4.0000e-001 93711 -1.4424e+002 -1.4153e+002  7.0275e+001 44820 93195,93541,93685
 4.0000e-001 93734 -1.2453e+002 -4.6947e+001  3.5981e+001 44820 93195,93685,93221
 4.0000e-001 94163 -1.4089e+002 -1.6121e+002  5.6517e+001 44237 94258,94186,93996
 4.0000e-001 94140 -1.6496e+002 -1.7942e+002  3.7657e+001 44237 94330,94022,93996
 4.0000e-001 94117 -1.7101e+002 -1.7840e+002  4.1125e+001 44237 94186,93918,93866
 4.0000e-001 94094 -1.2049e+002 -1.2481e+002  6.6815e+001 44237 94258,93996,93970
 4.0000e-001 94071 -1.5333e+002 -1.0139e+002  5.4389e+001 44237 94402,93944,93918
 4.0000e-001 94048 -1.4730e+002 -2.0221e+002  7.4155e+001 44237 93866,93918,93892
 4.0000e-001 94212 -1.6590e+002 -1.8071e+002  4.7873e+001 44237 94330,93996,94186
 4.0000e-001 94235 -1.6879e+002 -1.5563e+002  5.3962e+001 44237 93840,94186,93866
 4.0000e-001 94284 -1.4837e+002 -1.2933e+002  3.5362e+001 44237 93918,94186,94258
 4.0000e-001 94307 -1.3903e+002 -1.0784e+002  4.0987e+001 44237 94402,93918,94258
 4.0000e-001 94356 -1.6946e+002 -9.2971e+001  4.1213e+000 44237 93840,94022,94330
 4.0000e-001 94379 -1.5862e+002 -1.6112e+002  5.0739e+001 44237 93840,94330,94186
 4.0000e-001 94428 -1.8289e+002 -1.2611e+002  6.5663e+001 44237 93970,93944,94402
 4.0000e-001 94451 -1.5985e+002 -1.2828e+002  5.1078e+001 44237 93970,94402,94258
 4.0000e-001 94908 -4.6712e+001 -1.0159e+002  3.5652e+001 43890 94660,94790,94712
 4.0000e-001 94885 -4.6000e+001 -3.6872e+001  4.9679e+001 43890 94634,94790,94660
 4.0000e-001 94862 -7.3552e+001 -4.9457e+001  6.0911e+001 43890 94712,94764,94738
 4.0000e-001 94839 -4.8059e+001 -1.1575e+002  6.3292e+001 43890 94712,94790,94764
 4.0000e-001 94816 -4.9562e+001 -1.6370e+002  1.0381e+002 43890 94660,94712,94686
 4.0000e-001 95414 -1.1947e+002 -1.0784e+002  4.2577e+001 43186 95437,95143,95117
 4.0000e-001 95391 -1.1866e+002 -1.4561e+002  5.7459e+001 43186 95437,95117,95091
 4.0000e-001 95368 -7.2411e+001 -6.9575e+001  3.1484e+001 43186 95143,95221,95195
 4.0000e-001 95345 -1.7724e+002 -1.4153e+002  9.8374e+001 43186 95091,95273,95221
 4.0000e-001 95322 -1.2801e+002 -1.0283e+002  4.9016e+001 43186 95221,95273,95247
 4.0000e-001 95299 -1.0251e+002 -1.9411e+002  4.8198e+001 43186 95143,95195,95169
 4.0000e-001 95463 -1.2957e+002 -1.3363e+002  5.9727e+001 43186 95221,95143,95437
 4.0000e-001 95486 -1.2425e+002 -1.6369e+002  7.4913e+001 43186 95221,95437,95091
 4.0000e-001 96041 -1.4276e+002 -1.6573e+002  3.2220e+001 42782 95695,95851,95799
 4.0000e-001 96018 -1.2747e+002 -1.6510e+002  3.7528e+001 42782 95669,95851,95695
 4.0000e-001 95995 -1.6473e+002 -1.2963e+002  4.3974e+001 42782 95695,95747,95721
 4.0000e-001 95972 -1.2484e+002 -1.5803e+002  3.8300e+001 42782 95695,95799,95747
 4.0000e-001 95949 -1.1638e+002 -1.3503e+002  3.6491e+001 42782 95747,95799,95773
 4.0000e-001 95926 -2.0317e+002 -1.8172e+002  8.1008e+001 42782 95799,95851,95825
 4.0000e-001 95903 -1.6145e+002 -1.7737e+002  3.4166e+001 42782 95669,95877,95851
 4.0000e-001 96370 -1.7015e+002 -2.1079e+002  9.1323e+001 42420 96197,96275,96223
 4.0000e-001 96347 -1.5585e+002 -1.6778e+002  8.8691e+001 42420 96145,96275,96197
 4.0000e-001 96324 -1.5889e+002 -1.2632e+002  8.6678e+001 42420 96145,96197,96171
 4.0000e-001 96301 -1.2767e+002 -1.5023e+002  6.8925e+001 42420 96223,96275,96249
 4.0000e-001 96699 -9.8450e+001 -1.2359e+002  5.3162e+001 41816 96474,96578,96526
 4.0000e-001 96676 -5.4302e+001 -5.7156e+001 -2.0917e+000 41816 96474,96604,96578
 4.0000e-001 96653 -7.2630e+001 -6.3927e+001  7.6745e+001 41816 96526,96578,96552
 4.0000e-001 96630 -6.9615e+001 -1.0044e+002  2.0217e+001 41816 96474,96526,96500
 4.0000e-001 96947 -7.3276e+001 -1.7294e+002  7.4142e+001 41212 96722,96800,96748
 4.0000e-001 96924 -1.1819e+002 -1.3703e+002  9.4520e+001 41212 96722,96826,96800
 4.0000e-001 96901 -1.0451e+002 -8.7655e+001  4.2206e+001 41212 96722,96852,96826
 4.0000e-001 96878 -1.3787e+002 -2.0640e+002  5.1194e+001 41212 96748,96800,96774
 4.0000e-001 97097 -7.0929e+001 -9.5038e+001  7.3046e+001 40793 97120,97022,96996
 4.0000e-001 97074 -1.1460e+002 -1.8268e+002  5.6074e+001 40793 97192,97120,96996
 4.0000e-001 97146 -6.3631e+001 -1.5033e+002  7.1766e+001 40793 97324,97120,97048
 4.0000e-001 97169 -4.4076e+001 -2.0384e+002  7.7126e+001 40793 97048,97120,96970
 4.0000e-001 97218  8.4370e+000 -1.2994e+002  5.3648e+001 40793 96970,97120,97192
 4.0000e-001 97350 -6.3631e+001 -1.5033e+002  7.1766e+001 40793 97022,97120,97324
 4.0000e-001 97878 -9.7127e+001 -1.9486e+002  4.4018e+001 40446 97901,97607,97555
 4.0000e-001 97855 -1.0684e+002 -1.3783e+002  4.8455e+001 40446 97973,97901,97555
 4.0000e-001 97832 -1.0776e+002 -1.2137e+002  3.3758e+001 40446 97973,97555,97737
 4.0000e-001 97809 -1.1334e+002 -1.5829e+002  3.8045e+001 40446 97633,97685,97659
 4.0000e-001 97786 -8.9030e+001 -1.5521e+002  3.9850e+001 40446 97633,97711,97685
 4.0000e-001 97763 -9.4929e+001 -2.1623e+002  5.2606e+001 40446 97555,97607,97581
 4.0000e-001 97927 -1.2230e+002 -2.4678e+002 -2.2431e-001 40446 97633,97607,97901
 4.0000e-001 97950 -1.0520e+002 -1.8213e+002  3.0506e+001 40446 97633,97901,97711
 4.0000e-001 97999 -1.0124e+002 -1.8586e+002  5.1038e+001 40446 97711,97901,97973
 4.0000e-001 98022 -9.4789e+001 -1.5346e+002  4.0804e+001 40446 97711,97973,97737
 4.0000e-001 98449 -8.2372e+001 -5.0626e+001  5.0413e+001 39935 98152,98204,98178
 4.0000e-001 98426 -1.2377e+002 -7.5101e+001  3.0275e+001 39935 98152,98230,98204
 4.0000e-001 98403 -1.5803e+002 -7.5609e+001  5.9968e+001 39935 98152,98256,98230
 4.0000e-001 98380 -1.0721e+002 -1.0950e+002  7.4385e+001 39935 98126,98256,98152
 4.0000e-001 98357 -1.4336e+002 -1.8695e+002  8.5000e+001 39935 98126,98282,98256
 4.0000e-001 98334 -1.1317e+002 -2.8470e+002  1.2465e+002 39935 98126,98308,98282
 4.0000e-001 98746 -2.5715e+002 -1.6731e+002  4.8685e+001 39531 98498,98602,98524
 4.0000e-001 98723 -2.0274e+002 -1.5046e+002  5.2353e+001 39531 98472,98602,98498
 4.0000e-001 98700 -2.3484e+002 -1.1599e+002  5.4067e+001 39531 98524,98602,98576
 4.0000e-001 98677 -1.6443e+002 -1.7105e+002  6.9062e+001 39531 98472,98628,98602
 4.0000e-001 98654 -3.2578e+002 -1.1721e+002  6.3507e+001 39531 98524,98576,98550
 4.0000e-001 99224 -1.8297e+002 -8.0048e+001  1.6153e+002 39027 99247,98956,98930
 4.0000e-001 99201 -1.9917e+002 -1.7286e+002  8.8635e+001 39027 99247,98930,98878
 4.0000e-001 99178 -1.5681e+002 -1.7444e+002  1.2715e+002 39027 99319,98982,98956
 4.0000e-001 99155 -1.0910e+002 -1.0650e+002  1.0867e+002 39027 98852,99060,98878
 4.0000e-001 99132 -1.4044e+002 -1.0093e+002  5.4442e+001 39027 98878,98930,98904
 4.0000e-001 99109 -2.2830e+002 -3.4061e+002  1.9320e+002 39027 98982,99060,99034
 4.0000e-001 99086 -2.6605e+002 -3.7601e+002  2.6111e+002 39027 98982,99034,99008
 4.0000e-001 99273 -1.5016e+002 -1.5780e+002  1.2675e+002 39027 99319,98956,99247
 4.0000e-001 99296 -1.5120e+002 -1.5198e+002  9.1167e+001 39027 99060,99247,98878
 4.0000e-001 99345 -1.5064e+002 -1.8202e+002  1.1731e+002 39027 99060,98982,99319
 4.0000e-001 99368 -1.4859e+002 -1.7746e+002  1.1685e+002 39027 99060,99319,99247
 4.0000e-001 99923 -2.0510e+002 -1.4867e+002  6.6972e+001 38523 99946,99655,99603
 4.0000e-001 99900 -1.6964e+002 -1.3202e+002  7.1574e+001 38523 99946,99603,99759
 4.0000e-001 99877 -1.1181e+002 -1.8515e+002  9.0763e+001 38523 100018,99707,99681
 4.0000e-001 99854 -1.7070e+002 -9.0363e+001  6.9492e+001 38523 99551,99759,99603
 4.0000e-001 99831 -1.5223e+002 -7.7289e+001  5.4741e+001 38523 99551,99603,99577
 4.0000e-001 99808 -1.7055e+002 -2.4856e+002  7.3480e+001 38523 99707,99759,99733
 4.0000e-001 99785 -1.8047e+002 -1.2060e+002  5.5882e+001 38523 99603,99655,99629
 4.0000e-001 99972 -1.7422e+002 -8.6790e+001  8.3932e+001 38523 99681,99655,99946
 4.0000e-001 99995 -1.3444e+002 -1.0714e+002  1.0649e+002 38523 100018,99681,99946
 4.0000e-001 100044 -1.4481e+002 -2.1914e+002  5.8759e+001 38523 99759,99707,100018
 4.0000e-001 100067 -1.9265e+002 -1.8583e+002  7.3900e+001 38523 99759,100018,99946
 4.0000e-001 100467 -6.2258e+001 -1.2193e+002  5.8232e+001 38125 100219,100349,100323
 4.0000e-001 100444  1.0218e-001 -2.0983e+000  8.1727e+001 38125 100193,100349,100219
 4.0000e-001 100421 -4.2823e+001 -1.8607e+002  6.9142e+001 38125 100245,100323,100297
 4.0000e-001 100398 -4.7672e+001 -1.1317e+002  7.3496e+001 38125 100219,100323,100245
 4.0000e-001 100375 -1.0931e+002 -1.8892e+002  1.2194e+002 38125 100245,100297,100271
 4.0000e-001 100666 -2.0764e+002 -1.6308e+002  5.8433e+001 37607 100689,100568,100542
 4.0000e-001 100643 -2.0402e+002 -1.3931e+002  4.7527e+001 37607 100689,100542,100490
 4.0000e-001 100620 -2.0707e+002 -1.3470e+002  4.9006e+001 37607 100490,100542,100516
 4.0000e-001 100715 -1.8479e+002 -1.4288e+002  4.9518e+001 37607 100594,100568,100689
 4.0000e-001 100738 -2.0041e+002 -1.3679e+002  4.6429e+001 37607 100594,100689,100490
 4.0000e-001 100937 -1.6416e+002 -7.5772e+001  1.2424e+002 37017 100960,100813,100787
 4.0000e-001 100914 -1.7218e+002 -8.8149e+001  1.0273e+002 37017 100960,100787,100761
 4.0000e-001 100891 -1.6916e+002 -5.6205e+001  1.0442e+002 37017 100813,100865,100839
 4.0000e-001 100986 -1.6170e+002 -1.0134e+002  1.1157e+002 37017 100865,100813,100960
 4.0000e-001 101009 -1.7895e+002 -1.1348e+002  8.7760e+001 37017 100865,100960,100761
 4.0000e-001 101519 -1.8988e+002 -1.9647e+002  9.9386e+001 36613 101222,101274,101248
 4.0000e-001 101496 -1.1010e+002 -1.3006e+002  6.4651e+001 36613 101222,101352,101274
 4.0000e-001 101473 -1.3634e+002 -2.0131e+002  6.6571e+001 36613 101274,101352,101326
 4.0000e-001 101450 -1.1947e+002 -9.4695e+001  7.9892e+001 36613 101222,101378,101352
 4.0000e-001 101427 -5.2961e+001 -2.6839e+002  1.1434e+002 36613 101274,101326,101300
 4.0000e-001 101404 -1.0549e+002 -2.5493e+001  2.4700e+001 36613 101196,101378,101222
 4.0000e-001 101718 -1.8997e+002 -8.7655e+001  8.2003e+001 36308 101594,101646,101620
 4.0000e-001 101695 -1.9055e+002 -8.6377e+001  7.9108e+001 36308 101568,101646,101594
 4.0000e-001 101672 -2.1636e+002 -9.2100e+001  7.1625e+001 36308 101542,101646,101568
 4.0000e-001 102098 -1.8499e+002 -1.0578e+002  5.8030e+001 35918 102121,101954,101876
 4.0000e-001 102075 -1.3677e+002 -1.3999e+002  4.4879e+001 35918 102121,101876,101824
 4.0000e-001 102052 -1.8806e+002 -1.0700e+002  5.8707e+001 35918 101876,101954,101928
 4.0000e-001 102029 -2.6797e+002 -4.8454e+000  6.1467e+001 35918 101876,101928,101902
 4.0000e-001 102006 -1.1667e+002 -9.1846e+001  4.1154e+001 35918 101824,101876,101850
 4.0000e-001 102147 -2.1586e+002 -1.3739e+002  7.3033e+001 35918 101980,101954,102121
 4.0000e-001 102170 -1.6319e+002 -1.7117e+002  5.7597e+001 35918 101980,102121,101824
 4.0000e-001 102489 -1.1591e+002 -2.5781e+002  9.7219e+001 35514 102241,102345,102267
 4.0000e-001 102466 -1.4110e+002 -2.5137e+002  8.3760e+001 35514 102215,102345,102241
 4.0000e-001 102443 -1.1679e+002 -2.7547e+002  9.0302e+001 35514 102215,102371,102345
 4.0000e-001 102420 -1.1427e+002 -2.6888e+002  9.5903e+001 35514 102267,102345,102293
 4.0000e-001 102397 -8.0483e+001 -1.9145e+002  1.0038e+002 35514 102293,102345,102319
 4.0000e-001 102820 -1.8082e+002 -1.5575e+002  3.5484e+001 35224 102843,102699,102647
 4.0000e-001 102797 -2.3532e+002 -1.4470e+002  7.2577e+001 35224 102971,102725,102699
 4.0000e-001 102774 -1.4940e+002 -1.5812e+002  7.5578e+001 35224 102595,102725,102621
 4.0000e-001 102751 -7.5670e+001 -6.3179e+001  7.5167e+001 35224 102647,102699,102673
 4.0000e-001 102869 -1.6830e+002 -1.4627e+002  7.1248e+001 35224 102971,102699,102843
 4.0000e-001 102997 -1.6126e+002 -1.6086e+002  7.9365e+001 35224 102621,102725,102971
 4.0000e-001 103020 -7.8832e+001 -1.4839e+002  8.7444e+001 35224 102621,102971,102843
 4.0000e-001 103349 -1.7147e+002 -1.3514e+002  8.8604e+001 34820 103150,103228,103176
 4.0000e-001 103326 -1.7942e+002 -1.4947e+002  8.3575e+001 34820 103124,103228,103150
 4.0000e-001 103303 -1.4360e+002 -1.2231e+002  1.2822e+002 34820 103176,103228,103202
 4.0000e-001 103280 -1.1637e+002 -1.1873e+002  1.0843e+002 34820 103124,103254,103228
 4.0000e-001 103806 -2.2431e+002 -1.3390e+002  7.5448e+001 34530 103558,103662,103636
 4.0000e-001 103783 -1.8695e+002 -1.3557e+002  5.7133e+001 34530 103558,103688,103662
 4.0000e-001 103760 -2.0081e+002 -1.5994e+002  5.0419e+001 34530 103532,103688,103558
 4.0000e-001 103737 -2.2215e+002 -1.4741e+002  9.0848e+001 34530 103584,103636,103610
 4.0000e-001 103714 -3.2759e+002 -1.6575e+002  8.4675e+001 34530 103558,103636,103584
 4.0000e-001 104263 -8.8513e+001 -8.6270e+001  5.9599e+001 34019 103989,104119,104015
 4.0000e-001 104240 -7.8123e+001 -7.9672e+001  6.5568e+001 34019 103989,104145,104119
 4.0000e-001 104217 -7.7627e+001 -1.1371e+002  3.8187e+001 34019 104015,104067,104041
 4.0000e-001 104194 -1.0337e+002 -1.2557e+002  5.0213e+001 34019 104015,104119,104067
 4.0000e-001 104171 -1.1792e+002 -7.5903e+001  4.9114e+001 34019 104067,104119,104093
 4.0000e-001 104641 -1.7929e+002 -6.7087e+001  6.6617e+001 33351 104419,104497,104445
 4.0000e-001 104618 -2.0396e+002 -9.1628e+001  5.4147e+001 33351 104393,104497,104419
 4.0000e-001 104595 -2.4992e+002 -1.1289e+002  4.7402e+001 33351 104367,104497,104393
 4.0000e-001 104572 -1.6025e+002 -2.9155e+001  1.9500e+001 33351 104445,104497,104471
 4.0000e-001 104549 -2.3792e+002 -9.8779e+001  4.1585e+001 33351 104367,104523,104497
 4.0000e-001 105019 -1.3825e+002 -2.2894e+002  1.0976e+002 32861 104823,104901,104875
 4.0000e-001 104996 -1.6828e+002 -2.2318e+002  9.2944e+001 32861 104745,104901,104823
 4.0000e-001 104973 -2.1921e+002 -2.6257e+002  1.1486e+002 32861 104823,104875,104849
 4.0000e-001 104950 -1.6621e+002 -2.1050e+002  1.0726e+002 32861 104745,104823,104797
 4.0000e-001 104927 -1.6630e+002 -8.1032e+001  1.1235e+002 32861 104745,104797,104771
 4.0000e-001 105397 -1.0674e+002 -1.4384e+002  7.1020e+001 32457 105149,105253,105175
 4.0000e-001 105374 -1.7248e+002 -1.4128e+002  6.5831e+001 32457 105149,105279,105253
 4.0000e-001 105351 -1.0746e+002 -1.1893e+002  7.3430e+001 32457 105123,105279,105149
 4.0000e-001 105328 -2.6532e+002 -4.8826e+001  1.8989e+002 32457 105175,105227,105201
 4.0000e-001 105305 -2.2328e+002 -1.8919e+002  1.0102e+002 32457 105175,105253,105227
 4.0000e-001 105726 -7.6438e+001 -1.6392e+002  7.9972e+001 32003 105527,105605,105553
 4.0000e-001 105703 -1.2386e+002 -1.3117e+002  7.1787e+001 32003 105501,105605,105527
 4.0000e-001 105680 -8.4945e+001 -1.1134e+002  6.3813e+001 32003 105501,105631,105605
 4.0000e-001 105657 -3.6462e+001 -8.7992e+001  6.5178e+001 32003 105553,105605,105579
 4.0000e-001 106104 -1.6740e+002 -1.0639e+002  9.0107e+001 31492 106127,105908,105856
 4.0000e-001 106081 -1.9368e+002 -1.1625e+002  7.0339e+001 31492 106127,105856,105830
 4.0000e-001 106058 -1.6575e+002 -1.6844e+002  1.0659e+002 31492 105856,105908,105882
 4.0000e-001 106035 -1.3665e+002 -1.3303e+002  4.8087e+001 31492 105830,105986,105960
 4.0000e-001 106012 -9.9585e+001 -1.2588e+002  9.8857e+001 31492 105908,105960,105934
 4.0000e-001 106153 -1.6036e+002 -1.3129e+002  6.9109e+001 31492 105960,105908,106127
 4.0000e-001 106176 -1.7751e+002 -1.4787e+002  5.1586e+001 31492 105960,106127,105830
 4.0000e-001 106375 -1.6801e+002 -1.0083e+002  1.0247e+002 30788 106398,106277,106251
 4.0000e-001 106352 -1.8741e+002 -1.4490e+002  9.7042e+001 30788 106398,106251,106225
 4.0000e-001 106329 -2.2991e+002 -1.6508e+002  1.0242e+002 30788 106600,106199,106303
 4.0000e-001 106424 -2.2565e+002 -1.8810e+002  7.2362e+001 30788 106470,106398,106303
 4.0000e-001 106447 -1.8759e+002 -1.6187e+002  9.3983e+001 30788 106600,106303,106398
 4.0000e-001 106496 -6.4285e+001 -1.1857e+002  8.3496e+001 30788 106277,106398,106470
 4.0000e-001 106626 -2.4603e+002 -1.6614e+002  1.2695e+002 30788 106225,106199,106600
 4.0000e-001 106649 -2.2532e+002 -1.7207e+002  1.1535e+002 30788 106225,106600,106398
 4.0000e-001 106799 -7.8641e+001 -1.8260e+002  4.0405e+001 30426 106698,106750,106724
 4.0000e-001 106776 -4.8469e+001 -1.1417e+002  5.5076e+001 30426 106672,106750,106698
 4.0000e-001 107356 -2.0534e+002 -1.1919e+002  5.7293e+001 29972 107010,107166,107114
 4.0000e-001 107333 -1.8168e+002 -9.2838e+001  7.7683e+001 29972 106984,107166,107010
 4.0000e-001 107310 -2.0347e+002 -6.5323e+001  3.1725e+001 29972 107010,107114,107088
 4.0000e-001 107287 -1.7341e+002 -1.7377e+001  4.9352e+001 29972 107114,107166,107140
 4.0000e-001 107264 -1.8434e+002 -1.2667e+002  9.8946e+001 29972 106984,107192,107166
 4.0000e-001 107241 -1.9880e+002 -1.1496e+002  1.6797e+001 29972 107010,107088,107036
 4.0000e-001 107218 -1.8806e+002 -1.1197e+002  3.8691e+001 29972 107036,107088,107062
 4.0000e-001 107783 -1.4433e+002 -1.7454e+002  9.1478e+001 29724 107878,107806,107590
 4.0000e-001 107760 -2.3361e+002 -2.0607e+002  8.5587e+001 29724 107806,107512,107486
 4.0000e-001 107737 -1.4011e+002 -1.7102e+002  9.3542e+001 29724 107878,107590,107538
 4.0000e-001 107714 -1.6293e+002 -2.1634e+002  1.1652e+002 29724 107950,107460,107616
 4.0000e-001 107691 -1.7231e+002 -2.1802e+002  1.0527e+002 29724 107460,107642,107616
 4.0000e-001 107668 -1.0106e+002 -1.0269e+002  1.1615e+002 29724 107538,107590,107564
 4.0000e-001 107832 -1.1646e+002 -1.8675e+002  1.2714e+002 29724 107616,107590,107806
 4.0000e-001 107855 -1.6292e+002 -2.1826e+002  1.1195e+002 29724 107950,107616,107806
 4.0000e-001 107904 -1.6369e+002 -1.7059e+002  1.1636e+002 29724 107512,107806,107878
 4.0000e-001 107927 -1.1898e+002 -1.4752e+002  1.2459e+002 29724 107512,107878,107538
 4.0000e-001 107976 -1.1582e+002 -2.2266e+002  1.3208e+002 29724 107486,107460,107950
 4.0000e-001 107999 -1.5760e+002 -2.3453e+002  1.1060e+002 29724 107486,107950,107806
 4.0000e-001 108296 -1.3968e+002 -1.3816e+002  6.3437e+001 29206 108319,108100,108048
 4.0000e-001 108273 -8.3047e+001 -1.3132e+002  9.1154e+001 29206 108319,108048,108022
 4.0000e-001 108250 -5.9911e+001 -1.4400e+002  1.0770e+002 29206 108391,108152,108126
 4.0000e-001 108227 -2.1671e+002 -7.5886e+001  1.0456e+002 29206 108048,108100,108074
 4.0000e-001 108204 -8.1013e+001 -1.8585e+002  9.8620e+001 29206 108022,108178,108152
 4.0000e-001 108345 -1.0157e+002 -7.1919e+001  8.8835e+001 29206 108126,108100,108319
 4.0000e-001 108368 -7.0066e+001 -1.2275e+002  1.1617e+002 29206 108391,108126,108319
 4.0000e-001 108417 -8.2214e+001 -1.6704e+002  9.4341e+001 29206 108022,108152,108391
 4.0000e-001 108440 -9.1373e+001 -1.5227e+002  1.0420e+002 29206 108022,108391,108319
 4.0000e-001 108688 -2.6063e+002 -1.9208e+002  1.1301e+002 28595 108711,108541,108515
 4.0000e-001 108665 -3.3753e+002 -2.0817e+002  1.4269e+002 28595 108783,108711,108515
 4.0000e-001 108642 -3.7494e+002 -1.8962e+002  1.4020e+002 28595 108783,108515,108489
 4.0000e-001 108619 -3.9119e+002 -2.4568e+002  8.1478e+001 28595 108463,108593,108489
 4.0000e-001 108737 -2.4163e+002 -1.6265e+002  6.9460e+001 28595 108567,108541,108711
 4.0000e-001 108760 -2.5112e+002 -1.8156e+002  1.1581e+002 28595 108567,108711,108593
 4.0000e-001 108809 -2.6373e+002 -2.1470e+002  1.1640e+002 28595 108593,108711,108783
 4.0000e-001 108832 -3.2580e+002 -2.1212e+002  1.0276e+002 28595 108593,108783,108489
 4.0000e-001 109033 -1.0432e+002 -1.0865e+002  8.5597e+001 28091 108909,108961,108935
 4.0000e-001 109010 -1.9380e+002 -1.1178e+002  6.0416e+001 28091 108857,108961,108909
 4.0000e-001 108987 -2.3794e+002 -1.5342e+002  1.0231e+002 28091 108857,108909,108883
 4.0000e-001 109136 -1.2298e+002 -2.8802e+002  5.4485e+001 27587 109058,109110,109084
 4.0000e-001 109695 -1.6404e+002 -1.5709e+002  5.0037e+001 26969 109718,109375,109323
 4.0000e-001 109672 -1.7034e+002 -1.4456e+002  6.7665e+001 26969 109718,109323,109505
 4.0000e-001 109649 -2.0568e+002 -5.5282e+001  3.1646e+001 26969 109790,109453,109427
 4.0000e-001 109626 -8.0676e+001 -1.6875e+002  7.1485e+001 26969 109323,109375,109349
 4.0000e-001 109603 -2.1598e+002 -2.0229e+002  1.0219e+002 26969 109323,109531,109505
 4.0000e-001 109580 -1.2742e+002 -1.7463e+002  2.4717e+001 26969 109375,109427,109401
 4.0000e-001 109557 -2.2186e+002 -7.0083e+001  3.1799e+001 26969 109453,109505,109479
 4.0000e-001 109744 -1.8561e+002 -1.8171e+002  2.2854e+001 26969 109427,109375,109718
 4.0000e-001 109767 -1.4823e+002 -1.0074e+002  3.5546e+001 26969 109790,109427,109718
 4.0000e-001 109816 -2.3978e+002 -1.0058e+002  5.2856e+001 26969 109505,109453,109790
 4.0000e-001 109839 -2.0152e+002 -1.5783e+002  6.4003e+001 26969 109505,109790,109718
 4.0000e-001 110266 -1.4815e+002 -2.1742e+002  9.5099e+001 26515 110361,110289,110099
 4.0000e-001 110243 -1.6134e+002 -1.7973e+002  1.3522e+002 26515 110289,109995,109943
 4.0000e-001 110220 -1.3328e+002 -2.1462e+002  1.1241e+002 26515 110361,110099,110021
 4.0000e-001 110197 -3.0780e+001 -1.8554e+002  5.5817e+001 26515 110047,110099,110073
 4.0000e-001 110174 -6.7806e+001 -2.9418e+002  7.4435e+001 26515 110021,110099,110047
 4.0000e-001 110151  1.6321e+001  2.0745e+001  2.2017e+002 26515 109943,109995,109969
 4.0000e-001 110315 -2.1761e+002 -1.7054e+002  8.0414e+001 26515 110125,110099,110289
 4.0000e-001 110338 -1.5135e+002 -8.2175e+001  1.4200e+002 26515 110125,110289,109943
 4.0000e-001 110387 -1.2860e+002 -1.8097e+002  1.0276e+002 26515 109995,110289,110361
 4.0000e-001 110410 -1.2312e+002 -1.9698e+002  1.1714e+002 26515 109995,110361,110021
 4.0000e-001 110609 -1.0033e+002 -1.7227e+002  7.2184e+001 25789 110906,110762,110632
 4.0000e-001 110586 -9.6158e+001 -2.2163e+002  8.9111e+001 25789 110762,110433,110537
 4.0000e-001 110563 -1.7477e+002 -1.8333e+002  1.1350e+002 25789 110834,110459,110433
 4.0000e-001 110658 -1.2678e+002 -1.6797e+002  8.8323e+001 25789 110906,110632,110834
 4.0000e-001 110788 -7.7046e+001 -9.8399e+001  4.8436e+001 25789 110511,110632,110762
 4.0000e-001 110811 -8.5460e+001 -1.6634e+002  9.1335e+001 25789 110511,110762,110537
 4.0000e-001 110860 -1.1847e+002 -1.6066e+002  1.1579e+002 25789 110485,110459,110834
 4.0000e-001 110883 -1.4533e+002 -1.9367e+002  9.9963e+001 25789 110485,110834,110632
 4.0000e-001 110932 -1.4958e+002 -1.8508e+002  7.6480e+001 25789 110433,110762,110906
 4.0000e-001 110955 -1.6951e+002 -1.7336e+002  8.8656e+001 25789 110433,110906,110834
 4.0000e-001 111350 -2.0442e+002 -1.7711e+002  1.1389e+002 25228 111445,111373,111186
 4.0000e-001 111327 -2.2708e+002 -2.2653e+002  8.4134e+001 25228 110978,111186,111004
 4.0000e-001 111304 -2.2656e+002 -2.0548e+002  8.9126e+001 25228 111373,111108,111082
 4.0000e-001 111281 -1.6224e+002 -2.4700e+002  9.6743e+001 25228 111134,111186,111160
 4.0000e-001 111258 -1.9579e+002 -1.6452e+002  1.2484e+002 25228 111445,111186,111134
 4.0000e-001 111235 -2.0244e+002 -1.7506e+002  7.0183e+001 25228 111517,111030,111004
 4.0000e-001 111212 -2.7404e+002 -2.0176e+002  8.7580e+001 25228 111030,111082,111056
 4.0000e-001 111399 -2.1618e+002 -2.2275e+002  1.0562e+002 25228 111004,111186,111373
 4.0000e-001 111422 -1.8718e+002 -1.8076e+002  9.2220e+001 25228 111517,111004,111373
 4.0000e-001 111471 -2.2566e+002 -1.8143e+002  9.0554e+001 25228 111108,111373,111445
 4.0000e-001 111494 -2.1490e+002 -1.6480e+002  1.0198e+002 25228 111108,111445,111134
 4.0000e-001 111543 -2.3980e+002 -1.9115e+002  6.8937e+001 25228 111082,111030,111517
 4.0000e-001 111566 -2.2220e+002 -1.9576e+002  9.2108e+001 25228 111082,111517,111373
 4.0000e-001 112074 -2.5713e+002 -1.7529e+002  8.1454e+001 24338 112097,111907,111881
 4.0000e-001 112051 -2.6451e+002 -1.7246e+002  6.9267e+001 24338 112097,111881,111829
 4.0000e-001 112028 -1.4712e+002 -1.5924e+002  7.4129e+001 24338 111829,111881,111855
 4.0000e-001 112005 -2.6693e+002 -2.0598e+002  6.0783e+001 24338 111777,111933,111829
 4.0000e-001 111982 -2.9649e+002 -8.1494e+001  6.6787e+001 24338 111751,111933,111777
 4.0000e-001 111959 -2.8862e+002 -2.6479e+002  9.6034e+001 24338 111777,111829,111803
 4.0000e-001 112123 -2.6904e+002 -2.1111e+002  8.3620e+001 24338 111933,111907,112097
 4.0000e-001 112146 -2.6175e+002 -1.8247e+002  7.3234e+001 24338 111933,112097,111829
 4.0000e-001 112443 -2.6821e+002 -1.7456e+002  8.5720e+001 23998 112466,112299,112247
 4.0000e-001 112420 -2.7575e+002 -2.4949e+002  8.0985e+001 23998 112466,112247,112221
 4.0000e-001 112397 -3.3074e+002 -2.5793e+002  9.4439e+001 23998 112169,112325,112221
 4.0000e-001 112374 -2.6395e+002 -1.8617e+002  1.3839e+002 23998 112169,112221,112195
 4.0000e-001 112351 -2.0330e+002 -1.4391e+002  1.0437e+002 23998 112247,112299,112273
 4.0000e-001 112492 -2.6119e+002 -1.7794e+002  1.3132e+002 23998 112325,112299,112466
 4.0000e-001 112515 -2.7460e+002 -2.2388e+002  1.1519e+002 23998 112325,112466,112221
 4.0000e-001 113200 -2.0770e+002 -2.1323e+002  1.2404e+002 23480 112779,112961,112805
 4.0000e-001 113177 -2.0206e+002 -1.7143e+002  7.6283e+001 23480 112779,112987,112961
 4.0000e-001 113154 -1.1215e+002 -1.3161e+002  8.7455e+001 23480 112805,112961,112883
 4.0000e-001 113131 -1.5589e+002 -1.9539e+002  8.3977e+001 23480 112883,112935,112909
 4.0000e-001 113108 -1.8397e+002 -1.6353e+002  8.1641e+001 23480 112883,112961,112935
 4.0000e-001 113085 -1.1830e+002 -1.0732e+002  4.9487e+001 23480 112831,112883,112857
 4.0000e-001 113062 -1.4290e+002 -1.3671e+002  6.0082e+001 23480 112805,112883,112831
 4.0000e-001 113039 -2.6498e+002 -1.1921e+002  8.5984e+001 23480 112779,113013,112987
 4.0000e-001 113676 -1.9438e+002 -1.2025e+002  1.0290e+002 23018 113699,113434,113356
 4.0000e-001 113653 -1.5858e+002 -1.0782e+002  8.6064e+001 23018 113771,113699,113356
 4.0000e-001 113630 -1.4487e+002 -1.4692e+002  7.0907e+001 23018 113771,113356,113512
 4.0000e-001 113607 -1.2658e+002 -1.6534e+002  8.8459e+001 23018 113330,113512,113356
 4.0000e-001 113584 -3.4463e+002 -1.4849e+002  1.5247e+002 23018 113356,113434,113382
 4.0000e-001 113561 -4.7264e+001 -1.5764e+002  8.6122e+001 23018 113304,113512,113330
 4.0000e-001 113538 -3.2482e+002 -5.1831e+001  6.2772e+001 23018 113382,113434,113408
 4.0000e-001 113725 -2.0043e+002 -1.4569e+002  1.2467e+002 23018 113460,113434,113699
 4.0000e-001 113748 -1.4313e+002 -1.2191e+002  1.2077e+002 23018 113460,113699,113486
 4.0000e-001 113797 -1.9281e+002 -1.6356e+002  1.0052e+002 23018 113486,113699,113771
 4.0000e-001 113820 -1.5909e+002 -1.7289e+002  7.6896e+001 23018 113486,113771,113512
 4.0000e-001 114424 -2.4719e+002 -1.9835e+002  4.8217e+001 22514 114447,114133,114029
 4.0000e-001 114401 -2.5170e+002 -2.2181e+002  5.0820e+001 22514 114447,114029,114237
 4.0000e-001 114378 -2.4105e+002 -1.6345e+002  2.6977e+001 22514 114133,114211,114185
 4.0000e-001 114355 -3.2477e+002 -1.7476e+002  7.1596e+000 22514 114133,114185,114159
 4.0000e-001 114332 -2.3352e+002 -2.2913e+002  1.0251e+002 22514 114003,114237,114029
 4.0000e-001 114309 -2.5024e+002 -1.4045e+002  2.5565e+001 22514 114029,114133,114055
 4.0000e-001 114286 -2.1053e+002 -1.5626e+002  1.1949e+001 22514 114055,114133,114107
 4.0000e-001 114263 -1.4916e+002  8.8501e+000  1.1225e+001 22514 114055,114107,114081
 4.0000e-001 114473 -2.5745e+002 -1.8390e+002  5.6526e+001 22514 114211,114133,114447
 4.0000e-001 114496 -2.5775e+002 -2.0148e+002  5.8239e+001 22514 114211,114447,114237
 4.0000e-001 114597 -1.2202e+002 -2.9699e+002  1.8359e+002 22316 114620,114571,114545
 4.0000e-001 114646 -1.2202e+002 -2.9699e+002  1.8359e+002 22316 114519,114571,114620
 4.0000e-001 115127 -3.3856e+002 -1.9996e+002  8.3017e+001 21612 115150,114905,114879
 4.0000e-001 115104 -3.6717e+002 -1.2531e+002  8.7817e+001 21612 115150,114879,114853
 4.0000e-001 115081 -3.1217e+002 -9.0815e+001  1.1224e+002 21612 115222,114931,114905
 4.0000e-001 115058 -3.1849e+002 -1.5123e+002  1.0131e+002 21612 115222,114905,115009
 4.0000e-001 115035 -2.3389e+002 -1.8170e+002  1.0246e+002 21612 114957,115009,114983
 4.0000e-001 115176 -3.2091e+002 -1.4298e+002  7.9903e+001 21612 115009,114905,115150
 4.0000e-001 115199 -3.4241e+002 -5.7854e+001  8.1789e+001 21612 115009,115150,114853
 4.0000e-001 115248 -3.1068e+002 -1.4578e+002  1.0287e+002 21612 114957,114931,115222
 4.0000e-001 115271 -3.1423e+002 -2.0178e+002  9.1331e+001 21612 114957,115222,115009
 4.0000e-001 115519 -8.8522e+001  6.7877e+001  9.2324e+001 21208 115542,115372,115320
 4.0000e-001 115496 -1.1887e+001  1.1640e+002  3.7361e+000 21208 115542,115320,115294
 4.0000e-001 115473 -5.9247e+001 -1.4522e+002  1.3887e+002 21208 115320,115372,115346
 4.0000e-001 115450 -1.2615e+002 -1.9315e+001  1.4973e+001 21208 115294,115424,115398
 4.0000e-001 115568 -1.1823e+002  2.7212e+001  1.1153e+002 21208 115398,115372,115542
 4.0000e-001 115591 -9.8845e+001 -4.0507e+001  3.9503e+001 21208 115398,115542,115294
 4.0000e-001 115839 -2.8880e+002 -1.2527e+002  1.1739e+002 20668 115862,115640,115614
 4.0000e-001 115816 -3.1291e+002 -1.0530e+002  1.2935e+002 20668 115862,115614,115744
 4.0000e-001 115793 -3.8109e+002 -1.6270e+002  9.1767e+001 20668 115640,115718,115692
 4.0000e-001 115770 -4.2155e+002 -1.7929e+002  9.5130e+001 20668 115640,115692,115666
 4.0000e-001 115888 -3.1557e+002 -1.4771e+002  1.0778e+002 20668 115718,115640,115862
 4.0000e-001 115911 -3.2731e+002 -1.1675e+002  1.2413e+002 20668 115718,115862,115744
 4.0000e-001 116134 -9.3873e+001 -2.0207e+002  1.0327e+002 20264 115958,116036,115984
 4.0000e-001 116111 -8.2754e+001 -1.9683e+002  1.0173e+002 20264 115958,116062,116036
 4.0000e-001 116088 -8.4337e+001 -2.0078e+002  1.0507e+002 20264 115984,116036,116010
 4.0000e-001 116384 -2.1132e+002 -1.1750e+002  8.8511e+001 19924 116407,116211,116159
 4.0000e-001 116361 -2.2213e+002 -1.3921e+002  9.2729e+001 19924 116407,116159,116263
 4.0000e-001 116338 -2.0833e+002 -9.4090e+001  8.1594e+001 19924 116159,116211,116185
 4.0000e-001 116315 -2.2537e+002 -1.7111e+002  1.3626e+002 19924 116159,116289,116263
 4.0000e-001 116433 -2.2819e+002 -9.6469e+001  9.4111e+001 19924 116237,116211,116407
 4.0000e-001 116456 -2.3791e+002 -1.1484e+002  9.9115e+001 19924 116237,116407,116263
 4.0000e-001 116608 -2.1411e+002 -9.0156e+001  9.0791e+001 19520 116703,116631,116533
 4.0000e-001 116585 -2.2670e+002 -8.3778e+001  9.6119e+001 19520 116631,116507,116481
 4.0000e-001 116657 -2.1245e+002 -8.4297e+001  8.7852e+001 19520 116559,116533,116631
 4.0000e-001 116680 -2.1943e+002 -7.0584e+001  9.1986e+001 19520 116559,116631,116481
 4.0000e-001 116729 -2.1411e+002 -9.0156e+001  9.0791e+001 19520 116507,116631,116703
 4.0000e-001 116952 -1.1152e+002 -9.3025e+001  1.6531e+002 19208 116975,116802,116776
 4.0000e-001 116929 -1.2744e+002 -1.5797e+002  1.1695e+002 19208 116975,116776,116880
 4.0000e-001 116906 -2.0375e+002 -8.6964e+001  1.0533e+002 19208 116802,116854,116828
 4.0000e-001 117001 -9.0087e+001 -8.4027e+001  1.6819e+002 19208 116854,116802,116975
 4.0000e-001 117024 -4.0380e+001 -1.0183e+002  1.4494e+002 19208 116854,116975,116880
 4.0000e-001 117428 -1.8749e+002 -7.8513e+001  8.7868e+001 18796 117154,117206,117180
 4.0000e-001 117405 -1.4177e+002 -1.2553e+002  8.4588e+001 18796 117154,117284,117206
 4.0000e-001 117382 -1.0189e+002 -1.0324e+002  9.9544e+001 18796 117154,117310,117284
 4.0000e-001 117359 -1.0177e+002 -8.5633e+001  1.1088e+002 18796 117206,117284,117258
 4.0000e-001 117336 -7.9095e+001 -3.6142e+001  1.3813e+002 18796 117206,117258,117232
 4.0000e-001 117529 -1.0803e+002 -4.7144e+001  4.9111e+001 18228 117810,117552,117477
 4.0000e-001 117578 -1.9067e+002 -1.3477e+002  6.2721e+001 18228 117682,117552,117503
 4.0000e-001 117708 -7.1693e+001 -8.1765e+001  5.1832e+001 18228 117477,117552,117682
 4.0000e-001 117836 -1.5803e+002 -1.3559e+002  7.2428e+001 18228 117451,117552,117810
 4.0000e-001 118364 -2.1494e+002 -8.7741e+001  6.0742e+001 17722 118067,118223,118093
 4.0000e-001 118341 -1.9031e+002 -1.9521e+001  6.2722e+001 17722 118041,118223,118067
 4.0000e-001 118318 -1.4215e+002 -6.3005e+001  4.3002e+001 17722 118093,118223,118197
 4.0000e-001 118295 -3.0871e+002 -2.4033e+002  1.4176e+002 17722 118119,118197,118171
 4.0000e-001 118272 -1.1822e+002 -4.6579e+001  6.2883e+001 17722 118093,118197,118119
 4.0000e-001 118249 -2.3485e+002 -2.8924e+001  1.3885e+002 17722 118119,118171,118145
 4.0000e-001 118514 -2.5086e+002 -1.0640e+002  9.6794e+001 17268 118387,118439,118413
 4.0000e-001 118491 -1.0623e+002 -8.7708e+001  9.5812e+001 17268 118387,118465,118439
 4.0000e-001 118916 -3.7681e+002 -1.5688e+002  5.9855e+001 16828 118668,118772,118694
 4.0000e-001 118893 -4.1924e+002 -1.6866e+002  5.6108e+001 16828 118668,118798,118772
 4.0000e-001 118870 -4.4002e+002 -2.6004e+002  3.6500e+001 16828 118642,118798,118668
 4.0000e-001 118847 -3.0170e+002 -1.3006e+002  1.1981e+002 16828 118694,118746,118720
 4.0000e-001 118824 -3.9683e+002 -2.2326e+002  6.0315e+001 16828 118694,118772,118746
 4.0000e-001 119316 -1.5472e+002 -1.0491e+002  1.4085e+002 16422 119042,119172,119094
 4.0000e-001 119293 -2.2926e+002 -1.0934e+002  1.5232e+002 16422 119042,119198,119172
 4.0000e-001 119270 -2.4443e+002 -1.0342e+002  9.4018e+001 16422 119042,119094,119068
 4.0000e-001 119247 -1.3288e+002 -6.2763e+001  1.9596e+002 16422 119094,119146,119120
 4.0000e-001 119224 -1.4033e+002 -8.1917e+001  1.4925e+002 16422 119094,119172,119146
 4.0000e-001 119466 -3.7691e+002 -1.4779e+002 -2.2532e+001 16010 119339,119391,119365
 4.0000e-001 119443 -2.1704e+002 -1.5104e+002  1.0260e+002 16010 119339,119417,119391
 4.0000e-001 119616 -1.3507e+002 -5.9157e+001  1.2515e+002 15547 119515,119567,119541
 4.0000e-001 119593  2.4219e+001  4.2990e+001  1.9362e+002 15547 119489,119567,119515
 4.0000e-001 119719 -2.6377e+002 -1.0715e+002  4.4899e+001 421 119641,119693,119667
 5.0000e-001 69562 -3.1221e+002 -1.3996e+002  2.0506e+002 69254 69484,69536,69510
 5.0000e-001 70009 -9.9828e+001 -6.7242e+001  1.0009e+002 68942 69686,69842,69816
 5.0000e-001 69986 -1.0654e+002 -6.2550e+001  5.6709e+001 68942 69686,69868,69842
 5.0000e-001 69963  2.3412e+000  8.0953e-001  1.3713e+002 68942 69686,69816,69712
 5.0000e-001 69940 -3.2266e+001 -1.9102e+001  1.9260e+002 68942 69712,69790,69738
 5.0000e-001 69917 -1.1889e+002 -2.7257e+002  1.5843e+002 68942 69712,69816,69790
 5.0000e-001 69894  9.8798e+000 -1.5850e+002  8.3749e+001 68942 69738,69790,69764
 5.0000e-001 70110 -7.5394e+001 -2.1085e+001  3.9564e+001 68766 70032,70084,70058
 5.0000e-001 70746 -6.0058e+000 -4.0095e+001  5.5897e+001 68448 70400,70556,70426
 5.0000e-001 70723 -1.0606e+002 -3.7536e+001  6.5893e+001 68448 70374,70556,70400
 5.0000e-001 70700 -2.0639e+001 -3.0905e+001  2.5648e+001 68448 70426,70556,70478
 5.0000e-001 70677 -6.3889e+001 -1.1527e+001  3.1496e+001 68448 70478,70556,70504
 5.0000e-001 70654 -8.2192e+001 -7.7036e+001  5.7613e+001 68448 70426,70478,70452
 5.0000e-001 70631 -1.0346e+002 -2.4779e+001  7.8118e+001 68448 70374,70582,70556
 5.0000e-001 70608 -7.9267e+001 -2.3284e+001  1.5160e+001 68448 70504,70556,70530
 5.0000e-001 70896 -1.3219e+001 -7.8984e+000  2.2316e+001 68250 70795,70847,70821
 5.0000e-001 70873 -2.8973e+002 -1.0572e+002 -9.0822e+000 68250 70769,70847,70795
 5.0000e-001 70997 -6.3116e+002 -2.7930e+002  2.4135e+002 68052 70919,70971,70945
 5.0000e-001 71367 -1.8843e+002 -2.8760e+002  1.2185e+002 67740 71096,71226,71200
 5.0000e-001 71344 -1.2926e+002 -1.7259e+002  1.4571e+002 67740 71044,71226,71096
 5.0000e-001 71321  5.7687e+000 -5.7687e+000  2.3068e+002 67740 71044,71096,71070
 5.0000e-001 71298 -1.5072e+002 -3.0459e+002  2.2298e+002 67740 71096,71200,71174
 5.0000e-001 71275 -7.7760e+001 -1.8422e+002  8.8125e+001 67740 71096,71148,71122
 5.0000e-001 71252 -1.1068e+002 -2.1710e+002  1.4898e+002 67740 71096,71174,71148
 5.0000e-001 71519  6.5007e+001  3.4791e+001  7.1955e+001 67542 71418,71470,71444
 5.0000e-001 71496  1.1726e+002  2.5550e+002  2.2493e+002 67542 71392,71470,71418
 5.0000e-001 71923 -4.8518e+001 -1.2799e+001  6.4570e+001 67230 71649,71779,71675
 5.0000e-001 71900 -4.0934e+001 -6.1701e+001  5.0307e+001 67230 71649,71805,71779
 5.0000e-001 71877 -5.2764e+001 -2.0319e+001  1.1382e+002 67230 71675,71727,71701
 5.0000e-001 71854 -6.7359e+001 -1.6617e+002  1.1857e+002 67230 71675,71753,71727
 5.0000e-001 71831 -6.4534e+001 -1.0493e+002  8.3055e+001 67230 71675,71779,71753
 5.0000e-001 72433 -6.7813e+001 -4.4538e+001  8.4025e+001 67032 72038,72246,72220
 5.0000e-001 72410 -5.1778e+001 -8.8310e+000  2.3309e+001 67032 72012,72246,72038
 5.0000e-001 72387 -1.0548e+002 -2.4007e+001  8.9143e+001 67032 72064,72194,72168
 5.0000e-001 72364 -1.2587e+002 -4.9818e+001  9.8056e+001 67032 72038,72194,72064
 5.0000e-001 72341 -1.1368e+002 -1.5543e+002  1.4113e+002 67032 72038,72220,72194
 5.0000e-001 72318 -4.6609e+001 -5.6003e+000  4.0471e+001 67032 72090,72168,72142
 5.0000e-001 72295 -8.9753e+000  4.9512e+000  5.7600e+001 67032 72064,72168,72090
 5.0000e-001 72272 -5.1954e+001 -1.0888e+001  3.8115e+001 67032 72090,72142,72116
 5.0000e-001 72933 -9.5043e+001 -1.0388e+002  1.0761e+002 66628 72956,72665,72613
 5.0000e-001 72910 -9.4118e+001 -1.2504e+002  1.0515e+002 66628 73100,72956,72613
 5.0000e-001 72887 -1.1563e+002 -1.5747e+002  9.3207e+001 66628 73028,72691,72665
 5.0000e-001 72864 -9.5328e+001 -1.2834e+002  1.0618e+002 66628 73100,72613,72587
 5.0000e-001 72841 -8.2823e+001 -9.6303e+001  8.8723e+001 66628 72613,72665,72639
 5.0000e-001 72818  2.5618e+001  8.3911e+000  1.6165e+002 66628 72587,72769,72743
 5.0000e-001 72795 -6.5384e+001 -2.0110e+002  2.9095e+001 66628 72561,72769,72587
 5.0000e-001 72982 -1.1863e+002 -1.1945e+002  1.1589e+002 66628 73028,72665,72956
 5.0000e-001 73005 -9.3235e+001 -3.7795e+001  1.1544e+002 66628 72717,72956,72743
 5.0000e-001 73054 -1.5807e+002 -1.4062e+002  6.3777e+001 66628 72717,72691,73028
 5.0000e-001 73077 -1.6091e+002 -1.2682e+002  8.4944e+001 66628 72717,73028,72956
 5.0000e-001 73126 -9.5569e+001 -1.2592e+002  1.0853e+002 66628 72743,72956,73100
 5.0000e-001 73149 -9.6007e+001 -1.2839e+002  1.0944e+002 66628 72743,73100,72587
 5.0000e-001 73606 -5.0148e+001 -1.0905e+002  8.6240e+001 66281 73332,73384,73358
 5.0000e-001 73583 -7.8136e+001 -1.6700e+002  7.7431e+001 66281 73332,73462,73384
 5.0000e-001 73560 -1.1953e+002 -9.8838e+001  1.1722e+002 66281 73384,73462,73436
 5.0000e-001 73537 -2.4145e+002 -1.1288e+002  1.1908e+002 66281 73332,73488,73462
 5.0000e-001 73514 -5.2225e+001 -5.9425e+001  5.9676e+001 66281 73384,73436,73410
 5.0000e-001 73984  3.0439e+000 -2.1664e+001  8.7484e+000 65969 73736,73814,73788
 5.0000e-001 73961  2.7745e+001 -3.4384e+000 -2.3163e+000 65969 73736,73866,73814
 5.0000e-001 73938 -3.3118e+001 -2.7807e+001  4.9865e+001 65969 73814,73866,73840
 5.0000e-001 73915 -3.6347e+000  1.7377e+001 -2.7400e+000 65969 73710,73866,73736
 5.0000e-001 73892  9.1529e+000 -2.3630e+001  5.8498e-001 65969 73736,73788,73762
 5.0000e-001 74232 -8.5246e+001 -1.0837e+002  9.6928e+001 65572 74255,74085,74033
 5.0000e-001 74209 -7.5445e+001 -1.2416e+002  7.8416e+001 65572 74327,74255,74033
 5.0000e-001 74186 -8.9049e+001 -7.7577e+001  7.6726e+001 65572 74327,74033,74007
 5.0000e-001 74163 -8.6566e+001 -1.1235e+002  9.8668e+001 65572 74033,74085,74059
 5.0000e-001 74281 -1.0996e+002 -1.3685e+002  1.2122e+002 65572 74111,74085,74255
 5.0000e-001 74304 -7.9116e+001 -1.3419e+002  7.5812e+001 65572 74111,74255,74137
 5.0000e-001 74353 -6.1024e+001 -7.0419e+001  5.9487e+001 65572 74137,74255,74327
 5.0000e-001 74376 -8.4891e+001 -3.5157e+001  6.0273e+001 65572 74137,74327,74007
 5.0000e-001 74884 -8.2307e+001 -1.0017e+002  6.9905e+001 65174 74587,74717,74613
 5.0000e-001 74861 -9.8472e+001 -1.1514e+002  5.7054e+001 65174 74561,74717,74587
 5.0000e-001 74838 -8.1039e+001 -1.1298e+002  4.7522e+001 65174 74613,74691,74639
 5.0000e-001 74815 -9.4990e+001 -1.1095e+002  6.5188e+001 65174 74613,74717,74691
 5.0000e-001 74792 -1.7032e+001 -2.0211e+002  3.9087e+001 65174 74639,74691,74665
 5.0000e-001 74769 -8.8236e+001 -1.0351e+002  5.2678e+001 65174 74561,74743,74717
 5.0000e-001 75412 -8.1471e+000 -3.3005e+001  1.9672e+002 64770 75167,75245,75219
 5.0000e-001 75389 -1.0707e+002 -1.6188e+002  1.3686e+002 64770 75115,75245,75167
 5.0000e-001 75366 -8.2865e+001 -1.9775e+002  1.7343e+002 64770 75089,75245,75115
 5.0000e-001 75343 -1.4536e+002 -3.6636e+001  1.2950e+002 64770 75167,75219,75193
 5.0000e-001 75320 -8.7589e+001 -1.1636e+002  1.3697e+002 64770 75115,75167,75141
 5.0000e-001 75297 -1.2079e+002 -2.9328e+002  1.7700e+002 64770 75089,75271,75245
 5.0000e-001 75861 -2.1821e+002 -8.8564e+001  1.3951e+002 64316 75538,75694,75564
 5.0000e-001 75838 -1.1400e+002 -4.5476e+001  1.0454e+002 64316 75538,75720,75694
 5.0000e-001 75815 -1.7727e+002 -9.0845e+001  1.1808e+002 64316 75590,75694,75642
 5.0000e-001 75792 -1.7733e+002 -1.3294e+002  1.3271e+002 64316 75564,75694,75590
 5.0000e-001 75769 -6.5008e+001 -2.0063e+002  7.0315e+001 64316 75590,75642,75616
 5.0000e-001 75746 -1.7476e+002 -7.2691e+001  1.1586e+002 64316 75642,75694,75668
 5.0000e-001 76239 -2.3044e+002 -1.8129e+002  1.4068e+002 64018 76262,76095,76043
 5.0000e-001 76216 -1.5628e+002 -1.7699e+002  1.2011e+002 64018 76262,76043,76017
 5.0000e-001 76193 -5.3557e+001 -8.3987e+001  7.7276e+001 64018 75991,76121,76017
 5.0000e-001 76170 -2.1399e+002 -1.4232e+002  1.4039e+002 64018 76043,76095,76069
 5.0000e-001 76147 -5.0266e+000 -1.0851e+002  2.7575e+001 64018 75965,76121,75991
 5.0000e-001 76288 -1.6772e+002 -2.1274e+002  1.8041e+002 64018 76121,76095,76262
 5.0000e-001 76311 -1.0280e+002 -2.1500e+002  1.4961e+002 64018 76121,76262,76017
 5.0000e-001 76866 -1.0596e+002 -1.1190e+002  1.0724e+002 63728 76520,76676,76546
 5.0000e-001 76843 -9.1255e+001 -1.1506e+002  7.7857e+001 63728 76520,76702,76676
 5.0000e-001 76820 -8.8106e+001 -1.3150e+002  1.1970e+002 63728 76546,76650,76572
 5.0000e-001 76797 -1.4678e+002 -1.8024e+002  8.9655e+001 63728 76546,76676,76650
 5.0000e-001 76774 -1.4274e+002 -5.0725e+001  6.1330e+001 63728 76572,76650,76624
 5.0000e-001 76751 -8.7865e+001 -8.2717e+001  8.4674e+001 63728 76494,76702,76520
 5.0000e-001 76728 -4.4905e+001 -7.7556e+001  5.9488e+001 63728 76572,76624,76598
 5.0000e-001 77065 -4.5324e+001 -9.3543e+001  6.9649e+001 63288 77088,76941,76915
 5.0000e-001 77042 -8.8260e+001 -1.0143e+002  5.3199e+001 63288 77088,76915,76993
 5.0000e-001 77019 -4.5163e+001 -8.4628e+001  6.0425e+001 63288 76889,76993,76915
 5.0000e-001 77114 -6.4340e+001 -1.2679e+002  6.1694e+001 63288 76967,76941,77088
 5.0000e-001 77137 -1.2641e+002 -1.2856e+002  2.7389e+001 63288 77160,77088,76993
 5.0000e-001 77186 -2.8238e+001 -7.9588e+001  4.5323e+001 63288 76967,77088,77160
 5.0000e-001 77417 -1.0126e+001 -6.5153e+001  1.8366e+001 62884 77440,77342,77316
 5.0000e-001 77394 -2.2237e+001 -1.2194e+002  1.1010e+001 62884 77770,77440,77316
 5.0000e-001 77466 -8.3034e+001 -1.3449e+002  3.0352e+001 62884 77512,77440,77368
 5.0000e-001 77489 -5.6040e+000 -8.9898e+001  5.9863e+000 62884 77642,77440,77290
 5.0000e-001 77538 -1.7178e+001 -8.9861e+001  1.0934e+001 62884 77342,77440,77512
 5.0000e-001 77668 -3.7163e+001 -1.6795e+002  5.6108e+000 62884 77368,77440,77642
 5.0000e-001 77796 -7.9656e+000 -1.1462e+002  8.0745e+000 62884 77290,77440,77770
 5.0000e-001 78479 -2.0908e+002 -1.9647e+002  1.2984e+002 62480 78084,78240,78214
 5.0000e-001 78456 -1.1205e+002 -1.7172e+002  2.0866e+001 62480 78084,78266,78240
 5.0000e-001 78433 -1.6626e+002 -1.8852e+002  5.5627e+001 62480 78110,78214,78136
 5.0000e-001 78410 -1.9479e+002 -1.9489e+002  1.2772e+002 62480 78084,78214,78110
 5.0000e-001 78387 -1.2903e+002 -1.5179e+002  7.0456e+001 62480 78136,78214,78188
 5.0000e-001 78364 -9.5428e+001 -2.1197e+002  1.1234e+001 62480 78058,78266,78084
 5.0000e-001 78341 -7.7609e+001 -1.2609e+002  5.3593e+001 62480 78136,78188,78162
 5.0000e-001 78318 -1.5260e+001 -1.5972e+002 -2.9143e+001 62480 78058,78292,78266
 5.0000e-001 78678 -1.2534e+002 -2.4104e+002  1.1138e+002 61926 78528,78606,78554
 5.0000e-001 78655 -8.5782e+001 -2.4583e+002  1.3067e+002 61926 78502,78606,78528
 5.0000e-001 78632 -7.1736e+001 -1.6243e+002  5.4157e+001 61926 78554,78606,78580
 5.0000e-001 79058 -1.1351e+002 -1.2574e+002  6.7540e+001 61614 78836,78914,78862
 5.0000e-001 79035 -1.6064e+002 -1.5015e+002  5.7480e+001 61614 78810,78914,78836
 5.0000e-001 79012 -1.1128e+002 -1.2911e+002  5.7222e+001 61614 78784,78914,78810
 5.0000e-001 78989 -1.1574e+002 -1.4602e+002  8.3745e+001 61614 78862,78914,78888
 5.0000e-001 78966 -8.5989e+001 -1.7418e+002  6.9650e+001 61614 78784,78940,78914
 5.0000e-001 79208 -9.8979e+000 -2.3034e+001  1.5674e+001 61366 79081,79133,79107
 5.0000e-001 79185 -4.5326e+001 -1.0444e+001  1.0357e+002 61366 79081,79159,79133
 5.0000e-001 79358 -7.6796e+000 -6.6093e+001  2.4807e+001 60962 79231,79283,79257
 5.0000e-001 79335 -8.8402e+001 -2.0747e+002  5.7737e+001 60962 79231,79309,79283
 5.0000e-001 79608 -8.1364e+001 -1.2705e+002  1.0156e+002 60508 79631,79435,79409
 5.0000e-001 79585 -6.2750e+001 -1.4541e+002  6.1989e+001 60508 79703,79631,79409
 5.0000e-001 79562 -6.6561e+001 -4.2346e+001  7.5088e+001 60508 79703,79409,79383
 5.0000e-001 79539 -1.4685e+002 -1.5770e+002  1.5395e+002 60508 79435,79487,79461
 5.0000e-001 79657 -1.0776e+002 -1.9389e+002  1.5117e+002 60508 79487,79435,79631
 5.0000e-001 79680 -5.2187e+001 -1.3246e+002  7.5013e+001 60508 79487,79631,79513
 5.0000e-001 79729 -3.1470e+001 -5.0347e+001  3.5209e+001 60508 79513,79631,79703
 5.0000e-001 79752 -6.1445e+001 -3.4200e+001  1.9019e+001 60508 79513,79703,79383
 5.0000e-001 80390 -1.1303e+002 -1.2398e+002  1.2216e+002 59997 80413,80096,80018
 5.0000e-001 80367 -1.8807e+002 -1.3997e+002  1.4777e+002 59997 80413,80018,80226
 5.0000e-001 80344 -8.7622e+001 -8.0828e+001  8.8337e+001 59997 80096,80174,80148
 5.0000e-001 80321 -3.0477e+002 -2.3387e+002  1.7267e+002 59997 80018,80096,80070
 5.0000e-001 80298 -5.3152e+001 -1.1391e+002  6.7894e+001 59997 80096,80148,80122
 5.0000e-001 80275 -1.1038e+002 -8.2010e+001  9.3605e+001 59997 80174,80226,80200
 5.0000e-001 80252 -2.0677e+002 -2.0482e+002  7.7181e+001 59997 80018,80070,80044
 5.0000e-001 80439 -9.2245e+001 -1.2617e+002  1.0312e+002 59997 80174,80096,80413
 5.0000e-001 80462 -1.2202e+002 -9.2509e+001  1.1739e+002 59997 80174,80413,80226
 5.0000e-001 80840 -1.7054e+002 -1.7998e+002  8.4620e+001 59443 80863,80644,80618
 5.0000e-001 80817 -1.0413e+002 -1.2472e+002  1.0934e+002 59443 80863,80618,80566
 5.0000e-001 80794 -7.5428e+001 -9.9170e+001  1.0035e+002 59443 81007,80935,80670
 5.0000e-001 80771 -1.0868e+002 -1.1606e+002  1.1808e+002 59443 80566,80722,80696
 5.0000e-001 80748 -1.3307e+002 -1.8029e+002  1.2707e+002 59443 80566,80618,80592
 5.0000e-001 80889 -1.6946e+002 -1.2925e+002  1.1223e+002 59443 80935,80644,80863
 5.0000e-001 80912 -1.4259e+002 -1.3052e+002  1.1695e+002 59443 80696,80863,80566
 5.0000e-001 80961 -1.1075e+002 -1.0208e+002  1.2715e+002 59443 80696,80670,80935
 5.0000e-001 80984 -1.1789e+002 -1.1799e+002  1.2490e+002 59443 80696,80935,80863
 5.0000e-001 81033 -1.4143e+002 -1.5410e+002  1.3193e+002 59443 80644,80935,81007
 5.0000e-001 81360 -1.1266e+002 -9.7234e+001  8.4477e+001 59031 81383,81187,81161
 5.0000e-001 81337 -1.1045e+002 -1.0617e+002  6.7557e+001 59031 81455,81383,81161
 5.0000e-001 81314 -9.5764e+001 -9.7902e+001  7.1826e+001 59031 81455,81161,81135
 5.0000e-001 81291 -1.6072e+002 -5.4396e+001  9.0390e+001 59031 81187,81239,81213
 5.0000e-001 81409 -1.2004e+002 -1.0884e+002  7.8810e+001 59031 81239,81187,81383
 5.0000e-001 81432 -1.5429e+002 -1.1337e+002  5.5575e+001 59031 81239,81383,81265
 5.0000e-001 81481 -1.2556e+002 -8.9729e+001  7.1505e+001 59031 81265,81383,81455
 5.0000e-001 81504 -1.1996e+002 -8.9457e+001  7.2140e+001 59031 81265,81455,81135
 5.0000e-001 81835 -2.7708e+001 -6.8901e+001  3.9249e+001 58577 81610,81714,81636
 5.0000e-001 81812  1.5543e+001 -8.3048e+001  3.9930e+001 58577 81610,81740,81714
 5.0000e-001 81789 -6.3069e+001 -8.3957e+001  1.1609e+001 58577 81636,81714,81688
 5.0000e-001 81766 -6.2544e+001 -1.0820e+002 -4.1858e+001 58577 81636,81688,81662
 5.0000e-001 81985 -4.4814e+001 -1.0624e+002  6.8137e+001 58030 81884,81936,81910
 5.0000e-001 81962 -8.1025e+001 -3.2371e+001  5.0947e+001 58030 81858,81936,81884
 5.0000e-001 82414 -3.5386e+001 -3.3564e+001  5.5308e+001 57690 82437,82169,82117
 5.0000e-001 82391 -5.7669e+001 -6.6549e+001  6.5454e+001 57690 82437,82117,82247
 5.0000e-001 82368  1.1034e+001  1.8627e+001  1.4042e+002 57690 82195,82247,82221
 5.0000e-001 82345 -2.8249e+001 -5.3737e+001  6.8245e+001 57690 82091,82247,82117
 5.0000e-001 82322 -6.3927e+001 -2.6172e+001  3.5940e+001 57690 82117,82169,82143
 5.0000e-001 82299 -4.4201e+001 -9.5456e+001  8.7536e+001 57690 82091,82273,82247
 5.0000e-001 82463 -6.1087e+001 -2.2638e+001  7.0936e+001 57690 82195,82169,82437
 5.0000e-001 82486 -7.2457e+001 -4.2324e+001  7.5673e+001 57690 82195,82437,82247
 5.0000e-001 83041 -9.7483e+001 -1.0728e+002  6.2645e+001 57172 83064,82721,82695
 5.0000e-001 83018 -1.1118e+002 -1.1798e+002  9.1944e+001 57172 83064,82695,82851
 5.0000e-001 82995 -2.5868e+002 -1.5084e+002  1.1728e+002 57172 82669,82851,82695
 5.0000e-001 82972 -1.5019e+002 -1.1378e+002  9.7675e+001 57172 82773,82851,82825
 5.0000e-001 82949 -1.2606e+002 -1.0775e+002  1.0825e+002 57172 82773,82825,82799
 5.0000e-001 82926 -1.2505e+002 -9.7052e+001  5.6254e+001 57172 82721,82773,82747
 5.0000e-001 82903 -3.3047e+002 -1.7307e+002  2.0829e+002 57172 82669,82877,82851
 5.0000e-001 83090 -1.4433e+002 -1.2738e+002  6.4590e+001 57172 82773,82721,83064
 5.0000e-001 83113 -1.2606e+002 -1.2424e+002  9.1890e+001 57172 82773,83064,82851
 5.0000e-001 83747 -1.3546e+002 -1.0260e+002  6.5768e+001 56554 83770,83427,83401
 5.0000e-001 83724 -1.2766e+002 -1.3788e+002  8.2219e+001 56554 83842,83770,83401
 5.0000e-001 83701 -1.3002e+001 -1.0745e+002  4.0124e+001 56554 83842,83401,83583
 5.0000e-001 83678 -2.0840e+002 -1.8799e+002  1.6788e+002 56554 83914,83531,83505
 5.0000e-001 83655 -9.7862e+001 -1.7409e+002  8.3845e+001 56554 83531,83583,83557
 5.0000e-001 83632 -3.4549e+001 -1.0229e+002  3.2156e+001 56554 83375,83583,83401
 5.0000e-001 83609 -1.1373e+002 -1.0712e+002  6.5660e+001 56554 83427,83479,83453
 5.0000e-001 83796 -1.1464e+002 -1.0690e+002  6.4537e+001 56554 83479,83427,83770
 5.0000e-001 83819 -1.1407e+002 -8.4025e+001  6.4080e+001 56554 83479,83770,83505
 5.0000e-001 83868 -7.9525e+001 -5.0998e+001  1.0407e+002 56554 83505,83770,83842
 5.0000e-001 83891 -1.3909e+002 -1.1213e+002  1.3126e+002 56554 83914,83505,83842
 5.0000e-001 83940 -1.0296e+002 -1.9796e+002  9.8958e+001 56554 83583,83531,83914
 5.0000e-001 83963 -5.7543e+001 -1.8178e+002  8.1181e+001 56554 83583,83914,83842
 5.0000e-001 84341 -9.9010e+001 -2.4670e+002  1.1082e+002 56192 84067,84145,84119
 5.0000e-001 84318  7.8676e+000 -1.2274e+002  6.4167e+001 56192 84067,84223,84145
 5.0000e-001 84295 -4.5730e+001 -2.3518e+002  4.7843e+001 56192 84145,84223,84197
 5.0000e-001 84272 -8.6661e+001 -4.3073e+001  5.5526e+001 56192 84067,84119,84093
 5.0000e-001 84249 -1.2488e+002 -7.4506e+001  6.0018e+001 56192 84145,84197,84171
 5.0000e-001 84611 -7.0698e+001 -1.7313e+002  1.5003e+002 55538 84386,84490,84412
 5.0000e-001 84588 -7.6812e+001 -1.2320e+002  1.4082e+002 55538 84386,84516,84490
 5.0000e-001 84565 -1.1526e+002 -1.9164e+002  1.5334e+002 55538 84412,84490,84464
 5.0000e-001 84542 -5.9618e+001 -1.4450e+002  1.2315e+002 55538 84412,84464,84438
 5.0000e-001 84942 -1.1170e+002 -1.0445e+002  8.2022e+001 55084 84769,84847,84795
 5.0000e-001 84919 -1.0377e+002 -1.1301e+002  7.2359e+001 55084 84717,84847,84769
 5.0000e-001 84896 -1.2960e+002 -1.7696e+002  6.9706e+001 55084 84717,84769,84743
 5.0000e-001 84873 -1.1845e+002 -4.6632e+001  7.2073e+001 55084 84795,84847,84821
 5.0000e-001 85271 -4.3123e+001 -5.4559e+001  7.0768e+001 54580 85294,85098,85072
 5.0000e-001 85248 -1.4228e+002 -6.0875e+001  8.3278e+001 54580 85294,85072,85176
 5.0000e-001 85225 -1.8678e+002 -4.7307e+001  5.3502e+001 54580 85124,85176,85150
 5.0000e-001 85202 -4.7553e+001 -5.5446e+001  3.2883e+001 54580 85046,85176,85072
 5.0000e-001 85320 -1.2157e+002 -7.5102e+001  6.9334e+001 54580 85124,85098,85294
 5.0000e-001 85343 -1.7580e+002 -4.8582e+001  8.1871e+001 54580 85124,85294,85176
 5.0000e-001 85542 -1.0851e+002 -1.2432e+002  1.1782e+002 53976 85565,85444,85418
 5.0000e-001 85519 -1.4154e+002 -8.7136e+001  8.4773e+001 53976 85565,85418,85366
 5.0000e-001 85496 -9.5610e+001 -3.2608e+001  3.9044e+001 53976 85366,85418,85392
 5.0000e-001 85591 -8.1703e+001 -1.0502e+002  1.0198e+002 53976 85470,85444,85565
 5.0000e-001 85614 -9.2555e+001 -3.5293e+001  6.3482e+001 53976 85470,85565,85366
 5.0000e-001 85960 -2.6292e+002 -2.3838e+002  2.1050e+002 53572 85663,85715,85689
 5.0000e-001 85937 -1.8426e+002 -1.2728e+002  1.2276e+002 53572 85983,85715,85663
 5.0000e-001 85914 -1.0665e+002 -8.7634e+001  1.0514e+002 53572 86055,85983,85663
 5.0000e-001 85891 -9.7998e+001 -8.2555e+001  9.2698e+001 53572 86055,85663,85637
 5.0000e-001 85868 -1.9337e+002 -2.9340e+002  1.5577e+002 53572 85637,85793,85767
 5.0000e-001 85845 -1.3724e+002 -8.5912e+000  6.2168e+001 53572 85637,85819,85793
 5.0000e-001 86009 -9.8561e+001 -2.0922e+002  1.1550e+002 53572 85741,85715,85983
 5.0000e-001 86032 -2.1711e+001 -1.2417e+002  8.2082e+001 53572 85741,85983,85767
 5.0000e-001 86081 -1.0845e+002 -1.2539e+002  1.2642e+002 53572 85767,85983,86055
 5.0000e-001 86104 -8.7877e+001 -1.0395e+002  1.1264e+002 53572 85767,86055,85637
 5.0000e-001 86693 -1.8192e+002 -3.0671e+001  1.2240e+002 52946 86474,86526,86500
 5.0000e-001 86670 -3.1347e+001 -2.5819e+001  5.1233e+001 52946 86396,86526,86474
 5.0000e-001 86647 -1.6389e+002 -1.5554e+002  1.0466e+002 52946 86370,86526,86396
 5.0000e-001 86624 -8.4831e+000  8.9544e-001  1.5019e+001 52946 86422,86474,86448
 5.0000e-001 86601 -5.2627e+001 -2.2265e+001  3.0604e+001 52946 86396,86474,86422
 5.0000e-001 86578 -1.8828e+002 -6.6993e+001  3.4970e+001 52946 86370,86552,86526
 5.0000e-001 87376 -1.2312e+002 -1.4958e+002  5.0835e+001 52420 87007,87085,87033
 5.0000e-001 87353 -1.3526e+002 -1.4827e+002  4.3971e+001 52420 87007,87163,87085
 5.0000e-001 87330 -1.3982e+002 -1.3468e+002  5.3551e+001 52420 87007,87189,87163
 5.0000e-001 87307 -1.2840e+002 -1.5355e+002  4.8836e+001 52420 87033,87085,87059
 5.0000e-001 87284 -1.2993e+002 -1.2891e+002  3.4782e+001 52420 87085,87137,87111
 5.0000e-001 87261 -1.3086e+002 -1.8055e+002  1.7122e+001 52420 87085,87163,87137
 5.0000e-001 87238 -1.0306e+002 -1.2665e+002  1.0851e+002 52420 86955,87189,87007
 5.0000e-001 87215 -6.7493e+001 -9.4013e+001  6.2484e+001 52420 86955,87007,86981
 5.0000e-001 87624 -1.0689e+002 -1.0027e+002  7.4143e+001 51916 87451,87503,87477
 5.0000e-001 87601 -6.2393e+001 -1.2305e+002  9.3480e+001 51916 87425,87503,87451
 5.0000e-001 87578 -2.5318e+001 -9.2361e+001  1.1029e+002 51916 87425,87529,87503
 5.0000e-001 87555  1.1841e+001  2.3211e+001  1.1144e+002 51916 87399,87529,87425
 5.0000e-001 88053 -1.5208e+002 -1.3619e+002  4.8002e+001 51568 87782,87834,87808
 5.0000e-001 88030 -1.7493e+002 -1.5374e+002  6.4644e+001 51568 88076,87782,87886
 5.0000e-001 88007 -1.7089e+002 -1.4453e+002  6.3195e+001 51568 88076,87886,87860
 5.0000e-001 87984 -2.0211e+002 -1.7347e+002  5.3577e+001 51568 87756,87886,87782
 5.0000e-001 87961 -1.4398e+002 -1.3925e+002  9.6837e+001 51568 87756,87912,87886
 5.0000e-001 87938 -1.7813e+002 -1.7777e+002  8.2262e+001 51568 87730,87912,87756
 5.0000e-001 88102 -1.7036e+002 -1.5866e+002  5.9092e+001 51568 87834,87782,88076
 5.0000e-001 88125 -1.6726e+002 -1.5258e+002  5.7796e+001 51568 87834,88076,87860
 5.0000e-001 88324 -1.1394e+002 -1.8876e+002  8.0972e+001 51164 88419,88347,88200
 5.0000e-001 88301 -9.3212e+001 -1.6376e+002  8.5992e+001 51164 88347,88148,88252
 5.0000e-001 88278 -1.2813e+002 -2.1085e+002  7.3324e+001 51164 88419,88200,88174
 5.0000e-001 88373 -8.2020e+001 -2.2584e+002  8.0985e+001 51164 88226,88200,88347
 5.0000e-001 88396 -3.3291e+001 -1.8625e+002  6.3925e+001 51164 88226,88347,88252
 5.0000e-001 88445 -1.0815e+002 -1.8633e+002  9.2463e+001 51164 88148,88347,88419
 5.0000e-001 88468 -1.0744e+002 -1.8367e+002  8.7910e+001 51164 88148,88419,88174
 5.0000e-001 88738 -1.2779e+002 -2.1339e+002  4.3768e+001 50560 88513,88617,88539
 5.0000e-001 88715 -9.6970e+001 -2.2663e+002  3.2513e+001 50560 88513,88643,88617
 5.0000e-001 88692 -9.9306e+001 -1.2108e+002  5.2306e+001 50560 88539,88591,88565
 5.0000e-001 88669 -7.4315e+001 -1.7475e+002  6.1101e+001 50560 88539,88617,88591
 5.0000e-001 88939 -1.3405e+002 -1.0030e+002  6.0083e+001 50106 88962,88789,88763
 5.0000e-001 88916 -1.1171e+002 -1.1496e+002  5.2835e+001 50106 88962,88763,88841
 5.0000e-001 88893 -1.3169e+002 -1.2940e+002  7.5926e+001 50106 88763,88867,88841
 5.0000e-001 88988 -1.0737e+002 -1.0493e+002  5.0643e+001 50106 88815,88789,88962
 5.0000e-001 89011 -1.2269e+002 -1.0835e+002  5.4404e+001 50106 89034,88962,88841
 5.0000e-001 89060 -6.9296e+001 -7.2256e+001  2.5004e+001 50106 88815,88962,89034
 5.0000e-001 89472 -1.3809e+002 -2.0062e+002  9.2110e+001 49666 89273,89351,89325
 5.0000e-001 89449 -1.3011e+002 -2.0516e+002  9.0938e+001 49666 89273,89377,89351
 5.0000e-001 89426 -8.6430e+001 -1.5566e+002  1.3237e+002 49666 89273,89325,89299
 5.0000e-001 89403 -1.0770e+002 -1.0526e+002  9.6378e+001 49666 89247,89377,89273
 5.0000e-001 89978 -6.7988e+001 -1.7058e+002  8.2433e+001 49205 89681,89837,89733
 5.0000e-001 89955 -7.6610e+001 -1.6041e+002  9.1350e+001 49205 89655,89837,89681
 5.0000e-001 89932 -1.6597e+002 -3.4344e+002  1.1460e+002 49205 89785,89837,89811
 5.0000e-001 89909 -6.1809e+001 -8.9860e+001  6.2300e+001 49205 89733,89837,89785
 5.0000e-001 89886 -1.4075e+002 -1.1739e+002  8.2861e+001 49205 89733,89785,89759
 5.0000e-001 89863 -1.0179e+002 -3.1959e+002  1.4838e+002 49205 89681,89733,89707
 5.0000e-001 90177 -1.0162e+002 -9.5660e+001  4.4987e+001 48865 90530,90200,90053
 5.0000e-001 90154 -1.3623e+002 -2.1338e+002  1.1499e+002 48865 90402,90200,90001
 5.0000e-001 90131 -1.6288e+002  1.4231e+001  4.0106e+001 48865 90530,90053,90027
 5.0000e-001 90226 -1.2366e+002 -1.0979e+002  7.4086e+001 48865 90079,90053,90200
 5.0000e-001 90249 -1.2734e+002 -1.3935e+002  7.4223e+001 48865 90272,90200,90105
 5.0000e-001 90298 -9.3201e+001 -1.0758e+002  8.7440e+001 48865 90079,90200,90272
 5.0000e-001 90428 -9.1068e+001 -5.7075e+001  8.5440e+001 48865 90105,90200,90402
 5.0000e-001 90556 -1.3107e+002 -2.5552e+002  3.2576e+001 48865 90001,90200,90530
 5.0000e-001 90579 -1.6624e+002 -1.0029e+002 -6.3732e+000 48865 90001,90530,90027
 5.0000e-001 90827 -1.4143e+002 -1.5584e+002  7.5283e+001 48404 90850,90654,90628
 5.0000e-001 90804 -1.3908e+002 -1.6541e+002  1.1471e+002 48404 90850,90628,90732
 5.0000e-001 90781 -8.5085e+001 -1.2833e+002  6.8989e+001 48404 90680,90732,90706
 5.0000e-001 90758 -1.6213e+002 -9.8460e+001  1.1851e+002 48404 90602,90732,90628
 5.0000e-001 90876 -1.3129e+002 -9.9238e+001  6.8924e+001 48404 90680,90654,90850
 5.0000e-001 90899 -1.3515e+002 -1.3924e+002  1.0130e+002 48404 90680,90850,90732
 5.0000e-001 91000 -7.7585e+001 -1.8764e+002  1.3509e+002 48156 90922,90974,90948
 5.0000e-001 91250 -1.0674e+002 -2.6057e+002  1.7782e+002 47752 91051,91103,91077
 5.0000e-001 91227 -8.1141e+001 -3.4172e+001  1.1036e+002 47752 91025,91103,91051
 5.0000e-001 91204 -2.8918e+002 -1.8881e+002  2.3283e+002 47752 91025,91155,91103
 5.0000e-001 91181 -2.9520e+002 -1.1246e+002  1.8562e+002 47752 91103,91155,91129
 5.0000e-001 91402 -1.6042e+002 -1.2778e+002  5.2282e+001 47191 91425,91301,91275
 5.0000e-001 91379 -1.2841e+002 -1.1358e+002  6.3311e+001 47191 91497,91425,91275
 5.0000e-001 91451 -1.5062e+002 -1.0824e+002  5.5688e+001 47191 91327,91301,91425
 5.0000e-001 91474 -1.1641e+002 -1.3538e+002  8.8145e+001 47191 91327,91425,91353
 5.0000e-001 91523 -1.5653e+002 -2.0966e+002  7.0594e+001 47191 91353,91425,91497
 5.0000e-001 91854 -1.0567e+002 -1.3276e+002  1.1832e+002 46744 91949,91877,91707
 5.0000e-001 91831 -1.7419e+001 -1.0322e+002  4.6251e+001 46744 91877,91655,91629
 5.0000e-001 91808 -1.1800e+002 -1.2329e+002  1.1207e+002 46744 91949,91707,91681
 5.0000e-001 91785 -3.4005e+001 -8.5932e+001 -2.0270e+001 46744 91629,91759,91733
 5.0000e-001 91903 -1.1225e+002 -1.4024e+002  1.2114e+002 46744 91733,91707,91877
 5.0000e-001 91926 -9.4559e+001 -2.0324e+002  8.1030e+001 46744 91733,91877,91629
 5.0000e-001 91975 -1.2523e+002 -1.3710e+002  1.0411e+002 46744 91655,91877,91949
 5.0000e-001 91998 -1.5356e+002 -1.3510e+002  1.0078e+002 46744 91655,91949,91681
 5.0000e-001 92378 -6.8468e+001 -5.0617e+001  6.4880e+001 46090 92130,92208,92182
 5.0000e-001 92355 -1.1204e+002 -6.9481e+001  6.3086e+001 46090 92104,92208,92130
 5.0000e-001 92332 -6.0093e+001 -1.0826e+002  6.3817e+001 46090 92104,92260,92208
 5.0000e-001 92309 -4.9840e+001 -9.2409e+001  6.8766e+001 46090 92208,92260,92234
 5.0000e-001 92286 -1.5623e+002 -1.2098e+002  9.5391e+001 46090 92130,92182,92156
 5.0000e-001 92626 -1.2193e+002 -1.5689e+002  5.2893e+001 45693 92721,92649,92505
 5.0000e-001 92603 -1.2885e+002 -1.5535e+002  8.5712e+001 45693 92649,92453,92427
 5.0000e-001 92580 -1.3162e+002 -1.3398e+002  4.9565e+001 45693 92721,92505,92479
 5.0000e-001 92557 -2.1048e+002 -1.7634e+002  9.8294e+001 45693 92401,92531,92427
 5.0000e-001 92675 -1.5954e+002 -1.5273e+002  6.1817e+001 45693 92531,92505,92649
 5.0000e-001 92698 -1.7407e+002 -1.7054e+002  1.0691e+002 45693 92531,92649,92427
 5.0000e-001 92747 -1.1881e+002 -1.3222e+002  4.9639e+001 45693 92453,92649,92721
 5.0000e-001 92770 -1.0624e+002 -7.1114e+001  5.2134e+001 45693 92453,92721,92479
 5.0000e-001 93172 -6.5777e+001 -1.1136e+002  9.7612e+001 45331 92898,93028,92924
 5.0000e-001 93149 -5.0714e+001 -1.2016e+002  7.1057e+001 45331 92898,93054,93028
 5.0000e-001 93126 -9.9858e+001 -8.2379e+001  1.1135e+002 45331 92924,93002,92976
 5.0000e-001 93103 -4.2278e+001 -1.0209e+002  9.7453e+001 45331 92924,93028,93002
 5.0000e-001 93080 -8.5821e+001 -1.1489e+002  1.3185e+002 45331 92924,92976,92950
 5.0000e-001 93518 -1.3922e+002 -2.9573e+002  7.0552e+001 44820 93613,93273,93247
 5.0000e-001 93495 -2.2088e+002 -2.2963e+002  1.2397e+002 44820 93685,93541,93247
 5.0000e-001 93472 -1.8708e+002 -1.5574e+002  1.0202e+002 44820 93541,93195,93377
 5.0000e-001 93449 -2.5147e+002 -1.9674e+002  8.7172e+001 44820 93685,93247,93221
 5.0000e-001 93426 -1.5641e+002 -1.6735e+002  8.8526e+001 44820 93299,93377,93351
 5.0000e-001 93403 -1.1355e+002 -9.7754e+001  1.0994e+002 44820 93299,93351,93325
 5.0000e-001 93567 -1.7514e+002 -2.9595e+002  1.0522e+002 44820 93613,93247,93541
 5.0000e-001 93590 -1.7597e+002 -2.1467e+002  8.1730e+001 44820 93299,93541,93377
 5.0000e-001 93639 -1.7590e+002 -2.7128e+002  9.3645e+001 44820 93299,93273,93613
 5.0000e-001 93662 -1.6995e+002 -2.7235e+002  1.0109e+002 44820 93299,93613,93541
 5.0000e-001 93711 -1.7777e+002 -1.7039e+002  8.9153e+001 44820 93195,93541,93685
 5.0000e-001 93734 -1.6340e+002 -7.3240e+001  4.3683e+001 44820 93195,93685,93221
 5.0000e-001 94163 -1.6815e+002 -2.0537e+002  7.3721e+001 44237 94258,94186,93996
 5.0000e-001 94140 -2.0947e+002 -2.3000e+002  4.6791e+001 44237 94330,94022,93996
 5.0000e-001 94117 -2.1757e+002 -2.2827e+002  5.4187e+001 44237 94186,93918,93866
 5.0000e-001 94094 -1.4050e+002 -1.5820e+002  8.8931e+001 44237 94258,93996,93970
 5.0000e-001 94071 -1.8344e+002 -1.2987e+002  6.9547e+001 44237 94402,93944,93918
 5.0000e-001 94048 -1.8243e+002 -2.5211e+002  9.0549e+001 44237 93866,93918,93892
 5.0000e-001 94212 -2.1023e+002 -2.3183e+002  6.2381e+001 44237 94330,93996,94186
 5.0000e-001 94235 -2.2244e+002 -1.9773e+002  7.2388e+001 44237 93840,94186,93866
 5.0000e-001 94284 -1.8803e+002 -1.6492e+002  4.5944e+001 44237 93918,94186,94258
 5.0000e-001 94307 -1.6870e+002 -1.3679e+002  5.5098e+001 44237 94402,93918,94258
 5.0000e-001 94356 -1.8538e+002 -8.9438e+001 -8.1003e+000 44237 93840,94022,94330
 5.0000e-001 94379 -1.9911e+002 -2.0374e+002  6.4454e+001 44237 93840,94330,94186
 5.0000e-001 94428 -2.1340e+002 -1.5670e+002  8.1239e+001 44237 93970,93944,94402
 5.0000e-001 94451 -1.9007e+002 -1.5942e+002  6.5355e+001 44237 93970,94402,94258
 5.0000e-001 94908 -6.5411e+001 -1.3192e+002  3.6762e+001 43890 94660,94790,94712
 5.0000e-001 94885 -6.1412e+001 -5.3742e+001  5.4846e+001 43890 94634,94790,94660
 5.0000e-001 94862 -1.0676e+002 -6.7366e+001  7.4799e+001 43890 94712,94764,94738
 5.0000e-001 94839 -6.2814e+001 -1.4600e+002  8.0963e+001 43890 94712,94790,94764
 5.0000e-001 94816 -6.0296e+001 -2.0057e+002  1.1318e+002 43890 94660,94712,94686
 5.0000e-001 95414 -1.4112e+002 -1.2824e+002  5.4497e+001 43186 95437,95143,95117
 5.0000e-001 95391 -1.3745e+002 -1.8149e+002  7.7837e+001 43186 95437,95117,95091
 5.0000e-001 95368 -7.7442e+001 -8.0618e+001  3.7231e+001 43186 95143,95221,95195
 5.0000e-001 95345 -2.1764e+002 -1.7376e+002  1.3594e+002 43186 95091,95273,95221
 5.0000e-001 95322 -1.5334e+002 -1.2121e+002  6.7064e+001 43186 95221,95273,95247
 5.0000e-001 95299 -1.1480e+002 -2.6638e+002  7.0364e+001 43186 95143,95195,95169
 5.0000e-001 95463 -1.5810e+002 -1.6465e+002  7.8058e+001 43186 95221,95143,95437
 5.0000e-001 95486 -1.4829e+002 -2.0755e+002  1.0168e+002 43186 95221,95437,95091
 5.0000e-001 96041 -1.7817e+002 -1.9998e+002  4.1921e+001 42782 95695,95851,95799
 5.0000e-001 96018 -1.5484e+002 -2.0172e+002  4.9712e+001 42782 95669,95851,95695
 5.0000e-001 95995 -1.9746e+002 -1.5334e+002  5.4852e+001 42782 95695,95747,95721
 5.0000e-001 95972 -1.5193e+002 -1.8878e+002  4.8508e+001 42782 95695,95799,95747
 5.0000e-001 95949 -1.4155e+002 -1.5758e+002  4.3915e+001 42782 95747,95799,95773
 5.0000e-001 95926 -2.5159e+002 -2.2096e+002  1.0161e+002 42782 95799,95851,95825
 5.0000e-001 95903 -1.9577e+002 -2.1611e+002  4.5044e+001 42782 95669,95877,95851
 5.0000e-001 96370 -2.1037e+002 -2.5540e+002  1.1447e+002 42420 96197,96275,96223
 5.0000e-001 96347 -1.9650e+002 -2.0997e+002  1.1024e+002 42420 96145,96275,96197
 5.0000e-001 96324 -1.9510e+002 -1.3970e+002  1.0499e+002 42420 96145,96197,96171
 5.0000e-001 96301 -1.6101e+002 -1.8725e+002  8.7421e+001 42420 96223,96275,96249
 5.0000e-001 96699 -1.4179e+002 -1.4292e+002  6.6956e+001 41816 96474,96578,96526
 5.0000e-001 96676 -9.2980e+001 -6.3770e+001  1.4093e+000 41816 96474,96604,96578
 5.0000e-001 96653 -1.4018e+002 -7.9593e+001  9.1318e+001 41816 96526,96578,96552
 5.0000e-001 96630 -1.1131e+002 -1.1523e+002  3.3096e+001 41816 96474,96526,96500
 5.0000e-001 96947 -8.7319e+001 -2.0699e+002  9.4865e+001 41212 96722,96800,96748
 5.0000e-001 96924 -1.4192e+002 -1.5972e+002  1.2003e+002 41212 96722,96826,96800
 5.0000e-001 96901 -1.4587e+002 -1.0987e+002  6.0725e+001 41212 96722,96852,96826
 5.0000e-001 96878 -1.8375e+002 -2.5598e+002  6.3377e+001 41212 96748,96800,96774
 5.0000e-001 97097 -8.2411e+001 -1.0264e+002  9.2307e+001 40793 97120,97022,96996
 5.0000e-001 97074 -1.3859e+002 -2.2132e+002  7.0882e+001 40793 97192,97120,96996
 5.0000e-001 97146 -7.5144e+001 -1.7837e+002  9.1415e+001 40793 97324,97120,97048
 5.0000e-001 97169 -4.7736e+001 -2.4976e+002  9.8777e+001 40793 97048,97120,96970
 5.0000e-001 97218  1.9946e+001 -1.5333e+002  6.8464e+001 40793 96970,97120,97192
 5.0000e-001 97350 -7.5144e+001 -1.7837e+002  9.1415e+001 40793 97022,97120,97324
 5.0000e-001 97878 -1.1082e+002 -2.3778e+002  5.1580e+001 40446 97901,97607,97555
 5.0000e-001 97855 -1.2487e+002 -1.6795e+002  5.8168e+001 40446 97973,97901,97555
 5.0000e-001 97832 -1.2294e+002 -1.4741e+002  4.0828e+001 40446 97973,97555,97737
 5.0000e-001 97809 -1.4869e+002 -2.0079e+002  5.0763e+001 40446 97633,97685,97659
 5.0000e-001 97786 -1.0664e+002 -1.8831e+002  4.8887e+001 40446 97633,97711,97685
 5.0000e-001 97763 -1.1246e+002 -2.7402e+002  6.0945e+001 40446 97555,97607,97581
 5.0000e-001 97927 -1.4440e+002 -3.0286e+002 -3.6048e+000 40446 97633,97607,97901
 5.0000e-001 97950 -1.2369e+002 -2.2286e+002  3.7336e+001 40446 97633,97901,97711
 5.0000e-001 97999 -1.1443e+002 -2.2590e+002  6.2680e+001 40446 97711,97901,97973
 5.0000e-001 98022 -1.0470e+002 -1.8724e+002  5.0362e+001 40446 97711,97973,97737
 5.0000e-001 98449 -1.0962e+002 -6.9891e+001  5.9585e+001 39935 98152,98204,98178
 5.0000e-001 98426 -1.4630e+002 -9.1211e+001  4.1938e+001 39935 98152,98230,98204
 5.0000e-001 98403 -1.8300e+002 -8.9346e+001  7.5126e+001 39935 98152,98256,98230
 5.0000e-001 98380 -1.2697e+002 -1.4644e+002  9.8747e+001 39935 98126,98256,98152
 5.0000e-001 98357 -1.6223e+002 -2.3598e+002  1.0475e+002 39935 98126,98282,98256
 5.0000e-001 98334 -1.1548e+002 -3.4269e+002  1.4715e+002 39935 98126,98308,98282
 5.0000e-001 98746 -3.1083e+002 -2.1307e+002  5.1582e+001 39531 98498,98602,98524
 5.0000e-001 98723 -2.2538e+002 -1.7487e+002  6.4577e+001 39531 98472,98602,98498
 5.0000e-001 98700 -2.7079e+002 -1.5178e+002  7.0772e+001 39531 98524,98602,98576
 5.0000e-001 98677 -1.8724e+002 -2.0783e+002  8.8239e+001 39531 98472,98628,98602
 5.0000e-001 98654 -4.5938e+002 -1.7647e+002  7.7866e+001 39531 98524,98576,98550
 5.0000e-001 99224 -2.0735e+002 -1.0616e+002  1.8235e+002 39027 99247,98956,98930
 5.0000e-001 99201 -2.2398e+002 -2.0107e+002  1.0314e+002 39027 99247,98930,98878
 5.0000e-001 99178 -1.7839e+002 -2.0214e+002  1.4970e+002 39027 99319,98982,98956
 5.0000e-001 99155 -1.4009e+002 -1.1668e+002  1.2355e+002 39027 98852,99060,98878
 5.0000e-001 99132 -1.6224e+002 -1.2525e+002  6.7395e+001 39027 98878,98930,98904
 5.0000e-001 99109 -2.5822e+002 -3.9328e+002  2.2636e+002 39027 98982,99060,99034
 5.0000e-001 99086 -2.9567e+002 -4.2185e+002  3.0595e+002 39027 98982,99034,99008
 5.0000e-001 99273 -1.7382e+002 -1.8643e+002  1.4557e+002 39027 99319,98956,99247
 5.0000e-001 99296 -1.7001e+002 -1.7771e+002  1.0534e+002 39027 99060,99247,98878
 5.0000e-001 99345 -1.6868e+002 -2.0885e+002  1.3924e+002 39027 99060,98982,99319
 5.0000e-001 99368 -1.6452e+002 -2.0400e+002  1.3613e+002 39027 99060,99319,99247
 5.0000e-001 99923 -2.4676e+002 -1.8181e+002  8.7639e+001 38523 99946,99655,99603
 5.0000e-001 99900 -1.9604e+002 -1.5835e+002  9.3549e+001 38523 99946,99603,99759
 5.0000e-001 99877 -1.1397e+002 -2.2942e+002  1.1991e+002 38523 100018,99707,99681
 5.0000e-001 99854 -2.0181e+002 -1.0761e+002  8.9104e+001 38523 99551,99759,99603
 5.0000e-001 99831 -1.7730e+002 -8.7264e+001  7.0371e+001 38523 99551,99603,99577
 5.0000e-001 99808 -2.0350e+002 -3.1242e+002  9.4588e+001 38523 99707,99759,99733
 5.0000e-001 99785 -1.9315e+002 -1.5897e+002  7.4972e+001 38523 99603,99655,99629
 5.0000e-001 99972 -2.0471e+002 -1.0076e+002  1.1420e+002 38523 99681,99655,99946
 5.0000e-001 99995 -1.4661e+002 -1.2543e+002  1.4272e+002 38523 100018,99681,99946
 5.0000e-001 100044 -1.6227e+002 -2.7595e+002  7.7383e+001 38523 99759,99707,100018
 5.0000e-001 100067 -2.2793e+002 -2.3070e+002  9.8726e+001 38523 99759,100018,99946
 5.0000e-001 100467 -8.9114e+001 -1.6724e+002  6.8023e+001 38125 100219,100349,100323
 5.0000e-001 100444 -1.1416e+000 -6.3703e+000  1.0247e+002 38125 100193,100349,100219
 5.0000e-001 100421 -6.8338e+001 -2.3137e+002  8.0633e+001 38125 100245,100323,100297
 5.0000e-001 100398 -6.4582e+001 -1.5350e+002  8.8339e+001 38125 100219,100323,100245
 5.0000e-001 100375 -1.3108e+002 -2.2876e+002  1.4239e+002 38125 100245,100297,100271
 5.0000e-001 100666 -2.2438e+002 -2.1423e+002  8.2558e+001 37607 100689,100568,100542
 5.0000e-001 100643 -2.1286e+002 -1.6723e+002  6.9623e+001 37607 100689,100542,100490
 5.0000e-001 100620 -2.1056e+002 -1.2157e+002  6.9791e+001 37607 100490,100542,100516
 5.0000e-001 100715 -1.9450e+002 -1.7165e+002  6.8926e+001 37607 100594,100568,100689
 5.0000e-001 100738 -2.1456e+002 -1.5910e+002  6.5851e+001 37607 100594,100689,100490
 5.0000e-001 100937 -1.7871e+002 -8.1764e+001  1.4514e+002 37017 100960,100813,100787
 5.0000e-001 100914 -1.7898e+002 -9.5552e+001  1.1177e+002 37017 100960,100787,100761
 5.0000e-001 100891 -2.1154e+002 -6.5928e+001  1.2415e+002 37017 100813,100865,100839
 5.0000e-001 100986 -1.8797e+002 -1.2021e+002  1.4029e+002 37017 100865,100813,100960
 5.0000e-001 101009 -1.9087e+002 -1.2829e+002  1.0383e+002 37017 100865,100960,100761
 5.0000e-001 101519 -2.7904e+002 -2.4834e+002  1.2471e+002 36613 101222,101274,101248
 5.0000e-001 101496 -1.7377e+002 -1.6581e+002  8.3175e+001 36613 101222,101352,101274
 5.0000e-001 101473 -1.9878e+002 -2.3801e+002  8.3241e+001 36613 101274,101352,101326
 5.0000e-001 101450 -1.4734e+002 -1.1372e+002  1.0599e+002 36613 101222,101378,101352
 5.0000e-001 101427 -9.7252e+001 -3.2830e+002  1.4043e+002 36613 101274,101326,101300
 5.0000e-001 101404 -1.3862e+002 -4.2533e+001  3.2199e+001 36613 101196,101378,101222
 5.0000e-001 101718 -2.0389e+002 -9.7459e+001  1.0304e+002 36308 101594,101646,101620
 5.0000e-001 101695 -2.0730e+002 -9.7455e+001  9.4430e+001 36308 101568,101646,101594
 5.0000e-001 101672 -2.1144e+002 -1.0440e+002  9.2353e+001 36308 101542,101646,101568
 5.0000e-001 102098 -1.9057e+002 -1.1427e+002  7.8506e+001 35918 102121,101954,101876
 5.0000e-001 102075 -1.4094e+002 -1.5881e+002  6.0522e+001 35918 102121,101876,101824
 5.0000e-001 102052 -2.1935e+002 -1.2809e+002  6.5339e+001 35918 101876,101954,101928
 5.0000e-001 102029 -2.8634e+002 -4.3326e+001  6.8689e+001 35918 101876,101928,101902
 5.0000e-001 102006 -1.2225e+002 -1.0521e+002  2.7560e+001 35918 101824,101876,101850
 5.0000e-001 102147 -2.1466e+002 -1.5520e+002  9.8985e+001 35918 101980,101954,102121
 5.0000e-001 102170 -1.6312e+002 -2.0213e+002  7.7140e+001 35918 101980,102121,101824
 5.0000e-001 102489 -1.4455e+002 -3.2365e+002  1.2194e+002 35514 102241,102345,102267
 5.0000e-001 102466 -1.7208e+002 -3.1484e+002  1.0582e+002 35514 102215,102345,102241
 5.0000e-001 102443 -1.4686e+002 -3.4751e+002  1.1505e+002 35514 102215,102371,102345
 5.0000e-001 102420 -1.4149e+002 -3.3345e+002  1.2114e+002 35514 102267,102345,102293
 5.0000e-001 102397 -9.8267e+001 -2.3523e+002  1.2778e+002 35514 102293,102345,102319
 5.0000e-001 102820 -1.7948e+002 -1.6272e+002  4.8420e+001 35224 102843,102699,102647
 5.0000e-001 102797 -2.4592e+002 -1.6546e+002  9.3700e+001 35224 102971,102725,102699
 5.0000e-001 102774 -1.7197e+002 -1.8860e+002  1.0092e+002 35224 102595,102725,102621
 5.0000e-001 102751 -8.6856e+001 -8.0979e+001  8.3343e+001 35224 102647,102699,102673
 5.0000e-001 102869 -1.7918e+002 -1.5861e+002  8.8740e+001 35224 102971,102699,102843
 5.0000e-001 102997 -1.6824e+002 -1.8820e+002  9.8814e+001 35224 102621,102725,102971
 5.0000e-001 103020 -8.8718e+001 -1.7116e+002  1.0229e+002 35224 102621,102971,102843
 5.0000e-001 103349 -2.0929e+002 -1.6616e+002  9.8525e+001 34820 103150,103228,103176
 5.0000e-001 103326 -1.9249e+002 -1.8311e+002  9.5691e+001 34820 103124,103228,103150
 5.0000e-001 103303 -1.6757e+002 -1.5634e+002  1.6335e+002 34820 103176,103228,103202
 5.0000e-001 103280 -1.1982e+002 -1.4712e+002  1.2925e+002 34820 103124,103254,103228
 5.0000e-001 103806 -2.5109e+002 -1.5201e+002  8.3896e+001 34530 103558,103662,103636
 5.0000e-001 103783 -1.9120e+002 -1.4592e+002  6.4725e+001 34530 103558,103688,103662
 5.0000e-001 103760 -2.0944e+002 -1.8561e+002  6.0551e+001 34530 103532,103688,103558
 5.0000e-001 103737 -2.3237e+002 -1.7566e+002  9.7630e+001 34530 103584,103636,103610
 5.0000e-001 103714 -3.7413e+002 -1.8960e+002  9.4920e+001 34530 103558,103636,103584
 5.0000e-001 104263 -1.0897e+002 -1.0252e+002  7.5712e+001 34019 103989,104119,104015
 5.0000e-001 104240 -8.5081e+001 -9.1931e+001  7.7529e+001 34019 103989,104145,104119
 5.0000e-001 104217 -9.3895e+001 -1.4158e+002  4.9211e+001 34019 104015,104067,104041
 5.0000e-001 104194 -1.2534e+002 -1.5622e+002  6.3807e+001 34019 104015,104119,104067
 5.0000e-001 104171 -1.4055e+002 -9.8225e+001  6.2279e+001 34019 104067,104119,104093
 5.0000e-001 104641 -1.9821e+002 -9.7562e+001  7.4906e+001 33351 104419,104497,104445
 5.0000e-001 104618 -2.1400e+002 -1.0279e+002  7.3766e+001 33351 104393,104497,104419
 5.0000e-001 104595 -2.6736e+002 -1.2947e+002  5.8380e+001 33351 104367,104497,104393
 5.0000e-001 104572 -1.8459e+002 -7.0500e+001  2.7996e+001 33351 104445,104497,104471
 5.0000e-001 104549 -2.4336e+002 -9.6573e+001  4.7355e+001 33351 104367,104523,104497
 5.0000e-001 105019 -1.7005e+002 -2.8393e+002  1.3949e+002 32861 104823,104901,104875
 5.0000e-001 104996 -2.1098e+002 -2.7955e+002  1.1708e+002 32861 104745,104901,104823
 5.0000e-001 104973 -2.7221e+002 -3.2674e+002  1.4430e+002 32861 104823,104875,104849
 5.0000e-001 104950 -2.1037e+002 -2.6761e+002  1.3726e+002 32861 104745,104823,104797
 5.0000e-001 104927 -2.0658e+002 -9.9879e+001  1.4582e+002 32861 104745,104797,104771
 5.0000e-001 105397 -1.1038e+002 -1.8109e+002  9.0500e+001 32457 105149,105253,105175
 5.0000e-001 105374 -1.8883e+002 -1.6873e+002  7.9568e+001 32457 105149,105279,105253
 5.0000e-001 105351 -8.2138e+001 -1.4532e+002  8.4753e+001 32457 105123,105279,105149
 5.0000e-001 105328 -2.6152e+002 -5.0497e+001  2.0047e+002 32457 105175,105227,105201
 5.0000e-001 105305 -2.3627e+002 -2.3138e+002  1.1430e+002 32457 105175,105253,105227
 5.0000e-001 105726 -8.0620e+001 -2.0489e+002  1.0263e+002 32003 105527,105605,105553
 5.0000e-001 105703 -1.4748e+002 -1.6857e+002  9.0042e+001 32003 105501,105605,105527
 5.0000e-001 105680 -7.8309e+001 -1.3791e+002  8.4484e+001 32003 105501,105631,105605
 5.0000e-001 105657 -3.7974e+001 -1.1154e+002  8.9859e+001 32003 105553,105605,105579
 5.0000e-001 106104 -1.9362e+002 -1.2454e+002  1.0775e+002 31492 106127,105908,105856
 5.0000e-001 106081 -2.1429e+002 -1.3087e+002  7.8615e+001 31492 106127,105856,105830
 5.0000e-001 106058 -1.8154e+002 -1.9739e+002  1.2535e+002 31492 105856,105908,105882
 5.0000e-001 106035 -1.8556e+002 -1.6330e+002  5.7206e+001 31492 105830,105986,105960
 5.0000e-001 106012 -1.2137e+002 -1.7101e+002  1.2157e+002 31492 105908,105960,105934
 5.0000e-001 106153 -1.8993e+002 -1.5515e+002  8.7829e+001 31492 105960,105908,106127
 5.0000e-001 106176 -2.0515e+002 -1.7510e+002  6.2137e+001 31492 105960,106127,105830
 5.0000e-001 106375 -1.7726e+002 -1.2136e+002  1.0872e+002 30788 106398,106277,106251
 5.0000e-001 106352 -1.9943e+002 -2.0088e+002  1.0942e+002 30788 106398,106251,106225
 5.0000e-001 106329 -2.5042e+002 -1.8838e+002  1.4196e+002 30788 106600,106199,106303
 5.0000e-001 106424 -2.6038e+002 -2.3748e+002  7.8513e+001 30788 106470,106398,106303
 5.0000e-001 106447 -1.9841e+002 -2.0346e+002  1.1502e+002 30788 106600,106303,106398
 5.0000e-001 106496 -7.2073e+001 -1.5629e+002  9.2655e+001 30788 106277,106398,106470
 5.0000e-001 106626 -2.7926e+002 -2.1988e+002  1.6773e+002 30788 106225,106199,106600
 5.0000e-001 106649 -2.4614e+002 -2.3974e+002  1.3959e+002 30788 106225,106600,106398
 5.0000e-001 106799 -9.8960e+001 -2.2032e+002  4.1560e+001 30426 106698,106750,106724
 5.0000e-001 106776 -5.6683e+001 -1.3361e+002  6.1656e+001 30426 106672,106750,106698
 5.0000e-001 107356 -2.2613e+002 -1.4464e+002  7.1661e+001 29972 107010,107166,107114
 5.0000e-001 107333 -2.0919e+002 -1.2248e+002  9.0224e+001 29972 106984,107166,107010
 5.0000e-001 107310 -2.1988e+002 -7.6787e+001  3.9928e+001 29972 107010,107114,107088
 5.0000e-001 107287 -1.9655e+002 -4.4732e+001  6.1949e+001 29972 107114,107166,107140
 5.0000e-001 107264 -2.0305e+002 -1.4229e+002  1.0351e+002 29972 106984,107192,107166
 5.0000e-001 107241 -2.2804e+002 -1.3818e+002  3.2272e+001 29972 107010,107088,107036
 5.0000e-001 107218 -2.1573e+002 -1.3562e+002  6.3851e+001 29972 107036,107088,107062
 5.0000e-001 107783 -1.7054e+002 -2.2017e+002  1.1738e+002 29724 107878,107806,107590
 5.0000e-001 107760 -2.7946e+002 -2.5588e+002  1.1091e+002 29724 107806,107512,107486
 5.0000e-001 107737 -1.6628e+002 -2.1378e+002  1.2225e+002 29724 107878,107590,107538
 5.0000e-001 107714 -1.9338e+002 -2.6828e+002  1.4687e+002 29724 107950,107460,107616
 5.0000e-001 107691 -2.0820e+002 -2.7159e+002  1.3295e+002 29724 107460,107642,107616
 5.0000e-001 107668 -1.2442e+002 -1.0779e+002  1.5444e+002 29724 107538,107590,107564
 5.0000e-001 107832 -1.3901e+002 -2.3512e+002  1.5864e+002 29724 107616,107590,107806
 5.0000e-001 107855 -1.9306e+002 -2.7043e+002  1.4133e+002 29724 107950,107616,107806
 5.0000e-001 107904 -1.9300e+002 -2.1146e+002  1.4862e+002 29724 107512,107806,107878
 5.0000e-001 107927 -1.3716e+002 -1.7951e+002  1.6163e+002 29724 107512,107878,107538
 5.0000e-001 107976 -1.4194e+002 -2.7691e+002  1.6496e+002 29724 107486,107460,107950
 5.0000e-001 107999 -1.8748e+002 -2.8918e+002  1.3991e+002 29724 107486,107950,107806
 5.0000e-001 108296 -1.7418e+002 -1.6311e+002  7.8041e+001 29206 108319,108100,108048
 5.0000e-001 108273 -1.0004e+002 -1.5536e+002  1.1535e+002 29206 108319,108048,108022
 5.0000e-001 108250 -7.0583e+001 -1.7144e+002  1.3621e+002 29206 108391,108152,108126
 5.0000e-001 108227 -2.6553e+002 -7.3588e+001  1.2899e+002 29206 108048,108100,108074
 5.0000e-001 108204 -9.8951e+001 -2.2920e+002  1.2474e+002 29206 108022,108178,108152
 5.0000e-001 108345 -1.2295e+002 -7.2959e+001  1.1023e+002 29206 108126,108100,108319
 5.0000e-001 108368 -8.3273e+001 -1.4329e+002  1.4716e+002 29206 108391,108126,108319
 5.0000e-001 108417 -9.9009e+001 -2.0173e+002  1.1831e+002 29206 108022,108152,108391
 5.0000e-001 108440 -1.1074e+002 -1.8257e+002  1.3120e+002 29206 108022,108391,108319
 5.0000e-001 108688 -2.9735e+002 -2.2859e+002  1.3626e+002 28595 108711,108541,108515
 5.0000e-001 108665 -3.9033e+002 -2.4628e+002  1.7761e+002 28595 108783,108711,108515
 5.0000e-001 108642 -4.3550e+002 -2.2888e+002  1.7384e+002 28595 108783,108515,108489
 5.0000e-001 108619 -4.2824e+002 -2.9910e+002  1.0055e+002 28595 108463,108593,108489
 5.0000e-001 108737 -2.7501e+002 -1.9050e+002  8.8927e+001 28595 108567,108541,108711
 5.0000e-001 108760 -2.6960e+002 -2.1007e+002  1.5327e+002 28595 108567,108711,108593
 5.0000e-001 108809 -2.9639e+002 -2.6390e+002  1.4405e+002 28595 108593,108711,108783
 5.0000e-001 108832 -3.7573e+002 -2.7021e+002  1.2522e+002 28595 108593,108783,108489
 5.0000e-001 109033 -1.1481e+002 -1.1933e+002  9.6778e+001 28091 108909,108961,108935
 5.0000e-001 109010 -2.0375e+002 -1.3403e+002  7.0658e+001 28091 108857,108961,108909
 5.0000e-001 108987 -2.5928e+002 -1.8184e+002  1.2742e+002 28091 108857,108909,108883
 5.0000e-001 109136 -1.5286e+002 -3.5832e+002  6.7575e+001 27587 109058,109110,109084
 5.0000e-001 109695 -1.7894e+002 -1.7343e+002  6.2615e+001 26969 109718,109375,109323
 5.0000e-001 109672 -1.8178e+002 -1.6728e+002  7.1181e+001 26969 109718,109323,109505
 5.0000e-001 109649 -2.1269e+002 -5.8014e+001  3.6369e+001 26969 109790,109453,109427
 5.0000e-001 109626 -9.2194e+001 -1.6645e+002  8.6801e+001 26969 109323,109375,109349
 5.0000e-001 109603 -2.2939e+002 -2.3569e+002  1.1284e+002 26969 109323,109531,109505
 5.0000e-001 109580 -1.5286e+002 -2.0877e+002  4.3809e+001 26969 109375,109427,109401
 5.0000e-001 109557 -2.2712e+002 -8.8433e+001  3.7780e+001 26969 109453,109505,109479
 5.0000e-001 109744 -1.9462e+002 -1.9663e+002  3.2802e+001 26969 109427,109375,109718
 5.0000e-001 109767 -1.5654e+002 -1.0967e+002  3.8112e+001 26969 109790,109427,109718
 5.0000e-001 109816 -2.4170e+002 -1.1060e+002  6.1177e+001 26969 109505,109453,109790
 5.0000e-001 109839 -2.0445e+002 -1.7382e+002  7.1008e+001 26969 109505,109790,109718
 5.0000e-001 110266 -1.5843e+002 -2.4097e+002  1.0368e+002 26515 110361,110289,110099
 5.0000e-001 110243 -1.5632e+002 -1.9635e+002  1.4386e+002 26515 110289,109995,109943
 5.0000e-001 110220 -1.4860e+002 -2.4002e+002  1.1889e+002 26515 110361,110099,110021
 5.0000e-001 110197 -7.3335e+001 -2.4998e+002  9.0897e+001 26515 110047,110099,110073
 5.0000e-001 110174 -1.1874e+002 -3.5462e+002  6.4678e+001 26515 110021,110099,110047
 5.0000e-001 110151  2.3881e+001  3.7404e+001  2.2650e+002 26515 109943,109995,109969
 5.0000e-001 110315 -2.7584e+002 -1.8807e+002  8.9605e+001 26515 110125,110099,110289
 5.0000e-001 110338 -1.6259e+002 -7.0278e+001  1.6553e+002 26515 110125,110289,109943
 5.0000e-001 110387 -1.4386e+002 -2.0772e+002  1.0672e+002 26515 109995,110289,110361
 5.0000e-001 110410 -1.4175e+002 -2.2299e+002  1.1958e+002 26515 109995,110361,110021
 5.0000e-001 110609 -1.0812e+002 -2.1606e+002  9.1924e+001 25789 110906,110762,110632
 5.0000e-001 110586 -1.0438e+002 -2.8125e+002  1.1087e+002 25789 110762,110433,110537
 5.0000e-001 110563 -1.9621e+002 -2.3025e+002  1.4225e+002 25789 110834,110459,110433
 5.0000e-001 110658 -1.3900e+002 -2.0781e+002  1.1144e+002 25789 110906,110632,110834
 5.0000e-001 110788 -8.1466e+001 -1.2640e+002  5.9628e+001 25789 110511,110632,110762
 5.0000e-001 110811 -9.5665e+001 -2.0982e+002  1.1127e+002 25789 110511,110762,110537
 5.0000e-001 110860 -1.3093e+002 -2.0244e+002  1.4037e+002 25789 110485,110459,110834
 5.0000e-001 110883 -1.5983e+002 -2.2812e+002  1.2045e+002 25789 110485,110834,110632
 5.0000e-001 110932 -1.6619e+002 -2.3359e+002  9.4662e+001 25789 110433,110762,110906
 5.0000e-001 110955 -1.9036e+002 -2.1835e+002  1.0982e+002 25789 110433,110906,110834
 5.0000e-001 111350 -2.2372e+002 -2.0158e+002  1.4353e+002 25228 111445,111373,111186
 5.0000e-001 111327 -2.4009e+002 -2.5280e+002  9.5452e+001 25228 110978,111186,111004
 5.0000e-001 111304 -2.5501e+002 -2.4874e+002  1.0864e+002 25228 111373,111108,111082
 5.0000e-001 111281 -1.6710e+002 -2.9025e+002  1.1971e+002 25228 111134,111186,111160
 5.0000e-001 111258 -2.1163e+002 -1.8415e+002  1.5812e+002 25228 111445,111186,111134
 5.0000e-001 111235 -2.2417e+002 -2.0052e+002  8.9435e+001 25228 111517,111030,111004
 5.0000e-001 111212 -2.9372e+002 -2.2874e+002  1.0374e+002 25228 111030,111082,111056
 5.0000e-001 111399 -2.4215e+002 -2.5625e+002  1.3205e+002 25228 111004,111186,111373
 5.0000e-001 111422 -2.0635e+002 -2.0791e+002  1.1466e+002 25228 111517,111004,111373
 5.0000e-001 111471 -2.5292e+002 -2.0665e+002  1.1122e+002 25228 111108,111373,111445
 5.0000e-001 111494 -2.3782e+002 -1.8356e+002  1.2650e+002 25228 111108,111445,111134
 5.0000e-001 111543 -2.6700e+002 -2.1871e+002  8.9112e+001 25228 111082,111030,111517
 5.0000e-001 111566 -2.4663e+002 -2.2522e+002  1.1561e+002 25228 111082,111517,111373
 5.0000e-001 112074 -2.4646e+002 -1.8811e+002  1.0761e+002 24338 112097,111907,111881
 5.0000e-001 112051 -2.7335e+002 -1.8893e+002  8.7394e+001 24338 112097,111881,111829
 5.0000e-001 112028 -1.4949e+002 -1.8938e+002  8.5103e+001 24338 111829,111881,111855
 5.0000e-001 112005 -2.9411e+002 -2.4089e+002  6.9407e+001 24338 111777,111933,111829
 5.0000e-001 111982 -3.1291e+002 -8.3519e+001  8.3224e+001 24338 111751,111933,111777
 5.0000e-001 111959 -3.2215e+002 -3.2530e+002  1.1981e+002 24338 111777,111829,111803
 5.0000e-001 112123 -2.7338e+002 -2.3716e+002  9.6160e+001 24338 111933,111907,112097
 5.0000e-001 112146 -2.8110e+002 -1.9784e+002  8.3422e+001 24338 111933,112097,111829
 5.0000e-001 112443 -2.9612e+002 -1.9510e+002  9.6514e+001 23998 112466,112299,112247
 5.0000e-001 112420 -3.1847e+002 -2.9628e+002  9.7033e+001 23998 112466,112247,112221
 5.0000e-001 112397 -3.7020e+002 -3.0398e+002  1.2353e+002 23998 112169,112325,112221
 5.0000e-001 112374 -3.1005e+002 -2.3740e+002  1.6180e+002 23998 112169,112221,112195
 5.0000e-001 112351 -2.1159e+002 -1.5925e+002  1.1948e+002 23998 112247,112299,112273
 5.0000e-001 112492 -2.9975e+002 -2.0665e+002  1.5738e+002 23998 112325,112299,112466
 5.0000e-001 112515 -3.1891e+002 -2.6373e+002  1.4323e+002 23998 112325,112466,112221
 5.0000e-001 113200 -2.4366e+002 -2.4977e+002  1.5873e+002 23480 112779,112961,112805
 5.0000e-001 113177 -2.3979e+002 -1.9698e+002  9.1842e+001 23480 112779,112987,112961
 5.0000e-001 113154 -1.2138e+002 -1.5583e+002  1.1304e+002 23480 112805,112961,112883
 5.0000e-001 113131 -1.7166e+002 -2.3570e+002  1.0910e+002 23480 112883,112935,112909
 5.0000e-001 113108 -2.1058e+002 -1.9501e+002  1.0724e+002 23480 112883,112961,112935
 5.0000e-001 113085 -1.2574e+002 -1.2448e+002  5.3916e+001 23480 112831,112883,112857
 5.0000e-001 113062 -1.6696e+002 -1.5286e+002  7.0369e+001 23480 112805,112883,112831
 5.0000e-001 113039 -3.0853e+002 -1.4004e+002  1.0337e+002 23480 112779,113013,112987
 5.0000e-001 113676 -2.3765e+002 -1.3606e+002  1.3136e+002 23018 113699,113434,113356
 5.0000e-001 113653 -1.9054e+002 -1.2004e+002  1.0569e+002 23018 113771,113699,113356
 5.0000e-001 113630 -1.7190e+002 -1.7313e+002  8.4710e+001 23018 113771,113356,113512
 5.0000e-001 113607 -1.5055e+002 -2.0249e+002  1.0628e+002 23018 113330,113512,113356
 5.0000e-001 113584 -4.3367e+002 -1.8831e+002  1.9818e+002 23018 113356,113434,113382
 5.0000e-001 113561 -5.5288e+001 -1.9259e+002  1.0328e+002 23018 113304,113512,113330
 5.0000e-001 113538 -4.0604e+002 -6.1045e+001  8.3043e+001 23018 113382,113434,113408
 5.0000e-001 113725 -2.4654e+002 -1.7189e+002  1.5906e+002 23018 113460,113434,113699
 5.0000e-001 113748 -1.7586e+002 -1.4304e+002  1.5057e+002 23018 113460,113699,113486
 5.0000e-001 113797 -2.3736e+002 -1.9602e+002  1.2551e+002 23018 113486,113699,113771
 5.0000e-001 113820 -1.9127e+002 -2.0828e+002  9.3043e+001 23018 113486,113771,113512
 5.0000e-001 114424 -2.7378e+002 -2.2908e+002  5.7653e+001 22514 114447,114133,114029
 5.0000e-001 114401 -2.7661e+002 -2.6287e+002  5.9779e+001 22514 114447,114029,114237
 5.0000e-001 114378 -2.5917e+002 -1.8179e+002  3.5330e+001 22514 114133,114211,114185
 5.0000e-001 114355 -3.8485e+002 -2.0456e+002  1.3277e+001 22514 114133,114185,114159
 5.0000e-001 114332 -2.6853e+002 -2.8142e+002  1.3155e+002 22514 114003,114237,114029
 5.0000e-001 114309 -2.7449e+002 -1.7143e+002  3.8269e+001 22514 114029,114133,114055
 5.0000e-001 114286 -2.4561e+002 -1.8003e+002  2.7730e+001 22514 114055,114133,114107
 5.0000e-001 114263 -1.7431e+002  2.3098e+000  3.5122e+001 22514 114055,114107,114081
 5.0000e-001 114473 -2.8497e+002 -2.0885e+002  6.9405e+001 22514 114211,114133,114447
 5.0000e-001 114496 -2.8183e+002 -2.3438e+002  7.0578e+001 22514 114211,114447,114237
 5.0000e-001 114597 -1.4024e+002 -3.4380e+002  2.1303e+002 22316 114620,114571,114545
 5.0000e-001 114646 -1.4024e+002 -3.4380e+002  2.1303e+002 22316 114519,114571,114620
 5.0000e-001 115127 -3.7813e+002 -2.3167e+002  9.5388e+001 21612 115150,114905,114879
 5.0000e-001 115104 -4.1283e+002 -1.3949e+002  1.0226e+002 21612 115150,114879,114853
 5.0000e-001 115081 -3.4786e+002 -9.8149e+001  1.3739e+002 21612 115222,114931,114905
 5.0000e-001 115058 -3.5312e+002 -1.7404e+002  1.2378e+002 21612 115222,114905,115009
 5.0000e-001 115035 -2.5885e+002 -2.1240e+002  1.2241e+002 21612 114957,115009,114983
 5.0000e-001 115176 -3.5705e+002 -1.6109e+002  9.2367e+001 21612 115009,114905,115150
 5.0000e-001 115199 -3.8316e+002 -5.6147e+001  9.5686e+001 21612 115009,115150,114853
 5.0000e-001 115248 -3.4801e+002 -1.6595e+002  1.2654e+002 21612 114957,114931,115222
 5.0000e-001 115271 -3.4983e+002 -2.3634e+002  1.1208e+002 21612 114957,115222,115009
 5.0000e-001 115519 -8.6450e+001  8.2449e+001  1.0144e+002 21208 115542,115372,115320
 5.0000e-001 115496 -9.6106e+000  1.3272e+002  7.9513e+000 21208 115542,115320,115294
 5.0000e-001 115473 -6.2486e+001 -1.5438e+002  1.5396e+002 21208 115320,115372,115346
 5.0000e-001 115450 -1.4223e+002 -1.4304e+001  1.5825e+001 21208 115294,115424,115398
 5.0000e-001 115568 -1.1631e+002  3.8187e+001  1.1920e+002 21208 115398,115372,115542
 5.0000e-001 115591 -9.9083e+001 -3.4056e+001  4.2678e+001 21208 115398,115542,115294
 5.0000e-001 115839 -3.1649e+002 -1.5240e+002  1.3950e+002 20668 115862,115640,115614
 5.0000e-001 115816 -3.3945e+002 -1.4303e+002  1.5102e+002 20668 115862,115614,115744
 5.0000e-001 115793 -4.3832e+002 -1.8473e+002  1.2155e+002 20668 115640,115718,115692
 5.0000e-001 115770 -4.1150e+002 -1.7429e+002  1.1976e+002 20668 115640,115692,115666
 5.0000e-001 115888 -3.4384e+002 -1.5789e+002  1.3552e+002 20668 115718,115640,115862
 5.0000e-001 115911 -3.5994e+002 -1.4549e+002  1.5164e+002 20668 115718,115862,115744
 5.0000e-001 116134 -1.1764e+002 -2.4642e+002  1.2708e+002 20264 115958,116036,115984
 5.0000e-001 116111 -9.9529e+001 -2.3786e+002  1.2453e+002 20264 115958,116062,116036
 5.0000e-001 116088 -1.0210e+002 -2.4438e+002  1.2996e+002 20264 115984,116036,116010
 5.0000e-001 116384 -2.5136e+002 -1.4248e+002  1.1384e+002 19924 116407,116211,116159
 5.0000e-001 116361 -2.5115e+002 -1.9270e+002  1.0905e+002 19924 116407,116159,116263
 5.0000e-001 116338 -2.5228e+002 -1.1465e+002  1.0054e+002 19924 116159,116211,116185
 5.0000e-001 116315 -2.2959e+002 -2.1287e+002  1.4834e+002 19924 116159,116289,116263
 5.0000e-001 116433 -2.5926e+002 -1.0972e+002  1.2438e+002 19924 116237,116211,116407
 5.0000e-001 116456 -2.4543e+002 -1.4615e+002  1.2470e+002 19924 116237,116407,116263
 5.0000e-001 116608 -2.5587e+002 -1.0524e+002  9.6978e+001 19520 116703,116631,116533
 5.0000e-001 116585 -2.5329e+002 -1.1479e+002  9.0643e+001 19520 116631,116507,116481
 5.0000e-001 116657 -2.3890e+002 -1.1474e+002  1.0257e+002 19520 116559,116533,116631
 5.0000e-001 116680 -2.4792e+002 -1.3751e+002  9.4007e+001 19520 116559,116631,116481
 5.0000e-001 116729 -2.5587e+002 -1.0524e+002  9.6978e+001 19520 116507,116631,116703
 5.0000e-001 116952 -1.3794e+002 -1.1343e+002  2.0920e+002 19208 116975,116802,116776
 5.0000e-001 116929 -1.5498e+002 -1.8572e+002  1.4947e+002 19208 116975,116776,116880
 5.0000e-001 116906 -2.5165e+002 -1.0745e+002  1.3370e+002 19208 116802,116854,116828
 5.0000e-001 117001 -1.0889e+002 -1.0449e+002  2.1093e+002 19208 116854,116802,116975
 5.0000e-001 117024 -4.8070e+001 -1.2419e+002  1.8204e+002 19208 116854,116975,116880
 5.0000e-001 117428 -2.1952e+002 -9.0784e+001  1.0644e+002 18796 117154,117206,117180
 5.0000e-001 117405 -1.5559e+002 -1.5668e+002  1.0094e+002 18796 117154,117284,117206
 5.0000e-001 117382 -9.8626e+001 -1.2175e+002  1.3133e+002 18796 117154,117310,117284
 5.0000e-001 117359 -9.8806e+001 -1.0289e+002  1.3851e+002 18796 117206,117284,117258
 5.0000e-001 117336 -7.2435e+001 -3.4947e+001  1.7708e+002 18796 117206,117258,117232
 5.0000e-001 117529 -1.1784e+002 -5.2343e+001  5.8903e+001 18228 117810,117552,117477
 5.0000e-001 117578 -2.2297e+002 -1.4875e+002  7.9459e+001 18228 117682,117552,117503
 5.0000e-001 117708 -8.1757e+001 -8.4048e+001  6.0465e+001 18228 117477,117552,117682
 5.0000e-001 117836 -1.7371e+002 -1.5066e+002  8.5696e+001 18228 117451,117552,117810
 5.0000e-001 118364 -2.4603e+002 -9.8321e+001  7.4070e+001 17722 118067,118223,118093
 5.0000e-001 118341 -2.2662e+002 -2.1686e+001  6.8454e+001 17722 118041,118223,118067
 5.0000e-001 118318 -1.5604e+002 -7.6316e+001  5.3647e+001 17722 118093,118223,118197
 5.0000e-001 118295 -3.8436e+002 -3.0088e+002  1.8542e+002 17722 118119,118197,118171
 5.0000e-001 118272 -1.2016e+002 -4.5314e+001  8.0374e+001 17722 118093,118197,118119
 5.0000e-001 118249 -3.0018e+002 -3.8882e+001  1.7460e+002 17722 118119,118171,118145
 5.0000e-001 118514 -3.1317e+002 -1.3263e+002  1.2299e+002 17268 118387,118439,118413
 5.0000e-001 118491 -1.1715e+002 -1.0659e+002  1.2022e+002 17268 118387,118465,118439
 5.0000e-001 118916 -3.9949e+002 -1.6327e+002  6.9297e+001 16828 118668,118772,118694
 5.0000e-001 118893 -4.7501e+002 -1.8424e+002  6.3064e+001 16828 118668,118798,118772
 5.0000e-001 118870 -5.0128e+002 -2.9225e+002  4.0881e+001 16828 118642,118798,118668
 5.0000e-001 118847 -2.7818e+002 -1.2010e+002  1.4653e+002 16828 118694,118746,118720
 5.0000e-001 118824 -4.2272e+002 -2.4856e+002  6.7216e+001 16828 118694,118772,118746
 5.0000e-001 119316 -1.8905e+002 -1.2478e+002  1.6780e+002 16422 119042,119172,119094
 5.0000e-001 119293 -2.4455e+002 -1.2481e+002  1.7939e+002 16422 119042,119198,119172
 5.0000e-001 119270 -2.4548e+002 -1.0252e+002  1.1209e+002 16422 119042,119094,119068
 5.0000e-001 119247 -2.1267e+002 -9.9483e+001  2.3400e+002 16422 119094,119146,119120
 5.0000e-001 119224 -1.7478e+002 -1.0232e+002  1.7613e+002 16422 119094,119172,119146
 5.0000e-001 119466 -4.6390e+002 -1.7536e+002 -3.9128e+001 16010 119339,119391,119365
 5.0000e-001 119443 -2.7227e+002 -1.8929e+002  1.1899e+002 16010 119339,119417,119391
 5.0000e-001 119616 -1.3394e+002 -5.8077e+001  1.4312e+002 15547 119515,119567,119541
 5.0000e-001 119593  3.5826e+001  6.2813e+001  2.4008e+002 15547 119489,119567,119515
 5.0000e-001 119719 -3.7864e+002 -1.5536e+002  7.6406e+001 421 119641,119693,119667
 6.0000e-001 69562 -3.8742e+002 -1.7488e+002  2.4634e+002 69254 69484,69536,69510
 6.0000e-001 70009 -1.1394e+002 -7.2285e+001  1.2315e+002 68942 69686,69842,69816
 6.0000e-001 69986 -1.2775e+002 -7.7126e+001  6.8980e+001 68942 69686,69868,69842
 6.0000e-001 69963  6.4792e+000  2.3549e+000  1.6571e+002 68942 69686,69816,69712
 6.0000e-001 69940 -3.6784e+001 -2.3421e+001  2.3178e+002 68942 69712,69790,69738
 6.0000e-001 69917 -1.3789e+002 -3.2350e+002  1.9099e+002 68942 69712,69816,69790
 6.0000e-001 69894  1.2560e+001 -1.8943e+002  1.0044e+002 68942 69738,69790,69764
 6.0000e-001 70110 -1.0448e+002 -2.9956e+001  5.6603e+001 68766 70032,70084,70058
 6.0000e-001 70746 -3.9168e+001 -5.5860e+001  7.0138e+001 68448 70400,70556,70426
 6.0000e-001 70723 -1.7068e+002 -6.2807e+001  8.7251e+001 68448 70374,70556,70400
 6.0000e-001 70700 -4.4620e+001 -3.8684e+001  3.3001e+001 68448 70426,70556,70478
 6.0000e-001 70677 -1.2335e+002 -2.4184e+001  3.6283e+001 68448 70478,70556,70504
 6.0000e-001 70654 -1.2387e+002 -9.9843e+001  7.4583e+001 68448 70426,70478,70452
 6.0000e-001 70631 -1.6201e+002 -3.2392e+001  1.0795e+002 68448 70374,70582,70556
 6.0000e-001 70608 -1.3589e+002 -2.6378e+001  1.9252e+001 68448 70504,70556,70530
 6.0000e-001 70896 -1.7974e+001 -6.8481e+000  2.7707e+001 68250 70795,70847,70821
 6.0000e-001 70873 -3.2731e+002 -1.1406e+002 -8.0504e+000 68250 70769,70847,70795
 6.0000e-001 70997 -7.6247e+002 -3.3968e+002  2.9295e+002 68052 70919,70971,70945
 6.0000e-001 71367 -2.2741e+002 -3.4571e+002  1.4475e+002 67740 71096,71226,71200
 6.0000e-001 71344 -1.5483e+002 -2.0738e+002  1.7431e+002 67740 71044,71226,71096
 6.0000e-001 71321  8.3062e+000 -8.3062e+000  2.7676e+002 67740 71044,71096,71070
 6.0000e-001 71298 -1.7997e+002 -3.6597e+002  2.6558e+002 67740 71096,71200,71174
 6.0000e-001 71275 -9.2793e+001 -2.2045e+002  1.0456e+002 67740 71096,71148,71122
 6.0000e-001 71252 -1.3203e+002 -2.6078e+002  1.7720e+002 67740 71096,71174,71148
 6.0000e-001 71519  7.9975e+001  4.4246e+001  8.6256e+001 67542 71418,71470,71444
 6.0000e-001 71496  1.4176e+002  3.0468e+002  2.7033e+002 67542 71392,71470,71418
 6.0000e-001 71923 -5.8242e+001 -1.3715e+001  7.9500e+001 67230 71649,71779,71675
 6.0000e-001 71900 -4.7987e+001 -7.5804e+001  6.0737e+001 67230 71649,71805,71779
 6.0000e-001 71877 -6.2712e+001 -2.4104e+001  1.4085e+002 67230 71675,71727,71701
 6.0000e-001 71854 -8.1511e+001 -2.0617e+002  1.4512e+002 67230 71675,71753,71727
 6.0000e-001 71831 -7.8446e+001 -1.2939e+002  1.0200e+002 67230 71675,71779,71753
 6.0000e-001 72433 -7.9080e+001 -5.3098e+001  1.0367e+002 67032 72038,72246,72220
 6.0000e-001 72410 -6.8559e+001 -9.9183e+000  2.6994e+001 67032 72012,72246,72038
 6.0000e-001 72387 -1.2945e+002 -3.3837e+001  1.1324e+002 67032 72064,72194,72168
 6.0000e-001 72364 -1.4993e+002 -5.8876e+001  1.2221e+002 67032 72038,72194,72064
 6.0000e-001 72341 -1.3592e+002 -1.9454e+002  1.7366e+002 67032 72038,72220,72194
 6.0000e-001 72318 -5.9612e+001 -4.7759e+000  5.3563e+001 67032 72090,72168,72142
 6.0000e-001 72295 -2.6368e+001 -7.0965e-001  8.3464e+001 67032 72064,72168,72090
 6.0000e-001 72272 -6.5873e+001 -1.2477e+001  5.0055e+001 67032 72090,72142,72116
 6.0000e-001 72933 -1.1644e+002 -1.2935e+002  1.3427e+002 66628 72956,72665,72613
 6.0000e-001 72910 -1.1778e+002 -1.5627e+002  1.3029e+002 66628 73100,72956,72613
 6.0000e-001 72887 -1.3865e+002 -1.9547e+002  1.1414e+002 66628 73028,72691,72665
 6.0000e-001 72864 -1.1983e+002 -1.6159e+002  1.3131e+002 66628 73100,72613,72587
 6.0000e-001 72841 -1.0636e+002 -1.2192e+002  1.1232e+002 66628 72613,72665,72639
 6.0000e-001 72818  3.0062e+001  8.3193e+000  2.0156e+002 66628 72587,72769,72743
 6.0000e-001 72795 -8.8351e+001 -2.6017e+002  3.4942e+001 66628 72561,72769,72587
 6.0000e-001 72982 -1.4345e+002 -1.4930e+002  1.4412e+002 66628 73028,72665,72956
 6.0000e-001 73005 -1.1415e+002 -4.6498e+001  1.4417e+002 66628 72717,72956,72743
 6.0000e-001 73054 -1.9482e+002 -1.7587e+002  7.8722e+001 66628 72717,72691,73028
 6.0000e-001 73077 -1.9847e+002 -1.5895e+002  1.0647e+002 66628 72717,73028,72956
 6.0000e-001 73126 -1.1910e+002 -1.5736e+002  1.3586e+002 66628 72743,72956,73100
 6.0000e-001 73149 -1.2019e+002 -1.6145e+002  1.3672e+002 66628 72743,73100,72587
 6.0000e-001 73606 -6.0559e+001 -1.3387e+002  1.0962e+002 66281 73332,73384,73358
 6.0000e-001 73583 -9.8264e+001 -2.0366e+002  9.5274e+001 66281 73332,73462,73384
 6.0000e-001 73560 -1.5122e+002 -1.2086e+002  1.4414e+002 66281 73384,73462,73436
 6.0000e-001 73537 -3.1587e+002 -1.4734e+002  1.5382e+002 66281 73332,73488,73462
 6.0000e-001 73514 -7.7132e+001 -7.4158e+001  6.5453e+001 66281 73384,73436,73410
 6.0000e-001 73984  2.2106e+000 -2.8205e+001  1.2940e+001 65969 73736,73814,73788
 6.0000e-001 73961  2.9679e+001 -5.4169e+000 -2.0606e+000 65969 73736,73866,73814
 6.0000e-001 73938 -4.5489e+001 -3.8721e+001  6.2948e+001 65969 73814,73866,73840
 6.0000e-001 73915 -7.3287e-001  2.3190e+001 -1.1022e-001 65969 73710,73866,73736
 6.0000e-001 73892  9.0188e+000 -3.4045e+001  1.9626e+000 65969 73736,73788,73762
 6.0000e-001 74232 -1.0631e+002 -1.3401e+002  1.2719e+002 65572 74255,74085,74033
 6.0000e-001 74209 -9.4207e+001 -1.5474e+002  1.0265e+002 65572 74327,74255,74033
 6.0000e-001 74186 -1.0906e+002 -1.0073e+002  1.0136e+002 65572 74327,74033,74007
 6.0000e-001 74163 -1.1477e+002 -1.4635e+002  1.3255e+002 65572 74033,74085,74059
 6.0000e-001 74281 -1.3619e+002 -1.7151e+002  1.5494e+002 65572 74111,74085,74255
 6.0000e-001 74304 -1.0183e+002 -1.6904e+002  9.8254e+001 65572 74111,74255,74137
 6.0000e-001 74353 -7.9253e+001 -9.2133e+001  8.1069e+001 65572 74137,74255,74327
 6.0000e-001 74376 -1.0593e+002 -5.1318e+001  8.2565e+001 65572 74137,74327,74007
 6.0000e-001 74884 -1.0825e+002 -1.2245e+002  8.7673e+001 65174 74587,74717,74613
 6.0000e-001 74861 -1.2232e+002 -1.4065e+002  6.8720e+001 65174 74561,74717,74587
 6.0000e-001 74838 -9.6661e+001 -1.4226e+002  5.8695e+001 65174 74613,74691,74639
 6.0000e-001 74815 -1.1042e+002 -1.3686e+002  8.4480e+001 65174 74613,74717,74691
 6.0000e-001 74792 -2.5440e+001 -2.4781e+002  4.7108e+001 65174 74639,74691,74665
 6.0000e-001 74769 -1.2283e+002 -1.2093e+002  6.4960e+001 65174 74561,74743,74717
 6.0000e-001 75412 -1.0045e+001 -4.5617e+001  2.4757e+002 64770 75167,75245,75219
 6.0000e-001 75389 -1.3228e+002 -2.0541e+002  1.7260e+002 64770 75115,75245,75167
 6.0000e-001 75366 -1.0300e+002 -2.5186e+002  2.1836e+002 64770 75089,75245,75115
 6.0000e-001 75343 -1.7708e+002 -4.4868e+001  1.6195e+002 64770 75167,75219,75193
 6.0000e-001 75320 -1.0815e+002 -1.4888e+002  1.7239e+002 64770 75115,75167,75141
 6.0000e-001 75297 -1.5192e+002 -3.7280e+002  2.2372e+002 64770 75089,75271,75245
 6.0000e-001 75861 -2.8089e+002 -1.1464e+002  1.7263e+002 64316 75538,75694,75564
 6.0000e-001 75838 -1.5657e+002 -6.2439e+001  1.2759e+002 64316 75538,75720,75694
 6.0000e-001 75815 -2.2298e+002 -1.1753e+002  1.4658e+002 64316 75590,75694,75642
 6.0000e-001 75792 -2.1940e+002 -1.6500e+002  1.6603e+002 64316 75564,75694,75590
 6.0000e-001 75769 -8.3633e+001 -2.4754e+002  8.7213e+001 64316 75590,75642,75616
 6.0000e-001 75746 -2.1374e+002 -8.8661e+001  1.4139e+002 64316 75642,75694,75668
 6.0000e-001 76239 -2.9257e+002 -2.2314e+002  1.7892e+002 64018 76262,76095,76043
 6.0000e-001 76216 -1.9766e+002 -2.1145e+002  1.5092e+002 64018 76262,76043,76017
 6.0000e-001 76193 -6.8231e+001 -1.0306e+002  9.0826e+001 64018 75991,76121,76017
 6.0000e-001 76170 -2.6852e+002 -1.7081e+002  1.7146e+002 64018 76043,76095,76069
 6.0000e-001 76147 -4.1452e+000 -1.2600e+002  3.4101e+001 64018 75965,76121,75991
 6.0000e-001 76288 -2.1014e+002 -2.7243e+002  2.2974e+002 64018 76121,76095,76262
 6.0000e-001 76311 -1.2635e+002 -2.6685e+002  1.8884e+002 64018 76121,76262,76017
 6.0000e-001 76866 -1.3281e+002 -1.4282e+002  1.3538e+002 63728 76520,76676,76546
 6.0000e-001 76843 -1.1386e+002 -1.4554e+002  9.9375e+001 63728 76520,76702,76676
 6.0000e-001 76820 -1.0428e+002 -1.6635e+002  1.4950e+002 63728 76546,76650,76572
 6.0000e-001 76797 -1.8304e+002 -2.2699e+002  1.1365e+002 63728 76546,76676,76650
 6.0000e-001 76774 -1.7467e+002 -5.5951e+001  7.4568e+001 63728 76572,76650,76624
 6.0000e-001 76751 -1.0926e+002 -1.0619e+002  1.0801e+002 63728 76494,76702,76520
 6.0000e-001 76728 -5.2400e+001 -9.3398e+001  7.0244e+001 63728 76572,76624,76598
 6.0000e-001 77065 -4.1950e+001 -1.1400e+002  8.9217e+001 63288 77088,76941,76915
 6.0000e-001 77042 -1.1565e+002 -1.3364e+002  7.3064e+001 63288 77088,76915,76993
 6.0000e-001 77019 -5.3024e+001 -1.2239e+002  7.7264e+001 63288 76889,76993,76915
 6.0000e-001 77114 -8.2943e+001 -1.4515e+002  6.9915e+001 63288 76967,76941,77088
 6.0000e-001 77137 -1.6910e+002 -1.5369e+002  3.3183e+001 63288 77160,77088,76993
 6.0000e-001 77186 -5.1309e+001 -9.5369e+001  5.4235e+001 63288 76967,77088,77160
 6.0000e-001 77417 -2.1674e+001 -8.3256e+001  3.3325e+001 62884 77440,77342,77316
 6.0000e-001 77394 -5.4688e+001 -1.5269e+002  1.7428e+001 62884 77770,77440,77316
 6.0000e-001 77466 -1.0575e+002 -1.6428e+002  2.9499e+001 62884 77512,77440,77368
 6.0000e-001 77489 -2.6500e+001 -1.1794e+002  1.4664e+001 62884 77642,77440,77290
 6.0000e-001 77538 -2.2299e+001 -1.1091e+002  6.3119e+000 62884 77342,77440,77512
 6.0000e-001 77668 -6.6999e+001 -2.0231e+002  2.1486e+000 62884 77368,77440,77642
 6.0000e-001 77796 -2.0974e+001 -1.3700e+002  1.3374e+001 62884 77290,77440,77770
 6.0000e-001 78479 -2.6060e+002 -2.4358e+002  1.6032e+002 62480 78084,78240,78214
 6.0000e-001 78456 -1.4431e+002 -2.1527e+002  1.3235e+001 62480 78084,78266,78240
 6.0000e-001 78433 -1.7832e+002 -2.1677e+002  7.6924e+001 62480 78110,78214,78136
 6.0000e-001 78410 -1.9569e+002 -2.1848e+002  1.4551e+002 62480 78084,78214,78110
 6.0000e-001 78387 -1.5833e+002 -1.7204e+002  9.0944e+001 62480 78136,78214,78188
 6.0000e-001 78364 -1.1804e+002 -2.6864e+002  5.0986e-001 62480 78058,78266,78084
 6.0000e-001 78341 -9.9973e+001 -1.4340e+002  7.3544e+001 62480 78136,78188,78162
 6.0000e-001 78318 -2.0429e+001 -2.1106e+002 -3.5426e+001 62480 78058,78292,78266
 6.0000e-001 78678 -1.5919e+002 -2.9816e+002  1.4325e+002 61926 78528,78606,78554
 6.0000e-001 78655 -1.0408e+002 -3.0252e+002  1.6950e+002 61926 78502,78606,78528
 6.0000e-001 78632 -9.2073e+001 -1.9991e+002  6.8797e+001 61926 78554,78606,78580
 6.0000e-001 79058 -1.4072e+002 -1.5852e+002  8.1924e+001 61614 78836,78914,78862
 6.0000e-001 79035 -1.9570e+002 -1.7118e+002  7.8278e+001 61614 78810,78914,78836
 6.0000e-001 79012 -1.3551e+002 -1.4646e+002  6.9915e+001 61614 78784,78914,78810
 6.0000e-001 78989 -1.2878e+002 -1.6213e+002  1.1619e+002 61614 78862,78914,78888
 6.0000e-001 78966 -1.0123e+002 -2.0874e+002  8.6953e+001 61614 78784,78940,78914
 6.0000e-001 79208 -1.1781e+001 -2.7463e+001  1.8444e+001 61366 79081,79133,79107
 6.0000e-001 79185 -5.3985e+001 -1.3212e+001  1.2335e+002 61366 79081,79159,79133
 6.0000e-001 79358 -1.1127e+000 -6.8662e+001  2.7043e+001 60962 79231,79283,79257
 6.0000e-001 79335 -1.1212e+002 -2.6349e+002  7.2244e+001 60962 79231,79309,79283
 6.0000e-001 79608 -1.0201e+002 -1.5664e+002  1.1804e+002 60508 79631,79435,79409
 6.0000e-001 79585 -7.0142e+001 -1.7563e+002  6.8732e+001 60508 79703,79631,79409
 6.0000e-001 79562 -7.6394e+001 -4.1831e+001  8.5774e+001 60508 79703,79409,79383
 6.0000e-001 79539 -1.8340e+002 -2.1456e+002  1.9074e+002 60508 79435,79487,79461
 6.0000e-001 79657 -1.3503e+002 -2.4321e+002  1.9088e+002 60508 79487,79435,79631
 6.0000e-001 79680 -5.2024e+001 -1.5796e+002  9.3059e+001 60508 79487,79631,79513
 6.0000e-001 79729 -2.8885e+001 -5.1644e+001  3.4083e+001 60508 79513,79631,79703
 6.0000e-001 79752 -6.8383e+001 -3.0080e+001  1.3096e+001 60508 79513,79703,79383
 6.0000e-001 80390 -1.4030e+002 -1.5990e+002  1.5125e+002 59997 80413,80096,80018
 6.0000e-001 80367 -2.3466e+002 -1.8021e+002  1.8481e+002 59997 80413,80018,80226
 6.0000e-001 80344 -1.0895e+002 -1.0454e+002  1.0944e+002 59997 80096,80174,80148
 6.0000e-001 80321 -3.9344e+002 -2.9943e+002  2.1655e+002 59997 80018,80096,80070
 6.0000e-001 80298 -6.4216e+001 -1.4593e+002  8.2915e+001 59997 80096,80148,80122
 6.0000e-001 80275 -1.2731e+002 -1.0035e+002  1.1592e+002 59997 80174,80226,80200
 6.0000e-001 80252 -2.6634e+002 -2.5138e+002  9.3312e+001 59997 80018,80070,80044
 6.0000e-001 80439 -1.1469e+002 -1.6172e+002  1.2743e+002 59997 80174,80096,80413
 6.0000e-001 80462 -1.5186e+002 -1.1842e+002  1.4642e+002 59997 80174,80413,80226
 6.0000e-001 80840 -2.2182e+002 -2.1680e+002  1.0459e+002 59443 80863,80644,80618
 6.0000e-001 80817 -1.2831e+002 -1.4767e+002  1.3507e+002 59443 80863,80618,80566
 6.0000e-001 80794 -9.2199e+001 -1.0904e+002  1.2971e+002 59443 81007,80935,80670
 6.0000e-001 80771 -1.3787e+002 -1.4136e+002  1.4907e+002 59443 80566,80722,80696
 6.0000e-001 80748 -1.6053e+002 -2.1173e+002  1.5280e+002 59443 80566,80618,80592
 6.0000e-001 80889 -2.2329e+002 -1.5552e+002  1.4370e+002 59443 80935,80644,80863
 6.0000e-001 80912 -1.8126e+002 -1.5976e+002  1.4680e+002 59443 80696,80863,80566
 6.0000e-001 80961 -1.3195e+002 -1.0840e+002  1.7176e+002 59443 80696,80670,80935
 6.0000e-001 80984 -1.4637e+002 -1.3676e+002  1.5878e+002 59443 80696,80935,80863
 6.0000e-001 81033 -1.8289e+002 -2.0344e+002  1.7230e+002 59443 80644,80935,81007
 6.0000e-001 81360 -1.2601e+002 -1.0944e+002  1.0495e+002 59031 81383,81187,81161
 6.0000e-001 81337 -1.2689e+002 -1.2381e+002  7.9517e+001 59031 81455,81383,81161
 6.0000e-001 81314 -1.0408e+002 -1.1684e+002  8.4485e+001 59031 81455,81161,81135
 6.0000e-001 81291 -1.9706e+002 -6.2309e+001  1.0388e+002 59031 81187,81239,81213
 6.0000e-001 81409 -1.3914e+002 -1.2477e+002  9.0940e+001 59031 81239,81187,81383
 6.0000e-001 81432 -1.9663e+002 -1.3491e+002  6.0254e+001 59031 81239,81383,81265
 6.0000e-001 81481 -1.5063e+002 -1.0737e+002  8.6844e+001 59031 81265,81383,81455
 6.0000e-001 81504 -1.3971e+002 -1.0991e+002  8.6986e+001 59031 81265,81455,81135
 6.0000e-001 81835 -1.9680e+001 -9.1433e+001  3.3523e+001 58577 81610,81714,81636
 6.0000e-001 81812  1.4211e-001 -8.6266e+001  3.0126e+001 58577 81610,81740,81714
 6.0000e-001 81789 -6.3075e+001 -1.1023e+002  8.2243e+000 58577 81636,81714,81688
 6.0000e-001 81766 -5.7757e+001 -1.1557e+002 -2.7790e+001 58577 81636,81688,81662
 6.0000e-001 81985 -5.1124e+001 -1.2151e+002  7.8496e+001 58030 81884,81936,81910
 6.0000e-001 81962 -9.0097e+001 -3.7658e+001  6.0058e+001 58030 81858,81936,81884
 6.0000e-001 82414 -3.6550e+001 -3.3028e+001  6.5262e+001 57690 82437,82169,82117
 6.0000e-001 82391 -6.4788e+001 -7.3524e+001  7.7979e+001 57690 82437,82117,82247
 6.0000e-001 82368  1.7107e+001  2.9738e+001  1.6792e+002 57690 82195,82247,82221
 6.0000e-001 82345 -1.5747e+001 -5.1793e+001  8.8025e+001 57690 82091,82247,82117
 6.0000e-001 82322 -7.3371e+001 -1.8697e+001  3.9786e+001 57690 82117,82169,82143
 6.0000e-001 82299 -4.5162e+001 -9.6502e+001  1.0832e+002 57690 82091,82273,82247
 6.0000e-001 82463 -6.8866e+001 -1.9908e+001  8.4570e+001 57690 82195,82169,82437
 6.0000e-001 82486 -8.3310e+001 -4.3721e+001  9.0669e+001 57690 82195,82437,82247
 6.0000e-001 83041 -1.1421e+002 -1.3394e+002  8.0605e+001 57172 83064,82721,82695
 6.0000e-001 83018 -1.2932e+002 -1.4112e+002  1.1969e+002 57172 83064,82695,82851
 6.0000e-001 82995 -3.3038e+002 -1.7642e+002  1.5190e+002 57172 82669,82851,82695
 6.0000e-001 82972 -1.9335e+002 -1.4222e+002  1.1838e+002 57172 82773,82851,82825
 6.0000e-001 82949 -1.6714e+002 -1.3840e+002  1.3682e+002 57172 82773,82825,82799
 6.0000e-001 82926 -1.6271e+002 -1.1561e+002  7.1021e+001 57172 82721,82773,82747
 6.0000e-001 82903 -4.0669e+002 -1.9481e+002  2.5411e+002 57172 82669,82877,82851
 6.0000e-001 83090 -1.7771e+002 -1.5860e+002  7.6951e+001 57172 82773,82721,83064
 6.0000e-001 83113 -1.5040e+002 -1.4844e+002  1.1390e+002 57172 82773,83064,82851
 6.0000e-001 83747 -1.5574e+002 -1.2248e+002  8.0773e+001 56554 83770,83427,83401
 6.0000e-001 83724 -1.5107e+002 -1.6330e+002  9.9631e+001 56554 83842,83770,83401
 6.0000e-001 83701 -1.1318e+001 -1.2608e+002  4.7677e+001 56554 83842,83401,83583
 6.0000e-001 83678 -2.4747e+002 -2.2528e+002  2.0387e+002 56554 83914,83531,83505
 6.0000e-001 83655 -1.1401e+002 -1.9372e+002  9.1579e+001 56554 83531,83583,83557
 6.0000e-001 83632 -3.4348e+001 -1.0781e+002  3.9807e+001 56554 83375,83583,83401
 6.0000e-001 83609 -1.3024e+002 -1.3249e+002  7.8994e+001 56554 83427,83479,83453
 6.0000e-001 83796 -1.3434e+002 -1.3308e+002  7.6950e+001 56554 83479,83427,83770
 6.0000e-001 83819 -1.3556e+002 -9.9304e+001  7.7227e+001 56554 83479,83770,83505
 6.0000e-001 83868 -9.2292e+001 -5.8445e+001  1.2691e+002 56554 83505,83770,83842
 6.0000e-001 83891 -1.6348e+002 -1.3207e+002  1.5961e+002 56554 83914,83505,83842
 6.0000e-001 83940 -1.1976e+002 -2.3719e+002  1.1923e+002 56554 83583,83531,83914
 6.0000e-001 83963 -6.5514e+001 -2.1737e+002  9.7796e+001 56554 83583,83914,83842
 6.0000e-001 84341 -1.0332e+002 -3.0726e+002  1.3286e+002 56192 84067,84145,84119
 6.0000e-001 84318  5.4714e-001 -1.4327e+002  8.7756e+001 56192 84067,84223,84145
 6.0000e-001 84295 -5.8074e+001 -2.5331e+002  6.0582e+001 56192 84145,84223,84197
 6.0000e-001 84272 -1.0071e+002 -7.4620e+001  6.1700e+001 56192 84067,84119,84093
 6.0000e-001 84249 -1.2572e+002 -8.4058e+001  7.9341e+001 56192 84145,84197,84171
 6.0000e-001 84611 -8.9606e+001 -2.1885e+002  1.6403e+002 55538 84386,84490,84412
 6.0000e-001 84588 -1.0258e+002 -1.8152e+002  1.5882e+002 55538 84386,84516,84490
 6.0000e-001 84565 -1.4105e+002 -2.3969e+002  1.7170e+002 55538 84412,84490,84464
 6.0000e-001 84542 -6.4891e+001 -1.5771e+002  1.3300e+002 55538 84412,84464,84438
 6.0000e-001 84942 -1.3785e+002 -1.2384e+002  9.6918e+001 55084 84769,84847,84795
 6.0000e-001 84919 -1.4538e+002 -1.4730e+002  7.8098e+001 55084 84717,84847,84769
 6.0000e-001 84896 -1.6061e+002 -2.0194e+002  8.4508e+001 55084 84717,84769,84743
 6.0000e-001 84873 -1.5052e+002 -5.8198e+001  8.2952e+001 55084 84795,84847,84821
 6.0000e-001 85271 -5.5780e+001 -6.7283e+001  9.0231e+001 54580 85294,85098,85072
 6.0000e-001 85248 -1.8583e+002 -7.5441e+001  1.0709e+002 54580 85294,85072,85176
 6.0000e-001 85225 -2.4409e+002 -5.6950e+001  6.9793e+001 54580 85124,85176,85150
 6.0000e-001 85202 -7.2273e+001 -6.9277e+001  4.3875e+001 54580 85046,85176,85072
 6.0000e-001 85320 -1.5904e+002 -9.4304e+001  8.8584e+001 54580 85124,85098,85294
 6.0000e-001 85343 -2.3024e+002 -5.9425e+001  1.0543e+002 54580 85124,85294,85176
 6.0000e-001 85542 -1.2032e+002 -1.6208e+002  1.4539e+002 53976 85565,85444,85418
 6.0000e-001 85519 -1.5652e+002 -1.1371e+002  1.0856e+002 53976 85565,85418,85366
 6.0000e-001 85496 -9.9162e+001 -5.1517e+001  4.5354e+001 53976 85366,85418,85392
 6.0000e-001 85591 -9.8957e+001 -1.3906e+002  1.1966e+002 53976 85470,85444,85565
 6.0000e-001 85614 -1.0245e+002 -3.9141e+001  7.9329e+001 53976 85470,85565,85366
 6.0000e-001 85960 -3.1205e+002 -2.6673e+002  2.4768e+002 53572 85663,85715,85689
 6.0000e-001 85937 -2.2855e+002 -1.5750e+002  1.4101e+002 53572 85983,85715,85663
 6.0000e-001 85914 -1.2231e+002 -1.1606e+002  1.2209e+002 53572 86055,85983,85663
 6.0000e-001 85891 -1.0993e+002 -1.0942e+002  1.1066e+002 53572 86055,85663,85637
 6.0000e-001 85868 -2.2323e+002 -3.6682e+002  1.8774e+002 53572 85637,85793,85767
 6.0000e-001 85845 -1.5626e+002 -2.6492e+001  7.7176e+001 53572 85637,85819,85793
 6.0000e-001 86009 -1.1295e+002 -2.4363e+002  1.3630e+002 53572 85741,85715,85983
 6.0000e-001 86032 -1.7773e+001 -1.5373e+002  9.4805e+001 53572 85741,85983,85767
 6.0000e-001 86081 -1.2048e+002 -1.5462e+002  1.4934e+002 53572 85767,85983,86055
 6.0000e-001 86104 -9.5215e+001 -1.3198e+002  1.3593e+002 53572 85767,86055,85637
 6.0000e-001 86693 -2.6061e+002 -5.7121e+001  1.4522e+002 52946 86474,86526,86500
 6.0000e-001 86670 -6.3958e+001 -3.8696e+001  6.3767e+001 52946 86396,86526,86474
 6.0000e-001 86647 -2.0507e+002 -1.9388e+002  1.2562e+002 52946 86370,86526,86396
 6.0000e-001 86624 -1.6241e+001 -3.1529e+000  2.0064e+001 52946 86422,86474,86448
 6.0000e-001 86601 -8.3677e+001 -2.7007e+001  4.3117e+001 52946 86396,86474,86422
 6.0000e-001 86578 -2.4773e+002 -8.4615e+001  2.8258e+001 52946 86370,86552,86526
 6.0000e-001 87376 -1.4941e+002 -1.7374e+002  6.2704e+001 52420 87007,87085,87033
 6.0000e-001 87353 -1.5757e+002 -1.7257e+002  5.7877e+001 52420 87007,87163,87085
 6.0000e-001 87330 -1.6267e+002 -1.5900e+002  6.7694e+001 52420 87007,87189,87163
 6.0000e-001 87307 -1.6041e+002 -1.7099e+002  6.8326e+001 52420 87033,87085,87059
 6.0000e-001 87284 -1.4846e+002 -1.5650e+002  3.4658e+001 52420 87085,87137,87111
 6.0000e-001 87261 -1.4476e+002 -1.9988e+002  1.9925e+001 52420 87085,87163,87137
 6.0000e-001 87238 -1.2242e+002 -1.4997e+002  1.2626e+002 52420 86955,87189,87007
 6.0000e-001 87215 -8.1124e+001 -1.0263e+002  7.9327e+001 52420 86955,87007,86981
 6.0000e-001 87624 -1.0740e+002 -1.3407e+002  9.2645e+001 51916 87451,87503,87477
 6.0000e-001 87601 -6.8354e+001 -1.5597e+002  1.0934e+002 51916 87425,87503,87451
 6.0000e-001 87578 -2.4857e+001 -1.1906e+002  1.2997e+002 51916 87425,87529,87503
 6.0000e-001 87555  1.4677e+001  2.8733e+001  1.2458e+002 51916 87399,87529,87425
 6.0000e-001 88053 -2.1072e+002 -1.8204e+002  6.4903e+001 51568 87782,87834,87808
 6.0000e-001 88030 -2.1631e+002 -1.7815e+002  8.2054e+001 51568 88076,87782,87886
 6.0000e-001 88007 -2.0699e+002 -1.5646e+002  8.1517e+001 51568 88076,87886,87860
 6.0000e-001 87984 -2.4676e+002 -2.0859e+002  6.9273e+001 51568 87756,87886,87782
 6.0000e-001 87961 -1.7390e+002 -1.6571e+002  1.2490e+002 51568 87756,87912,87886
 6.0000e-001 87938 -2.0431e+002 -2.0298e+002  1.1189e+002 51568 87730,87912,87756
 6.0000e-001 88102 -2.0816e+002 -1.8982e+002  6.9469e+001 51568 87834,87782,88076
 6.0000e-001 88125 -2.0219e+002 -1.7568e+002  6.8962e+001 51568 87834,88076,87860
 6.0000e-001 88324 -1.2953e+002 -2.1886e+002  9.0738e+001 51164 88419,88347,88200
 6.0000e-001 88301 -1.0808e+002 -1.9162e+002  1.0032e+002 51164 88347,88148,88252
 6.0000e-001 88278 -1.4678e+002 -2.5671e+002  8.6514e+001 51164 88419,88200,88174
 6.0000e-001 88373 -9.4558e+001 -2.5313e+002  9.1766e+001 51164 88226,88200,88347
 6.0000e-001 88396 -3.6685e+001 -2.1663e+002  7.4995e+001 51164 88226,88347,88252
 6.0000e-001 88445 -1.3235e+002 -2.2027e+002  1.1160e+002 51164 88148,88347,88419
 6.0000e-001 88468 -1.3095e+002 -2.1666e+002  1.1009e+002 51164 88148,88419,88174
 6.0000e-001 88738 -1.5239e+002 -2.5080e+002  5.2930e+001 50560 88513,88617,88539
 6.0000e-001 88715 -1.1408e+002 -2.6671e+002  3.8853e+001 50560 88513,88643,88617
 6.0000e-001 88692 -1.1368e+002 -1.4062e+002  6.3854e+001 50560 88539,88591,88565
 6.0000e-001 88669 -8.6280e+001 -2.0332e+002  7.4257e+001 50560 88539,88617,88591
 6.0000e-001 88939 -1.6000e+002 -1.1128e+002  7.8212e+001 50106 88962,88789,88763
 6.0000e-001 88916 -1.2369e+002 -1.2928e+002  6.5892e+001 50106 88962,88763,88841
 6.0000e-001 88893 -1.6583e+002 -1.5469e+002  9.4434e+001 50106 88763,88867,88841
 6.0000e-001 88988 -1.2114e+002 -1.2186e+002  6.1065e+001 50106 88815,88789,88962
 6.0000e-001 89011 -1.2420e+002 -1.1794e+002  6.9853e+001 50106 89034,88962,88841
 6.0000e-001 89060 -6.9975e+001 -7.4543e+001  2.7191e+001 50106 88815,88962,89034
 6.0000e-001 89472 -1.7046e+002 -2.3528e+002  1.0227e+002 49666 89273,89351,89325
 6.0000e-001 89449 -1.5846e+002 -2.2951e+002  1.0503e+002 49666 89273,89377,89351
 6.0000e-001 89426 -1.4082e+002 -1.9680e+002  1.4667e+002 49666 89273,89325,89299
 6.0000e-001 89403 -1.2837e+002 -1.2955e+002  1.0434e+002 49666 89247,89377,89273
 6.0000e-001 89978 -7.6856e+001 -1.9680e+002  9.4028e+001 49205 89681,89837,89733
 6.0000e-001 89955 -9.7768e+001 -1.9196e+002  1.0169e+002 49205 89655,89837,89681
 6.0000e-001 89932 -2.0259e+002 -3.8754e+002  1.2544e+002 49205 89785,89837,89811
 6.0000e-001 89909 -7.8423e+001 -1.0919e+002  6.5422e+001 49205 89733,89837,89785
 6.0000e-001 89886 -1.7516e+002 -1.4157e+002  9.8292e+001 49205 89733,89785,89759
 6.0000e-001 89863 -1.0384e+002 -3.5129e+002  1.6081e+002 49205 89681,89733,89707
 6.0000e-001 90177 -1.1432e+002 -1.1770e+002  5.4229e+001 48865 90530,90200,90053
 6.0000e-001 90154 -1.5988e+002 -2.4740e+002  1.3379e+002 48865 90402,90200,90001
 6.0000e-001 90131 -1.8618e+002  7.0459e+000  5.0321e+001 48865 90530,90053,90027
 6.0000e-001 90226 -1.3623e+002 -1.2723e+002  8.7241e+001 48865 90079,90053,90200
 6.0000e-001 90249 -1.4449e+002 -1.7067e+002  8.6204e+001 48865 90272,90200,90105
 6.0000e-001 90298 -8.7908e+001 -1.2320e+002  1.0709e+002 48865 90079,90200,90272
 6.0000e-001 90428 -9.9328e+001 -6.7900e+001  9.7581e+001 48865 90105,90200,90402
 6.0000e-001 90556 -1.5132e+002 -2.9407e+002  3.7907e+001 48865 90001,90200,90530
 6.0000e-001 90579 -1.9891e+002 -1.2125e+002 -2.9884e+000 48865 90001,90530,90027
 6.0000e-001 90827 -1.6883e+002 -1.8371e+002  8.3732e+001 48404 90850,90654,90628
 6.0000e-001 90804 -1.5673e+002 -1.9259e+002  1.3241e+002 48404 90850,90628,90732
 6.0000e-001 90781 -1.0589e+002 -1.7054e+002  8.8136e+001 48404 90680,90732,90706
 6.0000e-001 90758 -1.8876e+002 -1.0318e+002  1.3777e+002 48404 90602,90732,90628
 6.0000e-001 90876 -1.5108e+002 -1.1395e+002  8.0929e+001 48404 90680,90654,90850
 6.0000e-001 90899 -1.5070e+002 -1.6242e+002  1.2052e+002 48404 90680,90850,90732
 6.0000e-001 91000 -9.7059e+001 -2.3707e+002  1.7070e+002 48156 90922,90974,90948
 6.0000e-001 91250 -1.2456e+002 -3.0562e+002  2.0264e+002 47752 91051,91103,91077
 6.0000e-001 91227 -9.4877e+001 -4.7782e+001  1.2664e+002 47752 91025,91103,91051
 6.0000e-001 91204 -3.4020e+002 -2.3215e+002  2.7246e+002 47752 91025,91155,91103
 6.0000e-001 91181 -3.5017e+002 -1.5287e+002  2.2020e+002 47752 91103,91155,91129
 6.0000e-001 91402 -1.7856e+002 -1.5712e+002  6.8388e+001 47191 91425,91301,91275
 6.0000e-001 91379 -1.4327e+002 -1.4140e+002  8.9321e+001 47191 91497,91425,91275
 6.0000e-001 91451 -1.6432e+002 -1.1852e+002  6.7603e+001 47191 91327,91301,91425
 6.0000e-001 91474 -1.2271e+002 -1.6233e+002  1.1561e+002 47191 91327,91425,91353
 6.0000e-001 91523 -1.7149e+002 -2.6102e+002  9.4148e+001 47191 91353,91425,91497
 6.0000e-001 91854 -1.1742e+002 -1.4878e+002  1.3982e+002 46744 91949,91877,91707
 6.0000e-001 91831 -2.9614e+001 -1.2370e+002  6.6685e+001 46744 91877,91655,91629
 6.0000e-001 91808 -1.2611e+002 -1.4170e+002  1.3529e+002 46744 91949,91707,91681
 6.0000e-001 91785 -2.4173e+001 -8.1132e+001 -2.5220e+001 46744 91629,91759,91733
 6.0000e-001 91903 -1.2856e+002 -1.6191e+002  1.4461e+002 46744 91733,91707,91877
 6.0000e-001 91926 -1.0442e+002 -2.3037e+002  9.9665e+001 46744 91733,91877,91629
 6.0000e-001 91975 -1.3068e+002 -1.5453e+002  1.3091e+002 46744 91655,91877,91949
 6.0000e-001 91998 -1.4876e+002 -1.5143e+002  1.2790e+002 46744 91655,91949,91681
 6.0000e-001 92378 -8.3116e+001 -6.3489e+001  7.6170e+001 46090 92130,92208,92182
 6.0000e-001 92355 -1.2988e+002 -8.3553e+001  7.5114e+001 46090 92104,92208,92130
 6.0000e-001 92332 -7.1986e+001 -1.3119e+002  7.6713e+001 46090 92104,92260,92208
 6.0000e-001 92309 -6.0076e+001 -1.1027e+002  8.1630e+001 46090 92208,92260,92234
 6.0000e-001 92286 -2.0567e+002 -1.3046e+002  1.0635e+002 46090 92130,92182,92156
 6.0000e-001 92626 -1.2440e+002 -1.7919e+002  5.9406e+001 45693 92721,92649,92505
 6.0000e-001 92603 -1.4399e+002 -1.8100e+002  1.0403e+002 45693 92649,92453,92427
 6.0000e-001 92580 -1.3283e+002 -1.5492e+002  5.6767e+001 45693 92721,92505,92479
 6.0000e-001 92557 -2.6363e+002 -2.3365e+002  1.1747e+002 45693 92401,92531,92427
 6.0000e-001 92675 -1.8232e+002 -1.7265e+002  7.3558e+001 45693 92531,92505,92649
 6.0000e-001 92698 -2.0315e+002 -2.0059e+002  1.3619e+002 45693 92531,92649,92427
 6.0000e-001 92747 -1.3131e+002 -1.5012e+002  5.9114e+001 45693 92453,92649,92721
 6.0000e-001 92770 -1.0242e+002 -7.2558e+001  6.9437e+001 45693 92453,92721,92479
 6.0000e-001 93172 -7.8239e+001 -1.3329e+002  1.1663e+002 45331 92898,93028,92924
 6.0000e-001 93149 -6.0875e+001 -1.4466e+002  8.5058e+001 45331 92898,93054,93028
 6.0000e-001 93126 -1.1914e+002 -9.9035e+001  1.3336e+002 45331 92924,93002,92976
 6.0000e-001 93103 -5.0312e+001 -1.2231e+002  1.1648e+002 45331 92924,93028,93002
 6.0000e-001 93080 -1.0257e+002 -1.3871e+002  1.5754e+002 45331 92924,92976,92950
 6.0000e-001 93518 -1.6072e+002 -3.4876e+002  9.5766e+001 44820 93613,93273,93247
 6.0000e-001 93495 -2.5541e+002 -2.7108e+002  1.4798e+002 44820 93685,93541,93247
 6.0000e-001 93472 -2.2119e+002 -1.8460e+002  1.1750e+002 44820 93541,93195,93377
 6.0000e-001 93449 -2.9179e+002 -2.3098e+002  1.0459e+002 44820 93685,93247,93221
 6.0000e-001 93426 -1.7807e+002 -2.0282e+002  9.9378e+001 44820 93299,93377,93351
 6.0000e-001 93403 -1.3546e+002 -1.2206e+002  1.2265e+002 44820 93299,93351,93325
 6.0000e-001 93567 -2.0074e+002 -3.5399e+002  1.2363e+002 44820 93613,93247,93541
 6.0000e-001 93590 -2.0001e+002 -2.5530e+002  9.2993e+001 44820 93299,93541,93377
 6.0000e-001 93639 -2.0207e+002 -3.3347e+002  1.1370e+002 44820 93299,93273,93613
 6.0000e-001 93662 -1.9724e+002 -3.3424e+002  1.1929e+002 44820 93299,93613,93541
 6.0000e-001 93711 -2.0942e+002 -1.9619e+002  1.0294e+002 44820 93195,93541,93685
 6.0000e-001 93734 -1.8905e+002 -7.2595e+001  5.0775e+001 44820 93195,93685,93221
 6.0000e-001 94163 -1.9180e+002 -2.3993e+002  8.8971e+001 44237 94258,94186,93996
 6.0000e-001 94140 -2.3316e+002 -2.6887e+002  5.7907e+001 44237 94330,94022,93996
 6.0000e-001 94117 -2.4268e+002 -2.6568e+002  6.4585e+001 44237 94186,93918,93866
 6.0000e-001 94094 -1.6320e+002 -1.8566e+002  1.0098e+002 44237 94258,93996,93970
 6.0000e-001 94071 -2.0718e+002 -1.4950e+002  8.2783e+001 44237 94402,93944,93918
 6.0000e-001 94048 -1.8509e+002 -2.8850e+002  1.0683e+002 44237 93866,93918,93892
 6.0000e-001 94212 -2.3392e+002 -2.7111e+002  7.5214e+001 44237 94330,93996,94186
 6.0000e-001 94235 -2.4069e+002 -2.3115e+002  8.4709e+001 44237 93840,94186,93866
 6.0000e-001 94284 -2.0905e+002 -1.9155e+002  5.7071e+001 44237 93918,94186,94258
 6.0000e-001 94307 -1.9201e+002 -1.5738e+002  6.6699e+001 44237 94402,93918,94258
 6.0000e-001 94356 -2.1545e+002 -1.1407e+002 -1.2479e+000 44237 93840,94022,94330
 6.0000e-001 94379 -2.2148e+002 -2.3934e+002  7.8232e+001 44237 93840,94330,94186
 6.0000e-001 94428 -2.3440e+002 -1.8061e+002  9.4284e+001 44237 93970,93944,94402
 6.0000e-001 94451 -2.1267e+002 -1.8540e+002  7.6010e+001 44237 93970,94402,94258
 6.0000e-001 94908 -7.8835e+001 -1.4514e+002  4.3342e+001 43890 94660,94790,94712
 6.0000e-001 94885 -6.3336e+001 -5.8351e+001  6.5883e+001 43890 94634,94790,94660
 6.0000e-001 94862 -1.1757e+002 -7.6031e+001  8.3277e+001 43890 94712,94764,94738
 6.0000e-001 94839 -7.6179e+001 -1.6094e+002  8.7191e+001 43890 94712,94790,94764
 6.0000e-001 94816 -4.5721e+001 -2.0420e+002  1.1790e+002 43890 94660,94712,94686
 6.0000e-001 95414 -1.6375e+002 -1.4113e+002  6.7588e+001 43186 95437,95143,95117
 6.0000e-001 95391 -1.6483e+002 -2.1469e+002  9.2797e+001 43186 95437,95117,95091
 6.0000e-001 95368 -9.4712e+001 -9.1262e+001  6.0478e+001 43186 95143,95221,95195
 6.0000e-001 95345 -2.5512e+002 -2.0301e+002  1.7331e+002 43186 95091,95273,95221
 6.0000e-001 95322 -1.7085e+002 -1.3392e+002  8.3594e+001 43186 95221,95273,95247
 6.0000e-001 95299 -1.4344e+002 -2.6029e+002  7.3551e+001 43186 95143,95195,95169
 6.0000e-001 95463 -1.7878e+002 -1.9124e+002  1.0135e+002 43186 95221,95143,95437
 6.0000e-001 95486 -1.7129e+002 -2.4979e+002  1.2750e+002 43186 95221,95437,95091
 6.0000e-001 96041 -2.1566e+002 -2.3599e+002  5.1202e+001 42782 95695,95851,95799
 6.0000e-001 96018 -1.9217e+002 -2.4372e+002  5.8468e+001 42782 95669,95851,95695
 6.0000e-001 95995 -2.3547e+002 -1.7774e+002  6.6669e+001 42782 95695,95747,95721
 6.0000e-001 95972 -1.8010e+002 -2.2089e+002  5.8550e+001 42782 95695,95799,95747
 6.0000e-001 95949 -1.6675e+002 -1.7988e+002  5.2139e+001 42782 95747,95799,95773
 6.0000e-001 95926 -2.9772e+002 -2.6338e+002  1.1768e+002 42782 95799,95851,95825
 6.0000e-001 95903 -2.5263e+002 -2.6700e+002  5.6029e+001 42782 95669,95877,95851
 6.0000e-001 96370 -2.2771e+002 -2.8608e+002  1.4011e+002 42420 96197,96275,96223
 6.0000e-001 96347 -2.2025e+002 -2.4849e+002  1.3168e+002 42420 96145,96275,96197
 6.0000e-001 96324 -2.3172e+002 -1.7704e+002  1.3144e+002 42420 96145,96197,96171
 6.0000e-001 96301 -1.5894e+002 -2.0231e+002  9.7851e+001 42420 96223,96275,96249
 6.0000e-001 96699 -1.8146e+002 -1.7857e+002  8.2103e+001 41816 96474,96578,96526
 6.0000e-001 96676 -1.2061e+002 -7.9544e+001  1.6795e+000 41816 96474,96604,96578
 6.0000e-001 96653 -1.7129e+002 -9.4423e+001  1.1527e+002 41816 96526,96578,96552
 6.0000e-001 96630 -1.4069e+002 -1.4124e+002  3.5894e+001 41816 96474,96526,96500
 6.0000e-001 96947 -1.0463e+002 -2.4866e+002  1.1170e+002 41212 96722,96800,96748
 6.0000e-001 96924 -1.6663e+002 -1.9199e+002  1.4066e+002 41212 96722,96826,96800
 6.0000e-001 96901 -1.4319e+002 -1.2001e+002  6.7978e+001 41212 96722,96852,96826
 6.0000e-001 96878 -1.8063e+002 -2.8755e+002  8.5424e+001 41212 96748,96800,96774
 6.0000e-001 97097 -9.6941e+001 -1.1325e+002  1.0904e+002 40793 97120,97022,96996
 6.0000e-001 97074 -1.6565e+002 -2.6193e+002  8.2985e+001 40793 97192,97120,96996
 6.0000e-001 97146 -8.8230e+001 -2.1010e+002  1.0788e+002 40793 97324,97120,97048
 6.0000e-001 97169 -5.5119e+001 -3.0015e+002  1.1630e+002 40793 97048,97120,96970
 6.0000e-001 97218  2.4626e+001 -1.8031e+002  8.0117e+001 40793 96970,97120,97192
 6.0000e-001 97350 -8.8230e+001 -2.1010e+002  1.0788e+002 40793 97022,97120,97324
 6.0000e-001 97878 -1.2370e+002 -2.7765e+002  6.2976e+001 40446 97901,97607,97555
 6.0000e-001 97855 -1.4357e+002 -1.9897e+002  7.2541e+001 40446 97973,97901,97555
 6.0000e-001 97832 -1.4093e+002 -1.7597e+002  5.3502e+001 40446 97973,97555,97737
 6.0000e-001 97809 -1.7036e+002 -2.3526e+002  6.2252e+001 40446 97633,97685,97659
 6.0000e-001 97786 -1.3309e+002 -2.2190e+002  5.8969e+001 40446 97633,97711,97685
 6.0000e-001 97763 -1.2858e+002 -3.2345e+002  7.2008e+001 40446 97555,97607,97581
 6.0000e-001 97927 -1.6777e+002 -3.5463e+002 -1.4737e+000 40446 97633,97607,97901
 6.0000e-001 97950 -1.4254e+002 -2.5940e+002  4.7533e+001 40446 97633,97901,97711
 6.0000e-001 97999 -1.3116e+002 -2.6323e+002  7.7590e+001 40446 97711,97901,97973
 6.0000e-001 98022 -1.2007e+002 -2.2044e+002  6.4069e+001 40446 97711,97973,97737
 6.0000e-001 98449 -1.2265e+002 -9.1169e+001  6.4413e+001 39935 98152,98204,98178
 6.0000e-001 98426 -1.6261e+002 -1.0879e+002  4.5112e+001 39935 98152,98230,98204
 6.0000e-001 98403 -2.1542e+002 -1.0276e+002  9.4810e+001 39935 98152,98256,98230
 6.0000e-001 98380 -1.2871e+002 -1.6222e+002  1.1815e+002 39935 98126,98256,98152
 6.0000e-001 98357 -1.7927e+002 -2.7670e+002  1.3084e+002 39935 98126,98282,98256
 6.0000e-001 98334 -1.3692e+002 -4.0603e+002  1.8153e+002 39935 98126,98308,98282
 6.0000e-001 98746 -3.7093e+002 -2.5483e+002  7.0317e+001 39531 98498,98602,98524
 6.0000e-001 98723 -2.7170e+002 -2.1724e+002  8.0755e+001 39531 98472,98602,98498
 6.0000e-001 98700 -3.2785e+002 -1.7406e+002  8.6437e+001 39531 98524,98602,98576
 6.0000e-001 98677 -2.0867e+002 -2.4086e+002  1.0065e+002 39531 98472,98628,98602
 6.0000e-001 98654 -5.7890e+002 -2.1497e+002  9.2094e+001 39531 98524,98576,98550
 6.0000e-001 99224 -2.3375e+002 -1.1736e+002  2.2139e+002 39027 99247,98956,98930
 6.0000e-001 99201 -2.5559e+002 -2.4104e+002  1.0963e+002 39027 99247,98930,98878
 6.0000e-001 99178 -1.8631e+002 -2.3615e+002  1.6521e+002 39027 99319,98982,98956
 6.0000e-001 99155 -1.7058e+002 -1.5142e+002  1.3377e+002 39027 98852,99060,98878
 6.0000e-001 99132 -1.9459e+002 -1.4038e+002  6.1681e+001 39027 98878,98930,98904
 6.0000e-001 99109 -2.8261e+002 -4.6038e+002  2.5795e+002 39027 98982,99060,99034
 6.0000e-001 99086 -3.3658e+002 -5.3233e+002  3.3374e+002 39027 98982,99034,99008
 6.0000e-001 99273 -1.8039e+002 -2.2118e+002  1.6484e+002 39027 99319,98956,99247
 6.0000e-001 99296 -1.8759e+002 -2.1055e+002  1.1832e+002 39027 99060,99247,98878
 6.0000e-001 99345 -1.8062e+002 -2.4274e+002  1.5607e+002 39027 99060,98982,99319
 6.0000e-001 99368 -1.7879e+002 -2.3873e+002  1.5562e+002 39027 99060,99319,99247
 6.0000e-001 99923 -2.7818e+002 -2.0903e+002  1.0481e+002 38523 99946,99655,99603
 6.0000e-001 99900 -2.1709e+002 -1.8088e+002  1.1177e+002 38523 99946,99603,99759
 6.0000e-001 99877 -1.3115e+002 -2.6801e+002  1.4547e+002 38523 100018,99707,99681
 6.0000e-001 99854 -2.2612e+002 -1.2381e+002  1.0586e+002 38523 99551,99759,99603
 6.0000e-001 99831 -1.9550e+002 -1.0236e+002  8.0699e+001 38523 99551,99603,99577
 6.0000e-001 99808 -2.2945e+002 -3.6090e+002  1.0934e+002 38523 99707,99759,99733
 6.0000e-001 99785 -1.8506e+002 -1.7951e+002  8.5629e+001 38523 99603,99655,99629
 6.0000e-001 99972 -2.2561e+002 -1.0476e+002  1.3300e+002 38523 99681,99655,99946
 6.0000e-001 99995 -1.6373e+002 -1.4114e+002  1.7004e+002 38523 100018,99681,99946
 6.0000e-001 100044 -1.8077e+002 -3.2210e+002  9.1572e+001 38523 99759,99707,100018
 6.0000e-001 100067 -2.5544e+002 -2.6958e+002  1.1632e+002 38523 99759,100018,99946
 6.0000e-001 100467 -1.1684e+002 -1.8482e+002  7.2518e+001 38125 100219,100349,100323
 6.0000e-001 100444  4.1393e+000  4.1392e+000  1.2479e+002 38125 100193,100349,100219
 6.0000e-001 100421 -6.8012e+001 -2.6471e+002  8.6397e+001 38125 100245,100323,100297
 6.0000e-001 100398 -6.7160e+001 -1.5999e+002  9.5531e+001 38125 100219,100323,100245
 6.0000e-001 100375 -1.3890e+002 -2.5893e+002  1.6318e+002 38125 100245,100297,100271
 6.0000e-001 100666 -2.5024e+002 -2.6260e+002  9.7864e+001 37607 100689,100568,100542
 6.0000e-001 100643 -2.2887e+002 -1.8633e+002  8.2470e+001 37607 100689,100542,100490
 6.0000e-001 100620 -1.7802e+002 -1.6113e+002  5.8629e+001 37607 100490,100542,100516
 6.0000e-001 100715 -2.1104e+002 -1.9169e+002  7.8344e+001 37607 100594,100568,100689
 6.0000e-001 100738 -2.3669e+002 -1.7099e+002  7.5445e+001 37607 100594,100689,100490
 6.0000e-001 100937 -1.9711e+002 -1.0346e+002  1.5425e+002 37017 100960,100813,100787
 6.0000e-001 100914 -1.8867e+002 -1.1597e+002  1.1430e+002 37017 100960,100787,100761
 6.0000e-001 100891 -2.3563e+002 -8.7623e+001  1.4577e+002 37017 100813,100865,100839
 6.0000e-001 100986 -2.1743e+002 -1.4874e+002  1.5911e+002 37017 100865,100813,100960
 6.0000e-001 101009 -2.0362e+002 -1.5048e+002  1.1577e+002 37017 100865,100960,100761
 6.0000e-001 101519 -3.2381e+002 -2.8349e+002  1.4754e+002 36613 101222,101274,101248
 6.0000e-001 101496 -1.9094e+002 -1.8521e+002  9.9997e+001 36613 101222,101352,101274
 6.0000e-001 101473 -2.0897e+002 -2.5453e+002  9.3264e+001 36613 101274,101352,101326
 6.0000e-001 101450 -1.9278e+002 -1.3377e+002  1.2293e+002 36613 101222,101378,101352
 6.0000e-001 101427 -8.4730e+001 -3.8211e+002  1.6205e+002 36613 101274,101326,101300
 6.0000e-001 101404 -1.8110e+002 -4.1937e+001  3.2295e+001 36613 101196,101378,101222
 6.0000e-001 101718 -2.1366e+002 -1.0903e+002  1.3182e+002 36308 101594,101646,101620
 6.0000e-001 101695 -2.1878e+002 -1.0247e+002  1.1283e+002 36308 101568,101646,101594
 6.0000e-001 101672 -2.1161e+002 -1.2409e+002  1.1129e+002 36308 101542,101646,101568
 6.0000e-001 102098 -2.3092e+002 -1.4051e+002  9.4463e+001 35918 102121,101954,101876
 6.0000e-001 102075 -1.7908e+002 -1.9194e+002  7.3189e+001 35918 102121,101876,101824
 6.0000e-001 102052 -2.5119e+002 -1.5096e+002  7.7703e+001 35918 101876,101954,101928
 6.0000e-001 102029 -3.3492e+002 -5.4605e+001  8.4211e+001 35918 101876,101928,101902
 6.0000e-001 102006 -1.5599e+002 -1.2967e+002  4.8622e+001 35918 101824,101876,101850
 6.0000e-001 102147 -2.5158e+002 -1.8777e+002  1.1846e+002 35918 101980,101954,102121
 6.0000e-001 102170 -1.9926e+002 -2.4326e+002  9.2327e+001 35918 101980,102121,101824
 6.0000e-001 102489 -1.6647e+002 -3.8605e+002  1.4106e+002 35514 102241,102345,102267
 6.0000e-001 102466 -2.0693e+002 -3.8333e+002  1.2700e+002 35514 102215,102345,102241
 6.0000e-001 102443 -1.7747e+002 -4.2100e+002  1.3742e+002 35514 102215,102371,102345
 6.0000e-001 102420 -1.6374e+002 -3.8592e+002  1.4174e+002 35514 102267,102345,102293
 6.0000e-001 102397 -1.1263e+002 -2.7113e+002  1.5106e+002 35514 102293,102345,102319
 6.0000e-001 102820 -2.0792e+002 -1.8934e+002  5.3957e+001 35224 102843,102699,102647
 6.0000e-001 102797 -2.7534e+002 -1.9909e+002  1.0433e+002 35224 102971,102725,102699
 6.0000e-001 102774 -1.9677e+002 -2.2064e+002  1.1802e+002 35224 102595,102725,102621
 6.0000e-001 102751 -8.7047e+001 -1.0539e+002  9.4833e+001 35224 102647,102699,102673
 6.0000e-001 102869 -2.1018e+002 -1.8680e+002  9.7026e+001 35224 102971,102699,102843
 6.0000e-001 102997 -1.9701e+002 -2.2581e+002  1.0792e+002 35224 102621,102725,102971
 6.0000e-001 103020 -1.2097e+002 -2.0604e+002  1.0822e+002 35224 102621,102971,102843
 6.0000e-001 103349 -2.4873e+002 -2.0763e+002  1.2101e+002 34820 103150,103228,103176
 6.0000e-001 103326 -2.3162e+002 -2.2485e+002  1.1803e+002 34820 103124,103228,103150
 6.0000e-001 103303 -1.9916e+002 -1.9660e+002  1.9705e+002 34820 103176,103228,103202
 6.0000e-001 103280 -1.3670e+002 -1.7888e+002  1.5674e+002 34820 103124,103254,103228
 6.0000e-001 103806 -2.7890e+002 -1.7053e+002  9.5026e+001 34530 103558,103662,103636
 6.0000e-001 103783 -2.4040e+002 -1.8175e+002  6.3670e+001 34530 103558,103688,103662
 6.0000e-001 103760 -2.6030e+002 -2.2905e+002  6.1461e+001 34530 103532,103688,103558
 6.0000e-001 103737 -2.2521e+002 -2.0640e+002  1.0113e+002 34530 103584,103636,103610
 6.0000e-001 103714 -4.0964e+002 -2.0873e+002  1.0603e+002 34530 103558,103636,103584
 6.0000e-001 104263 -1.2842e+002 -1.1811e+002  9.5835e+001 34019 103989,104119,104015
 6.0000e-001 104240 -1.0132e+002 -1.0947e+002  8.8606e+001 34019 103989,104145,104119
 6.0000e-001 104217 -1.2232e+002 -1.7253e+002  6.0731e+001 34019 104015,104067,104041
 6.0000e-001 104194 -1.5063e+002 -1.8646e+002  8.0160e+001 34019 104015,104119,104067
 6.0000e-001 104171 -1.6097e+002 -1.1246e+002  7.5831e+001 34019 104067,104119,104093
 6.0000e-001 104641 -2.2207e+002 -1.1980e+002  9.1012e+001 33351 104419,104497,104445
 6.0000e-001 104618 -2.1826e+002 -1.1288e+002  9.5067e+001 33351 104393,104497,104419
 6.0000e-001 104595 -3.2391e+002 -1.6286e+002  7.4236e+001 33351 104367,104497,104393
 6.0000e-001 104572 -2.0866e+002 -9.1786e+001  4.4197e+001 33351 104445,104497,104471
 6.0000e-001 104549 -2.9219e+002 -1.1676e+002  6.0000e+001 33351 104367,104523,104497
 6.0000e-001 105019 -1.9375e+002 -3.3868e+002  1.6471e+002 32861 104823,104901,104875
 6.0000e-001 104996 -2.3853e+002 -3.4006e+002  1.4091e+002 32861 104745,104901,104823
 6.0000e-001 104973 -2.9294e+002 -3.8055e+002  1.6780e+002 32861 104823,104875,104849
 6.0000e-001 104950 -2.3659e+002 -3.2180e+002  1.6881e+002 32861 104745,104823,104797
 6.0000e-001 104927 -2.4201e+002 -1.2816e+002  1.7570e+002 32861 104745,104797,104771
 6.0000e-001 105397 -1.2294e+002 -2.2264e+002  1.0407e+002 32457 105149,105253,105175
 6.0000e-001 105374 -2.1596e+002 -2.0679e+002  9.0626e+001 32457 105149,105279,105253
 6.0000e-001 105351 -7.8318e+001 -1.7232e+002  9.9425e+001 32457 105123,105279,105149
 6.0000e-001 105328 -2.7392e+002 -5.3886e+001  2.1491e+002 32457 105175,105227,105201
 6.0000e-001 105305 -2.6288e+002 -2.7902e+002  1.2758e+002 32457 105175,105253,105227
 6.0000e-001 105726 -8.6252e+001 -2.4956e+002  1.2004e+002 32003 105527,105605,105553
 6.0000e-001 105703 -1.6343e+002 -2.0235e+002  1.0658e+002 32003 105501,105605,105527
 6.0000e-001 105680 -6.8935e+001 -1.6166e+002  1.0120e+002 32003 105501,105631,105605
 6.0000e-001 105657 -4.5043e+001 -1.3917e+002  1.1279e+002 32003 105553,105605,105579
 6.0000e-001 106104 -2.4348e+002 -1.4625e+002  1.2314e+002 31492 106127,105908,105856
 6.0000e-001 106081 -2.4935e+002 -1.4435e+002  8.0314e+001 31492 106127,105856,105830
 6.0000e-001 106058 -1.9727e+002 -2.2610e+002  1.3735e+002 31492 105856,105908,105882
 6.0000e-001 106035 -2.2707e+002 -1.9116e+002  6.5598e+001 31492 105830,105986,105960
 6.0000e-001 106012 -1.5635e+002 -2.1803e+002  1.5288e+002 31492 105908,105960,105934
 6.0000e-001 106153 -2.4693e+002 -1.8334e+002  1.0900e+002 31492 105960,105908,106127
 6.0000e-001 106176 -2.5555e+002 -2.0633e+002  7.1446e+001 31492 105960,106127,105830
 6.0000e-001 106375 -1.9485e+002 -1.4852e+002  1.3228e+002 30788 106398,106277,106251
 6.0000e-001 106352 -2.2299e+002 -2.4633e+002  1.3223e+002 30788 106398,106251,106225
 6.0000e-001 106329 -2.7305e+002 -2.1328e+002  1.8163e+002 30788 106600,106199,106303
 6.0000e-001 106424 -3.0100e+002 -2.8422e+002  9.8287e+001 30788 106470,106398,106303
 6.0000e-001 106447 -2.2126e+002 -2.3933e+002  1.4484e+002 30788 106600,106303,106398
 6.0000e-001 106496 -8.0069e+001 -1.8903e+002  1.1489e+002 30788 106277,106398,106470
 6.0000e-001 106626 -3.0688e+002 -2.6231e+002  2.0470e+002 30788 106225,106199,106600
 6.0000e-001 106649 -2.6951e+002 -2.8947e+002  1.6831e+002 30788 106225,106600,106398
 6.0000e-001 106799 -1.1488e+002 -2.6253e+002  4.7437e+001 30426 106698,106750,106724
 6.0000e-001 106776 -6.7081e+001 -1.5830e+002  7.0541e+001 30426 106672,106750,106698
 6.0000e-001 107356 -2.3099e+002 -1.6292e+002  8.1573e+001 29972 107010,107166,107114
 6.0000e-001 107333 -2.1533e+002 -1.4852e+002  9.1836e+001 29972 106984,107166,107010
 6.0000e-001 107310 -2.3874e+002 -8.6864e+001  4.6095e+001 29972 107010,107114,107088
 6.0000e-001 107287 -2.1034e+002 -6.9779e+001  6.3871e+001 29972 107114,107166,107140
 6.0000e-001 107264 -2.2681e+002 -1.8067e+002  1.1043e+002 29972 106984,107192,107166
 6.0000e-001 107241 -2.5564e+002 -1.5920e+002  4.2697e+001 29972 107010,107088,107036
 6.0000e-001 107218 -2.4969e+002 -1.5988e+002  7.5250e+001 29972 107036,107088,107062
 6.0000e-001 107783 -2.0907e+002 -2.6285e+002  1.3682e+002 29724 107878,107806,107590
 6.0000e-001 107760 -3.2578e+002 -3.0716e+002  1.2915e+002 29724 107806,107512,107486
 6.0000e-001 107737 -2.0219e+002 -2.6096e+002  1.3642e+002 29724 107878,107590,107538
 6.0000e-001 107714 -2.3367e+002 -3.2198e+002  1.7058e+002 29724 107950,107460,107616
 6.0000e-001 107691 -2.4106e+002 -3.2204e+002  1.5710e+002 29724 107460,107642,107616
 6.0000e-001 107668 -1.4865e+002 -1.7985e+002  1.6477e+002 29724 107538,107590,107564
 6.0000e-001 107832 -1.6657e+002 -2.7917e+002  1.8518e+002 29724 107616,107590,107806
 6.0000e-001 107855 -2.3308e+002 -3.2454e+002  1.6353e+002 29724 107950,107616,107806
 6.0000e-001 107904 -2.3466e+002 -2.6367e+002  1.6842e+002 29724 107512,107806,107878
 6.0000e-001 107927 -1.7780e+002 -2.3889e+002  1.7479e+002 29724 107512,107878,107538
 6.0000e-001 107976 -1.7426e+002 -3.3388e+002  1.9249e+002 29724 107486,107460,107950
 6.0000e-001 107999 -2.2686e+002 -3.4716e+002  1.6186e+002 29724 107486,107950,107806
 6.0000e-001 108296 -1.9920e+002 -1.9846e+002  1.0156e+002 29206 108319,108100,108048
 6.0000e-001 108273 -1.2023e+002 -1.8745e+002  1.3588e+002 29206 108319,108048,108022
 6.0000e-001 108250 -8.5632e+001 -2.0908e+002  1.5961e+002 29206 108391,108152,108126
 6.0000e-001 108227 -2.9664e+002 -1.3196e+002  1.5496e+002 29206 108048,108100,108074
 6.0000e-001 108204 -1.1754e+002 -2.7530e+002  1.4543e+002 29206 108022,108178,108152
 6.0000e-001 108345 -1.4634e+002 -1.0912e+002  1.3760e+002 29206 108126,108100,108319
 6.0000e-001 108368 -1.0082e+002 -1.7640e+002  1.7280e+002 29206 108391,108126,108319
 6.0000e-001 108417 -1.2006e+002 -2.4462e+002  1.3874e+002 29206 108022,108152,108391
 6.0000e-001 108440 -1.3384e+002 -2.2216e+002  1.5407e+002 29206 108022,108391,108319
 6.0000e-001 108688 -3.3197e+002 -2.6612e+002  1.6188e+002 28595 108711,108541,108515
 6.0000e-001 108665 -4.3936e+002 -2.8483e+002  2.1569e+002 28595 108783,108711,108515
 6.0000e-001 108642 -4.9305e+002 -2.6418e+002  2.1159e+002 28595 108783,108515,108489
 6.0000e-001 108619 -4.9550e+002 -3.5151e+002  1.1777e+002 28595 108463,108593,108489
 6.0000e-001 108737 -3.0336e+002 -2.1353e+002  1.0603e+002 28595 108567,108541,108711
 6.0000e-001 108760 -2.9819e+002 -2.3984e+002  1.8632e+002 28595 108567,108711,108593
 6.0000e-001 108809 -3.3017e+002 -3.0497e+002  1.7591e+002 28595 108593,108711,108783
 6.0000e-001 108832 -4.2355e+002 -3.1159e+002  1.5424e+002 28595 108593,108783,108489
 6.0000e-001 109033 -1.3200e+002 -1.4175e+002  1.0421e+002 28091 108909,108961,108935
 6.0000e-001 109010 -2.0200e+002 -1.4791e+002  8.4632e+001 28091 108857,108961,108909
 6.0000e-001 108987 -2.6639e+002 -1.9989e+002  1.5399e+002 28091 108857,108909,108883
 6.0000e-001 109136 -1.8159e+002 -4.2602e+002  7.9894e+001 27587 109058,109110,109084
 6.0000e-001 109695 -2.0627e+002 -2.0617e+002  7.3443e+001 26969 109718,109375,109323
 6.0000e-001 109672 -2.1048e+002 -1.9508e+002  8.8045e+001 26969 109718,109323,109505
 6.0000e-001 109649 -2.5474e+002 -7.9372e+001  4.7284e+001 26969 109790,109453,109427
 6.0000e-001 109626 -1.3359e+002 -1.8567e+002  9.5333e+001 26969 109323,109375,109349
 6.0000e-001 109603 -2.4366e+002 -2.5450e+002  1.2507e+002 26969 109323,109531,109505
 6.0000e-001 109580 -1.7664e+002 -2.4556e+002  5.5889e+001 26969 109375,109427,109401
 6.0000e-001 109557 -2.8279e+002 -1.0770e+002  6.1478e+001 26969 109453,109505,109479
 6.0000e-001 109744 -2.2374e+002 -2.2987e+002  4.2884e+001 26969 109427,109375,109718
 6.0000e-001 109767 -1.8219e+002 -1.3631e+002  5.0540e+001 26969 109790,109427,109718
 6.0000e-001 109816 -2.9710e+002 -1.3634e+002  7.3439e+001 26969 109505,109453,109790
 6.0000e-001 109839 -2.4852e+002 -2.0859e+002  8.5918e+001 26969 109505,109790,109718
 6.0000e-001 110266 -1.8938e+002 -2.8359e+002  1.1428e+002 26515 110361,110289,110099
 6.0000e-001 110243 -1.7152e+002 -2.2624e+002  1.5054e+002 26515 110289,109995,109943
 6.0000e-001 110220 -1.9099e+002 -2.8709e+002  1.2696e+002 26515 110361,110099,110021
 6.0000e-001 110197 -1.1749e+002 -3.2413e+002  1.0277e+002 26515 110047,110099,110073
 6.0000e-001 110174 -1.6429e+002 -4.2421e+002  6.1322e+001 26515 110021,110099,110047
 6.0000e-001 110151  1.8263e+001  2.2546e+001  2.3721e+002 26515 109943,109995,109969
 6.0000e-001 110315 -3.3342e+002 -2.1686e+002  9.7278e+001 26515 110125,110099,110289
 6.0000e-001 110338 -1.9663e+002 -7.6412e+001  1.8837e+002 26515 110125,110289,109943
 6.0000e-001 110387 -1.8549e+002 -2.5184e+002  1.0526e+002 26515 109995,110289,110361
 6.0000e-001 110410 -1.9191e+002 -2.6789e+002  1.1670e+002 26515 109995,110361,110021
 6.0000e-001 110609 -1.0477e+002 -2.6022e+002  1.0814e+002 25789 110906,110762,110632
 6.0000e-001 110586 -1.0621e+002 -3.3035e+002  1.2593e+002 25789 110762,110433,110537
 6.0000e-001 110563 -2.2344e+002 -2.8134e+002  1.7448e+002 25789 110834,110459,110433
 6.0000e-001 110658 -1.4594e+002 -2.4852e+002  1.3471e+002 25789 110906,110632,110834
 6.0000e-001 110788 -7.8328e+001 -1.6823e+002  7.3885e+001 25789 110511,110632,110762
 6.0000e-001 110811 -9.2608e+001 -2.5814e+002  1.2902e+002 25789 110511,110762,110537
 6.0000e-001 110860 -1.4583e+002 -2.4541e+002  1.6463e+002 25789 110485,110459,110834
 6.0000e-001 110883 -1.7620e+002 -2.6485e+002  1.4174e+002 25789 110485,110834,110632
 6.0000e-001 110932 -1.8312e+002 -2.8447e+002  1.1147e+002 25789 110433,110762,110906
 6.0000e-001 110955 -2.1562e+002 -2.6378e+002  1.3225e+002 25789 110433,110906,110834
 6.0000e-001 111350 -2.4562e+002 -2.2274e+002  1.7720e+002 25228 111445,111373,111186
 6.0000e-001 111327 -2.6153e+002 -2.8240e+002  9.5931e+001 25228 110978,111186,111004
 6.0000e-001 111304 -2.7800e+002 -2.9263e+002  1.2906e+002 25228 111373,111108,111082
 6.0000e-001 111281 -1.7330e+002 -3.2601e+002  1.4176e+002 25228 111134,111186,111160
 6.0000e-001 111258 -2.3073e+002 -1.9975e+002  1.9215e+002 25228 111445,111186,111134
 6.0000e-001 111235 -2.3085e+002 -2.1506e+002  9.5309e+001 25228 111517,111030,111004
 6.0000e-001 111212 -3.3005e+002 -2.6315e+002  1.1579e+002 25228 111030,111082,111056
 6.0000e-001 111399 -2.5881e+002 -2.8863e+002  1.6558e+002 25228 111004,111186,111373
 6.0000e-001 111422 -2.0299e+002 -2.2921e+002  1.3462e+002 25228 111517,111004,111373
 6.0000e-001 111471 -2.7800e+002 -2.2589e+002  1.3573e+002 25228 111108,111373,111445
 6.0000e-001 111494 -2.5934e+002 -1.9570e+002  1.5154e+002 25228 111108,111445,111134
 6.0000e-001 111543 -2.9742e+002 -2.4255e+002  9.8543e+001 25228 111082,111030,111517
 6.0000e-001 111566 -2.6610e+002 -2.5672e+002  1.3978e+002 25228 111082,111517,111373
 6.0000e-001 112074 -2.5637e+002 -2.1478e+002  1.2321e+002 24338 112097,111907,111881
 6.0000e-001 112051 -2.9169e+002 -2.1698e+002  9.9808e+001 24338 112097,111881,111829
 6.0000e-001 112028 -1.6023e+002 -2.2156e+002  9.4671e+001 24338 111829,111881,111855
 6.0000e-001 112005 -3.2723e+002 -2.8272e+002  9.0168e+001 24338 111777,111933,111829
 6.0000e-001 111982 -3.7642e+002 -9.7645e+001  9.9833e+001 24338 111751,111933,111777
 6.0000e-001 111959 -3.3148e+002 -3.5653e+002  1.3611e+002 24338 111777,111829,111803
 6.0000e-001 112123 -2.8977e+002 -2.6906e+002  1.0592e+002 24338 111933,111907,112097
 6.0000e-001 112146 -3.0405e+002 -2.2534e+002  9.2488e+001 24338 111933,112097,111829
 6.0000e-001 112443 -3.1480e+002 -2.1087e+002  1.1349e+002 23998 112466,112299,112247
 6.0000e-001 112420 -3.4568e+002 -3.3859e+002  1.1507e+002 23998 112466,112247,112221
 6.0000e-001 112397 -3.7858e+002 -3.5197e+002  1.5800e+002 23998 112169,112325,112221
 6.0000e-001 112374 -3.2936e+002 -2.8100e+002  1.8369e+002 23998 112169,112221,112195
 6.0000e-001 112351 -2.0895e+002 -1.7762e+002  1.3898e+002 23998 112247,112299,112273
 6.0000e-001 112492 -3.2141e+002 -2.2802e+002  1.9001e+002 23998 112325,112299,112466
 6.0000e-001 112515 -3.4592e+002 -2.9865e+002  1.7362e+002 23998 112325,112466,112221
 6.0000e-001 113200 -2.7540e+002 -2.8891e+002  1.9251e+002 23480 112779,112961,112805
 6.0000e-001 113177 -2.7615e+002 -2.3430e+002  1.1255e+002 23480 112779,112987,112961
 6.0000e-001 113154 -1.2842e+002 -1.7696e+002  1.3731e+002 23480 112805,112961,112883
 6.0000e-001 113131 -2.0956e+002 -2.6632e+002  1.3906e+002 23480 112883,112935,112909
 6.0000e-001 113108 -2.3468e+002 -2.2245e+002  1.3454e+002 23480 112883,112961,112935
 6.0000e-001 113085 -1.3575e+002 -1.2954e+002  6.6375e+001 23480 112831,112883,112857
 6.0000e-001 113062 -1.8353e+002 -1.7003e+002  8.6041e+001 23480 112805,112883,112831
 6.0000e-001 113039 -3.5661e+002 -1.6893e+002  1.2732e+002 23480 112779,113013,112987
 6.0000e-001 113676 -2.8146e+002 -1.4917e+002  1.6001e+002 23018 113699,113434,113356
 6.0000e-001 113653 -2.2891e+002 -1.3201e+002  1.2477e+002 23018 113771,113699,113356
 6.0000e-001 113630 -2.0807e+002 -1.9664e+002  9.8765e+001 23018 113771,113356,113512
 6.0000e-001 113607 -1.8011e+002 -2.3988e+002  1.2730e+002 23018 113330,113512,113356
 6.0000e-001 113584 -5.2100e+002 -2.2743e+002  2.4366e+002 23018 113356,113434,113382
 6.0000e-001 113561 -6.4746e+001 -2.2972e+002  1.2192e+002 23018 113304,113512,113330
 6.0000e-001 113538 -4.8176e+002 -7.5273e+001  1.1024e+002 23018 113382,113434,113408
 6.0000e-001 113725 -2.9502e+002 -1.9970e+002  1.9326e+002 23018 113460,113434,113699
 6.0000e-001 113748 -2.0147e+002 -1.6185e+002  1.7857e+002 23018 113460,113699,113486
 6.0000e-001 113797 -2.8213e+002 -2.2509e+002  1.4622e+002 23018 113486,113699,113771
 6.0000e-001 113820 -2.3034e+002 -2.4136e+002  1.0619e+002 23018 113486,113771,113512
 6.0000e-001 114424 -2.8155e+002 -2.5271e+002  6.7965e+001 22514 114447,114133,114029
 6.0000e-001 114401 -2.9011e+002 -2.9810e+002  7.2450e+001 22514 114447,114029,114237
 6.0000e-001 114378 -2.7164e+002 -1.9705e+002  5.2573e+001 22514 114133,114211,114185
 6.0000e-001 114355 -4.1070e+002 -2.1823e+002  2.5268e+001 22514 114133,114185,114159
 6.0000e-001 114332 -2.5142e+002 -3.0990e+002  1.5842e+002 22514 114003,114237,114029
 6.0000e-001 114309 -2.8516e+002 -1.9002e+002  4.5052e+001 22514 114029,114133,114055
 6.0000e-001 114286 -2.6515e+002 -1.8929e+002  3.7089e+001 22514 114055,114133,114107
 6.0000e-001 114263 -2.0338e+002 -1.8831e+000  2.7781e+001 22514 114055,114107,114081
 6.0000e-001 114473 -3.0096e+002 -2.2520e+002  8.4740e+001 22514 114211,114133,114447
 6.0000e-001 114496 -3.0134e+002 -2.5900e+002  8.7552e+001 22514 114211,114447,114237
 6.0000e-001 114597 -1.6011e+002 -3.9239e+002  2.2685e+002 22316 114620,114571,114545
 6.0000e-001 114646 -1.6011e+002 -3.9239e+002  2.2685e+002 22316 114519,114571,114620
 6.0000e-001 115127 -4.1490e+002 -2.6365e+002  1.1088e+002 21612 115150,114905,114879
 6.0000e-001 115104 -4.4984e+002 -1.6014e+002  1.2045e+002 21612 115150,114879,114853
 6.0000e-001 115081 -3.6329e+002 -8.8120e+001  1.7493e+002 21612 115222,114931,114905
 6.0000e-001 115058 -3.8510e+002 -1.9607e+002  1.5147e+002 21612 115222,114905,115009
 6.0000e-001 115035 -2.4431e+002 -2.5509e+002  1.3827e+002 21612 114957,115009,114983
 6.0000e-001 115176 -3.9314e+002 -1.8298e+002  1.0943e+002 21612 115009,114905,115150
 6.0000e-001 115199 -4.1880e+002 -6.5472e+001  1.1522e+002 21612 115009,115150,114853
 6.0000e-001 115248 -3.5412e+002 -1.8969e+002  1.5125e+002 21612 114957,114931,115222
 6.0000e-001 115271 -3.7177e+002 -2.9078e+002  1.2703e+002 21612 114957,115222,115009
 6.0000e-001 115519 -9.2079e+001  8.3474e+001  1.0295e+002 21208 115542,115372,115320
 6.0000e-001 115496  9.6606e+000  1.4682e+002 -1.0132e+000 21208 115542,115320,115294
 6.0000e-001 115473 -6.7630e+001 -1.6688e+002  1.5836e+002 21208 115320,115372,115346
 6.0000e-001 115450 -1.7322e+002 -1.6756e+001  2.0861e+001 21208 115294,115424,115398
 6.0000e-001 115568 -1.3280e+002  3.9825e+001  1.3579e+002 21208 115398,115372,115542
 6.0000e-001 115591 -1.0007e+002 -3.3651e+001  5.1862e+001 21208 115398,115542,115294
 6.0000e-001 115839 -3.3435e+002 -1.7603e+002  1.6173e+002 20668 115862,115640,115614
 6.0000e-001 115816 -3.6588e+002 -1.6932e+002  1.7776e+002 20668 115862,115614,115744
 6.0000e-001 115793 -4.6012e+002 -1.9383e+002  1.4166e+002 20668 115640,115718,115692
 6.0000e-001 115770 -4.9837e+002 -2.1080e+002  1.4622e+002 20668 115640,115692,115666
 6.0000e-001 115888 -3.7325e+002 -1.7339e+002  1.5986e+002 20668 115718,115640,115862
 6.0000e-001 115911 -3.9849e+002 -1.6735e+002  1.8249e+002 20668 115718,115862,115744
 6.0000e-001 116134 -1.4192e+002 -2.9177e+002  1.5144e+002 20264 115958,116036,115984
 6.0000e-001 116111 -1.1651e+002 -2.7983e+002  1.4801e+002 20264 115958,116062,116036
 6.0000e-001 116088 -1.1979e+002 -2.8833e+002  1.5564e+002 20264 115984,116036,116010
 6.0000e-001 116384 -2.9203e+002 -1.7014e+002  1.4326e+002 19924 116407,116211,116159
 6.0000e-001 116361 -2.8431e+002 -2.4608e+002  1.3116e+002 19924 116407,116159,116263
 6.0000e-001 116338 -2.8619e+002 -1.2892e+002  1.3277e+002 19924 116159,116211,116185
 6.0000e-001 116315 -2.4152e+002 -2.6181e+002  1.7438e+002 19924 116159,116289,116263
 6.0000e-001 116433 -2.9442e+002 -1.2531e+002  1.5868e+002 19924 116237,116211,116407
 6.0000e-001 116456 -2.6257e+002 -1.7847e+002  1.5532e+002 19924 116237,116407,116263
 6.0000e-001 116608 -2.6716e+002 -1.0882e+002  1.2157e+002 19520 116703,116631,116533
 6.0000e-001 116585 -2.5426e+002 -1.1910e+002  1.1318e+002 19520 116631,116507,116481
 6.0000e-001 116657 -2.6065e+002 -1.1887e+002  1.2677e+002 19520 116559,116533,116631
 6.0000e-001 116680 -2.5848e+002 -1.4236e+002  1.1844e+002 19520 116559,116631,116481
 6.0000e-001 116729 -2.6716e+002 -1.0882e+002  1.2157e+002 19520 116507,116631,116703
 6.0000e-001 116952 -1.6373e+002 -1.3709e+002  2.5407e+002 19208 116975,116802,116776
 6.0000e-001 116929 -1.8036e+002 -2.1175e+002  1.8448e+002 19208 116975,116776,116880
 6.0000e-001 116906 -3.0111e+002 -1.2779e+002  1.5555e+002 19208 116802,116854,116828
 6.0000e-001 117001 -1.2675e+002 -1.2930e+002  2.5380e+002 19208 116854,116802,116975
 6.0000e-001 117024 -5.6555e+001 -1.4954e+002  2.1994e+002 19208 116854,116975,116880
 6.0000e-001 117428 -2.4472e+002 -1.0021e+002  1.2872e+002 18796 117154,117206,117180
 6.0000e-001 117405 -1.6302e+002 -1.8226e+002  1.2023e+002 18796 117154,117284,117206
 6.0000e-001 117382 -8.3998e+001 -1.3539e+002  1.5957e+002 18796 117154,117310,117284
 6.0000e-001 117359 -9.0615e+001 -1.1034e+002  1.6637e+002 18796 117206,117284,117258
 6.0000e-001 117336 -4.6117e+001 -2.5547e+001  2.1382e+002 18796 117206,117258,117232
 6.0000e-001 117529 -1.3003e+002 -5.8129e+001  6.8814e+001 18228 117810,117552,117477
 6.0000e-001 117578 -2.5474e+002 -1.6447e+002  9.4425e+001 18228 117682,117552,117503
 6.0000e-001 117708 -8.9409e+001 -8.7443e+001  6.8624e+001 18228 117477,117552,117682
 6.0000e-001 117836 -1.9585e+002 -1.7300e+002  1.0148e+002 18228 117451,117552,117810
 6.0000e-001 118364 -2.9626e+002 -1.1741e+002  9.4452e+001 17722 118067,118223,118093
 6.0000e-001 118341 -2.6674e+002 -3.5129e+001  9.7498e+001 17722 118041,118223,118067
 6.0000e-001 118318 -1.8382e+002 -9.2865e+001  6.8964e+001 17722 118093,118223,118197
 6.0000e-001 118295 -4.2600e+002 -3.8835e+002  2.3519e+002 17722 118119,118197,118171
 6.0000e-001 118272 -1.3617e+002 -5.0379e+001  1.0322e+002 17722 118093,118197,118119
 6.0000e-001 118249 -3.6801e+002 -1.3401e+002  1.9799e+002 17722 118119,118171,118145
 6.0000e-001 118514 -4.0129e+002 -1.6695e+002  1.2794e+002 17268 118387,118439,118413
 6.0000e-001 118491 -1.3331e+002 -1.6138e+002  1.3757e+002 17268 118387,118465,118439
 6.0000e-001 118916 -4.2372e+002 -1.7020e+002  8.3846e+001 16828 118668,118772,118694
 6.0000e-001 118893 -5.3161e+002 -2.0767e+002  7.1442e+001 16828 118668,118798,118772
 6.0000e-001 118870 -5.7273e+002 -3.2604e+002  6.3928e+001 16828 118642,118798,118668
 6.0000e-001 118847 -3.3829e+002 -1.4637e+002  1.7756e+002 16828 118694,118746,118720
 6.0000e-001 118824 -4.5988e+002 -2.7697e+002  8.6739e+001 16828 118694,118772,118746
 6.0000e-001 119316 -2.0980e+002 -1.4079e+002  1.8976e+002 16422 119042,119172,119094
 6.0000e-001 119293 -2.6238e+002 -1.4234e+002  2.0013e+002 16422 119042,119198,119172
 6.0000e-001 119270 -2.6833e+002 -1.0972e+002  1.2433e+002 16422 119042,119094,119068
 6.0000e-001 119247 -2.2186e+002 -1.0519e+002  2.5944e+002 16422 119094,119146,119120
 6.0000e-001 119224 -1.9216e+002 -1.1101e+002  1.9873e+002 16422 119094,119172,119146
 6.0000e-001 119466 -5.0086e+002 -1.8449e+002 -2.6827e+001 16010 119339,119391,119365
 6.0000e-001 119443 -2.6580e+002 -1.8907e+002  1.3628e+002 16010 119339,119417,119391
 6.0000e-001 119616 -1.3804e+002 -5.8661e+001  1.5976e+002 15547 119515,119567,119541
 6.0000e-001 119593  4.8386e+001  8.3227e+001  2.8696e+002 15547 119489,119567,119515
 6.0000e-001 119719 -3.8752e+002 -1.5936e+002  1.1494e+002 421 119641,119693,119667
 7.0000e-001 69562 -3.7849e+002 -1.7147e+002  2.6401e+002 69254 69484,69536,69510
 7.0000e-001 70009 -1.3229e+002 -1.2174e+002  1.2879e+002 68942 69686,69842,69816
 7.0000e-001 69986 -1.1172e+002 -4.2919e+001  7.6703e+001 68942 69686,69868,69842
 7.0000e-001 69963  7.8290e+000  4.2131e+000  1.8324e+002 68942 69686,69816,69712
 7.0000e-001 69940 -5.2014e+001 -3.2125e+001  2.6549e+002 68942 69712,69790,69738
 7.0000e-001 69917 -1.7224e+002 -4.0198e+002  2.1576e+002 68942 69712,69816,69790
 7.0000e-001 69894  1.5192e+000 -2.2651e+002  1.1307e+002 68942 69738,69790,69764
 7.0000e-001 70110 -1.3162e+002 -3.7250e+001  7.2282e+001 68766 70032,70084,70058
 7.0000e-001 70746 -3.7922e+001 -5.6622e+001  8.3237e+001 68448 70400,70556,70426
 7.0000e-001 70723 -2.1693e+002 -8.0430e+001  1.1172e+002 68448 70374,70556,70400
 7.0000e-001 70700 -7.5846e+001 -5.2642e+001  4.7838e+001 68448 70426,70556,70478
 7.0000e-001 70677 -1.5915e+002 -4.1356e+001  5.0321e+001 68448 70478,70556,70504
 7.0000e-001 70654 -1.4066e+002 -1.0889e+002  8.1439e+001 68448 70426,70478,70452
 7.0000e-001 70631 -2.0519e+002 -4.1337e+001  1.3869e+002 68448 70374,70582,70556
 7.0000e-001 70608 -1.5569e+002 -4.9328e+001  5.9954e+001 68448 70504,70556,70530
 7.0000e-001 70896 -3.4277e+001 -1.0319e+001  3.4249e+001 68250 70795,70847,70821
 7.0000e-001 70873 -3.8297e+002 -1.2879e+002 -6.3127e+000 68250 70769,70847,70795
 7.0000e-001 70997 -8.8724e+002 -3.9767e+002  3.4120e+002 68052 70919,70971,70945
 7.0000e-001 71367 -2.6513e+002 -4.1297e+002  1.6920e+002 67740 71096,71226,71200
 7.0000e-001 71344 -1.7966e+002 -2.4299e+002  2.0373e+002 67740 71044,71226,71096
 7.0000e-001 71321  1.1305e+001 -1.1305e+001  3.2282e+002 67740 71044,71096,71070
 7.0000e-001 71298 -2.0995e+002 -4.4035e+002  3.1750e+002 67740 71096,71200,71174
 7.0000e-001 71275 -1.1029e+002 -2.6300e+002  1.2508e+002 67740 71096,71148,71122
 7.0000e-001 71252 -1.5623e+002 -3.1241e+002  2.0934e+002 67740 71096,71174,71148
 7.0000e-001 71519  9.4178e+001  5.3911e+001  1.0062e+002 67542 71418,71470,71444
 7.0000e-001 71496  1.6660e+002  3.5312e+002  3.1605e+002 67542 71392,71470,71418
 7.0000e-001 71923 -6.7045e+001 -1.3554e+001  9.3746e+001 67230 71649,71779,71675
 7.0000e-001 71900 -5.3928e+001 -8.9641e+001  6.9895e+001 67230 71649,71805,71779
 7.0000e-001 71877 -7.0288e+001 -2.6875e+001  1.6799e+002 67230 71675,71727,71701
 7.0000e-001 71854 -9.3328e+001 -2.4609e+002  1.7133e+002 67230 71675,71753,71727
 7.0000e-001 71831 -9.1214e+001 -1.5490e+002  1.2022e+002 67230 71675,71779,71753
 7.0000e-001 72433 -1.0180e+002 -6.6066e+001  1.2536e+002 67032 72038,72246,72220
 7.0000e-001 72410 -9.0452e+001 -1.2600e+001  3.3788e+001 67032 72012,72246,72038
 7.0000e-001 72387 -1.6190e+002 -4.4161e+001  1.3726e+002 67032 72064,72194,72168
 7.0000e-001 72364 -1.8682e+002 -7.3536e+001  1.4824e+002 67032 72038,72194,72064
 7.0000e-001 72341 -1.6885e+002 -2.3787e+002  2.0873e+002 67032 72038,72220,72194
 7.0000e-001 72318 -7.4013e+001 -5.2577e+000  6.8007e+001 67032 72090,72168,72142
 7.0000e-001 72295 -2.8591e+001  1.1682e+000  1.0337e+002 67032 72064,72168,72090
 7.0000e-001 72272 -8.2046e+001 -1.4612e+001  6.3710e+001 67032 72090,72142,72116
 7.0000e-001 72933 -1.3922e+002 -1.5536e+002  1.5918e+002 66628 72956,72665,72613
 7.0000e-001 72910 -1.3675e+002 -1.8421e+002  1.5581e+002 66628 73100,72956,72613
 7.0000e-001 72887 -1.7367e+002 -2.3716e+002  1.3873e+002 66628 73028,72691,72665
 7.0000e-001 72864 -1.3730e+002 -1.8593e+002  1.5660e+002 66628 73100,72613,72587
 7.0000e-001 72841 -1.2552e+002 -1.4546e+002  1.3354e+002 66628 72613,72665,72639
 7.0000e-001 72818  4.9075e+001  1.4619e+001  2.3656e+002 66628 72587,72769,72743
 7.0000e-001 72795 -1.0358e+002 -3.2649e+002  4.3749e+001 66628 72561,72769,72587
 7.0000e-001 72982 -1.7537e+002 -1.7837e+002  1.7193e+002 66628 73028,72665,72956
 7.0000e-001 73005 -1.3574e+002 -5.5143e+001  1.7036e+002 66628 72717,72956,72743
 7.0000e-001 73054 -2.3587e+002 -2.0761e+002  9.3323e+001 66628 72717,72691,73028
 7.0000e-001 73077 -2.3848e+002 -1.8688e+002  1.2419e+002 66628 72717,73028,72956
 7.0000e-001 73126 -1.3781e+002 -1.8485e+002  1.5749e+002 66628 72743,72956,73100
 7.0000e-001 73149 -1.3785e+002 -1.8610e+002  1.5821e+002 66628 72743,73100,72587
 7.0000e-001 73606 -9.1527e+001 -1.6297e+002  1.3378e+002 66281 73332,73384,73358
 7.0000e-001 73583 -1.3167e+002 -2.4030e+002  1.1940e+002 66281 73332,73462,73384
 7.0000e-001 73560 -1.9885e+002 -1.4705e+002  1.7598e+002 66281 73384,73462,73436
 7.0000e-001 73537 -4.0363e+002 -1.9148e+002  1.9725e+002 66281 73332,73488,73462
 7.0000e-001 73514 -1.3968e+002 -1.0156e+002  7.7506e+001 66281 73384,73436,73410
 7.0000e-001 73984  2.7363e+000 -3.5576e+001  1.7502e+001 65969 73736,73814,73788
 7.0000e-001 73961  3.4897e+001 -6.6252e+000 -2.3261e+000 65969 73736,73866,73814
 7.0000e-001 73938 -5.7090e+001 -4.9643e+001  7.8361e+001 65969 73814,73866,73840
 7.0000e-001 73915 -9.8826e-001  3.0222e+001  1.1483e+000 65969 73710,73866,73736
 7.0000e-001 73892  1.2055e+001 -4.3413e+001  2.1723e+000 65969 73736,73788,73762
 7.0000e-001 74232 -1.2860e+002 -1.5522e+002  1.4893e+002 65572 74255,74085,74033
 7.0000e-001 74209 -1.1578e+002 -1.7890e+002  1.2072e+002 65572 74327,74255,74033
 7.0000e-001 74186 -1.3342e+002 -1.1925e+002  1.1924e+002 65572 74327,74033,74007
 7.0000e-001 74163 -1.3207e+002 -1.7113e+002  1.5575e+002 65572 74033,74085,74059
 7.0000e-001 74281 -1.6392e+002 -1.9963e+002  1.8246e+002 65572 74111,74085,74255
 7.0000e-001 74304 -1.1947e+002 -1.9322e+002  1.1951e+002 65572 74111,74255,74137
 7.0000e-001 74353 -9.7489e+001 -1.1026e+002  9.7200e+001 65572 74137,74255,74327
 7.0000e-001 74376 -1.2827e+002 -6.5280e+001  9.8908e+001 65572 74137,74327,74007
 7.0000e-001 74884 -1.2476e+002 -1.4700e+002  1.1006e+002 65174 74587,74717,74613
 7.0000e-001 74861 -1.3511e+002 -1.6485e+002  8.9167e+001 65174 74561,74717,74587
 7.0000e-001 74838 -1.1463e+002 -1.7109e+002  7.8264e+001 65174 74613,74691,74639
 7.0000e-001 74815 -1.1284e+002 -1.5693e+002  1.1059e+002 65174 74613,74717,74691
 7.0000e-001 74792 -2.9754e+001 -2.8985e+002  6.4957e+001 65174 74639,74691,74665
 7.0000e-001 74769 -1.2062e+002 -1.3484e+002  8.0384e+001 65174 74561,74743,74717
 7.0000e-001 75412 -1.0230e+001 -5.5466e+001  2.9538e+002 64770 75167,75245,75219
 7.0000e-001 75389 -1.5634e+002 -2.4550e+002  2.0542e+002 64770 75115,75245,75167
 7.0000e-001 75366 -1.2098e+002 -3.0219e+002  2.6000e+002 64770 75089,75245,75115
 7.0000e-001 75343 -2.3053e+002 -7.1323e+001  2.0825e+002 64770 75167,75219,75193
 7.0000e-001 75320 -1.2750e+002 -1.7731e+002  2.0333e+002 64770 75115,75167,75141
 7.0000e-001 75297 -1.8061e+002 -4.4765e+002  2.6717e+002 64770 75089,75271,75245
 7.0000e-001 75861 -3.0160e+002 -1.2101e+002  2.2228e+002 64316 75538,75694,75564
 7.0000e-001 75838 -1.3955e+002 -5.1956e+001  1.3911e+002 64316 75538,75720,75694
 7.0000e-001 75815 -2.4568e+002 -1.3976e+002  1.7604e+002 64316 75590,75694,75642
 7.0000e-001 75792 -2.4693e+002 -2.1924e+002  2.0042e+002 64316 75564,75694,75590
 7.0000e-001 75769 -9.4993e+001 -2.8937e+002  1.0531e+002 64316 75590,75642,75616
 7.0000e-001 75746 -2.4448e+002 -1.0194e+002  1.7324e+002 64316 75642,75694,75668
 7.0000e-001 76239 -3.4109e+002 -2.6524e+002  2.0932e+002 64018 76262,76095,76043
 7.0000e-001 76216 -2.2984e+002 -2.5503e+002  1.7593e+002 64018 76262,76043,76017
 7.0000e-001 76193 -8.0597e+001 -1.2657e+002  1.0567e+002 64018 75991,76121,76017
 7.0000e-001 76170 -3.1222e+002 -2.0224e+002  2.0001e+002 64018 76043,76095,76069
 7.0000e-001 76147 -9.5382e+000 -1.5141e+002  4.0923e+001 64018 75965,76121,75991
 7.0000e-001 76288 -2.4180e+002 -3.1880e+002  2.6770e+002 64018 76121,76095,76262
 7.0000e-001 76311 -1.4540e+002 -3.1722e+002  2.1896e+002 64018 76121,76262,76017
 7.0000e-001 76866 -1.5808e+002 -1.6262e+002  1.6285e+002 63728 76520,76676,76546
 7.0000e-001 76843 -1.3645e+002 -1.6646e+002  1.1627e+002 63728 76520,76702,76676
 7.0000e-001 76820 -1.3450e+002 -1.9007e+002  1.7842e+002 63728 76546,76650,76572
 7.0000e-001 76797 -2.1635e+002 -2.5596e+002  1.3752e+002 63728 76546,76676,76650
 7.0000e-001 76774 -2.1709e+002 -5.8698e+001  9.1697e+001 63728 76572,76650,76624
 7.0000e-001 76751 -1.2655e+002 -1.2602e+002  1.2642e+002 63728 76494,76702,76520
 7.0000e-001 76728 -6.0759e+001 -1.1199e+002  8.3358e+001 63728 76572,76624,76598
 7.0000e-001 77065 -6.5464e+001 -1.3614e+002  1.0292e+002 63288 77088,76941,76915
 7.0000e-001 77042 -1.4074e+002 -1.5856e+002  9.1248e+001 63288 77088,76915,76993
 7.0000e-001 77019 -6.9457e+001 -1.4921e+002  9.4010e+001 63288 76889,76993,76915
 7.0000e-001 77114 -1.0268e+002 -1.5295e+002  8.5105e+001 63288 76967,76941,77088
 7.0000e-001 77137 -2.0714e+002 -1.8360e+002  4.2713e+001 63288 77160,77088,76993
 7.0000e-001 77186 -6.3147e+001 -1.1138e+002  6.8910e+001 63288 76967,77088,77160
 7.0000e-001 77417 -4.4173e+001 -1.0606e+002  5.1377e+001 62884 77440,77342,77316
 7.0000e-001 77394 -9.1065e+001 -1.8358e+002  2.9904e+001 62884 77770,77440,77316
 7.0000e-001 77466 -1.3934e+002 -2.0115e+002  4.2423e+001 62884 77512,77440,77368
 7.0000e-001 77489 -5.3906e+001 -1.4560e+002  2.3355e+001 62884 77642,77440,77290
 7.0000e-001 77538 -4.2065e+001 -1.3555e+002  1.3834e+001 62884 77342,77440,77512
 7.0000e-001 77668 -1.0336e+002 -2.4917e+002  8.5954e+000 62884 77368,77440,77642
 7.0000e-001 77796 -5.3231e+001 -1.6502e+002  2.3797e+001 62884 77290,77440,77770
 7.0000e-001 78479 -3.2368e+002 -2.9370e+002  1.8914e+002 62480 78084,78240,78214
 7.0000e-001 78456 -1.6892e+002 -2.5286e+002  5.8514e+000 62480 78084,78266,78240
 7.0000e-001 78433 -2.2376e+002 -2.5917e+002  9.1420e+001 62480 78110,78214,78136
 7.0000e-001 78410 -2.3522e+002 -2.5774e+002  1.6844e+002 62480 78084,78214,78110
 7.0000e-001 78387 -1.9920e+002 -1.9444e+002  1.1103e+002 62480 78136,78214,78188
 7.0000e-001 78364 -1.2609e+002 -2.9938e+002 -3.4388e+000 62480 78058,78266,78084
 7.0000e-001 78341 -1.4169e+002 -1.6966e+002  1.0897e+002 62480 78136,78188,78162
 7.0000e-001 78318 -3.6501e+001 -2.4013e+002 -4.7839e+001 62480 78058,78292,78266
 7.0000e-001 78678 -1.8940e+002 -3.5311e+002  1.6441e+002 61926 78528,78606,78554
 7.0000e-001 78655 -1.1969e+002 -3.5754e+002  1.9702e+002 61926 78502,78606,78528
 7.0000e-001 78632 -1.0667e+002 -2.2408e+002  7.9174e+001 61926 78554,78606,78580
 7.0000e-001 79058 -1.7166e+002 -1.9286e+002  9.9358e+001 61614 78836,78914,78862
 7.0000e-001 79035 -2.3186e+002 -2.0511e+002  9.6358e+001 61614 78810,78914,78836
 7.0000e-001 79012 -1.5725e+002 -1.7412e+002  8.7978e+001 61614 78784,78914,78810
 7.0000e-001 78989 -1.5209e+002 -1.8989e+002  1.4454e+002 61614 78862,78914,78888
 7.0000e-001 78966 -1.2187e+002 -2.4508e+002  1.0731e+002 61614 78784,78940,78914
 7.0000e-001 79208 -1.4164e+001 -3.3078e+001  2.2299e+001 61366 79081,79133,79107
 7.0000e-001 79185 -6.4185e+001 -1.6165e+001  1.4796e+002 61366 79081,79159,79133
 7.0000e-001 79358 -1.8488e-001 -6.3413e+001  3.1945e+001 60962 79231,79283,79257
 7.0000e-001 79335 -1.1824e+002 -2.7809e+002  7.7901e+001 60962 79231,79309,79283
 7.0000e-001 79608 -1.1219e+002 -1.8947e+002  1.4901e+002 60508 79631,79435,79409
 7.0000e-001 79585 -8.2530e+001 -2.1735e+002  8.5447e+001 60508 79703,79631,79409
 7.0000e-001 79562 -7.5579e+001 -5.0730e+001  1.1134e+002 60508 79703,79409,79383
 7.0000e-001 79539 -2.0897e+002 -2.5575e+002  2.2715e+002 60508 79435,79487,79461
 7.0000e-001 79657 -1.5273e+002 -2.9621e+002  2.2514e+002 60508 79487,79435,79631
 7.0000e-001 79680 -7.3015e+001 -1.9732e+002  1.0304e+002 60508 79487,79631,79513
 7.0000e-001 79729 -4.0153e+001 -6.5098e+001  4.5110e+001 60508 79513,79631,79703
 7.0000e-001 79752 -8.6434e+001 -4.3601e+001  2.1341e+001 60508 79513,79703,79383
 7.0000e-001 80390 -1.6331e+002 -1.9713e+002  1.7405e+002 59997 80413,80096,80018
 7.0000e-001 80367 -2.6776e+002 -2.1852e+002  2.1494e+002 59997 80413,80018,80226
 7.0000e-001 80344 -1.2851e+002 -1.3066e+002  1.2999e+002 59997 80096,80174,80148
 7.0000e-001 80321 -4.7832e+002 -3.6042e+002  2.5239e+002 59997 80018,80096,80070
 7.0000e-001 80298 -8.5592e+001 -1.7475e+002  1.0142e+002 59997 80096,80148,80122
 7.0000e-001 80275 -1.4849e+002 -1.2140e+002  1.3449e+002 59997 80174,80226,80200
 7.0000e-001 80252 -3.2220e+002 -2.8345e+002  1.0460e+002 59997 80018,80070,80044
 7.0000e-001 80439 -1.3579e+002 -1.9575e+002  1.4890e+002 59997 80174,80096,80413
 7.0000e-001 80462 -1.7630e+002 -1.4333e+002  1.7251e+002 59997 80174,80413,80226
 7.0000e-001 80840 -2.4862e+002 -2.6172e+002  1.2427e+002 59443 80863,80644,80618
 7.0000e-001 80817 -1.4576e+002 -1.8779e+002  1.5675e+002 59443 80863,80618,80566
 7.0000e-001 80794 -1.0707e+002 -1.6084e+002  1.4852e+002 59443 81007,80935,80670
 7.0000e-001 80771 -1.6145e+002 -1.7382e+002  1.6621e+002 59443 80566,80722,80696
 7.0000e-001 80748 -1.8235e+002 -2.6033e+002  1.7781e+002 59443 80566,80618,80592
 7.0000e-001 80889 -2.5363e+002 -2.0099e+002  1.6958e+002 59443 80935,80644,80863
 7.0000e-001 80912 -2.0577e+002 -1.9297e+002  1.6828e+002 59443 80696,80863,80566
 7.0000e-001 80961 -1.7154e+002 -1.7661e+002  1.7585e+002 59443 80696,80670,80935
 7.0000e-001 80984 -1.7083e+002 -1.7642e+002  1.7910e+002 59443 80696,80935,80863
 7.0000e-001 81033 -2.0807e+002 -2.3138e+002  1.9895e+002 59443 80644,80935,81007
 7.0000e-001 81360 -1.5308e+002 -1.3832e+002  1.2394e+002 59031 81383,81187,81161
 7.0000e-001 81337 -1.4958e+002 -1.4948e+002  1.0009e+002 59031 81455,81383,81161
 7.0000e-001 81314 -1.2246e+002 -1.4027e+002  1.0611e+002 59031 81455,81161,81135
 7.0000e-001 81291 -2.5399e+002 -7.4156e+001  1.2459e+002 59031 81187,81239,81213
 7.0000e-001 81409 -1.6376e+002 -1.4757e+002  1.1053e+002 59031 81239,81187,81383
 7.0000e-001 81432 -2.2927e+002 -1.6005e+002  7.9722e+001 59031 81239,81383,81265
 7.0000e-001 81481 -1.7746e+002 -1.2856e+002  1.0903e+002 59031 81265,81383,81455
 7.0000e-001 81504 -1.6491e+002 -1.3101e+002  1.0922e+002 59031 81265,81455,81135
 7.0000e-001 81835 -2.9483e+001 -1.0848e+002  3.5160e+001 58577 81610,81714,81636
 7.0000e-001 81812 -5.7013e+000 -9.3152e+001  2.8117e+001 58577 81610,81740,81714
 7.0000e-001 81789 -7.5730e+001 -1.2840e+002  1.7074e+001 58577 81636,81714,81688
 7.0000e-001 81766 -6.4566e+001 -1.3478e+002 -4.7595e+001 58577 81636,81688,81662
 7.0000e-001 81985 -6.2913e+001 -1.5012e+002  9.5827e+001 58030 81884,81936,81910
 7.0000e-001 81962 -1.1351e+002 -4.5794e+001  7.2112e+001 58030 81858,81936,81884
 7.0000e-001 82414 -5.3173e+001 -3.7325e+001  7.0989e+001 57690 82437,82169,82117
 7.0000e-001 82391 -7.8105e+001 -9.3272e+001  8.4045e+001 57690 82437,82117,82247
 7.0000e-001 82368  1.8294e+001  2.9620e+001  1.9027e+002 57690 82195,82247,82221
 7.0000e-001 82345 -5.8414e+001 -8.4931e+001  8.2696e+001 57690 82091,82247,82117
 7.0000e-001 82322 -8.1186e+001 -4.2438e+001  5.3943e+001 57690 82117,82169,82143
 7.0000e-001 82299 -6.7030e+001 -1.5095e+002  1.1333e+002 57690 82091,82273,82247
 7.0000e-001 82463 -8.5328e+001 -1.6195e+001  9.7331e+001 57690 82195,82169,82437
 7.0000e-001 82486 -9.7464e+001 -5.3436e+001  1.0115e+002 57690 82195,82437,82247
 7.0000e-001 83041 -1.3668e+002 -1.6100e+002  1.0136e+002 57172 83064,82721,82695
 7.0000e-001 83018 -1.5332e+002 -1.6707e+002  1.4771e+002 57172 83064,82695,82851
 7.0000e-001 82995 -4.0187e+002 -2.1079e+002  1.8816e+002 57172 82669,82851,82695
 7.0000e-001 82972 -2.2910e+002 -1.6749e+002  1.4453e+002 57172 82773,82851,82825
 7.0000e-001 82949 -2.0002e+002 -1.6524e+002  1.6983e+002 57172 82773,82825,82799
 7.0000e-001 82926 -1.9291e+002 -1.2756e+002  8.7452e+001 57172 82721,82773,82747
 7.0000e-001 82903 -4.8053e+002 -2.3452e+002  2.9288e+002 57172 82669,82877,82851
 7.0000e-001 83090 -2.1234e+002 -1.8945e+002  9.4879e+001 57172 82773,82721,83064
 7.0000e-001 83113 -1.7874e+002 -1.7533e+002  1.3887e+002 57172 82773,83064,82851
 7.0000e-001 83747 -1.9120e+002 -1.4629e+002  9.9020e+001 56554 83770,83427,83401
 7.0000e-001 83724 -1.8088e+002 -1.9908e+002  1.2342e+002 56554 83842,83770,83401
 7.0000e-001 83701 -1.2966e+001 -1.5486e+002  5.9209e+001 56554 83842,83401,83583
 7.0000e-001 83678 -2.9485e+002 -2.7890e+002  2.4790e+002 56554 83914,83531,83505
 7.0000e-001 83655 -1.3713e+002 -2.4049e+002  1.0689e+002 56554 83531,83583,83557
 7.0000e-001 83632 -4.3143e+001 -1.3255e+002  4.8902e+001 56554 83375,83583,83401
 7.0000e-001 83609 -1.5229e+002 -1.5464e+002  9.5582e+001 56554 83427,83479,83453
 7.0000e-001 83796 -1.6072e+002 -1.5772e+002  9.4993e+001 56554 83479,83427,83770
 7.0000e-001 83819 -1.5521e+002 -1.1644e+002  9.2402e+001 56554 83479,83770,83505
 7.0000e-001 83868 -1.0924e+002 -6.8553e+001  1.5512e+002 56554 83505,83770,83842
 7.0000e-001 83891 -1.9343e+002 -1.5988e+002  1.9575e+002 56554 83914,83505,83842
 7.0000e-001 83940 -1.4101e+002 -2.9552e+002  1.4205e+002 56554 83583,83531,83914
 7.0000e-001 83963 -7.9121e+001 -2.6938e+002  1.1731e+002 56554 83583,83914,83842
 7.0000e-001 84341 -1.2244e+002 -3.5894e+002  1.5275e+002 56192 84067,84145,84119
 7.0000e-001 84318 -1.1340e+001 -1.8103e+002  1.0481e+002 56192 84067,84223,84145
 7.0000e-001 84295 -7.2374e+001 -2.8966e+002  7.3660e+001 56192 84145,84223,84197
 7.0000e-001 84272 -1.1762e+002 -1.0328e+002  8.2368e+001 56192 84067,84119,84093
 7.0000e-001 84249 -1.5609e+002 -1.0960e+002  9.4611e+001 56192 84145,84197,84171
 7.0000e-001 84611 -1.0502e+002 -2.5969e+002  2.0051e+002 55538 84386,84490,84412
 7.0000e-001 84588 -1.0206e+002 -2.1716e+002  1.9128e+002 55538 84386,84516,84490
 7.0000e-001 84565 -1.8189e+002 -2.9197e+002  2.0459e+002 55538 84412,84490,84464
 7.0000e-001 84542 -9.2257e+001 -2.2379e+002  1.5430e+002 55538 84412,84464,84438
 7.0000e-001 84942 -1.5481e+002 -1.3980e+002  1.2117e+002 55084 84769,84847,84795
 7.0000e-001 84919 -1.8038e+002 -1.7803e+002  9.3851e+001 55084 84717,84847,84769
 7.0000e-001 84896 -1.8947e+002 -2.3702e+002  1.0969e+002 55084 84717,84769,84743
 7.0000e-001 84873 -1.8723e+002 -5.4498e+001  9.4060e+001 55084 84795,84847,84821
 7.0000e-001 85271 -5.4002e+001 -7.4394e+001  1.0311e+002 54580 85294,85098,85072
 7.0000e-001 85248 -2.0818e+002 -8.7113e+001  1.2433e+002 54580 85294,85072,85176
 7.0000e-001 85225 -2.7432e+002 -5.1728e+001  7.9308e+001 54580 85124,85176,85150
 7.0000e-001 85202 -7.1056e+001 -7.9107e+001  4.7047e+001 54580 85046,85176,85072
 7.0000e-001 85320 -1.7751e+002 -1.0480e+002  1.0261e+002 54580 85124,85098,85294
 7.0000e-001 85343 -2.6170e+002 -6.5940e+001  1.2303e+002 54580 85124,85294,85176
 7.0000e-001 85542 -1.3652e+002 -1.9604e+002  1.7838e+002 53976 85565,85444,85418
 7.0000e-001 85519 -1.8474e+002 -1.3616e+002  1.3144e+002 53976 85565,85418,85366
 7.0000e-001 85496 -1.1913e+002 -7.7930e+001  4.7044e+001 53976 85366,85418,85392
 7.0000e-001 85591 -1.0503e+002 -1.6653e+002  1.4930e+002 53976 85470,85444,85565
 7.0000e-001 85614 -1.1532e+002 -4.8175e+001  9.6705e+001 53976 85470,85565,85366
 7.0000e-001 85960 -3.4656e+002 -3.0265e+002  2.6488e+002 53572 85663,85715,85689
 7.0000e-001 85937 -2.6510e+002 -1.8793e+002  1.6895e+002 53572 85983,85715,85663
 7.0000e-001 85914 -1.4986e+002 -1.5057e+002  1.5137e+002 53572 86055,85983,85663
 7.0000e-001 85891 -1.3748e+002 -1.4412e+002  1.4211e+002 53572 86055,85663,85637
 7.0000e-001 85868 -2.7511e+002 -4.3765e+002  2.2689e+002 53572 85637,85793,85767
 7.0000e-001 85845 -2.1050e+002 -3.4459e+001  9.8898e+001 53572 85637,85819,85793
 7.0000e-001 86009 -1.3858e+002 -2.8040e+002  1.6344e+002 53572 85741,85715,85983
 7.0000e-001 86032 -2.5024e+001 -1.8015e+002  1.1372e+002 53572 85741,85983,85767
 7.0000e-001 86081 -1.4690e+002 -1.8332e+002  1.7642e+002 53572 85767,85983,86055
 7.0000e-001 86104 -1.2342e+002 -1.6360e+002  1.6522e+002 53572 85767,86055,85637
 7.0000e-001 86693 -3.2414e+002 -7.2298e+001  1.7203e+002 52946 86474,86526,86500
 7.0000e-001 86670 -9.3199e+001 -4.6082e+001  7.6221e+001 52946 86396,86526,86474
 7.0000e-001 86647 -2.5259e+002 -2.4526e+002  1.5255e+002 52946 86370,86526,86396
 7.0000e-001 86624 -1.9206e+001 -4.4990e+000  2.4695e+001 52946 86422,86474,86448
 7.0000e-001 86601 -1.1254e+002 -3.6611e+001  5.7420e+001 52946 86396,86474,86422
 7.0000e-001 86578 -3.0592e+002 -1.1088e+002  3.7189e+001 52946 86370,86552,86526
 7.0000e-001 87376 -1.4952e+002 -1.8733e+002  7.2873e+001 52420 87007,87085,87033
 7.0000e-001 87353 -1.6467e+002 -1.9261e+002  7.2754e+001 52420 87007,87163,87085
 7.0000e-001 87330 -1.7734e+002 -1.8681e+002  7.8702e+001 52420 87007,87189,87163
 7.0000e-001 87307 -1.6983e+002 -2.0426e+002  6.3315e+001 52420 87033,87085,87059
 7.0000e-001 87284 -1.6008e+002 -1.7944e+002  3.4175e+001 52420 87085,87137,87111
 7.0000e-001 87261 -1.4482e+002 -2.2294e+002  1.9918e+001 52420 87085,87163,87137
 7.0000e-001 87238 -1.3809e+002 -1.8058e+002  1.3556e+002 52420 86955,87189,87007
 7.0000e-001 87215 -1.0020e+002 -1.3638e+002  9.1460e+001 52420 86955,87007,86981
 7.0000e-001 87624 -1.4169e+002 -1.6990e+002  1.0177e+002 51916 87451,87503,87477
 7.0000e-001 87601 -9.1141e+001 -1.9682e+002  1.2324e+002 51916 87425,87503,87451
 7.0000e-001 87578 -4.4423e+001 -1.5645e+002  1.4613e+002 51916 87425,87529,87503
 7.0000e-001 87555  3.8919e+000  1.5011e+000  1.4598e+002 51916 87399,87529,87425
 7.0000e-001 88053 -2.3299e+002 -2.0702e+002  7.2736e+001 51568 87782,87834,87808
 7.0000e-001 88030 -2.5689e+002 -2.0596e+002  1.0145e+002 51568 88076,87782,87886
 7.0000e-001 88007 -2.4210e+002 -1.7140e+002  1.0172e+002 51568 88076,87886,87860
 7.0000e-001 87984 -2.9338e+002 -2.4616e+002  8.5959e+001 51568 87756,87886,87782
 7.0000e-001 87961 -2.0412e+002 -1.9344e+002  1.5661e+002 51568 87756,87912,87886
 7.0000e-001 87938 -2.4425e+002 -2.3274e+002  1.3970e+002 51568 87730,87912,87756
 7.0000e-001 88102 -2.4504e+002 -2.2456e+002  8.1482e+001 51568 87834,87782,88076
 7.0000e-001 88125 -2.3601e+002 -2.0207e+002  8.1674e+001 51568 87834,88076,87860
 7.0000e-001 88324 -1.5388e+002 -2.5304e+002  1.0089e+002 51164 88419,88347,88200
 7.0000e-001 88301 -1.3002e+002 -2.2217e+002  1.1673e+002 51164 88347,88148,88252
 7.0000e-001 88278 -1.7622e+002 -3.1168e+002  9.9714e+001 51164 88419,88200,88174
 7.0000e-001 88373 -1.1391e+002 -2.8338e+002  1.0352e+002 51164 88226,88200,88347
 7.0000e-001 88396 -4.3948e+001 -2.5073e+002  8.6993e+001 51164 88226,88347,88252
 7.0000e-001 88445 -1.6596e+002 -2.5872e+002  1.3401e+002 51164 88148,88347,88419
 7.0000e-001 88468 -1.6363e+002 -2.5365e+002  1.3554e+002 51164 88148,88419,88174
 7.0000e-001 88738 -1.7783e+002 -2.8918e+002  6.1906e+001 50560 88513,88617,88539
 7.0000e-001 88715 -1.3204e+002 -3.0881e+002  4.5028e+001 50560 88513,88643,88617
 7.0000e-001 88692 -1.2872e+002 -1.5835e+002  7.5352e+001 50560 88539,88591,88565
 7.0000e-001 88669 -9.8177e+001 -2.3186e+002  8.7613e+001 50560 88539,88617,88591
 7.0000e-001 88939 -1.9470e+002 -1.2819e+002  9.5703e+001 50106 88962,88789,88763
 7.0000e-001 88916 -1.4898e+002 -1.4934e+002  7.9869e+001 50106 88962,88763,88841
 7.0000e-001 88893 -2.0201e+002 -1.8193e+002  1.1723e+002 50106 88763,88867,88841
 7.0000e-001 88988 -1.4682e+002 -1.4250e+002  7.3137e+001 50106 88815,88789,88962
 7.0000e-001 89011 -1.4559e+002 -1.3491e+002  8.5207e+001 50106 89034,88962,88841
 7.0000e-001 89060 -8.4652e+001 -8.3077e+001  3.2134e+001 50106 88815,88962,89034
 7.0000e-001 89472 -1.8531e+002 -2.8013e+002  1.1031e+002 49666 89273,89351,89325
 7.0000e-001 89449 -1.9010e+002 -2.6429e+002  1.1586e+002 49666 89273,89377,89351
 7.0000e-001 89426 -1.6154e+002 -2.3376e+002  1.7210e+002 49666 89273,89325,89299
 7.0000e-001 89403 -1.6414e+002 -1.5540e+002  1.2092e+002 49666 89247,89377,89273
 7.0000e-001 89978 -9.8328e+001 -2.3381e+002  1.0864e+002 49205 89681,89837,89733
 7.0000e-001 89955 -1.0445e+002 -2.1710e+002  1.2271e+002 49205 89655,89837,89681
 7.0000e-001 89932 -2.4483e+002 -4.3317e+002  1.4159e+002 49205 89785,89837,89811
 7.0000e-001 89909 -1.0214e+002 -1.2922e+002  7.4465e+001 49205 89733,89837,89785
 7.0000e-001 89886 -2.1876e+002 -1.6755e+002  1.2162e+002 49205 89733,89785,89759
 7.0000e-001 89863 -1.1437e+002 -3.8176e+002  1.7072e+002 49205 89681,89733,89707
 7.0000e-001 90177 -1.4470e+002 -1.3831e+002  7.0759e+001 48865 90530,90200,90053
 7.0000e-001 90154 -1.8390e+002 -2.8073e+002  1.5212e+002 48865 90402,90200,90001
 7.0000e-001 90131 -2.1877e+002 -7.1630e+000  6.7772e+001 48865 90530,90053,90027
 7.0000e-001 90226 -1.7122e+002 -1.5429e+002  1.0896e+002 48865 90079,90053,90200
 7.0000e-001 90249 -1.8990e+002 -2.0087e+002  9.6150e+001 48865 90272,90200,90105
 7.0000e-001 90298 -1.2110e+002 -1.4459e+002  1.2117e+002 48865 90079,90200,90272
 7.0000e-001 90428 -1.3547e+002 -8.0458e+001  1.1885e+002 48865 90105,90200,90402
 7.0000e-001 90556 -1.8157e+002 -3.2906e+002  5.3458e+001 48865 90001,90200,90530
 7.0000e-001 90579 -2.2602e+002 -1.4242e+002  1.0312e+001 48865 90001,90530,90027
 7.0000e-001 90827 -1.9364e+002 -2.1859e+002  9.9318e+001 48404 90850,90654,90628
 7.0000e-001 90804 -1.8431e+002 -2.3404e+002  1.6199e+002 48404 90850,90628,90732
 7.0000e-001 90781 -1.1944e+002 -1.8414e+002  1.0362e+002 48404 90680,90732,90706
 7.0000e-001 90758 -2.3206e+002 -1.4861e+002  1.6366e+002 48404 90602,90732,90628
 7.0000e-001 90876 -1.7518e+002 -1.2824e+002  9.2494e+001 48404 90680,90654,90850
 7.0000e-001 90899 -1.7772e+002 -1.9262e+002  1.4325e+002 48404 90680,90850,90732
 7.0000e-001 91000 -1.1130e+002 -2.7298e+002  1.9094e+002 48156 90922,90974,90948
 7.0000e-001 91250 -1.3742e+002 -3.3908e+002  2.2455e+002 47752 91051,91103,91077
 7.0000e-001 91227 -1.0324e+002 -5.7271e+001  1.4209e+002 47752 91025,91103,91051
 7.0000e-001 91204 -3.6814e+002 -2.5865e+002  3.0058e+002 47752 91025,91155,91103
 7.0000e-001 91181 -3.8212e+002 -1.6484e+002  2.3719e+002 47752 91103,91155,91129
 7.0000e-001 91402 -1.9843e+002 -1.7724e+002  8.9831e+001 47191 91425,91301,91275
 7.0000e-001 91379 -1.7207e+002 -1.6567e+002  1.1135e+002 47191 91497,91425,91275
 7.0000e-001 91451 -1.9098e+002 -1.3352e+002  7.6699e+001 47191 91327,91301,91425
 7.0000e-001 91474 -1.4578e+002 -1.9001e+002  1.3567e+002 47191 91327,91425,91353
 7.0000e-001 91523 -1.9924e+002 -3.1792e+002  1.1186e+002 47191 91353,91425,91497
 7.0000e-001 91854 -1.3130e+002 -1.7031e+002  1.5958e+002 46744 91949,91877,91707
 7.0000e-001 91831 -2.0777e+001 -1.3997e+002  7.3702e+001 46744 91877,91655,91629
 7.0000e-001 91808 -1.4392e+002 -1.5989e+002  1.5302e+002 46744 91949,91707,91681
 7.0000e-001 91785 -3.8335e+001 -9.2987e+001 -2.2192e+001 46744 91629,91759,91733
 7.0000e-001 91903 -1.5384e+002 -1.8347e+002  1.6888e+002 46744 91733,91707,91877
 7.0000e-001 91926 -1.1607e+002 -2.5852e+002  1.1744e+002 46744 91733,91877,91629
 7.0000e-001 91975 -1.4980e+002 -1.8156e+002  1.4790e+002 46744 91655,91877,91949
 7.0000e-001 91998 -1.7392e+002 -1.7545e+002  1.4293e+002 46744 91655,91949,91681
 7.0000e-001 92378 -9.9053e+001 -7.2032e+001  9.1617e+001 46090 92130,92208,92182
 7.0000e-001 92355 -1.5680e+002 -9.7146e+001  8.8625e+001 46090 92104,92208,92130
 7.0000e-001 92332 -8.4553e+001 -1.5508e+002  8.9840e+001 46090 92104,92260,92208
 7.0000e-001 92309 -7.3120e+001 -1.2765e+002  9.2195e+001 46090 92208,92260,92234
 7.0000e-001 92286 -2.4967e+002 -1.3767e+002  1.2239e+002 46090 92130,92182,92156
 7.0000e-001 92626 -1.5204e+002 -2.1067e+002  7.2188e+001 45693 92721,92649,92505
 7.0000e-001 92603 -1.7157e+002 -2.1215e+002  1.2675e+002 45693 92649,92453,92427
 7.0000e-001 92580 -1.6460e+002 -1.7745e+002  6.8370e+001 45693 92721,92505,92479
 7.0000e-001 92557 -3.0992e+002 -2.7373e+002  1.4595e+002 45693 92401,92531,92427
 7.0000e-001 92675 -2.2010e+002 -2.0219e+002  8.9798e+001 45693 92531,92505,92649
 7.0000e-001 92698 -2.4493e+002 -2.3720e+002  1.6613e+002 45693 92531,92649,92427
 7.0000e-001 92747 -1.5616e+002 -1.7256e+002  7.0395e+001 45693 92453,92649,92721
 7.0000e-001 92770 -1.2496e+002 -7.3706e+001  8.0816e+001 45693 92453,92721,92479
 7.0000e-001 93172 -9.3036e+001 -1.5676e+002  1.3778e+002 45331 92898,93028,92924
 7.0000e-001 93149 -7.3086e+001 -1.7407e+002  9.8757e+001 45331 92898,93054,93028
 7.0000e-001 93126 -1.3944e+002 -1.1149e+002  1.5746e+002 45331 92924,93002,92976
 7.0000e-001 93103 -5.8467e+001 -1.4331e+002  1.3778e+002 45331 92924,93028,93002
 7.0000e-001 93080 -1.1686e+002 -1.5301e+002  1.8673e+002 45331 92924,92976,92950
 7.0000e-001 93518 -2.0094e+002 -3.9343e+002  1.1412e+002 44820 93613,93273,93247
 7.0000e-001 93495 -2.8522e+002 -3.0002e+002  1.6788e+002 44820 93685,93541,93247
 7.0000e-001 93472 -2.4304e+002 -2.0145e+002  1.3632e+002 44820 93541,93195,93377
 7.0000e-001 93449 -3.2850e+002 -2.5245e+002  1.1743e+002 44820 93685,93247,93221
 7.0000e-001 93426 -1.9254e+002 -2.2742e+002  1.2520e+002 44820 93299,93377,93351
 7.0000e-001 93403 -1.5108e+002 -1.3863e+002  1.4986e+002 44820 93299,93351,93325
 7.0000e-001 93567 -2.2099e+002 -3.9173e+002  1.4009e+002 44820 93613,93247,93541
 7.0000e-001 93590 -2.1529e+002 -2.8280e+002  1.0737e+002 44820 93299,93541,93377
 7.0000e-001 93639 -2.2175e+002 -3.7386e+002  1.3198e+002 44820 93299,93273,93613
 7.0000e-001 93662 -2.1707e+002 -3.7485e+002  1.3763e+002 44820 93299,93613,93541
 7.0000e-001 93711 -2.2802e+002 -2.1429e+002  1.1784e+002 44820 93195,93541,93685
 7.0000e-001 93734 -2.0764e+002 -7.4263e+001  5.6297e+001 44820 93195,93685,93221
 7.0000e-001 94163 -2.3074e+002 -2.7621e+002  1.0472e+002 44237 94258,94186,93996
 7.0000e-001 94140 -2.7482e+002 -3.0769e+002  6.8260e+001 44237 94330,94022,93996
 7.0000e-001 94117 -2.8519e+002 -3.0581e+002  7.5502e+001 44237 94186,93918,93866
 7.0000e-001 94094 -1.9787e+002 -2.1322e+002  1.1801e+002 44237 94258,93996,93970
 7.0000e-001 94071 -2.4785e+002 -1.7330e+002  9.7269e+001 44237 94402,93944,93918
 7.0000e-001 94048 -2.1449e+002 -3.3219e+002  1.2486e+002 44237 93866,93918,93892
 7.0000e-001 94212 -2.7514e+002 -3.1043e+002  8.9499e+001 44237 94330,93996,94186
 7.0000e-001 94235 -2.8058e+002 -2.6595e+002  9.8784e+001 44237 93840,94186,93866
 7.0000e-001 94284 -2.4699e+002 -2.1993e+002  6.8608e+001 44237 93918,94186,94258
 7.0000e-001 94307 -2.3042e+002 -1.8203e+002  7.8818e+001 44237 94402,93918,94258
 7.0000e-001 94356 -2.3191e+002 -1.1192e+002 -6.4143e+000 44237 93840,94022,94330
 7.0000e-001 94379 -2.5998e+002 -2.7296e+002  9.1611e+001 44237 93840,94330,94186
 7.0000e-001 94428 -2.8082e+002 -2.0845e+002  1.1089e+002 44237 93970,93944,94402
 7.0000e-001 94451 -2.5489e+002 -2.1309e+002  9.0115e+001 44237 93970,94402,94258
 7.0000e-001 94908 -1.0550e+002 -1.7380e+002  4.8182e+001 43890 94660,94790,94712
 7.0000e-001 94885 -7.4315e+001 -8.1600e+001  7.5037e+001 43890 94634,94790,94660
 7.0000e-001 94862 -1.3910e+002 -9.0348e+001  1.0091e+002 43890 94712,94764,94738
 7.0000e-001 94839 -9.5095e+001 -1.7990e+002  1.0423e+002 43890 94712,94790,94764
 7.0000e-001 94816 -5.4310e+001 -2.2222e+002  1.1634e+002 43890 94660,94712,94686
 7.0000e-001 95414 -1.8791e+002 -1.5617e+002  7.7988e+001 43186 95437,95143,95117
 7.0000e-001 95391 -1.9392e+002 -2.4642e+002  1.0353e+002 43186 95437,95117,95091
 7.0000e-001 95368 -1.0377e+002 -1.0171e+002  7.3685e+001 43186 95143,95221,95195
 7.0000e-001 95345 -2.9202e+002 -2.3238e+002  2.0227e+002 43186 95091,95273,95221
 7.0000e-001 95322 -2.0345e+002 -1.5483e+002  9.6050e+001 43186 95221,95273,95247
 7.0000e-001 95299 -1.5313e+002 -2.7326e+002  8.6851e+001 43186 95143,95195,95169
 7.0000e-001 95463 -1.9986e+002 -2.1752e+002  1.2026e+002 43186 95221,95143,95437
 7.0000e-001 95486 -1.9532e+002 -2.8886e+002  1.4738e+002 43186 95221,95437,95091
 7.0000e-001 96041 -2.5622e+002 -2.7118e+002  6.1460e+001 42782 95695,95851,95799
 7.0000e-001 96018 -2.2949e+002 -2.8596e+002  6.9066e+001 42782 95669,95851,95695
 7.0000e-001 95995 -2.7406e+002 -1.9939e+002  7.8256e+001 42782 95695,95747,95721
 7.0000e-001 95972 -2.1036e+002 -2.5175e+002  6.8777e+001 42782 95695,95799,95747
 7.0000e-001 95949 -1.9531e+002 -1.9986e+002  5.7366e+001 42782 95747,95799,95773
 7.0000e-001 95926 -3.4889e+002 -3.0594e+002  1.3650e+002 42782 95799,95851,95825
 7.0000e-001 95903 -2.9860e+002 -3.1562e+002  7.2550e+001 42782 95669,95877,95851
 7.0000e-001 96370 -2.6628e+002 -3.3541e+002  1.6732e+002 42420 96197,96275,96223
 7.0000e-001 96347 -2.5632e+002 -2.8801e+002  1.5787e+002 42420 96145,96275,96197
 7.0000e-001 96324 -2.5028e+002 -2.0571e+002  1.5115e+002 42420 96145,96197,96171
 7.0000e-001 96301 -1.8221e+002 -2.3631e+002  1.1360e+002 42420 96223,96275,96249
 7.0000e-001 96699 -1.7852e+002 -1.9699e+002  9.2041e+001 41816 96474,96578,96526
 7.0000e-001 96676 -1.3122e+002 -8.5286e+001 -4.4561e+000 41816 96474,96604,96578
 7.0000e-001 96653 -2.1006e+002 -1.1711e+002  1.2250e+002 41816 96526,96578,96552
 7.0000e-001 96630 -1.3873e+002 -1.7347e+002  3.6850e+001 41816 96474,96526,96500
 7.0000e-001 96947 -1.1927e+002 -2.8403e+002  1.2577e+002 41212 96722,96800,96748
 7.0000e-001 96924 -1.8902e+002 -2.2596e+002  1.5856e+002 41212 96722,96826,96800
 7.0000e-001 96901 -1.6738e+002 -1.4943e+002  8.0717e+001 41212 96722,96852,96826
 7.0000e-001 96878 -2.2880e+002 -3.4058e+002  8.5054e+001 41212 96748,96800,96774
 7.0000e-001 97097 -1.0993e+002 -1.1793e+002  1.2847e+002 40793 97120,97022,96996
 7.0000e-001 97074 -1.9325e+002 -3.0081e+002  9.6867e+001 40793 97192,97120,96996
 7.0000e-001 97146 -9.9803e+001 -2.3874e+002  1.2695e+002 40793 97324,97120,97048
 7.0000e-001 97169 -6.0066e+001 -3.4886e+002  1.3653e+002 40793 97048,97120,96970
 7.0000e-001 97218  3.2908e+001 -2.0380e+002  9.4020e+001 40793 96970,97120,97192
 7.0000e-001 97350 -9.9803e+001 -2.3874e+002  1.2695e+002 40793 97022,97120,97324
 7.0000e-001 97878 -1.4493e+002 -3.1750e+002  7.2121e+001 40446 97901,97607,97555
 7.0000e-001 97855 -1.6506e+002 -2.2791e+002  8.2262e+001 40446 97973,97901,97555
 7.0000e-001 97832 -1.5871e+002 -2.0115e+002  6.1187e+001 40446 97973,97555,97737
 7.0000e-001 97809 -2.0561e+002 -2.7396e+002  7.3309e+001 40446 97633,97685,97659
 7.0000e-001 97786 -1.5638e+002 -2.5430e+002  6.7532e+001 40446 97633,97711,97685
 7.0000e-001 97763 -1.4851e+002 -3.7064e+002  8.4282e+001 40446 97555,97607,97581
 7.0000e-001 97927 -1.9219e+002 -4.0393e+002 -1.8350e+000 40446 97633,97607,97901
 7.0000e-001 97950 -1.6363e+002 -2.9719e+002  5.4744e+001 40446 97633,97901,97711
 7.0000e-001 97999 -1.4680e+002 -3.0052e+002  8.9428e+001 40446 97711,97901,97973
 7.0000e-001 98022 -1.3213e+002 -2.5265e+002  7.4192e+001 40446 97711,97973,97737
 7.0000e-001 98449 -1.1040e+002 -8.7402e+001  8.2107e+001 39935 98152,98204,98178
 7.0000e-001 98426 -1.7761e+002 -1.2272e+002  5.0262e+001 39935 98152,98230,98204
 7.0000e-001 98403 -2.4039e+002 -1.1018e+002  1.1209e+002 39935 98152,98256,98230
 7.0000e-001 98380 -1.4573e+002 -1.8281e+002  1.3971e+002 39935 98126,98256,98152
 7.0000e-001 98357 -2.0618e+002 -3.2239e+002  1.5383e+002 39935 98126,98282,98256
 7.0000e-001 98334 -1.7727e+002 -4.8418e+002  2.1694e+002 39935 98126,98308,98282
 7.0000e-001 98746 -4.1981e+002 -2.8704e+002  8.3380e+001 39531 98498,98602,98524
 7.0000e-001 98723 -3.0316e+002 -2.4871e+002  9.1435e+001 39531 98472,98602,98498
 7.0000e-001 98700 -3.8642e+002 -1.9896e+002  8.8648e+001 39531 98524,98602,98576
 7.0000e-001 98677 -2.3282e+002 -2.6966e+002  1.0976e+002 39531 98472,98628,98602
 7.0000e-001 98654 -6.3261e+002 -2.2073e+002  1.0644e+002 39531 98524,98576,98550
 7.0000e-001 99224 -2.4511e+002 -1.3607e+002  2.3136e+002 39027 99247,98956,98930
 7.0000e-001 99201 -2.7821e+002 -2.7533e+002  1.3120e+002 39027 99247,98930,98878
 7.0000e-001 99178 -2.1638e+002 -2.7170e+002  1.9387e+002 39027 99319,98982,98956
 7.0000e-001 99155 -1.7664e+002 -1.6408e+002  1.6074e+002 39027 98852,99060,98878
 7.0000e-001 99132 -2.2559e+002 -1.4487e+002  6.8838e+001 39027 98878,98930,98904
 7.0000e-001 99109 -2.8782e+002 -5.1120e+002  2.9148e+002 39027 98982,99060,99034
 7.0000e-001 99086 -3.4763e+002 -5.9135e+002  3.7853e+002 39027 98982,99034,99008
 7.0000e-001 99273 -2.1393e+002 -2.5685e+002  1.8649e+002 39027 99319,98956,99247
 7.0000e-001 99296 -2.0819e+002 -2.4443e+002  1.3782e+002 39027 99060,99247,98878
 7.0000e-001 99345 -2.0318e+002 -2.7735e+002  1.8265e+002 39027 99060,98982,99319
 7.0000e-001 99368 -1.9741e+002 -2.7240e+002  1.7720e+002 39027 99060,99319,99247
 7.0000e-001 99923 -3.2295e+002 -2.4023e+002  1.2024e+002 38523 99946,99655,99603
 7.0000e-001 99900 -2.5112e+002 -2.0587e+002  1.3110e+002 38523 99946,99603,99759
 7.0000e-001 99877 -1.3007e+002 -3.0274e+002  1.6527e+002 38523 100018,99707,99681
 7.0000e-001 99854 -2.6482e+002 -1.4192e+002  1.2312e+002 38523 99551,99759,99603
 7.0000e-001 99831 -2.3262e+002 -1.1546e+002  9.7820e+001 38523 99551,99603,99577
 7.0000e-001 99808 -2.6142e+002 -4.0601e+002  1.2276e+002 38523 99707,99759,99733
 7.0000e-001 99785 -2.2167e+002 -2.1015e+002  9.9677e+001 38523 99603,99655,99629
 7.0000e-001 99972 -2.6111e+002 -1.2330e+002  1.5940e+002 38523 99681,99655,99946
 7.0000e-001 99995 -1.7767e+002 -1.6000e+002  1.9949e+002 38523 100018,99681,99946
 7.0000e-001 100044 -2.0259e+002 -3.6833e+002  1.0662e+002 38523 99759,99707,100018
 7.0000e-001 100067 -2.9491e+002 -3.0530e+002  1.3799e+002 38523 99759,100018,99946
 7.0000e-001 100467 -1.1010e+002 -2.0168e+002  9.4886e+001 38125 100219,100349,100323
 7.0000e-001 100444 -7.5168e-001 -8.5753e+000  1.3880e+002 38125 100193,100349,100219
 7.0000e-001 100421 -8.3039e+001 -2.9649e+002  1.0720e+002 38125 100245,100323,100297
 7.0000e-001 100398 -7.6531e+001 -1.8371e+002  1.1912e+002 38125 100219,100323,100245
 7.0000e-001 100375 -1.3478e+002 -2.8003e+002  1.9167e+002 38125 100245,100297,100271
 7.0000e-001 100666 -2.3938e+002 -2.9227e+002  1.1222e+002 37607 100689,100568,100542
 7.0000e-001 100643 -2.1272e+002 -2.1006e+002  1.0262e+002 37607 100689,100542,100490
 7.0000e-001 100620 -1.8127e+002 -1.4275e+002  8.9711e+001 37607 100490,100542,100516
 7.0000e-001 100715 -2.0882e+002 -2.1376e+002  9.4655e+001 37607 100594,100568,100689
 7.0000e-001 100738 -2.2762e+002 -1.9087e+002  9.4069e+001 37607 100594,100689,100490
 7.0000e-001 100937 -2.0849e+002 -1.1117e+002  1.7997e+002 37017 100960,100813,100787
 7.0000e-001 100914 -1.9174e+002 -1.2727e+002  1.1945e+002 37017 100960,100787,100761
 7.0000e-001 100891 -2.7559e+002 -9.7845e+001  1.7203e+002 37017 100813,100865,100839
 7.0000e-001 100986 -2.4407e+002 -1.7936e+002  1.9300e+002 37017 100865,100813,100960
 7.0000e-001 101009 -2.1450e+002 -1.7694e+002  1.2748e+002 37017 100865,100960,100761
 7.0000e-001 101519 -3.6857e+002 -3.1931e+002  1.5593e+002 36613 101222,101274,101248
 7.0000e-001 101496 -2.0874e+002 -2.0917e+002  1.0501e+002 36613 101222,101352,101274
 7.0000e-001 101473 -2.2689e+002 -2.9650e+002  9.1344e+001 36613 101274,101352,101326
 7.0000e-001 101450 -1.9280e+002 -1.4831e+002  1.3220e+002 36613 101222,101378,101352
 7.0000e-001 101427 -8.3783e+001 -4.7847e+002  1.7093e+002 36613 101274,101326,101300
 7.0000e-001 101404 -1.8103e+002 -4.9015e+001  3.3517e+001 36613 101196,101378,101222
 7.0000e-001 101718 -2.1404e+002 -1.1306e+002  1.5592e+002 36308 101594,101646,101620
 7.0000e-001 101695 -2.2282e+002 -1.0886e+002  1.3110e+002 36308 101568,101646,101594
 7.0000e-001 101672 -1.8658e+002 -1.3574e+002  1.3566e+002 36308 101542,101646,101568
 7.0000e-001 102098 -2.5956e+002 -1.6356e+002  1.1356e+002 35918 102121,101954,101876
 7.0000e-001 102075 -2.1076e+002 -2.2043e+002  8.9476e+001 35918 102121,101876,101824
 7.0000e-001 102052 -2.8234e+002 -1.7530e+002  9.2501e+001 35918 101876,101954,101928
 7.0000e-001 102029 -3.5366e+002 -6.7237e+001  9.4863e+001 35918 101876,101928,101902
 7.0000e-001 102006 -1.8202e+002 -1.4475e+002  6.6478e+001 35918 101824,101876,101850
 7.0000e-001 102147 -2.7171e+002 -2.1571e+002  1.4055e+002 35918 101980,101954,102121
 7.0000e-001 102170 -2.2496e+002 -2.7902e+002  1.1051e+002 35918 101980,102121,101824
 7.0000e-001 102489 -1.9937e+002 -4.5362e+002  1.6475e+002 35514 102241,102345,102267
 7.0000e-001 102466 -2.4412e+002 -4.5088e+002  1.4975e+002 35514 102215,102345,102241
 7.0000e-001 102443 -2.0958e+002 -4.9878e+002  1.6292e+002 35514 102215,102371,102345
 7.0000e-001 102420 -1.8662e+002 -4.3915e+002  1.7014e+002 35514 102267,102345,102293
 7.0000e-001 102397 -1.2383e+002 -3.0146e+002  1.8498e+002 35514 102293,102345,102319
 7.0000e-001 102820 -2.1607e+002 -2.0284e+002  5.9428e+001 35224 102843,102699,102647
 7.0000e-001 102797 -3.1018e+002 -2.2056e+002  1.2002e+002 35224 102971,102725,102699
 7.0000e-001 102774 -2.2734e+002 -2.5230e+002  1.3674e+002 35224 102595,102725,102621
 7.0000e-001 102751 -1.0102e+002 -1.0483e+002  1.0191e+002 35224 102647,102699,102673
 7.0000e-001 102869 -2.3053e+002 -2.0563e+002  1.1083e+002 35224 102971,102699,102843
 7.0000e-001 102997 -2.1389e+002 -2.5312e+002  1.2373e+002 35224 102621,102725,102971
 7.0000e-001 103020 -1.2106e+002 -2.2924e+002  1.2385e+002 35224 102621,102971,102843
 7.0000e-001 103349 -2.8603e+002 -2.3955e+002  1.3535e+002 34820 103150,103228,103176
 7.0000e-001 103326 -2.5797e+002 -2.5864e+002  1.3302e+002 34820 103124,103228,103150
 7.0000e-001 103303 -2.2311e+002 -2.2831e+002  2.3237e+002 34820 103176,103228,103202
 7.0000e-001 103280 -1.3549e+002 -2.0014e+002  1.7872e+002 34820 103124,103254,103228
 7.0000e-001 103806 -3.0028e+002 -1.9261e+002  1.1115e+002 34530 103558,103662,103636
 7.0000e-001 103783 -2.4359e+002 -2.0128e+002  7.3853e+001 34530 103558,103688,103662
 7.0000e-001 103760 -2.6898e+002 -2.4893e+002  6.3620e+001 34530 103532,103688,103558
 7.0000e-001 103737 -2.2413e+002 -2.3477e+002  1.2330e+002 34530 103584,103636,103610
 7.0000e-001 103714 -4.3918e+002 -2.4181e+002  1.2782e+002 34530 103558,103636,103584
 7.0000e-001 104263 -1.5231e+002 -1.4243e+002  1.0889e+002 34019 103989,104119,104015
 7.0000e-001 104240 -1.1465e+002 -1.2788e+002  1.0566e+002 34019 103989,104145,104119
 7.0000e-001 104217 -1.3842e+002 -1.9225e+002  6.8748e+001 34019 104015,104067,104041
 7.0000e-001 104194 -1.7309e+002 -2.0973e+002  9.3546e+001 34019 104015,104119,104067
 7.0000e-001 104171 -1.8050e+002 -1.2994e+002  8.8121e+001 34019 104067,104119,104093
 7.0000e-001 104641 -2.5196e+002 -1.4550e+002  9.6506e+001 33351 104419,104497,104445
 7.0000e-001 104618 -2.1592e+002 -1.1576e+002  1.1098e+002 33351 104393,104497,104419
 7.0000e-001 104595 -3.6644e+002 -1.8635e+002  8.3056e+001 33351 104367,104497,104393
 7.0000e-001 104572 -2.4642e+002 -1.3360e+002  6.7927e+001 33351 104445,104497,104471
 7.0000e-001 104549 -3.2985e+002 -1.2710e+002  6.7511e+001 33351 104367,104523,104497
 7.0000e-001 105019 -2.2217e+002 -3.8872e+002  1.9224e+002 32861 104823,104901,104875
 7.0000e-001 104996 -2.7745e+002 -4.0055e+002  1.6386e+002 32861 104745,104901,104823
 7.0000e-001 104973 -3.3056e+002 -4.3503e+002  1.9205e+002 32861 104823,104875,104849
 7.0000e-001 104950 -2.7602e+002 -3.8090e+002  1.9932e+002 32861 104745,104823,104797
 7.0000e-001 104927 -2.9214e+002 -1.4177e+002  2.0516e+002 32861 104745,104797,104771
 7.0000e-001 105397 -1.4352e+002 -2.6138e+002  1.2397e+002 32457 105149,105253,105175
 7.0000e-001 105374 -2.5061e+002 -2.3437e+002  1.0438e+002 32457 105149,105279,105253
 7.0000e-001 105351 -9.2803e+001 -1.9725e+002  1.1274e+002 32457 105123,105279,105149
 7.0000e-001 105328 -3.1662e+002 -6.3209e+001  2.6091e+002 32457 105175,105227,105201
 7.0000e-001 105305 -2.9796e+002 -3.2343e+002  1.5224e+002 32457 105175,105253,105227
 7.0000e-001 105726 -9.4937e+001 -2.8831e+002  1.4123e+002 32003 105527,105605,105553
 7.0000e-001 105703 -1.8229e+002 -2.3315e+002  1.2685e+002 32003 105501,105605,105527
 7.0000e-001 105680 -6.9273e+001 -1.8392e+002  1.1927e+002 32003 105501,105631,105605
 7.0000e-001 105657 -4.3360e+001 -1.5879e+002  1.3025e+002 32003 105553,105605,105579
 7.0000e-001 106104 -2.6569e+002 -1.6613e+002  1.2892e+002 31492 106127,105908,105856
 7.0000e-001 106081 -2.6413e+002 -1.5961e+002  7.8674e+001 31492 106127,105856,105830
 7.0000e-001 106058 -2.2179e+002 -2.5254e+002  1.4462e+002 31492 105856,105908,105882
 7.0000e-001 106035 -2.1376e+002 -2.0291e+002  6.4358e+001 31492 105830,105986,105960
 7.0000e-001 106012 -1.5918e+002 -2.4690e+002  1.7163e+002 31492 105908,105960,105934
 7.0000e-001 106153 -2.7294e+002 -2.0684e+002  1.1775e+002 31492 105960,105908,106127
 7.0000e-001 106176 -2.7839e+002 -2.3129e+002  7.3687e+001 31492 105960,106127,105830
 7.0000e-001 106375 -2.1510e+002 -1.7897e+002  1.5204e+002 30788 106398,106277,106251
 7.0000e-001 106352 -2.5013e+002 -2.8870e+002  1.4904e+002 30788 106398,106251,106225
 7.0000e-001 106329 -3.0038e+002 -2.2833e+002  2.1682e+002 30788 106600,106199,106303
 7.0000e-001 106424 -3.3362e+002 -3.2652e+002  1.1488e+002 30788 106470,106398,106303
 7.0000e-001 106447 -2.4290e+002 -2.6782e+002  1.6646e+002 30788 106600,106303,106398
 7.0000e-001 106496 -9.1068e+001 -2.2209e+002  1.3280e+002 30788 106277,106398,106470
 7.0000e-001 106626 -3.4289e+002 -2.9951e+002  2.4000e+002 30788 106225,106199,106600
 7.0000e-001 106649 -2.9723e+002 -3.3682e+002  1.9154e+002 30788 106225,106600,106398
 7.0000e-001 106799 -1.1590e+002 -2.8351e+002  7.4124e+001 30426 106698,106750,106724
 7.0000e-001 106776 -7.4567e+001 -1.7725e+002  9.5140e+001 30426 106672,106750,106698
 7.0000e-001 107356 -2.5995e+002 -1.8901e+002  1.0132e+002 29972 107010,107166,107114
 7.0000e-001 107333 -2.5062e+002 -1.8320e+002  1.0422e+002 29972 106984,107166,107010
 7.0000e-001 107310 -2.7535e+002 -1.1281e+002  6.6028e+001 29972 107010,107114,107088
 7.0000e-001 107287 -2.3864e+002 -9.8260e+001  8.6019e+001 29972 107114,107166,107140
 7.0000e-001 107264 -2.6181e+002 -2.1297e+002  1.2119e+002 29972 106984,107192,107166
 7.0000e-001 107241 -2.9619e+002 -1.9718e+002  6.2762e+001 29972 107010,107088,107036
 7.0000e-001 107218 -2.3762e+002 -1.7404e+002  7.9790e+001 29972 107036,107088,107062
 7.0000e-001 107783 -2.4735e+002 -3.0757e+002  1.6062e+002 29724 107878,107806,107590
 7.0000e-001 107760 -3.7004e+002 -3.5412e+002  1.4822e+002 29724 107806,107512,107486
 7.0000e-001 107737 -2.4194e+002 -3.0354e+002  1.6288e+002 29724 107878,107590,107538
 7.0000e-001 107714 -2.6969e+002 -3.7183e+002  1.9494e+002 29724 107950,107460,107616
 7.0000e-001 107691 -2.7481e+002 -3.7064e+002  1.8100e+002 29724 107460,107642,107616
 7.0000e-001 107668 -1.7623e+002 -2.1713e+002  1.9455e+002 29724 107538,107590,107564
 7.0000e-001 107832 -1.9105e+002 -3.2235e+002  2.1306e+002 29724 107616,107590,107806
 7.0000e-001 107855 -2.7039e+002 -3.7490e+002  1.8771e+002 29724 107950,107616,107806
 7.0000e-001 107904 -2.6977e+002 -3.0401e+002  1.9098e+002 29724 107512,107806,107878
 7.0000e-001 107927 -2.1548e+002 -2.7679e+002  2.0021e+002 29724 107512,107878,107538
 7.0000e-001 107976 -1.8983e+002 -3.8108e+002  2.1860e+002 29724 107486,107460,107950
 7.0000e-001 107999 -2.6125e+002 -4.0094e+002  1.8485e+002 29724 107486,107950,107806
 7.0000e-001 108296 -2.5893e+002 -2.2855e+002  1.2352e+002 29206 108319,108100,108048
 7.0000e-001 108273 -1.4875e+002 -2.0524e+002  1.5703e+002 29206 108319,108048,108022
 7.0000e-001 108250 -9.6705e+001 -2.3965e+002  1.9596e+002 29206 108391,108152,108126
 7.0000e-001 108227 -3.4343e+002 -1.4895e+002  1.7176e+002 29206 108048,108100,108074
 7.0000e-001 108204 -1.3213e+002 -3.1622e+002  1.7418e+002 29206 108022,108178,108152
 7.0000e-001 108345 -1.9408e+002 -1.3721e+002  1.8247e+002 29206 108126,108100,108319
 7.0000e-001 108368 -1.1955e+002 -1.9902e+002  2.1521e+002 29206 108391,108126,108319
 7.0000e-001 108417 -1.4890e+002 -2.8607e+002  1.7020e+002 29206 108022,108152,108391
 7.0000e-001 108440 -1.6772e+002 -2.5610e+002  1.9141e+002 29206 108022,108391,108319
 7.0000e-001 108688 -3.6638e+002 -3.1830e+002  1.8738e+002 28595 108711,108541,108515
 7.0000e-001 108665 -4.9998e+002 -3.4299e+002  2.5434e+002 28595 108783,108711,108515
 7.0000e-001 108642 -5.6754e+002 -3.1464e+002  2.5016e+002 28595 108783,108515,108489
 7.0000e-001 108619 -5.6286e+002 -4.1185e+002  1.2902e+002 28595 108463,108593,108489
 7.0000e-001 108737 -3.2972e+002 -2.4895e+002  1.1237e+002 28595 108567,108541,108711
 7.0000e-001 108760 -3.3661e+002 -2.8756e+002  2.1016e+002 28595 108567,108711,108593
 7.0000e-001 108809 -3.6867e+002 -3.6250e+002  2.0547e+002 28595 108593,108711,108783
 7.0000e-001 108832 -4.8239e+002 -3.6485e+002  1.8045e+002 28595 108593,108783,108489
 7.0000e-001 109033 -1.4295e+002 -1.5915e+002  1.1308e+002 28091 108909,108961,108935
 7.0000e-001 109010 -2.2098e+002 -1.7202e+002  9.0631e+001 28091 108857,108961,108909
 7.0000e-001 108987 -2.9890e+002 -2.2855e+002  1.8005e+002 28091 108857,108909,108883
 7.0000e-001 109136 -2.1206e+002 -4.9796e+002  9.2980e+001 27587 109058,109110,109084
 7.0000e-001 109695 -1.9952e+002 -2.2540e+002  7.6092e+001 26969 109718,109375,109323
 7.0000e-001 109672 -2.0801e+002 -2.1681e+002  9.6907e+001 26969 109718,109323,109505
 7.0000e-001 109649 -2.5428e+002 -9.3690e+001  5.6726e+001 26969 109790,109453,109427
 7.0000e-001 109626 -1.1655e+002 -1.9127e+002  1.0232e+002 26969 109323,109375,109349
 7.0000e-001 109603 -2.7760e+002 -2.9385e+002  1.3946e+002 26969 109323,109531,109505
 7.0000e-001 109580 -2.1296e+002 -2.8866e+002  6.3959e+001 26969 109375,109427,109401
 7.0000e-001 109557 -2.7786e+002 -1.1850e+002  7.1370e+001 26969 109453,109505,109479
 7.0000e-001 109744 -2.2835e+002 -2.5424e+002  4.3550e+001 26969 109427,109375,109718
 7.0000e-001 109767 -1.8131e+002 -1.5324e+002  5.8759e+001 26969 109790,109427,109718
 7.0000e-001 109816 -2.9501e+002 -1.5400e+002  8.4282e+001 26969 109505,109453,109790
 7.0000e-001 109839 -2.4610e+002 -2.2906e+002  9.5961e+001 26969 109505,109790,109718
 7.0000e-001 110266 -2.2541e+002 -3.1835e+002  1.3222e+002 26515 110361,110289,110099
 7.0000e-001 110243 -2.1748e+002 -2.5281e+002  1.8128e+002 26515 110289,109995,109943
 7.0000e-001 110220 -2.2059e+002 -3.2070e+002  1.5090e+002 26515 110361,110099,110021
 7.0000e-001 110197 -1.3503e+002 -3.8583e+002  1.2005e+002 26515 110047,110099,110073
 7.0000e-001 110174 -1.7685e+002 -4.7337e+002  7.6026e+001 26515 110021,110099,110047
 7.0000e-001 110151  2.8771e+001  3.5594e+001  2.9689e+002 26515 109943,109995,109969
 7.0000e-001 110315 -3.6808e+002 -2.3901e+002  1.1176e+002 26515 110125,110099,110289
 7.0000e-001 110338 -2.3237e+002 -8.6762e+001  2.1570e+002 26515 110125,110289,109943
 7.0000e-001 110387 -2.1394e+002 -2.7434e+002  1.2720e+002 26515 109995,110289,110361
 7.0000e-001 110410 -2.1737e+002 -2.9583e+002  1.4346e+002 26515 109995,110361,110021
 7.0000e-001 110609 -1.0796e+002 -2.9277e+002  1.2577e+002 25789 110906,110762,110632
 7.0000e-001 110586 -1.1297e+002 -3.7512e+002  1.4322e+002 25789 110762,110433,110537
 7.0000e-001 110563 -2.4017e+002 -3.1083e+002  1.9593e+002 25789 110834,110459,110433
 7.0000e-001 110658 -1.5448e+002 -2.7648e+002  1.5684e+002 25789 110906,110632,110834
 7.0000e-001 110788 -8.0672e+001 -1.8931e+002  8.2512e+001 25789 110511,110632,110762
 7.0000e-001 110811 -1.0391e+002 -2.9190e+002  1.4373e+002 25789 110511,110762,110537
 7.0000e-001 110860 -1.5972e+002 -2.7455e+002  1.8828e+002 25789 110485,110459,110834
 7.0000e-001 110883 -1.9103e+002 -2.9778e+002  1.6610e+002 25789 110485,110834,110632
 7.0000e-001 110932 -1.9754e+002 -3.2281e+002  1.2743e+002 25789 110433,110762,110906
 7.0000e-001 110955 -2.3520e+002 -2.9796e+002  1.5219e+002 25789 110433,110906,110834
 7.0000e-001 111350 -2.7633e+002 -2.7811e+002  1.8961e+002 25228 111445,111373,111186
 7.0000e-001 111327 -3.0237e+002 -3.3534e+002  1.0608e+002 25228 110978,111186,111004
 7.0000e-001 111304 -2.9130e+002 -3.4282e+002  1.5477e+002 25228 111373,111108,111082
 7.0000e-001 111281 -2.3020e+002 -3.8045e+002  1.5262e+002 25228 111134,111186,111160
 7.0000e-001 111258 -2.6785e+002 -2.5934e+002  1.9149e+002 25228 111445,111186,111134
 7.0000e-001 111235 -2.4422e+002 -2.4966e+002  1.0462e+002 25228 111517,111030,111004
 7.0000e-001 111212 -3.7262e+002 -2.9617e+002  1.5286e+002 25228 111030,111082,111056
 7.0000e-001 111399 -2.7587e+002 -3.3369e+002  1.8279e+002 25228 111004,111186,111373
 7.0000e-001 111422 -2.1513e+002 -2.7231e+002  1.4795e+002 25228 111517,111004,111373
 7.0000e-001 111471 -2.8630e+002 -2.7406e+002  1.5906e+002 25228 111108,111373,111445
 7.0000e-001 111494 -2.7559e+002 -2.5039e+002  1.6140e+002 25228 111108,111445,111134
 7.0000e-001 111543 -3.1551e+002 -2.7662e+002  1.2046e+002 25228 111082,111030,111517
 7.0000e-001 111566 -2.8478e+002 -3.0409e+002  1.6551e+002 25228 111082,111517,111373
 7.0000e-001 112074 -2.7122e+002 -2.3705e+002  1.4647e+002 24338 112097,111907,111881
 7.0000e-001 112051 -3.1734e+002 -2.3880e+002  1.1475e+002 24338 112097,111881,111829
 7.0000e-001 112028 -1.6253e+002 -2.5057e+002  1.0462e+002 24338 111829,111881,111855
 7.0000e-001 112005 -3.6424e+002 -3.3379e+002  9.7599e+001 24338 111777,111933,111829
 7.0000e-001 111982 -4.0419e+002 -1.0730e+002  1.1601e+002 24338 111751,111933,111777
 7.0000e-001 111959 -3.8081e+002 -4.1553e+002  1.4634e+002 24338 111777,111829,111803
 7.0000e-001 112123 -3.1591e+002 -3.1254e+002  1.2492e+002 24338 111933,111907,112097
 7.0000e-001 112146 -3.3251e+002 -2.5134e+002  1.0626e+002 24338 111933,112097,111829
 7.0000e-001 112443 -3.6163e+002 -2.3372e+002  1.3651e+002 23998 112466,112299,112247
 7.0000e-001 112420 -3.9354e+002 -3.9242e+002  1.3288e+002 23998 112466,112247,112221
 7.0000e-001 112397 -3.9394e+002 -3.9322e+002  1.9922e+002 23998 112169,112325,112221
 7.0000e-001 112374 -3.5890e+002 -3.3333e+002  2.1466e+002 23998 112169,112221,112195
 7.0000e-001 112351 -2.1391e+002 -2.0010e+002  1.6782e+002 23998 112247,112299,112273
 7.0000e-001 112492 -3.6046e+002 -2.5365e+002  2.3150e+002 23998 112325,112299,112466
 7.0000e-001 112515 -3.9085e+002 -3.4320e+002  2.0620e+002 23998 112325,112466,112221
 7.0000e-001 113200 -3.1601e+002 -3.3982e+002  2.2949e+002 23480 112779,112961,112805
 7.0000e-001 113177 -3.2125e+002 -2.7299e+002  1.2494e+002 23480 112779,112987,112961
 7.0000e-001 113154 -1.3356e+002 -2.0440e+002  1.6082e+002 23480 112805,112961,112883
 7.0000e-001 113131 -2.1825e+002 -3.2761e+002  1.6405e+002 23480 112883,112935,112909
 7.0000e-001 113108 -2.6723e+002 -2.6105e+002  1.5991e+002 23480 112883,112961,112935
 7.0000e-001 113085 -1.4408e+002 -1.7356e+002  8.2626e+001 23480 112831,112883,112857
 7.0000e-001 113062 -1.9959e+002 -2.1185e+002  1.0521e+002 23480 112805,112883,112831
 7.0000e-001 113039 -4.0804e+002 -2.0400e+002  1.4206e+002 23480 112779,113013,112987
 7.0000e-001 113676 -2.8216e+002 -1.6949e+002  1.9807e+002 23018 113699,113434,113356
 7.0000e-001 113653 -2.5438e+002 -1.6794e+002  1.2936e+002 23018 113771,113699,113356
 7.0000e-001 113630 -2.3296e+002 -2.3692e+002  1.0139e+002 23018 113771,113356,113512
 7.0000e-001 113607 -1.8839e+002 -2.8891e+002  1.4322e+002 23018 113330,113512,113356
 7.0000e-001 113584 -5.7687e+002 -2.5679e+002  3.0003e+002 23018 113356,113434,113382
 7.0000e-001 113561 -7.4937e+001 -2.7143e+002  1.4195e+002 23018 113304,113512,113330
 7.0000e-001 113538 -5.4816e+002 -6.8998e+001  1.3116e+002 23018 113382,113434,113408
 7.0000e-001 113725 -3.0805e+002 -2.3078e+002  1.9839e+002 23018 113460,113434,113699
 7.0000e-001 113748 -3.1642e+002 -2.4169e+002  1.5025e+002 23018 113460,113699,113486
 7.0000e-001 113797 -3.0941e+002 -2.6753e+002  1.5098e+002 23018 113486,113699,113771
 7.0000e-001 113820 -2.5612e+002 -2.8552e+002  1.0803e+002 23018 113486,113771,113512
 7.0000e-001 114424 -3.2056e+002 -2.9195e+002  8.1035e+001 22514 114447,114133,114029
 7.0000e-001 114401 -3.2397e+002 -3.4685e+002  8.3331e+001 22514 114447,114029,114237
 7.0000e-001 114378 -3.1449e+002 -2.2852e+002  5.8672e+001 22514 114133,114211,114185
 7.0000e-001 114355 -4.5109e+002 -2.4505e+002  2.8951e+001 22514 114133,114185,114159
 7.0000e-001 114332 -2.8549e+002 -3.6294e+002  1.7760e+002 22514 114003,114237,114029
 7.0000e-001 114309 -3.3175e+002 -2.2507e+002  5.0522e+001 22514 114029,114133,114055
 7.0000e-001 114286 -2.8858e+002 -2.2374e+002  3.3417e+001 22514 114055,114133,114107
 7.0000e-001 114263 -2.0823e+002 -1.7672e+001  4.4870e+001 22514 114055,114107,114081
 7.0000e-001 114473 -3.3706e+002 -2.5976e+002  1.0064e+002 22514 114211,114133,114447
 7.0000e-001 114496 -3.3074e+002 -3.0115e+002  1.0155e+002 22514 114211,114447,114237
 7.0000e-001 114597 -1.8136e+002 -4.4701e+002  2.5499e+002 22316 114620,114571,114545
 7.0000e-001 114646 -1.8136e+002 -4.4701e+002  2.5499e+002 22316 114519,114571,114620
 7.0000e-001 115127 -4.3405e+002 -2.8669e+002  1.2441e+002 21612 115150,114905,114879
 7.0000e-001 115104 -4.7651e+002 -1.7196e+002  1.3502e+002 21612 115150,114879,114853
 7.0000e-001 115081 -3.6915e+002 -8.6728e+001  2.0718e+002 21612 115222,114931,114905
 7.0000e-001 115058 -3.9744e+002 -2.1959e+002  1.7726e+002 21612 115222,114905,115009
 7.0000e-001 115035 -2.6194e+002 -2.9589e+002  1.4723e+002 21612 114957,115009,114983
 7.0000e-001 115176 -4.0784e+002 -1.9883e+002  1.2141e+002 21612 115009,114905,115150
 7.0000e-001 115199 -4.3990e+002 -6.8437e+001  1.2765e+002 21612 115009,115150,114853
 7.0000e-001 115248 -3.5752e+002 -2.1171e+002  1.7671e+002 21612 114957,114931,115222
 7.0000e-001 115271 -3.8109e+002 -3.3665e+002  1.4587e+002 21612 114957,115222,115009
 7.0000e-001 115519 -1.2972e+002  8.1187e+001  1.2114e+002 21208 115542,115372,115320
 7.0000e-001 115496 -6.5781e+000  1.5891e+002  8.9733e-002 21208 115542,115320,115294
 7.0000e-001 115473 -7.9249e+001 -1.9633e+002  1.7754e+002 21208 115320,115372,115346
 7.0000e-001 115450 -1.9387e+002 -2.7019e+001  3.6353e+001 21208 115294,115424,115398
 7.0000e-001 115568 -1.7982e+002  3.1997e+001  1.6475e+002 21208 115398,115372,115542
 7.0000e-001 115591 -1.3733e+002 -4.9503e+001  6.6902e+001 21208 115398,115542,115294
 7.0000e-001 115839 -3.4949e+002 -1.9962e+002  1.8303e+002 20668 115862,115640,115614
 7.0000e-001 115816 -3.8223e+002 -2.0402e+002  1.9958e+002 20668 115862,115614,115744
 7.0000e-001 115793 -4.8076e+002 -2.0118e+002  1.7290e+002 20668 115640,115718,115692
 7.0000e-001 115770 -4.9640e+002 -2.0980e+002  1.7627e+002 20668 115640,115692,115666
 7.0000e-001 115888 -3.9154e+002 -1.7827e+002  1.8791e+002 20668 115718,115640,115862
 7.0000e-001 115911 -4.2348e+002 -1.9214e+002  2.1173e+002 20668 115718,115862,115744
 7.0000e-001 116134 -1.7110e+002 -2.9340e+002  1.6619e+002 20264 115958,116036,115984
 7.0000e-001 116111 -1.0952e+002 -2.6470e+002  1.5842e+002 20264 115958,116062,116036
 7.0000e-001 116088 -1.1646e+002 -2.8318e+002  1.7692e+002 20264 115984,116036,116010
 7.0000e-001 116384 -3.2575e+002 -1.9637e+002  1.7421e+002 19924 116407,116211,116159
 7.0000e-001 116361 -3.1504e+002 -2.9267e+002  1.5749e+002 19924 116407,116159,116263
 7.0000e-001 116338 -3.1849e+002 -1.4044e+002  1.5981e+002 19924 116159,116211,116185
 7.0000e-001 116315 -2.5804e+002 -3.1608e+002  2.1700e+002 19924 116159,116289,116263
 7.0000e-001 116433 -3.2704e+002 -1.4020e+002  1.9411e+002 19924 116237,116211,116407
 7.0000e-001 116456 -2.8489e+002 -2.0718e+002  1.8864e+002 19924 116237,116407,116263
 7.0000e-001 116608 -2.6822e+002 -1.0555e+002  1.3156e+002 19520 116703,116631,116533
 7.0000e-001 116585 -2.6708e+002 -1.1950e+002  1.2214e+002 19520 116631,116507,116481
 7.0000e-001 116657 -2.4087e+002 -1.1985e+002  1.3925e+002 19520 116559,116533,116631
 7.0000e-001 116680 -2.5718e+002 -1.5336e+002  1.2605e+002 19520 116559,116631,116481
 7.0000e-001 116729 -2.6822e+002 -1.0555e+002  1.3156e+002 19520 116507,116631,116703
 7.0000e-001 116952 -2.3565e+002 -1.9268e+002  2.7784e+002 19208 116975,116802,116776
 7.0000e-001 116929 -2.8937e+002 -3.7270e+002  1.6387e+002 19208 116975,116776,116880
 7.0000e-001 116906 -3.3535e+002 -1.4333e+002  1.9112e+002 19208 116802,116854,116828
 7.0000e-001 117001 -1.9432e+002 -1.6202e+002  2.9213e+002 19208 116854,116802,116975
 7.0000e-001 117024 -8.1697e+001 -2.1096e+002  2.3644e+002 19208 116854,116975,116880
 7.0000e-001 117428 -2.8677e+002 -1.1582e+002  1.4625e+002 18796 117154,117206,117180
 7.0000e-001 117405 -2.0255e+002 -2.0106e+002  1.3617e+002 18796 117154,117284,117206
 7.0000e-001 117382 -1.3615e+002 -1.6624e+002  1.5766e+002 18796 117154,117310,117284
 7.0000e-001 117359 -1.2869e+002 -1.3461e+002  1.8427e+002 18796 117206,117284,117258
 7.0000e-001 117336 -8.6410e+001 -4.3319e+001  2.3711e+002 18796 117206,117258,117232
 7.0000e-001 117529 -1.3902e+002 -6.4945e+001  7.5301e+001 18228 117810,117552,117477
 7.0000e-001 117578 -2.9746e+002 -1.8753e+002  1.1178e+002 18228 117682,117552,117503
 7.0000e-001 117708 -1.0508e+002 -9.5860e+001  7.6225e+001 18228 117477,117552,117682
 7.0000e-001 117836 -2.1745e+002 -1.9482e+002  1.1925e+002 18228 117451,117552,117810
 7.0000e-001 118364 -3.3671e+002 -1.3124e+002  1.1062e+002 17722 118067,118223,118093
 7.0000e-001 118341 -3.1939e+002 -3.3078e+001  9.7842e+001 17722 118041,118223,118067
 7.0000e-001 118318 -2.1084e+002 -1.1002e+002  8.2639e+001 17722 118093,118223,118197
 7.0000e-001 118295 -4.9568e+002 -4.5157e+002  2.7714e+002 17722 118119,118197,118171
 7.0000e-001 118272 -1.5238e+002 -5.4761e+001  1.2270e+002 17722 118093,118197,118119
 7.0000e-001 118249 -4.3546e+002 -1.4624e+002  2.2423e+002 17722 118119,118171,118145
 7.0000e-001 118514 -4.4117e+002 -1.8232e+002  1.5063e+002 17268 118387,118439,118413
 7.0000e-001 118491 -4.1644e+001 -1.8797e+002  1.7024e+002 17268 118387,118465,118439
 7.0000e-001 118916 -4.5483e+002 -1.7853e+002  9.3480e+001 16828 118668,118772,118694
 7.0000e-001 118893 -6.0372e+002 -2.2734e+002  7.8671e+001 16828 118668,118798,118772
 7.0000e-001 118870 -6.6608e+002 -3.8058e+002  8.2193e+001 16828 118642,118798,118668
 7.0000e-001 118847 -3.3144e+002 -1.4402e+002  2.0774e+002 16828 118694,118746,118720
 7.0000e-001 118824 -4.9725e+002 -3.0913e+002  9.4651e+001 16828 118694,118772,118746
 7.0000e-001 119316 -2.1612e+002 -1.5509e+002  2.1261e+002 16422 119042,119172,119094
 7.0000e-001 119293 -2.9131e+002 -1.5676e+002  2.2853e+002 16422 119042,119198,119172
 7.0000e-001 119270 -3.2906e+002 -1.3217e+002  1.3568e+002 16422 119042,119094,119068
 7.0000e-001 119247 -1.8585e+002 -9.2735e+001  2.9636e+002 16422 119094,119146,119120
 7.0000e-001 119224 -1.9241e+002 -1.1572e+002  2.2480e+002 16422 119094,119172,119146
 7.0000e-001 119466 -5.1927e+002 -1.8196e+002 -2.8379e+001 16010 119339,119391,119365
 7.0000e-001 119443 -2.6693e+002 -2.0131e+002  1.6062e+002 16010 119339,119417,119391
 7.0000e-001 119616 -1.6190e+002 -6.7742e+001  1.8010e+002 15547 119515,119567,119541
 7.0000e-001 119593  6.0430e+001  1.0055e+002  3.3512e+002 15547 119489,119567,119515
 7.0000e-001 119719 -4.5564e+002 -1.8932e+002  1.5555e+002 421 119641,119693,119667
 8.0000e-001 69562 -4.3031e+002 -1.9606e+002  2.9911e+002 69254 69484,69536,69510
 8.0000e-001 70009 -1.4792e+002 -1.3982e+002  1.4661e+002 68942 69686,69842,69816
 8.0000e-001 69986 -1.2217e+002 -4.2147e+001  8.8205e+001 68942 69686,69868,69842
 8.0000e-001 69963  1.2773e+001  6.6351e+000  2.0914e+002 68942 69686,69816,69712
 8.0000e-001 69940 -5.2774e+001 -3.5465e+001  3.0346e+002 68942 69712,69790,69738
 8.0000e-001 69917 -1.9301e+002 -4.5965e+002  2.4387e+002 68942 69712,69816,69790
 8.0000e-001 69894  6.3705e+000 -2.5692e+002  1.2828e+002 68942 69738,69790,69764
 8.0000e-001 70110 -1.5977e+002 -4.4819e+001  9.0030e+001 68766 70032,70084,70058
 8.0000e-001 70746 -6.3174e+001 -6.9742e+001  1.0064e+002 68448 70400,70556,70426
 8.0000e-001 70723 -2.7405e+002 -1.0258e+002  1.3674e+002 68448 70374,70556,70400
 8.0000e-001 70700 -1.0901e+002 -6.5673e+001  6.0966e+001 68448 70426,70556,70478
 8.0000e-001 70677 -2.1791e+002 -4.8346e+001  6.6066e+001 68448 70478,70556,70504
 8.0000e-001 70654 -1.7961e+002 -1.2779e+002  9.7929e+001 68448 70426,70478,70452
 8.0000e-001 70631 -2.6029e+002 -5.7699e+001  1.7067e+002 68448 70374,70582,70556
 8.0000e-001 70608 -2.3272e+002 -7.6724e+001  6.0906e+001 68448 70504,70556,70530
 8.0000e-001 70896 -4.9167e+001 -8.3969e+000  2.6497e+001 68250 70795,70847,70821
 8.0000e-001 70873 -5.8526e+002 -2.0398e+002 -4.9812e+000 68250 70769,70847,70795
 8.0000e-001 70997 -1.0067e+003 -4.5485e+002  3.9643e+002 68052 70919,70971,70945
 8.0000e-001 71367 -3.0218e+002 -4.7305e+002  1.9318e+002 67740 71096,71226,71200
 8.0000e-001 71344 -2.0356e+002 -2.7696e+002  2.3321e+002 67740 71044,71226,71096
 8.0000e-001 71321  1.4763e+001 -1.4763e+001  3.6885e+002 67740 71044,71096,71070
 8.0000e-001 71298 -2.3723e+002 -5.0484e+002  3.6216e+002 67740 71096,71200,71174
 8.0000e-001 71275 -1.2629e+002 -3.0207e+002  1.4270e+002 67740 71096,71148,71122
 8.0000e-001 71252 -1.7863e+002 -3.5950e+002  2.3950e+002 67740 71096,71174,71148
 8.0000e-001 71519  1.0915e+002  6.4442e+001  1.1500e+002 67542 71418,71470,71444
 8.0000e-001 71496  1.9177e+002  4.0088e+002  3.6188e+002 67542 71392,71470,71418
 8.0000e-001 71923 -7.5564e+001 -1.2598e+001  1.0764e+002 67230 71649,71779,71675
 8.0000e-001 71900 -5.9840e+001 -1.0228e+002  7.8459e+001 67230 71649,71805,71779
 8.0000e-001 71877 -7.9580e+001 -3.0002e+001  1.9302e+002 67230 71675,71727,71701
 8.0000e-001 71854 -1.0676e+002 -2.8373e+002  1.9475e+002 67230 71675,71753,71727
 8.0000e-001 71831 -1.0426e+002 -1.7626e+002  1.3744e+002 67230 71675,71779,71753
 8.0000e-001 72433 -1.1531e+002 -7.3673e+001  1.4636e+002 67032 72038,72246,72220
 8.0000e-001 72410 -8.4445e+001 -2.6504e+000  4.1611e+001 67032 72012,72246,72038
 8.0000e-001 72387 -1.8736e+002 -5.2294e+001  1.6087e+002 67032 72064,72194,72168
 8.0000e-001 72364 -2.1545e+002 -8.4405e+001  1.7333e+002 67032 72038,72194,72064
 8.0000e-001 72341 -1.9363e+002 -2.7997e+002  2.4250e+002 67032 72038,72220,72194
 8.0000e-001 72318 -8.7927e+001 -5.2042e+000  8.3973e+001 67032 72090,72168,72142
 8.0000e-001 72295 -2.9375e+001  3.6980e+000  1.2475e+002 67032 72064,72168,72090
 8.0000e-001 72272 -9.7846e+001 -1.6244e+001  7.8863e+001 67032 72090,72142,72116
 8.0000e-001 72933 -1.5934e+002 -1.7856e+002  1.8322e+002 66628 72956,72665,72613
 8.0000e-001 72910 -1.5630e+002 -2.1036e+002  1.7937e+002 66628 73100,72956,72613
 8.0000e-001 72887 -1.9549e+002 -2.7444e+002  1.5530e+002 66628 73028,72691,72665
 8.0000e-001 72864 -1.5589e+002 -2.1007e+002  1.8055e+002 66628 73100,72613,72587
 8.0000e-001 72841 -1.4705e+002 -1.6876e+002  1.5724e+002 66628 72613,72665,72639
 8.0000e-001 72818  5.8037e+001  1.6619e+001  2.6940e+002 66628 72587,72769,72743
 8.0000e-001 72795 -1.2768e+002 -3.9243e+002  5.3697e+001 66628 72561,72769,72587
 8.0000e-001 72982 -1.9851e+002 -2.0481e+002  1.9731e+002 66628 73028,72665,72956
 8.0000e-001 73005 -1.5639e+002 -6.3052e+001  1.9502e+002 66628 72717,72956,72743
 8.0000e-001 73054 -2.7430e+002 -2.4001e+002  1.0192e+002 66628 72717,72691,73028
 8.0000e-001 73077 -2.7734e+002 -2.1532e+002  1.4071e+002 66628 72717,73028,72956
 8.0000e-001 73126 -1.5812e+002 -2.1106e+002  1.7877e+002 66628 72743,72956,73100
 8.0000e-001 73149 -1.5722e+002 -2.1065e+002  1.7992e+002 66628 72743,73100,72587
 8.0000e-001 73606 -1.3191e+002 -1.8814e+002  1.5851e+002 66281 73332,73384,73358
 8.0000e-001 73583 -1.8093e+002 -2.7611e+002  1.3913e+002 66281 73332,73462,73384
 8.0000e-001 73560 -2.5279e+002 -1.6653e+002  2.0635e+002 66281 73384,73462,73436
 8.0000e-001 73537 -4.7104e+002 -2.3080e+002  2.2514e+002 66281 73332,73488,73462
 8.0000e-001 73514 -2.2246e+002 -1.2701e+002  8.6324e+001 66281 73384,73436,73410
 8.0000e-001 73984  4.0705e+000 -4.1567e+001  1.8887e+001 65969 73736,73814,73788
 8.0000e-001 73961  4.4844e+001 -6.8245e+000 -3.6913e+000 65969 73736,73866,73814
 8.0000e-001 73938 -6.6662e+001 -6.1611e+001  9.5401e+001 65969 73814,73866,73840
 8.0000e-001 73915 -6.6632e+000  3.8000e+001 -1.9911e-001 65969 73710,73866,73736
 8.0000e-001 73892  8.5604e+000 -5.1443e+001  8.3874e+000 65969 73736,73788,73762
 8.0000e-001 74232 -1.5028e+002 -1.8577e+002  1.7252e+002 65572 74255,74085,74033
 8.0000e-001 74209 -1.3354e+002 -2.1083e+002  1.4110e+002 65572 74327,74255,74033
 8.0000e-001 74186 -1.5391e+002 -1.3929e+002  1.3993e+002 65572 74327,74033,74007
 8.0000e-001 74163 -1.5889e+002 -2.0298e+002  1.7988e+002 65572 74033,74085,74059
 8.0000e-001 74281 -1.9167e+002 -2.3547e+002  2.1449e+002 65572 74111,74085,74255
 8.0000e-001 74304 -1.3721e+002 -2.2570e+002  1.4144e+002 65572 74111,74255,74137
 8.0000e-001 74353 -1.1302e+002 -1.2831e+002  1.1328e+002 65572 74137,74255,74327
 8.0000e-001 74376 -1.4914e+002 -7.4501e+001  1.1587e+002 65572 74137,74327,74007
 8.0000e-001 74884 -1.4694e+002 -1.7229e+002  1.2588e+002 65174 74587,74717,74613
 8.0000e-001 74861 -1.5145e+002 -1.9000e+002  1.0138e+002 65174 74561,74717,74587
 8.0000e-001 74838 -1.3692e+002 -2.0032e+002  9.5676e+001 65174 74613,74691,74639
 8.0000e-001 74815 -1.3162e+002 -1.8574e+002  1.2633e+002 65174 74613,74717,74691
 8.0000e-001 74792 -4.6808e+001 -3.3165e+002  7.9425e+001 65174 74639,74691,74665
 8.0000e-001 74769 -1.3439e+002 -1.5255e+002  9.0715e+001 65174 74561,74743,74717
 8.0000e-001 75412 -1.1773e+001 -6.9367e+001  3.4003e+002 64770 75167,75245,75219
 8.0000e-001 75389 -1.7803e+002 -2.8518e+002  2.3697e+002 64770 75115,75245,75167
 8.0000e-001 75366 -1.3797e+002 -3.5145e+002  2.9922e+002 64770 75089,75245,75115
 8.0000e-001 75343 -2.6527e+002 -8.7579e+001  2.4310e+002 64770 75167,75219,75193
 8.0000e-001 75320 -1.4531e+002 -2.0762e+002  2.3454e+002 64770 75115,75167,75141
 8.0000e-001 75297 -2.0757e+002 -5.1937e+002  3.0819e+002 64770 75089,75271,75245
 8.0000e-001 75861 -3.5449e+002 -1.4324e+002  2.6271e+002 64316 75538,75694,75564
 8.0000e-001 75838 -1.6741e+002 -6.1503e+001  1.5963e+002 64316 75538,75720,75694
 8.0000e-001 75815 -2.9360e+002 -1.6698e+002  2.0687e+002 64316 75590,75694,75642
 8.0000e-001 75792 -2.9204e+002 -2.5668e+002  2.3617e+002 64316 75564,75694,75590
 8.0000e-001 75769 -1.1057e+002 -3.3731e+002  1.2274e+002 64316 75590,75642,75616
 8.0000e-001 75746 -2.9667e+002 -1.2458e+002  2.0559e+002 64316 75642,75694,75668
 8.0000e-001 76239 -4.0015e+002 -3.1260e+002  2.4190e+002 64018 76262,76095,76043
 8.0000e-001 76216 -2.6697e+002 -2.9995e+002  2.0091e+002 64018 76262,76043,76017
 8.0000e-001 76193 -9.0701e+001 -1.5198e+002  1.2011e+002 64018 75991,76121,76017
 8.0000e-001 76170 -3.6654e+002 -2.3784e+002  2.3312e+002 64018 76043,76095,76069
 8.0000e-001 76147 -1.6988e+001 -1.8122e+002  4.6139e+001 64018 75965,76121,75991
 8.0000e-001 76288 -2.7833e+002 -3.7785e+002  3.1108e+002 64018 76121,76095,76262
 8.0000e-001 76311 -1.6399e+002 -3.7555e+002  2.5166e+002 64018 76121,76262,76017
 8.0000e-001 76866 -1.7914e+002 -1.8734e+002  1.8969e+002 63728 76520,76676,76546
 8.0000e-001 76843 -1.5694e+002 -1.9172e+002  1.3685e+002 63728 76520,76702,76676
 8.0000e-001 76820 -1.5489e+002 -2.2081e+002  2.0361e+002 63728 76546,76650,76572
 8.0000e-001 76797 -2.4749e+002 -2.9247e+002  1.5989e+002 63728 76546,76676,76650
 8.0000e-001 76774 -2.4939e+002 -5.9342e+001  1.0408e+002 63728 76572,76650,76624
 8.0000e-001 76751 -1.4597e+002 -1.4856e+002  1.4797e+002 63728 76494,76702,76520
 8.0000e-001 76728 -6.8171e+001 -1.2429e+002  9.2312e+001 63728 76572,76624,76598
 8.0000e-001 77065 -7.3545e+001 -1.6117e+002  1.2103e+002 63288 77088,76941,76915
 8.0000e-001 77042 -1.6058e+002 -1.8853e+002  1.1070e+002 63288 77088,76915,76993
 8.0000e-001 77019 -6.8891e+001 -1.8038e+002  1.1179e+002 63288 76889,76993,76915
 8.0000e-001 77114 -1.1350e+002 -1.6981e+002  1.0187e+002 63288 76967,76941,77088
 8.0000e-001 77137 -2.4669e+002 -2.2110e+002  4.9000e+001 63288 77160,77088,76993
 8.0000e-001 77186 -6.2764e+001 -1.2803e+002  8.2835e+001 63288 76967,77088,77160
 8.0000e-001 77417 -5.5471e+001 -1.2866e+002  6.9244e+001 62884 77440,77342,77316
 8.0000e-001 77394 -1.3638e+002 -2.1903e+002  3.5025e+001 62884 77770,77440,77316
 8.0000e-001 77466 -1.6522e+002 -2.3879e+002  4.3307e+001 62884 77512,77440,77368
 8.0000e-001 77489 -7.6875e+001 -1.7865e+002  2.5794e+001 62884 77642,77440,77290
 8.0000e-001 77538 -4.6924e+001 -1.6076e+002  9.2728e+000 62884 77342,77440,77512
 8.0000e-001 77668 -1.3171e+002 -2.9003e+002  7.1529e+000 62884 77368,77440,77642
 8.0000e-001 77796 -7.5351e+001 -1.8927e+002  2.5520e+001 62884 77290,77440,77770
 8.0000e-001 78479 -3.7054e+002 -3.4497e+002  2.2472e+002 62480 78084,78240,78214
 8.0000e-001 78456 -1.8601e+002 -2.9448e+002  6.0017e+000 62480 78084,78266,78240
 8.0000e-001 78433 -2.5099e+002 -2.8604e+002  1.0772e+002 62480 78110,78214,78136
 8.0000e-001 78410 -2.5613e+002 -2.8162e+002  1.9302e+002 62480 78084,78214,78110
 8.0000e-001 78387 -2.4360e+002 -2.2444e+002  1.2394e+002 62480 78136,78214,78188
 8.0000e-001 78364 -1.3152e+002 -3.4944e+002 -5.1578e+000 62480 78058,78266,78084
 8.0000e-001 78341 -2.0783e+002 -2.1430e+002  1.4585e+002 62480 78136,78188,78162
 8.0000e-001 78318  8.7480e-003 -2.7056e+002 -5.3725e+001 62480 78058,78292,78266
 8.0000e-001 78678 -2.2673e+002 -4.0792e+002  1.9145e+002 61926 78528,78606,78554
 8.0000e-001 78655 -1.3819e+002 -4.2151e+002  2.3225e+002 61926 78502,78606,78528
 8.0000e-001 78632 -1.3288e+002 -2.5862e+002  9.5198e+001 61926 78554,78606,78580
 8.0000e-001 79058 -1.9788e+002 -2.1697e+002  1.1832e+002 61614 78836,78914,78862
 8.0000e-001 79035 -2.7240e+002 -2.4075e+002  1.1031e+002 61614 78810,78914,78836
 8.0000e-001 79012 -1.8094e+002 -2.0235e+002  1.0301e+002 61614 78784,78914,78810
 8.0000e-001 78989 -1.7645e+002 -2.1653e+002  1.6925e+002 61614 78862,78914,78888
 8.0000e-001 78966 -1.3841e+002 -2.7770e+002  1.2269e+002 61614 78784,78940,78914
 8.0000e-001 79208 -1.6083e+001 -3.7695e+001  3.0489e+001 61366 79081,79133,79107
 8.0000e-001 79185 -7.1006e+001 -2.0053e+001  1.6915e+002 61366 79081,79159,79133
 8.0000e-001 79358  5.4668e+000 -5.6175e+001  3.4830e+001 60962 79231,79283,79257
 8.0000e-001 79335 -1.3415e+002 -3.1579e+002  8.7545e+001 60962 79231,79309,79283
 8.0000e-001 79608 -1.2997e+002 -2.2072e+002  1.7304e+002 60508 79631,79435,79409
 8.0000e-001 79585 -9.7778e+001 -2.5245e+002  1.0019e+002 60508 79703,79631,79409
 8.0000e-001 79562 -8.5014e+001 -5.9270e+001  1.3209e+002 60508 79703,79409,79383
 8.0000e-001 79539 -2.3795e+002 -2.9130e+002  2.6201e+002 60508 79435,79487,79461
 8.0000e-001 79657 -1.7543e+002 -3.4252e+002  2.5775e+002 60508 79487,79435,79631
 8.0000e-001 79680 -8.9917e+001 -2.2932e+002  1.1772e+002 60508 79487,79631,79513
 8.0000e-001 79729 -5.1675e+001 -7.6374e+001  5.4733e+001 60508 79513,79631,79703
 8.0000e-001 79752 -1.0463e+002 -5.2826e+001  2.8119e+001 60508 79513,79703,79383
 8.0000e-001 80390 -1.8491e+002 -2.2528e+002  1.9523e+002 59997 80413,80096,80018
 8.0000e-001 80367 -2.9007e+002 -2.4683e+002  2.3807e+002 59997 80413,80018,80226
 8.0000e-001 80344 -1.4807e+002 -1.5802e+002  1.5481e+002 59997 80096,80174,80148
 8.0000e-001 80321 -5.7761e+002 -4.2567e+002  2.9267e+002 59997 80018,80096,80070
 8.0000e-001 80298 -1.0468e+002 -2.1513e+002  1.1792e+002 59997 80096,80148,80122
 8.0000e-001 80275 -1.6308e+002 -1.4047e+002  1.4883e+002 59997 80174,80226,80200
 8.0000e-001 80252 -3.9551e+002 -3.2692e+002  1.2025e+002 59997 80018,80070,80044
 8.0000e-001 80439 -1.5768e+002 -2.2275e+002  1.7024e+002 59997 80174,80096,80413
 8.0000e-001 80462 -1.9825e+002 -1.6850e+002  1.9528e+002 59997 80174,80413,80226
 8.0000e-001 80840 -2.9187e+002 -3.0090e+002  1.4125e+002 59443 80863,80644,80618
 8.0000e-001 80817 -1.6211e+002 -2.1480e+002  1.7849e+002 59443 80863,80618,80566
 8.0000e-001 80794 -1.2117e+002 -1.8146e+002  1.7344e+002 59443 81007,80935,80670
 8.0000e-001 80771 -1.8528e+002 -1.9816e+002  1.8835e+002 59443 80566,80722,80696
 8.0000e-001 80748 -2.0289e+002 -2.9546e+002  2.0322e+002 59443 80566,80618,80592
 8.0000e-001 80889 -3.0090e+002 -2.3348e+002  1.9872e+002 59443 80935,80644,80863
 8.0000e-001 80912 -2.3790e+002 -2.2120e+002  1.9338e+002 59443 80696,80863,80566
 8.0000e-001 80961 -1.9622e+002 -1.9957e+002  2.0790e+002 59443 80696,80670,80935
 8.0000e-001 80984 -1.9666e+002 -1.9984e+002  2.0635e+002 59443 80696,80935,80863
 8.0000e-001 81033 -2.4477e+002 -2.8072e+002  2.3484e+002 59443 80644,80935,81007
 8.0000e-001 81360 -1.7731e+002 -1.6620e+002  1.4454e+002 59031 81383,81187,81161
 8.0000e-001 81337 -1.8021e+002 -1.8232e+002  1.1498e+002 59031 81455,81383,81161
 8.0000e-001 81314 -1.5433e+002 -1.6487e+002  1.2309e+002 59031 81455,81161,81135
 8.0000e-001 81291 -2.9771e+002 -9.0011e+001  1.4695e+002 59031 81187,81239,81213
 8.0000e-001 81409 -1.9177e+002 -1.8020e+002  1.2810e+002 59031 81239,81187,81383
 8.0000e-001 81432 -2.6785e+002 -1.9211e+002  8.8803e+001 59031 81239,81383,81265
 8.0000e-001 81481 -2.0553e+002 -1.4888e+002  1.2277e+002 59031 81265,81383,81455
 8.0000e-001 81504 -1.9697e+002 -1.4656e+002  1.2418e+002 59031 81265,81455,81135
 8.0000e-001 81835 -2.9230e+001 -1.1809e+002  3.9481e+001 58577 81610,81714,81636
 8.0000e-001 81812 -2.0096e+001 -1.1543e+002  3.7800e+001 58577 81610,81740,81714
 8.0000e-001 81789 -7.9775e+001 -1.3973e+002  2.8328e+001 58577 81636,81714,81688
 8.0000e-001 81766 -7.3908e+001 -1.6027e+002 -4.1496e+001 58577 81636,81688,81662
 8.0000e-001 81985 -7.3372e+001 -1.7571e+002  1.1152e+002 58030 81884,81936,81910
 8.0000e-001 81962 -1.3287e+002 -5.3394e+001  8.3832e+001 58030 81858,81936,81884
 8.0000e-001 82414 -6.2222e+001 -3.0640e+001  8.0215e+001 57690 82437,82169,82117
 8.0000e-001 82391 -8.7580e+001 -1.0562e+002  9.4993e+001 57690 82437,82117,82247
 8.0000e-001 82368  2.7612e+001  4.6585e+001  2.2237e+002 57690 82195,82247,82221
 8.0000e-001 82345 -6.7442e+001 -9.6937e+001  9.6098e+001 57690 82091,82247,82117
 8.0000e-001 82322 -9.4499e+001 -4.4688e+001  6.1815e+001 57690 82117,82169,82143
 8.0000e-001 82299 -7.7178e+001 -1.7578e+002  1.3246e+002 57690 82091,82273,82247
 8.0000e-001 82463 -9.8016e+001 -8.1590e-001  1.1542e+002 57690 82195,82169,82437
 8.0000e-001 82486 -1.0980e+002 -5.3053e+001  1.1782e+002 57690 82195,82437,82247
 8.0000e-001 83041 -1.5797e+002 -1.8595e+002  1.1771e+002 57172 83064,82721,82695
 8.0000e-001 83018 -1.7721e+002 -1.9178e+002  1.7333e+002 57172 83064,82695,82851
 8.0000e-001 82995 -4.7495e+002 -2.4306e+002  2.2201e+002 57172 82669,82851,82695
 8.0000e-001 82972 -2.7272e+002 -1.9749e+002  1.6596e+002 57172 82773,82851,82825
 8.0000e-001 82949 -2.4097e+002 -1.9667e+002  1.9761e+002 57172 82773,82825,82799
 8.0000e-001 82926 -2.2723e+002 -1.4133e+002  1.0064e+002 57172 82721,82773,82747
 8.0000e-001 82903 -5.5282e+002 -2.5780e+002  3.3284e+002 57172 82669,82877,82851
 8.0000e-001 83090 -2.4904e+002 -2.1966e+002  1.0866e+002 57172 82773,82721,83064
 8.0000e-001 83113 -2.0796e+002 -2.0142e+002  1.6157e+002 57172 82773,83064,82851
 8.0000e-001 83747 -2.1942e+002 -1.6621e+002  1.1415e+002 56554 83770,83427,83401
 8.0000e-001 83724 -2.0789e+002 -2.2744e+002  1.4243e+002 56554 83842,83770,83401
 8.0000e-001 83701 -1.2602e+001 -1.7626e+002  6.6675e+001 56554 83842,83401,83583
 8.0000e-001 83678 -3.4165e+002 -3.2151e+002  2.8738e+002 56554 83914,83531,83505
 8.0000e-001 83655 -1.5839e+002 -2.6229e+002  1.1289e+002 56554 83531,83583,83557
 8.0000e-001 83632 -4.6962e+001 -1.4132e+002  5.5445e+001 56554 83375,83583,83401
 8.0000e-001 83609 -1.7342e+002 -1.7759e+002  1.0824e+002 56554 83427,83479,83453
 8.0000e-001 83796 -1.8404e+002 -1.8194e+002  1.0843e+002 56554 83479,83427,83770
 8.0000e-001 83819 -1.7554e+002 -1.3049e+002  1.0455e+002 56554 83479,83770,83505
 8.0000e-001 83868 -1.2468e+002 -7.5334e+001  1.7896e+002 56554 83505,83770,83842
 8.0000e-001 83891 -2.2278e+002 -1.8173e+002  2.2631e+002 56554 83914,83505,83842
 8.0000e-001 83940 -1.6139e+002 -3.4067e+002  1.6274e+002 56554 83583,83531,83914
 8.0000e-001 83963 -8.9503e+001 -3.1038e+002  1.3386e+002 56554 83583,83914,83842
 8.0000e-001 84341 -1.3653e+002 -4.1628e+002  1.7040e+002 56192 84067,84145,84119
 8.0000e-001 84318 -2.4204e+001 -2.1331e+002  1.2304e+002 56192 84067,84223,84145
 8.0000e-001 84295 -9.1223e+001 -3.1956e+002  8.1865e+001 56192 84145,84223,84197
 8.0000e-001 84272 -1.2823e+002 -1.4729e+002  1.0434e+002 56192 84067,84119,84093
 8.0000e-001 84249 -1.6836e+002 -1.2282e+002  1.1071e+002 56192 84145,84197,84171
 8.0000e-001 84611 -1.2060e+002 -3.0018e+002  2.2680e+002 55538 84386,84490,84412
 8.0000e-001 84588 -1.3769e+002 -2.6428e+002  2.2304e+002 55538 84386,84516,84490
 8.0000e-001 84565 -2.0505e+002 -3.3571e+002  2.3121e+002 55538 84412,84490,84464
 8.0000e-001 84542 -1.0753e+002 -2.6206e+002  1.7611e+002 55538 84412,84464,84438
 8.0000e-001 84942 -1.8864e+002 -1.6328e+002  1.4478e+002 55084 84769,84847,84795
 8.0000e-001 84919 -2.0842e+002 -2.0392e+002  1.1336e+002 55084 84717,84847,84769
 8.0000e-001 84896 -2.2367e+002 -2.6972e+002  1.2434e+002 55084 84717,84769,84743
 8.0000e-001 84873 -2.1284e+002 -7.1682e+001  1.2227e+002 55084 84795,84847,84821
 8.0000e-001 85271 -6.5221e+001 -8.3332e+001  1.2305e+002 54580 85294,85098,85072
 8.0000e-001 85248 -2.3848e+002 -9.7988e+001  1.4738e+002 54580 85294,85072,85176
 8.0000e-001 85225 -3.1392e+002 -4.0266e+001  7.8809e+001 54580 85124,85176,85150
 8.0000e-001 85202 -8.7353e+001 -9.1890e+001  5.5400e+001 54580 85046,85176,85072
 8.0000e-001 85320 -2.0445e+002 -1.1730e+002  1.2290e+002 54580 85124,85098,85294
 8.0000e-001 85343 -2.9907e+002 -7.3896e+001  1.4617e+002 54580 85124,85294,85176
 8.0000e-001 85542 -1.4837e+002 -2.2581e+002  2.0365e+002 53976 85565,85444,85418
 8.0000e-001 85519 -2.0116e+002 -1.5946e+002  1.5322e+002 53976 85565,85418,85366
 8.0000e-001 85496 -1.2691e+002 -1.0003e+002  5.0192e+001 53976 85366,85418,85392
 8.0000e-001 85591 -1.1562e+002 -1.9330e+002  1.7118e+002 53976 85470,85444,85565
 8.0000e-001 85614 -1.2643e+002 -6.1823e+001  1.1507e+002 53976 85470,85565,85366
 8.0000e-001 85960 -3.9662e+002 -3.3668e+002  2.9535e+002 53572 85663,85715,85689
 8.0000e-001 85937 -3.0980e+002 -2.1948e+002  1.8459e+002 53572 85983,85715,85663
 8.0000e-001 85914 -1.7043e+002 -1.8092e+002  1.6592e+002 53572 86055,85983,85663
 8.0000e-001 85891 -1.5079e+002 -1.7179e+002  1.6011e+002 53572 86055,85663,85637
 8.0000e-001 85868 -3.0717e+002 -5.1783e+002  2.6149e+002 53572 85637,85793,85767
 8.0000e-001 85845 -2.4428e+002 -4.2258e+001  1.1327e+002 53572 85637,85819,85793
 8.0000e-001 86009 -1.5632e+002 -3.1669e+002  1.8103e+002 53572 85741,85715,85983
 8.0000e-001 86032 -3.0142e+001 -2.1019e+002  1.2554e+002 53572 85741,85983,85767
 8.0000e-001 86081 -1.6077e+002 -2.0993e+002  1.9907e+002 53572 85767,85983,86055
 8.0000e-001 86104 -1.3005e+002 -1.9046e+002  1.9019e+002 53572 85767,86055,85637
 8.0000e-001 86693 -3.6755e+002 -9.4752e+001  2.0328e+002 52946 86474,86526,86500
 8.0000e-001 86670 -1.1587e+002 -6.6568e+001  9.0767e+001 52946 86396,86526,86474
 8.0000e-001 86647 -2.8220e+002 -2.9591e+002  1.7566e+002 52946 86370,86526,86396
 8.0000e-001 86624 -2.9854e+001 -1.0932e+001  2.9009e+001 52946 86422,86474,86448
 8.0000e-001 86601 -1.3962e+002 -5.7209e+001  6.9193e+001 52946 86396,86474,86422
 8.0000e-001 86578 -3.5906e+002 -1.3757e+002  2.9507e+001 52946 86370,86552,86526
 8.0000e-001 87376 -1.9875e+002 -2.1798e+002  8.7751e+001 52420 87007,87085,87033
 8.0000e-001 87353 -1.9980e+002 -2.1719e+002  8.6454e+001 52420 87007,87163,87085
 8.0000e-001 87330 -2.3372e+002 -2.1387e+002  9.4305e+001 52420 87007,87189,87163
 8.0000e-001 87307 -2.0808e+002 -2.2027e+002  8.8509e+001 52420 87033,87085,87059
 8.0000e-001 87284 -2.2139e+002 -2.1299e+002  3.2057e+001 52420 87085,87137,87111
 8.0000e-001 87261 -1.7267e+002 -2.3835e+002  2.6067e+001 52420 87085,87163,87137
 8.0000e-001 87238 -1.7705e+002 -2.1672e+002  1.8105e+002 52420 86955,87189,87007
 8.0000e-001 87215 -1.2077e+002 -1.6200e+002  1.0288e+002 52420 86955,87007,86981
 8.0000e-001 87624 -1.5486e+002 -1.9278e+002  1.1798e+002 51916 87451,87503,87477
 8.0000e-001 87601 -1.0142e+002 -2.2992e+002  1.4037e+002 51916 87425,87503,87451
 8.0000e-001 87578 -6.1326e+001 -1.9037e+002  1.6447e+002 51916 87425,87529,87503
 8.0000e-001 87555 -1.4243e+000 -1.3604e+001  1.6969e+002 51916 87399,87529,87425
 8.0000e-001 88053 -2.7160e+002 -2.3985e+002  8.8307e+001 51568 87782,87834,87808
 8.0000e-001 88030 -2.9922e+002 -2.3537e+002  1.2698e+002 51568 88076,87782,87886
 8.0000e-001 88007 -2.7922e+002 -1.8962e+002  1.1925e+002 51568 88076,87886,87860
 8.0000e-001 87984 -3.4889e+002 -2.8547e+002  1.0617e+002 51568 87756,87886,87782
 8.0000e-001 87961 -2.5366e+002 -2.2677e+002  1.9441e+002 51568 87756,87912,87886
 8.0000e-001 87938 -2.8680e+002 -2.1791e+002  1.8164e+002 51568 87730,87912,87756
 8.0000e-001 88102 -2.7607e+002 -2.5941e+002  9.8652e+001 51568 87834,87782,88076
 8.0000e-001 88125 -2.6054e+002 -2.2922e+002  9.1769e+001 51568 87834,88076,87860
 8.0000e-001 88324 -1.8293e+002 -2.8176e+002  1.1290e+002 51164 88419,88347,88200
 8.0000e-001 88301 -1.5206e+002 -2.5296e+002  1.3371e+002 51164 88347,88148,88252
 8.0000e-001 88278 -2.1267e+002 -3.6119e+002  1.1176e+002 51164 88419,88200,88174
 8.0000e-001 88373 -1.3534e+002 -3.0459e+002  1.1830e+002 51164 88226,88200,88347
 8.0000e-001 88396 -4.6760e+001 -2.7929e+002  1.0248e+002 51164 88226,88347,88252
 8.0000e-001 88445 -1.9981e+002 -2.9009e+002  1.5786e+002 51164 88148,88347,88419
 8.0000e-001 88468 -1.9663e+002 -2.8333e+002  1.6042e+002 51164 88148,88419,88174
 8.0000e-001 88738 -2.1088e+002 -3.3070e+002  7.5770e+001 50560 88513,88617,88539
 8.0000e-001 88715 -1.5127e+002 -3.5398e+002  5.3561e+001 50560 88513,88643,88617
 8.0000e-001 88692 -1.4616e+002 -1.6998e+002  9.4073e+001 50560 88539,88591,88565
 8.0000e-001 88669 -1.0888e+002 -2.5833e+002  1.0835e+002 50560 88539,88617,88591
 8.0000e-001 88939 -2.2412e+002 -1.4418e+002  1.1264e+002 50106 88962,88789,88763
 8.0000e-001 88916 -1.6440e+002 -1.6427e+002  9.1373e+001 50106 88962,88763,88841
 8.0000e-001 88893 -2.2922e+002 -2.0425e+002  1.3695e+002 50106 88763,88867,88841
 8.0000e-001 88988 -1.6302e+002 -1.6262e+002  8.3242e+001 50106 88815,88789,88962
 8.0000e-001 89011 -1.5304e+002 -1.4999e+002  9.7161e+001 50106 89034,88962,88841
 8.0000e-001 89060 -9.0086e+001 -9.2168e+001  3.4925e+001 50106 88815,88962,89034
 8.0000e-001 89472 -2.0151e+002 -3.2021e+002  1.1579e+002 49666 89273,89351,89325
 8.0000e-001 89449 -2.0808e+002 -2.8481e+002  1.2854e+002 49666 89273,89377,89351
 8.0000e-001 89426 -1.7978e+002 -2.6377e+002  1.9665e+002 49666 89273,89325,89299
 8.0000e-001 89403 -1.8121e+002 -1.7287e+002  1.3380e+002 49666 89247,89377,89273
 8.0000e-001 89978 -1.1529e+002 -2.7319e+002  1.1938e+002 49205 89681,89837,89733
 8.0000e-001 89955 -1.2285e+002 -2.4936e+002  1.3991e+002 49205 89655,89837,89681
 8.0000e-001 89932 -2.6208e+002 -4.8594e+002  1.5641e+002 49205 89785,89837,89811
 8.0000e-001 89909 -1.1234e+002 -1.4392e+002  8.6274e+001 49205 89733,89837,89785
 8.0000e-001 89886 -2.3523e+002 -1.8527e+002  1.3860e+002 49205 89733,89785,89759
 8.0000e-001 89863 -1.0965e+002 -4.0807e+002  1.7383e+002 49205 89681,89733,89707
 8.0000e-001 90177 -1.6503e+002 -1.5122e+002  7.6964e+001 48865 90530,90200,90053
 8.0000e-001 90154 -2.0661e+002 -3.1719e+002  1.6910e+002 48865 90402,90200,90001
 8.0000e-001 90131 -2.4660e+002 -4.2752e+000  7.4196e+001 48865 90530,90053,90027
 8.0000e-001 90226 -1.9660e+002 -1.7297e+002  1.2128e+002 48865 90079,90053,90200
 8.0000e-001 90249 -2.2100e+002 -2.2689e+002  1.0311e+002 48865 90272,90200,90105
 8.0000e-001 90298 -1.4025e+002 -1.6045e+002  1.3250e+002 48865 90079,90200,90272
 8.0000e-001 90428 -1.5741e+002 -8.8232e+001  1.3371e+002 48865 90105,90200,90402
 8.0000e-001 90556 -2.0416e+002 -3.7043e+002  5.7793e+001 48865 90001,90200,90530
 8.0000e-001 90579 -2.4795e+002 -1.5602e+002  8.6802e+000 48865 90001,90530,90027
 8.0000e-001 90827 -2.1922e+002 -2.4297e+002  1.1481e+002 48404 90850,90654,90628
 8.0000e-001 90804 -2.0858e+002 -2.5999e+002  1.8128e+002 48404 90850,90628,90732
 8.0000e-001 90781 -1.4222e+002 -2.1111e+002  1.1968e+002 48404 90680,90732,90706
 8.0000e-001 90758 -2.5618e+002 -1.6274e+002  1.8544e+002 48404 90602,90732,90628
 8.0000e-001 90876 -1.9977e+002 -1.4688e+002  1.0784e+002 48404 90680,90654,90850
 8.0000e-001 90899 -2.0176e+002 -2.1566e+002  1.6143e+002 48404 90680,90850,90732
 8.0000e-001 91000 -1.2590e+002 -3.1134e+002  2.1931e+002 48156 90922,90974,90948
 8.0000e-001 91250 -1.5200e+002 -3.7681e+002  2.4595e+002 47752 91051,91103,91077
 8.0000e-001 91227 -1.0814e+002 -6.6719e+001  1.5527e+002 47752 91025,91103,91051
 8.0000e-001 91204 -4.0821e+002 -2.9233e+002  3.3726e+002 47752 91025,91155,91103
 8.0000e-001 91181 -4.3258e+002 -1.9450e+002  2.6038e+002 47752 91103,91155,91129
 8.0000e-001 91402 -2.1879e+002 -2.0154e+002  1.2141e+002 47191 91425,91301,91275
 8.0000e-001 91379 -1.9623e+002 -1.9187e+002  1.3619e+002 47191 91497,91425,91275
 8.0000e-001 91451 -2.2072e+002 -1.5553e+002  9.4195e+001 47191 91327,91301,91425
 8.0000e-001 91474 -1.8986e+002 -2.2450e+002  1.5952e+002 47191 91327,91425,91353
 8.0000e-001 91523 -2.3440e+002 -3.7892e+002  1.3898e+002 47191 91353,91425,91497
 8.0000e-001 91854 -1.6517e+002 -1.8410e+002  1.6771e+002 46744 91949,91877,91707
 8.0000e-001 91831 -4.5353e+001 -1.6772e+002  8.0486e+001 46744 91877,91655,91629
 8.0000e-001 91808 -1.7274e+002 -1.7667e+002  1.6317e+002 46744 91949,91707,91681
 8.0000e-001 91785 -8.9020e+001 -1.1467e+002 -3.1748e+001 46744 91629,91759,91733
 8.0000e-001 91903 -2.1097e+002 -2.1059e+002  1.8668e+002 46744 91733,91707,91877
 8.0000e-001 91926 -1.4432e+002 -2.9376e+002  1.2578e+002 46744 91733,91877,91629
 8.0000e-001 91975 -1.7155e+002 -2.0683e+002  1.6746e+002 46744 91655,91877,91949
 8.0000e-001 91998 -1.7442e+002 -1.9393e+002  1.6037e+002 46744 91655,91949,91681
 8.0000e-001 92378 -1.3922e+002 -8.6153e+001  1.0333e+002 46090 92130,92208,92182
 8.0000e-001 92355 -1.8833e+002 -1.0704e+002  1.0339e+002 46090 92104,92208,92130
 8.0000e-001 92332 -1.0382e+002 -1.8306e+002  1.0598e+002 46090 92104,92260,92208
 8.0000e-001 92309 -8.7802e+001 -1.3836e+002  1.0736e+002 46090 92208,92260,92234
 8.0000e-001 92286 -2.7594e+002 -1.5272e+002  1.3425e+002 46090 92130,92182,92156
 8.0000e-001 92626 -1.7197e+002 -2.2624e+002  8.7847e+001 45693 92721,92649,92505
 8.0000e-001 92603 -1.9025e+002 -2.2516e+002  1.5464e+002 45693 92649,92453,92427
 8.0000e-001 92580 -1.8546e+002 -1.9074e+002  8.3970e+001 45693 92721,92505,92479
 8.0000e-001 92557 -3.3189e+002 -3.0000e+002  1.7455e+002 45693 92401,92531,92427
 8.0000e-001 92675 -2.5182e+002 -2.2363e+002  1.0385e+002 45693 92531,92505,92649
 8.0000e-001 92698 -2.7612e+002 -2.5622e+002  1.9432e+002 45693 92531,92649,92427
 8.0000e-001 92747 -1.7625e+002 -1.8564e+002  8.6102e+001 45693 92453,92649,92721
 8.0000e-001 92770 -1.4315e+002 -8.0506e+001  9.7412e+001 45693 92453,92721,92479
 8.0000e-001 93172 -1.1134e+002 -1.8102e+002  1.7178e+002 45331 92898,93028,92924
 8.0000e-001 93149 -8.6046e+001 -2.0599e+002  1.1978e+002 45331 92898,93054,93028
 8.0000e-001 93126 -1.6305e+002 -9.6259e+001  1.9313e+002 45331 92924,93002,92976
 8.0000e-001 93103 -6.5353e+001 -1.6322e+002  1.7183e+002 45331 92924,93028,93002
 8.0000e-001 93080 -1.7482e+002 -1.7533e+002  2.0237e+002 45331 92924,92976,92950
 8.0000e-001 93518 -2.0735e+002 -4.4819e+002  1.1235e+002 44820 93613,93273,93247
 8.0000e-001 93495 -3.0405e+002 -3.3775e+002  1.8459e+002 44820 93685,93541,93247
 8.0000e-001 93472 -2.6202e+002 -2.2202e+002  1.4902e+002 44820 93541,93195,93377
 8.0000e-001 93449 -3.4989e+002 -2.8595e+002  1.3113e+002 44820 93685,93247,93221
 8.0000e-001 93426 -2.1375e+002 -2.5976e+002  1.3477e+002 44820 93299,93377,93351
 8.0000e-001 93403 -1.7405e+002 -1.5336e+002  1.6217e+002 44820 93299,93351,93325
 8.0000e-001 93567 -2.3677e+002 -4.4606e+002  1.5074e+002 44820 93613,93247,93541
 8.0000e-001 93590 -2.3741e+002 -3.1703e+002  1.1435e+002 44820 93299,93541,93377
 8.0000e-001 93639 -2.3782e+002 -4.1921e+002  1.3917e+002 44820 93299,93273,93613
 8.0000e-001 93662 -2.3075e+002 -4.2054e+002  1.4723e+002 44820 93299,93613,93541
 8.0000e-001 93711 -2.4769e+002 -2.4298e+002  1.2842e+002 44820 93195,93541,93685
 8.0000e-001 93734 -2.2298e+002 -8.6909e+001  6.4416e+001 44820 93195,93685,93221
 8.0000e-001 94163 -2.5370e+002 -3.0962e+002  1.1871e+002 44237 94258,94186,93996
 8.0000e-001 94140 -3.0743e+002 -3.4585e+002  7.6224e+001 44237 94330,94022,93996
 8.0000e-001 94117 -3.1789e+002 -3.3876e+002  8.9111e+001 44237 94186,93918,93866
 8.0000e-001 94094 -2.1838e+002 -2.3996e+002  1.3166e+002 44237 94258,93996,93970
 8.0000e-001 94071 -2.7182e+002 -1.9238e+002  1.1021e+002 44237 94402,93944,93918
 8.0000e-001 94048 -2.3142e+002 -3.6018e+002  1.3763e+002 44237 93866,93918,93892
 8.0000e-001 94212 -3.0752e+002 -3.4922e+002  1.0121e+002 44237 94330,93996,94186
 8.0000e-001 94235 -3.1967e+002 -2.9698e+002  1.1458e+002 44237 93840,94186,93866
 8.0000e-001 94284 -2.7548e+002 -2.4639e+002  7.8300e+001 44237 93918,94186,94258
 8.0000e-001 94307 -2.5471e+002 -2.0176e+002  9.0717e+001 44237 94402,93918,94258
 8.0000e-001 94356 -2.5869e+002 -1.1502e+002 -1.0562e+001 44237 93840,94022,94330
 8.0000e-001 94379 -2.8966e+002 -3.0510e+002  1.0384e+002 44237 93840,94330,94186
 8.0000e-001 94428 -3.0033e+002 -2.3080e+002  1.2295e+002 44237 93970,93944,94402
 8.0000e-001 94451 -2.7737e+002 -2.3749e+002  1.0040e+002 44237 93970,94402,94258
 8.0000e-001 94908 -1.0835e+002 -2.0023e+002  6.5993e+001 43890 94660,94790,94712
 8.0000e-001 94885 -8.2587e+001 -9.2429e+001  9.6481e+001 43890 94634,94790,94660
 8.0000e-001 94862 -1.4601e+002 -9.9144e+001  1.0801e+002 43890 94712,94764,94738
 8.0000e-001 94839 -9.6703e+001 -2.0001e+002  1.1034e+002 43890 94712,94790,94764
 8.0000e-001 94816 -6.1112e+001 -2.4153e+002  1.2261e+002 43890 94660,94712,94686
 8.0000e-001 95414 -2.0537e+002 -1.7140e+002  8.6536e+001 43186 95437,95143,95117
 8.0000e-001 95391 -2.1193e+002 -2.7564e+002  1.1595e+002 43186 95437,95117,95091
 8.0000e-001 95368 -1.1165e+002 -1.1874e+002  8.2178e+001 43186 95143,95221,95195
 8.0000e-001 95345 -3.2284e+002 -2.5930e+002  2.3022e+002 43186 95091,95273,95221
 8.0000e-001 95322 -2.2051e+002 -1.7070e+002  1.1141e+002 43186 95221,95273,95247
 8.0000e-001 95299 -1.7370e+002 -3.1047e+002  8.8935e+001 43186 95143,95195,95169
 8.0000e-001 95463 -2.1898e+002 -2.4232e+002  1.3515e+002 43186 95221,95143,95437
 8.0000e-001 95486 -2.1352e+002 -3.2500e+002  1.6644e+002 43186 95221,95437,95091
 8.0000e-001 96041 -2.8550e+002 -3.0678e+002  7.2225e+001 42782 95695,95851,95799
 8.0000e-001 96018 -2.5745e+002 -3.3160e+002  7.9218e+001 42782 95669,95851,95695
 8.0000e-001 95995 -2.9892e+002 -2.1821e+002  9.0986e+001 42782 95695,95747,95721
 8.0000e-001 95972 -2.2418e+002 -2.8080e+002  7.9429e+001 42782 95695,95799,95747
 8.0000e-001 95949 -2.0606e+002 -2.1538e+002  6.3823e+001 42782 95747,95799,95773
 8.0000e-001 95926 -3.7082e+002 -3.6405e+002  1.3442e+002 42782 95799,95851,95825
 8.0000e-001 95903 -3.3742e+002 -3.6503e+002  8.1623e+001 42782 95669,95877,95851
 8.0000e-001 96370 -2.9604e+002 -3.8484e+002  1.8050e+002 42420 96197,96275,96223
 8.0000e-001 96347 -2.7779e+002 -3.2398e+002  1.7558e+002 42420 96145,96275,96197
 8.0000e-001 96324 -2.7492e+002 -2.3129e+002  1.6994e+002 42420 96145,96197,96171
 8.0000e-001 96301 -2.1210e+002 -2.8281e+002  1.2732e+002 42420 96223,96275,96249
 8.0000e-001 96699 -2.0030e+002 -2.3678e+002  9.7950e+001 41816 96474,96578,96526
 8.0000e-001 96676 -9.4783e+001 -9.0396e+001 -1.3116e+001 41816 96474,96604,96578
 8.0000e-001 96653 -1.8592e+002 -1.3417e+002  1.3908e+002 41816 96526,96578,96552
 8.0000e-001 96630 -1.5906e+002 -2.0308e+002  4.6889e+001 41816 96474,96526,96500
 8.0000e-001 96947 -1.3201e+002 -3.1487e+002  1.3721e+002 41212 96722,96800,96748
 8.0000e-001 96924 -2.1264e+002 -2.5641e+002  1.7529e+002 41212 96722,96826,96800
 8.0000e-001 96901 -1.8927e+002 -1.7336e+002  9.1525e+001 41212 96722,96852,96826
 8.0000e-001 96878 -2.7571e+002 -3.8643e+002  9.3589e+001 41212 96748,96800,96774
 8.0000e-001 97097 -1.5192e+002 -1.3213e+002  1.3560e+002 40793 97120,97022,96996
 8.0000e-001 97074 -2.5769e+002 -3.3643e+002  9.3195e+001 40793 97192,97120,96996
 8.0000e-001 97146 -1.2041e+002 -2.8671e+002  1.2583e+002 40793 97324,97120,97048
 8.0000e-001 97169 -1.0370e+002 -4.1411e+002  1.2606e+002 40793 97048,97120,96970
 8.0000e-001 97218 -3.8319e+001 -2.4234e+002  9.0669e+001 40793 96970,97120,97192
 8.0000e-001 97350 -1.2041e+002 -2.8671e+002  1.2583e+002 40793 97022,97120,97324
 8.0000e-001 97878 -1.6328e+002 -3.5895e+002  7.9964e+001 40446 97901,97607,97555
 8.0000e-001 97855 -1.8476e+002 -2.5690e+002  9.1220e+001 40446 97973,97901,97555
 8.0000e-001 97832 -1.6810e+002 -2.2510e+002  6.8679e+001 40446 97973,97555,97737
 8.0000e-001 97809 -2.3730e+002 -3.1783e+002  9.0314e+001 40446 97633,97685,97659
 8.0000e-001 97786 -1.7761e+002 -2.8800e+002  7.9307e+001 40446 97633,97711,97685
 8.0000e-001 97763 -1.7163e+002 -4.2069e+002  9.0076e+001 40446 97555,97607,97581
 8.0000e-001 97927 -2.1462e+002 -4.5654e+002 -5.1208e+000 40446 97633,97607,97901
 8.0000e-001 97950 -1.8406e+002 -3.3854e+002  6.4274e+001 40446 97633,97901,97711
 8.0000e-001 97999 -1.5289e+002 -3.3783e+002  1.0364e+002 40446 97711,97901,97973
 8.0000e-001 98022 -1.3052e+002 -2.8592e+002  8.6463e+001 40446 97711,97973,97737
 8.0000e-001 98449 -1.4078e+002 -1.2533e+002  9.1343e+001 39935 98152,98204,98178
 8.0000e-001 98426 -1.9768e+002 -1.5314e+002  6.4488e+001 39935 98152,98230,98204
 8.0000e-001 98403 -2.5995e+002 -1.5290e+002  1.2288e+002 39935 98152,98256,98230
 8.0000e-001 98380 -1.9070e+002 -2.1768e+002  1.4726e+002 39935 98126,98256,98152
 8.0000e-001 98357 -2.5977e+002 -3.7211e+002  1.6484e+002 39935 98126,98282,98256
 8.0000e-001 98334 -1.7391e+002 -5.2312e+002  2.2095e+002 39935 98126,98308,98282
 8.0000e-001 98746 -4.7954e+002 -3.4238e+002  9.7381e+001 39531 98498,98602,98524
 8.0000e-001 98723 -3.4346e+002 -3.0165e+002  1.0374e+002 39531 98472,98602,98498
 8.0000e-001 98700 -4.3947e+002 -2.3403e+002  1.0315e+002 39531 98524,98602,98576
 8.0000e-001 98677 -2.5387e+002 -3.1012e+002  1.1615e+002 39531 98472,98628,98602
 8.0000e-001 98654 -8.0229e+002 -2.7423e+002  1.2474e+002 39531 98524,98576,98550
 8.0000e-001 99224 -2.9023e+002 -1.5396e+002  2.8259e+002 39027 99247,98956,98930
 8.0000e-001 99201 -3.2743e+002 -3.1446e+002  1.4899e+002 39027 99247,98930,98878
 8.0000e-001 99178 -2.4419e+002 -3.1305e+002  2.1305e+002 39027 99319,98982,98956
 8.0000e-001 99155 -1.9123e+002 -1.9539e+002  1.8542e+002 39027 98852,99060,98878
 8.0000e-001 99132 -2.4660e+002 -1.4407e+002  6.9408e+001 39027 98878,98930,98904
 8.0000e-001 99109 -3.4044e+002 -5.7784e+002  3.1602e+002 39027 98982,99060,99034
 8.0000e-001 99086 -4.0847e+002 -6.6739e+002  4.2508e+002 39027 98982,99034,99008
 8.0000e-001 99273 -2.3451e+002 -2.9039e+002  2.1412e+002 39027 99319,98956,99247
 8.0000e-001 99296 -2.4495e+002 -2.7804e+002  1.5759e+002 39027 99060,99247,98878
 8.0000e-001 99345 -2.3794e+002 -3.2296e+002  1.9945e+002 39027 99060,98982,99319
 8.0000e-001 99368 -2.3592e+002 -3.1700e+002  1.9982e+002 39027 99060,99319,99247
 8.0000e-001 99923 -3.5500e+002 -2.7513e+002  1.3203e+002 38523 99946,99655,99603
 8.0000e-001 99900 -2.7266e+002 -2.3499e+002  1.4624e+002 38523 99946,99603,99759
 8.0000e-001 99877 -1.4539e+002 -3.4436e+002  1.8557e+002 38523 100018,99707,99681
 8.0000e-001 99854 -2.8640e+002 -1.6736e+002  1.3855e+002 38523 99551,99759,99603
 8.0000e-001 99831 -2.6223e+002 -1.5058e+002  1.1805e+002 38523 99551,99603,99577
 8.0000e-001 99808 -2.8571e+002 -4.6217e+002  1.3786e+002 38523 99707,99759,99733
 8.0000e-001 99785 -2.4061e+002 -2.3028e+002  1.0535e+002 38523 99603,99655,99629
 8.0000e-001 99972 -2.8178e+002 -1.3418e+002  1.7382e+002 38523 99681,99655,99946
 8.0000e-001 99995 -1.9402e+002 -1.8318e+002  2.2232e+002 38523 100018,99681,99946
 8.0000e-001 100044 -2.2111e+002 -4.1649e+002  1.1770e+002 38523 99759,99707,100018
 8.0000e-001 100067 -3.2157e+002 -3.4732e+002  1.5258e+002 38523 99759,100018,99946
 8.0000e-001 100467 -1.3542e+002 -2.3718e+002  9.4687e+001 38125 100219,100349,100323
 8.0000e-001 100444 -5.3658e+000 -2.0364e+001  1.4882e+002 38125 100193,100349,100219
 8.0000e-001 100421 -8.9707e+001 -3.3491e+002  1.1073e+002 38125 100245,100323,100297
 8.0000e-001 100398 -8.9179e+001 -2.1343e+002  1.2155e+002 38125 100219,100323,100245
 8.0000e-001 100375 -1.9299e+002 -3.3601e+002  2.0340e+002 38125 100245,100297,100271
 8.0000e-001 100666 -2.8180e+002 -3.5822e+002  1.1588e+002 37607 100689,100568,100542
 8.0000e-001 100643 -2.4476e+002 -2.5392e+002  1.0931e+002 37607 100689,100542,100490
 8.0000e-001 100620 -2.0657e+002 -1.6503e+002  9.4042e+001 37607 100490,100542,100516
 8.0000e-001 100715 -2.5240e+002 -2.5678e+002  9.6403e+001 37607 100594,100568,100689
 8.0000e-001 100738 -2.6889e+002 -2.2729e+002  9.7615e+001 37607 100594,100689,100490
 8.0000e-001 100937 -2.4302e+002 -1.2545e+002  1.9864e+002 37017 100960,100813,100787
 8.0000e-001 100914 -2.3031e+002 -1.4403e+002  1.3387e+002 37017 100960,100787,100761
 8.0000e-001 100891 -3.1600e+002 -1.0683e+002  1.8158e+002 37017 100813,100865,100839
 8.0000e-001 100986 -2.7634e+002 -1.9863e+002  2.0691e+002 37017 100865,100813,100960
 8.0000e-001 101009 -2.5441e+002 -1.9946e+002  1.3669e+002 37017 100865,100960,100761
 8.0000e-001 101519 -4.2327e+002 -3.5963e+002  1.7720e+002 36613 101222,101274,101248
 8.0000e-001 101496 -2.3963e+002 -2.3336e+002  1.1914e+002 36613 101222,101352,101274
 8.0000e-001 101473 -2.6091e+002 -3.2755e+002  1.0576e+002 36613 101274,101352,101326
 8.0000e-001 101450 -2.3551e+002 -1.6599e+002  1.4973e+002 36613 101222,101378,101352
 8.0000e-001 101427 -6.9481e+001 -5.7969e+002  2.0826e+002 36613 101274,101326,101300
 8.0000e-001 101404 -2.2912e+002 -7.1152e+001  4.2848e+001 36613 101196,101378,101222
 8.0000e-001 101718 -2.3646e+002 -1.2946e+002  1.7496e+002 36308 101594,101646,101620
 8.0000e-001 101695 -2.3817e+002 -1.0992e+002  1.5265e+002 36308 101568,101646,101594
 8.0000e-001 101672 -1.9436e+002 -1.6518e+002  1.5405e+002 36308 101542,101646,101568
 8.0000e-001 102098 -2.6438e+002 -1.7665e+002  1.2165e+002 35918 102121,101954,101876
 8.0000e-001 102075 -2.0566e+002 -2.2904e+002  9.9135e+001 35918 102121,101876,101824
 8.0000e-001 102052 -2.7808e+002 -1.8425e+002  1.0148e+002 35918 101876,101954,101928
 8.0000e-001 102029 -3.8197e+002 -7.4068e+001  1.1272e+002 35918 101876,101928,101902
 8.0000e-001 102006 -1.8029e+002 -1.5375e+002  5.6752e+001 35918 101824,101876,101850
 8.0000e-001 102147 -2.9257e+002 -2.2515e+002  1.4545e+002 35918 101980,101954,102121
 8.0000e-001 102170 -2.3156e+002 -2.8021e+002  1.1836e+002 35918 101980,102121,101824
 8.0000e-001 102489 -2.3687e+002 -5.2451e+002  1.8437e+002 35514 102241,102345,102267
 8.0000e-001 102466 -3.0095e+002 -5.2869e+002  1.7044e+002 35514 102215,102345,102241
 8.0000e-001 102443 -2.4135e+002 -5.7521e+002  1.8087e+002 35514 102215,102371,102345
 8.0000e-001 102420 -2.1041e+002 -4.9697e+002  1.9514e+002 35514 102267,102345,102293
 8.0000e-001 102397 -1.3796e+002 -3.3845e+002  2.1250e+002 35514 102293,102345,102319
 8.0000e-001 102820 -2.3881e+002 -2.2198e+002  6.8814e+001 35224 102843,102699,102647
 8.0000e-001 102797 -3.4258e+002 -2.5342e+002  1.3933e+002 35224 102971,102725,102699
 8.0000e-001 102774 -2.5982e+002 -2.9049e+002  1.6338e+002 35224 102595,102725,102621
 8.0000e-001 102751 -1.0964e+002 -1.1055e+002  1.1669e+002 35224 102647,102699,102673
 8.0000e-001 102869 -2.6216e+002 -2.2928e+002  1.2634e+002 35224 102971,102699,102843
 8.0000e-001 102997 -2.4156e+002 -2.9357e+002  1.4071e+002 35224 102621,102725,102971
 8.0000e-001 103020 -1.5044e+002 -2.6424e+002  1.3613e+002 35224 102621,102971,102843
 8.0000e-001 103349 -3.2836e+002 -2.5240e+002  1.5307e+002 34820 103150,103228,103176
 8.0000e-001 103326 -3.0216e+002 -2.7112e+002  1.5037e+002 34820 103124,103228,103150
 8.0000e-001 103303 -2.6231e+002 -2.4713e+002  2.5580e+002 34820 103176,103228,103202
 8.0000e-001 103280 -1.9591e+002 -2.2194e+002  1.8261e+002 34820 103124,103254,103228
 8.0000e-001 103806 -3.3455e+002 -2.0597e+002  1.2825e+002 34530 103558,103662,103636
 8.0000e-001 103783 -2.7530e+002 -2.2203e+002  7.9589e+001 34530 103558,103688,103662
 8.0000e-001 103760 -3.0184e+002 -2.9635e+002  8.2646e+001 34530 103532,103688,103558
 8.0000e-001 103737 -2.3405e+002 -2.7418e+002  1.3105e+002 34530 103584,103636,103610
 8.0000e-001 103714 -4.9168e+002 -2.6239e+002  1.4774e+002 34530 103558,103636,103584
 8.0000e-001 104263 -1.6554e+002 -1.5941e+002  1.2609e+002 34019 103989,104119,104015
 8.0000e-001 104240 -1.3537e+002 -1.4830e+002  1.2169e+002 34019 103989,104145,104119
 8.0000e-001 104217 -1.5827e+002 -2.2033e+002  8.2608e+001 34019 104015,104067,104041
 8.0000e-001 104194 -1.9188e+002 -2.3767e+002  1.0748e+002 34019 104015,104119,104067
 8.0000e-001 104171 -2.0034e+002 -1.4340e+002  1.0147e+002 34019 104067,104119,104093
 8.0000e-001 104641 -2.6147e+002 -1.5461e+002  1.0910e+002 33351 104419,104497,104445
 8.0000e-001 104618 -2.1716e+002 -1.1785e+002  1.2712e+002 33351 104393,104497,104419
 8.0000e-001 104595 -3.8645e+002 -1.9630e+002  9.8535e+001 33351 104367,104497,104393
 8.0000e-001 104572 -2.5735e+002 -1.4577e+002  6.5693e+001 33351 104445,104497,104471
 8.0000e-001 104549 -3.2711e+002 -1.4138e+002  6.7064e+001 33351 104367,104523,104497
 8.0000e-001 105019 -2.3768e+002 -4.3496e+002  2.2437e+002 32861 104823,104901,104875
 8.0000e-001 104996 -3.0707e+002 -4.6476e+002  1.8999e+002 32861 104745,104901,104823
 8.0000e-001 104973 -3.6245e+002 -4.8893e+002  2.1884e+002 32861 104823,104875,104849
 8.0000e-001 104950 -3.0408e+002 -4.3999e+002  2.3115e+002 32861 104745,104823,104797
 8.0000e-001 104927 -3.2517e+002 -1.7234e+002  2.3757e+002 32861 104745,104797,104771
 8.0000e-001 105397 -1.6147e+002 -2.9598e+002  1.3666e+002 32457 105149,105253,105175
 8.0000e-001 105374 -2.8337e+002 -2.8054e+002  1.2274e+002 32457 105149,105279,105253
 8.0000e-001 105351 -1.1678e+002 -2.3355e+002  1.3550e+002 32457 105123,105279,105149
 8.0000e-001 105328 -3.5681e+002 -7.8200e+001  2.9214e+002 32457 105175,105227,105201
 8.0000e-001 105305 -3.3725e+002 -3.6678e+002  1.7017e+002 32457 105175,105253,105227
 8.0000e-001 105726 -1.0253e+002 -3.3110e+002  1.5739e+002 32003 105527,105605,105553
 8.0000e-001 105703 -1.9789e+002 -2.7267e+002  1.4193e+002 32003 105501,105605,105527
 8.0000e-001 105680 -6.2662e+001 -2.1482e+002  1.3466e+002 32003 105501,105631,105605
 8.0000e-001 105657 -4.4105e+001 -1.8657e+002  1.4460e+002 32003 105553,105605,105579
 8.0000e-001 106104 -3.0477e+002 -1.9455e+002  1.4806e+002 31492 106127,105908,105856
 8.0000e-001 106081 -2.9638e+002 -1.8317e+002  8.9860e+001 31492 106127,105856,105830
 8.0000e-001 106058 -2.3355e+002 -2.9269e+002  1.6196e+002 31492 105856,105908,105882
 8.0000e-001 106035 -2.1537e+002 -2.1850e+002  7.2377e+001 31492 105830,105986,105960
 8.0000e-001 106012 -1.6187e+002 -2.7983e+002  2.1016e+002 31492 105908,105960,105934
 8.0000e-001 106153 -3.1571e+002 -2.3927e+002  1.3951e+002 31492 105960,105908,106127
 8.0000e-001 106176 -3.1849e+002 -2.6521e+002  8.8401e+001 31492 105960,106127,105830
 8.0000e-001 106375 -2.6072e+002 -2.0396e+002  1.7269e+002 30788 106398,106277,106251
 8.0000e-001 106352 -2.9244e+002 -3.2532e+002  1.7442e+002 30788 106398,106251,106225
 8.0000e-001 106329 -3.6767e+002 -2.9442e+002  2.3199e+002 30788 106600,106199,106303
 8.0000e-001 106424 -3.8750e+002 -3.7434e+002  1.2901e+002 30788 106470,106398,106303
 8.0000e-001 106447 -2.9097e+002 -3.2302e+002  1.8493e+002 30788 106600,106303,106398
 8.0000e-001 106496 -1.1122e+002 -2.5564e+002  1.4843e+002 30788 106277,106398,106470
 8.0000e-001 106626 -4.1305e+002 -3.5211e+002  2.6874e+002 30788 106225,106199,106600
 8.0000e-001 106649 -3.6144e+002 -3.8539e+002  2.2088e+002 30788 106225,106600,106398
 8.0000e-001 106799 -1.4459e+002 -3.3430e+002  5.4694e+001 30426 106698,106750,106724
 8.0000e-001 106776 -8.5110e+001 -2.0110e+002  8.3734e+001 30426 106672,106750,106698
 8.0000e-001 107356 -2.7921e+002 -2.1126e+002  1.1290e+002 29972 107010,107166,107114
 8.0000e-001 107333 -2.7249e+002 -2.0527e+002  1.1719e+002 29972 106984,107166,107010
 8.0000e-001 107310 -2.9664e+002 -1.2253e+002  7.2434e+001 29972 107010,107114,107088
 8.0000e-001 107287 -2.6851e+002 -1.2186e+002  8.5281e+001 29972 107114,107166,107140
 8.0000e-001 107264 -2.5812e+002 -2.2444e+002  1.3051e+002 29972 106984,107192,107166
 8.0000e-001 107241 -3.3070e+002 -2.2454e+002  7.5551e+001 29972 107010,107088,107036
 8.0000e-001 107218 -2.6365e+002 -1.9769e+002  8.9566e+001 29972 107036,107088,107062
 8.0000e-001 107783 -2.7924e+002 -3.5079e+002  1.8279e+002 29724 107878,107806,107590
 8.0000e-001 107760 -4.1401e+002 -3.9942e+002  1.6790e+002 29724 107806,107512,107486
 8.0000e-001 107737 -2.7434e+002 -3.4466e+002  1.8742e+002 29724 107878,107590,107538
 8.0000e-001 107714 -3.0253e+002 -4.1900e+002  2.1851e+002 29724 107950,107460,107616
 8.0000e-001 107691 -3.0414e+002 -4.1573e+002  2.0292e+002 29724 107460,107642,107616
 8.0000e-001 107668 -1.9970e+002 -2.5117e+002  2.2235e+002 29724 107538,107590,107564
 8.0000e-001 107832 -2.1446e+002 -3.6585e+002  2.3886e+002 29724 107616,107590,107806
 8.0000e-001 107855 -3.0403e+002 -4.2240e+002  2.1104e+002 29724 107950,107616,107806
 8.0000e-001 107904 -3.0146e+002 -3.4354e+002  2.1540e+002 29724 107512,107806,107878
 8.0000e-001 107927 -2.4344e+002 -3.1161e+002  2.2786e+002 29724 107512,107878,107538
 8.0000e-001 107976 -2.0882e+002 -4.2690e+002  2.4342e+002 29724 107486,107460,107950
 8.0000e-001 107999 -2.9297e+002 -4.5093e+002  2.0733e+002 29724 107486,107950,107806
 8.0000e-001 108296 -2.9540e+002 -2.5375e+002  1.4436e+002 29206 108319,108100,108048
 8.0000e-001 108273 -1.6939e+002 -2.2865e+002  1.8415e+002 29206 108319,108048,108022
 8.0000e-001 108250 -1.0578e+002 -2.6563e+002  2.2683e+002 29206 108391,108152,108126
 8.0000e-001 108227 -3.8346e+002 -1.7001e+002  1.9577e+002 29206 108048,108100,108074
 8.0000e-001 108204 -1.4379e+002 -3.4678e+002  2.0070e+002 29206 108022,108178,108152
 8.0000e-001 108345 -2.2007e+002 -1.4954e+002  2.1261e+002 29206 108126,108100,108319
 8.0000e-001 108368 -1.3272e+002 -2.2090e+002  2.4953e+002 29206 108391,108126,108319
 8.0000e-001 108417 -1.6806e+002 -3.1792e+002  1.9848e+002 29206 108022,108152,108391
 8.0000e-001 108440 -1.8950e+002 -2.8401e+002  2.2298e+002 29206 108022,108391,108319
 8.0000e-001 108688 -4.0083e+002 -3.6196e+002  2.1262e+002 28595 108711,108541,108515
 8.0000e-001 108665 -5.4463e+002 -3.8792e+002  2.9016e+002 28595 108783,108711,108515
 8.0000e-001 108642 -6.2494e+002 -3.5212e+002  2.8635e+002 28595 108783,108515,108489
 8.0000e-001 108619 -5.9398e+002 -4.4583e+002  1.4686e+002 28595 108463,108593,108489
 8.0000e-001 108737 -3.6266e+002 -2.8501e+002  1.4002e+002 28595 108567,108541,108711
 8.0000e-001 108760 -3.5081e+002 -3.2233e+002  2.4946e+002 28595 108567,108711,108593
 8.0000e-001 108809 -3.9406e+002 -4.0562e+002  2.3276e+002 28595 108593,108711,108783
 8.0000e-001 108832 -5.2594e+002 -4.0297e+002  2.0533e+002 28595 108593,108783,108489
 8.0000e-001 109033 -1.5820e+002 -1.7976e+002  1.1517e+002 28091 108909,108961,108935
 8.0000e-001 109010 -2.1821e+002 -1.8545e+002  9.8708e+001 28091 108857,108961,108909
 8.0000e-001 108987 -3.1371e+002 -2.6687e+002  2.0303e+002 28091 108857,108909,108883
 8.0000e-001 109136 -2.3618e+002 -5.5499e+002  1.0327e+002 27587 109058,109110,109084
 8.0000e-001 109695 -2.0676e+002 -2.5011e+002  8.8353e+001 26969 109718,109375,109323
 8.0000e-001 109672 -2.1598e+002 -2.4381e+002  1.0974e+002 26969 109718,109323,109505
 8.0000e-001 109649 -2.7210e+002 -1.0434e+002  6.6989e+001 26969 109790,109453,109427
 8.0000e-001 109626 -1.3722e+002 -2.0528e+002  1.1253e+002 26969 109323,109375,109349
 8.0000e-001 109603 -3.0711e+002 -3.3023e+002  1.5459e+002 26969 109323,109531,109505
 8.0000e-001 109580 -2.0097e+002 -3.0930e+002  7.6248e+001 26969 109375,109427,109401
 8.0000e-001 109557 -3.0690e+002 -1.4032e+002  8.3370e+001 26969 109453,109505,109479
 8.0000e-001 109744 -2.3395e+002 -2.7732e+002  5.6389e+001 26969 109427,109375,109718
 8.0000e-001 109767 -1.8532e+002 -1.7113e+002  6.9256e+001 26969 109790,109427,109718
 8.0000e-001 109816 -3.2217e+002 -1.7151e+002  9.7271e+001 26969 109505,109453,109790
 8.0000e-001 109839 -2.6374e+002 -2.5704e+002  1.1055e+002 26969 109505,109790,109718
 8.0000e-001 110266 -2.3379e+002 -3.4917e+002  1.4200e+002 26515 110361,110289,110099
 8.0000e-001 110243 -2.0422e+002 -2.7336e+002  1.8565e+002 26515 110289,109995,109943
 8.0000e-001 110220 -2.3804e+002 -3.5482e+002  1.5777e+002 26515 110361,110099,110021
 8.0000e-001 110197 -1.6326e+002 -4.3248e+002  1.1206e+002 26515 110047,110099,110073
 8.0000e-001 110174 -2.1049e+002 -5.3507e+002  6.8967e+001 26515 110021,110099,110047
 8.0000e-001 110151  3.4317e+001  4.9399e+001  2.9306e+002 26515 109943,109995,109969
 8.0000e-001 110315 -4.2280e+002 -2.6192e+002  1.2260e+002 26515 110125,110099,110289
 8.0000e-001 110338 -2.4121e+002 -8.2985e+001  2.3944e+002 26515 110125,110289,109943
 8.0000e-001 110387 -2.3120e+002 -3.0853e+002  1.2824e+002 26515 109995,110289,110361
 8.0000e-001 110410 -2.4101e+002 -3.2949e+002  1.4255e+002 26515 109995,110361,110021
 8.0000e-001 110609 -1.0969e+002 -3.2967e+002  1.4071e+002 25789 110906,110762,110632
 8.0000e-001 110586 -1.1862e+002 -4.2114e+002  1.5837e+002 25789 110762,110433,110537
 8.0000e-001 110563 -2.6718e+002 -3.4982e+002  2.2118e+002 25789 110834,110459,110433
 8.0000e-001 110658 -1.6517e+002 -3.1033e+002  1.7846e+002 25789 110906,110632,110834
 8.0000e-001 110788 -8.1013e+001 -2.1656e+002  9.2364e+001 25789 110511,110632,110762
 8.0000e-001 110811 -1.0734e+002 -3.3114e+002  1.5995e+002 25789 110511,110762,110537
 8.0000e-001 110860 -1.8062e+002 -3.0982e+002  2.1072e+002 25789 110485,110459,110834
 8.0000e-001 110883 -2.1225e+002 -3.3470e+002  1.8910e+002 25789 110485,110834,110632
 8.0000e-001 110932 -2.1782e+002 -3.6609e+002  1.4290e+002 25789 110433,110762,110906
 8.0000e-001 110955 -2.6285e+002 -3.3650e+002  1.7309e+002 25789 110433,110906,110834
 8.0000e-001 111350 -2.9824e+002 -3.1256e+002  2.1310e+002 25228 111445,111373,111186
 8.0000e-001 111327 -3.2531e+002 -3.6999e+002  1.1992e+002 25228 110978,111186,111004
 8.0000e-001 111304 -3.1996e+002 -3.8714e+002  1.7721e+002 25228 111373,111108,111082
 8.0000e-001 111281 -2.5393e+002 -4.2179e+002  1.7106e+002 25228 111134,111186,111160
 8.0000e-001 111258 -2.8941e+002 -2.8955e+002  2.1135e+002 25228 111445,111186,111134
 8.0000e-001 111235 -2.7502e+002 -2.7822e+002  1.2971e+002 25228 111517,111030,111004
 8.0000e-001 111212 -3.9932e+002 -3.3726e+002  1.8212e+002 25228 111030,111082,111056
 8.0000e-001 111399 -3.0766e+002 -3.7447e+002  2.0240e+002 25228 111004,111186,111373
 8.0000e-001 111422 -2.4792e+002 -3.0299e+002  1.7031e+002 25228 111517,111004,111373
 8.0000e-001 111471 -3.0425e+002 -3.0464e+002  1.7709e+002 25228 111108,111373,111445
 8.0000e-001 111494 -2.9302e+002 -2.7601e+002  1.7583e+002 25228 111108,111445,111134
 8.0000e-001 111543 -3.4071e+002 -3.0233e+002  1.5011e+002 25228 111082,111030,111517
 8.0000e-001 111566 -3.1297e+002 -3.3369e+002  1.9209e+002 25228 111082,111517,111373
 8.0000e-001 112074 -2.7176e+002 -2.6255e+002  1.6951e+002 24338 112097,111907,111881
 8.0000e-001 112051 -3.3354e+002 -2.6547e+002  1.2970e+002 24338 112097,111881,111829
 8.0000e-001 112028 -1.7484e+002 -2.8633e+002  1.1375e+002 24338 111829,111881,111855
 8.0000e-001 112005 -3.9486e+002 -3.7944e+002  1.0983e+002 24338 111777,111933,111829
 8.0000e-001 111982 -4.3671e+002 -1.1630e+002  1.3401e+002 24338 111751,111933,111777
 8.0000e-001 111959 -4.0745e+002 -4.6375e+002  1.5979e+002 24338 111777,111829,111803
 8.0000e-001 112123 -3.3002e+002 -3.5583e+002  1.3933e+002 24338 111933,111907,112097
 8.0000e-001 112146 -3.5523e+002 -2.7976e+002  1.1712e+002 24338 111933,112097,111829
 8.0000e-001 112443 -4.1531e+002 -2.6473e+002  1.6139e+002 23998 112466,112299,112247
 8.0000e-001 112420 -4.3851e+002 -4.4397e+002  1.4692e+002 23998 112466,112247,112221
 8.0000e-001 112397 -4.4252e+002 -4.5567e+002  2.1841e+002 23998 112169,112325,112221
 8.0000e-001 112374 -3.9401e+002 -3.7314e+002  2.3957e+002 23998 112169,112221,112195
 8.0000e-001 112351 -1.8612e+002 -2.3551e+002  2.0204e+002 23998 112247,112299,112273
 8.0000e-001 112492 -3.9604e+002 -2.8248e+002  2.6877e+002 23998 112325,112299,112466
 8.0000e-001 112515 -4.3033e+002 -3.8782e+002  2.3050e+002 23998 112325,112466,112221
 8.0000e-001 113200 -3.5531e+002 -3.8685e+002  2.6358e+002 23480 112779,112961,112805
 8.0000e-001 113177 -3.6403e+002 -3.0771e+002  1.4045e+002 23480 112779,112987,112961
 8.0000e-001 113154 -1.4163e+002 -2.2699e+002  1.8235e+002 23480 112805,112961,112883
 8.0000e-001 113131 -2.3518e+002 -3.5317e+002  1.8217e+002 23480 112883,112935,112909
 8.0000e-001 113108 -3.0068e+002 -2.9398e+002  1.8364e+002 23480 112883,112961,112935
 8.0000e-001 113085 -1.5827e+002 -1.8961e+002  9.5926e+001 23480 112831,112883,112857
 8.0000e-001 113062 -2.1709e+002 -2.3563e+002  1.2032e+002 23480 112805,112883,112831
 8.0000e-001 113039 -4.6021e+002 -2.3386e+002  1.6089e+002 23480 112779,113013,112987
 8.0000e-001 113676 -3.1477e+002 -1.8598e+002  2.2865e+002 23018 113699,113434,113356
 8.0000e-001 113653 -2.8516e+002 -1.8509e+002  1.4602e+002 23018 113771,113699,113356
 8.0000e-001 113630 -2.6085e+002 -2.6537e+002  1.1295e+002 23018 113771,113356,113512
 8.0000e-001 113607 -2.0809e+002 -3.2884e+002  1.6179e+002 23018 113330,113512,113356
 8.0000e-001 113584 -6.5756e+002 -2.9649e+002  3.4889e+002 23018 113356,113434,113382
 8.0000e-001 113561 -8.1251e+001 -3.0961e+002  1.5953e+002 23018 113304,113512,113330
 8.0000e-001 113538 -6.1610e+002 -7.3032e+001  1.5374e+002 23018 113382,113434,113408
 8.0000e-001 113725 -3.4622e+002 -2.5954e+002  2.2733e+002 23018 113460,113434,113699
 8.0000e-001 113748 -3.5935e+002 -2.7371e+002  1.6852e+002 23018 113460,113699,113486
 8.0000e-001 113797 -3.4826e+002 -3.0144e+002  1.7041e+002 23018 113486,113699,113771
 8.0000e-001 113820 -2.8746e+002 -3.2249e+002  1.1990e+002 23018 113486,113771,113512
 8.0000e-001 114424 -3.4254e+002 -3.2421e+002  8.7527e+001 22514 114447,114133,114029
 8.0000e-001 114401 -3.5158e+002 -3.8782e+002  9.1953e+001 22514 114447,114029,114237
 8.0000e-001 114378 -3.0639e+002 -2.4040e+002  7.0533e+001 22514 114133,114211,114185
 8.0000e-001 114355 -4.8827e+002 -2.6511e+002  3.5291e+001 22514 114133,114185,114159
 8.0000e-001 114332 -2.9299e+002 -4.0004e+002  1.9374e+002 22514 114003,114237,114029
 8.0000e-001 114309 -3.5407e+002 -2.5657e+002  5.7505e+001 22514 114029,114133,114055
 8.0000e-001 114286 -3.3298e+002 -2.4512e+002  4.8373e+001 22514 114055,114133,114107
 8.0000e-001 114263 -2.5973e+002  2.8101e-001  2.6981e+001 22514 114055,114107,114081
 8.0000e-001 114473 -3.6640e+002 -2.8666e+002  1.1139e+002 22514 114211,114133,114447
 8.0000e-001 114496 -3.6401e+002 -3.3406e+002  1.1379e+002 22514 114211,114447,114237
 8.0000e-001 114597 -1.9959e+002 -4.9532e+002  2.8381e+002 22316 114620,114571,114545
 8.0000e-001 114646 -1.9959e+002 -4.9532e+002  2.8381e+002 22316 114519,114571,114620
 8.0000e-001 115127 -4.7091e+002 -3.1679e+002  1.4511e+002 21612 115150,114905,114879
 8.0000e-001 115104 -5.2144e+002 -1.8831e+002  1.5754e+002 21612 115150,114879,114853
 8.0000e-001 115081 -3.9586e+002 -7.9513e+001  2.3708e+002 21612 115222,114931,114905
 8.0000e-001 115058 -4.2429e+002 -2.3542e+002  2.0210e+002 21612 115222,114905,115009
 8.0000e-001 115035 -2.3978e+002 -3.1941e+002  1.7493e+002 21612 114957,115009,114983
 8.0000e-001 115176 -4.4009e+002 -2.1975e+002  1.4088e+002 21612 115009,114905,115150
 8.0000e-001 115199 -4.7893e+002 -7.3665e+001  1.4830e+002 21612 115009,115150,114853
 8.0000e-001 115248 -3.8551e+002 -2.2379e+002  2.0273e+002 21612 114957,114931,115222
 8.0000e-001 115271 -4.0869e+002 -3.7073e+002  1.6651e+002 21612 114957,115222,115009
 8.0000e-001 115519 -1.1433e+002  9.3511e+001  1.3385e+002 21208 115542,115372,115320
 8.0000e-001 115496  1.0877e+001  1.7546e+002  2.9544e+000 21208 115542,115320,115294
 8.0000e-001 115473 -8.5573e+001 -2.1418e+002  2.0000e+002 21208 115320,115372,115346
 8.0000e-001 115450 -2.3244e+002 -4.7866e+001  4.2347e+001 21208 115294,115424,115398
 8.0000e-001 115568 -1.6527e+002  3.7886e+001  1.7570e+002 21208 115398,115372,115542
 8.0000e-001 115591 -1.2569e+002 -5.2042e+001  6.8908e+001 21208 115398,115542,115294
 8.0000e-001 115839 -3.7581e+002 -2.2056e+002  2.0749e+002 20668 115862,115640,115614
 8.0000e-001 115816 -4.0597e+002 -2.3201e+002  2.2261e+002 20668 115862,115614,115744
 8.0000e-001 115793 -4.8504e+002 -2.0283e+002  2.0090e+002 20668 115640,115718,115692
 8.0000e-001 115770 -5.0812e+002 -2.1448e+002  2.0494e+002 20668 115640,115692,115666
 8.0000e-001 115888 -4.1625e+002 -1.8882e+002  2.1673e+002 20668 115718,115640,115862
 8.0000e-001 115911 -4.4944e+002 -2.1485e+002  2.3887e+002 20668 115718,115862,115744
 8.0000e-001 116134 -1.9601e+002 -3.3177e+002  1.8845e+002 20264 115958,116036,115984
 8.0000e-001 116111 -1.2257e+002 -2.9779e+002  1.7977e+002 20264 115958,116062,116036
 8.0000e-001 116088 -1.2960e+002 -3.1731e+002  2.0188e+002 20264 115984,116036,116010
 8.0000e-001 116384 -3.6120e+002 -2.2562e+002  2.0776e+002 19924 116407,116211,116159
 8.0000e-001 116361 -3.4975e+002 -3.4118e+002  1.8753e+002 19924 116407,116159,116263
 8.0000e-001 116338 -3.4851e+002 -1.5767e+002  1.9536e+002 19924 116159,116211,116185
 8.0000e-001 116315 -2.5718e+002 -3.5389e+002  2.4871e+002 19924 116159,116289,116263
 8.0000e-001 116433 -3.6361e+002 -1.5751e+002  2.3241e+002 19924 116237,116211,116407
 8.0000e-001 116456 -3.1450e+002 -2.3793e+002  2.2555e+002 19924 116237,116407,116263
 8.0000e-001 116608 -3.0114e+002 -1.1658e+002  1.4993e+002 19520 116703,116631,116533
 8.0000e-001 116585 -2.9537e+002 -1.3447e+002  1.3682e+002 19520 116631,116507,116481
 8.0000e-001 116657 -2.7055e+002 -1.3509e+002  1.5926e+002 19520 116559,116533,116631
 8.0000e-001 116680 -2.8676e+002 -1.7796e+002  1.4230e+002 19520 116559,116631,116481
 8.0000e-001 116729 -3.0114e+002 -1.1658e+002  1.4993e+002 19520 116507,116631,116703
 8.0000e-001 116952 -2.6867e+002 -2.2138e+002  3.1782e+002 19208 116975,116802,116776
 8.0000e-001 116929 -3.3130e+002 -4.2637e+002  1.8658e+002 19208 116975,116776,116880
 8.0000e-001 116906 -3.8348e+002 -1.6400e+002  2.2023e+002 19208 116802,116854,116828
 8.0000e-001 117001 -2.2044e+002 -1.8629e+002  3.3409e+002 19208 116854,116802,116975
 8.0000e-001 117024 -9.2261e+001 -2.4176e+002  2.6960e+002 19208 116854,116975,116880
 8.0000e-001 117428 -3.0918e+002 -1.2324e+002  1.6752e+002 18796 117154,117206,117180
 8.0000e-001 117405 -2.1940e+002 -2.2437e+002  1.5679e+002 18796 117154,117284,117206
 8.0000e-001 117382 -1.4574e+002 -1.8657e+002  1.7919e+002 18796 117154,117310,117284
 8.0000e-001 117359 -1.3922e+002 -1.5183e+002  2.0801e+002 18796 117206,117284,117258
 8.0000e-001 117336 -7.6804e+001 -4.1212e+001  2.7149e+002 18796 117206,117258,117232
 8.0000e-001 117529 -1.5168e+002 -7.3278e+001  8.5456e+001 18228 117810,117552,117477
 8.0000e-001 117578 -3.2646e+002 -2.0737e+002  1.3018e+002 18228 117682,117552,117503
 8.0000e-001 117708 -1.1518e+002 -1.0433e+002  8.5483e+001 18228 117477,117552,117682
 8.0000e-001 117836 -2.3643e+002 -2.1645e+002  1.3227e+002 18228 117451,117552,117810
 8.0000e-001 118364 -3.6554e+002 -1.3902e+002  1.2415e+002 17722 118067,118223,118093
 8.0000e-001 118341 -3.4389e+002 -4.3126e+001  1.1701e+002 17722 118041,118223,118067
 8.0000e-001 118318 -2.2260e+002 -1.2126e+002  9.2699e+001 17722 118093,118223,118197
 8.0000e-001 118295 -5.6138e+002 -5.1685e+002  3.2134e+002 17722 118119,118197,118171
 8.0000e-001 118272 -1.5084e+002 -5.0811e+001  1.3998e+002 17722 118093,118197,118119
 8.0000e-001 118249 -4.9928e+002 -1.6818e+002  2.5672e+002 17722 118119,118171,118145
 8.0000e-001 118514 -5.0291e+002 -2.0686e+002  1.7413e+002 17268 118387,118439,118413
 8.0000e-001 118491 -3.1550e+001 -2.1298e+002  1.9394e+002 17268 118387,118465,118439
 8.0000e-001 118916 -5.0614e+002 -1.9586e+002  1.0979e+002 16828 118668,118772,118694
 8.0000e-001 118893 -6.5837e+002 -2.4770e+002  9.4266e+001 16828 118668,118798,118772
 8.0000e-001 118870 -7.1386e+002 -4.0230e+002  8.4910e+001 16828 118642,118798,118668
 8.0000e-001 118847 -3.2786e+002 -1.4325e+002  2.3844e+002 16828 118694,118746,118720
 8.0000e-001 118824 -5.5019e+002 -3.4297e+002  1.0679e+002 16828 118694,118772,118746
 8.0000e-001 119316 -2.5655e+002 -1.7863e+002  2.3853e+002 16422 119042,119172,119094
 8.0000e-001 119293 -3.1935e+002 -1.7745e+002  2.5467e+002 16422 119042,119198,119172
 8.0000e-001 119270 -3.3815e+002 -1.3249e+002  1.5071e+002 16422 119042,119094,119068
 8.0000e-001 119247 -2.4086e+002 -1.1856e+002  3.2517e+002 16422 119094,119146,119120
 8.0000e-001 119224 -2.3118e+002 -1.3405e+002  2.5012e+002 16422 119094,119172,119146
 8.0000e-001 119466 -5.7253e+002 -1.9392e+002 -2.4420e+001 16010 119339,119391,119365
 8.0000e-001 119443 -2.6120e+002 -2.0847e+002  1.8300e+002 16010 119339,119417,119391
 8.0000e-001 119616 -1.6721e+002 -6.7655e+001  1.9499e+002 15547 119515,119567,119541
 8.0000e-001 119593  7.4590e+001  1.2144e+002  3.8225e+002 15547 119489,119567,119515
 8.0000e-001 119719 -4.6044e+002 -1.9052e+002  1.8382e+002 421 119641,119693,119667
 9.0000e-001 69562 -4.7885e+002 -2.1890e+002  3.3050e+002 69254 69484,69536,69510
 9.0000e-001 70009 -1.6216e+002 -1.5876e+002  1.6380e+002 68942 69686,69842,69816
 9.0000e-001 69986 -1.3089e+002 -4.0802e+001  9.9394e+001 68942 69686,69868,69842
 9.0000e-001 69963  1.7686e+001  9.2442e+000  2.3420e+002 68942 69686,69816,69712
 9.0000e-001 69940 -5.7701e+001 -4.0910e+001  3.4092e+002 68942 69712,69790,69738
 9.0000e-001 69917 -2.1484e+002 -5.1883e+002  2.7243e+002 68942 69712,69816,69790
 9.0000e-001 69894  5.2155e+000 -2.8912e+002  1.4431e+002 68942 69738,69790,69764
 9.0000e-001 70110 -1.9310e+002 -5.5101e+001  1.1222e+002 68766 70032,70084,70058
 9.0000e-001 70746 -1.0670e+002 -8.3205e+001  1.2111e+002 68448 70400,70556,70426
 9.0000e-001 70723 -3.5137e+002 -1.3438e+002  1.6784e+002 68448 70374,70556,70400
 9.0000e-001 70700 -1.6499e+002 -7.9112e+001  7.4619e+001 68448 70426,70556,70478
 9.0000e-001 70677 -2.7879e+002 -5.7522e+001  8.2390e+001 68448 70478,70556,70504
 9.0000e-001 70654 -2.1833e+002 -1.3887e+002  1.0103e+002 68448 70426,70478,70452
 9.0000e-001 70631 -3.3000e+002 -6.9858e+001  2.1342e+002 68448 70374,70582,70556
 9.0000e-001 70608 -2.9112e+002 -8.8491e+001  8.2058e+001 68448 70504,70556,70530
 9.0000e-001 70896 -1.3033e+002 -2.7343e+001  2.1851e+001 68250 70795,70847,70821
 9.0000e-001 70873 -5.9921e+002 -1.9862e+002 -7.4802e-001 68250 70769,70847,70795
 9.0000e-001 70997 -1.1392e+003 -5.1858e+002  4.5290e+002 68052 70919,70971,70945
 9.0000e-001 71367 -3.4148e+002 -5.3587e+002  2.1544e+002 67740 71096,71226,71200
 9.0000e-001 71344 -2.2885e+002 -3.1228e+002  2.6139e+002 67740 71044,71226,71096
 9.0000e-001 71321  1.8682e+001 -1.8682e+001  4.1484e+002 67740 71044,71096,71070
 9.0000e-001 71298 -2.6637e+002 -5.7300e+002  4.0759e+002 67740 71096,71200,71174
 9.0000e-001 71275 -1.4180e+002 -3.4037e+002  1.6162e+002 67740 71096,71148,71122
 9.0000e-001 71252 -1.9990e+002 -4.0669e+002  2.6807e+002 67740 71096,71174,71148
 9.0000e-001 71519  1.2317e+002  7.5082e+001  1.2951e+002 67542 71418,71470,71444
 9.0000e-001 71496  2.1727e+002  4.4782e+002  4.0805e+002 67542 71392,71470,71418
 9.0000e-001 71923 -8.2013e+001 -9.6276e+000  1.1926e+002 67230 71649,71779,71675
 9.0000e-001 71900 -6.3187e+001 -1.1249e+002  8.4529e+001 67230 71649,71805,71779
 9.0000e-001 71877 -8.7129e+001 -3.2001e+001  2.1659e+002 67230 71675,71727,71701
 9.0000e-001 71854 -1.1586e+002 -3.2055e+002  2.1754e+002 67230 71675,71753,71727
 9.0000e-001 71831 -1.1502e+002 -1.9761e+002  1.5228e+002 67230 71675,71779,71753
 9.0000e-001 72433 -1.2371e+002 -8.0219e+001  1.6697e+002 67032 72038,72246,72220
 9.0000e-001 72410 -1.0802e+002 -3.8163e+000  4.7541e+001 67032 72012,72246,72038
 9.0000e-001 72387 -2.0805e+002 -6.0824e+001  1.8654e+002 67032 72064,72194,72168
 9.0000e-001 72364 -2.3672e+002 -9.2188e+001  1.9938e+002 67032 72038,72194,72064
 9.0000e-001 72341 -2.1206e+002 -3.1946e+002  2.7565e+002 67032 72038,72220,72194
 9.0000e-001 72318 -1.0635e+002 -6.5149e+000  1.0281e+002 67032 72090,72168,72142
 9.0000e-001 72295 -3.6613e+001  2.3675e+000  1.5261e+002 67032 72064,72168,72090
 9.0000e-001 72272 -1.1836e+002 -1.9870e+001  9.6554e+001 67032 72090,72142,72116
 9.0000e-001 72933 -1.7908e+002 -2.0310e+002  2.0604e+002 66628 72956,72665,72613
 9.0000e-001 72910 -1.7175e+002 -2.3513e+002  2.0304e+002 66628 73100,72956,72613
 9.0000e-001 72887 -2.2715e+002 -3.1238e+002  1.7813e+002 66628 73028,72691,72665
 9.0000e-001 72864 -1.6975e+002 -2.3195e+002  2.0556e+002 66628 73100,72613,72587
 9.0000e-001 72841 -1.6511e+002 -1.9154e+002  1.7690e+002 66628 72613,72665,72639
 9.0000e-001 72818  6.9472e+001  1.9534e+001  3.0165e+002 66628 72587,72769,72743
 9.0000e-001 72795 -1.4852e+002 -4.5382e+002  5.9527e+001 66628 72561,72769,72587
 9.0000e-001 72982 -2.2681e+002 -2.3168e+002  2.2291e+002 66628 73028,72665,72956
 9.0000e-001 73005 -1.7506e+002 -6.9895e+001  2.1929e+002 66628 72717,72956,72743
 9.0000e-001 73054 -3.1105e+002 -2.6816e+002  1.1623e+002 66628 72717,72691,73028
 9.0000e-001 73077 -3.1271e+002 -2.4024e+002  1.5758e+002 66628 72717,73028,72956
 9.0000e-001 73126 -1.7580e+002 -2.3624e+002  1.9891e+002 66628 72743,72956,73100
 9.0000e-001 73149 -1.7301e+002 -2.3335e+002  2.0143e+002 66628 72743,73100,72587
 9.0000e-001 73606 -1.6118e+002 -2.1343e+002  1.8582e+002 66281 73332,73384,73358
 9.0000e-001 73583 -2.1991e+002 -3.0287e+002  1.5840e+002 66281 73332,73462,73384
 9.0000e-001 73560 -2.9814e+002 -1.8375e+002  2.3307e+002 66281 73384,73462,73436
 9.0000e-001 73537 -5.4518e+002 -2.7448e+002  2.5968e+002 66281 73332,73488,73462
 9.0000e-001 73514 -3.0980e+002 -1.5546e+002  9.4315e+001 66281 73384,73436,73410
 9.0000e-001 73984 -1.9605e+001 -5.6247e+001  3.5751e+001 65969 73736,73814,73788
 9.0000e-001 73961  3.2616e+001 -7.1685e+000  2.3999e+000 65969 73736,73866,73814
 9.0000e-001 73938 -9.2023e+001 -7.7265e+001  1.1267e+002 65969 73814,73866,73840
 9.0000e-001 73915 -5.9415e+000  4.1490e+001  9.4433e+000 65969 73710,73866,73736
 9.0000e-001 73892  7.3575e-001 -6.3350e+001  5.5271e+000 65969 73736,73788,73762
 9.0000e-001 74232 -1.7206e+002 -2.0576e+002  1.9791e+002 65572 74255,74085,74033
 9.0000e-001 74209 -1.4863e+002 -2.3422e+002  1.5997e+002 65572 74327,74255,74033
 9.0000e-001 74186 -1.6675e+002 -1.6155e+002  1.6011e+002 65572 74327,74033,74007
 9.0000e-001 74163 -1.8212e+002 -2.3788e+002  2.1147e+002 65572 74033,74085,74059
 9.0000e-001 74281 -2.2126e+002 -2.6644e+002  2.4780e+002 65572 74111,74085,74255
 9.0000e-001 74304 -1.5543e+002 -2.5222e+002  1.6506e+002 65572 74111,74255,74137
 9.0000e-001 74353 -1.3229e+002 -1.4941e+002  1.3227e+002 65572 74137,74255,74327
 9.0000e-001 74376 -1.6616e+002 -9.4766e+001  1.3598e+002 65572 74137,74327,74007
 9.0000e-001 74884 -1.5669e+002 -1.8811e+002  1.4579e+002 65174 74587,74717,74613
 9.0000e-001 74861 -1.5510e+002 -2.0774e+002  1.1398e+002 65174 74561,74717,74587
 9.0000e-001 74838 -1.5052e+002 -2.2275e+002  1.1446e+002 65174 74613,74691,74639
 9.0000e-001 74815 -1.4055e+002 -2.0659e+002  1.4526e+002 65174 74613,74717,74691
 9.0000e-001 74792 -5.2857e+001 -3.7171e+002  9.3991e+001 65174 74639,74691,74665
 9.0000e-001 74769 -1.3214e+002 -1.6663e+002  1.0146e+002 65174 74561,74743,74717
 9.0000e-001 75412 -1.2621e+001 -8.4216e+001  3.8859e+002 64770 75167,75245,75219
 9.0000e-001 75389 -2.0121e+002 -3.2862e+002  2.7075e+002 64770 75115,75245,75167
 9.0000e-001 75366 -1.5581e+002 -4.0611e+002  3.4166e+002 64770 75089,75245,75115
 9.0000e-001 75343 -3.0246e+002 -1.0461e+002  2.8128e+002 64770 75167,75219,75193
 9.0000e-001 75320 -1.6380e+002 -2.3960e+002  2.6768e+002 64770 75115,75167,75141
 9.0000e-001 75297 -2.3684e+002 -5.9879e+002  3.5315e+002 64770 75089,75271,75245
 9.0000e-001 75861 -4.0816e+002 -1.6606e+002  3.0293e+002 64316 75538,75694,75564
 9.0000e-001 75838 -1.9756e+002 -7.1430e+001  1.7896e+002 64316 75538,75720,75694
 9.0000e-001 75815 -3.3863e+002 -1.9999e+002  2.4107e+002 64316 75590,75694,75642
 9.0000e-001 75792 -3.3753e+002 -2.9660e+002  2.7081e+002 64316 75564,75694,75590
 9.0000e-001 75769 -1.1431e+002 -3.8554e+002  1.4442e+002 64316 75590,75642,75616
 9.0000e-001 75746 -3.2729e+002 -1.3738e+002  2.3377e+002 64316 75642,75694,75668
 9.0000e-001 76239 -4.5835e+002 -3.5886e+002  2.7675e+002 64018 76262,76095,76043
 9.0000e-001 76216 -3.0300e+002 -3.4458e+002  2.2777e+002 64018 76262,76043,76017
 9.0000e-001 76193 -9.7488e+001 -1.7108e+002  1.3748e+002 64018 75991,76121,76017
 9.0000e-001 76170 -4.1887e+002 -2.7026e+002  2.6738e+002 64018 76043,76095,76069
 9.0000e-001 76147 -8.0974e+000 -2.0356e+002  4.8300e+001 64018 75965,76121,75991
 9.0000e-001 76288 -3.1265e+002 -4.3487e+002  3.5642e+002 64018 76121,76095,76262
 9.0000e-001 76311 -1.8086e+002 -4.3310e+002  2.8584e+002 64018 76121,76262,76017
 9.0000e-001 76866 -2.0375e+002 -2.1187e+002  2.1762e+002 63728 76520,76676,76546
 9.0000e-001 76843 -1.8137e+002 -2.1725e+002  1.5585e+002 63728 76520,76702,76676
 9.0000e-001 76820 -1.7498e+002 -2.4862e+002  2.3166e+002 63728 76546,76650,76572
 9.0000e-001 76797 -2.7944e+002 -3.2683e+002  1.8455e+002 63728 76546,76676,76650
 9.0000e-001 76774 -2.8262e+002 -5.3314e+001  1.1857e+002 63728 76572,76650,76624
 9.0000e-001 76751 -1.6570e+002 -1.7403e+002  1.6809e+002 63728 76494,76702,76520
 9.0000e-001 76728 -7.3885e+001 -1.3721e+002  1.0039e+002 63728 76572,76624,76598
 9.0000e-001 77065 -8.8108e+001 -1.8480e+002  1.4157e+002 63288 77088,76941,76915
 9.0000e-001 77042 -2.0014e+002 -2.2172e+002  1.3194e+002 63288 77088,76915,76993
 9.0000e-001 77019 -8.3946e+001 -2.1621e+002  1.2998e+002 63288 76889,76993,76915
 9.0000e-001 77114 -1.4197e+002 -1.8831e+002  1.1601e+002 63288 76967,76941,77088
 9.0000e-001 77137 -3.0940e+002 -2.5626e+002  5.3846e+001 63288 77160,77088,76993
 9.0000e-001 77186 -8.4556e+001 -1.4291e+002  9.4650e+001 63288 76967,77088,77160
 9.0000e-001 77417 -7.4293e+001 -1.4774e+002  7.9302e+001 62884 77440,77342,77316
 9.0000e-001 77394 -1.6744e+002 -2.5504e+002  3.9721e+001 62884 77770,77440,77316
 9.0000e-001 77466 -1.9689e+002 -2.7306e+002  5.0481e+001 62884 77512,77440,77368
 9.0000e-001 77489 -9.8338e+001 -2.1139e+002  3.0135e+001 62884 77642,77440,77290
 9.0000e-001 77538 -6.7610e+001 -1.8728e+002  1.3013e+001 62884 77342,77440,77512
 9.0000e-001 77668 -1.5797e+002 -3.3065e+002  8.8288e+000 62884 77368,77440,77642
 9.0000e-001 77796 -9.1470e+001 -2.1772e+002  2.7529e+001 62884 77290,77440,77770
 9.0000e-001 78479 -4.4110e+002 -3.9777e+002  2.6099e+002 62480 78084,78240,78214
 9.0000e-001 78456 -2.3231e+002 -3.4007e+002  4.1781e+000 62480 78084,78266,78240
 9.0000e-001 78433 -3.1218e+002 -3.2290e+002  1.3215e+002 62480 78110,78214,78136
 9.0000e-001 78410 -3.0853e+002 -3.1460e+002  2.2143e+002 62480 78084,78214,78110
 9.0000e-001 78387 -3.0219e+002 -2.5946e+002  1.4928e+002 62480 78136,78214,78188
 9.0000e-001 78364 -1.8603e+002 -3.9059e+002 -6.8849e+000 62480 78058,78266,78084
 9.0000e-001 78341 -2.7886e+002 -2.6212e+002  2.0508e+002 62480 78136,78188,78162
 9.0000e-001 78318 -8.3722e+001 -3.3703e+002 -3.0203e+001 62480 78058,78292,78266
 9.0000e-001 78678 -2.6185e+002 -4.6507e+002  2.1232e+002 61926 78528,78606,78554
 9.0000e-001 78655 -1.5337e+002 -4.7498e+002  2.6145e+002 61926 78502,78606,78528
 9.0000e-001 78632 -1.5736e+002 -2.9094e+002  1.1224e+002 61926 78554,78606,78580
 9.0000e-001 79058 -2.2477e+002 -2.4915e+002  1.3350e+002 61614 78836,78914,78862
 9.0000e-001 79035 -2.9493e+002 -2.7204e+002  1.2583e+002 61614 78810,78914,78836
 9.0000e-001 79012 -1.9718e+002 -2.3111e+002  1.1551e+002 61614 78784,78914,78810
 9.0000e-001 78989 -1.9725e+002 -2.4731e+002  1.9588e+002 61614 78862,78914,78888
 9.0000e-001 78966 -1.5177e+002 -3.1592e+002  1.3740e+002 61614 78784,78940,78914
 9.0000e-001 79208 -2.4396e+001 -5.7051e+001  3.0175e+001 61366 79081,79133,79107
 9.0000e-001 79185 -8.2624e+001 -2.4247e+001  1.9149e+002 61366 79081,79159,79133
 9.0000e-001 79358  1.7196e+001 -3.7292e+001  3.5336e+001 60962 79231,79283,79257
 9.0000e-001 79335 -1.4824e+002 -3.4929e+002  9.6546e+001 60962 79231,79309,79283
 9.0000e-001 79608 -1.3525e+002 -2.6120e+002  1.9000e+002 60508 79631,79435,79409
 9.0000e-001 79585 -1.0294e+002 -2.9450e+002  1.1348e+002 60508 79703,79631,79409
 9.0000e-001 79562 -9.9348e+001 -6.2313e+001  1.4914e+002 60508 79703,79409,79383
 9.0000e-001 79539 -2.6179e+002 -3.3038e+002  2.9147e+002 60508 79435,79487,79461
 9.0000e-001 79657 -1.8220e+002 -3.9066e+002  2.8690e+002 60508 79487,79435,79631
 9.0000e-001 79680 -8.5325e+001 -2.6190e+002  1.3088e+002 60508 79487,79631,79513
 9.0000e-001 79729 -4.0634e+001 -8.0536e+001  5.7528e+001 60508 79513,79631,79703
 9.0000e-001 79752 -1.0719e+002 -4.7439e+001  2.4369e+001 60508 79513,79703,79383
 9.0000e-001 80390 -2.0629e+002 -2.5545e+002  2.1731e+002 59997 80413,80096,80018
 9.0000e-001 80367 -3.2160e+002 -2.7962e+002  2.6550e+002 59997 80413,80018,80226
 9.0000e-001 80344 -1.6591e+002 -1.8068e+002  1.7402e+002 59997 80096,80174,80148
 9.0000e-001 80321 -6.5879e+002 -4.8549e+002  3.3050e+002 59997 80018,80096,80070
 9.0000e-001 80298 -1.2657e+002 -2.4216e+002  1.3403e+002 59997 80096,80148,80122
 9.0000e-001 80275 -1.8031e+002 -1.5895e+002  1.6580e+002 59997 80174,80226,80200
 9.0000e-001 80252 -4.4046e+002 -3.5959e+002  1.2221e+002 59997 80018,80070,80044
 9.0000e-001 80439 -1.7688e+002 -2.5202e+002  1.8991e+002 59997 80174,80096,80413
 9.0000e-001 80462 -2.2115e+002 -1.9200e+002  2.1840e+002 59997 80174,80413,80226
 9.0000e-001 80840 -3.3174e+002 -3.3402e+002  1.6041e+002 59443 80863,80644,80618
 9.0000e-001 80817 -1.7944e+002 -2.4258e+002  1.9897e+002 59443 80863,80618,80566
 9.0000e-001 80794 -1.3929e+002 -2.0851e+002  2.0193e+002 59443 81007,80935,80670
 9.0000e-001 80771 -2.0652e+002 -2.2200e+002  2.0740e+002 59443 80566,80722,80696
 9.0000e-001 80748 -2.2298e+002 -3.2938e+002  2.2551e+002 59443 80566,80618,80592
 9.0000e-001 80889 -3.4755e+002 -2.6894e+002  2.2933e+002 59443 80935,80644,80863
 9.0000e-001 80912 -2.6838e+002 -2.4960e+002  2.1676e+002 59443 80696,80863,80566
 9.0000e-001 80961 -2.2258e+002 -2.2996e+002  2.3877e+002 59443 80696,80670,80935
 9.0000e-001 80984 -2.2149e+002 -2.2359e+002  2.3169e+002 59443 80696,80935,80863
 9.0000e-001 81033 -2.8015e+002 -3.2983e+002  2.7193e+002 59443 80644,80935,81007
 9.0000e-001 81360 -2.0144e+002 -1.9060e+002  1.5911e+002 59031 81383,81187,81161
 9.0000e-001 81337 -1.9871e+002 -2.0699e+002  1.2309e+002 59031 81455,81383,81161
 9.0000e-001 81314 -1.6317e+002 -1.8449e+002  1.3374e+002 59031 81455,81161,81135
 9.0000e-001 81291 -3.5201e+002 -9.7957e+001  1.6658e+002 59031 81187,81239,81213
 9.0000e-001 81409 -2.1684e+002 -2.0699e+002  1.4319e+002 59031 81239,81187,81383
 9.0000e-001 81432 -3.0990e+002 -2.1969e+002  9.3794e+001 59031 81239,81383,81265
 9.0000e-001 81481 -2.3332e+002 -1.6338e+002  1.3447e+002 59031 81265,81383,81455
 9.0000e-001 81504 -2.2106e+002 -1.6084e+002  1.3616e+002 59031 81265,81455,81135
 9.0000e-001 81835 -2.5529e+001 -1.4186e+002  4.5030e+001 58577 81610,81714,81636
 9.0000e-001 81812 -2.9534e+001 -1.3326e+002  4.2675e+001 58577 81610,81740,81714
 9.0000e-001 81789 -8.8675e+001 -1.6888e+002  3.7088e+001 58577 81636,81714,81688
 9.0000e-001 81766 -8.3581e+001 -1.9266e+002 -3.6581e+001 58577 81636,81688,81662
 9.0000e-001 81985 -8.0830e+001 -1.9408e+002  1.2287e+002 58030 81884,81936,81910
 9.0000e-001 81962 -1.4521e+002 -5.9115e+001  9.3069e+001 58030 81858,81936,81884
 9.0000e-001 82414 -6.6813e+001 -3.1448e+001  8.7615e+001 57690 82437,82169,82117
 9.0000e-001 82391 -9.6704e+001 -1.1534e+002  1.0455e+002 57690 82437,82117,82247
 9.0000e-001 82368  3.1354e+001  5.1041e+001  2.4762e+002 57690 82195,82247,82221
 9.0000e-001 82345 -7.3708e+001 -1.0543e+002  1.0573e+002 57690 82091,82247,82117
 9.0000e-001 82322 -1.0510e+002 -4.6388e+001  6.5685e+001 57690 82117,82169,82143
 9.0000e-001 82299 -8.4179e+001 -1.9368e+002  1.4623e+002 57690 82091,82273,82247
 9.0000e-001 82463 -1.0811e+002  1.3867e+000  1.2717e+002 57690 82195,82169,82437
 9.0000e-001 82486 -1.2212e+002 -5.6431e+001  1.3030e+002 57690 82195,82437,82247
 9.0000e-001 83041 -1.7899e+002 -2.1383e+002  1.3553e+002 57172 83064,82721,82695
 9.0000e-001 83018 -1.9829e+002 -2.1635e+002  1.9636e+002 57172 83064,82695,82851
 9.0000e-001 82995 -5.4610e+002 -2.7261e+002  2.5275e+002 57172 82669,82851,82695
 9.0000e-001 82972 -3.0851e+002 -2.2364e+002  1.8470e+002 57172 82773,82851,82825
 9.0000e-001 82949 -2.7540e+002 -2.2675e+002  2.2776e+002 57172 82773,82825,82799
 9.0000e-001 82926 -2.5352e+002 -1.6065e+002  1.1276e+002 57172 82721,82773,82747
 9.0000e-001 82903 -6.2286e+002 -2.7684e+002  3.7032e+002 57172 82669,82877,82851
 9.0000e-001 83090 -2.7924e+002 -2.4951e+002  1.2226e+002 57172 82773,82721,83064
 9.0000e-001 83113 -2.3261e+002 -2.2625e+002  1.8043e+002 57172 82773,83064,82851
 9.0000e-001 83747 -2.4048e+002 -1.8827e+002  1.3094e+002 56554 83770,83427,83401
 9.0000e-001 83724 -2.3196e+002 -2.5559e+002  1.6190e+002 56554 83842,83770,83401
 9.0000e-001 83701 -1.2986e+001 -1.9870e+002  7.4755e+001 56554 83842,83401,83583
 9.0000e-001 83678 -3.8523e+002 -3.6323e+002  3.2460e+002 56554 83914,83531,83505
 9.0000e-001 83655 -1.8204e+002 -2.8746e+002  1.2184e+002 56554 83531,83583,83557
 9.0000e-001 83632 -5.2031e+001 -1.4745e+002  6.2662e+001 56554 83375,83583,83401
 9.0000e-001 83609 -1.9462e+002 -2.0484e+002  1.2554e+002 56554 83427,83479,83453
 9.0000e-001 83796 -2.0519e+002 -2.0802e+002  1.2352e+002 56554 83479,83427,83770
 9.0000e-001 83819 -1.9793e+002 -1.4858e+002  1.2021e+002 56554 83479,83770,83505
 9.0000e-001 83868 -1.3963e+002 -8.7018e+001  2.0249e+002 56554 83505,83770,83842
 9.0000e-001 83891 -2.5049e+002 -2.0550e+002  2.5515e+002 56554 83914,83505,83842
 9.0000e-001 83940 -1.8068e+002 -3.8385e+002  1.8307e+002 56554 83583,83531,83914
 9.0000e-001 83963 -9.9344e+001 -3.5036e+002  1.5021e+002 56554 83583,83914,83842
 9.0000e-001 84341 -1.5278e+002 -4.6792e+002  1.8225e+002 56192 84067,84145,84119
 9.0000e-001 84318 -4.2527e+001 -2.5532e+002  1.3704e+002 56192 84067,84223,84145
 9.0000e-001 84295 -1.1529e+002 -3.5704e+002  8.6495e+001 56192 84145,84223,84197
 9.0000e-001 84272 -1.3834e+002 -1.8797e+002  1.2442e+002 56192 84067,84119,84093
 9.0000e-001 84249 -1.9108e+002 -1.3667e+002  1.2463e+002 56192 84145,84197,84171
 9.0000e-001 84611 -1.3132e+002 -3.3074e+002  2.5795e+002 55538 84386,84490,84412
 9.0000e-001 84588 -1.4391e+002 -2.8908e+002  2.5230e+002 55538 84386,84516,84490
 9.0000e-001 84565 -2.4189e+002 -3.7777e+002  2.6013e+002 55538 84412,84490,84464
 9.0000e-001 84542 -1.2657e+002 -3.0859e+002  1.9161e+002 55538 84412,84464,84438
 9.0000e-001 84942 -1.9978e+002 -1.8082e+002  1.6393e+002 55084 84769,84847,84795
 9.0000e-001 84919 -2.2120e+002 -2.2858e+002  1.2614e+002 55084 84717,84847,84769
 9.0000e-001 84896 -2.3493e+002 -2.9286e+002  1.3800e+002 55084 84717,84769,84743
 9.0000e-001 84873 -2.3429e+002 -6.6363e+001  1.3363e+002 55084 84795,84847,84821
 9.0000e-001 85271 -7.0719e+001 -9.1566e+001  1.3757e+002 54580 85294,85098,85072
 9.0000e-001 85248 -2.6739e+002 -1.1508e+002  1.6752e+002 54580 85294,85072,85176
 9.0000e-001 85225 -3.5628e+002 -3.2960e+001  7.6207e+001 54580 85124,85176,85150
 9.0000e-001 85202 -9.6103e+001 -1.0776e+002  6.1762e+001 54580 85046,85176,85072
 9.0000e-001 85320 -2.3107e+002 -1.2652e+002  1.4046e+002 54580 85124,85098,85294
 9.0000e-001 85343 -3.3787e+002 -8.2781e+001  1.6749e+002 54580 85124,85294,85176
 9.0000e-001 85542 -1.6872e+002 -2.6110e+002  2.2185e+002 53976 85565,85444,85418
 9.0000e-001 85519 -2.2782e+002 -1.8578e+002  1.6624e+002 53976 85565,85418,85366
 9.0000e-001 85496 -1.5353e+002 -1.2540e+002  6.1491e+001 53976 85366,85418,85392
 9.0000e-001 85591 -1.3393e+002 -2.2434e+002  1.8460e+002 53976 85470,85444,85565
 9.0000e-001 85614 -1.4533e+002 -7.4577e+001  1.2322e+002 53976 85470,85565,85366
 9.0000e-001 85960 -4.2671e+002 -3.6399e+002  3.1207e+002 53572 85663,85715,85689
 9.0000e-001 85937 -3.4151e+002 -2.4823e+002  2.0327e+002 53572 85983,85715,85663
 9.0000e-001 85914 -1.9744e+002 -2.1821e+002  1.8783e+002 53572 86055,85983,85663
 9.0000e-001 85891 -1.7697e+002 -2.0938e+002  1.8721e+002 53572 86055,85663,85637
 9.0000e-001 85868 -3.4828e+002 -5.8602e+002  2.9111e+002 53572 85637,85793,85767
 9.0000e-001 85845 -3.1277e+002 -6.3909e+001  1.3288e+002 53572 85637,85819,85793
 9.0000e-001 86009 -1.8171e+002 -3.4526e+002  2.0011e+002 53572 85741,85715,85983
 9.0000e-001 86032 -4.2330e+001 -2.3419e+002  1.3861e+002 53572 85741,85983,85767
 9.0000e-001 86081 -1.8422e+002 -2.3428e+002  2.1846e+002 53572 85767,85983,86055
 9.0000e-001 86104 -1.5620e+002 -2.2127e+002  2.1464e+002 53572 85767,86055,85637
 9.0000e-001 86693 -3.8773e+002 -1.0520e+002  2.2061e+002 52946 86474,86526,86500
 9.0000e-001 86670 -1.1759e+002 -6.9911e+001  9.8328e+001 52946 86396,86526,86474
 9.0000e-001 86647 -3.0430e+002 -3.4253e+002  1.9646e+002 52946 86370,86526,86396
 9.0000e-001 86624 -1.0073e+001 -7.8265e+000  3.1733e+001 52946 86422,86474,86448
 9.0000e-001 86601 -1.3793e+002 -5.5739e+001  7.9366e+001 52946 86396,86474,86422
 9.0000e-001 86578 -3.7231e+002 -1.3437e+002  4.8695e+001 52946 86370,86552,86526
 9.0000e-001 87376 -2.0318e+002 -2.3805e+002  9.2537e+001 52420 87007,87085,87033
 9.0000e-001 87353 -2.2432e+002 -2.4517e+002  9.2215e+001 52420 87007,87163,87085
 9.0000e-001 87330 -2.4241e+002 -2.3079e+002  1.0531e+002 52420 87007,87189,87163
 9.0000e-001 87307 -2.4799e+002 -2.3894e+002  1.0541e+002 52420 87033,87085,87059
 9.0000e-001 87284 -2.5186e+002 -2.4076e+002  3.6622e+001 52420 87085,87137,87111
 9.0000e-001 87261 -1.9806e+002 -2.7079e+002  2.9016e+001 52420 87085,87163,87137
 9.0000e-001 87238 -1.7996e+002 -2.3772e+002  2.0109e+002 52420 86955,87189,87007
 9.0000e-001 87215 -1.1591e+002 -1.6207e+002  1.2235e+002 52420 86955,87007,86981
 9.0000e-001 87624 -1.7268e+002 -2.1903e+002  1.2987e+002 51916 87451,87503,87477
 9.0000e-001 87601 -1.1021e+002 -2.6221e+002  1.5584e+002 51916 87425,87503,87451
 9.0000e-001 87578 -6.4808e+001 -2.2138e+002  1.7973e+002 51916 87425,87529,87503
 9.0000e-001 87555 -5.9932e+000 -2.5448e+001  1.7911e+002 51916 87399,87529,87425
 9.0000e-001 88053 -3.0647e+002 -2.7315e+002  9.4708e+001 51568 87782,87834,87808
 9.0000e-001 88030 -3.3493e+002 -2.5698e+002  1.4059e+002 51568 88076,87782,87886
 9.0000e-001 88007 -3.0809e+002 -1.9457e+002  1.3858e+002 51568 88076,87886,87860
 9.0000e-001 87984 -3.8420e+002 -3.1866e+002  1.1929e+002 51568 87756,87886,87782
 9.0000e-001 87961 -2.7328e+002 -2.5108e+002  2.1904e+002 51568 87756,87912,87886
 9.0000e-001 87938 -3.2182e+002 -2.2770e+002  2.0047e+002 51568 87730,87912,87756
 9.0000e-001 88102 -3.1142e+002 -2.9025e+002  1.0365e+002 51568 87834,87782,88076
 9.0000e-001 88125 -2.9395e+002 -2.4943e+002  1.0181e+002 51568 87834,88076,87860
 9.0000e-001 88324 -2.0700e+002 -3.1094e+002  1.2010e+002 51164 88419,88347,88200
 9.0000e-001 88301 -1.7403e+002 -2.8116e+002  1.4846e+002 51164 88347,88148,88252
 9.0000e-001 88278 -2.4187e+002 -4.1754e+002  1.2436e+002 51164 88419,88200,88174
 9.0000e-001 88373 -1.5434e+002 -3.2576e+002  1.2788e+002 51164 88226,88200,88347
 9.0000e-001 88396 -4.9378e+001 -3.0915e+002  1.1329e+002 51164 88226,88347,88252
 9.0000e-001 88445 -2.3803e+002 -3.2615e+002  1.8136e+002 51164 88148,88347,88419
 9.0000e-001 88468 -2.3354e+002 -3.1776e+002  1.8909e+002 51164 88148,88419,88174
 9.0000e-001 88738 -2.3633e+002 -3.6724e+002  8.5576e+001 50560 88513,88617,88539
 9.0000e-001 88715 -1.6801e+002 -3.9332e+002  5.9982e+001 50560 88513,88643,88617
 9.0000e-001 88692 -1.5964e+002 -1.8505e+002  1.0642e+002 50560 88539,88591,88565
 9.0000e-001 88669 -1.1976e+002 -2.8492e+002  1.2266e+002 50560 88539,88617,88591
 9.0000e-001 88939 -2.5658e+002 -1.5900e+002  1.2982e+002 50106 88962,88789,88763
 9.0000e-001 88916 -1.8932e+002 -1.8201e+002  1.0564e+002 50106 88962,88763,88841
 9.0000e-001 88893 -2.6195e+002 -2.2743e+002  1.5811e+002 50106 88763,88867,88841
 9.0000e-001 88988 -1.8878e+002 -1.8424e+002  9.2763e+001 50106 88815,88789,88962
 9.0000e-001 89011 -1.7226e+002 -1.6333e+002  1.1336e+002 50106 89034,88962,88841
 9.0000e-001 89060 -1.0412e+002 -9.6133e+001  3.8214e+001 50106 88815,88962,89034
 9.0000e-001 89472 -2.1476e+002 -3.6612e+002  1.1607e+002 49666 89273,89351,89325
 9.0000e-001 89449 -2.2732e+002 -3.0387e+002  1.3862e+002 49666 89273,89377,89351
 9.0000e-001 89426 -1.9687e+002 -2.9780e+002  2.2048e+002 49666 89273,89325,89299
 9.0000e-001 89403 -2.0177e+002 -1.9499e+002  1.4431e+002 49666 89247,89377,89273
 9.0000e-001 89978 -1.2966e+002 -3.0331e+002  1.3196e+002 49205 89681,89837,89733
 9.0000e-001 89955 -1.3528e+002 -2.7532e+002  1.5629e+002 49205 89655,89837,89681
 9.0000e-001 89932 -2.9054e+002 -5.3441e+002  1.7341e+002 49205 89785,89837,89811
 9.0000e-001 89909 -1.2488e+002 -1.5370e+002  9.7365e+001 49205 89733,89837,89785
 9.0000e-001 89886 -2.4835e+002 -1.9666e+002  1.5181e+002 49205 89733,89785,89759
 9.0000e-001 89863 -1.0233e+002 -4.1271e+002  1.7360e+002 49205 89681,89733,89707
 9.0000e-001 90177 -1.7825e+002 -1.6209e+002  7.6401e+001 48865 90530,90200,90053
 9.0000e-001 90154 -2.1426e+002 -3.4816e+002  1.7762e+002 48865 90402,90200,90001
 9.0000e-001 90131 -2.7534e+002  9.1550e+000  7.4765e+001 48865 90530,90053,90027
 9.0000e-001 90226 -2.2263e+002 -1.9621e+002  1.3724e+002 48865 90079,90053,90200
 9.0000e-001 90249 -2.2107e+002 -2.3870e+002  1.1907e+002 48865 90272,90200,90105
 9.0000e-001 90298 -1.4301e+002 -1.7453e+002  1.4740e+002 48865 90079,90200,90272
 9.0000e-001 90428 -1.5791e+002 -9.7651e+001  1.3857e+002 48865 90105,90200,90402
 9.0000e-001 90556 -2.2713e+002 -4.1331e+002  5.2110e+001 48865 90001,90200,90530
 9.0000e-001 90579 -2.8442e+002 -1.6555e+002 -2.0351e+000 48865 90001,90530,90027
 9.0000e-001 90827 -2.4519e+002 -2.7742e+002  1.2768e+002 48404 90850,90654,90628
 9.0000e-001 90804 -2.3640e+002 -2.9822e+002  2.0072e+002 48404 90850,90628,90732
 9.0000e-001 90781 -1.6123e+002 -2.3103e+002  1.3117e+002 48404 90680,90732,90706
 9.0000e-001 90758 -3.0127e+002 -1.7399e+002  2.0553e+002 48404 90602,90732,90628
 9.0000e-001 90876 -2.2596e+002 -1.7149e+002  1.1863e+002 48404 90680,90654,90850
 9.0000e-001 90899 -2.2951e+002 -2.4811e+002  1.7735e+002 48404 90680,90850,90732
 9.0000e-001 91000 -1.4158e+002 -3.5134e+002  2.3959e+002 48156 90922,90974,90948
 9.0000e-001 91250 -1.6292e+002 -4.0650e+002  2.6810e+002 47752 91051,91103,91077
 9.0000e-001 91227 -1.1375e+002 -7.3463e+001  1.7137e+002 47752 91025,91103,91051
 9.0000e-001 91204 -4.3042e+002 -3.1063e+002  3.6548e+002 47752 91025,91155,91103
 9.0000e-001 91181 -4.5862e+002 -1.9524e+002  2.7728e+002 47752 91103,91155,91129
 9.0000e-001 91402 -2.4180e+002 -2.3036e+002  1.3825e+002 47191 91425,91301,91275
 9.0000e-001 91379 -2.0908e+002 -2.1647e+002  1.5539e+002 47191 91497,91425,91275
 9.0000e-001 91451 -2.4019e+002 -1.7336e+002  1.1061e+002 47191 91327,91301,91425
 9.0000e-001 91474 -2.1432e+002 -2.5226e+002  1.8240e+002 47191 91327,91425,91353
 9.0000e-001 91523 -2.5728e+002 -4.1875e+002  1.6214e+002 47191 91353,91425,91497
 9.0000e-001 91854 -1.6366e+002 -2.0874e+002  1.9073e+002 46744 91949,91877,91707
 9.0000e-001 91831 -3.5223e+001 -1.7852e+002  8.8491e+001 46744 91877,91655,91629
 9.0000e-001 91808 -1.7783e+002 -1.9685e+002  1.8345e+002 46744 91949,91707,91681
 9.0000e-001 91785 -6.4672e+001 -1.1852e+002 -3.2964e+001 46744 91629,91759,91733
 9.0000e-001 91903 -1.9397e+002 -2.3017e+002  2.0344e+002 46744 91733,91707,91877
 9.0000e-001 91926 -1.4512e+002 -3.2219e+002  1.3852e+002 46744 91733,91877,91629
 9.0000e-001 91975 -1.8282e+002 -2.2673e+002  1.8002e+002 46744 91655,91877,91949
 9.0000e-001 91998 -2.0585e+002 -2.1688e+002  1.7334e+002 46744 91655,91949,91681
 9.0000e-001 92378 -1.5787e+002 -9.5351e+001  1.1832e+002 46090 92130,92208,92182
 9.0000e-001 92355 -2.1562e+002 -1.2014e+002  1.1713e+002 46090 92104,92208,92130
 9.0000e-001 92332 -1.1681e+002 -2.0760e+002  1.1918e+002 46090 92104,92260,92208
 9.0000e-001 92309 -1.0098e+002 -1.5407e+002  1.1771e+002 46090 92208,92260,92234
 9.0000e-001 92286 -3.1601e+002 -1.5743e+002  1.4874e+002 46090 92130,92182,92156
 9.0000e-001 92626 -1.9620e+002 -2.4889e+002  9.4909e+001 45693 92721,92649,92505
 9.0000e-001 92603 -2.1594e+002 -2.5042e+002  1.7042e+002 45693 92649,92453,92427
 9.0000e-001 92580 -2.1038e+002 -2.1131e+002  9.1000e+001 45693 92721,92505,92479
 9.0000e-001 92557 -3.5825e+002 -3.3164e+002  2.0157e+002 45693 92401,92531,92427
 9.0000e-001 92675 -2.8425e+002 -2.3947e+002  1.1755e+002 45693 92531,92505,92649
 9.0000e-001 92698 -3.1526e+002 -2.8647e+002  2.1921e+002 45693 92531,92649,92427
 9.0000e-001 92747 -2.0099e+002 -2.0596e+002  9.3296e+001 45693 92453,92649,92721
 9.0000e-001 92770 -1.6556e+002 -9.4684e+001  1.0566e+002 45693 92453,92721,92479
 9.0000e-001 93172 -1.2623e+002 -2.0445e+002  1.9437e+002 45331 92898,93028,92924
 9.0000e-001 93149 -9.8200e+001 -2.3567e+002  1.3406e+002 45331 92898,93054,93028
 9.0000e-001 93126 -1.8399e+002 -1.0459e+002  2.1902e+002 45331 92924,93002,92976
 9.0000e-001 93103 -7.2933e+001 -1.8394e+002  1.9451e+002 45331 92924,93028,93002
 9.0000e-001 93080 -1.9700e+002 -1.9100e+002  2.2862e+002 45331 92924,92976,92950
 9.0000e-001 93518 -1.2308e+002 -4.7109e+002  1.3205e+002 44820 93613,93273,93247
 9.0000e-001 93495 -3.7378e+002 -3.9409e+002  2.1179e+002 44820 93685,93541,93247
 9.0000e-001 93472 -2.9978e+002 -2.5110e+002  1.6983e+002 44820 93541,93195,93377
 9.0000e-001 93449 -4.3191e+002 -3.3125e+002  1.4510e+002 44820 93685,93247,93221
 9.0000e-001 93426 -2.4673e+002 -3.0611e+002  1.5866e+002 44820 93299,93377,93351
 9.0000e-001 93403 -1.9063e+002 -1.7748e+002  1.9398e+002 44820 93299,93351,93325
 9.0000e-001 93567 -2.6808e+002 -5.1625e+002  1.7463e+002 44820 93613,93247,93541
 9.0000e-001 93590 -2.7254e+002 -3.6853e+002  1.2631e+002 44820 93299,93541,93377
 9.0000e-001 93639 -2.7523e+002 -4.7862e+002  1.5591e+002 44820 93299,93273,93613
 9.0000e-001 93662 -2.6691e+002 -4.7780e+002  1.6066e+002 44820 93299,93613,93541
 9.0000e-001 93711 -2.9148e+002 -2.8546e+002  1.5060e+002 44820 93195,93541,93685
 9.0000e-001 93734 -2.7079e+002 -1.1101e+002  6.7576e+001 44820 93195,93685,93221
 9.0000e-001 94163 -2.7337e+002 -3.4062e+002  1.3299e+002 44237 94258,94186,93996
 9.0000e-001 94140 -3.3741e+002 -3.8023e+002  8.7021e+001 44237 94330,94022,93996
 9.0000e-001 94117 -3.4924e+002 -3.7510e+002  1.0081e+002 44237 94186,93918,93866
 9.0000e-001 94094 -2.3330e+002 -2.6300e+002  1.4845e+002 44237 94258,93996,93970
 9.0000e-001 94071 -2.9357e+002 -2.1019e+002  1.2400e+002 44237 94402,93944,93918
 9.0000e-001 94048 -2.5288e+002 -3.9830e+002  1.5324e+002 44237 93866,93918,93892
 9.0000e-001 94212 -3.3760e+002 -3.8417e+002  1.1407e+002 44237 94330,93996,94186
 9.0000e-001 94235 -3.5317e+002 -3.2699e+002  1.3072e+002 44237 93840,94186,93866
 9.0000e-001 94284 -3.0097e+002 -2.7014e+002  8.8183e+001 44237 93918,94186,94258
 9.0000e-001 94307 -2.7537e+002 -2.2030e+002  1.0269e+002 44237 94402,93918,94258
 9.0000e-001 94356 -2.9824e+002 -1.3301e+002 -4.1550e+000 44237 93840,94022,94330
 9.0000e-001 94379 -3.1821e+002 -3.3571e+002  1.1800e+002 44237 93840,94330,94186
 9.0000e-001 94428 -3.2389e+002 -2.5208e+002  1.3764e+002 44237 93970,93944,94402
 9.0000e-001 94451 -2.9962e+002 -2.5938e+002  1.1296e+002 44237 93970,94402,94258
 9.0000e-001 94908 -1.3424e+002 -2.3593e+002  7.0873e+001 43890 94660,94790,94712
 9.0000e-001 94885 -9.3697e+001 -1.1390e+002  1.0805e+002 43890 94634,94790,94660
 9.0000e-001 94862 -1.7054e+002 -1.1473e+002  1.1907e+002 43890 94712,94764,94738
 9.0000e-001 94839 -1.1997e+002 -2.3443e+002  1.1788e+002 43890 94712,94790,94764
 9.0000e-001 94816 -5.5052e+001 -2.5758e+002  1.1624e+002 43890 94660,94712,94686
 9.0000e-001 95414 -2.1864e+002 -1.8111e+002  9.5823e+001 43186 95437,95143,95117
 9.0000e-001 95391 -2.2801e+002 -3.0421e+002  1.2836e+002 43186 95437,95117,95091
 9.0000e-001 95368 -1.1353e+002 -1.2857e+002  9.4946e+001 43186 95143,95221,95195
 9.0000e-001 95345 -3.5874e+002 -2.8547e+002  2.6404e+002 43186 95091,95273,95221
 9.0000e-001 95322 -2.4254e+002 -1.8341e+002  1.2604e+002 43186 95221,95273,95247
 9.0000e-001 95299 -1.8453e+002 -3.2096e+002  9.1825e+001 43186 95143,95195,95169
 9.0000e-001 95463 -2.3189e+002 -2.6482e+002  1.5344e+002 43186 95221,95143,95437
 9.0000e-001 95486 -2.2723e+002 -3.6254e+002  1.8841e+002 43186 95221,95437,95091
 9.0000e-001 96041 -3.2368e+002 -3.4181e+002  8.3289e+001 42782 95695,95851,95799
 9.0000e-001 96018 -2.9259e+002 -3.7378e+002  9.0375e+001 42782 95669,95851,95695
 9.0000e-001 95995 -3.3101e+002 -2.3988e+002  1.0349e+002 42782 95695,95747,95721
 9.0000e-001 95972 -2.4820e+002 -3.0983e+002  9.0077e+001 42782 95695,95799,95747
 9.0000e-001 95949 -2.2823e+002 -2.3355e+002  7.0247e+001 42782 95747,95799,95773
 9.0000e-001 95926 -4.1259e+002 -4.0488e+002  1.4785e+002 42782 95799,95851,95825
 9.0000e-001 95903 -3.8954e+002 -4.1545e+002  9.5628e+001 42782 95669,95877,95851
 9.0000e-001 96370 -3.3414e+002 -4.3105e+002  1.9796e+002 42420 96197,96275,96223
 9.0000e-001 96347 -3.1789e+002 -3.6881e+002  1.9021e+002 42420 96145,96275,96197
 9.0000e-001 96324 -3.1322e+002 -2.7410e+002  1.8410e+002 42420 96145,96197,96171
 9.0000e-001 96301 -2.4326e+002 -3.1840e+002  1.4064e+002 42420 96223,96275,96249
 9.0000e-001 96699 -2.1238e+002 -2.6136e+002  1.0911e+002 41816 96474,96578,96526
 9.0000e-001 96676 -1.5073e+002 -1.1065e+002 -1.8176e+001 41816 96474,96604,96578
 9.0000e-001 96653 -2.3073e+002 -1.5337e+002  1.5203e+002 41816 96526,96578,96552
 9.0000e-001 96630 -1.6760e+002 -2.2273e+002  5.3840e+001 41816 96474,96526,96500
 9.0000e-001 96947 -1.4886e+002 -3.5485e+002  1.4374e+002 41212 96722,96800,96748
 9.0000e-001 96924 -2.3876e+002 -2.8187e+002  1.8662e+002 41212 96722,96826,96800
 9.0000e-001 96901 -2.2764e+002 -1.9827e+002  9.8298e+001 41212 96722,96852,96826
 9.0000e-001 96878 -3.2165e+002 -4.3598e+002  1.1105e+002 41212 96748,96800,96774
 9.0000e-001 97097 -1.6880e+002 -1.3830e+002  1.5159e+002 40793 97120,97022,96996
 9.0000e-001 97074 -2.8938e+002 -3.7471e+002  1.0332e+002 40793 97192,97120,96996
 9.0000e-001 97146 -1.3345e+002 -3.1856e+002  1.4022e+002 40793 97324,97120,97048
 9.0000e-001 97169 -1.1476e+002 -4.6604e+002  1.3990e+002 40793 97048,97120,96970
 9.0000e-001 97218 -4.3362e+001 -2.6919e+002  1.0084e+002 40793 96970,97120,97192
 9.0000e-001 97350 -1.3345e+002 -3.1856e+002  1.4022e+002 40793 97022,97120,97324
 9.0000e-001 97878 -1.8260e+002 -3.9927e+002  8.8056e+001 40446 97901,97607,97555
 9.0000e-001 97855 -2.0316e+002 -2.8289e+002  9.9462e+001 40446 97973,97901,97555
 9.0000e-001 97832 -1.7931e+002 -2.4580e+002  7.4455e+001 40446 97973,97555,97737
 9.0000e-001 97809 -2.7311e+002 -3.6190e+002  1.0217e+002 40446 97633,97685,97659
 9.0000e-001 97786 -2.0374e+002 -3.2196e+002  8.5939e+001 40446 97633,97711,97685
 9.0000e-001 97763 -1.8599e+002 -4.7294e+002  1.0578e+002 40446 97555,97607,97581
 9.0000e-001 97927 -2.3628e+002 -5.0851e+002 -9.5138e+000 40446 97633,97607,97901
 9.0000e-001 97950 -2.0189e+002 -3.7702e+002  7.0386e+001 40446 97633,97901,97711
 9.0000e-001 97999 -1.6087e+002 -3.7464e+002  1.1563e+002 40446 97711,97901,97973
 9.0000e-001 98022 -1.3242e+002 -3.1655e+002  9.6106e+001 40446 97711,97973,97737
 9.0000e-001 98449 -1.5840e+002 -1.4080e+002  9.3709e+001 39935 98152,98204,98178
 9.0000e-001 98426 -2.1822e+002 -1.6808e+002  6.5599e+001 39935 98152,98230,98204
 9.0000e-001 98403 -2.9416e+002 -1.7332e+002  1.3606e+002 39935 98152,98256,98230
 9.0000e-001 98380 -2.1619e+002 -2.4409e+002  1.6196e+002 39935 98126,98256,98152
 9.0000e-001 98357 -2.9688e+002 -4.2137e+002  1.8341e+002 39935 98126,98282,98256
 9.0000e-001 98334 -1.9457e+002 -5.6414e+002  2.3477e+002 39935 98126,98308,98282
 9.0000e-001 98746 -5.1834e+002 -3.7569e+002  1.0756e+002 39531 98498,98602,98524
 9.0000e-001 98723 -3.7808e+002 -3.3126e+002  1.1541e+002 39531 98472,98602,98498
 9.0000e-001 98700 -4.7014e+002 -2.5216e+002  1.1662e+002 39531 98524,98602,98576
 9.0000e-001 98677 -2.8454e+002 -3.4444e+002  1.3030e+002 39531 98472,98628,98602
 9.0000e-001 98654 -9.3427e+002 -3.1281e+002  1.3961e+002 39531 98524,98576,98550
 9.0000e-001 99224 -3.1173e+002 -1.7439e+002  3.0138e+002 39027 99247,98956,98930
 9.0000e-001 99201 -3.6001e+002 -3.5672e+002  1.6440e+002 39027 99247,98930,98878
 9.0000e-001 99178 -2.7390e+002 -3.5509e+002  2.3887e+002 39027 99319,98982,98956
 9.0000e-001 99155 -2.0416e+002 -2.2265e+002  2.0570e+002 39027 98852,99060,98878
 9.0000e-001 99132 -2.6774e+002 -1.7035e+002  7.8610e+001 39027 98878,98930,98904
 9.0000e-001 99109 -3.8769e+002 -6.4601e+002  3.5012e+002 39027 98982,99060,99034
 9.0000e-001 99086 -5.1855e+002 -8.6391e+002  5.0542e+002 39027 98982,99034,99008
 9.0000e-001 99273 -2.6691e+002 -3.3229e+002  2.3475e+002 39027 99319,98956,99247
 9.0000e-001 99296 -2.6981e+002 -3.1712e+002  1.7293e+002 39027 99060,99247,98878
 9.0000e-001 99345 -2.6244e+002 -3.6437e+002  2.2346e+002 39027 99060,98982,99319
 9.0000e-001 99368 -2.5754e+002 -3.5760e+002  2.2004e+002 39027 99060,99319,99247
 9.0000e-001 99923 -3.9022e+002 -3.0165e+002  1.4869e+002 38523 99946,99655,99603
 9.0000e-001 99900 -2.9244e+002 -2.5458e+002  1.6447e+002 38523 99946,99603,99759
 9.0000e-001 99877 -1.4548e+002 -3.8093e+002  2.1105e+002 38523 100018,99707,99681
 9.0000e-001 99854 -3.1125e+002 -1.8478e+002  1.5479e+002 38523 99551,99759,99603
 9.0000e-001 99831 -2.9080e+002 -1.7003e+002  1.3741e+002 38523 99551,99603,99577
 9.0000e-001 99808 -3.0583e+002 -5.1059e+002  1.5195e+002 38523 99707,99759,99733
 9.0000e-001 99785 -2.5346e+002 -2.5571e+002  1.1867e+002 38523 99603,99655,99629
 9.0000e-001 99972 -3.0443e+002 -1.3925e+002  1.9933e+002 38523 99681,99655,99946
 9.0000e-001 99995 -2.0142e+002 -1.9533e+002  2.5416e+002 38523 100018,99681,99946
 9.0000e-001 100044 -2.3409e+002 -4.6448e+002  1.3218e+002 38523 99759,99707,100018
 9.0000e-001 100067 -3.4974e+002 -3.8492e+002  1.7316e+002 38523 99759,100018,99946
 9.0000e-001 100467 -1.3629e+002 -2.4725e+002  1.0107e+002 38125 100219,100349,100323
 9.0000e-001 100444 -4.4004e+000 -1.8732e+001  1.5471e+002 38125 100193,100349,100219
 9.0000e-001 100421 -8.8297e+001 -3.6555e+002  1.1889e+002 38125 100245,100323,100297
 9.0000e-001 100398 -9.3779e+001 -2.2490e+002  1.2966e+002 38125 100219,100323,100245
 9.0000e-001 100375 -1.9319e+002 -3.6217e+002  2.2429e+002 38125 100245,100297,100271
 9.0000e-001 100666 -3.0073e+002 -4.0256e+002  1.3258e+002 37607 100689,100568,100542
 9.0000e-001 100643 -2.5745e+002 -2.7533e+002  1.2193e+002 37607 100689,100542,100490
 9.0000e-001 100620 -2.6706e+002 -2.0422e+002  1.3018e+002 37607 100490,100542,100516
 9.0000e-001 100715 -2.5984e+002 -2.7977e+002  1.0770e+002 37607 100594,100568,100689
 9.0000e-001 100738 -2.8390e+002 -2.4411e+002  1.0847e+002 37607 100594,100689,100490
 9.0000e-001 100937 -2.5217e+002 -1.4307e+002  2.2814e+002 37017 100960,100813,100787
 9.0000e-001 100914 -2.3449e+002 -1.6223e+002  1.5444e+002 37017 100960,100787,100761
 9.0000e-001 100891 -3.3774e+002 -1.2217e+002  2.1437e+002 37017 100813,100865,100839
 9.0000e-001 100986 -2.9381e+002 -2.2601e+002  2.4211e+002 37017 100865,100813,100960
 9.0000e-001 101009 -2.6187e+002 -2.2317e+002  1.6231e+002 37017 100865,100960,100761
 9.0000e-001 101519 -4.3953e+002 -3.9088e+002  1.9186e+002 36613 101222,101274,101248
 9.0000e-001 101496 -2.7098e+002 -2.6675e+002  1.3271e+002 36613 101222,101352,101274
 9.0000e-001 101473 -2.8379e+002 -3.7498e+002  1.0369e+002 36613 101274,101352,101326
 9.0000e-001 101450 -2.5259e+002 -1.8097e+002  1.7188e+002 36613 101222,101378,101352
 9.0000e-001 101427 -1.0382e+002 -6.8280e+002  2.0104e+002 36613 101274,101326,101300
 9.0000e-001 101404 -2.4885e+002 -8.0000e+001  5.1586e+001 36613 101196,101378,101222
 9.0000e-001 101718 -2.5962e+002 -1.4772e+002  2.0145e+002 36308 101594,101646,101620
 9.0000e-001 101695 -2.6663e+002 -1.3078e+002  1.7022e+002 36308 101568,101646,101594
 9.0000e-001 101672 -2.0470e+002 -1.7368e+002  1.7762e+002 36308 101542,101646,101568
 9.0000e-001 102098 -2.9523e+002 -2.0211e+002  1.3315e+002 35918 102121,101954,101876
 9.0000e-001 102075 -2.4249e+002 -2.5650e+002  1.0941e+002 35918 102121,101876,101824
 9.0000e-001 102052 -3.0618e+002 -2.0848e+002  1.1167e+002 35918 101876,101954,101928
 9.0000e-001 102029 -4.2950e+002 -8.6020e+001  1.2714e+002 35918 101876,101928,101902
 9.0000e-001 102006 -2.1822e+002 -1.8170e+002  6.3427e+001 35918 101824,101876,101850
 9.0000e-001 102147 -3.1409e+002 -2.5238e+002  1.5832e+002 35918 101980,101954,102121
 9.0000e-001 102170 -2.6151e+002 -3.1141e+002  1.2927e+002 35918 101980,102121,101824
 9.0000e-001 102489 -2.6448e+002 -5.9117e+002  2.0370e+002 35514 102241,102345,102267
 9.0000e-001 102466 -3.3893e+002 -6.0023e+002  1.9154e+002 35514 102215,102345,102241
 9.0000e-001 102443 -2.7324e+002 -6.5283e+002  2.0313e+002 35514 102215,102371,102345
 9.0000e-001 102420 -2.3213e+002 -5.4946e+002  2.1824e+002 35514 102267,102345,102293
 9.0000e-001 102397 -1.5047e+002 -3.7205e+002  2.3893e+002 35514 102293,102345,102319
 9.0000e-001 102820 -2.2841e+002 -2.3702e+002  7.6779e+001 35224 102843,102699,102647
 9.0000e-001 102797 -3.7467e+002 -2.8071e+002  1.5286e+002 35224 102971,102725,102699
 9.0000e-001 102774 -2.9058e+002 -3.2721e+002  1.7871e+002 35224 102595,102725,102621
 9.0000e-001 102751 -1.2326e+002 -1.2033e+002  1.2139e+002 35224 102647,102699,102673
 9.0000e-001 102869 -2.7976e+002 -2.5695e+002  1.3898e+002 35224 102971,102699,102843
 9.0000e-001 102997 -2.5683e+002 -3.2419e+002  1.5449e+002 35224 102621,102725,102971
 9.0000e-001 103020 -1.4799e+002 -2.9254e+002  1.5104e+002 35224 102621,102971,102843
 9.0000e-001 103349 -3.5970e+002 -2.8223e+002  1.7375e+002 34820 103150,103228,103176
 9.0000e-001 103326 -3.3242e+002 -3.0289e+002  1.7046e+002 34820 103124,103228,103150
 9.0000e-001 103303 -2.8972e+002 -2.8268e+002  2.8455e+002 34820 103176,103228,103202
 9.0000e-001 103280 -2.1429e+002 -2.4923e+002  1.9953e+002 34820 103124,103254,103228
 9.0000e-001 103806 -3.7508e+002 -2.2310e+002  1.4537e+002 34530 103558,103662,103636
 9.0000e-001 103783 -3.0605e+002 -2.4211e+002  8.7208e+001 34530 103558,103688,103662
 9.0000e-001 103760 -3.3897e+002 -3.4204e+002  9.4795e+001 34530 103532,103688,103558
 9.0000e-001 103737 -2.6262e+002 -3.2218e+002  1.5001e+002 34530 103584,103636,103610
 9.0000e-001 103714 -5.5959e+002 -3.0077e+002  1.7459e+002 34530 103558,103636,103584
 9.0000e-001 104263 -1.8776e+002 -1.8204e+002  1.4069e+002 34019 103989,104119,104015
 9.0000e-001 104240 -1.4369e+002 -1.6542e+002  1.3517e+002 34019 103989,104145,104119
 9.0000e-001 104217 -1.8246e+002 -2.4731e+002  8.8479e+001 34019 104015,104067,104041
 9.0000e-001 104194 -2.1511e+002 -2.6553e+002  1.2082e+002 34019 104015,104119,104067
 9.0000e-001 104171 -2.2045e+002 -1.6548e+002  1.1370e+002 34019 104067,104119,104093
 9.0000e-001 104641 -3.0203e+002 -1.7405e+002  1.1740e+002 33351 104419,104497,104445
 9.0000e-001 104618 -2.5604e+002 -1.3148e+002  1.3921e+002 33351 104393,104497,104419
 9.0000e-001 104595 -4.4426e+002 -2.1861e+002  1.0706e+002 33351 104367,104497,104393
 9.0000e-001 104572 -3.0781e+002 -1.8699e+002  9.8951e+001 33351 104445,104497,104471
 9.0000e-001 104549 -3.7655e+002 -1.5644e+002  7.0902e+001 33351 104367,104523,104497
 9.0000e-001 105019 -2.6053e+002 -4.8642e+002  2.5142e+002 32861 104823,104901,104875
 9.0000e-001 104996 -3.3913e+002 -5.2572e+002  2.1314e+002 32861 104745,104901,104823
 9.0000e-001 104973 -3.9347e+002 -5.4418e+002  2.4276e+002 32861 104823,104875,104849
 9.0000e-001 104950 -3.3739e+002 -5.0224e+002  2.6150e+002 32861 104745,104823,104797
 9.0000e-001 104927 -3.6600e+002 -1.9329e+002  2.6851e+002 32861 104745,104797,104771
 9.0000e-001 105397 -1.7731e+002 -3.3613e+002  1.5290e+002 32457 105149,105253,105175
 9.0000e-001 105374 -3.0373e+002 -3.1407e+002  1.3583e+002 32457 105149,105279,105253
 9.0000e-001 105351 -1.2846e+002 -2.6304e+002  1.4982e+002 32457 105123,105279,105149
 9.0000e-001 105328 -3.8122e+002 -8.6232e+001  3.2677e+002 32457 105175,105227,105201
 9.0000e-001 105305 -3.6022e+002 -4.0995e+002  1.8847e+002 32457 105175,105253,105227
 9.0000e-001 105726 -1.0593e+002 -3.7123e+002  1.7247e+002 32003 105527,105605,105553
 9.0000e-001 105703 -2.0752e+002 -3.0652e+002  1.5692e+002 32003 105501,105605,105527
 9.0000e-001 105680 -5.4374e+001 -2.4399e+002  1.5379e+002 32003 105501,105631,105605
 9.0000e-001 105657 -5.3798e+001 -2.0821e+002  1.7043e+002 32003 105553,105605,105579
 9.0000e-001 106104 -3.3799e+002 -2.1981e+002  1.5682e+002 31492 106127,105908,105856
 9.0000e-001 106081 -3.2208e+002 -2.0318e+002  9.0485e+001 31492 106127,105856,105830
 9.0000e-001 106058 -2.5139e+002 -3.3237e+002  1.7127e+002 31492 105856,105908,105882
 9.0000e-001 106035 -2.1964e+002 -2.4062e+002  7.5329e+001 31492 105830,105986,105960
 9.0000e-001 106012 -1.9194e+002 -3.2521e+002  2.2396e+002 31492 105908,105960,105934
 9.0000e-001 106153 -3.5289e+002 -2.6865e+002  1.5140e+002 31492 105960,105908,106127
 9.0000e-001 106176 -3.5261e+002 -2.9591e+002  9.3084e+001 31492 105960,106127,105830
 9.0000e-001 106375 -2.8413e+002 -2.3102e+002  1.9374e+002 30788 106398,106277,106251
 9.0000e-001 106352 -3.1757e+002 -3.6776e+002  1.9709e+002 30788 106398,106251,106225
 9.0000e-001 106329 -4.0541e+002 -3.2781e+002  2.6510e+002 30788 106600,106199,106303
 9.0000e-001 106424 -4.2830e+002 -4.2152e+002  1.4441e+002 30788 106470,106398,106303
 9.0000e-001 106447 -3.1712e+002 -3.6277e+002  2.0841e+002 30788 106600,106303,106398
 9.0000e-001 106496 -1.1784e+002 -2.8827e+002  1.6607e+002 30788 106277,106398,106470
 9.0000e-001 106626 -4.5862e+002 -3.9778e+002  3.0711e+002 30788 106225,106199,106600
 9.0000e-001 106649 -3.9835e+002 -4.3737e+002  2.4976e+002 30788 106225,106600,106398
 9.0000e-001 106799 -1.5906e+002 -3.7462e+002  6.4322e+001 30426 106698,106750,106724
 9.0000e-001 106776 -9.8267e+001 -2.3249e+002  9.4424e+001 30426 106672,106750,106698
 9.0000e-001 107356 -3.2156e+002 -2.3541e+002  1.3092e+002 29972 107010,107166,107114
 9.0000e-001 107333 -3.1071e+002 -2.2706e+002  1.3631e+002 29972 106984,107166,107010
 9.0000e-001 107310 -3.2582e+002 -1.2984e+002  8.3570e+001 29972 107010,107114,107088
 9.0000e-001 107287 -3.0183e+002 -1.2221e+002  1.0432e+002 29972 107114,107166,107140
 9.0000e-001 107264 -3.1555e+002 -2.5987e+002  1.5554e+002 29972 106984,107192,107166
 9.0000e-001 107241 -3.6508e+002 -2.4783e+002  8.6780e+001 29972 107010,107088,107036
 9.0000e-001 107218 -2.9524e+002 -2.1980e+002  9.9625e+001 29972 107036,107088,107062
 9.0000e-001 107783 -3.1432e+002 -3.9876e+002  2.0705e+002 29724 107878,107806,107590
 9.0000e-001 107760 -4.5715e+002 -4.4812e+002  1.8831e+002 29724 107806,107512,107486
 9.0000e-001 107737 -3.1086e+002 -3.8979e+002  2.1529e+002 29724 107878,107590,107538
 9.0000e-001 107714 -3.3604e+002 -4.7028e+002  2.4237e+002 29724 107950,107460,107616
 9.0000e-001 107691 -3.2941e+002 -4.6331e+002  2.2677e+002 29724 107460,107642,107616
 9.0000e-001 107668 -2.2379e+002 -2.8791e+002  2.5430e+002 29724 107538,107590,107564
 9.0000e-001 107832 -2.3853e+002 -4.1281e+002  2.6597e+002 29724 107616,107590,107806
 9.0000e-001 107855 -3.3918e+002 -4.7407e+002  2.3543e+002 29724 107950,107616,107806
 9.0000e-001 107904 -3.3389e+002 -3.8576e+002  2.3981e+002 29724 107512,107806,107878
 9.0000e-001 107927 -2.7601e+002 -3.4935e+002  2.5655e+002 29724 107512,107878,107538
 9.0000e-001 107976 -2.2279e+002 -4.7370e+002  2.6715e+002 29724 107486,107460,107950
 9.0000e-001 107999 -3.2513e+002 -5.0462e+002  2.3035e+002 29724 107486,107950,107806
 9.0000e-001 108296 -3.3269e+002 -2.8264e+002  1.6456e+002 29206 108319,108100,108048
 9.0000e-001 108273 -1.9184e+002 -2.5465e+002  2.0797e+002 29206 108319,108048,108022
 9.0000e-001 108250 -1.1700e+002 -2.9677e+002  2.5488e+002 29206 108391,108152,108126
 9.0000e-001 108227 -4.2590e+002 -1.9073e+002  2.2034e+002 29206 108048,108100,108074
 9.0000e-001 108204 -1.5978e+002 -3.8869e+002  2.2419e+002 29206 108022,108178,108152
 9.0000e-001 108345 -2.4766e+002 -1.6720e+002  2.4155e+002 29206 108126,108100,108319
 9.0000e-001 108368 -1.4817e+002 -2.4596e+002  2.8144e+002 29206 108391,108126,108319
 9.0000e-001 108417 -1.9000e+002 -3.5680e+002  2.2252e+002 29206 108022,108152,108391
 9.0000e-001 108440 -2.1451e+002 -3.1798e+002  2.5098e+002 29206 108022,108391,108319
 9.0000e-001 108688 -4.3169e+002 -4.0740e+002  2.3448e+002 28595 108711,108541,108515
 9.0000e-001 108665 -5.8986e+002 -4.3553e+002  3.2539e+002 28595 108783,108711,108515
 9.0000e-001 108642 -6.8209e+002 -3.9369e+002  3.2188e+002 28595 108783,108515,108489
 9.0000e-001 108619 -6.6674e+002 -5.0293e+002  1.6551e+002 28595 108463,108593,108489
 9.0000e-001 108737 -3.8857e+002 -3.1642e+002  1.5583e+002 28595 108567,108541,108711
 9.0000e-001 108760 -3.7098e+002 -3.5947e+002  2.8089e+002 28595 108567,108711,108593
 9.0000e-001 108809 -4.2127e+002 -4.5320e+002  2.5989e+002 28595 108593,108711,108783
 9.0000e-001 108832 -5.7057e+002 -4.4734e+002  2.2996e+002 28595 108593,108783,108489
 9.0000e-001 109033 -1.7160e+002 -2.1188e+002  1.2828e+002 28091 108909,108961,108935
 9.0000e-001 109010 -2.5806e+002 -2.1523e+002  1.0558e+002 28091 108857,108961,108909
 9.0000e-001 108987 -3.6848e+002 -3.0173e+002  2.3362e+002 28091 108857,108909,108883
 9.0000e-001 109136 -2.6457e+002 -6.2221e+002  1.1534e+002 27587 109058,109110,109084
 9.0000e-001 109695 -2.2554e+002 -2.8280e+002  9.7209e+001 26969 109718,109375,109323
 9.0000e-001 109672 -2.3451e+002 -2.7641e+002  1.1898e+002 26969 109718,109323,109505
 9.0000e-001 109649 -3.0000e+002 -1.1692e+002  7.1851e+001 26969 109790,109453,109427
 9.0000e-001 109626 -1.2445e+002 -2.3181e+002  1.2980e+002 26969 109323,109375,109349
 9.0000e-001 109603 -3.2944e+002 -3.7491e+002  1.7105e+002 26969 109323,109531,109505
 9.0000e-001 109580 -2.1137e+002 -3.4839e+002  8.5146e+001 26969 109375,109427,109401
 9.0000e-001 109557 -3.3754e+002 -1.5550e+002  7.6386e+001 26969 109453,109505,109479
 9.0000e-001 109744 -2.5267e+002 -3.1086e+002  6.2298e+001 26969 109427,109375,109718
 9.0000e-001 109767 -1.9959e+002 -1.9304e+002  7.3729e+001 26969 109790,109427,109718
 9.0000e-001 109816 -3.5817e+002 -1.9332e+002  1.0601e+002 26969 109505,109453,109790
 9.0000e-001 109839 -2.9041e+002 -2.9147e+002  1.2056e+002 26969 109505,109790,109718
 9.0000e-001 110266 -2.5352e+002 -3.8610e+002  1.4966e+002 26515 110361,110289,110099
 9.0000e-001 110243 -2.2656e+002 -2.9884e+002  2.0491e+002 26515 110289,109995,109943
 9.0000e-001 110220 -2.5335e+002 -3.9138e+002  1.7067e+002 26515 110361,110099,110021
 9.0000e-001 110197 -2.0584e+002 -5.0636e+002  6.6281e+001 26515 110047,110099,110073
 9.0000e-001 110174 -2.3213e+002 -5.9642e+002  6.8612e+001 26515 110021,110099,110047
 9.0000e-001 110151  4.0224e+001  5.6007e+001  3.2542e+002 26515 109943,109995,109969
 9.0000e-001 110315 -4.5944e+002 -2.8363e+002  1.2749e+002 26515 110125,110099,110289
 9.0000e-001 110338 -2.6055e+002 -8.3015e+001  2.6178e+002 26515 110125,110289,109943
 9.0000e-001 110387 -2.4548e+002 -3.3405e+002  1.3782e+002 26515 109995,110289,110361
 9.0000e-001 110410 -2.5365e+002 -3.6025e+002  1.5641e+002 26515 109995,110361,110021
 9.0000e-001 110609 -1.1263e+002 -3.6797e+002  1.5198e+002 25789 110906,110762,110632
 9.0000e-001 110586 -1.2186e+002 -4.7186e+002  1.7132e+002 25789 110762,110433,110537
 9.0000e-001 110563 -2.8707e+002 -3.9396e+002  2.4685e+002 25789 110834,110459,110433
 9.0000e-001 110658 -1.7345e+002 -3.4630e+002  1.9424e+002 25789 110906,110632,110834
 9.0000e-001 110788 -8.1308e+001 -2.4247e+002  9.9366e+001 25789 110511,110632,110762
 9.0000e-001 110811 -1.0761e+002 -3.7009e+002  1.7416e+002 25789 110511,110762,110537
 9.0000e-001 110860 -1.8110e+002 -3.4534e+002  2.3503e+002 25789 110485,110459,110834
 9.0000e-001 110883 -2.2239e+002 -3.7281e+002  2.0589e+002 25789 110485,110834,110632
 9.0000e-001 110932 -2.3253e+002 -4.0886e+002  1.5428e+002 25789 110433,110762,110906
 9.0000e-001 110955 -2.8216e+002 -3.7614e+002  1.8825e+002 25789 110433,110906,110834
 9.0000e-001 111350 -3.2738e+002 -3.5277e+002  2.3890e+002 25228 111445,111373,111186
 9.0000e-001 111327 -3.6198e+002 -4.1460e+002  1.3015e+002 25228 110978,111186,111004
 9.0000e-001 111304 -3.5323e+002 -4.3994e+002  1.9891e+002 25228 111373,111108,111082
 9.0000e-001 111281 -2.7665e+002 -4.7513e+002  1.9240e+002 25228 111134,111186,111160
 9.0000e-001 111258 -3.1731e+002 -3.2915e+002  2.3972e+002 25228 111445,111186,111134
 9.0000e-001 111235 -3.0069e+002 -3.0909e+002  1.4081e+002 25228 111517,111030,111004
 9.0000e-001 111212 -4.3729e+002 -3.7131e+002  2.0108e+002 25228 111030,111082,111056
 9.0000e-001 111399 -3.3764e+002 -4.2076e+002  2.2675e+002 25228 111004,111186,111373
 9.0000e-001 111422 -2.6838e+002 -3.4028e+002  1.8844e+002 25228 111517,111004,111373
 9.0000e-001 111471 -3.3831e+002 -3.4557e+002  2.0125e+002 25228 111108,111373,111445
 9.0000e-001 111494 -3.2558e+002 -3.1595e+002  2.0266e+002 25228 111108,111445,111134
 9.0000e-001 111543 -3.7728e+002 -3.3714e+002  1.6765e+002 25228 111082,111030,111517
 9.0000e-001 111566 -3.4473e+002 -3.7722e+002  2.1682e+002 25228 111082,111517,111373
 9.0000e-001 112074 -2.9960e+002 -2.9005e+002  1.8807e+002 24338 112097,111907,111881
 9.0000e-001 112051 -3.6850e+002 -2.9194e+002  1.4251e+002 24338 112097,111881,111829
 9.0000e-001 112028 -1.9664e+002 -3.2771e+002  1.1749e+002 24338 111829,111881,111855
 9.0000e-001 112005 -4.4162e+002 -4.3197e+002  1.2684e+002 24338 111777,111933,111829
 9.0000e-001 111982 -5.0129e+002 -1.3338e+002  1.5237e+002 24338 111751,111933,111777
 9.0000e-001 111959 -4.5990e+002 -5.2793e+002  1.8246e+002 24338 111777,111829,111803
 9.0000e-001 112123 -3.6560e+002 -3.9947e+002  1.5590e+002 24338 111933,111907,112097
 9.0000e-001 112146 -3.9120e+002 -3.0994e+002  1.2998e+002 24338 111933,112097,111829
 9.0000e-001 112443 -4.5059e+002 -2.8864e+002  1.8019e+002 23998 112466,112299,112247
 9.0000e-001 112420 -4.7832e+002 -4.9217e+002  1.6281e+002 23998 112466,112247,112221
 9.0000e-001 112397 -4.4876e+002 -4.9086e+002  2.5483e+002 23998 112169,112325,112221
 9.0000e-001 112374 -4.1621e+002 -4.2347e+002  2.6593e+002 23998 112169,112221,112195
 9.0000e-001 112351 -1.9667e+002 -2.5902e+002  2.2229e+002 23998 112247,112299,112273
 9.0000e-001 112492 -4.2783e+002 -3.1151e+002  3.0159e+002 23998 112325,112299,112466
 9.0000e-001 112515 -4.6742e+002 -4.2995e+002  2.5819e+002 23998 112325,112466,112221
 9.0000e-001 113200 -3.9215e+002 -4.3345e+002  2.9796e+002 23480 112779,112961,112805
 9.0000e-001 113177 -4.0340e+002 -3.3725e+002  1.5605e+002 23480 112779,112987,112961
 9.0000e-001 113154 -1.4839e+002 -2.5263e+002  2.0464e+002 23480 112805,112961,112883
 9.0000e-001 113131 -2.7360e+002 -3.9939e+002  2.0843e+002 23480 112883,112935,112909
 9.0000e-001 113108 -3.3321e+002 -3.3035e+002  2.0772e+002 23480 112883,112961,112935
 9.0000e-001 113085 -1.8114e+002 -2.2193e+002  1.0235e+002 23480 112831,112883,112857
 9.0000e-001 113062 -2.4320e+002 -2.6148e+002  1.2793e+002 23480 112805,112883,112831
 9.0000e-001 113039 -4.9735e+002 -2.5843e+002  1.7645e+002 23480 112779,113013,112987
 9.0000e-001 113676 -3.4819e+002 -2.0286e+002  2.6043e+002 23018 113699,113434,113356
 9.0000e-001 113653 -3.1904e+002 -2.0339e+002  1.6371e+002 23018 113771,113699,113356
 9.0000e-001 113630 -2.9251e+002 -2.9423e+002  1.2568e+002 23018 113771,113356,113512
 9.0000e-001 113607 -2.3281e+002 -3.7332e+002  1.8102e+002 23018 113330,113512,113356
 9.0000e-001 113584 -7.3548e+002 -3.3582e+002  3.9793e+002 23018 113356,113434,113382
 9.0000e-001 113561 -9.1865e+001 -3.5179e+002  1.7786e+002 23018 113304,113512,113330
 9.0000e-001 113538 -6.9504e+002 -8.0954e+001  1.7742e+002 23018 113382,113434,113408
 9.0000e-001 113725 -3.8551e+002 -2.8855e+002  2.5594e+002 23018 113460,113434,113699
 9.0000e-001 113748 -4.0608e+002 -3.0702e+002  1.8617e+002 23018 113460,113699,113486
 9.0000e-001 113797 -3.8877e+002 -3.3557e+002  1.9000e+002 23018 113486,113699,113771
 9.0000e-001 113820 -3.2207e+002 -3.5976e+002  1.3223e+002 23018 113486,113771,113512
 9.0000e-001 114424 -3.8231e+002 -3.5888e+002  9.7742e+001 22514 114447,114133,114029
 9.0000e-001 114401 -3.8326e+002 -4.3473e+002  9.8384e+001 22514 114447,114029,114237
 9.0000e-001 114378 -3.1749e+002 -2.4984e+002  6.7761e+001 22514 114133,114211,114185
 9.0000e-001 114355 -5.2598e+002 -2.8272e+002  3.4131e+001 22514 114133,114185,114159
 9.0000e-001 114332 -3.1370e+002 -4.4964e+002  2.1548e+002 22514 114003,114237,114029
 9.0000e-001 114309 -4.0550e+002 -2.9186e+002  5.8418e+001 22514 114029,114133,114055
 9.0000e-001 114286 -4.0635e+002 -2.8544e+002  5.8117e+001 22514 114055,114133,114107
 9.0000e-001 114263 -3.2618e+002  6.2037e+000  2.3317e+001 22514 114055,114107,114081
 9.0000e-001 114473 -4.0102e+002 -3.1560e+002  1.2508e+002 22514 114211,114133,114447
 9.0000e-001 114496 -3.8848e+002 -3.7280e+002  1.2420e+002 22514 114211,114447,114237
 9.0000e-001 114597 -2.2126e+002 -5.5371e+002  3.1858e+002 22316 114620,114571,114545
 9.0000e-001 114646 -2.2126e+002 -5.5371e+002  3.1858e+002 22316 114519,114571,114620
 9.0000e-001 115127 -5.1837e+002 -3.5433e+002  1.6870e+002 21612 115150,114905,114879
 9.0000e-001 115104 -5.7938e+002 -2.0844e+002  1.8343e+002 21612 115150,114879,114853
 9.0000e-001 115081 -4.2992e+002 -9.4671e+001  2.6430e+002 21612 115222,114931,114905
 9.0000e-001 115058 -4.6677e+002 -2.6855e+002  2.2320e+002 21612 115222,114905,115009
 9.0000e-001 115035 -2.3856e+002 -3.4108e+002  1.7158e+002 21612 114957,115009,114983
 9.0000e-001 115176 -4.8099e+002 -2.4597e+002  1.6225e+002 21612 115009,114905,115150
 9.0000e-001 115199 -5.2869e+002 -8.0006e+001  1.7112e+002 21612 115009,115150,114853
 9.0000e-001 115248 -4.1624e+002 -2.5684e+002  2.2261e+002 21612 114957,114931,115222
 9.0000e-001 115271 -4.4769e+002 -4.2134e+002  1.8025e+002 21612 114957,115222,115009
 9.0000e-001 115519 -1.4788e+002  9.2971e+001  1.4904e+002 21208 115542,115372,115320
 9.0000e-001 115496 -1.4981e+001  1.8328e+002  4.1835e+000 21208 115542,115320,115294
 9.0000e-001 115473 -9.4532e+001 -2.3737e+002  2.1508e+002 21208 115320,115372,115346
 9.0000e-001 115450 -3.1135e+002 -9.3184e+001  6.0014e+001 21208 115294,115424,115398
 9.0000e-001 115568 -2.0239e+002  2.9694e+001  1.9250e+002 21208 115398,115372,115542
 9.0000e-001 115591 -1.6294e+002 -6.9963e+001  7.3343e+001 21208 115398,115542,115294
 9.0000e-001 115839 -4.1157e+002 -2.5118e+002  2.2899e+002 20668 115862,115640,115614
 9.0000e-001 115816 -4.4449e+002 -2.6857e+002  2.4550e+002 20668 115862,115614,115744
 9.0000e-001 115793 -4.9422e+002 -2.1000e+002  2.2611e+002 20668 115640,115718,115692
 9.0000e-001 115770 -5.1812e+002 -2.1697e+002  2.2612e+002 20668 115640,115692,115666
 9.0000e-001 115888 -4.5646e+002 -2.0871e+002  2.4268e+002 20668 115718,115640,115862
 9.0000e-001 115911 -4.9506e+002 -2.4589e+002  2.6700e+002 20668 115718,115862,115744
 9.0000e-001 116134 -2.2097e+002 -3.6986e+002  2.1103e+002 20264 115958,116036,115984
 9.0000e-001 116111 -1.3522e+002 -3.3032e+002  2.0121e+002 20264 115958,116062,116036
 9.0000e-001 116088 -1.4261e+002 -3.5164e+002  2.2704e+002 20264 115984,116036,116010
 9.0000e-001 116384 -4.1009e+002 -2.5458e+002  2.3406e+002 19924 116407,116211,116159
 9.0000e-001 116361 -3.9240e+002 -3.9134e+002  2.0629e+002 19924 116407,116159,116263
 9.0000e-001 116338 -3.8859e+002 -1.7469e+002  2.2743e+002 19924 116159,116211,116185
 9.0000e-001 116315 -2.7694e+002 -4.0425e+002  2.7688e+002 19924 116159,116289,116263
 9.0000e-001 116433 -4.0725e+002 -1.7683e+002  2.6318e+002 19924 116237,116211,116407
 9.0000e-001 116456 -3.4247e+002 -2.7072e+002  2.5186e+002 19924 116237,116407,116263
 9.0000e-001 116608 -3.1667e+002 -1.1953e+002  1.6731e+002 19520 116703,116631,116533
 9.0000e-001 116585 -3.0881e+002 -1.4157e+002  1.5054e+002 19520 116631,116507,116481
 9.0000e-001 116657 -2.7974e+002 -1.4264e+002  1.7835e+002 19520 116559,116533,116631
 9.0000e-001 116680 -2.9908e+002 -1.9563e+002  1.5703e+002 19520 116559,116631,116481
 9.0000e-001 116729 -3.1667e+002 -1.1953e+002  1.6731e+002 19520 116507,116631,116703
 9.0000e-001 116952 -3.0106e+002 -2.5052e+002  3.5800e+002 19208 116975,116802,116776
 9.0000e-001 116929 -3.7284e+002 -4.7996e+002  2.0958e+002 19208 116975,116776,116880
 9.0000e-001 116906 -4.2943e+002 -1.8372e+002  2.4927e+002 19208 116802,116854,116828
 9.0000e-001 117001 -2.4583e+002 -2.1105e+002  3.7623e+002 19208 116854,116802,116975
 9.0000e-001 117024 -1.0258e+002 -2.7283e+002  3.0289e+002 19208 116854,116975,116880
 9.0000e-001 117428 -3.4824e+002 -1.3749e+002  1.8926e+002 18796 117154,117206,117180
 9.0000e-001 117405 -2.4225e+002 -2.4959e+002  1.7400e+002 18796 117154,117284,117206
 9.0000e-001 117382 -1.6726e+002 -2.1053e+002  1.9998e+002 18796 117154,117310,117284
 9.0000e-001 117359 -1.5107e+002 -1.7190e+002  2.3254e+002 18796 117206,117284,117258
 9.0000e-001 117336 -7.6900e+001 -4.3714e+001  3.0702e+002 18796 117206,117258,117232
 9.0000e-001 117529 -1.6634e+002 -8.0749e+001  9.5267e+001 18228 117810,117552,117477
 9.0000e-001 117578 -3.6310e+002 -2.2869e+002  1.4584e+002 18228 117682,117552,117503
 9.0000e-001 117708 -1.2369e+002 -1.1066e+002  9.3424e+001 18228 117477,117552,117682
 9.0000e-001 117836 -2.5647e+002 -2.3558e+002  1.4455e+002 18228 117451,117552,117810
 9.0000e-001 118364 -4.0791e+002 -1.5261e+002  1.4129e+002 17722 118067,118223,118093
 9.0000e-001 118341 -3.8056e+002 -5.4818e+001  1.3950e+002 17722 118041,118223,118067
 9.0000e-001 118318 -2.4104e+002 -1.3135e+002  1.0330e+002 17722 118093,118223,118197
 9.0000e-001 118295 -6.2616e+002 -5.8088e+002  3.6472e+002 17722 118119,118197,118171
 9.0000e-001 118272 -1.5609e+002 -4.9583e+001  1.5865e+002 17722 118093,118197,118119
 9.0000e-001 118249 -5.6227e+002 -1.8922e+002  2.8937e+002 17722 118119,118171,118145
 9.0000e-001 118514 -5.6298e+002 -2.3020e+002  1.9674e+002 17268 118387,118439,118413
 9.0000e-001 118491 -2.3401e+001 -2.4004e+002  2.1721e+002 17268 118387,118465,118439
 9.0000e-001 118916 -5.4455e+002 -2.0623e+002  1.2239e+002 16828 118668,118772,118694
 9.0000e-001 118893 -6.9798e+002 -2.5843e+002  1.0751e+002 16828 118668,118798,118772
 9.0000e-001 118870 -7.5336e+002 -4.2971e+002  8.5328e+001 16828 118642,118798,118668
 9.0000e-001 118847 -3.1563e+002 -1.3776e+002  2.6270e+002 16828 118694,118746,118720
 9.0000e-001 118824 -5.8986e+002 -3.6739e+002  1.1516e+002 16828 118694,118772,118746
 9.0000e-001 119316 -2.4887e+002 -1.8429e+002  2.5735e+002 16422 119042,119172,119094
 9.0000e-001 119293 -3.4680e+002 -1.9195e+002  2.7555e+002 16422 119042,119198,119172
 9.0000e-001 119270 -3.8415e+002 -1.4692e+002  1.6128e+002 16422 119042,119094,119068
 9.0000e-001 119247 -1.8348e+002 -9.6855e+001  3.5748e+002 16422 119094,119146,119120
 9.0000e-001 119224 -2.1860e+002 -1.3246e+002  2.7163e+002 16422 119094,119172,119146
 9.0000e-001 119466 -5.8556e+002 -1.8581e+002 -2.6696e+001 16010 119339,119391,119365
 9.0000e-001 119443 -2.6684e+002 -2.1824e+002  2.0003e+002 16010 119339,119417,119391
 9.0000e-001 119616 -1.7378e+002 -6.8418e+001  2.1447e+002 15547 119515,119567,119541
 9.0000e-001 119593  8.7749e+001  1.3837e+002  4.2948e+002 15547 119489,119567,119515
 9.0000e-001 119719 -4.6626e+002 -1.9081e+002  2.0532e+002 421 119641,119693,119667
 1.0000e+000 69562 -5.2147e+002 -2.4006e+002  3.6621e+002 69254 69484,69536,69510
 1.0000e+000 70009 -1.7721e+002 -1.7694e+002  1.8093e+002 68942 69686,69842,69816
 1.0000e+000 69986 -1.3933e+002 -3.6315e+001  1.1179e+002 68942 69686,69868,69842
 1.0000e+000 69963  2.3528e+001  1.2260e+001  2.5958e+002 68942 69686,69816,69712
 1.0000e+000 69940 -6.0067e+001 -4.5684e+001  3.7862e+002 68942 69712,69790,69738
 1.0000e+000 69917 -2.3533e+002 -5.7730e+002  3.0031e+002 68942 69712,69816,69790
 1.0000e+000 69894  7.1409e+000 -3.2089e+002  1.5894e+002 68942 69738,69790,69764
 1.0000e+000 70110 -2.1822e+002 -6.0013e+001  1.2806e+002 68766 70032,70084,70058
 1.0000e+000 70746 -1.2866e+002 -9.6710e+001  1.3995e+002 68448 70400,70556,70426
 1.0000e+000 70723 -3.9342e+002 -1.4945e+002  1.9128e+002 68448 70374,70556,70400
 1.0000e+000 70700 -1.8374e+002 -8.7404e+001  8.8898e+001 68448 70426,70556,70478
 1.0000e+000 70677 -3.1701e+002 -6.4404e+001  9.8163e+001 68448 70478,70556,70504
 1.0000e+000 70654 -2.3173e+002 -1.4463e+002  1.1236e+002 68448 70426,70478,70452
 1.0000e+000 70631 -3.6764e+002 -7.5618e+001  2.4304e+002 68448 70374,70582,70556
 1.0000e+000 70608 -3.3029e+002 -1.0487e+002  1.0122e+002 68448 70504,70556,70530
 1.0000e+000 70896 -1.7250e+002 -3.4927e+001  2.1499e+001 68250 70795,70847,70821
 1.0000e+000 70873 -7.5520e+002 -2.5216e+002  5.3930e+000 68250 70769,70847,70795
 1.0000e+000 70997 -1.2655e+003 -5.8041e+002  5.0838e+002 68052 70919,70971,70945
 1.0000e+000 71367 -3.7967e+002 -5.9747e+002  2.3832e+002 67740 71096,71226,71200
 1.0000e+000 71344 -2.5261e+002 -3.4641e+002  2.9047e+002 67740 71044,71226,71096
 1.0000e+000 71321  2.3061e+001 -2.3061e+001  4.6079e+002 67740 71044,71096,71070
 1.0000e+000 71298 -2.9318e+002 -6.3925e+002  4.5190e+002 67740 71096,71200,71174
 1.0000e+000 71275 -1.5770e+002 -3.7968e+002  1.7915e+002 67740 71096,71148,71122
 1.0000e+000 71252 -2.2184e+002 -4.5451e+002  2.9730e+002 67740 71096,71174,71148
 1.0000e+000 71519  1.3960e+002  8.7265e+001  1.4407e+002 67542 71418,71470,71444
 1.0000e+000 71496  2.4304e+002  4.9400e+002  4.5408e+002 67542 71392,71470,71418
 1.0000e+000 71923 -8.9225e+001 -6.6668e+000  1.3264e+002 67230 71649,71779,71675
 1.0000e+000 71900 -6.7310e+001 -1.2411e+002  9.1502e+001 67230 71649,71805,71779
 1.0000e+000 71877 -9.2597e+001 -3.3420e+001  2.4240e+002 67230 71675,71727,71701
 1.0000e+000 71854 -1.2482e+002 -3.5917e+002  2.4122e+002 67230 71675,71753,71727
 1.0000e+000 71831 -1.2552e+002 -2.1982e+002  1.6842e+002 67230 71675,71779,71753
 1.0000e+000 72433 -1.5694e+002 -9.3313e+001  1.8730e+002 67032 72038,72246,72220
 1.0000e+000 72410 -1.1666e+002  5.9045e-001  6.0203e+001 67032 72012,72246,72038
 1.0000e+000 72387 -2.2786e+002 -6.4351e+001  2.0695e+002 67032 72064,72194,72168
 1.0000e+000 72364 -2.6128e+002 -1.0050e+002  2.2202e+002 67032 72038,72194,72064
 1.0000e+000 72341 -2.5481e+002 -3.5798e+002  2.8742e+002 67032 72038,72220,72194
 1.0000e+000 72318 -1.1814e+002 -5.2915e+000  1.1858e+002 67032 72090,72168,72142
 1.0000e+000 72295 -2.2836e+001  1.2834e+001  1.6805e+002 67032 72064,72168,72090
 1.0000e+000 72272 -1.3274e+002 -1.9795e+001  1.1181e+002 67032 72090,72142,72116
 1.0000e+000 72933 -2.0387e+002 -2.2634e+002  2.3044e+002 66628 72956,72665,72613
 1.0000e+000 72910 -1.9457e+002 -2.6208e+002  2.2710e+002 66628 73100,72956,72613
 1.0000e+000 72887 -2.5965e+002 -3.5520e+002  1.9864e+002 66628 73028,72691,72665
 1.0000e+000 72864 -1.9090e+002 -2.5502e+002  2.2963e+002 66628 73100,72613,72587
 1.0000e+000 72841 -1.9243e+002 -2.1628e+002  2.0558e+002 66628 72613,72665,72639
 1.0000e+000 72818  7.9089e+001  2.1638e+001  3.3289e+002 66628 72587,72769,72743
 1.0000e+000 72795 -1.6895e+002 -5.0864e+002  6.1569e+001 66628 72561,72769,72587
 1.0000e+000 72982 -2.5722e+002 -2.6065e+002  2.4974e+002 66628 73028,72665,72956
 1.0000e+000 73005 -1.9948e+002 -7.9037e+001  2.4366e+002 66628 72717,72956,72743
 1.0000e+000 73054 -3.5580e+002 -3.0085e+002  1.2628e+002 66628 72717,72691,73028
 1.0000e+000 73077 -3.5646e+002 -2.6853e+002  1.7337e+002 66628 72717,73028,72956
 1.0000e+000 73126 -1.9896e+002 -2.6256e+002  2.1877e+002 66628 72743,72956,73100
 1.0000e+000 73149 -1.9488e+002 -2.5659e+002  2.2138e+002 66628 72743,73100,72587
 1.0000e+000 73606 -1.9225e+002 -2.3249e+002  2.0521e+002 66281 73332,73384,73358
 1.0000e+000 73583 -2.5702e+002 -3.3404e+002  1.7591e+002 66281 73332,73462,73384
 1.0000e+000 73560 -3.3452e+002 -2.0412e+002  2.5824e+002 66281 73384,73462,73436
 1.0000e+000 73537 -6.0451e+002 -3.1237e+002  2.8746e+002 66281 73332,73488,73462
 1.0000e+000 73514 -3.7617e+002 -1.8153e+002  1.0129e+002 66281 73384,73436,73410
 1.0000e+000 73984 -3.1997e+001 -6.6887e+001  4.6331e+001 65969 73736,73814,73788
 1.0000e+000 73961  2.5183e+001 -9.9449e+000  7.1370e+000 65969 73736,73866,73814
 1.0000e+000 73938 -1.0930e+002 -9.2005e+001  1.2672e+002 65969 73814,73866,73840
 1.0000e+000 73915 -1.0057e+001  4.8067e+001  1.7741e+001 65969 73710,73866,73736
 1.0000e+000 73892 -1.2280e+000 -7.2875e+001  1.8174e+000 65969 73736,73788,73762
 1.0000e+000 74232 -1.8773e+002 -2.3043e+002  2.1549e+002 65572 74255,74085,74033
 1.0000e+000 74209 -1.6631e+002 -2.6124e+002  1.7510e+002 65572 74327,74255,74033
 1.0000e+000 74186 -1.9176e+002 -1.7589e+002  1.7433e+002 65572 74327,74033,74007
 1.0000e+000 74163 -2.0590e+002 -2.6708e+002  2.3092e+002 65572 74033,74085,74059
 1.0000e+000 74281 -2.4281e+002 -2.9718e+002  2.7381e+002 65572 74111,74085,74255
 1.0000e+000 74304 -1.6227e+002 -2.7639e+002  1.8421e+002 65572 74111,74255,74137
 1.0000e+000 74353 -1.4060e+002 -1.6326e+002  1.4279e+002 65572 74137,74255,74327
 1.0000e+000 74376 -1.8493e+002 -9.9340e+001  1.4662e+002 65572 74137,74327,74007
 1.0000e+000 74884 -1.8634e+002 -2.1343e+002  1.6380e+002 65174 74587,74717,74613
 1.0000e+000 74861 -1.8397e+002 -2.3520e+002  1.2746e+002 65174 74561,74717,74587
 1.0000e+000 74838 -1.8182e+002 -2.6417e+002  1.3550e+002 65174 74613,74691,74639
 1.0000e+000 74815 -1.6140e+002 -2.4569e+002  1.6200e+002 65174 74613,74717,74691
 1.0000e+000 74792 -7.0703e+001 -4.2895e+002  1.1196e+002 65174 74639,74691,74665
 1.0000e+000 74769 -1.8934e+002 -1.6664e+002  1.1648e+002 65174 74561,74743,74717
 1.0000e+000 75412 -1.3535e+001 -1.0101e+002  4.3732e+002 64770 75167,75245,75219
 1.0000e+000 75389 -2.2283e+002 -3.7323e+002  3.0469e+002 64770 75115,75245,75167
 1.0000e+000 75366 -1.7367e+002 -4.6330e+002  3.8456e+002 64770 75089,75245,75115
 1.0000e+000 75343 -3.3609e+002 -1.2149e+002  3.1958e+002 64770 75167,75219,75193
 1.0000e+000 75320 -1.8083e+002 -2.7333e+002  3.0199e+002 64770 75115,75167,75141
 1.0000e+000 75297 -2.6651e+002 -6.8100e+002  3.9894e+002 64770 75089,75271,75245
 1.0000e+000 75861 -4.5218e+002 -1.8544e+002  3.4418e+002 64316 75538,75694,75564
 1.0000e+000 75838 -2.1670e+002 -7.6583e+001  1.9966e+002 64316 75538,75720,75694
 1.0000e+000 75815 -3.8024e+002 -2.2703e+002  2.7181e+002 64316 75590,75694,75642
 1.0000e+000 75792 -3.7725e+002 -3.3467e+002  3.0526e+002 64316 75564,75694,75590
 1.0000e+000 75769 -1.2082e+002 -4.2731e+002  1.6238e+002 64316 75590,75642,75616
 1.0000e+000 75746 -3.7092e+002 -1.5636e+002  2.6525e+002 64316 75642,75694,75668
 1.0000e+000 76239 -5.1756e+002 -4.0864e+002  3.1235e+002 64018 76262,76095,76043
 1.0000e+000 76216 -3.4038e+002 -3.9417e+002  2.5524e+002 64018 76262,76043,76017
 1.0000e+000 76193 -1.0605e+002 -1.9325e+002  1.5697e+002 64018 75991,76121,76017
 1.0000e+000 76170 -4.7263e+002 -3.0821e+002  2.9972e+002 64018 76043,76095,76069
 1.0000e+000 76147 -1.4045e+001 -2.3091e+002  5.5707e+001 64018 75965,76121,75991
 1.0000e+000 76288 -3.4741e+002 -4.9327e+002  4.0183e+002 64018 76121,76095,76262
 1.0000e+000 76311 -1.9928e+002 -4.9412e+002  3.1993e+002 64018 76121,76262,76017
 1.0000e+000 76866 -2.2614e+002 -2.4003e+002  2.4542e+002 63728 76520,76676,76546
 1.0000e+000 76843 -2.0117e+002 -2.4437e+002  1.7774e+002 63728 76520,76702,76676
 1.0000e+000 76820 -1.9123e+002 -2.7659e+002  2.5962e+002 63728 76546,76650,76572
 1.0000e+000 76797 -3.1171e+002 -3.6373e+002  2.0801e+002 63728 76546,76676,76650
 1.0000e+000 76774 -3.1662e+002 -4.9703e+001  1.3067e+002 63728 76572,76650,76624
 1.0000e+000 76751 -1.8184e+002 -1.9848e+002  1.9142e+002 63728 76494,76702,76520
 1.0000e+000 76728 -7.7592e+001 -1.4766e+002  1.0767e+002 63728 76572,76624,76598
 1.0000e+000 77065 -1.0307e+002 -2.0625e+002  1.5834e+002 63288 77088,76941,76915
 1.0000e+000 77042 -2.2479e+002 -2.4979e+002  1.5393e+002 63288 77088,76915,76993
 1.0000e+000 77019 -8.8024e+001 -2.4693e+002  1.4858e+002 63288 76889,76993,76915
 1.0000e+000 77114 -1.5743e+002 -1.9573e+002  1.3291e+002 63288 76967,76941,77088
 1.0000e+000 77137 -3.5551e+002 -2.8831e+002  6.1987e+001 63288 77160,77088,76993
 1.0000e+000 77186 -8.7809e+001 -1.5526e+002  1.0886e+002 63288 76967,77088,77160
 1.0000e+000 77417 -9.2885e+001 -1.6900e+002  9.3418e+001 62884 77440,77342,77316
 1.0000e+000 77394 -2.1453e+002 -2.9029e+002  4.3317e+001 62884 77770,77440,77316
 1.0000e+000 77466 -2.2925e+002 -3.1090e+002  5.6177e+001 62884 77512,77440,77368
 1.0000e+000 77489 -1.2426e+002 -2.3976e+002  3.0279e+001 62884 77642,77440,77290
 1.0000e+000 77538 -8.6118e+001 -2.1533e+002  1.4360e+001 62884 77342,77440,77512
 1.0000e+000 77668 -1.8754e+002 -3.7149e+002  1.1228e+001 62884 77368,77440,77642
 1.0000e+000 77796 -1.2135e+002 -2.4498e+002  2.9177e+001 62884 77290,77440,77770
 1.0000e+000 78479 -5.1237e+002 -4.5233e+002  2.9523e+002 62480 78084,78240,78214
 1.0000e+000 78456 -2.7550e+002 -3.8538e+002 -2.7426e+000 62480 78084,78266,78240
 1.0000e+000 78433 -3.5711e+002 -3.5608e+002  1.3895e+002 62480 78110,78214,78136
 1.0000e+000 78410 -3.4709e+002 -3.4413e+002  2.4460e+002 62480 78084,78214,78110
 1.0000e+000 78387 -3.5941e+002 -2.8952e+002  1.5504e+002 62480 78136,78214,78188
 1.0000e+000 78364 -2.2035e+002 -4.3444e+002 -1.3021e+001 62480 78058,78266,78084
 1.0000e+000 78341 -3.5299e+002 -3.1064e+002  2.6372e+002 62480 78136,78188,78162
 1.0000e+000 78318 -1.3522e+002 -3.9416e+002 -2.4627e+001 62480 78058,78292,78266
 1.0000e+000 78678 -2.9491e+002 -5.2778e+002  2.3332e+002 61926 78528,78606,78554
 1.0000e+000 78655 -1.7345e+002 -5.3536e+002  2.8731e+002 61926 78502,78606,78528
 1.0000e+000 78632 -1.7445e+002 -3.2205e+002  1.2036e+002 61926 78554,78606,78580
 1.0000e+000 79058 -2.6219e+002 -2.8255e+002  1.5526e+002 61614 78836,78914,78862
 1.0000e+000 79035 -3.5408e+002 -3.1736e+002  1.4281e+002 61614 78810,78914,78836
 1.0000e+000 79012 -2.2642e+002 -2.6359e+002  1.3161e+002 61614 78784,78914,78810
 1.0000e+000 78989 -2.3180e+002 -2.8841e+002  2.2952e+002 61614 78862,78914,78888
 1.0000e+000 78966 -1.7944e+002 -3.5614e+002  1.5529e+002 61614 78784,78940,78914
 1.0000e+000 79208 -5.8724e+001 -1.3699e+002  2.3977e+001 61366 79081,79133,79107
 1.0000e+000 79185 -9.5968e+001 -2.7834e+001  2.0985e+002 61366 79081,79159,79133
 1.0000e+000 79358  2.7028e+001 -2.1597e+001  3.6642e+001 60962 79231,79283,79257
 1.0000e+000 79335 -1.6303e+002 -3.8447e+002  1.0566e+002 60962 79231,79309,79283
 1.0000e+000 79608 -1.6171e+002 -3.1157e+002  2.0478e+002 60508 79631,79435,79409
 1.0000e+000 79585 -1.1359e+002 -3.4029e+002  1.2447e+002 60508 79703,79631,79409
 1.0000e+000 79562 -1.0033e+002 -7.2927e+001  1.6833e+002 60508 79703,79409,79383
 1.0000e+000 79539 -2.8947e+002 -3.7402e+002  3.3113e+002 60508 79435,79487,79461
 1.0000e+000 79657 -2.0968e+002 -4.5012e+002  3.2184e+002 60508 79487,79435,79631
 1.0000e+000 79680 -9.5312e+001 -3.0220e+002  1.4916e+002 60508 79487,79631,79513
 1.0000e+000 79729 -4.7307e+001 -9.5270e+001  6.1982e+001 60508 79513,79631,79703
 1.0000e+000 79752 -1.2218e+002 -6.0386e+001  2.5308e+001 60508 79513,79703,79383
 1.0000e+000 80390 -2.3361e+002 -2.9547e+002  2.4045e+002 59997 80413,80096,80018
 1.0000e+000 80367 -3.5975e+002 -3.2266e+002  2.9374e+002 59997 80413,80018,80226
 1.0000e+000 80344 -1.9324e+002 -2.1478e+002  1.9027e+002 59997 80096,80174,80148
 1.0000e+000 80321 -7.5148e+002 -5.5157e+002  3.6894e+002 59997 80018,80096,80070
 1.0000e+000 80298 -1.6676e+002 -2.7749e+002  1.5023e+002 59997 80096,80148,80122
 1.0000e+000 80275 -2.0088e+002 -1.8593e+002  1.8002e+002 59997 80174,80226,80200
 1.0000e+000 80252 -4.9663e+002 -3.8915e+002  1.2730e+002 59997 80018,80070,80044
 1.0000e+000 80439 -2.0187e+002 -2.9166e+002  2.1034e+002 59997 80174,80096,80413
 1.0000e+000 80462 -2.5022e+002 -2.2630e+002  2.4208e+002 59997 80174,80413,80226
 1.0000e+000 80840 -3.6772e+002 -3.6672e+002  1.8109e+002 59443 80863,80644,80618
 1.0000e+000 80817 -1.9709e+002 -2.7085e+002  2.2061e+002 59443 80863,80618,80566
 1.0000e+000 80794 -1.5340e+002 -2.3217e+002  2.2590e+002 59443 81007,80935,80670
 1.0000e+000 80771 -2.2772e+002 -2.5001e+002  2.3183e+002 59443 80566,80722,80696
 1.0000e+000 80748 -2.4550e+002 -3.6907e+002  2.4895e+002 59443 80566,80618,80592
 1.0000e+000 80889 -3.8679e+002 -3.0153e+002  2.5816e+002 59443 80935,80644,80863
 1.0000e+000 80912 -2.9625e+002 -2.8064e+002  2.4143e+002 59443 80696,80863,80566
 1.0000e+000 80961 -2.4682e+002 -2.5721e+002  2.6718e+002 59443 80696,80670,80935
 1.0000e+000 80984 -2.4565e+002 -2.4912e+002  2.5805e+002 59443 80696,80935,80863
 1.0000e+000 81033 -3.1155e+002 -3.7520e+002  3.0473e+002 59443 80644,80935,81007
 1.0000e+000 81360 -2.1567e+002 -2.1230e+002  1.8041e+002 59031 81383,81187,81161
 1.0000e+000 81337 -2.2092e+002 -2.3468e+002  1.3662e+002 59031 81455,81383,81161
 1.0000e+000 81314 -1.8665e+002 -2.0647e+002  1.4877e+002 59031 81455,81161,81135
 1.0000e+000 81291 -4.0407e+002 -1.0659e+002  1.9032e+002 59031 81187,81239,81213
 1.0000e+000 81409 -2.3683e+002 -2.3727e+002  1.6098e+002 59031 81239,81187,81383
 1.0000e+000 81432 -3.3881e+002 -2.4757e+002  1.0286e+002 59031 81239,81383,81265
 1.0000e+000 81481 -2.5302e+002 -1.8237e+002  1.4744e+002 59031 81265,81383,81455
 1.0000e+000 81504 -2.4389e+002 -1.7636e+002  1.5014e+002 59031 81265,81455,81135
 1.0000e+000 81835 -3.5021e+001 -1.5229e+002  5.5997e+001 58577 81610,81714,81636
 1.0000e+000 81812 -3.1511e+001 -1.4302e+002  5.2745e+001 58577 81610,81740,81714
 1.0000e+000 81789 -1.2105e+002 -1.8902e+002  4.5380e+001 58577 81636,81714,81688
 1.0000e+000 81766 -1.2118e+002 -2.3293e+002 -4.6752e+001 58577 81636,81688,81662
 1.0000e+000 81985 -8.9756e+001 -2.1619e+002  1.3642e+002 58030 81884,81936,81910
 1.0000e+000 81962 -1.6132e+002 -6.5711e+001  1.0351e+002 58030 81858,81936,81884
 1.0000e+000 82414 -7.3796e+001 -3.9104e+001  9.7902e+001 57690 82437,82169,82117
 1.0000e+000 82391 -1.0758e+002 -1.3003e+002  1.1660e+002 57690 82437,82117,82247
 1.0000e+000 82368  3.4086e+001  5.2511e+001  2.7372e+002 57690 82195,82247,82221
 1.0000e+000 82345 -8.2056e+001 -1.1905e+002  1.1774e+002 57690 82091,82247,82117
 1.0000e+000 82322 -1.1536e+002 -5.7509e+001  7.4487e+001 57690 82117,82169,82143
 1.0000e+000 82299 -9.4052e+001 -2.1635e+002  1.6216e+002 57690 82091,82273,82247
 1.0000e+000 82463 -1.1970e+002 -4.0275e+000  1.4099e+002 57690 82195,82169,82437
 1.0000e+000 82486 -1.3564e+002 -6.6085e+001  1.4478e+002 57690 82195,82437,82247
 1.0000e+000 83041 -2.0288e+002 -2.4305e+002  1.5332e+002 57172 83064,82721,82695
 1.0000e+000 83018 -2.2373e+002 -2.4530e+002  2.2031e+002 57172 83064,82695,82851
 1.0000e+000 82995 -6.1773e+002 -3.1179e+002  2.8567e+002 57172 82669,82851,82695
 1.0000e+000 82972 -3.5037e+002 -2.5158e+002  2.0817e+002 57172 82773,82851,82825
 1.0000e+000 82949 -3.1005e+002 -2.5529e+002  2.6032e+002 57172 82773,82825,82799
 1.0000e+000 82926 -2.8669e+002 -1.8145e+002  1.2871e+002 57172 82721,82773,82747
 1.0000e+000 82903 -6.8912e+002 -3.0514e+002  4.0341e+002 57172 82669,82877,82851
 1.0000e+000 83090 -3.1345e+002 -2.8218e+002  1.3825e+002 57172 82773,82721,83064
 1.0000e+000 83113 -2.6166e+002 -2.5606e+002  2.0235e+002 57172 82773,83064,82851
 1.0000e+000 83747 -2.6427e+002 -2.1950e+002  1.5174e+002 56554 83770,83427,83401
 1.0000e+000 83724 -2.4635e+002 -2.8995e+002  1.8427e+002 56554 83842,83770,83401
 1.0000e+000 83701 -1.2270e+001 -2.3319e+002  7.9951e+001 56554 83842,83401,83583
 1.0000e+000 83678 -4.5246e+002 -4.1160e+002  3.6150e+002 56554 83914,83531,83505
 1.0000e+000 83655 -2.1608e+002 -3.0122e+002  1.2848e+002 56554 83531,83583,83557
 1.0000e+000 83632 -5.3891e+001 -1.5426e+002  6.8338e+001 56554 83375,83583,83401
 1.0000e+000 83609 -2.1409e+002 -2.1328e+002  1.4259e+002 56554 83427,83479,83453
 1.0000e+000 83796 -2.2353e+002 -2.2181e+002  1.5157e+002 56554 83479,83427,83770
 1.0000e+000 83819 -2.1645e+002 -1.8425e+002  1.4837e+002 56554 83479,83770,83505
 1.0000e+000 83868 -1.5822e+002 -1.2661e+002  2.2168e+002 56554 83505,83770,83842
 1.0000e+000 83891 -2.9444e+002 -2.4857e+002  2.7550e+002 56554 83914,83505,83842
 1.0000e+000 83940 -2.1033e+002 -4.2524e+002  2.0636e+002 56554 83583,83531,83914
 1.0000e+000 83963 -1.0535e+002 -3.9578e+002  1.6406e+002 56554 83583,83914,83842
 1.0000e+000 84341 -1.6451e+002 -5.1533e+002  1.9608e+002 56192 84067,84145,84119
 1.0000e+000 84318 -5.1002e+001 -2.9100e+002  1.5071e+002 56192 84067,84223,84145
 1.0000e+000 84295 -1.2885e+002 -3.8688e+002  9.2447e+001 56192 84145,84223,84197
 1.0000e+000 84272 -1.4715e+002 -2.3944e+002  1.4748e+002 56192 84067,84119,84093
 1.0000e+000 84249 -2.2037e+002 -1.5405e+002  1.3532e+002 56192 84145,84197,84171
 1.0000e+000 84611 -1.4776e+002 -3.7250e+002  2.7518e+002 55538 84386,84490,84412
 1.0000e+000 84588 -1.4633e+002 -3.1282e+002  2.6323e+002 55538 84386,84516,84490
 1.0000e+000 84565 -2.6693e+002 -4.2319e+002  2.7776e+002 55538 84412,84490,84464
 1.0000e+000 84542 -1.4256e+002 -3.4767e+002  2.0373e+002 55538 84412,84464,84438
 1.0000e+000 84942 -2.3774e+002 -2.2063e+002  1.9120e+002 55084 84769,84847,84795
 1.0000e+000 84919 -2.6655e+002 -2.7098e+002  1.5283e+002 55084 84717,84847,84769
 1.0000e+000 84896 -2.8904e+002 -3.5426e+002  1.6216e+002 55084 84717,84769,84743
 1.0000e+000 84873 -2.8605e+002 -8.5841e+001  1.5161e+002 55084 84795,84847,84821
 1.0000e+000 85271 -8.9641e+001 -9.6887e+001  1.3813e+002 54580 85294,85098,85072
 1.0000e+000 85248 -3.0152e+002 -1.5051e+002  1.7932e+002 54580 85294,85072,85176
 1.0000e+000 85225 -4.0461e+002 -4.2778e+001  8.3465e+001 54580 85124,85176,85150
 1.0000e+000 85202 -1.0487e+002 -1.3072e+002  7.4397e+001 54580 85046,85176,85072
 1.0000e+000 85320 -2.7020e+002 -1.2027e+002  1.5349e+002 54580 85124,85098,85294
 1.0000e+000 85343 -3.8245e+002 -9.5707e+001  1.8473e+002 54580 85124,85294,85176
 1.0000e+000 85542 -1.7395e+002 -2.9257e+002  2.4723e+002 53976 85565,85444,85418
 1.0000e+000 85519 -2.3833e+002 -2.1034e+002  1.8808e+002 53976 85565,85418,85366
 1.0000e+000 85496 -1.5437e+002 -1.4636e+002  6.2744e+001 53976 85366,85418,85392
 1.0000e+000 85591 -1.3749e+002 -2.5246e+002  2.0680e+002 53976 85470,85444,85565
 1.0000e+000 85614 -1.5027e+002 -8.9492e+001  1.4178e+002 53976 85470,85565,85366
 1.0000e+000 85960 -4.6065e+002 -4.0026e+002  3.4193e+002 53572 85663,85715,85689
 1.0000e+000 85937 -3.6914e+002 -2.7969e+002  2.1862e+002 53572 85983,85715,85663
 1.0000e+000 85914 -2.1197e+002 -2.5653e+002  2.0558e+002 53572 86055,85983,85663
 1.0000e+000 85891 -1.8740e+002 -2.4659e+002  2.0994e+002 53572 86055,85663,85637
 1.0000e+000 85868 -3.8119e+002 -6.6098e+002  3.2640e+002 53572 85637,85793,85767
 1.0000e+000 85845 -3.6630e+002 -7.6313e+001  1.5320e+002 53572 85637,85819,85793
 1.0000e+000 86009 -1.9491e+002 -3.6890e+002  2.1917e+002 53572 85741,85715,85983
 1.0000e+000 86032 -4.8997e+001 -2.6412e+002  1.5459e+002 53572 85741,85983,85767
 1.0000e+000 86081 -1.9327e+002 -2.6245e+002  2.3859e+002 53572 85767,85983,86055
 1.0000e+000 86104 -1.6342e+002 -2.5367e+002  2.3911e+002 53572 85767,86055,85637
 1.0000e+000 86693 -4.5969e+002 -1.3661e+002  2.5785e+002 52946 86474,86526,86500
 1.0000e+000 86670 -1.3904e+002 -8.6734e+001  1.1596e+002 52946 86396,86526,86474
 1.0000e+000 86647 -3.4005e+002 -4.0006e+002  2.2529e+002 52946 86370,86526,86396
 1.0000e+000 86624 -8.3210e+000 -7.8812e+000  3.4237e+001 52946 86422,86474,86448
 1.0000e+000 86601 -1.6426e+002 -7.2558e+001  9.4180e+001 52946 86396,86474,86422
 1.0000e+000 86578 -4.4695e+002 -1.6513e+002  3.3592e+001 52946 86370,86552,86526
 1.0000e+000 87376 -2.3444e+002 -2.6410e+002  9.7335e+001 52420 87007,87085,87033
 1.0000e+000 87353 -2.5110e+002 -2.7488e+002  1.0275e+002 52420 87007,87163,87085
 1.0000e+000 87330 -2.8652e+002 -2.6168e+002  1.1834e+002 52420 87007,87189,87163
 1.0000e+000 87307 -2.7147e+002 -2.5326e+002  1.1951e+002 52420 87033,87085,87059
 1.0000e+000 87284 -2.6543e+002 -2.6652e+002  3.9498e+001 52420 87085,87137,87111
 1.0000e+000 87261 -2.1903e+002 -2.9374e+002  3.2041e+001 52420 87085,87163,87137
 1.0000e+000 87238 -2.1304e+002 -2.9014e+002  2.3875e+002 52420 86955,87189,87007
 1.0000e+000 87215 -1.3931e+002 -1.9942e+002  1.4731e+002 52420 86955,87007,86981
 1.0000e+000 87624 -1.9216e+002 -2.4247e+002  1.4567e+002 51916 87451,87503,87477
 1.0000e+000 87601 -1.2157e+002 -2.9831e+002  1.7467e+002 51916 87425,87503,87451
 1.0000e+000 87578 -7.4847e+001 -2.5834e+002  1.9753e+002 51916 87425,87529,87503
 1.0000e+000 87555 -1.0432e+001 -3.8050e+001  1.9570e+002 51916 87399,87529,87425
 1.0000e+000 88053 -3.3582e+002 -2.9744e+002  9.7389e+001 51568 87782,87834,87808
 1.0000e+000 88030 -3.8199e+002 -2.8452e+002  1.5830e+002 51568 88076,87782,87886
 1.0000e+000 88007 -3.4833e+002 -2.0631e+002  1.5506e+002 51568 88076,87886,87860
 1.0000e+000 87984 -4.3596e+002 -3.6308e+002  1.3433e+002 51568 87756,87886,87782
 1.0000e+000 87961 -3.1843e+002 -2.8936e+002  2.5229e+002 51568 87756,87912,87886
 1.0000e+000 87938 -3.7862e+002 -2.6711e+002  2.2904e+002 51568 87730,87912,87756
 1.0000e+000 88102 -3.5199e+002 -3.2599e+002  1.1163e+002 51568 87834,87782,88076
 1.0000e+000 88125 -3.2976e+002 -2.7475e+002  1.0870e+002 51568 87834,88076,87860
 1.0000e+000 88324 -2.2809e+002 -3.4841e+002  1.2658e+002 51164 88419,88347,88200
 1.0000e+000 88301 -1.9277e+002 -3.1475e+002  1.6401e+002 51164 88347,88148,88252
 1.0000e+000 88278 -2.6927e+002 -4.8317e+002  1.3495e+002 51164 88419,88200,88174
 1.0000e+000 88373 -1.7056e+002 -3.5414e+002  1.3693e+002 51164 88226,88200,88347
 1.0000e+000 88396 -5.3725e+001 -3.4667e+002  1.2400e+002 51164 88226,88347,88252
 1.0000e+000 88445 -2.7158e+002 -3.7003e+002  2.0462e+002 51164 88148,88347,88419
 1.0000e+000 88468 -2.6572e+002 -3.5978e+002  2.1679e+002 51164 88148,88419,88174
 1.0000e+000 88738 -2.6183e+002 -4.0755e+002  9.3441e+001 50560 88513,88617,88539
 1.0000e+000 88715 -1.8855e+002 -4.4153e+002  6.6073e+001 50560 88513,88643,88617
 1.0000e+000 88692 -1.7474e+002 -2.0042e+002  1.1701e+002 50560 88539,88591,88565
 1.0000e+000 88669 -1.3153e+002 -3.1360e+002  1.3546e+002 50560 88539,88617,88591
 1.0000e+000 88939 -3.0353e+002 -1.7365e+002  1.5345e+002 50106 88962,88789,88763
 1.0000e+000 88916 -2.1364e+002 -1.9342e+002  1.2029e+002 50106 88962,88763,88841
 1.0000e+000 88893 -3.1014e+002 -2.5256e+002  1.8493e+002 50106 88763,88867,88841
 1.0000e+000 88988 -2.1472e+002 -2.0415e+002  1.0612e+002 50106 88815,88789,88962
 1.0000e+000 89011 -1.8268e+002 -1.7608e+002  1.2831e+002 50106 89034,88962,88841
 1.0000e+000 89060 -1.1550e+002 -1.0203e+002  4.1074e+001 50106 88815,88962,89034
 1.0000e+000 89472 -2.3293e+002 -4.1386e+002  1.2263e+002 49666 89273,89351,89325
 1.0000e+000 89449 -2.5432e+002 -3.3203e+002  1.5244e+002 49666 89273,89377,89351
 1.0000e+000 89426 -2.2470e+002 -3.3829e+002  2.4786e+002 49666 89273,89325,89299
 1.0000e+000 89403 -2.2911e+002 -2.1656e+002  1.6037e+002 49666 89247,89377,89273
 1.0000e+000 89978 -1.5412e+002 -3.4078e+002  1.4574e+002 49205 89681,89837,89733
 1.0000e+000 89955 -1.5389e+002 -3.0568e+002  1.7545e+002 49205 89655,89837,89681
 1.0000e+000 89932 -3.3377e+002 -5.7550e+002  1.9122e+002 49205 89785,89837,89811
 1.0000e+000 89909 -1.4882e+002 -1.6885e+002  1.0814e+002 49205 89733,89837,89785
 1.0000e+000 89886 -2.9943e+002 -2.2230e+002  1.7819e+002 49205 89733,89785,89759
 1.0000e+000 89863 -1.0912e+002 -4.2212e+002  1.7432e+002 49205 89681,89733,89707
 1.0000e+000 90177 -2.0808e+002 -1.7359e+002  8.6473e+001 48865 90530,90200,90053
 1.0000e+000 90154 -2.4726e+002 -3.7724e+002  1.8761e+002 48865 90402,90200,90001
 1.0000e+000 90131 -3.0849e+002  5.3937e+000  8.6213e+001 48865 90530,90053,90027
 1.0000e+000 90226 -2.5842e+002 -2.1868e+002  1.5264e+002 48865 90079,90053,90200
 1.0000e+000 90249 -2.6303e+002 -2.6580e+002  1.2072e+002 48865 90272,90200,90105
 1.0000e+000 90298 -1.6655e+002 -1.8718e+002  1.5548e+002 48865 90079,90200,90272
 1.0000e+000 90428 -1.8917e+002 -1.0331e+002  1.4743e+002 48865 90105,90200,90402
 1.0000e+000 90556 -2.5794e+002 -4.3988e+002  6.0316e+001 48865 90001,90200,90530
 1.0000e+000 90579 -3.1403e+002 -1.7681e+002  4.3979e+000 48865 90001,90530,90027
 1.0000e+000 90827 -2.7899e+002 -2.9862e+002  1.4152e+002 48404 90850,90654,90628
 1.0000e+000 90804 -2.7297e+002 -3.2401e+002  2.1986e+002 48404 90850,90628,90732
 1.0000e+000 90781 -1.9148e+002 -2.5667e+002  1.3982e+002 48404 90680,90732,90706
 1.0000e+000 90758 -3.5029e+002 -1.9241e+002  2.2422e+002 48404 90602,90732,90628
 1.0000e+000 90876 -2.6124e+002 -1.8425e+002  1.3016e+002 48404 90680,90654,90850
 1.0000e+000 90899 -2.6651e+002 -2.6813e+002  1.9282e+002 48404 90680,90850,90732
 1.0000e+000 91000 -1.5480e+002 -3.8704e+002  2.6548e+002 48156 90922,90974,90948
 1.0000e+000 91250 -1.8154e+002 -4.5452e+002  2.9011e+002 47752 91051,91103,91077
 1.0000e+000 91227 -1.2498e+002 -8.1307e+001  1.8269e+002 47752 91025,91103,91051
 1.0000e+000 91204 -4.8813e+002 -3.5539e+002  4.0796e+002 47752 91025,91155,91103
 1.0000e+000 91181 -5.2009e+002 -2.1552e+002  3.0709e+002 47752 91103,91155,91129
 1.0000e+000 91402 -2.8153e+002 -2.5742e+002  1.5404e+002 47191 91425,91301,91275
 1.0000e+000 91379 -2.2973e+002 -2.3572e+002  1.7469e+002 47191 91497,91425,91275
 1.0000e+000 91451 -2.7519e+002 -1.8646e+002  1.2660e+002 47191 91327,91301,91425
 1.0000e+000 91474 -2.4302e+002 -2.8301e+002  2.1314e+002 47191 91327,91425,91353
 1.0000e+000 91523 -2.9743e+002 -4.8585e+002  1.8707e+002 47191 91353,91425,91497
 1.0000e+000 91854 -1.8592e+002 -2.1833e+002  2.0622e+002 46744 91949,91877,91707
 1.0000e+000 91831 -6.3726e+001 -2.1286e+002  1.0885e+002 46744 91877,91655,91629
 1.0000e+000 91808 -2.0458e+002 -2.0094e+002  1.9577e+002 46744 91949,91707,91681
 1.0000e+000 91785 -9.4917e+001 -1.3004e+002 -3.2561e+001 46744 91629,91759,91733
 1.0000e+000 91903 -2.2805e+002 -2.5644e+002  2.2413e+002 46744 91733,91707,91877
 1.0000e+000 91926 -1.6760e+002 -3.5060e+002  1.5600e+002 46744 91733,91877,91629
 1.0000e+000 91975 -2.0665e+002 -2.5983e+002  1.9891e+002 46744 91655,91877,91949
 1.0000e+000 91998 -2.2476e+002 -2.3639e+002  1.8549e+002 46744 91655,91949,91681
 1.0000e+000 92378 -1.7470e+002 -1.0227e+002  1.3316e+002 46090 92130,92208,92182
 1.0000e+000 92355 -2.4167e+002 -1.3127e+002  1.3021e+002 46090 92104,92208,92130
 1.0000e+000 92332 -1.2841e+002 -2.3040e+002  1.3156e+002 46090 92104,92260,92208
 1.0000e+000 92309 -1.1333e+002 -1.6860e+002  1.2696e+002 46090 92208,92260,92234
 1.0000e+000 92286 -3.5179e+002 -1.5904e+002  1.6287e+002 46090 92130,92182,92156
 1.0000e+000 92626 -2.0308e+002 -2.7576e+002  1.0201e+002 45693 92721,92649,92505
 1.0000e+000 92603 -2.4126e+002 -2.8040e+002  1.9539e+002 45693 92649,92453,92427
 1.0000e+000 92580 -2.1433e+002 -2.3785e+002  9.9472e+001 45693 92721,92505,92479
 1.0000e+000 92557 -4.1112e+002 -3.7679e+002  2.3368e+002 45693 92401,92531,92427
 1.0000e+000 92675 -3.2257e+002 -2.7084e+002  1.2775e+002 45693 92531,92505,92649
 1.0000e+000 92698 -3.5701e+002 -3.2320e+002  2.5520e+002 45693 92531,92649,92427
 1.0000e+000 92747 -2.2502e+002 -2.2757e+002  1.0617e+002 45693 92453,92649,92721
 1.0000e+000 92770 -1.6234e+002 -9.3893e+001  1.3156e+002 45693 92453,92721,92479
 1.0000e+000 93172 -1.4116e+002 -2.2757e+002  2.1628e+002 45331 92898,93028,92924
 1.0000e+000 93149 -1.1017e+002 -2.6495e+002  1.4723e+002 45331 92898,93054,93028
 1.0000e+000 93126 -2.0369e+002 -1.1190e+002  2.4400e+002 45331 92924,93002,92976
 1.0000e+000 93103 -8.0203e+001 -2.0421e+002  2.1648e+002 45331 92924,93028,93002
 1.0000e+000 93080 -2.1690e+002 -2.0512e+002  2.5461e+002 45331 92924,92976,92950
 1.0000e+000 93518 -1.4927e+002 -5.3736e+002  1.2942e+002 44820 93613,93273,93247
 1.0000e+000 93495 -3.8294e+002 -4.2868e+002  2.3262e+002 44820 93685,93541,93247
 1.0000e+000 93472 -3.2672e+002 -2.6789e+002  1.8273e+002 44820 93541,93195,93377
 1.0000e+000 93449 -4.4304e+002 -3.6011e+002  1.6348e+002 44820 93685,93247,93221
 1.0000e+000 93426 -2.8131e+002 -3.3866e+002  1.7460e+002 44820 93299,93377,93351
 1.0000e+000 93403 -2.2100e+002 -2.1111e+002  2.1117e+002 44820 93299,93351,93325
 1.0000e+000 93567 -2.8637e+002 -5.7542e+002  1.8522e+002 44820 93613,93247,93541
 1.0000e+000 93590 -3.0636e+002 -3.9808e+002  1.3297e+002 44820 93299,93541,93377
 1.0000e+000 93639 -2.9236e+002 -5.2952e+002  1.6394e+002 44820 93299,93273,93613
 1.0000e+000 93662 -2.8234e+002 -5.2987e+002  1.7197e+002 44820 93299,93613,93541
 1.0000e+000 93711 -3.1440e+002 -3.0349e+002  1.5856e+002 44820 93195,93541,93685
 1.0000e+000 93734 -2.8196e+002 -9.7376e+001  7.6980e+001 44820 93195,93685,93221
 1.0000e+000 94163 -3.1919e+002 -3.8027e+002  1.4557e+002 44237 94258,94186,93996
 1.0000e+000 94140 -3.7746e+002 -4.2187e+002  9.5928e+001 44237 94330,94022,93996
 1.0000e+000 94117 -3.8997e+002 -4.1857e+002  1.0726e+002 44237 94186,93918,93866
 1.0000e+000 94094 -2.7316e+002 -2.9759e+002  1.6696e+002 44237 94258,93996,93970
 1.0000e+000 94071 -3.4451e+002 -2.4450e+002  1.4134e+002 44237 94402,93944,93918
 1.0000e+000 94048 -2.6627e+002 -4.3360e+002  1.5945e+002 44237 93866,93918,93892
 1.0000e+000 94212 -3.7756e+002 -4.2645e+002  1.2478e+002 44237 94330,93996,94186
 1.0000e+000 94235 -3.7853e+002 -3.6628e+002  1.3828e+002 44237 93840,94186,93866
 1.0000e+000 94284 -3.4012e+002 -3.0536e+002  9.9539e+001 44237 93918,94186,94258
 1.0000e+000 94307 -3.1799e+002 -2.5654e+002  1.1320e+002 44237 94402,93918,94258
 1.0000e+000 94356 -3.5129e+002 -1.6019e+002  2.0184e+000 44237 93840,94022,94330
 1.0000e+000 94379 -3.5668e+002 -3.7377e+002  1.3026e+002 44237 93840,94330,94186
 1.0000e+000 94428 -3.9961e+002 -2.9619e+002  1.6336e+002 44237 93970,93944,94402
 1.0000e+000 94451 -3.5714e+002 -3.0027e+002  1.3224e+002 44237 93970,94402,94258
 1.0000e+000 94908 -1.5133e+002 -2.6659e+002  8.2296e+001 43890 94660,94790,94712
 1.0000e+000 94885 -1.1033e+002 -1.3879e+002  1.2175e+002 43890 94634,94790,94660
 1.0000e+000 94862 -2.0847e+002 -1.1550e+002  1.2232e+002 43890 94712,94764,94738
 1.0000e+000 94839 -1.3435e+002 -2.5687e+002  1.2361e+002 43890 94712,94790,94764
 1.0000e+000 94816 -4.8820e+001 -2.5068e+002  9.7786e+001 43890 94660,94712,94686
 1.0000e+000 95414 -2.4163e+002 -2.0066e+002  1.0894e+002 43186 95437,95143,95117
 1.0000e+000 95391 -2.5389e+002 -3.4083e+002  1.4354e+002 43186 95437,95117,95091
 1.0000e+000 95368 -1.1934e+002 -1.4264e+002  1.0782e+002 43186 95143,95221,95195
 1.0000e+000 95345 -3.9787e+002 -3.1760e+002  3.0013e+002 43186 95091,95273,95221
 1.0000e+000 95322 -2.5944e+002 -1.9851e+002  1.4414e+002 43186 95221,95273,95247
 1.0000e+000 95299 -1.8697e+002 -3.2848e+002  1.0571e+002 43186 95143,95195,95169
 1.0000e+000 95463 -2.5364e+002 -2.9601e+002  1.7455e+002 43186 95221,95143,95437
 1.0000e+000 95486 -2.5010e+002 -4.0738e+002  2.1217e+002 43186 95221,95437,95091
 1.0000e+000 96041 -3.6041e+002 -3.7165e+002  9.2360e+001 42782 95695,95851,95799
 1.0000e+000 96018 -3.3023e+002 -4.1583e+002  9.7710e+001 42782 95669,95851,95695
 1.0000e+000 95995 -3.6192e+002 -2.5303e+002  1.1229e+002 42782 95695,95747,95721
 1.0000e+000 95972 -2.7492e+002 -3.3544e+002  9.8545e+001 42782 95695,95799,95747
 1.0000e+000 95949 -2.5043e+002 -2.4316e+002  7.5934e+001 42782 95747,95799,95773
 1.0000e+000 95926 -4.5389e+002 -4.4898e+002  1.5764e+002 42782 95799,95851,95825
 1.0000e+000 95903 -4.4227e+002 -4.6724e+002  1.0989e+002 42782 95669,95877,95851
 1.0000e+000 96370 -3.6842e+002 -4.8165e+002  2.1518e+002 42420 96197,96275,96223
 1.0000e+000 96347 -3.4850e+002 -4.1437e+002  2.1014e+002 42420 96145,96275,96197
 1.0000e+000 96324 -3.5115e+002 -2.9688e+002  2.0673e+002 42420 96145,96197,96171
 1.0000e+000 96301 -2.7099e+002 -3.5433e+002  1.5524e+002 42420 96223,96275,96249
 1.0000e+000 96699 -2.3122e+002 -2.9635e+002  1.2173e+002 41816 96474,96578,96526
 1.0000e+000 96676 -1.7399e+002 -1.3268e+002 -1.8752e+001 41816 96474,96604,96578
 1.0000e+000 96653 -2.3905e+002 -1.6031e+002  1.7625e+002 41816 96526,96578,96552
 1.0000e+000 96630 -1.8514e+002 -2.6298e+002  5.9814e+001 41816 96474,96526,96500
 1.0000e+000 96947 -1.6623e+002 -3.9742e+002  1.6172e+002 41212 96722,96800,96748
 1.0000e+000 96924 -2.6503e+002 -3.1304e+002  2.0953e+002 41212 96722,96826,96800
 1.0000e+000 96901 -2.1719e+002 -2.1699e+002  1.2253e+002 41212 96722,96852,96826
 1.0000e+000 96878 -2.9670e+002 -4.6285e+002  1.1904e+002 41212 96748,96800,96774
 1.0000e+000 97097 -1.8429e+002 -1.3495e+002  1.6762e+002 40793 97120,97022,96996
 1.0000e+000 97074 -3.2156e+002 -4.0788e+002  1.1267e+002 40793 97192,97120,96996
 1.0000e+000 97146 -1.4426e+002 -3.4529e+002  1.5420e+002 40793 97324,97120,97048
 1.0000e+000 97169 -1.2425e+002 -5.1591e+002  1.5283e+002 40793 97048,97120,96970
 1.0000e+000 97218 -4.7962e+001 -2.9057e+002  1.1037e+002 40793 96970,97120,97192
 1.0000e+000 97350 -1.4426e+002 -3.4529e+002  1.5420e+002 40793 97022,97120,97324
 1.0000e+000 97878 -2.0236e+002 -4.2707e+002  9.7506e+001 40446 97901,97607,97555
 1.0000e+000 97855 -2.1895e+002 -3.0694e+002  1.0782e+002 40446 97973,97901,97555
 1.0000e+000 97832 -1.8728e+002 -2.6772e+002  8.3223e+001 40446 97973,97555,97737
 1.0000e+000 97809 -3.0085e+002 -4.0004e+002  1.2174e+002 40446 97633,97685,97659
 1.0000e+000 97786 -2.2224e+002 -3.4363e+002  9.6262e+001 40446 97633,97711,97685
 1.0000e+000 97763 -2.0692e+002 -5.0421e+002  1.1463e+002 40446 97555,97607,97581
 1.0000e+000 97927 -2.5229e+002 -5.3778e+002 -4.7935e+000 40446 97633,97607,97901
 1.0000e+000 97950 -2.1669e+002 -4.0425e+002  7.9167e+001 40446 97633,97901,97711
 1.0000e+000 97999 -1.6676e+002 -3.9992e+002  1.2730e+002 40446 97711,97901,97973
 1.0000e+000 98022 -1.3334e+002 -3.4225e+002  1.0738e+002 40446 97711,97973,97737
 1.0000e+000 98449 -1.6233e+002 -1.4044e+002  1.0778e+002 39935 98152,98204,98178
 1.0000e+000 98426 -2.3624e+002 -1.7945e+002  7.3650e+001 39935 98152,98230,98204
 1.0000e+000 98403 -3.2669e+002 -1.9072e+002  1.5792e+002 39935 98152,98256,98230
 1.0000e+000 98380 -2.3062e+002 -2.5994e+002  1.8143e+002 39935 98126,98256,98152
 1.0000e+000 98357 -3.2360e+002 -4.5483e+002  2.0914e+002 39935 98126,98282,98256
 1.0000e+000 98334 -2.2201e+002 -6.4024e+002  2.7517e+002 39935 98126,98308,98282
 1.0000e+000 98746 -5.6542e+002 -4.0579e+002  1.2057e+002 39531 98498,98602,98524
 1.0000e+000 98723 -3.9883e+002 -3.6058e+002  1.2395e+002 39531 98472,98602,98498
 1.0000e+000 98700 -5.1698e+002 -2.7661e+002  1.2870e+002 39531 98524,98602,98576
 1.0000e+000 98677 -2.9715e+002 -3.7247e+002  1.3783e+002 39531 98472,98628,98602
 1.0000e+000 98654 -1.0781e+003 -3.5415e+002  1.5591e+002 39531 98524,98576,98550
 1.0000e+000 99224 -3.2852e+002 -1.9551e+002  3.2299e+002 39027 99247,98956,98930
 1.0000e+000 99201 -3.8335e+002 -3.9302e+002  1.7945e+002 39027 99247,98930,98878
 1.0000e+000 99178 -2.9304e+002 -3.9100e+002  2.6263e+002 39027 99319,98982,98956
 1.0000e+000 99155 -2.3206e+002 -2.3968e+002  2.2263e+002 39027 98852,99060,98878
 1.0000e+000 99132 -3.1133e+002 -1.9352e+002  8.7806e+001 39027 98878,98930,98904
 1.0000e+000 99109 -3.8372e+002 -7.1134e+002  3.8584e+002 39027 98982,99060,99034
 1.0000e+000 99086 -5.5549e+002 -9.8984e+002  6.1715e+002 39027 98982,99034,99008
 1.0000e+000 99273 -2.8776e+002 -3.6793e+002  2.5525e+002 39027 99319,98956,99247
 1.0000e+000 99296 -2.8600e+002 -3.5041e+002  1.8814e+002 39027 99060,99247,98878
 1.0000e+000 99345 -2.7733e+002 -3.9960e+002  2.4596e+002 39027 99060,98982,99319
 1.0000e+000 99368 -2.7075e+002 -3.9236e+002  2.4021e+002 39027 99060,99319,99247
 1.0000e+000 99923 -4.0879e+002 -3.2915e+002  1.6763e+002 38523 99946,99655,99603
 1.0000e+000 99900 -3.2723e+002 -2.9148e+002  1.7734e+002 38523 99946,99603,99759
 1.0000e+000 99877 -2.0725e+002 -4.1768e+002  2.2054e+002 38523 100018,99707,99681
 1.0000e+000 99854 -3.4678e+002 -2.0554e+002  1.6749e+002 38523 99551,99759,99603
 1.0000e+000 99831 -3.3194e+002 -1.9240e+002  1.5573e+002 38523 99551,99603,99577
 1.0000e+000 99808 -3.5578e+002 -5.3910e+002  1.5786e+002 38523 99707,99759,99733
 1.0000e+000 99785 -3.0142e+002 -2.7903e+002  1.3993e+002 38523 99603,99655,99629
 1.0000e+000 99972 -3.3098e+002 -1.7202e+002  2.0172e+002 38523 99681,99655,99946
 1.0000e+000 99995 -2.4906e+002 -2.3396e+002  2.5670e+002 38523 100018,99681,99946
 1.0000e+000 100044 -2.7641e+002 -4.9418e+002  1.3936e+002 38523 99759,99707,100018
 1.0000e+000 100067 -3.8055e+002 -4.2055e+002  1.7689e+002 38523 99759,100018,99946
 1.0000e+000 100467 -1.5862e+002 -2.8129e+002  1.1779e+002 38125 100219,100349,100323
 1.0000e+000 100444 -7.9479e+000 -3.0110e+001  1.8050e+002 38125 100193,100349,100219
 1.0000e+000 100421 -1.1119e+002 -3.9619e+002  1.3423e+002 38125 100245,100323,100297
 1.0000e+000 100398 -1.0551e+002 -2.5424e+002  1.4894e+002 38125 100219,100323,100245
 1.0000e+000 100375 -2.1649e+002 -3.9283e+002  2.4112e+002 38125 100245,100297,100271
 1.0000e+000 100666 -3.2739e+002 -4.5174e+002  1.3480e+002 37607 100689,100568,100542
 1.0000e+000 100643 -2.7657e+002 -2.9921e+002  1.2117e+002 37607 100689,100542,100490
 1.0000e+000 100620 -2.7531e+002 -2.1208e+002  1.2512e+002 37607 100490,100542,100516
 1.0000e+000 100715 -2.7633e+002 -3.0488e+002  1.0488e+002 37607 100594,100568,100689
 1.0000e+000 100738 -3.0713e+002 -2.6243e+002  1.0573e+002 37607 100594,100689,100490
 1.0000e+000 100937 -2.8238e+002 -1.6046e+002  2.4095e+002 37017 100960,100813,100787
 1.0000e+000 100914 -2.5553e+002 -1.7792e+002  1.5878e+002 37017 100960,100787,100761
 1.0000e+000 100891 -3.9125e+002 -1.3550e+002  2.3284e+002 37017 100813,100865,100839
 1.0000e+000 100986 -3.3655e+002 -2.5284e+002  2.6600e+002 37017 100865,100813,100960
 1.0000e+000 101009 -2.8601e+002 -2.4201e+002  1.7718e+002 37017 100865,100960,100761
 1.0000e+000 101519 -5.0402e+002 -4.2535e+002  2.0512e+002 36613 101222,101274,101248
 1.0000e+000 101496 -2.9203e+002 -2.8267e+002  1.4072e+002 36613 101222,101352,101274
 1.0000e+000 101473 -2.9542e+002 -3.7888e+002  1.0545e+002 36613 101274,101352,101326
 1.0000e+000 101450 -2.9096e+002 -2.0320e+002  1.7751e+002 36613 101222,101378,101352
 1.0000e+000 101427 -6.2275e+001 -8.1279e+002  2.2763e+002 36613 101274,101326,101300
 1.0000e+000 101404 -2.8767e+002 -1.1152e+002  7.0652e+001 36613 101196,101378,101222
 1.0000e+000 101718 -2.7834e+002 -1.7139e+002  2.2311e+002 36308 101594,101646,101620
 1.0000e+000 101695 -2.8286e+002 -1.4249e+002  1.8763e+002 36308 101568,101646,101594
 1.0000e+000 101672 -2.1714e+002 -1.8201e+002  1.9604e+002 36308 101542,101646,101568
 1.0000e+000 102098 -3.1134e+002 -2.1842e+002  1.4878e+002 35918 102121,101954,101876
 1.0000e+000 102075 -2.4288e+002 -2.7707e+002  1.2262e+002 35918 102121,101876,101824
 1.0000e+000 102052 -3.2270e+002 -2.2514e+002  1.2159e+002 35918 101876,101954,101928
 1.0000e+000 102029 -4.3980e+002 -9.7121e+001  1.3559e+002 35918 101876,101928,101902
 1.0000e+000 102006 -2.1339e+002 -1.8974e+002  7.9579e+001 35918 101824,101876,101850
 1.0000e+000 102147 -3.4651e+002 -2.7312e+002  1.7511e+002 35918 101980,101954,102121
 1.0000e+000 102170 -2.7458e+002 -3.3405e+002  1.4400e+002 35918 101980,102121,101824
 1.0000e+000 102489 -2.9312e+002 -6.6048e+002  2.2454e+002 35514 102241,102345,102267
 1.0000e+000 102466 -3.7832e+002 -6.7428e+002  2.1397e+002 35514 102215,102345,102241
 1.0000e+000 102443 -3.0564e+002 -7.3217e+002  2.2628e+002 35514 102215,102371,102345
 1.0000e+000 102420 -2.5587e+002 -6.0667e+002  2.4230e+002 35514 102267,102345,102293
 1.0000e+000 102397 -1.6422e+002 -4.0942e+002  2.6713e+002 35514 102293,102345,102319
 1.0000e+000 102820 -2.7540e+002 -2.5879e+002  8.0456e+001 35224 102843,102699,102647
 1.0000e+000 102797 -4.0538e+002 -3.0176e+002  1.6554e+002 35224 102971,102725,102699
 1.0000e+000 102774 -3.3347e+002 -3.5576e+002  1.9986e+002 35224 102595,102725,102621
 1.0000e+000 102751 -1.3472e+002 -1.4459e+002  1.3082e+002 35224 102647,102699,102673
 1.0000e+000 102869 -3.0937e+002 -2.7209e+002  1.4917e+002 35224 102971,102699,102843
 1.0000e+000 102997 -2.8376e+002 -3.5027e+002  1.6535e+002 35224 102621,102725,102971
 1.0000e+000 103020 -1.7524e+002 -3.1496e+002  1.5892e+002 35224 102621,102971,102843
 1.0000e+000 103349 -4.0300e+002 -3.0574e+002  1.9064e+002 34820 103150,103228,103176
 1.0000e+000 103326 -3.6434e+002 -3.3635e+002  1.8536e+002 34820 103124,103228,103150
 1.0000e+000 103303 -3.2380e+002 -3.1395e+002  3.1870e+002 34820 103176,103228,103202
 1.0000e+000 103280 -2.3868e+002 -2.7893e+002  2.2199e+002 34820 103124,103254,103228
 1.0000e+000 103806 -3.9388e+002 -2.4145e+002  1.5700e+002 34530 103558,103662,103636
 1.0000e+000 103783 -3.4580e+002 -2.7453e+002  8.9676e+001 34530 103558,103688,103662
 1.0000e+000 103760 -3.8238e+002 -3.8486e+002  9.7347e+001 34530 103532,103688,103558
 1.0000e+000 103737 -2.5073e+002 -3.4341e+002  1.5562e+002 34530 103584,103636,103610
 1.0000e+000 103714 -5.9495e+002 -3.1947e+002  1.8561e+002 34530 103558,103636,103584
 1.0000e+000 104263 -1.9674e+002 -2.1166e+002  1.5289e+002 34019 103989,104119,104015
 1.0000e+000 104240 -1.6426e+002 -1.9659e+002  1.5762e+002 34019 103989,104145,104119
 1.0000e+000 104217 -1.9008e+002 -2.6616e+002  9.4650e+001 34019 104015,104067,104041
 1.0000e+000 104194 -2.3706e+002 -2.9144e+002  1.3026e+002 34019 104015,104119,104067
 1.0000e+000 104171 -2.4107e+002 -1.8691e+002  1.2285e+002 34019 104067,104119,104093
 1.0000e+000 104641 -3.1574e+002 -1.9024e+002  1.2988e+002 33351 104419,104497,104445
 1.0000e+000 104618 -2.7580e+002 -1.4194e+002  1.5681e+002 33351 104393,104497,104419
 1.0000e+000 104595 -4.6644e+002 -2.3189e+002  1.1535e+002 33351 104367,104497,104393
 1.0000e+000 104572 -3.2611e+002 -2.1313e+002  1.0013e+002 33351 104445,104497,104471
 1.0000e+000 104549 -3.8832e+002 -1.6145e+002  7.3114e+001 33351 104367,104523,104497
 1.0000e+000 105019 -2.8583e+002 -5.4227e+002  2.7965e+002 32861 104823,104901,104875
 1.0000e+000 104996 -3.7646e+002 -5.9327e+002  2.3619e+002 32861 104745,104901,104823
 1.0000e+000 104973 -4.3035e+002 -6.0525e+002  2.6738e+002 32861 104823,104875,104849
 1.0000e+000 104950 -3.7592e+002 -5.7090e+002  2.9316e+002 32861 104745,104823,104797
 1.0000e+000 104927 -4.1714e+002 -2.1589e+002  2.9953e+002 32861 104745,104797,104771
 1.0000e+000 105397 -2.1507e+002 -3.7969e+002  1.7770e+002 32457 105149,105253,105175
 1.0000e+000 105374 -3.1608e+002 -3.3472e+002  1.5154e+002 32457 105149,105279,105253
 1.0000e+000 105351 -1.7915e+002 -2.8520e+002  1.6743e+002 32457 105123,105279,105149
 1.0000e+000 105328 -3.4387e+002 -7.2254e+001  2.5391e+002 32457 105175,105227,105201
 1.0000e+000 105305 -4.0486e+002 -4.6125e+002  1.7362e+002 32457 105175,105253,105227
 1.0000e+000 105726 -1.3965e+002 -3.9804e+002  1.8150e+002 32003 105527,105605,105553
 1.0000e+000 105703 -2.3133e+002 -3.3149e+002  1.6984e+002 32003 105501,105605,105527
 1.0000e+000 105680 -1.1831e+002 -2.8354e+002  1.6407e+002 32003 105501,105631,105605
 1.0000e+000 105657 -6.9411e+001 -2.3196e+002  1.6470e+002 32003 105553,105605,105579
 1.0000e+000 106104 -3.6747e+002 -2.3999e+002  1.7510e+002 31492 106127,105908,105856
 1.0000e+000 106081 -3.5793e+002 -2.2404e+002  1.0174e+002 31492 106127,105856,105830
 1.0000e+000 106058 -2.7194e+002 -3.5578e+002  1.8810e+002 31492 105856,105908,105882
 1.0000e+000 106035 -2.4419e+002 -2.6291e+002  7.6619e+001 31492 105830,105986,105960
 1.0000e+000 106012 -2.1115e+002 -3.7158e+002  2.3982e+002 31492 105908,105960,105934
 1.0000e+000 106153 -3.8164e+002 -2.9620e+002  1.6421e+002 31492 105960,105908,106127
 1.0000e+000 106176 -3.8628e+002 -3.2773e+002  9.9408e+001 31492 105960,106127,105830
 1.0000e+000 106375 -3.0771e+002 -2.7697e+002  2.1464e+002 30788 106398,106277,106251
 1.0000e+000 106352 -3.4465e+002 -4.0803e+002  2.1353e+002 30788 106398,106251,106225
 1.0000e+000 106329 -4.5006e+002 -3.5205e+002  2.8784e+002 30788 106600,106199,106303
 1.0000e+000 106424 -4.4791e+002 -4.7043e+002  1.5615e+002 30788 106470,106398,106303
 1.0000e+000 106447 -3.3739e+002 -3.9428e+002  2.1669e+002 30788 106600,106303,106398
 1.0000e+000 106496 -1.1842e+002 -3.2934e+002  1.7962e+002 30788 106277,106398,106470
 1.0000e+000 106626 -5.1703e+002 -4.3835e+002  3.4239e+002 30788 106225,106199,106600
 1.0000e+000 106649 -4.4075e+002 -4.8695e+002  2.7000e+002 30788 106225,106600,106398
 1.0000e+000 106799 -1.7011e+002 -4.1621e+002  7.2105e+001 30426 106698,106750,106724
 1.0000e+000 106776 -1.0298e+002 -2.4437e+002  1.0637e+002 30426 106672,106750,106698
 1.0000e+000 107356 -3.3370e+002 -2.6284e+002  1.4527e+002 29972 107010,107166,107114
 1.0000e+000 107333 -3.2868e+002 -2.5846e+002  1.4842e+002 29972 106984,107166,107010
 1.0000e+000 107310 -3.4539e+002 -1.4894e+002  9.4758e+001 29972 107010,107114,107088
 1.0000e+000 107287 -3.2170e+002 -1.3866e+002  1.0475e+002 29972 107114,107166,107140
 1.0000e+000 107264 -3.3624e+002 -2.9589e+002  1.6993e+002 29972 106984,107192,107166
 1.0000e+000 107241 -4.0039e+002 -2.8012e+002  1.0784e+002 29972 107010,107088,107036
 1.0000e+000 107218 -2.9994e+002 -2.3743e+002  1.0849e+002 29972 107036,107088,107062
 1.0000e+000 107783 -3.5353e+002 -4.5043e+002  2.3037e+002 29724 107878,107806,107590
 1.0000e+000 107760 -5.0003e+002 -5.0194e+002  2.0770e+002 29724 107806,107512,107486
 1.0000e+000 107737 -3.5201e+002 -4.3815e+002  2.4306e+002 29724 107878,107590,107538
 1.0000e+000 107714 -3.7308e+002 -5.2608e+002  2.6862e+002 29724 107950,107460,107616
 1.0000e+000 107691 -3.6234e+002 -5.1642e+002  2.5029e+002 29724 107460,107642,107616
 1.0000e+000 107668 -2.4949e+002 -3.2649e+002  2.8690e+002 29724 107538,107590,107564
 1.0000e+000 107832 -2.6626e+002 -4.6339e+002  2.9209e+002 29724 107616,107590,107806
 1.0000e+000 107855 -3.7548e+002 -5.3040e+002  2.5898e+002 29724 107950,107616,107806
 1.0000e+000 107904 -3.6902e+002 -4.3036e+002  2.6202e+002 29724 107512,107806,107878
 1.0000e+000 107927 -3.1353e+002 -3.8958e+002  2.8381e+002 29724 107512,107878,107538
 1.0000e+000 107976 -2.5134e+002 -5.3623e+002  2.9935e+002 29724 107486,107460,107950
 1.0000e+000 107999 -3.6116e+002 -5.6681e+002  2.5367e+002 29724 107486,107950,107806
 1.0000e+000 108296 -3.6831e+002 -3.1410e+002  1.8590e+002 29206 108319,108100,108048
 1.0000e+000 108273 -2.1404e+002 -2.8421e+002  2.3329e+002 29206 108319,108048,108022
 1.0000e+000 108250 -1.2934e+002 -3.3123e+002  2.8345e+002 29206 108391,108152,108126
 1.0000e+000 108227 -4.6911e+002 -2.1450e+002  2.4761e+002 29206 108048,108100,108074
 1.0000e+000 108204 -1.7780e+002 -4.3680e+002  2.4857e+002 29206 108022,108178,108152
 1.0000e+000 108345 -2.7327e+002 -1.8505e+002  2.6982e+002 29206 108126,108100,108319
 1.0000e+000 108368 -1.6406e+002 -2.7384e+002  3.1364e+002 29206 108391,108126,108319
 1.0000e+000 108417 -2.1204e+002 -3.9922e+002  2.4659e+002 29206 108022,108152,108391
 1.0000e+000 108440 -2.3937e+002 -3.5562e+002  2.7892e+002 29206 108022,108391,108319
 1.0000e+000 108688 -4.5697e+002 -4.5038e+002  2.5437e+002 28595 108711,108541,108515
 1.0000e+000 108665 -6.2758e+002 -4.8161e+002  3.5522e+002 28595 108783,108711,108515
 1.0000e+000 108642 -7.3240e+002 -4.3465e+002  3.5183e+002 28595 108783,108515,108489
 1.0000e+000 108619 -7.1720e+002 -5.5625e+002  1.7867e+002 28595 108463,108593,108489
 1.0000e+000 108737 -4.1299e+002 -3.5395e+002  1.7661e+002 28595 108567,108541,108711
 1.0000e+000 108760 -3.7554e+002 -3.9605e+002  3.1372e+002 28595 108567,108711,108593
 1.0000e+000 108809 -4.3883e+002 -5.0146e+002  2.8068e+002 28595 108593,108711,108783
 1.0000e+000 108832 -6.0745e+002 -4.9443e+002  2.4753e+002 28595 108593,108783,108489
 1.0000e+000 109033 -1.9307e+002 -2.3615e+002  1.3153e+002 28091 108909,108961,108935
 1.0000e+000 109010 -2.5608e+002 -2.3126e+002  1.1629e+002 28091 108857,108961,108909
 1.0000e+000 108987 -3.7289e+002 -3.2533e+002  2.5297e+002 28091 108857,108909,108883
 1.0000e+000 109136 -2.9568e+002 -6.9599e+002  1.2837e+002 27587 109058,109110,109084
 1.0000e+000 109695 -2.4781e+002 -3.1261e+002  1.0989e+002 26969 109718,109375,109323
 1.0000e+000 109672 -2.5532e+002 -3.0736e+002  1.2891e+002 26969 109718,109323,109505
 1.0000e+000 109649 -3.2290e+002 -1.3175e+002  8.0786e+001 26969 109790,109453,109427
 1.0000e+000 109626 -1.5446e+002 -2.7215e+002  1.3849e+002 26969 109323,109375,109349
 1.0000e+000 109603 -3.5548e+002 -4.1127e+002  1.8315e+002 26969 109323,109531,109505
 1.0000e+000 109580 -2.1687e+002 -3.7611e+002  9.3230e+001 26969 109375,109427,109401
 1.0000e+000 109557 -3.6320e+002 -1.7785e+002  9.6491e+001 26969 109453,109505,109479
 1.0000e+000 109744 -2.7348e+002 -3.4092e+002  7.1521e+001 26969 109427,109375,109718
 1.0000e+000 109767 -2.1739e+002 -2.1411e+002  8.0843e+001 26969 109790,109427,109718
 1.0000e+000 109816 -3.8187e+002 -2.1542e+002  1.1787e+002 26969 109505,109453,109790
 1.0000e+000 109839 -3.1057e+002 -3.2126e+002  1.3167e+002 26969 109505,109790,109718
 1.0000e+000 110266 -2.7321e+002 -4.1335e+002  1.7138e+002 26515 110361,110289,110099
 1.0000e+000 110243 -2.3360e+002 -3.1659e+002  2.1892e+002 26515 110289,109995,109943
 1.0000e+000 110220 -2.8609e+002 -4.2353e+002  1.8914e+002 26515 110361,110099,110021
 1.0000e+000 110197 -2.4939e+002 -5.9772e+002  1.4206e+002 26515 110047,110099,110073
 1.0000e+000 110174 -2.9715e+002 -6.7454e+002  6.3689e+001 26515 110021,110099,110047
 1.0000e+000 110151  4.2624e+001  5.7433e+001  3.4290e+002 26515 109943,109995,109969
 1.0000e+000 110315 -4.8032e+002 -3.0033e+002  1.4705e+002 26515 110125,110099,110289
 1.0000e+000 110338 -2.8258e+002 -9.5083e+001  2.8801e+002 26515 110125,110289,109943
 1.0000e+000 110387 -2.7792e+002 -3.6397e+002  1.4655e+002 26515 109995,110289,110361
 1.0000e+000 110410 -2.9562e+002 -3.9042e+002  1.6319e+002 26515 109995,110361,110021
 1.0000e+000 110609 -1.3555e+002 -4.2411e+002  1.6869e+002 25789 110906,110762,110632
 1.0000e+000 110586 -1.4259e+002 -5.2342e+002  1.9390e+002 25789 110762,110433,110537
 1.0000e+000 110563 -3.1911e+002 -4.6270e+002  2.6790e+002 25789 110834,110459,110433
 1.0000e+000 110658 -1.9828e+002 -4.1108e+002  2.1200e+002 25789 110906,110632,110834
 1.0000e+000 110788 -9.7135e+001 -2.7111e+002  1.0873e+002 25789 110511,110632,110762
 1.0000e+000 110811 -1.3684e+002 -4.1885e+002  1.9296e+002 25789 110511,110762,110537
 1.0000e+000 110860 -2.2491e+002 -4.1225e+002  2.4186e+002 25789 110485,110459,110834
 1.0000e+000 110883 -2.5508e+002 -4.2816e+002  2.1991e+002 25789 110485,110834,110632
 1.0000e+000 110932 -2.6041e+002 -4.6094e+002  1.7858e+002 25789 110433,110762,110906
 1.0000e+000 110955 -3.0925e+002 -4.3153e+002  2.1247e+002 25789 110433,110906,110834
 1.0000e+000 111350 -3.4207e+002 -3.8544e+002  2.5875e+002 25228 111445,111373,111186
 1.0000e+000 111327 -3.7249e+002 -4.3217e+002  1.2394e+002 25228 110978,111186,111004
 1.0000e+000 111304 -3.6497e+002 -4.8860e+002  2.1697e+002 25228 111373,111108,111082
 1.0000e+000 111281 -2.9782e+002 -5.1459e+002  2.0977e+002 25228 111134,111186,111160
 1.0000e+000 111258 -3.3311e+002 -3.6140e+002  2.5675e+002 25228 111445,111186,111134
 1.0000e+000 111235 -3.0798e+002 -3.2970e+002  1.4913e+002 25228 111517,111030,111004
 1.0000e+000 111212 -4.5877e+002 -4.0138e+002  2.2069e+002 25228 111030,111082,111056
 1.0000e+000 111399 -3.4773e+002 -4.4656e+002  2.4832e+002 25228 111004,111186,111373
 1.0000e+000 111422 -2.7131e+002 -3.6800e+002  2.0267e+002 25228 111517,111004,111373
 1.0000e+000 111471 -3.4895e+002 -3.7580e+002  2.2172e+002 25228 111108,111373,111445
 1.0000e+000 111494 -3.3751e+002 -3.4598e+002  2.2028e+002 25228 111108,111445,111134
 1.0000e+000 111543 -3.9329e+002 -3.6074e+002  1.8418e+002 25228 111082,111030,111517
 1.0000e+000 111566 -3.5721e+002 -4.1098e+002  2.3930e+002 25228 111082,111517,111373
 1.0000e+000 112074 -3.1158e+002 -3.2043e+002  2.1094e+002 24338 112097,111907,111881
 1.0000e+000 112051 -3.9646e+002 -3.2291e+002  1.5701e+002 24338 112097,111881,111829
 1.0000e+000 112028 -1.9937e+002 -3.5618e+002  1.3045e+002 24338 111829,111881,111855
 1.0000e+000 112005 -4.8505e+002 -4.8346e+002  1.4126e+002 24338 111777,111933,111829
 1.0000e+000 111982 -5.4684e+002 -1.4988e+002  1.7303e+002 24338 111751,111933,111777
 1.0000e+000 111959 -4.8491e+002 -5.5793e+002  1.8511e+002 24338 111777,111829,111803
 1.0000e+000 112123 -3.9188e+002 -4.4907e+002  1.7018e+002 24338 111933,111907,112097
 1.0000e+000 112146 -4.2572e+002 -3.4313e+002  1.4060e+002 24338 111933,112097,111829
 1.0000e+000 112443 -4.6300e+002 -3.0189e+002  1.9475e+002 23998 112466,112299,112247
 1.0000e+000 112420 -5.0016e+002 -5.3074e+002  1.7764e+002 23998 112466,112247,112221
 1.0000e+000 112397 -4.8562e+002 -5.3778e+002  2.7496e+002 23998 112169,112325,112221
 1.0000e+000 112374 -4.5550e+002 -4.7479e+002  2.8523e+002 23998 112169,112221,112195
 1.0000e+000 112351 -1.7967e+002 -2.6649e+002  2.4017e+002 23998 112247,112299,112273
 1.0000e+000 112492 -4.4224e+002 -3.3266e+002  3.3058e+002 23998 112325,112299,112466
 1.0000e+000 112515 -4.8743e+002 -4.6293e+002  2.8523e+002 23998 112325,112466,112221
 1.0000e+000 113200 -4.3852e+002 -4.9717e+002  3.2896e+002 23480 112779,112961,112805
 1.0000e+000 113177 -4.4944e+002 -3.7522e+002  1.6819e+002 23480 112779,112987,112961
 1.0000e+000 113154 -1.6725e+002 -2.8195e+002  2.2288e+002 23480 112805,112961,112883
 1.0000e+000 113131 -3.0119e+002 -4.5145e+002  2.2941e+002 23480 112883,112935,112909
 1.0000e+000 113108 -3.7742e+002 -3.6976e+002  2.3081e+002 23480 112883,112961,112935
 1.0000e+000 113085 -2.0530e+002 -2.4009e+002  1.1326e+002 23480 112831,112883,112857
 1.0000e+000 113062 -2.7187e+002 -2.9637e+002  1.4146e+002 23480 112805,112883,112831
 1.0000e+000 113039 -5.4337e+002 -2.9097e+002  1.8917e+002 23480 112779,113013,112987
 1.0000e+000 113676 -3.8845e+002 -2.3019e+002  2.8948e+002 23018 113699,113434,113356
 1.0000e+000 113653 -3.5620e+002 -2.2976e+002  1.8222e+002 23018 113771,113699,113356
 1.0000e+000 113630 -3.2707e+002 -3.3060e+002  1.3929e+002 23018 113771,113356,113512
 1.0000e+000 113607 -2.5692e+002 -4.2155e+002  2.0249e+002 23018 113330,113512,113356
 1.0000e+000 113584 -8.1245e+002 -3.7777e+002  4.4145e+002 23018 113356,113434,113382
 1.0000e+000 113561 -9.8574e+001 -3.9735e+002  1.9804e+002 23018 113304,113512,113330
 1.0000e+000 113538 -7.5877e+002 -8.7060e+001  1.9698e+002 23018 113382,113434,113408
 1.0000e+000 113725 -4.2993e+002 -3.2592e+002  2.8541e+002 23018 113460,113434,113699
 1.0000e+000 113748 -4.4983e+002 -3.4442e+002  2.0814e+002 23018 113460,113699,113486
 1.0000e+000 113797 -4.3350e+002 -3.7703e+002  2.1116e+002 23018 113486,113699,113771
 1.0000e+000 113820 -3.5981e+002 -4.0348e+002  1.4633e+002 23018 113486,113771,113512
 1.0000e+000 114424 -3.8537e+002 -3.8234e+002  1.0294e+002 22514 114447,114133,114029
 1.0000e+000 114401 -3.9485e+002 -4.7055e+002  1.0670e+002 22514 114447,114029,114237
 1.0000e+000 114378 -3.5171e+002 -2.7401e+002  8.0889e+001 22514 114133,114211,114185
 1.0000e+000 114355 -5.5667e+002 -3.0186e+002  4.5467e+001 22514 114133,114185,114159
 1.0000e+000 114332 -3.0785e+002 -4.8510e+002  2.3421e+002 22514 114003,114237,114029
 1.0000e+000 114309 -4.0701e+002 -3.0638e+002  6.4030e+001 22514 114029,114133,114055
 1.0000e+000 114286 -4.0385e+002 -2.9903e+002  6.2043e+001 22514 114055,114133,114107
 1.0000e+000 114263 -3.1172e+002 -4.0740e+000  4.7766e+001 22514 114055,114107,114081
 1.0000e+000 114473 -4.1387e+002 -3.3149e+002  1.3668e+002 22514 114211,114133,114447
 1.0000e+000 114496 -4.0755e+002 -3.9719e+002  1.3804e+002 22514 114211,114447,114237
 1.0000e+000 114597 -2.4020e+002 -6.0132e+002  3.3262e+002 22316 114620,114571,114545
 1.0000e+000 114646 -2.4020e+002 -6.0132e+002  3.3262e+002 22316 114519,114571,114620
 1.0000e+000 115127 -5.4467e+002 -3.7477e+002  1.8463e+002 21612 115150,114905,114879
 1.0000e+000 115104 -6.1238e+002 -2.2021e+002  2.0114e+002 21612 115150,114879,114853
 1.0000e+000 115081 -4.3499e+002 -8.2438e+001  3.0016e+002 21612 115222,114931,114905
 1.0000e+000 115058 -4.8360e+002 -2.8613e+002  2.4962e+002 21612 115222,114905,115009
 1.0000e+000 115035 -3.1796e+002 -4.1265e+002  1.8806e+002 21612 114957,115009,114983
 1.0000e+000 115176 -5.0331e+002 -2.6125e+002  1.7663e+002 21612 115009,114905,115150
 1.0000e+000 115199 -5.5681e+002 -8.5229e+001  1.8681e+002 21612 115009,115150,114853
 1.0000e+000 115248 -4.1611e+002 -2.7357e+002  2.4694e+002 21612 114957,114931,115222
 1.0000e+000 115271 -4.5919e+002 -4.6741e+002  1.9504e+002 21612 114957,115222,115009
 1.0000e+000 115519 -1.6036e+002  9.0678e+001  1.5719e+002 21208 115542,115372,115320
 1.0000e+000 115496 -4.1696e+000  1.9478e+002  7.5416e-001 21208 115542,115320,115294
 1.0000e+000 115473 -1.0123e+002 -2.5457e+002  2.2494e+002 21208 115320,115372,115346
 1.0000e+000 115450 -3.2079e+002 -8.6260e+001  6.5973e+001 21208 115294,115424,115398
 1.0000e+000 115568 -2.2508e+002  2.6329e+001  2.1539e+002 21208 115398,115372,115542
 1.0000e+000 115591 -1.7124e+002 -7.4574e+001  8.7388e+001 21208 115398,115542,115294
 1.0000e+000 115839 -4.2812e+002 -2.7395e+002  2.4712e+002 20668 115862,115640,115614
 1.0000e+000 115816 -4.6581e+002 -2.9884e+002  2.6597e+002 20668 115862,115614,115744
 1.0000e+000 115793 -5.3614e+002 -2.2573e+002  2.5023e+002 20668 115640,115718,115692
 1.0000e+000 115770 -5.8689e+002 -2.4567e+002  2.5463e+002 20668 115640,115692,115666
 1.0000e+000 115888 -4.7951e+002 -2.1780e+002  2.6652e+002 20668 115718,115640,115862
 1.0000e+000 115911 -5.2596e+002 -2.6907e+002  2.9438e+002 20668 115718,115862,115744
 1.0000e+000 116134 -2.4445e+002 -4.1585e+002  2.3444e+002 20264 115958,116036,115984
 1.0000e+000 116111 -1.5230e+002 -3.7394e+002  2.2512e+002 20264 115958,116062,116036
 1.0000e+000 116088 -1.5781e+002 -3.9171e+002  2.5300e+002 20264 115984,116036,116010
 1.0000e+000 116384 -4.4319e+002 -2.7694e+002  2.6177e+002 19924 116407,116211,116159
 1.0000e+000 116361 -4.1659e+002 -4.4027e+002  2.2374e+002 19924 116407,116159,116263
 1.0000e+000 116338 -4.1944e+002 -1.8950e+002  2.5531e+002 19924 116159,116211,116185
 1.0000e+000 116315 -2.6892e+002 -4.4570e+002  2.9820e+002 19924 116159,116289,116263
 1.0000e+000 116433 -4.3034e+002 -1.8793e+002  2.9625e+002 19924 116237,116211,116407
 1.0000e+000 116456 -3.4435e+002 -2.9837e+002  2.7870e+002 19924 116237,116407,116263
 1.0000e+000 116608 -3.2266e+002 -1.1779e+002  1.8402e+002 19520 116703,116631,116533
 1.0000e+000 116585 -3.0996e+002 -1.4556e+002  1.6171e+002 19520 116631,116507,116481
 1.0000e+000 116657 -2.7888e+002 -1.4727e+002  1.9737e+002 19520 116559,116533,116631
 1.0000e+000 116680 -3.0044e+002 -2.1434e+002  1.6996e+002 19520 116559,116631,116481
 1.0000e+000 116729 -3.2266e+002 -1.1779e+002  1.8402e+002 19520 116507,116631,116703
 1.0000e+000 116952 -3.3161e+002 -2.8067e+002  3.9791e+002 19208 116975,116802,116776
 1.0000e+000 116929 -4.1353e+002 -5.3541e+002  2.3285e+002 19208 116975,116776,116880
 1.0000e+000 116906 -4.7111e+002 -2.0151e+002  2.7784e+002 19208 116802,116854,116828
 1.0000e+000 117001 -2.7015e+002 -2.3632e+002  4.1859e+002 19208 116854,116802,116975
 1.0000e+000 117024 -1.1277e+002 -3.0455e+002  3.3659e+002 19208 116854,116975,116880
 1.0000e+000 117428 -3.7710e+002 -1.4722e+002  2.1155e+002 18796 117154,117206,117180
 1.0000e+000 117405 -2.6188e+002 -2.7351e+002  1.9371e+002 18796 117154,117284,117206
 1.0000e+000 117382 -1.7240e+002 -2.3021e+002  2.1438e+002 18796 117154,117310,117284
 1.0000e+000 117359 -1.6088e+002 -1.8824e+002  2.5766e+002 18796 117206,117284,117258
 1.0000e+000 117336 -7.4235e+001 -4.5169e+001  3.4151e+002 18796 117206,117258,117232
 1.0000e+000 117529 -1.9389e+002 -9.4474e+001  1.0806e+002 18228 117810,117552,117477
 1.0000e+000 117578 -4.0073e+002 -2.6080e+002  1.6165e+002 18228 117682,117552,117503
 1.0000e+000 117708 -1.4390e+002 -1.3377e+002  1.0618e+002 18228 117477,117552,117682
 1.0000e+000 117836 -2.9547e+002 -2.7001e+002  1.6434e+002 18228 117451,117552,117810
 1.0000e+000 118364 -4.2834e+002 -1.5594e+002  1.5684e+002 17722 118067,118223,118093
 1.0000e+000 118341 -4.0042e+002 -5.4138e+001  1.5518e+002 17722 118041,118223,118067
 1.0000e+000 118318 -2.6244e+002 -1.4065e+002  1.1893e+002 17722 118093,118223,118197
 1.0000e+000 118295 -6.9054e+002 -6.4511e+002  4.0375e+002 17722 118119,118197,118171
 1.0000e+000 118272 -1.7253e+002 -5.2322e+001  1.7577e+002 17722 118093,118197,118119
 1.0000e+000 118249 -6.2169e+002 -2.1323e+002  3.2303e+002 17722 118119,118171,118145
 1.0000e+000 118514 -6.2828e+002 -2.5572e+002  2.2078e+002 17268 118387,118439,118413
 1.0000e+000 118491 -2.0911e+001 -2.6206e+002  2.3746e+002 17268 118387,118465,118439
 1.0000e+000 118916 -5.7320e+002 -2.1196e+002  1.3627e+002 16828 118668,118772,118694
 1.0000e+000 118893 -7.4381e+002 -2.7103e+002  1.1991e+002 16828 118668,118798,118772
 1.0000e+000 118870 -8.0216e+002 -4.5362e+002  9.2897e+001 16828 118642,118798,118668
 1.0000e+000 118847 -3.6573e+002 -1.5996e+002  2.9347e+002 16828 118694,118746,118720
 1.0000e+000 118824 -6.3022e+002 -3.9536e+002  1.3210e+002 16828 118694,118772,118746
 1.0000e+000 119316 -2.8320e+002 -2.0636e+002  2.7734e+002 16422 119042,119172,119094
 1.0000e+000 119293 -3.6237e+002 -2.1056e+002  2.9469e+002 16422 119042,119198,119172
 1.0000e+000 119270 -4.0650e+002 -1.4968e+002  1.6882e+002 16422 119042,119094,119068
 1.0000e+000 119247 -2.1707e+002 -1.1328e+002  3.8399e+002 16422 119094,119146,119120
 1.0000e+000 119224 -2.4975e+002 -1.4730e+002  2.9205e+002 16422 119094,119172,119146
 1.0000e+000 119466 -6.0072e+002 -1.7451e+002 -3.6650e+001 16010 119339,119391,119365
 1.0000e+000 119443 -2.6222e+002 -2.3015e+002  2.2136e+002 16010 119339,119417,119391
 1.0000e+000 119616 -1.7517e+002 -6.4821e+001  2.2571e+002 15547 119515,119567,119541
 1.0000e+000 119593  1.0406e+002  1.6112e+002  4.7656e+002 15547 119489,119567,119515
 1.0000e+000 119719 -5.3265e+002 -2.1598e+002  2.2461e+002 421 119641,119693,119667
 1.1000e+000 69562 -5.6385e+002 -2.6086e+002  3.9930e+002 69254 69484,69536,69510
 1.1000e+000 70009 -1.9089e+002 -1.9512e+002  1.9777e+002 68942 69686,69842,69816
 1.1000e+000 69986 -1.4590e+002 -3.0098e+001  1.2411e+002 68942 69686,69868,69842
 1.1000e+000 69963  2.9474e+001  1.5509e+001  2.8442e+002 68942 69686,69816,69712
 1.1000e+000 69940 -6.2855e+001 -5.0949e+001  4.1587e+002 68942 69712,69790,69738
 1.1000e+000 69917 -2.5591e+002 -6.3616e+002  3.2748e+002 68942 69712,69816,69790
 1.1000e+000 69894  8.0490e+000 -3.5252e+002  1.7312e+002 68942 69738,69790,69764
 1.1000e+000 70110 -2.4231e+002 -6.4342e+001  1.4559e+002 68766 70032,70084,70058
 1.1000e+000 70746 -1.4519e+002 -1.0799e+002  1.5180e+002 68448 70400,70556,70426
 1.1000e+000 70723 -4.5901e+002 -1.7433e+002  2.1532e+002 68448 70374,70556,70400
 1.1000e+000 70700 -2.1760e+002 -1.0272e+002  9.8288e+001 68448 70426,70556,70478
 1.1000e+000 70677 -3.6365e+002 -7.5143e+001  1.1061e+002 68448 70478,70556,70504
 1.1000e+000 70654 -2.5940e+002 -1.5651e+002  1.1827e+002 68448 70426,70478,70452
 1.1000e+000 70631 -4.5571e+002 -1.5602e+002  2.6606e+002 68448 70374,70582,70556
 1.1000e+000 70608 -3.7466e+002 -1.2741e+002  1.2198e+002 68448 70504,70556,70530
 1.1000e+000 70896 -2.3481e+002 -4.6761e+001  2.0638e+001 68250 70795,70847,70821
 1.1000e+000 70873 -8.5344e+002 -2.8016e+002  1.2518e+001 68250 70769,70847,70795
 1.1000e+000 70997 -1.3906e+003 -6.4281e+002  5.6560e+002 68052 70919,70971,70945
 1.1000e+000 71367 -4.1787e+002 -6.6014e+002  2.6106e+002 67740 71096,71226,71200
 1.1000e+000 71344 -2.7626e+002 -3.8089e+002  3.1947e+002 67740 71044,71226,71096
 1.1000e+000 71321  2.7899e+001 -2.7899e+001  5.0669e+002 67740 71044,71096,71070
 1.1000e+000 71298 -3.2051e+002 -7.0770e+002  4.9765e+002 67740 71096,71200,71174
 1.1000e+000 71275 -1.7392e+002 -4.2002e+002  1.9703e+002 67740 71096,71148,71122
 1.1000e+000 71252 -2.4347e+002 -5.0252e+002  3.2655e+002 67740 71096,71174,71148
 1.1000e+000 71519  1.5566e+002  9.9775e+001  1.5879e+002 67542 71418,71470,71444
 1.1000e+000 71496  2.6911e+002  5.3931e+002  5.0035e+002 67542 71392,71470,71418
 1.1000e+000 71923 -9.5345e+001 -2.2035e+000  1.4467e+002 67230 71649,71779,71675
 1.1000e+000 71900 -6.9749e+001 -1.3421e+002  9.6709e+001 67230 71649,71805,71779
 1.1000e+000 71877 -9.9002e+001 -3.4833e+001  2.6683e+002 67230 71675,71727,71701
 1.1000e+000 71854 -1.3317e+002 -3.9644e+002  2.6364e+002 67230 71675,71753,71727
 1.1000e+000 71831 -1.3632e+002 -2.4155e+002  1.8336e+002 67230 71675,71779,71753
 1.1000e+000 72433 -1.9259e+002 -1.0815e+002  2.0779e+002 67032 72038,72246,72220
 1.1000e+000 72410 -1.3378e+002  2.8625e+000  7.0517e+001 67032 72012,72246,72038
 1.1000e+000 72387 -2.5981e+002 -7.3979e+001  2.2901e+002 67032 72064,72194,72168
 1.1000e+000 72364 -2.9748e+002 -1.1384e+002  2.4616e+002 67032 72038,72194,72064
 1.1000e+000 72341 -3.0193e+002 -4.0560e+002  3.0733e+002 67032 72038,72220,72194
 1.1000e+000 72318 -1.3105e+002 -3.7343e+000  1.3496e+002 67032 72090,72168,72142
 1.1000e+000 72295 -2.0298e+001  1.8204e+001  1.8680e+002 67032 72064,72168,72090
 1.1000e+000 72272 -1.4755e+002 -1.9449e+001  1.2761e+002 67032 72090,72142,72116
 1.1000e+000 72933 -2.2616e+002 -2.5267e+002  2.5611e+002 66628 72956,72665,72613
 1.1000e+000 72910 -2.1396e+002 -2.8438e+002  2.5385e+002 66628 73100,72956,72613
 1.1000e+000 72887 -2.8663e+002 -3.9248e+002  2.1863e+002 66628 73028,72691,72665
 1.1000e+000 72864 -2.0730e+002 -2.7101e+002  2.5740e+002 66628 73100,72613,72587
 1.1000e+000 72841 -2.1300e+002 -2.4123e+002  2.3027e+002 66628 72613,72665,72639
 1.1000e+000 72818  8.3827e+001  2.1983e+001  3.6166e+002 66628 72587,72769,72743
 1.1000e+000 72795 -1.9019e+002 -5.5424e+002  7.0224e+001 66628 72561,72769,72587
 1.1000e+000 72982 -2.8295e+002 -2.8643e+002  2.7651e+002 66628 73028,72665,72956
 1.1000e+000 73005 -2.2284e+002 -8.7538e+001  2.6800e+002 66628 72717,72956,72743
 1.1000e+000 73054 -3.9566e+002 -3.2989e+002  1.3791e+002 66628 72717,72691,73028
 1.1000e+000 73077 -3.9541e+002 -2.9384e+002  1.9101e+002 66628 72717,73028,72956
 1.1000e+000 73126 -2.2058e+002 -2.8434e+002  2.3845e+002 66628 72743,72956,73100
 1.1000e+000 73149 -2.1372e+002 -2.7324e+002  2.4219e+002 66628 72743,73100,72587
 1.1000e+000 73606 -2.2461e+002 -2.5409e+002  2.2412e+002 66281 73332,73384,73358
 1.1000e+000 73583 -2.9362e+002 -3.5458e+002  1.9116e+002 66281 73332,73462,73384
 1.1000e+000 73560 -3.8132e+002 -2.3332e+002  2.7140e+002 66281 73384,73462,73436
 1.1000e+000 73537 -6.6966e+002 -3.4720e+002  3.1623e+002 66281 73332,73488,73462
 1.1000e+000 73514 -4.2367e+002 -2.0882e+002  1.1664e+002 66281 73384,73436,73410
 1.1000e+000 73984 -4.7969e+001 -7.6974e+001  6.1124e+001 65969 73736,73814,73788
 1.1000e+000 73961  1.3932e+001 -1.1016e+001  1.5115e+001 65969 73736,73866,73814
 1.1000e+000 73938 -1.2883e+002 -1.0733e+002  1.4173e+002 65969 73814,73866,73840
 1.1000e+000 73915 -1.5283e+001 -1.3684e+001  1.0635e+001 65969 73710,73866,73736
 1.1000e+000 73892 -6.3935e+000 -7.7066e+001  3.4833e+000 65969 73736,73788,73762
 1.1000e+000 74232 -2.0240e+002 -2.5175e+002  2.3649e+002 65572 74255,74085,74033
 1.1000e+000 74209 -1.7743e+002 -2.8407e+002  1.9234e+002 65572 74327,74255,74033
 1.1000e+000 74186 -2.0216e+002 -1.9525e+002  1.9267e+002 65572 74327,74033,74007
 1.1000e+000 74163 -2.2159e+002 -2.9210e+002  2.5331e+002 65572 74033,74085,74059
 1.1000e+000 74281 -2.6127e+002 -3.2451e+002  2.9931e+002 65572 74111,74085,74255
 1.1000e+000 74304 -1.7606e+002 -3.0126e+002  2.0270e+002 65572 74111,74255,74137
 1.1000e+000 74353 -1.5381e+002 -1.8147e+002  1.5933e+002 65572 74137,74255,74327
 1.1000e+000 74376 -1.9803e+002 -1.1501e+002  1.6428e+002 65572 74137,74327,74007
 1.1000e+000 74884 -2.0392e+002 -2.3497e+002  1.7998e+002 65174 74587,74717,74613
 1.1000e+000 74861 -1.9714e+002 -2.5815e+002  1.3769e+002 65174 74561,74717,74587
 1.1000e+000 74838 -2.0319e+002 -2.9189e+002  1.5512e+002 65174 74613,74691,74639
 1.1000e+000 74815 -1.7127e+002 -2.6998e+002  1.7883e+002 65174 74613,74717,74691
 1.1000e+000 74792 -7.7430e+001 -4.7489e+002  1.2776e+002 65174 74639,74691,74665
 1.1000e+000 74769 -2.2334e+002 -1.6802e+002  1.2820e+002 65174 74561,74743,74717
 1.1000e+000 75412 -1.4268e+001 -1.1788e+002  4.8250e+002 64770 75167,75245,75219
 1.1000e+000 75389 -2.4277e+002 -4.1476e+002  3.3648e+002 64770 75115,75245,75167
 1.1000e+000 75366 -1.8904e+002 -5.1578e+002  4.2401e+002 64770 75089,75245,75115
 1.1000e+000 75343 -3.7501e+002 -1.4471e+002  3.5978e+002 64770 75167,75219,75193
 1.1000e+000 75320 -1.9758e+002 -3.0646e+002  3.3247e+002 64770 75115,75167,75141
 1.1000e+000 75297 -2.9344e+002 -7.5740e+002  4.4152e+002 64770 75089,75271,75245
 1.1000e+000 75861 -5.0118e+002 -2.0751e+002  3.8861e+002 64316 75538,75694,75564
 1.1000e+000 75838 -2.4059e+002 -8.3313e+001  2.2004e+002 64316 75538,75720,75694
 1.1000e+000 75815 -4.2353e+002 -2.5627e+002  3.0513e+002 64316 75590,75694,75642
 1.1000e+000 75792 -4.1804e+002 -3.7586e+002  3.4283e+002 64316 75564,75694,75590
 1.1000e+000 75769 -1.3215e+002 -4.7580e+002  1.7981e+002 64316 75590,75642,75616
 1.1000e+000 75746 -4.1454e+002 -1.7586e+002  2.9873e+002 64316 75642,75694,75668
 1.1000e+000 76239 -5.8375e+002 -4.6060e+002  3.4665e+002 64018 76262,76095,76043
 1.1000e+000 76216 -3.8266e+002 -4.4298e+002  2.8006e+002 64018 76262,76043,76017
 1.1000e+000 76193 -1.1729e+002 -2.1850e+002  1.7503e+002 64018 75991,76121,76017
 1.1000e+000 76170 -5.3271e+002 -3.4516e+002  3.3454e+002 64018 76043,76095,76069
 1.1000e+000 76147 -1.3861e+001 -2.5860e+002  5.9594e+001 64018 75965,76121,75991
 1.1000e+000 76288 -3.8601e+002 -5.5888e+002  4.4675e+002 64018 76121,76095,76262
 1.1000e+000 76311 -2.1968e+002 -5.5860e+002  3.5202e+002 64018 76121,76262,76017
 1.1000e+000 76866 -2.4734e+002 -2.6819e+002  2.7145e+002 63728 76520,76676,76546
 1.1000e+000 76843 -2.2269e+002 -2.7252e+002  1.9844e+002 63728 76520,76702,76676
 1.1000e+000 76820 -2.0768e+002 -3.0456e+002  2.8452e+002 63728 76546,76650,76572
 1.1000e+000 76797 -3.4256e+002 -3.9880e+002  2.2989e+002 63728 76546,76676,76650
 1.1000e+000 76774 -3.5518e+002 -4.8011e+001  1.3719e+002 63728 76572,76650,76624
 1.1000e+000 76751 -2.0078e+002 -2.2353e+002  2.1346e+002 63728 76494,76702,76520
 1.1000e+000 76728 -7.9431e+001 -1.5583e+002  1.1120e+002 63728 76572,76624,76598
 1.1000e+000 77065 -1.0812e+002 -2.3644e+002  1.7960e+002 63288 77088,76941,76915
 1.1000e+000 77042 -2.5148e+002 -2.8783e+002  1.7537e+002 63288 77088,76915,76993
 1.1000e+000 77019 -9.8969e+001 -2.8021e+002  1.7045e+002 63288 76889,76993,76915
 1.1000e+000 77114 -1.7901e+002 -2.2654e+002  1.4728e+002 63288 76967,76941,77088
 1.1000e+000 77137 -3.9420e+002 -3.2012e+002  7.5147e+001 63288 77160,77088,76993
 1.1000e+000 77186 -1.1190e+002 -1.8139e+002  1.2307e+002 63288 76967,77088,77160
 1.1000e+000 77417 -1.0427e+002 -1.8843e+002  1.0115e+002 62884 77440,77342,77316
 1.1000e+000 77394 -2.3410e+002 -3.1959e+002  4.7668e+001 62884 77770,77440,77316
 1.1000e+000 77466 -2.4448e+002 -3.4069e+002  5.8171e+001 62884 77512,77440,77368
 1.1000e+000 77489 -1.4084e+002 -2.7035e+002  3.1606e+001 62884 77642,77440,77290
 1.1000e+000 77538 -1.0081e+002 -2.4433e+002  1.5954e+001 62884 77342,77440,77512
 1.1000e+000 77668 -2.0655e+002 -4.0492e+002  1.0527e+001 62884 77368,77440,77642
 1.1000e+000 77796 -1.4508e+002 -2.7578e+002  3.3435e+001 62884 77290,77440,77770
 1.1000e+000 78479 -5.6551e+002 -5.0462e+002  3.2713e+002 62480 78084,78240,78214
 1.1000e+000 78456 -3.1168e+002 -4.3135e+002 -4.5748e+000 62480 78084,78266,78240
 1.1000e+000 78433 -3.8304e+002 -3.8542e+002  1.5394e+002 62480 78110,78214,78136
 1.1000e+000 78410 -3.8478e+002 -3.7847e+002  2.6947e+002 62480 78084,78214,78110
 1.1000e+000 78387 -4.1134e+002 -3.0896e+002  1.6864e+002 62480 78136,78214,78188
 1.1000e+000 78364 -2.4145e+002 -4.6771e+002 -9.9586e+000 62480 78058,78266,78084
 1.1000e+000 78341 -4.2329e+002 -3.4449e+002  3.0956e+002 62480 78136,78188,78162
 1.1000e+000 78318 -1.9906e+002 -4.4962e+002 -1.2422e+001 62480 78058,78292,78266
 1.1000e+000 78678 -3.1736e+002 -5.7392e+002  2.5853e+002 61926 78528,78606,78554
 1.1000e+000 78655 -1.8593e+002 -5.8532e+002  3.1585e+002 61926 78502,78606,78528
 1.1000e+000 78632 -1.8613e+002 -3.4813e+002  1.3260e+002 61926 78554,78606,78580
 1.1000e+000 79058 -2.9197e+002 -3.1134e+002  1.6917e+002 61614 78836,78914,78862
 1.1000e+000 79035 -3.8013e+002 -3.4639e+002  1.5647e+002 61614 78810,78914,78836
 1.1000e+000 79012 -2.4319e+002 -2.8887e+002  1.3988e+002 61614 78784,78914,78810
 1.1000e+000 78989 -2.5495e+002 -3.1785e+002  2.5683e+002 61614 78862,78914,78888
 1.1000e+000 78966 -1.9716e+002 -3.9103e+002  1.6606e+002 61614 78784,78940,78914
 1.1000e+000 79208 -8.6464e+001 -2.0167e+002  2.1798e+001 61366 79081,79133,79107
 1.1000e+000 79185 -1.0831e+002 -3.3690e+001  2.2930e+002 61366 79081,79159,79133
 1.1000e+000 79358  3.7740e+001 -1.2442e+001  3.2627e+001 60962 79231,79283,79257
 1.1000e+000 79335 -1.7101e+002 -4.0350e+002  1.1064e+002 60962 79231,79309,79283
 1.1000e+000 79608 -1.7370e+002 -3.4690e+002  2.2035e+002 60508 79631,79435,79409
 1.1000e+000 79585 -1.2248e+002 -3.7947e+002  1.2994e+002 60508 79703,79631,79409
 1.1000e+000 79562 -1.0571e+002 -7.9825e+001  1.8036e+002 60508 79703,79409,79383
 1.1000e+000 79539 -3.1353e+002 -4.0534e+002  3.6434e+002 60508 79435,79487,79461
 1.1000e+000 79657 -2.2698e+002 -5.0339e+002  3.4955e+002 60508 79487,79435,79631
 1.1000e+000 79680 -1.0223e+002 -3.3629e+002  1.5623e+002 60508 79487,79631,79513
 1.1000e+000 79729 -4.9338e+001 -1.0452e+002  6.0914e+001 60508 79513,79631,79703
 1.1000e+000 79752 -1.3328e+002 -6.5740e+001  2.0531e+001 60508 79513,79703,79383
 1.1000e+000 80390 -2.6094e+002 -3.2558e+002  2.6306e+002 59997 80413,80096,80018
 1.1000e+000 80367 -3.9811e+002 -3.5835e+002  3.1707e+002 59997 80413,80018,80226
 1.1000e+000 80344 -2.1972e+002 -2.4493e+002  2.0476e+002 59997 80096,80174,80148
 1.1000e+000 80321 -8.3350e+002 -6.1451e+002  4.0864e+002 59997 80018,80096,80070
 1.1000e+000 80298 -2.1537e+002 -3.1164e+002  1.6398e+002 59997 80096,80148,80122
 1.1000e+000 80275 -2.2065e+002 -2.1943e+002  2.0634e+002 59997 80174,80226,80200
 1.1000e+000 80252 -5.3849e+002 -4.2572e+002  1.2300e+002 59997 80018,80070,80044
 1.1000e+000 80439 -2.2632e+002 -3.2608e+002  2.2783e+002 59997 80174,80096,80413
 1.1000e+000 80462 -2.7950e+002 -2.6195e+002  2.6004e+002 59997 80174,80413,80226
 1.1000e+000 80840 -4.1239e+002 -4.0319e+002  1.9801e+002 59443 80863,80644,80618
 1.1000e+000 80817 -2.1332e+002 -2.9734e+002  2.4065e+002 59443 80863,80618,80566
 1.1000e+000 80794 -1.6592e+002 -2.5295e+002  2.4900e+002 59443 81007,80935,80670
 1.1000e+000 80771 -2.5339e+002 -2.7805e+002  2.5645e+002 59443 80566,80722,80696
 1.1000e+000 80748 -2.6820e+002 -4.0779e+002  2.7647e+002 59443 80566,80618,80592
 1.1000e+000 80889 -4.3495e+002 -3.3324e+002  2.8726e+002 59443 80935,80644,80863
 1.1000e+000 80912 -3.2846e+002 -3.1159e+002  2.6601e+002 59443 80696,80863,80566
 1.1000e+000 80961 -2.7354e+002 -2.8294e+002  2.9628e+002 59443 80696,80670,80935
 1.1000e+000 80984 -2.7168e+002 -2.7173e+002  2.8540e+002 59443 80696,80935,80863
 1.1000e+000 81033 -3.4705e+002 -4.1977e+002  3.4001e+002 59443 80644,80935,81007
 1.1000e+000 81360 -2.4844e+002 -2.4052e+002  1.9984e+002 59031 81383,81187,81161
 1.1000e+000 81337 -2.5188e+002 -2.6475e+002  1.4831e+002 59031 81455,81383,81161
 1.1000e+000 81314 -2.1155e+002 -2.2959e+002  1.6321e+002 59031 81455,81161,81135
 1.1000e+000 81291 -4.7163e+002 -1.1770e+002  2.1759e+002 59031 81187,81239,81213
 1.1000e+000 81409 -2.7187e+002 -2.7198e+002  1.8139e+002 59031 81239,81187,81383
 1.1000e+000 81432 -3.8661e+002 -2.7968e+002  1.1195e+002 59031 81239,81383,81265
 1.1000e+000 81481 -2.8887e+002 -2.0008e+002  1.6146e+002 59031 81265,81383,81455
 1.1000e+000 81504 -2.7898e+002 -1.9183e+002  1.6501e+002 59031 81265,81455,81135
 1.1000e+000 81835 -4.6429e+001 -1.7411e+002  5.6990e+001 58577 81610,81714,81636
 1.1000e+000 81812 -4.2175e+001 -1.5559e+002  5.0783e+001 58577 81610,81740,81714
 1.1000e+000 81789 -1.1887e+002 -2.0499e+002  4.6867e+001 58577 81636,81714,81688
 1.1000e+000 81766 -1.0818e+002 -2.2571e+002 -5.1090e+001 58577 81636,81688,81662
 1.1000e+000 81985 -9.8105e+001 -2.3686e+002  1.4785e+002 58030 81884,81936,81910
 1.1000e+000 81962 -1.8988e+002 -6.9567e+001  1.0586e+002 58030 81858,81936,81884
 1.1000e+000 82414 -7.9240e+001 -3.5725e+001  1.0561e+002 57690 82437,82169,82117
 1.1000e+000 82391 -1.1586e+002 -1.3872e+002  1.2611e+002 57690 82437,82117,82247
 1.1000e+000 82368  4.0550e+001  6.2109e+001  3.0024e+002 57690 82195,82247,82221
 1.1000e+000 82345 -8.8425e+001 -1.2689e+002  1.2784e+002 57690 82091,82247,82117
 1.1000e+000 82322 -1.2790e+002 -5.3310e+001  7.7900e+001 57690 82117,82169,82143
 1.1000e+000 82299 -1.0120e+002 -2.3525e+002  1.7705e+002 57690 82091,82273,82247
 1.1000e+000 82463 -1.2960e+002  4.0831e+000  1.5451e+002 57690 82195,82169,82437
 1.1000e+000 82486 -1.4673e+002 -6.6517e+001  1.5818e+002 57690 82195,82437,82247
 1.1000e+000 83041 -2.2047e+002 -2.6095e+002  1.6722e+002 57172 83064,82721,82695
 1.1000e+000 83018 -2.4301e+002 -2.6391e+002  2.3949e+002 57172 83064,82695,82851
 1.1000e+000 82995 -6.8396e+002 -3.3861e+002  3.1344e+002 57172 82669,82851,82695
 1.1000e+000 82972 -3.8923e+002 -2.7315e+002  2.2608e+002 57172 82773,82851,82825
 1.1000e+000 82949 -3.4946e+002 -2.8111e+002  2.8855e+002 57172 82773,82825,82799
 1.1000e+000 82926 -3.1216e+002 -1.9177e+002  1.4192e+002 57172 82721,82773,82747
 1.1000e+000 82903 -7.5195e+002 -3.2224e+002  4.3389e+002 57172 82669,82877,82851
 1.1000e+000 83090 -3.3971e+002 -3.0329e+002  1.5141e+002 57172 82773,82721,83064
 1.1000e+000 83113 -2.8382e+002 -2.7552e+002  2.2052e+002 57172 82773,83064,82851
 1.1000e+000 83747 -2.9282e+002 -2.4082e+002  1.6865e+002 56554 83770,83427,83401
 1.1000e+000 83724 -2.7333e+002 -3.1785e+002  2.0419e+002 56554 83842,83770,83401
 1.1000e+000 83701 -1.1767e+001 -2.5527e+002  8.4559e+001 56554 83842,83401,83583
 1.1000e+000 83678 -5.1020e+002 -4.5625e+002  4.0282e+002 56554 83914,83531,83505
 1.1000e+000 83655 -2.4598e+002 -3.1710e+002  1.3336e+002 56554 83531,83583,83557
 1.1000e+000 83632 -5.7166e+001 -1.5631e+002  7.2685e+001 56554 83375,83583,83401
 1.1000e+000 83609 -2.3494e+002 -2.2618e+002  1.5559e+002 56554 83427,83479,83453
 1.1000e+000 83796 -2.4914e+002 -2.3951e+002  1.7001e+002 56554 83479,83427,83770
 1.1000e+000 83819 -2.4553e+002 -2.0385e+002  1.6832e+002 56554 83479,83770,83505
 1.1000e+000 83868 -1.7701e+002 -1.4024e+002  2.4559e+002 56554 83505,83770,83842
 1.1000e+000 83891 -3.3100e+002 -2.7418e+002  3.0461e+002 56554 83914,83505,83842
 1.1000e+000 83940 -2.3532e+002 -4.6924e+002  2.2784e+002 56554 83583,83531,83914
 1.1000e+000 83963 -1.1581e+002 -4.3779e+002  1.7935e+002 56554 83583,83914,83842
 1.1000e+000 84341 -1.7417e+002 -5.6018e+002  1.9884e+002 56192 84067,84145,84119
 1.1000e+000 84318 -7.5747e+001 -3.3668e+002  1.6258e+002 56192 84067,84223,84145
 1.1000e+000 84295 -1.6106e+002 -4.3315e+002  9.7387e+001 56192 84145,84223,84197
 1.1000e+000 84272 -1.4519e+002 -3.1046e+002  1.6950e+002 56192 84067,84119,84093
 1.1000e+000 84249 -2.4222e+002 -1.6996e+002  1.5379e+002 56192 84145,84197,84171
 1.1000e+000 84611 -1.6087e+002 -4.0839e+002  3.0007e+002 55538 84386,84490,84412
 1.1000e+000 84588 -1.6509e+002 -3.3787e+002  2.8743e+002 55538 84386,84516,84490
 1.1000e+000 84565 -2.9135e+002 -4.6392e+002  3.0303e+002 55538 84412,84490,84464
 1.1000e+000 84542 -1.5579e+002 -3.8142e+002  2.2191e+002 55538 84412,84464,84438
 1.1000e+000 84942 -2.6643e+002 -2.3852e+002  2.1064e+002 55084 84769,84847,84795
 1.1000e+000 84919 -2.8319e+002 -2.8990e+002  1.6737e+002 55084 84717,84847,84769
 1.1000e+000 84896 -3.0713e+002 -3.6903e+002  1.7293e+002 55084 84717,84769,84743
 1.1000e+000 84873 -3.1809e+002 -1.0037e+002  1.6927e+002 55084 84795,84847,84821
 1.1000e+000 85271 -9.2471e+001 -9.9207e+001  1.4804e+002 54580 85294,85098,85072
 1.1000e+000 85248 -3.2557e+002 -1.6922e+002  1.9692e+002 54580 85294,85072,85176
 1.1000e+000 85225 -4.4154e+002 -2.7696e+001  7.9649e+001 54580 85124,85176,85150
 1.1000e+000 85202 -1.1507e+002 -1.4805e+002  8.1614e+001 54580 85046,85176,85072
 1.1000e+000 85320 -2.9454e+002 -1.1946e+002  1.6998e+002 54580 85124,85098,85294
 1.1000e+000 85343 -4.1699e+002 -1.0105e+002  2.0523e+002 54580 85124,85294,85176
 1.1000e+000 85542 -1.8769e+002 -3.1897e+002  2.6471e+002 53976 85565,85444,85418
 1.1000e+000 85519 -2.5621e+002 -2.3288e+002  2.0325e+002 53976 85565,85418,85366
 1.1000e+000 85496 -1.6875e+002 -1.6572e+002  6.9767e+001 53976 85366,85418,85392
 1.1000e+000 85591 -1.4853e+002 -2.7671e+002  2.2348e+002 53976 85470,85444,85565
 1.1000e+000 85614 -1.6415e+002 -1.0815e+002  1.5558e+002 53976 85470,85565,85366
 1.1000e+000 85960 -4.9261e+002 -4.3254e+002  3.6917e+002 53572 85663,85715,85689
 1.1000e+000 85937 -3.9787e+002 -3.1258e+002  2.3351e+002 53572 85983,85715,85663
 1.1000e+000 85914 -2.3899e+002 -3.0415e+002  2.2630e+002 53572 86055,85983,85663
 1.1000e+000 85891 -2.1082e+002 -2.9391e+002  2.4033e+002 53572 86055,85663,85637
 1.1000e+000 85868 -4.2252e+002 -7.3411e+002  3.6091e+002 53572 85637,85793,85767
 1.1000e+000 85845 -4.5769e+002 -1.0265e+002  1.8020e+002 53572 85637,85819,85793
 1.1000e+000 86009 -2.2014e+002 -3.9563e+002  2.3587e+002 53572 85741,85715,85983
 1.1000e+000 86032 -6.3182e+001 -2.9047e+002  1.6625e+002 53572 85741,85983,85767
 1.1000e+000 86081 -2.1306e+002 -2.8675e+002  2.5640e+002 53572 85767,85983,86055
 1.1000e+000 86104 -1.8579e+002 -2.8888e+002  2.6609e+002 53572 85767,86055,85637
 1.1000e+000 86693 -4.5324e+002 -1.4068e+002  2.7442e+002 52946 86474,86526,86500
 1.1000e+000 86670 -1.5990e+002 -9.8031e+001  1.2580e+002 52946 86396,86526,86474
 1.1000e+000 86647 -3.6321e+002 -4.4476e+002  2.4184e+002 52946 86370,86526,86396
 1.1000e+000 86624 -1.9126e+001 -2.0873e+001  4.1167e+001 52946 86422,86474,86448
 1.1000e+000 86601 -1.8423e+002 -8.7576e+001  1.0641e+002 52946 86396,86474,86422
 1.1000e+000 86578 -4.7103e+002 -1.8059e+002  4.9353e+001 52946 86370,86552,86526
 1.1000e+000 87376 -2.7107e+002 -2.9045e+002  1.1037e+002 52420 87007,87085,87033
 1.1000e+000 87353 -2.6677e+002 -2.9087e+002  1.1242e+002 52420 87007,87163,87085
 1.1000e+000 87330 -3.1105e+002 -2.7641e+002  1.3070e+002 52420 87007,87189,87163
 1.1000e+000 87307 -3.0420e+002 -2.7249e+002  1.3851e+002 52420 87033,87085,87059
 1.1000e+000 87284 -2.9104e+002 -2.8863e+002  3.9366e+001 52420 87085,87137,87111
 1.1000e+000 87261 -2.3024e+002 -3.0355e+002  3.6970e+001 52420 87085,87163,87137
 1.1000e+000 87238 -2.3318e+002 -3.1178e+002  2.5932e+002 52420 86955,87189,87007
 1.1000e+000 87215 -1.5266e+002 -2.1156e+002  1.5860e+002 52420 86955,87007,86981
 1.1000e+000 87624 -2.0260e+002 -2.7314e+002  1.5875e+002 51916 87451,87503,87477
 1.1000e+000 87601 -1.3273e+002 -3.4533e+002  1.8703e+002 51916 87425,87503,87451
 1.1000e+000 87578 -8.6015e+001 -3.0679e+002  2.0869e+002 51916 87425,87529,87503
 1.1000e+000 87555 -2.1206e+001 -6.4028e+001  2.0158e+002 51916 87399,87529,87425
 1.1000e+000 88053 -3.5757e+002 -3.1814e+002  1.0569e+002 51568 87782,87834,87808
 1.1000e+000 88030 -4.1809e+002 -3.0129e+002  1.7860e+002 51568 88076,87782,87886
 1.1000e+000 88007 -3.7762e+002 -2.0765e+002  1.7049e+002 51568 88076,87886,87860
 1.1000e+000 87984 -4.7910e+002 -3.9096e+002  1.5143e+002 51568 87756,87886,87782
 1.1000e+000 87961 -3.4823e+002 -3.0908e+002  2.8289e+002 51568 87756,87912,87886
 1.1000e+000 87938 -4.0719e+002 -2.6364e+002  2.6070e+002 51568 87730,87912,87756
 1.1000e+000 88102 -3.7839e+002 -3.5051e+002  1.2157e+002 51568 87834,87782,88076
 1.1000e+000 88125 -3.4999e+002 -2.8896e+002  1.1436e+002 51568 87834,88076,87860
 1.1000e+000 88324 -2.5135e+002 -3.7809e+002  1.3202e+002 51164 88419,88347,88200
 1.1000e+000 88301 -2.1210e+002 -3.4352e+002  1.7843e+002 51164 88347,88148,88252
 1.1000e+000 88278 -2.9948e+002 -5.4310e+002  1.4430e+002 51164 88419,88200,88174
 1.1000e+000 88373 -1.8791e+002 -3.7215e+002  1.4568e+002 51164 88226,88200,88347
 1.1000e+000 88396 -5.5206e+001 -3.7667e+002  1.3481e+002 51164 88226,88347,88252
 1.1000e+000 88445 -3.0744e+002 -4.0655e+002  2.2809e+002 51164 88148,88347,88419
 1.1000e+000 88468 -3.0008e+002 -3.9434e+002  2.4481e+002 51164 88148,88419,88174
 1.1000e+000 88738 -2.8759e+002 -4.4366e+002  1.0311e+002 50560 88513,88617,88539
 1.1000e+000 88715 -2.0578e+002 -4.8205e+002  7.2420e+001 50560 88513,88643,88617
 1.1000e+000 88692 -1.8668e+002 -2.1233e+002  1.2945e+002 50560 88539,88591,88565
 1.1000e+000 88669 -1.4150e+002 -3.3842e+002  1.5015e+002 50560 88539,88617,88591
 1.1000e+000 88939 -3.3545e+002 -1.8224e+002  1.7402e+002 50106 88962,88789,88763
 1.1000e+000 88916 -2.2705e+002 -1.9956e+002  1.3345e+002 50106 88962,88763,88841
 1.1000e+000 88893 -3.3926e+002 -2.6857e+002  2.0880e+002 50106 88763,88867,88841
 1.1000e+000 88988 -2.3063e+002 -2.1966e+002  1.1606e+002 50106 88815,88789,88962
 1.1000e+000 89011 -1.8050e+002 -1.8130e+002  1.4262e+002 50106 89034,88962,88841
 1.1000e+000 89060 -1.1910e+002 -1.0209e+002  4.3115e+001 50106 88815,88962,89034
 1.1000e+000 89472 -2.4655e+002 -4.5959e+002  1.2393e+002 49666 89273,89351,89325
 1.1000e+000 89449 -2.8019e+002 -3.5360e+002  1.6274e+002 49666 89273,89377,89351
 1.1000e+000 89426 -2.4619e+002 -3.7307e+002  2.7553e+002 49666 89273,89325,89299
 1.1000e+000 89403 -2.5967e+002 -2.3638e+002  1.7535e+002 49666 89247,89377,89273
 1.1000e+000 89978 -1.4891e+002 -3.8647e+002  1.4478e+002 49205 89681,89837,89733
 1.1000e+000 89955 -1.7165e+002 -3.3457e+002  1.9713e+002 49205 89655,89837,89681
 1.1000e+000 89932 -3.5527e+002 -5.9285e+002  1.8420e+002 49205 89785,89837,89811
 1.1000e+000 89909 -1.5556e+002 -1.9566e+002  9.6870e+001 49205 89733,89837,89785
 1.1000e+000 89886 -3.2702e+002 -2.5666e+002  1.9820e+002 49205 89733,89785,89759
 1.1000e+000 89863 -9.6001e+001 -4.2737e+002  1.5612e+002 49205 89681,89733,89707
 1.1000e+000 90177 -2.2263e+002 -2.0256e+002  9.9539e+001 48865 90530,90200,90053
 1.1000e+000 90154 -2.4456e+002 -3.8483e+002  1.9398e+002 48865 90402,90200,90001
 1.1000e+000 90131 -3.1707e+002 -3.5524e+001  9.9615e+001 48865 90530,90053,90027
 1.1000e+000 90226 -2.7223e+002 -2.3964e+002  1.7146e+002 48865 90079,90053,90200
 1.1000e+000 90249 -2.7299e+002 -2.7921e+002  1.3485e+002 48865 90272,90200,90105
 1.1000e+000 90298 -1.7907e+002 -2.0317e+002  1.6855e+002 48865 90079,90200,90272
 1.1000e+000 90428 -1.9684e+002 -1.0993e+002  1.5755e+002 48865 90105,90200,90402
 1.1000e+000 90556 -2.7035e+002 -4.4977e+002  7.4567e+001 48865 90001,90200,90530
 1.1000e+000 90579 -3.2538e+002 -2.0613e+002  2.3145e+001 48865 90001,90530,90027
 1.1000e+000 90827 -3.0885e+002 -3.2610e+002  1.5111e+002 48404 90850,90654,90628
 1.1000e+000 90804 -2.9596e+002 -3.5301e+002  2.3884e+002 48404 90850,90628,90732
 1.1000e+000 90781 -2.0876e+002 -2.7847e+002  1.5508e+002 48404 90680,90732,90706
 1.1000e+000 90758 -3.7771e+002 -2.0440e+002  2.4570e+002 48404 90602,90732,90628
 1.1000e+000 90876 -2.8568e+002 -1.9807e+002  1.4155e+002 48404 90680,90654,90850
 1.1000e+000 90899 -2.8795e+002 -2.9165e+002  2.1134e+002 48404 90680,90850,90732
 1.1000e+000 91000 -1.6965e+002 -4.2703e+002  2.9130e+002 48156 90922,90974,90948
 1.1000e+000 91250 -1.9337e+002 -4.8607e+002  3.0783e+002 47752 91051,91103,91077
 1.1000e+000 91227 -1.3322e+002 -9.1405e+001  1.9509e+002 47752 91025,91103,91051
 1.1000e+000 91204 -5.1825e+002 -3.8259e+002  4.3598e+002 47752 91025,91155,91103
 1.1000e+000 91181 -5.4932e+002 -2.2723e+002  3.3163e+002 47752 91103,91155,91129
 1.1000e+000 91402 -2.9980e+002 -2.7795e+002  1.7160e+002 47191 91425,91301,91275
 1.1000e+000 91379 -2.5126e+002 -2.5783e+002  1.9228e+002 47191 91497,91425,91275
 1.1000e+000 91451 -2.9771e+002 -1.9730e+002  1.3403e+002 47191 91327,91301,91425
 1.1000e+000 91474 -2.7464e+002 -3.0648e+002  2.2828e+002 47191 91327,91425,91353
 1.1000e+000 91523 -3.2280e+002 -5.2803e+002  2.0420e+002 47191 91353,91425,91497
 1.1000e+000 91854 -2.0727e+002 -2.3689e+002  2.1358e+002 46744 91949,91877,91707
 1.1000e+000 91831 -8.8268e+001 -2.5845e+002  1.2045e+002 46744 91877,91655,91629
 1.1000e+000 91808 -2.2276e+002 -2.2041e+002  2.0377e+002 46744 91949,91707,91681
 1.1000e+000 91785 -1.5533e+002 -1.7579e+002 -3.9788e+001 46744 91629,91759,91733
 1.1000e+000 91903 -2.6921e+002 -2.9634e+002  2.3996e+002 46744 91733,91707,91877
 1.1000e+000 91926 -1.8510e+002 -3.9917e+002  1.6312e+002 46744 91733,91877,91629
 1.1000e+000 91975 -2.1690e+002 -2.9851e+002  2.1833e+002 46744 91655,91877,91949
 1.1000e+000 91998 -2.1280e+002 -2.6343e+002  2.0020e+002 46744 91655,91949,91681
 1.1000e+000 92378 -1.9335e+002 -1.1017e+002  1.4906e+002 46090 92130,92208,92182
 1.1000e+000 92355 -2.6769e+002 -1.4264e+002  1.4380e+002 46090 92104,92208,92130
 1.1000e+000 92332 -1.4075e+002 -2.5517e+002  1.4472e+002 46090 92104,92260,92208
 1.1000e+000 92309 -1.2605e+002 -1.8219e+002  1.3656e+002 46090 92208,92260,92234
 1.1000e+000 92286 -3.8521e+002 -1.5653e+002  1.7627e+002 46090 92130,92182,92156
 1.1000e+000 92626 -2.2404e+002 -2.9621e+002  1.0990e+002 45693 92721,92649,92505
 1.1000e+000 92603 -2.6100e+002 -3.0274e+002  2.0854e+002 45693 92649,92453,92427
 1.1000e+000 92580 -2.3521e+002 -2.5858e+002  1.0755e+002 45693 92721,92505,92479
 1.1000e+000 92557 -4.4724e+002 -4.0792e+002  2.4917e+002 45693 92401,92531,92427
 1.1000e+000 92675 -3.4677e+002 -2.8688e+002  1.4005e+002 45693 92531,92505,92649
 1.1000e+000 92698 -3.8475e+002 -3.4916e+002  2.7333e+002 45693 92531,92649,92427
 1.1000e+000 92747 -2.4559e+002 -2.4854e+002  1.1421e+002 45693 92453,92649,92721
 1.1000e+000 92770 -1.8354e+002 -1.1641e+002  1.3950e+002 45693 92453,92721,92479
 1.1000e+000 93172 -1.5543e+002 -2.4974e+002  2.3941e+002 45331 92898,93028,92924
 1.1000e+000 93149 -1.2201e+002 -2.9422e+002  1.6162e+002 45331 92898,93054,93028
 1.1000e+000 93126 -2.2253e+002 -1.1707e+002  2.7027e+002 45331 92924,93002,92976
 1.1000e+000 93103 -8.6840e+001 -2.2358e+002  2.3972e+002 45331 92924,93028,93002
 1.1000e+000 93080 -2.3657e+002 -2.1592e+002  2.8105e+002 45331 92924,92976,92950
 1.1000e+000 93518 -1.7317e+002 -5.9039e+002  1.2669e+002 44820 93613,93273,93247
 1.1000e+000 93495 -4.1652e+002 -4.5815e+002  2.5116e+002 44820 93685,93541,93247
 1.1000e+000 93472 -3.5530e+002 -2.9145e+002  1.9225e+002 44820 93541,93195,93377
 1.1000e+000 93449 -4.7871e+002 -3.8656e+002  1.7989e+002 44820 93685,93247,93221
 1.1000e+000 93426 -2.8776e+002 -3.7206e+002  1.8408e+002 44820 93299,93377,93351
 1.1000e+000 93403 -2.3723e+002 -2.1649e+002  2.2382e+002 44820 93299,93351,93325
 1.1000e+000 93567 -3.0835e+002 -6.2370e+002  1.9686e+002 44820 93613,93247,93541
 1.1000e+000 93590 -3.1164e+002 -4.2787e+002  1.4041e+002 44820 93299,93541,93377
 1.1000e+000 93639 -3.1459e+002 -5.6907e+002  1.7208e+002 44820 93299,93273,93613
 1.1000e+000 93662 -3.0186e+002 -5.7034e+002  1.8359e+002 44820 93299,93613,93541
 1.1000e+000 93711 -3.4833e+002 -3.2690e+002  1.7330e+002 44820 93195,93541,93685
 1.1000e+000 93734 -3.1356e+002 -1.1035e+002  8.9907e+001 44820 93195,93685,93221
 1.1000e+000 94163 -3.4084e+002 -4.1253e+002  1.5834e+002 44237 94258,94186,93996
 1.1000e+000 94140 -4.0597e+002 -4.5660e+002  1.0434e+002 44237 94330,94022,93996
 1.1000e+000 94117 -4.1895e+002 -4.5420e+002  1.1746e+002 44237 94186,93918,93866
 1.1000e+000 94094 -2.9263e+002 -3.2402e+002  1.7943e+002 44237 94258,93996,93970
 1.1000e+000 94071 -3.6718e+002 -2.6449e+002  1.5389e+002 44237 94402,93944,93918
 1.1000e+000 94048 -2.8344e+002 -4.7363e+002  1.7625e+002 44237 93866,93918,93892
 1.1000e+000 94212 -4.0586e+002 -4.6193e+002  1.3625e+002 44237 94330,93996,94186
 1.1000e+000 94235 -4.0804e+002 -3.9724e+002  1.5187e+002 44237 93840,94186,93866
 1.1000e+000 94284 -3.6478e+002 -3.3125e+002  1.0899e+002 44237 93918,94186,94258
 1.1000e+000 94307 -3.4042e+002 -2.7715e+002  1.2422e+002 44237 94402,93918,94258
 1.1000e+000 94356 -3.7590e+002 -1.6519e+002  1.2933e+000 44237 93840,94022,94330
 1.1000e+000 94379 -3.8265e+002 -4.0365e+002  1.4230e+002 44237 93840,94330,94186
 1.1000e+000 94428 -4.2029e+002 -3.1968e+002  1.7573e+002 44237 93970,93944,94402
 1.1000e+000 94451 -3.7909e+002 -3.2515e+002  1.4250e+002 44237 93970,94402,94258
 1.1000e+000 94908 -1.4264e+002 -3.2347e+002  1.0082e+002 43890 94660,94790,94712
 1.1000e+000 94885 -1.2546e+002 -1.6503e+002  1.4656e+002 43890 94634,94790,94660
 1.1000e+000 94862 -2.3815e+002 -1.2809e+002  1.1763e+002 43890 94712,94764,94738
 1.1000e+000 94839 -1.2261e+002 -2.9500e+002  1.2464e+002 43890 94712,94790,94764
 1.1000e+000 94816 -3.5724e+001 -2.3856e+002  5.5022e+001 43890 94660,94712,94686
 1.1000e+000 95414 -2.5493e+002 -2.0675e+002  1.1970e+002 43186 95437,95143,95117
 1.1000e+000 95391 -2.7057e+002 -3.6839e+002  1.5732e+002 43186 95437,95117,95091
 1.1000e+000 95368 -1.1985e+002 -1.5178e+002  1.2249e+002 43186 95143,95221,95195
 1.1000e+000 95345 -4.2237e+002 -3.3943e+002  3.3849e+002 43186 95091,95273,95221
 1.1000e+000 95322 -2.7580e+002 -2.0918e+002  1.6433e+002 43186 95221,95273,95247
 1.1000e+000 95299 -1.9414e+002 -3.2495e+002  1.0786e+002 43186 95143,95195,95169
 1.1000e+000 95463 -2.6578e+002 -3.1669e+002  1.9539e+002 43186 95221,95143,95437
 1.1000e+000 95486 -2.6346e+002 -4.4538e+002  2.3677e+002 43186 95221,95437,95091
 1.1000e+000 96041 -3.9554e+002 -4.0112e+002  1.0230e+002 42782 95695,95851,95799
 1.1000e+000 96018 -3.6361e+002 -4.5669e+002  1.0674e+002 42782 95669,95851,95695
 1.1000e+000 95995 -3.9045e+002 -2.6677e+002  1.2190e+002 42782 95695,95747,95721
 1.1000e+000 95972 -2.9819e+002 -3.5981e+002  1.0717e+002 42782 95695,95799,95747
 1.1000e+000 95949 -2.6990e+002 -2.5239e+002  8.1259e+001 42782 95747,95799,95773
 1.1000e+000 95926 -4.9270e+002 -4.8816e+002  1.6879e+002 42782 95799,95851,95825
 1.1000e+000 95903 -4.9415e+002 -5.1847e+002  1.2430e+002 42782 95669,95877,95851
 1.1000e+000 96370 -3.9927e+002 -5.2818e+002  2.3484e+002 42420 96197,96275,96223
 1.1000e+000 96347 -3.7556e+002 -4.5437e+002  2.3175e+002 42420 96145,96275,96197
 1.1000e+000 96324 -3.9100e+002 -3.2275e+002  2.3351e+002 42420 96145,96197,96171
 1.1000e+000 96301 -2.9259e+002 -3.9034e+002  1.6788e+002 42420 96223,96275,96249
 1.1000e+000 96699 -2.8180e+002 -3.4238e+002  1.4360e+002 41816 96474,96578,96526
 1.1000e+000 96676 -3.5236e+002 -1.8212e+002 -3.4866e+001 41816 96474,96604,96578
 1.1000e+000 96653 -4.0740e+002 -1.5284e+002  2.1328e+002 41816 96526,96578,96552
 1.1000e+000 96630 -2.0851e+002 -2.6291e+002  6.7301e+001 41816 96474,96526,96500
 1.1000e+000 96947 -1.8597e+002 -4.4508e+002  1.7468e+002 41212 96722,96800,96748
 1.1000e+000 96924 -2.7171e+002 -3.3092e+002  2.1745e+002 41212 96722,96826,96800
 1.1000e+000 96901 -2.4397e+002 -2.4417e+002  1.3360e+002 41212 96722,96852,96826
 1.1000e+000 96878 -3.0885e+002 -5.1091e+002  1.1540e+002 41212 96748,96800,96774
 1.1000e+000 97097 -1.9914e+002 -1.3145e+002  1.8351e+002 40793 97120,97022,96996
 1.1000e+000 97074 -3.5296e+002 -4.3979e+002  1.2182e+002 40793 97192,97120,96996
 1.1000e+000 97146 -1.5455e+002 -3.7094e+002  1.6793e+002 40793 97324,97120,97048
 1.1000e+000 97169 -1.3341e+002 -5.6336e+002  1.6542e+002 40793 97048,97120,96970
 1.1000e+000 97218 -5.2808e+001 -3.1116e+002  1.1999e+002 40793 96970,97120,97192
 1.1000e+000 97350 -1.5455e+002 -3.7094e+002  1.6793e+002 40793 97022,97120,97324
 1.1000e+000 97878 -2.1046e+002 -4.5695e+002  1.0267e+002 40446 97901,97607,97555
 1.1000e+000 97855 -2.3108e+002 -3.2911e+002  1.1559e+002 40446 97973,97901,97555
 1.1000e+000 97832 -1.9192e+002 -2.8656e+002  9.0244e+001 40446 97973,97555,97737
 1.1000e+000 97809 -3.2705e+002 -4.4141e+002  1.3638e+002 40446 97633,97685,97659
 1.1000e+000 97786 -2.4544e+002 -3.7304e+002  1.0386e+002 40446 97633,97711,97685
 1.1000e+000 97763 -2.1783e+002 -5.4136e+002  1.1893e+002 40446 97555,97607,97581
 1.1000e+000 97927 -2.6794e+002 -5.7647e+002 -7.7725e+000 40446 97633,97607,97901
 1.1000e+000 97950 -2.3010e+002 -4.3431e+002  8.7285e+001 40446 97633,97901,97711
 1.1000e+000 97999 -1.6877e+002 -4.2702e+002  1.3835e+002 40446 97711,97901,97973
 1.1000e+000 98022 -1.3003e+002 -3.6721e+002  1.1725e+002 40446 97711,97973,97737
 1.1000e+000 98449 -1.7425e+002 -1.5482e+002  1.1796e+002 39935 98152,98204,98178
 1.1000e+000 98426 -2.6214e+002 -2.0403e+002  7.7690e+001 39935 98152,98230,98204
 1.1000e+000 98403 -3.5956e+002 -2.1347e+002  1.7038e+002 39935 98152,98256,98230
 1.1000e+000 98380 -2.5122e+002 -2.8272e+002  1.9280e+002 39935 98126,98256,98152
 1.1000e+000 98357 -3.5021e+002 -5.0855e+002  2.1569e+002 39935 98126,98282,98256
 1.1000e+000 98334 -2.2286e+002 -6.7725e+002  2.7369e+002 39935 98126,98308,98282
 1.1000e+000 98746 -6.2730e+002 -4.6026e+002  1.3342e+002 39531 98498,98602,98524
 1.1000e+000 98723 -4.3237e+002 -4.0227e+002  1.4042e+002 39531 98472,98602,98498
 1.1000e+000 98700 -5.8268e+002 -3.1085e+002  1.3331e+002 39531 98524,98602,98576
 1.1000e+000 98677 -3.2611e+002 -4.1126e+002  1.5251e+002 39531 98472,98628,98602
 1.1000e+000 98654 -1.2237e+003 -3.9274e+002  1.6907e+002 39531 98524,98576,98550
 1.1000e+000 99224 -3.8364e+002 -2.4080e+002  3.4953e+002 39027 99247,98956,98930
 1.1000e+000 99201 -4.0657e+002 -3.8477e+002  1.7462e+002 39027 99247,98930,98878
 1.1000e+000 99178 -3.1362e+002 -3.9781e+002  3.0118e+002 39027 99319,98982,98956
 1.1000e+000 99155 -2.0372e+002 -2.3791e+002  1.9873e+002 39027 98852,99060,98878
 1.1000e+000 99132 -5.1962e+002 -2.6759e+002  1.1592e+002 39027 98878,98930,98904
 1.1000e+000 99109 -3.9156e+002 -6.8836e+002  3.9592e+002 39027 98982,99060,99034
 1.1000e+000 99086 -6.1529e+002 -1.0706e+003  6.8580e+002 39027 98982,99034,99008
 1.1000e+000 99273 -3.1528e+002 -3.6382e+002  2.7223e+002 39027 99319,98956,99247
 1.1000e+000 99296 -2.7798e+002 -3.3118e+002  1.6475e+002 39027 99060,99247,98878
 1.1000e+000 99345 -2.7123e+002 -4.0818e+002  2.7122e+002 39027 99060,98982,99319
 1.1000e+000 99368 -2.5208e+002 -3.9508e+002  2.4982e+002 39027 99060,99319,99247
 1.1000e+000 99923 -4.3544e+002 -3.5324e+002  1.8429e+002 38523 99946,99655,99603
 1.1000e+000 99900 -3.4939e+002 -3.1469e+002  1.9181e+002 38523 99946,99603,99759
 1.1000e+000 99877 -2.2686e+002 -4.5009e+002  2.3850e+002 38523 100018,99707,99681
 1.1000e+000 99854 -3.6639e+002 -2.1996e+002  1.8352e+002 38523 99551,99759,99603
 1.1000e+000 99831 -3.5081e+002 -2.1018e+002  1.6933e+002 38523 99551,99603,99577
 1.1000e+000 99808 -3.8126e+002 -5.7399e+002  1.6855e+002 38523 99707,99759,99733
 1.1000e+000 99785 -3.2461e+002 -3.0314e+002  1.5594e+002 38523 99603,99655,99629
 1.1000e+000 99972 -3.5407e+002 -1.8934e+002  2.1967e+002 38523 99681,99655,99946
 1.1000e+000 99995 -2.6859e+002 -2.5451e+002  2.7644e+002 38523 100018,99681,99946
 1.1000e+000 100044 -2.9784e+002 -5.3031e+002  1.5100e+002 38523 99759,99707,100018
 1.1000e+000 100067 -4.0657e+002 -4.5306e+002  1.9102e+002 38523 99759,100018,99946
 1.1000e+000 100467 -1.8800e+002 -2.9562e+002  1.2263e+002 38125 100219,100349,100323
 1.1000e+000 100444 -3.0525e+001 -8.4811e+001  1.9556e+002 38125 100193,100349,100219
 1.1000e+000 100421 -1.1448e+002 -3.7059e+002  1.3459e+002 38125 100245,100323,100297
 1.1000e+000 100398 -1.0702e+002 -2.5757e+002  1.4714e+002 38125 100219,100323,100245
 1.1000e+000 100375 -2.1088e+002 -3.6943e+002  2.2737e+002 38125 100245,100297,100271
 1.1000e+000 100666 -3.6889e+002 -5.0577e+002  1.4733e+002 37607 100689,100568,100542
 1.1000e+000 100643 -3.1383e+002 -3.4141e+002  1.3362e+002 37607 100689,100542,100490
 1.1000e+000 100620 -3.2066e+002 -2.4462e+002  1.4268e+002 37607 100490,100542,100516
 1.1000e+000 100715 -3.1517e+002 -3.4713e+002  1.1577e+002 37607 100594,100568,100689
 1.1000e+000 100738 -3.4752e+002 -3.0145e+002  1.1713e+002 37607 100594,100689,100490
 1.1000e+000 100937 -3.0905e+002 -1.7623e+002  2.6803e+002 37017 100960,100813,100787
 1.1000e+000 100914 -2.8472e+002 -1.9599e+002  1.7931e+002 37017 100960,100787,100761
 1.1000e+000 100891 -4.2162e+002 -1.4875e+002  2.5549e+002 37017 100813,100865,100839
 1.1000e+000 100986 -3.6350e+002 -2.7600e+002  2.9025e+002 37017 100865,100813,100960
 1.1000e+000 101009 -3.1739e+002 -2.6696e+002  1.9428e+002 37017 100865,100960,100761
 1.1000e+000 101519 -5.1799e+002 -3.5941e+002  1.8771e+002 36613 101222,101274,101248
 1.1000e+000 101496 -2.5912e+002 -2.5917e+002  1.6347e+002 36613 101222,101352,101274
 1.1000e+000 101473 -2.1184e+002 -4.2912e+002  4.7809e+001 36613 101274,101352,101326
 1.1000e+000 101450 -3.2395e+002 -2.4637e+002  1.7006e+002 36613 101222,101378,101352
 1.1000e+000 101427 -2.6989e+002 -6.8899e+002  3.4712e+001 36613 101274,101326,101300
 1.1000e+000 101404 -3.1941e+002 -1.8970e+002  1.0987e+002 36613 101196,101378,101222
 1.1000e+000 101718 -2.9985e+002 -1.8403e+002  2.4854e+002 36308 101594,101646,101620
 1.1000e+000 101695 -3.0216e+002 -1.4280e+002  2.0790e+002 36308 101568,101646,101594
 1.1000e+000 101672 -2.3241e+002 -2.1183e+002  2.1166e+002 36308 101542,101646,101568
 1.1000e+000 102098 -3.3873e+002 -2.4452e+002  1.5896e+002 35918 102121,101954,101876
 1.1000e+000 102075 -2.7319e+002 -3.0505e+002  1.3162e+002 35918 102121,101876,101824
 1.1000e+000 102052 -3.4474e+002 -2.4870e+002  1.3290e+002 35918 101876,101954,101928
 1.1000e+000 102029 -4.7721e+002 -1.0220e+002  1.4945e+002 35918 101876,101928,101902
 1.1000e+000 102006 -2.4127e+002 -2.1519e+002  9.8123e+001 35918 101824,101876,101850
 1.1000e+000 102147 -3.6845e+002 -3.0094e+002  1.8636e+002 35918 101980,101954,102121
 1.1000e+000 102170 -3.0093e+002 -3.6499e+002  1.5354e+002 35918 101980,102121,101824
 1.1000e+000 102489 -3.2246e+002 -7.2864e+002  2.4508e+002 35514 102241,102345,102267
 1.1000e+000 102466 -4.1930e+002 -7.4757e+002  2.3619e+002 35514 102215,102345,102241
 1.1000e+000 102443 -3.3728e+002 -8.1004e+002  2.4873e+002 35514 102215,102371,102345
 1.1000e+000 102420 -2.7856e+002 -6.6181e+002  2.6666e+002 35514 102267,102345,102293
 1.1000e+000 102397 -1.7674e+002 -4.4464e+002  2.9587e+002 35514 102293,102345,102319
 1.1000e+000 102820 -3.6161e+002 -3.0768e+002  8.2265e+001 35224 102843,102699,102647
 1.1000e+000 102797 -4.1682e+002 -3.5052e+002  1.6605e+002 35224 102971,102725,102699
 1.1000e+000 102774 -5.0034e+002 -4.2040e+002  2.7570e+002 35224 102595,102725,102621
 1.1000e+000 102751 -1.4782e+002 -1.6527e+002  1.5137e+002 35224 102647,102699,102673
 1.1000e+000 102869 -3.5747e+002 -3.0575e+002  1.4649e+002 35224 102971,102699,102843
 1.1000e+000 102997 -3.3053e+002 -4.0174e+002  1.6071e+002 35224 102621,102725,102971
 1.1000e+000 103020 -2.7096e+002 -3.6400e+002  1.4441e+002 35224 102621,102971,102843
 1.1000e+000 103349 -4.3564e+002 -3.3700e+002  2.0551e+002 34820 103150,103228,103176
 1.1000e+000 103326 -3.8812e+002 -3.6422e+002  2.0198e+002 34820 103124,103228,103150
 1.1000e+000 103303 -3.5134e+002 -3.5108e+002  3.4300e+002 34820 103176,103228,103202
 1.1000e+000 103280 -2.4911e+002 -3.0171e+002  2.3499e+002 34820 103124,103254,103228
 1.1000e+000 103806 -4.2739e+002 -2.7631e+002  1.6858e+002 34530 103558,103662,103636
 1.1000e+000 103783 -3.7597e+002 -3.0912e+002  9.8843e+001 34530 103558,103688,103662
 1.1000e+000 103760 -4.1214e+002 -4.3886e+002  1.1674e+002 34530 103532,103688,103558
 1.1000e+000 103737 -2.7977e+002 -3.8401e+002  1.6424e+002 34530 103584,103636,103610
 1.1000e+000 103714 -6.5228e+002 -3.5878e+002  1.9845e+002 34530 103558,103636,103584
 1.1000e+000 104263 -2.1430e+002 -2.3887e+002  1.6507e+002 34019 103989,104119,104015
 1.1000e+000 104240 -1.7487e+002 -2.1939e+002  1.7490e+002 34019 103989,104145,104119
 1.1000e+000 104217 -2.1221e+002 -2.9369e+002  1.0141e+002 34019 104015,104067,104041
 1.1000e+000 104194 -2.5427e+002 -3.1820e+002  1.4244e+002 34019 104015,104119,104067
 1.1000e+000 104171 -2.5462e+002 -2.0597e+002  1.3365e+002 34019 104067,104119,104093
 1.1000e+000 104641 -3.5760e+002 -2.1614e+002  1.4014e+002 33351 104419,104497,104445
 1.1000e+000 104618 -2.9463e+002 -1.5610e+002  1.7154e+002 33351 104393,104497,104419
 1.1000e+000 104595 -5.2006e+002 -2.6097e+002  1.2787e+002 33351 104367,104497,104393
 1.1000e+000 104572 -3.7173e+002 -2.4773e+002  1.2567e+002 33351 104445,104497,104471
 1.1000e+000 104549 -4.1527e+002 -1.8405e+002  6.8115e+001 33351 104367,104523,104497
 1.1000e+000 105019 -3.0862e+002 -5.9508e+002  3.0685e+002 32861 104823,104901,104875
 1.1000e+000 104996 -4.1063e+002 -6.5748e+002  2.5855e+002 32861 104745,104901,104823
 1.1000e+000 104973 -4.6241e+002 -6.6220e+002  2.9091e+002 32861 104823,104875,104849
 1.1000e+000 104950 -4.1168e+002 -6.3758e+002  3.2424e+002 32861 104745,104823,104797
 1.1000e+000 104927 -4.5751e+002 -2.4015e+002  3.3307e+002 32861 104745,104797,104771
 1.1000e+000 105397 -2.2516e+002 -4.1323e+002  1.9392e+002 32457 105149,105253,105175
 1.1000e+000 105374 -3.3159e+002 -3.5741e+002  1.6303e+002 32457 105149,105279,105253
 1.1000e+000 105351 -2.0483e+002 -3.0786e+002  1.7960e+002 32457 105123,105279,105149
 1.1000e+000 105328 -3.4502e+002 -8.7279e+001  2.5521e+002 32457 105175,105227,105201
 1.1000e+000 105305 -4.3056e+002 -5.0140e+002  1.9058e+002 32457 105175,105253,105227
 1.1000e+000 105726 -1.5636e+002 -4.3095e+002  1.9176e+002 32003 105527,105605,105553
 1.1000e+000 105703 -2.5035e+002 -3.6458e+002  1.8026e+002 32003 105501,105605,105527
 1.1000e+000 105680 -1.2926e+002 -3.1629e+002  1.7899e+002 32003 105501,105631,105605
 1.1000e+000 105657 -9.0447e+001 -2.4774e+002  1.8413e+002 32003 105553,105605,105579
 1.1000e+000 106104 -3.9820e+002 -2.7874e+002  1.9251e+002 31492 106127,105908,105856
 1.1000e+000 106081 -3.8944e+002 -2.6053e+002  1.0840e+002 31492 106127,105856,105830
 1.1000e+000 106058 -2.9169e+002 -4.2398e+002  2.1047e+002 31492 105856,105908,105882
 1.1000e+000 106035 -1.7993e+002 -2.8420e+002  7.4355e+001 31492 105830,105986,105960
 1.1000e+000 106012 -2.2379e+002 -4.3401e+002  2.6190e+002 31492 105908,105960,105934
 1.1000e+000 106153 -4.1393e+002 -3.4354e+002  1.7878e+002 31492 105960,105908,106127
 1.1000e+000 106176 -4.2077e+002 -3.7973e+002  1.0426e+002 31492 105960,106127,105830
 1.1000e+000 106375 -3.3487e+002 -3.1645e+002  2.3197e+002 30788 106398,106277,106251
 1.1000e+000 106352 -3.7304e+002 -4.5097e+002  2.3027e+002 30788 106398,106251,106225
 1.1000e+000 106329 -4.8636e+002 -3.7414e+002  3.1719e+002 30788 106600,106199,106303
 1.1000e+000 106424 -4.8145e+002 -5.1439e+002  1.6950e+002 30788 106470,106398,106303
 1.1000e+000 106447 -3.6347e+002 -4.2648e+002  2.3277e+002 30788 106600,106303,106398
 1.1000e+000 106496 -1.3781e+002 -3.6749e+002  1.9398e+002 30788 106277,106398,106470
 1.1000e+000 106626 -5.6270e+002 -4.7915e+002  3.7553e+002 30788 106225,106199,106600
 1.1000e+000 106649 -4.7695e+002 -5.3632e+002  2.9060e+002 30788 106225,106600,106398
 1.1000e+000 106799 -1.5862e+002 -4.9491e+002  6.0108e+001 30426 106698,106750,106724
 1.1000e+000 106776 -1.1176e+002 -2.6370e+002  9.0759e+001 30426 106672,106750,106698
 1.1000e+000 107356 -3.7362e+002 -2.8857e+002  1.5208e+002 29972 107010,107166,107114
 1.1000e+000 107333 -3.5390e+002 -2.7965e+002  1.5420e+002 29972 106984,107166,107010
 1.1000e+000 107310 -3.7900e+002 -1.5814e+002  9.4788e+001 29972 107010,107114,107088
 1.1000e+000 107287 -3.5996e+002 -1.6863e+002  1.1609e+002 29972 107114,107166,107140
 1.1000e+000 107264 -3.4252e+002 -3.0986e+002  1.7326e+002 29972 106984,107192,107166
 1.1000e+000 107241 -4.4144e+002 -2.9440e+002  1.1287e+002 29972 107010,107088,107036
 1.1000e+000 107218 -3.2569e+002 -2.4315e+002  1.0062e+002 29972 107036,107088,107062
 1.1000e+000 107783 -3.8777e+002 -4.9946e+002  2.5235e+002 29724 107878,107806,107590
 1.1000e+000 107760 -5.3933e+002 -5.5368e+002  2.2436e+002 29724 107806,107512,107486
 1.1000e+000 107737 -3.8861e+002 -4.8330e+002  2.7046e+002 29724 107878,107590,107538
 1.1000e+000 107714 -4.0306e+002 -5.7926e+002  2.9216e+002 29724 107950,107460,107616
 1.1000e+000 107691 -3.9544e+002 -5.7037e+002  2.7280e+002 29724 107460,107642,107616
 1.1000e+000 107668 -2.7458e+002 -3.6609e+002  3.1742e+002 29724 107538,107590,107564
 1.1000e+000 107832 -2.8924e+002 -5.1178e+002  3.1717e+002 29724 107616,107590,107806
 1.1000e+000 107855 -4.0699e+002 -5.8441e+002  2.8155e+002 29724 107950,107616,107806
 1.1000e+000 107904 -3.9831e+002 -4.7079e+002  2.8247e+002 29724 107512,107806,107878
 1.1000e+000 107927 -3.4605e+002 -4.2499e+002  3.1039e+002 29724 107512,107878,107538
 1.1000e+000 107976 -2.5205e+002 -5.8774e+002  3.2646e+002 29724 107486,107460,107950
 1.1000e+000 107999 -3.8880e+002 -6.2684e+002  2.7445e+002 29724 107486,107950,107806
 1.1000e+000 108296 -4.0448e+002 -3.4402e+002  2.0722e+002 29206 108319,108100,108048
 1.1000e+000 108273 -2.3493e+002 -3.1110e+002  2.5780e+002 29206 108319,108048,108022
 1.1000e+000 108250 -1.4040e+002 -3.6346e+002  3.1262e+002 29206 108391,108152,108126
 1.1000e+000 108227 -5.1096e+002 -2.3964e+002  2.7371e+002 29206 108048,108100,108074
 1.1000e+000 108204 -1.9357e+002 -4.8047e+002  2.7339e+002 29206 108022,108178,108152
 1.1000e+000 108345 -2.9927e+002 -2.0363e+002  2.9987e+002 29206 108126,108100,108319
 1.1000e+000 108368 -1.7858e+002 -3.0020e+002  3.4639e+002 29206 108391,108126,108319
 1.1000e+000 108417 -2.3280e+002 -4.3883e+002  2.7170e+002 29206 108022,108152,108391
 1.1000e+000 108440 -2.6275e+002 -3.9083e+002  3.0776e+002 29206 108022,108391,108319
 1.1000e+000 108688 -4.9218e+002 -4.9505e+002  2.7918e+002 28595 108711,108541,108515
 1.1000e+000 108665 -6.8146e+002 -5.3152e+002  3.9289e+002 28595 108783,108711,108515
 1.1000e+000 108642 -8.0234e+002 -4.7549e+002  3.9041e+002 28595 108783,108515,108489
 1.1000e+000 108619 -7.9546e+002 -6.0867e+002  1.9642e+002 28595 108463,108593,108489
 1.1000e+000 108737 -4.4437e+002 -3.8640e+002  1.9382e+002 28595 108567,108541,108711
 1.1000e+000 108760 -3.9988e+002 -4.3437e+002  3.4559e+002 28595 108567,108711,108593
 1.1000e+000 108809 -4.7034e+002 -5.4912e+002  3.0788e+002 28595 108593,108711,108783
 1.1000e+000 108832 -6.6096e+002 -5.3547e+002  2.7226e+002 28595 108593,108783,108489
 1.1000e+000 109033 -2.0109e+002 -2.5864e+002  1.4371e+002 28091 108909,108961,108935
 1.1000e+000 109010 -2.8658e+002 -2.5313e+002  1.2324e+002 28091 108857,108961,108909
 1.1000e+000 108987 -4.1792e+002 -3.6380e+002  2.7663e+002 28091 108857,108909,108883
 1.1000e+000 109136 -3.2525e+002 -7.6624e+002  1.4068e+002 27587 109058,109110,109084
 1.1000e+000 109695 -2.9050e+002 -3.4760e+002  1.1828e+002 26969 109718,109375,109323
 1.1000e+000 109672 -2.9467e+002 -3.3624e+002  1.3637e+002 26969 109718,109323,109505
 1.1000e+000 109649 -3.6884e+002 -1.4701e+002  8.2944e+001 26969 109790,109453,109427
 1.1000e+000 109626 -1.5381e+002 -3.0259e+002  1.5697e+002 26969 109323,109375,109349
 1.1000e+000 109603 -4.0092e+002 -4.5075e+002  1.9605e+002 26969 109323,109531,109505
 1.1000e+000 109580 -2.4954e+002 -4.1420e+002  9.5575e+001 26969 109375,109427,109401
 1.1000e+000 109557 -4.0991e+002 -1.9009e+002  1.0080e+002 26969 109453,109505,109479
 1.1000e+000 109744 -3.1450e+002 -3.7727e+002  7.3435e+001 26969 109427,109375,109718
 1.1000e+000 109767 -2.5322e+002 -2.3683e+002  8.1646e+001 26969 109790,109427,109718
 1.1000e+000 109816 -4.3295e+002 -2.3852e+002  1.2308e+002 26969 109505,109453,109790
 1.1000e+000 109839 -3.5464e+002 -3.5447e+002  1.3690e+002 26969 109505,109790,109718
 1.1000e+000 110266 -2.9727e+002 -4.3625e+002  1.8061e+002 26515 110361,110289,110099
 1.1000e+000 110243 -2.6360e+002 -3.5170e+002  2.4279e+002 26515 110289,109995,109943
 1.1000e+000 110220 -3.0395e+002 -4.4314e+002  1.9547e+002 26515 110361,110099,110021
 1.1000e+000 110197 -2.6230e+002 -6.5800e+002  1.0788e+002 26515 110047,110099,110073
 1.1000e+000 110174 -2.9879e+002 -7.2761e+002  5.0550e+001 26515 110021,110099,110047
 1.1000e+000 110151  3.8775e+001  3.8810e+001  3.8002e+002 26515 109943,109995,109969
 1.1000e+000 110315 -5.3797e+002 -3.3213e+002  1.6277e+002 26515 110125,110099,110289
 1.1000e+000 110338 -3.0435e+002 -1.0908e+002  3.1090e+002 26515 110125,110289,109943
 1.1000e+000 110387 -2.9759e+002 -3.9636e+002  1.6474e+002 26515 109995,110289,110361
 1.1000e+000 110410 -3.0904e+002 -4.1734e+002  1.7835e+002 26515 109995,110361,110021
 1.1000e+000 110609 -1.4246e+002 -4.6235e+002  1.7984e+002 25789 110906,110762,110632
 1.1000e+000 110586 -1.4743e+002 -5.7731e+002  2.0712e+002 25789 110762,110433,110537
 1.1000e+000 110563 -3.3712e+002 -5.0867e+002  2.9421e+002 25789 110834,110459,110433
 1.1000e+000 110658 -2.0824e+002 -4.4702e+002  2.2647e+002 25789 110906,110632,110834
 1.1000e+000 110788 -1.0114e+002 -2.9605e+002  1.1682e+002 25789 110511,110632,110762
 1.1000e+000 110811 -1.3725e+002 -4.5723e+002  2.0827e+002 25789 110511,110762,110537
 1.1000e+000 110860 -2.1979e+002 -4.4766e+002  2.6663e+002 25789 110485,110459,110834
 1.1000e+000 110883 -2.6270e+002 -4.6363e+002  2.3435e+002 25789 110485,110834,110632
 1.1000e+000 110932 -2.7502e+002 -5.0296e+002  1.8926e+002 25789 110433,110762,110906
 1.1000e+000 110955 -3.2680e+002 -4.7128e+002  2.2610e+002 25789 110433,110906,110834
 1.1000e+000 111350 -3.6032e+002 -4.2468e+002  2.7898e+002 25228 111445,111373,111186
 1.1000e+000 111327 -3.8914e+002 -4.6458e+002  1.2864e+002 25228 110978,111186,111004
 1.1000e+000 111304 -3.9302e+002 -5.3633e+002  2.3573e+002 25228 111373,111108,111082
 1.1000e+000 111281 -3.2155e+002 -5.7234e+002  2.3747e+002 25228 111134,111186,111160
 1.1000e+000 111258 -3.4912e+002 -4.0292e+002  2.8402e+002 25228 111445,111186,111134
 1.1000e+000 111235 -3.3366e+002 -3.6210e+002  1.6235e+002 25228 111517,111030,111004
 1.1000e+000 111212 -4.9596e+002 -4.3920e+002  2.4367e+002 25228 111030,111082,111056
 1.1000e+000 111399 -3.7290e+002 -4.8844e+002  2.6603e+002 25228 111004,111186,111373
 1.1000e+000 111422 -2.9415e+002 -4.0498e+002  2.1890e+002 25228 111517,111004,111373
 1.1000e+000 111471 -3.7865e+002 -4.1931e+002  2.4293e+002 25228 111108,111373,111445
 1.1000e+000 111494 -3.6459e+002 -3.9159e+002  2.4867e+002 25228 111108,111445,111134
 1.1000e+000 111543 -4.2341e+002 -3.9506e+002  2.0249e+002 25228 111082,111030,111517
 1.1000e+000 111566 -3.8503e+002 -4.5175e+002  2.6058e+002 25228 111082,111517,111373
 1.1000e+000 112074 -3.1281e+002 -3.3834e+002  2.2772e+002 24338 112097,111907,111881
 1.1000e+000 112051 -4.1166e+002 -3.4025e+002  1.6482e+002 24338 112097,111881,111829
 1.1000e+000 112028 -2.1997e+002 -3.8969e+002  1.2890e+002 24338 111829,111881,111855
 1.1000e+000 112005 -5.1400e+002 -5.2065e+002  1.5592e+002 24338 111777,111933,111829
 1.1000e+000 111982 -6.0805e+002 -1.6173e+002  1.8467e+002 24338 111751,111933,111777
 1.1000e+000 111959 -5.3597e+002 -6.1321e+002  2.0741e+002 24338 111777,111829,111803
 1.1000e+000 112123 -4.0691e+002 -4.8971e+002  1.8055e+002 24338 111933,111907,112097
 1.1000e+000 112146 -4.4555e+002 -3.6448e+002  1.4611e+002 24338 111933,112097,111829
 1.1000e+000 112443 -5.1560e+002 -3.4017e+002  2.2243e+002 23998 112466,112299,112247
 1.1000e+000 112420 -5.4812e+002 -5.8521e+002  1.9646e+002 23998 112466,112247,112221
 1.1000e+000 112397 -5.0583e+002 -5.8299e+002  3.0810e+002 23998 112169,112325,112221
 1.1000e+000 112374 -4.8375e+002 -5.1620e+002  3.1076e+002 23998 112169,112221,112195
 1.1000e+000 112351 -1.8957e+002 -3.0284e+002  2.7096e+002 23998 112247,112299,112273
 1.1000e+000 112492 -4.8105e+002 -3.7160e+002  3.6764e+002 23998 112325,112299,112466
 1.1000e+000 112515 -5.3015e+002 -5.1303e+002  3.1253e+002 23998 112325,112466,112221
 1.1000e+000 113200 -4.8198e+002 -5.4888e+002  3.5837e+002 23480 112779,112961,112805
 1.1000e+000 113177 -4.9589e+002 -4.1123e+002  1.8226e+002 23480 112779,112987,112961
 1.1000e+000 113154 -1.8283e+002 -3.1347e+002  2.4073e+002 23480 112805,112961,112883
 1.1000e+000 113131 -3.4067e+002 -5.0713e+002  2.4917e+002 23480 112883,112935,112909
 1.1000e+000 113108 -4.1654e+002 -4.1156e+002  2.4899e+002 23480 112883,112961,112935
 1.1000e+000 113085 -2.2381e+002 -2.6775e+002  1.2625e+002 23480 112831,112883,112857
 1.1000e+000 113062 -2.9227e+002 -3.2001e+002  1.5532e+002 23480 112805,112883,112831
 1.1000e+000 113039 -5.9029e+002 -3.1961e+002  2.0380e+002 23480 112779,113013,112987
 1.1000e+000 113676 -4.2540e+002 -2.5548e+002  3.1874e+002 23018 113699,113434,113356
 1.1000e+000 113653 -3.9198e+002 -2.5485e+002  2.0058e+002 23018 113771,113699,113356
 1.1000e+000 113630 -3.6089e+002 -3.6505e+002  1.5292e+002 23018 113771,113356,113512
 1.1000e+000 113607 -2.8310e+002 -4.6965e+002  2.2211e+002 23018 113330,113512,113356
 1.1000e+000 113584 -8.8822e+002 -4.1978e+002  4.8619e+002 23018 113356,113434,113382
 1.1000e+000 113561 -1.0807e+002 -4.4107e+002  2.1740e+002 23018 113304,113512,113330
 1.1000e+000 113538 -8.4623e+002 -1.0176e+002  2.1942e+002 23018 113382,113434,113408
 1.1000e+000 113725 -4.7148e+002 -3.6180e+002  3.1416e+002 23018 113460,113434,113699
 1.1000e+000 113748 -4.9139e+002 -3.8064e+002  2.2881e+002 23018 113460,113699,113486
 1.1000e+000 113797 -4.7542e+002 -4.1638e+002  2.3128e+002 23018 113486,113699,113771
 1.1000e+000 113820 -3.9634e+002 -4.4529e+002  1.5971e+002 23018 113486,113771,113512
 1.1000e+000 114424 -4.5342e+002 -4.2920e+002  1.1196e+002 22514 114447,114133,114029
 1.1000e+000 114401 -4.5908e+002 -5.2492e+002  1.1342e+002 22514 114447,114029,114237
 1.1000e+000 114378 -4.2723e+002 -3.1904e+002  9.0540e+001 22514 114133,114211,114185
 1.1000e+000 114355 -6.6017e+002 -3.4333e+002  4.5936e+001 22514 114133,114185,114159
 1.1000e+000 114332 -3.8553e+002 -5.5077e+002  2.4926e+002 22514 114003,114237,114029
 1.1000e+000 114309 -4.8095e+002 -3.5858e+002  7.0628e+001 22514 114029,114133,114055
 1.1000e+000 114286 -4.8195e+002 -3.3698e+002  7.0238e+001 22514 114055,114133,114107
 1.1000e+000 114263 -3.5617e+002 -7.7249e+000  8.9551e+001 22514 114055,114107,114081
 1.1000e+000 114473 -4.7939e+002 -3.7488e+002  1.4839e+002 22514 114211,114133,114447
 1.1000e+000 114496 -4.6793e+002 -4.4640e+002  1.4769e+002 22514 114211,114447,114237
 1.1000e+000 114597 -2.5803e+002 -6.5329e+002  3.7167e+002 22316 114620,114571,114545
 1.1000e+000 114646 -2.5803e+002 -6.5329e+002  3.7167e+002 22316 114519,114571,114620
 1.1000e+000 115127 -6.0915e+002 -4.1548e+002  2.1144e+002 21612 115150,114905,114879
 1.1000e+000 115104 -6.8970e+002 -2.4627e+002  2.3011e+002 21612 115150,114879,114853
 1.1000e+000 115081 -4.8070e+002 -1.0174e+002  3.2379e+002 21612 115222,114931,114905
 1.1000e+000 115058 -5.4130e+002 -3.2008e+002  2.6676e+002 21612 115222,114905,115009
 1.1000e+000 115035 -2.8074e+002 -4.3281e+002  1.9556e+002 21612 114957,115009,114983
 1.1000e+000 115176 -5.5988e+002 -2.9414e+002  1.9938e+002 21612 115009,114905,115150
 1.1000e+000 115199 -6.2453e+002 -1.0105e+002  2.1082e+002 21612 115009,115150,114853
 1.1000e+000 115248 -4.5624e+002 -3.0894e+002  2.6081e+002 21612 114957,114931,115222
 1.1000e+000 115271 -5.1144e+002 -5.1755e+002  2.0253e+002 21612 114957,115222,115009
 1.1000e+000 115519 -1.7494e+002  9.7298e+001  1.7630e+002 21208 115542,115372,115320
 1.1000e+000 115496 -1.6752e+001  2.0775e+002  7.7137e+000 21208 115542,115320,115294
 1.1000e+000 115473 -1.1085e+002 -2.8122e+002  2.4902e+002 21208 115320,115372,115346
 1.1000e+000 115450 -3.7113e+002 -1.1411e+002  7.9773e+001 21208 115294,115424,115398
 1.1000e+000 115568 -2.4089e+002  2.4906e+001  2.3283e+002 21208 115398,115372,115542
 1.1000e+000 115591 -1.9104e+002 -8.5338e+001  9.3438e+001 21208 115398,115542,115294
 1.1000e+000 115839 -4.5210e+002 -2.9690e+002  2.6976e+002 20668 115862,115640,115614
 1.1000e+000 115816 -4.9296e+002 -3.2484e+002  2.9043e+002 20668 115862,115614,115744
 1.1000e+000 115793 -5.7878e+002 -2.4484e+002  2.7332e+002 20668 115640,115718,115692
 1.1000e+000 115770 -6.4778e+002 -2.6962e+002  2.7770e+002 20668 115640,115692,115666
 1.1000e+000 115888 -5.0848e+002 -2.3472e+002  2.9226e+002 20668 115718,115640,115862
 1.1000e+000 115911 -5.5923e+002 -2.9225e+002  3.2274e+002 20668 115718,115862,115744
 1.1000e+000 116134 -2.6809e+002 -4.5957e+002  2.5741e+002 20264 115958,116036,115984
 1.1000e+000 116111 -1.6792e+002 -4.1441e+002  2.4810e+002 20264 115958,116062,116036
 1.1000e+000 116088 -1.7216e+002 -4.3023e+002  2.7848e+002 20264 115984,116036,116010
 1.1000e+000 116384 -4.7363e+002 -3.0441e+002  2.9106e+002 19924 116407,116211,116159
 1.1000e+000 116361 -4.4758e+002 -4.8639e+002  2.4904e+002 19924 116407,116159,116263
 1.1000e+000 116338 -4.4745e+002 -2.0280e+002  2.8277e+002 19924 116159,116211,116185
 1.1000e+000 116315 -2.9504e+002 -4.9639e+002  3.2878e+002 19924 116159,116289,116263
 1.1000e+000 116433 -4.6256e+002 -2.0342e+002  3.3088e+002 19924 116237,116211,116407
 1.1000e+000 116456 -3.7089e+002 -3.2680e+002  3.1131e+002 19924 116237,116407,116263
 1.1000e+000 116608 -3.4790e+002 -1.2442e+002  2.0372e+002 19520 116703,116631,116533
 1.1000e+000 116585 -3.3439e+002 -1.5652e+002  1.7735e+002 19520 116631,116507,116481
 1.1000e+000 116657 -2.9555e+002 -1.5902e+002  2.1861e+002 19520 116559,116533,116631
 1.1000e+000 116680 -3.2237e+002 -2.3713e+002  1.8604e+002 19520 116559,116631,116481
 1.1000e+000 116729 -3.4790e+002 -1.2442e+002  2.0372e+002 19520 116507,116631,116703
 1.1000e+000 116952 -3.6209e+002 -3.1114e+002  4.3768e+002 19208 116975,116802,116776
 1.1000e+000 116929 -4.5420e+002 -5.9043e+002  2.5585e+002 19208 116975,116776,116880
 1.1000e+000 116906 -5.1877e+002 -2.2184e+002  3.0668e+002 19208 116802,116854,116828
 1.1000e+000 117001 -2.9405e+002 -2.6206e+002  4.6067e+002 19208 116854,116802,116975
 1.1000e+000 117024 -1.2273e+002 -3.3648e+002  3.6985e+002 19208 116854,116975,116880
 1.1000e+000 117428 -4.1933e+002 -1.6295e+002  2.3650e+002 18796 117154,117206,117180
 1.1000e+000 117405 -2.9319e+002 -3.0595e+002  2.1559e+002 18796 117154,117284,117206
 1.1000e+000 117382 -1.9108e+002 -2.5687e+002  2.3914e+002 18796 117154,117310,117284
 1.1000e+000 117359 -1.7900e+002 -2.0938e+002  2.8673e+002 18796 117206,117284,117258
 1.1000e+000 117336 -8.2324e+001 -5.2273e+001  3.7996e+002 18796 117206,117258,117232
 1.1000e+000 117529 -2.0886e+002 -1.0384e+002  1.1985e+002 18228 117810,117552,117477
 1.1000e+000 117578 -4.3900e+002 -2.9229e+002  1.7826e+002 18228 117682,117552,117503
 1.1000e+000 117708 -1.5420e+002 -1.5120e+002  1.1805e+002 18228 117477,117552,117682
 1.1000e+000 117836 -3.1699e+002 -2.9626e+002  1.7723e+002 18228 117451,117552,117810
 1.1000e+000 118364 -4.8250e+002 -1.7314e+002  1.7345e+002 17722 118067,118223,118093
 1.1000e+000 118341 -4.4829e+002 -7.2920e+001  1.7811e+002 17722 118041,118223,118067
 1.1000e+000 118318 -2.9070e+002 -1.5594e+002  1.2825e+002 17722 118093,118223,118197
 1.1000e+000 118295 -7.5577e+002 -7.0888e+002  4.4524e+002 17722 118119,118197,118171
 1.1000e+000 118272 -1.8466e+002 -5.3129e+001  1.9443e+002 17722 118093,118197,118119
 1.1000e+000 118249 -6.8356e+002 -2.3366e+002  3.5715e+002 17722 118119,118171,118145
 1.1000e+000 118514 -6.9384e+002 -2.8106e+002  2.4499e+002 17268 118387,118439,118413
 1.1000e+000 118491 -2.1697e+001 -2.8693e+002  2.5839e+002 17268 118387,118465,118439
 1.1000e+000 118916 -6.4747e+002 -2.3868e+002  1.5923e+002 16828 118668,118772,118694
 1.1000e+000 118893 -8.0641e+002 -3.0232e+002  1.3933e+002 16828 118668,118798,118772
 1.1000e+000 118870 -8.7793e+002 -4.9947e+002  1.2344e+002 16828 118642,118798,118668
 1.1000e+000 118847 -3.9688e+002 -1.7332e+002  3.2045e+002 16828 118694,118746,118720
 1.1000e+000 118824 -7.0321e+002 -4.2777e+002  1.5061e+002 16828 118694,118772,118746
 1.1000e+000 119316 -3.0978e+002 -2.2761e+002  3.1183e+002 16422 119042,119172,119094
 1.1000e+000 119293 -4.0576e+002 -2.4238e+002  3.2515e+002 16422 119042,119198,119172
 1.1000e+000 119270 -4.4758e+002 -1.6400e+002  1.9410e+002 16422 119042,119094,119068
 1.1000e+000 119247 -2.4999e+002 -1.3306e+002  4.3033e+002 16422 119094,119146,119120
 1.1000e+000 119224 -2.7244e+002 -1.6315e+002  3.2874e+002 16422 119094,119172,119146
 1.1000e+000 119466 -7.2642e+002 -2.0612e+002 -4.9156e+001 16010 119339,119391,119365
 1.1000e+000 119443 -3.2513e+002 -2.6196e+002  2.2543e+002 16010 119339,119417,119391
 1.1000e+000 119616 -2.0516e+002 -7.6287e+001  2.5227e+002 15547 119515,119567,119541
 1.1000e+000 119593  1.1630e+002  1.7215e+002  5.2529e+002 15547 119489,119567,119515
 1.1000e+000 119719 -5.9296e+002 -2.3771e+002  2.4282e+002 421 119641,119693,119667
 1.2000e+000 69562 -6.0869e+002 -2.8171e+002  4.2722e+002 69254 69484,69536,69510
 1.2000e+000 70009 -2.0389e+002 -2.1408e+002  2.1359e+002 68942 69686,69842,69816
 1.2000e+000 69986 -1.5154e+002 -2.4096e+001  1.3637e+002 68942 69686,69868,69842
 1.2000e+000 69963  3.6743e+001  1.9546e+001  3.0870e+002 68942 69686,69816,69712
 1.2000e+000 69940 -6.4253e+001 -5.5952e+001  4.5289e+002 68942 69712,69790,69738
 1.2000e+000 69917 -2.7584e+002 -6.9608e+002  3.5369e+002 68942 69712,69816,69790
 1.2000e+000 69894  9.2285e+000 -3.8490e+002  1.8699e+002 68942 69738,69790,69764
 1.2000e+000 70110 -2.6784e+002 -6.9112e+001  1.6435e+002 68766 70032,70084,70058
 1.2000e+000 70746 -1.6710e+002 -1.1681e+002  1.6802e+002 68448 70400,70556,70426
 1.2000e+000 70723 -5.1537e+002 -1.9564e+002  2.4167e+002 68448 70374,70556,70400
 1.2000e+000 70700 -2.5650e+002 -1.1458e+002  1.1116e+002 68448 70426,70556,70478
 1.2000e+000 70677 -4.0419e+002 -8.2595e+001  1.2679e+002 68448 70478,70556,70504
 1.2000e+000 70654 -2.8552e+002 -1.7041e+002  1.2198e+002 68448 70426,70478,70452
 1.2000e+000 70631 -5.1159e+002 -1.7799e+002  2.9876e+002 68448 70374,70582,70556
 1.2000e+000 70608 -4.2654e+002 -1.4099e+002  1.2647e+002 68448 70504,70556,70530
 1.2000e+000 70896 -2.6805e+002 -5.1343e+001  2.9145e+001 68250 70795,70847,70821
 1.2000e+000 70873 -9.0708e+002 -2.8741e+002  1.7735e+001 68250 70769,70847,70795
 1.2000e+000 70997 -1.5143e+003 -7.0544e+002  6.2251e+002 68052 70919,70971,70945
 1.2000e+000 71367 -4.5444e+002 -7.2217e+002  2.8445e+002 67740 71096,71226,71200
 1.2000e+000 71344 -2.9878e+002 -4.1418e+002  3.4893e+002 67740 71044,71226,71096
 1.2000e+000 71321  3.3196e+001 -3.3196e+001  5.5254e+002 67740 71044,71096,71070
 1.2000e+000 71298 -3.4431e+002 -7.7480e+002  5.4296e+002 67740 71096,71200,71174
 1.2000e+000 71275 -1.9001e+002 -4.6067e+002  2.1723e+002 67740 71096,71148,71122
 1.2000e+000 71252 -2.6453e+002 -5.5122e+002  3.5671e+002 67740 71096,71174,71148
 1.2000e+000 71519  1.7165e+002  1.1275e+002  1.7360e+002 67542 71418,71470,71444
 1.2000e+000 71496  2.9552e+002  5.8387e+002  5.4682e+002 67542 71392,71470,71418
 1.2000e+000 71923 -9.9779e+001  4.1980e+000  1.5509e+002 67230 71649,71779,71675
 1.2000e+000 71900 -7.0446e+001 -1.4168e+002  1.0010e+002 67230 71649,71805,71779
 1.2000e+000 71877 -1.0432e+002 -3.4951e+001  2.8854e+002 67230 71675,71727,71701
 1.2000e+000 71854 -1.4108e+002 -4.3115e+002  2.8237e+002 67230 71675,71753,71727
 1.2000e+000 71831 -1.4561e+002 -2.5923e+002  1.9616e+002 67230 71675,71779,71753
 1.2000e+000 72433 -2.1995e+002 -1.1987e+002  2.2953e+002 67032 72038,72246,72220
 1.2000e+000 72410 -1.5138e+002  5.5632e+000  8.1644e+001 67032 72012,72246,72038
 1.2000e+000 72387 -2.8455e+002 -8.3691e+001  2.5373e+002 67032 72064,72194,72168
 1.2000e+000 72364 -3.2363e+002 -1.2309e+002  2.7178e+002 67032 72038,72194,72064
 1.2000e+000 72341 -3.4062e+002 -4.4921e+002  3.2733e+002 67032 72038,72220,72194
 1.2000e+000 72318 -1.4037e+002  2.0544e+000  1.4982e+002 67032 72090,72168,72142
 1.2000e+000 72295 -2.1647e+001  1.9997e+001  2.1381e+002 67032 72064,72168,72090
 1.2000e+000 72272 -1.5906e+002 -1.6404e+001  1.4104e+002 67032 72090,72142,72116
 1.2000e+000 72933 -2.4472e+002 -2.7669e+002  2.7863e+002 66628 72956,72665,72613
 1.2000e+000 72910 -2.3209e+002 -3.0783e+002  2.7629e+002 66628 73100,72956,72613
 1.2000e+000 72887 -3.1037e+002 -4.2867e+002  2.3585e+002 66628 73028,72691,72665
 1.2000e+000 72864 -2.2379e+002 -2.9006e+002  2.7901e+002 66628 73100,72613,72587
 1.2000e+000 72841 -2.3202e+002 -2.6436e+002  2.5028e+002 66628 72613,72665,72639
 1.2000e+000 72818  1.0091e+002  2.7559e+001  3.9015e+002 66628 72587,72769,72743
 1.2000e+000 72795 -2.0167e+002 -5.9885e+002  7.5457e+001 66628 72561,72769,72587
 1.2000e+000 72982 -3.0542e+002 -3.1194e+002  3.0054e+002 66628 73028,72665,72956
 1.2000e+000 73005 -2.4128e+002 -9.3395e+001  2.9090e+002 66628 72717,72956,72743
 1.2000e+000 73054 -4.3236e+002 -3.5813e+002  1.4754e+002 66628 72717,72691,73028
 1.2000e+000 73077 -4.3105e+002 -3.1867e+002  2.0659e+002 66628 72717,73028,72956
 1.2000e+000 73126 -2.3803e+002 -3.0629e+002  2.5642e+002 66628 72743,72956,73100
 1.2000e+000 73149 -2.3036e+002 -2.9184e+002  2.5946e+002 66628 72743,73100,72587
 1.2000e+000 73606 -2.5129e+002 -2.7125e+002  2.4153e+002 66281 73332,73384,73358
 1.2000e+000 73583 -3.2415e+002 -3.7816e+002  2.0719e+002 66281 73332,73462,73384
 1.2000e+000 73560 -4.1881e+002 -2.5864e+002  2.8903e+002 66281 73384,73462,73436
 1.2000e+000 73537 -7.2644e+002 -3.8255e+002  3.4507e+002 66281 73332,73488,73462
 1.2000e+000 73514 -4.7244e+002 -2.3555e+002  1.3203e+002 66281 73384,73436,73410
 1.2000e+000 73984 -6.3382e+001 -9.0590e+001  7.0701e+001 65969 73736,73814,73788
 1.2000e+000 73961  6.4392e+000 -1.6698e+001  2.0331e+001 65969 73736,73866,73814
 1.2000e+000 73938 -1.4190e+002 -1.1964e+002  1.5434e+002 65969 73814,73866,73840
 1.2000e+000 73915 -1.7230e+001 -2.3726e+001  1.5473e+001 65969 73710,73866,73736
 1.2000e+000 73892 -1.5560e+001 -9.1074e+001  2.2238e+000 65969 73736,73788,73762
 1.2000e+000 74232 -2.2494e+002 -2.7084e+002  2.5834e+002 65572 74255,74085,74033
 1.2000e+000 74209 -1.9574e+002 -3.0444e+002  2.1023e+002 65572 74327,74255,74033
 1.2000e+000 74186 -2.2076e+002 -2.1580e+002  2.1104e+002 65572 74327,74033,74007
 1.2000e+000 74163 -2.4365e+002 -3.2385e+002  2.8009e+002 65572 74033,74085,74059
 1.2000e+000 74281 -2.9169e+002 -3.5299e+002  3.3211e+002 65572 74111,74085,74255
 1.2000e+000 74304 -1.8661e+002 -3.2008e+002  2.3110e+002 65572 74111,74255,74137
 1.2000e+000 74353 -1.7206e+002 -2.0219e+002  1.7778e+002 65572 74137,74255,74327
 1.2000e+000 74376 -2.1650e+002 -1.3589e+002  1.8321e+002 65572 74137,74327,74007
 1.2000e+000 74884 -2.2110e+002 -2.5683e+002  1.9968e+002 65174 74587,74717,74613
 1.2000e+000 74861 -2.2288e+002 -2.8573e+002  1.5238e+002 65174 74561,74717,74587
 1.2000e+000 74838 -2.2243e+002 -3.2243e+002  1.7207e+002 65174 74613,74691,74639
 1.2000e+000 74815 -1.9167e+002 -3.0137e+002  1.9556e+002 65174 74613,74717,74691
 1.2000e+000 74792 -8.7752e+001 -5.1940e+002  1.4072e+002 65174 74639,74691,74665
 1.2000e+000 74769 -2.7341e+002 -1.6886e+002  1.4491e+002 65174 74561,74743,74717
 1.2000e+000 75412 -1.4765e+001 -1.3598e+002  5.2834e+002 64770 75167,75245,75219
 1.2000e+000 75389 -2.6388e+002 -4.5862e+002  3.6816e+002 64770 75115,75245,75167
 1.2000e+000 75366 -2.0490e+002 -5.7141e+002  4.6374e+002 64770 75089,75245,75115
 1.2000e+000 75343 -4.0622e+002 -1.6270e+002  3.9700e+002 64770 75167,75219,75193
 1.2000e+000 75320 -2.1447e+002 -3.3993e+002  3.6394e+002 64770 75115,75167,75141
 1.2000e+000 75297 -3.2081e+002 -8.3647e+002  4.8459e+002 64770 75089,75271,75245
 1.2000e+000 75861 -5.6227e+002 -2.3541e+002  4.3647e+002 64316 75538,75694,75564
 1.2000e+000 75838 -2.7608e+002 -9.4398e+001  2.3987e+002 64316 75538,75720,75694
 1.2000e+000 75815 -4.6878e+002 -2.9425e+002  3.3984e+002 64316 75590,75694,75642
 1.2000e+000 75792 -4.5794e+002 -4.2532e+002  3.8369e+002 64316 75564,75694,75590
 1.2000e+000 75769 -1.4352e+002 -5.2818e+002  1.9982e+002 64316 75590,75642,75616
 1.2000e+000 75746 -4.5054e+002 -1.9164e+002  3.2958e+002 64316 75642,75694,75668
 1.2000e+000 76239 -6.5297e+002 -5.1836e+002  3.8308e+002 64018 76262,76095,76043
 1.2000e+000 76216 -4.2390e+002 -5.1066e+002  3.0671e+002 64018 76262,76043,76017
 1.2000e+000 76193 -1.2743e+002 -2.4712e+002  1.8281e+002 64018 75991,76121,76017
 1.2000e+000 76170 -6.0094e+002 -3.9541e+002  3.8763e+002 64018 76043,76095,76069
 1.2000e+000 76147 -2.5866e+001 -2.9054e+002  6.1328e+001 64018 75965,76121,75991
 1.2000e+000 76288 -4.2257e+002 -6.1301e+002  4.9532e+002 64018 76121,76095,76262
 1.2000e+000 76311 -2.3877e+002 -6.3046e+002  3.8630e+002 64018 76121,76262,76017
 1.2000e+000 76866 -2.6847e+002 -2.9537e+002  2.9731e+002 63728 76520,76676,76546
 1.2000e+000 76843 -2.4668e+002 -3.0057e+002  2.1864e+002 63728 76520,76702,76676
 1.2000e+000 76820 -2.2074e+002 -3.2959e+002  3.1044e+002 63728 76546,76650,76572
 1.2000e+000 76797 -3.7195e+002 -4.3201e+002  2.5223e+002 63728 76546,76676,76650
 1.2000e+000 76774 -3.8642e+002 -3.9983e+001  1.4790e+002 63728 76572,76650,76624
 1.2000e+000 76751 -2.1915e+002 -2.5189e+002  2.3471e+002 63728 76494,76702,76520
 1.2000e+000 76728 -8.1902e+001 -1.6264e+002  1.1608e+002 63728 76572,76624,76598
 1.2000e+000 77065 -1.0695e+002 -2.5073e+002  2.0286e+002 63288 77088,76941,76915
 1.2000e+000 77042 -2.7700e+002 -3.1142e+002  1.9859e+002 63288 77088,76915,76993
 1.2000e+000 77019 -1.0124e+002 -3.1740e+002  1.8323e+002 63288 76889,76993,76915
 1.2000e+000 77114 -1.9265e+002 -2.3221e+002  1.6479e+002 63288 76967,76941,77088
 1.2000e+000 77137 -4.4972e+002 -3.4948e+002  7.9917e+001 63288 77160,77088,76993
 1.2000e+000 77186 -1.1782e+002 -1.8382e+002  1.3781e+002 63288 76967,77088,77160
 1.2000e+000 77417 -1.3149e+002 -2.1022e+002  1.1186e+002 62884 77440,77342,77316
 1.2000e+000 77394 -2.7179e+002 -3.5409e+002  5.4015e+001 62884 77770,77440,77316
 1.2000e+000 77466 -2.7901e+002 -3.7117e+002  6.7662e+001 62884 77512,77440,77368
 1.2000e+000 77489 -1.6840e+002 -3.0406e+002  3.6016e+001 62884 77642,77440,77290
 1.2000e+000 77538 -1.3058e+002 -2.7086e+002  2.3658e+001 62884 77342,77440,77512
 1.2000e+000 77668 -2.3551e+002 -4.4103e+002  1.4348e+001 62884 77368,77440,77642
 1.2000e+000 77796 -1.6310e+002 -2.9849e+002  3.3703e+001 62884 77290,77440,77770
 1.2000e+000 78479 -6.0920e+002 -5.4744e+002  3.5045e+002 62480 78084,78240,78214
 1.2000e+000 78456 -3.3593e+002 -4.6519e+002 -9.6695e+000 62480 78084,78266,78240
 1.2000e+000 78433 -4.0589e+002 -4.2546e+002  1.5863e+002 62480 78110,78214,78136
 1.2000e+000 78410 -4.1915e+002 -4.2314e+002  2.9213e+002 62480 78084,78214,78110
 1.2000e+000 78387 -4.6059e+002 -3.2146e+002  1.7645e+002 62480 78136,78214,78188
 1.2000e+000 78364 -2.7266e+002 -5.0485e+002 -1.7259e+001 62480 78058,78266,78084
 1.2000e+000 78341 -5.1270e+002 -3.8499e+002  3.7525e+002 62480 78136,78188,78162
 1.2000e+000 78318 -1.9776e+002 -4.8028e+002 -9.1176e+000 62480 78058,78292,78266
 1.2000e+000 78678 -3.4133e+002 -6.1713e+002  2.7746e+002 61926 78528,78606,78554
 1.2000e+000 78655 -1.9569e+002 -6.3444e+002  3.3975e+002 61926 78502,78606,78528
 1.2000e+000 78632 -1.9832e+002 -3.6748e+002  1.3976e+002 61926 78554,78606,78580
 1.2000e+000 79058 -3.1730e+002 -3.4082e+002  1.8433e+002 61614 78836,78914,78862
 1.2000e+000 79035 -4.0017e+002 -3.7383e+002  1.7249e+002 61614 78810,78914,78836
 1.2000e+000 79012 -2.5713e+002 -3.1358e+002  1.5427e+002 61614 78784,78914,78810
 1.2000e+000 78989 -2.6740e+002 -3.3635e+002  2.8731e+002 61614 78862,78914,78888
 1.2000e+000 78966 -2.0746e+002 -4.2452e+002  1.8208e+002 61614 78784,78940,78914
 1.2000e+000 79208 -8.6587e+001 -2.0208e+002  2.9083e+001 61366 79081,79133,79107
 1.2000e+000 79185 -1.1659e+002 -3.8322e+001  2.5417e+002 61366 79081,79159,79133
 1.2000e+000 79358  5.0649e+001  8.5642e+000  3.1208e+001 60962 79231,79283,79257
 1.2000e+000 79335 -1.8292e+002 -4.3188e+002  1.1765e+002 60962 79231,79309,79283
 1.2000e+000 79608 -1.9438e+002 -4.1835e+002  2.3895e+002 60508 79631,79435,79409
 1.2000e+000 79585 -1.4129e+002 -4.4568e+002  1.5596e+002 60508 79703,79631,79409
 1.2000e+000 79562 -1.2423e+002 -9.3234e+001  2.1425e+002 60508 79703,79409,79383
 1.2000e+000 79539 -3.5999e+002 -4.4000e+002  3.9285e+002 60508 79435,79487,79461
 1.2000e+000 79657 -2.4056e+002 -5.6165e+002  3.7600e+002 60508 79487,79435,79631
 1.2000e+000 79680 -1.1791e+002 -3.8880e+002  1.7428e+002 60508 79487,79631,79513
 1.2000e+000 79729 -5.3644e+001 -1.2250e+002  7.4764e+001 60508 79513,79631,79703
 1.2000e+000 79752 -1.5292e+002 -7.5699e+001  2.7240e+001 60508 79513,79703,79383
 1.2000e+000 80390 -2.8062e+002 -3.4987e+002  2.8390e+002 59997 80413,80096,80018
 1.2000e+000 80367 -4.3459e+002 -3.9044e+002  3.3918e+002 59997 80413,80018,80226
 1.2000e+000 80344 -2.3456e+002 -2.7061e+002  2.1775e+002 59997 80096,80174,80148
 1.2000e+000 80321 -8.9802e+002 -6.6851e+002  4.4486e+002 59997 80018,80096,80070
 1.2000e+000 80298 -2.4294e+002 -3.3706e+002  1.7791e+002 59997 80096,80148,80122
 1.2000e+000 80275 -2.3658e+002 -2.4798e+002  2.2332e+002 59997 80174,80226,80200
 1.2000e+000 80252 -5.6096e+002 -4.4934e+002  1.1297e+002 59997 80018,80070,80044
 1.2000e+000 80439 -2.4155e+002 -3.5610e+002  2.4112e+002 59997 80174,80096,80413
 1.2000e+000 80462 -3.0204e+002 -2.9303e+002  2.7398e+002 59997 80174,80413,80226
 1.2000e+000 80840 -4.5073e+002 -4.3252e+002  2.1281e+002 59443 80863,80644,80618
 1.2000e+000 80817 -2.2201e+002 -3.2155e+002  2.5561e+002 59443 80863,80618,80566
 1.2000e+000 80794 -1.7722e+002 -2.7422e+002  2.7268e+002 59443 81007,80935,80670
 1.2000e+000 80771 -2.6876e+002 -3.0027e+002  2.7402e+002 59443 80566,80722,80696
 1.2000e+000 80748 -2.8206e+002 -4.4271e+002  2.9674e+002 59443 80566,80618,80592
 1.2000e+000 80889 -4.8056e+002 -3.6592e+002  3.1553e+002 59443 80935,80644,80863
 1.2000e+000 80912 -3.5456e+002 -3.3887e+002  2.8563e+002 59443 80696,80863,80566
 1.2000e+000 80961 -2.9619e+002 -3.0882e+002  3.2401e+002 59443 80696,80670,80935
 1.2000e+000 80984 -2.9336e+002 -2.9100e+002  3.0741e+002 59443 80696,80935,80863
 1.2000e+000 81033 -3.8009e+002 -4.7148e+002  3.7452e+002 59443 80644,80935,81007
 1.2000e+000 81360 -3.0836e+002 -2.5578e+002  2.1072e+002 59031 81383,81187,81161
 1.2000e+000 81337 -2.8678e+002 -2.7653e+002  1.4237e+002 59031 81455,81383,81161
 1.2000e+000 81314 -2.3024e+002 -2.3152e+002  1.6191e+002 59031 81455,81161,81135
 1.2000e+000 81291 -6.0854e+002 -1.2572e+002  2.5903e+002 59031 81187,81239,81213
 1.2000e+000 81409 -3.2936e+002 -3.1687e+002  2.1557e+002 59031 81239,81187,81383
 1.2000e+000 81432 -4.3215e+002 -3.0234e+002  1.1837e+002 59031 81239,81383,81265
 1.2000e+000 81481 -3.3877e+002 -1.9237e+002  1.6181e+002 59031 81265,81383,81455
 1.2000e+000 81504 -3.2333e+002 -1.8301e+002  1.6603e+002 59031 81265,81455,81135
 1.2000e+000 81835 -4.2702e+001 -1.9233e+002  6.1658e+001 58577 81610,81714,81636
 1.2000e+000 81812 -4.8349e+001 -1.7050e+002  5.5442e+001 58577 81610,81740,81714
 1.2000e+000 81789 -1.2675e+002 -2.2815e+002  5.2908e+001 58577 81636,81714,81688
 1.2000e+000 81766 -1.1492e+002 -2.4552e+002 -4.6502e+001 58577 81636,81688,81662
 1.2000e+000 81985 -1.0406e+002 -2.5175e+002  1.5681e+002 58030 81884,81936,81910
 1.2000e+000 81962 -2.0148e+002 -7.3817e+001  1.1240e+002 58030 81858,81936,81884
 1.2000e+000 82414 -8.3946e+001 -3.5485e+001  1.1234e+002 57690 82437,82169,82117
 1.2000e+000 82391 -1.2442e+002 -1.4518e+002  1.3456e+002 57690 82437,82117,82247
 1.2000e+000 82368  4.4382e+001  6.5927e+001  3.2305e+002 57690 82195,82247,82221
 1.2000e+000 82345 -9.3643e+001 -1.3197e+002  1.3536e+002 57690 82091,82247,82117
 1.2000e+000 82322 -1.4389e+002 -4.6475e+001  7.7061e+001 57690 82117,82169,82143
 1.2000e+000 82299 -1.0645e+002 -2.4921e+002  1.8841e+002 57690 82091,82273,82247
 1.2000e+000 82463 -1.3879e+002  6.3896e+000  1.6461e+002 57690 82195,82169,82437
 1.2000e+000 82486 -1.5784e+002 -6.8196e+001  1.6896e+002 57690 82195,82437,82247
 1.2000e+000 83041 -2.3189e+002 -2.7742e+002  1.8182e+002 57172 83064,82721,82695
 1.2000e+000 83018 -2.5631e+002 -2.8008e+002  2.6113e+002 57172 83064,82695,82851
 1.2000e+000 82995 -7.4199e+002 -3.5679e+002  3.4172e+002 57172 82669,82851,82695
 1.2000e+000 82972 -4.2634e+002 -2.9593e+002  2.4358e+002 57172 82773,82851,82825
 1.2000e+000 82949 -3.8390e+002 -3.0815e+002  3.1999e+002 57172 82773,82825,82799
 1.2000e+000 82926 -3.3166e+002 -2.1202e+002  1.5264e+002 57172 82721,82773,82747
 1.2000e+000 82903 -8.0590e+002 -3.3225e+002  4.6277e+002 57172 82669,82877,82851
 1.2000e+000 83090 -3.6304e+002 -3.2378e+002  1.6397e+002 57172 82773,82721,83064
 1.2000e+000 83113 -3.0128e+002 -2.9271e+002  2.3988e+002 57172 82773,83064,82851
 1.2000e+000 83747 -3.1733e+002 -2.6285e+002  1.8511e+002 56554 83770,83427,83401
 1.2000e+000 83724 -3.0006e+002 -3.4629e+002  2.2354e+002 56554 83842,83770,83401
 1.2000e+000 83701 -1.2179e+001 -2.7811e+002  8.9001e+001 56554 83842,83401,83583
 1.2000e+000 83678 -5.6645e+002 -5.0146e+002  4.4280e+002 56554 83914,83531,83505
 1.2000e+000 83655 -2.7975e+002 -3.3346e+002  1.3693e+002 56554 83531,83583,83557
 1.2000e+000 83632 -6.5572e+001 -1.5731e+002  7.5427e+001 56554 83375,83583,83401
 1.2000e+000 83609 -2.6030e+002 -2.4829e+002  1.7380e+002 56554 83427,83479,83453
 1.2000e+000 83796 -2.7399e+002 -2.6067e+002  1.8681e+002 56554 83479,83427,83770
 1.2000e+000 83819 -2.7424e+002 -2.2368e+002  1.8680e+002 56554 83479,83770,83505
 1.2000e+000 83868 -1.9566e+002 -1.5399e+002  2.6854e+002 56554 83505,83770,83842
 1.2000e+000 83891 -3.6667e+002 -3.0010e+002  3.3286e+002 56554 83914,83505,83842
 1.2000e+000 83940 -2.5979e+002 -5.1384e+002  2.4801e+002 56554 83583,83531,83914
 1.2000e+000 83963 -1.2672e+002 -4.8030e+002  1.9361e+002 56554 83583,83914,83842
 1.2000e+000 84341 -1.8245e+002 -6.0584e+002  2.0436e+002 56192 84067,84145,84119
 1.2000e+000 84318 -8.2388e+001 -3.8908e+002  1.6798e+002 56192 84067,84223,84145
 1.2000e+000 84295 -1.7961e+002 -4.8467e+002  9.1973e+001 56192 84145,84223,84197
 1.2000e+000 84272 -1.3442e+002 -4.2974e+002  2.0772e+002 56192 84067,84119,84093
 1.2000e+000 84249 -2.8819e+002 -1.7941e+002  1.6263e+002 56192 84145,84197,84171
 1.2000e+000 84611 -1.7190e+002 -4.4116e+002  3.3011e+002 55538 84386,84490,84412
 1.2000e+000 84588 -2.1746e+002 -3.9954e+002  3.3194e+002 55538 84386,84516,84490
 1.2000e+000 84565 -3.2824e+002 -5.0781e+002  3.3333e+002 55538 84412,84490,84464
 1.2000e+000 84542 -1.6822e+002 -4.1291e+002  2.3655e+002 55538 84412,84464,84438
 1.2000e+000 84942 -2.8917e+002 -2.5887e+002  2.2603e+002 55084 84769,84847,84795
 1.2000e+000 84919 -3.0227e+002 -3.1113e+002  1.8023e+002 55084 84717,84847,84769
 1.2000e+000 84896 -3.2767e+002 -3.9172e+002  1.8439e+002 55084 84717,84769,84743
 1.2000e+000 84873 -3.4605e+002 -1.1907e+002  1.8245e+002 55084 84795,84847,84821
 1.2000e+000 85271 -9.4103e+001 -1.0332e+002  1.6071e+002 54580 85294,85098,85072
 1.2000e+000 85248 -3.5357e+002 -1.8589e+002  2.1662e+002 54580 85294,85072,85176
 1.2000e+000 85225 -4.8607e+002 -1.8821e+001  7.5398e+001 54580 85124,85176,85150
 1.2000e+000 85202 -1.2397e+002 -1.6538e+002  8.3760e+001 54580 85046,85176,85072
 1.2000e+000 85320 -3.2051e+002 -1.2328e+002  1.8732e+002 54580 85124,85098,85294
 1.2000e+000 85343 -4.5662e+002 -1.0649e+002  2.2690e+002 54580 85124,85294,85176
 1.2000e+000 85542 -1.9516e+002 -3.1930e+002  2.6062e+002 53976 85565,85444,85418
 1.2000e+000 85519 -2.5420e+002 -2.4094e+002  2.0713e+002 53976 85565,85418,85366
 1.2000e+000 85496 -1.7556e+002 -1.7414e+002  9.1262e+001 53976 85366,85418,85392
 1.2000e+000 85591 -1.6588e+002 -2.8171e+002  2.2069e+002 53976 85470,85444,85565
 1.2000e+000 85614 -1.7449e+002 -1.2343e+002  1.6301e+002 53976 85470,85565,85366
 1.2000e+000 85960 -5.0473e+002 -4.4681e+002  3.3685e+002 53572 85663,85715,85689
 1.2000e+000 85937 -4.2775e+002 -3.5876e+002  2.2233e+002 53572 85983,85715,85663
 1.2000e+000 85914 -3.2247e+002 -3.8199e+002  2.2980e+002 53572 86055,85983,85663
 1.2000e+000 85891 -2.8332e+002 -3.6963e+002  2.6896e+002 53572 86055,85663,85637
 1.2000e+000 85868 -5.1768e+002 -8.3732e+002  3.9881e+002 53572 85637,85793,85767
 1.2000e+000 85845 -6.6593e+002 -1.5466e+002  2.1256e+002 53572 85637,85819,85793
 1.2000e+000 86009 -3.0187e+002 -4.0013e+002  2.2983e+002 53572 85741,85715,85983
 1.2000e+000 86032 -1.9663e+002 -3.3019e+002  1.8380e+002 53572 85741,85983,85767
 1.2000e+000 86081 -2.7574e+002 -3.0809e+002  2.5844e+002 53572 85767,85983,86055
 1.2000e+000 86104 -2.5161e+002 -3.3610e+002  2.9151e+002 53572 85767,86055,85637
 1.2000e+000 86693 -4.9314e+002 -1.6170e+002  3.0701e+002 52946 86474,86526,86500
 1.2000e+000 86670 -1.7769e+002 -1.1267e+002  1.3760e+002 52946 86396,86526,86474
 1.2000e+000 86647 -3.8921e+002 -4.7907e+002  2.5728e+002 52946 86370,86526,86396
 1.2000e+000 86624 -2.4643e+001 -2.0963e+001  4.9267e+001 52946 86422,86474,86448
 1.2000e+000 86601 -1.9998e+002 -1.0635e+002  1.2126e+002 52946 86396,86474,86422
 1.2000e+000 86578 -5.1841e+002 -2.0905e+002  5.3980e+001 52946 86370,86552,86526
 1.2000e+000 87376 -2.7255e+002 -3.0274e+002  1.1145e+002 52420 87007,87085,87033
 1.2000e+000 87353 -2.8858e+002 -3.1729e+002  1.2098e+002 52420 87007,87163,87085
 1.2000e+000 87330 -3.4577e+002 -3.0233e+002  1.4246e+002 52420 87007,87189,87163
 1.2000e+000 87307 -2.9810e+002 -2.8990e+002  1.3278e+002 52420 87033,87085,87059
 1.2000e+000 87284 -3.3811e+002 -3.0748e+002  4.0157e+001 52420 87085,87137,87111
 1.2000e+000 87261 -2.4756e+002 -3.2708e+002  3.7243e+001 52420 87085,87163,87137
 1.2000e+000 87238 -2.5736e+002 -3.6598e+002  2.9650e+002 52420 86955,87189,87007
 1.2000e+000 87215 -1.6740e+002 -2.4865e+002  1.8398e+002 52420 86955,87007,86981
 1.2000e+000 87624 -2.1731e+002 -2.8508e+002  1.7429e+002 51916 87451,87503,87477
 1.2000e+000 87601 -1.3200e+002 -3.8578e+002  2.0877e+002 51916 87425,87503,87451
 1.2000e+000 87578 -1.1274e+002 -3.7025e+002  2.1738e+002 51916 87425,87529,87503
 1.2000e+000 87555 -3.5099e+001 -9.8301e+001  2.1404e+002 51916 87399,87529,87425
 1.2000e+000 88053 -3.8440e+002 -3.3711e+002  1.1912e+002 51568 87782,87834,87808
 1.2000e+000 88030 -4.5051e+002 -3.1587e+002  1.9937e+002 51568 88076,87782,87886
 1.2000e+000 88007 -4.0595e+002 -2.1353e+002  1.8134e+002 51568 88076,87886,87860
 1.2000e+000 87984 -5.2849e+002 -4.2528e+002  1.6494e+002 51568 87756,87886,87782
 1.2000e+000 87961 -3.8731e+002 -3.3540e+002  3.1574e+002 51568 87756,87912,87886
 1.2000e+000 87938 -4.4199e+002 -2.6921e+002  2.9571e+002 51568 87730,87912,87756
 1.2000e+000 88102 -3.9879e+002 -3.6868e+002  1.3491e+002 51568 87834,87782,88076
 1.2000e+000 88125 -3.6403e+002 -3.0107e+002  1.1894e+002 51568 87834,88076,87860
 1.2000e+000 88324 -2.7637e+002 -4.0453e+002  1.3561e+002 51164 88419,88347,88200
 1.2000e+000 88301 -2.3375e+002 -3.6901e+002  1.9141e+002 51164 88347,88148,88252
 1.2000e+000 88278 -3.3070e+002 -6.0152e+002  1.5307e+002 51164 88419,88200,88174
 1.2000e+000 88373 -2.0707e+002 -3.8693e+002  1.5263e+002 51164 88226,88200,88347
 1.2000e+000 88396 -5.7391e+001 -4.0378e+002  1.4371e+002 51164 88226,88347,88252
 1.2000e+000 88445 -3.4722e+002 -4.4103e+002  2.5093e+002 51164 88148,88347,88419
 1.2000e+000 88468 -3.3824e+002 -4.2700e+002  2.7336e+002 51164 88148,88419,88174
 1.2000e+000 88738 -3.1141e+002 -4.7695e+002  1.1225e+002 50560 88513,88617,88539
 1.2000e+000 88715 -2.2140e+002 -5.1883e+002  7.8308e+001 50560 88513,88643,88617
 1.2000e+000 88692 -1.9958e+002 -2.2556e+002  1.4188e+002 50560 88539,88591,88565
 1.2000e+000 88669 -1.5075e+002 -3.6157e+002  1.6384e+002 50560 88539,88617,88591
 1.2000e+000 88939 -3.6056e+002 -1.8873e+002  1.9014e+002 50106 88962,88789,88763
 1.2000e+000 88916 -2.4405e+002 -2.1182e+002  1.4645e+002 50106 88962,88763,88841
 1.2000e+000 88893 -3.7376e+002 -2.9107e+002  2.3131e+002 50106 88763,88867,88841
 1.2000e+000 88988 -2.4584e+002 -2.3151e+002  1.2439e+002 50106 88815,88789,88962
 1.2000e+000 89011 -2.0175e+002 -1.8971e+002  1.5679e+002 50106 89034,88962,88841
 1.2000e+000 89060 -1.1616e+002 -9.1004e+001  4.0290e+001 50106 88815,88962,89034
 1.2000e+000 89472 -2.5152e+002 -5.0478e+002  1.2125e+002 49666 89273,89351,89325
 1.2000e+000 89449 -3.0621e+002 -3.6780e+002  1.7132e+002 49666 89273,89377,89351
 1.2000e+000 89426 -2.6557e+002 -4.1019e+002  2.9879e+002 49666 89273,89325,89299
 1.2000e+000 89403 -2.8730e+002 -2.5824e+002  1.8335e+002 49666 89247,89377,89273
 1.2000e+000 89978 -1.4824e+002 -4.3968e+002  1.5361e+002 49205 89681,89837,89733
 1.2000e+000 89955 -1.9435e+002 -3.7801e+002  2.2487e+002 49205 89655,89837,89681
 1.2000e+000 89932 -3.9140e+002 -6.3873e+002  1.9087e+002 49205 89785,89837,89811
 1.2000e+000 89909 -1.6209e+002 -1.9021e+002  9.2097e+001 49205 89733,89837,89785
 1.2000e+000 89886 -3.9148e+002 -2.7524e+002  2.3220e+002 49205 89733,89785,89759
 1.2000e+000 89863 -7.7387e+001 -3.4246e+002  1.1549e+002 49205 89681,89733,89707
 1.2000e+000 90177 -2.4400e+002 -2.1498e+002  1.1325e+002 48865 90530,90200,90053
 1.2000e+000 90154 -2.5330e+002 -4.1045e+002  2.0851e+002 48865 90402,90200,90001
 1.2000e+000 90131 -3.4328e+002 -3.8305e+001  1.1505e+002 48865 90530,90053,90027
 1.2000e+000 90226 -2.9558e+002 -2.5646e+002  1.8855e+002 48865 90079,90053,90200
 1.2000e+000 90249 -3.2173e+002 -3.1071e+002  1.3832e+002 48865 90272,90200,90105
 1.2000e+000 90298 -2.0449e+002 -2.1644e+002  1.8011e+002 48865 90079,90200,90272
 1.2000e+000 90428 -2.3261e+002 -1.2222e+002  1.8238e+002 48865 90105,90200,90402
 1.2000e+000 90556 -2.9369e+002 -4.8034e+002  8.5737e+001 48865 90001,90200,90530
 1.2000e+000 90579 -3.4885e+002 -2.1846e+002  3.2348e+001 48865 90001,90530,90027
 1.2000e+000 90827 -3.1964e+002 -3.4730e+002  1.6227e+002 48404 90850,90654,90628
 1.2000e+000 90804 -3.1268e+002 -3.8242e+002  2.6004e+002 48404 90850,90628,90732
 1.2000e+000 90781 -2.1330e+002 -2.7444e+002  1.6305e+002 48404 90680,90732,90706
 1.2000e+000 90758 -4.0888e+002 -2.2465e+002  2.6665e+002 48404 90602,90732,90628
 1.2000e+000 90876 -2.9951e+002 -2.0377e+002  1.4806e+002 48404 90680,90654,90850
 1.2000e+000 90899 -3.0547e+002 -3.1045e+002  2.2546e+002 48404 90680,90850,90732
 1.2000e+000 91000 -1.7916e+002 -4.5294e+002  3.0809e+002 48156 90922,90974,90948
 1.2000e+000 91250 -1.9921e+002 -4.9529e+002  2.8805e+002 47752 91051,91103,91077
 1.2000e+000 91227 -1.4902e+002 -1.1524e+002  1.7972e+002 47752 91025,91103,91051
 1.2000e+000 91204 -5.5476e+002 -3.9246e+002  4.3956e+002 47752 91025,91155,91103
 1.2000e+000 91181 -5.9366e+002 -2.0340e+002  3.1044e+002 47752 91103,91155,91129
 1.2000e+000 91402 -3.1107e+002 -2.9751e+002  1.8814e+002 47191 91425,91301,91275
 1.2000e+000 91379 -2.6299e+002 -2.7807e+002  2.1351e+002 47191 91497,91425,91275
 1.2000e+000 91451 -3.1020e+002 -1.9609e+002  1.3962e+002 47191 91327,91301,91425
 1.2000e+000 91474 -2.9917e+002 -3.2522e+002  2.4639e+002 47191 91327,91425,91353
 1.2000e+000 91523 -3.3884e+002 -5.6903e+002  2.2485e+002 47191 91353,91425,91497
 1.2000e+000 91854 -2.9179e+002 -1.9851e+002  1.6999e+002 46744 91949,91877,91707
 1.2000e+000 91831 -1.8418e+002 -3.4178e+002  1.2918e+002 46744 91877,91655,91629
 1.2000e+000 91808 -3.0711e+002 -1.7370e+002  1.5464e+002 46744 91949,91707,91681
 1.2000e+000 91785 -2.1157e+002 -1.7841e+002 -4.9830e+001 46744 91629,91759,91733
 1.2000e+000 91903 -4.7153e+002 -3.2718e+002  2.4370e+002 46744 91733,91707,91877
 1.2000e+000 91926 -2.5943e+002 -4.1335e+002  1.6579e+002 46744 91733,91877,91629
 1.2000e+000 91975 -2.7485e+002 -3.6383e+002  2.1847e+002 46744 91655,91877,91949
 1.2000e+000 91998 -1.9665e+002 -2.6868e+002  1.7262e+002 46744 91655,91949,91681
 1.2000e+000 92378 -2.1136e+002 -1.1702e+002  1.6487e+002 46090 92130,92208,92182
 1.2000e+000 92355 -2.9716e+002 -1.5465e+002  1.5718e+002 46090 92104,92208,92130
 1.2000e+000 92332 -1.5360e+002 -2.7846e+002  1.5654e+002 46090 92104,92260,92208
 1.2000e+000 92309 -1.3909e+002 -1.9548e+002  1.4544e+002 46090 92208,92260,92234
 1.2000e+000 92286 -4.2698e+002 -1.5822e+002  1.9223e+002 46090 92130,92182,92156
 1.2000e+000 92626 -2.4913e+002 -3.2031e+002  1.2304e+002 45693 92721,92649,92505
 1.2000e+000 92603 -2.8015e+002 -3.2733e+002  2.2902e+002 45693 92649,92453,92427
 1.2000e+000 92580 -2.6347e+002 -2.7743e+002  1.1997e+002 45693 92721,92505,92479
 1.2000e+000 92557 -4.6706e+002 -4.2653e+002  2.8029e+002 45693 92401,92531,92427
 1.2000e+000 92675 -3.7410e+002 -3.0578e+002  1.5810e+002 45693 92531,92505,92649
 1.2000e+000 92698 -4.1623e+002 -3.7930e+002  2.9980e+002 45693 92531,92649,92427
 1.2000e+000 92747 -2.6476e+002 -2.6860e+002  1.2527e+002 45693 92453,92649,92721
 1.2000e+000 92770 -2.0809e+002 -1.2973e+002  1.4779e+002 45693 92453,92721,92479
 1.2000e+000 93172 -1.7068e+002 -2.7402e+002  2.6186e+002 45331 92898,93028,92924
 1.2000e+000 93149 -1.3411e+002 -3.2410e+002  1.7495e+002 45331 92898,93054,93028
 1.2000e+000 93126 -2.4284e+002 -1.2590e+002  2.9628e+002 45331 92924,93002,92976
 1.2000e+000 93103 -9.4199e+001 -2.4487e+002  2.6214e+002 45331 92924,93028,93002
 1.2000e+000 93080 -2.5722e+002 -2.3058e+002  3.0762e+002 45331 92924,92976,92950
 1.2000e+000 93518 -1.7028e+002 -5.6179e+002  1.4495e+002 44820 93613,93273,93247
 1.2000e+000 93495 -4.4514e+002 -4.7912e+002  2.3847e+002 44820 93685,93541,93247
 1.2000e+000 93472 -3.8829e+002 -3.2142e+002  1.9173e+002 44820 93541,93195,93377
 1.2000e+000 93449 -4.9583e+002 -4.2135e+002  1.8308e+002 44820 93685,93247,93221
 1.2000e+000 93426 -3.2968e+002 -3.9024e+002  2.1378e+002 44820 93299,93377,93351
 1.2000e+000 93403 -2.3610e+002 -2.6734e+002  2.5724e+002 44820 93299,93351,93325
 1.2000e+000 93567 -3.4230e+002 -6.1974e+002  1.9049e+002 44820 93613,93247,93541
 1.2000e+000 93590 -3.5908e+002 -4.5447e+002  1.3922e+002 44820 93299,93541,93377
 1.2000e+000 93639 -3.5113e+002 -5.7863e+002  1.7068e+002 44820 93299,93273,93613
 1.2000e+000 93662 -3.4278e+002 -5.7758e+002  1.7458e+002 44820 93299,93613,93541
 1.2000e+000 93711 -3.9226e+002 -3.7410e+002  1.7729e+002 44820 93195,93541,93685
 1.2000e+000 93734 -3.6559e+002 -2.0018e+002  1.1246e+002 44820 93195,93685,93221
 1.2000e+000 94163 -3.7033e+002 -4.4553e+002  1.7110e+002 44237 94258,94186,93996
 1.2000e+000 94140 -4.4542e+002 -4.9372e+002  1.1217e+002 44237 94330,94022,93996
 1.2000e+000 94117 -4.5935e+002 -4.9012e+002  1.2777e+002 44237 94186,93918,93866
 1.2000e+000 94094 -3.1810e+002 -3.5249e+002  1.9541e+002 44237 94258,93996,93970
 1.2000e+000 94071 -3.9895e+002 -2.8772e+002  1.6843e+002 44237 94402,93944,93918
 1.2000e+000 94048 -2.9760e+002 -5.0392e+002  1.8814e+002 44237 93866,93918,93892
 1.2000e+000 94212 -4.4501e+002 -4.9972e+002  1.4709e+002 44237 94330,93996,94186
 1.2000e+000 94235 -4.4939e+002 -4.2925e+002  1.6511e+002 44237 93840,94186,93866
 1.2000e+000 94284 -4.0199e+002 -3.5975e+002  1.1902e+002 44237 93918,94186,94258
 1.2000e+000 94307 -3.7096e+002 -3.0113e+002  1.3662e+002 44237 94402,93918,94258
 1.2000e+000 94356 -4.1227e+002 -1.7385e+002  4.1369e-001 44237 93840,94022,94330
 1.2000e+000 94379 -4.1960e+002 -4.3610e+002  1.5372e+002 44237 93840,94330,94186
 1.2000e+000 94428 -4.5407e+002 -3.4700e+002  1.9134e+002 44237 93970,93944,94402
 1.2000e+000 94451 -4.1139e+002 -3.5308e+002  1.5556e+002 44237 93970,94402,94258
 1.2000e+000 94908 -1.5573e+002 -3.8497e+002  7.1392e+001 43890 94660,94790,94712
 1.2000e+000 94885 -6.0301e+001 -1.7098e+002  1.4252e+002 43890 94634,94790,94660
 1.2000e+000 94862 -2.7463e+002 -1.5965e+002  1.2545e+002 43890 94712,94764,94738
 1.2000e+000 94839 -1.1744e+002 -3.4984e+002  1.3920e+002 43890 94712,94790,94764
 1.2000e+000 94816 -1.7095e+002 -2.0105e+002 -8.9798e+001 43890 94660,94712,94686
 1.2000e+000 95414 -2.7880e+002 -2.1963e+002  1.2630e+002 43186 95437,95143,95117
 1.2000e+000 95391 -3.0215e+002 -4.0153e+002  1.6229e+002 43186 95437,95117,95091
 1.2000e+000 95368 -1.3294e+002 -1.6159e+002  1.3909e+002 43186 95143,95221,95195
 1.2000e+000 95345 -4.7210e+002 -3.6692e+002  3.6988e+002 43186 95091,95273,95221
 1.2000e+000 95322 -2.9660e+002 -2.1698e+002  1.7565e+002 43186 95221,95273,95247
 1.2000e+000 95299 -2.1810e+002 -3.2287e+002  1.0751e+002 43186 95143,95195,95169
 1.2000e+000 95463 -2.8324e+002 -3.4338e+002  2.1242e+002 43186 95221,95143,95437
 1.2000e+000 95486 -2.8633e+002 -4.8771e+002  2.5321e+002 43186 95221,95437,95091
 1.2000e+000 96041 -4.3503e+002 -4.3558e+002  1.1228e+002 42782 95695,95851,95799
 1.2000e+000 96018 -4.0462e+002 -5.0495e+002  1.1443e+002 42782 95669,95851,95695
 1.2000e+000 95995 -4.2194e+002 -2.8367e+002  1.3163e+002 42782 95695,95747,95721
 1.2000e+000 95972 -3.2472e+002 -3.8871e+002  1.1598e+002 42782 95695,95799,95747
 1.2000e+000 95949 -2.9315e+002 -2.6652e+002  8.6365e+001 42782 95747,95799,95773
 1.2000e+000 95926 -5.3476e+002 -5.3544e+002  1.7788e+002 42782 95799,95851,95825
 1.2000e+000 95903 -5.5404e+002 -5.7921e+002  1.4062e+002 42782 95669,95877,95851
 1.2000e+000 96370 -4.3935e+002 -5.8042e+002  2.5351e+002 42420 96197,96275,96223
 1.2000e+000 96347 -4.0798e+002 -4.9682e+002  2.5549e+002 42420 96145,96275,96197
 1.2000e+000 96324 -4.1112e+002 -3.6563e+002  2.5308e+002 42420 96145,96197,96171
 1.2000e+000 96301 -3.2119e+002 -4.2785e+002  1.7833e+002 42420 96223,96275,96249
 1.2000e+000 96699 -2.5422e+002 -4.0744e+002  7.8953e+001 41816 96474,96578,96526
 1.2000e+000 96676 -4.5268e+002 -3.3124e+002 -7.2600e+001 41816 96474,96604,96578
 1.2000e+000 96653 -2.2138e+002 -1.7486e+002  1.6618e+002 41816 96526,96578,96552
 1.2000e+000 96630 -2.2184e+002 -3.2102e+002  8.1769e+001 41816 96474,96526,96500
 1.2000e+000 96947 -1.9965e+002 -4.7547e+002  1.6235e+002 41212 96722,96800,96748
 1.2000e+000 96924 -2.7664e+002 -3.6417e+002  2.0056e+002 41212 96722,96826,96800
 1.2000e+000 96901 -3.2552e+002 -3.4824e+002  1.6404e+002 41212 96722,96852,96826
 1.2000e+000 96878 -2.7441e+002 -5.2000e+002  1.0800e+002 41212 96748,96800,96774
 1.2000e+000 97097 -2.1481e+002 -1.3197e+002  1.9991e+002 40793 97120,97022,96996
 1.2000e+000 97074 -3.8451e+002 -4.7687e+002  1.3179e+002 40793 97192,97120,96996
 1.2000e+000 97146 -1.6663e+002 -4.0100e+002  1.8238e+002 40793 97324,97120,97048
 1.2000e+000 97169 -1.4326e+002 -6.1619e+002  1.7895e+002 40793 97048,97120,96970
 1.2000e+000 97218 -5.7432e+001 -3.3678e+002  1.3038e+002 40793 96970,97120,97192
 1.2000e+000 97350 -1.6663e+002 -4.0100e+002  1.8238e+002 40793 97022,97120,97324
 1.2000e+000 97878 -2.4140e+002 -4.9667e+002  1.0982e+002 40446 97901,97607,97555
 1.2000e+000 97855 -2.5523e+002 -3.5760e+002  1.2037e+002 40446 97973,97901,97555
 1.2000e+000 97832 -2.0525e+002 -3.1002e+002  9.3648e+001 40446 97973,97555,97737
 1.2000e+000 97809 -3.6305e+002 -4.9315e+002  1.5411e+002 40446 97633,97685,97659
 1.2000e+000 97786 -2.7240e+002 -4.0535e+002  1.1083e+002 40446 97633,97711,97685
 1.2000e+000 97763 -2.4208e+002 -5.8748e+002  1.3311e+002 40446 97555,97607,97581
 1.2000e+000 97927 -2.9280e+002 -6.2132e+002 -1.0416e+001 40446 97633,97607,97901
 1.2000e+000 97950 -2.5277e+002 -4.7351e+002  9.2199e+001 40446 97633,97901,97711
 1.2000e+000 97999 -1.7839e+002 -4.6339e+002  1.4797e+002 40446 97711,97901,97973
 1.2000e+000 98022 -1.3186e+002 -3.9996e+002  1.2493e+002 40446 97711,97973,97737
 1.2000e+000 98449 -1.8526e+002 -1.5080e+002  1.2718e+002 39935 98152,98204,98178
 1.2000e+000 98426 -2.8123e+002 -2.1567e+002  8.3693e+001 39935 98152,98230,98204
 1.2000e+000 98403 -3.8601e+002 -2.2656e+002  1.8432e+002 39935 98152,98256,98230
 1.2000e+000 98380 -2.7117e+002 -2.9059e+002  2.0377e+002 39935 98126,98256,98152
 1.2000e+000 98357 -3.7851e+002 -5.4551e+002  2.2470e+002 39935 98126,98282,98256
 1.2000e+000 98334 -2.2693e+002 -7.1319e+002  2.8044e+002 39935 98126,98308,98282
 1.2000e+000 98746 -6.7024e+002 -4.8143e+002  1.5548e+002 39531 98498,98602,98524
 1.2000e+000 98723 -4.6815e+002 -4.3840e+002  1.4981e+002 39531 98472,98602,98498
 1.2000e+000 98700 -6.4743e+002 -3.3568e+002  1.3816e+002 39531 98524,98602,98576
 1.2000e+000 98677 -3.5205e+002 -4.4846e+002  1.6238e+002 39531 98472,98628,98602
 1.2000e+000 98654 -1.3296e+003 -4.1590e+002  1.8126e+002 39531 98524,98576,98550
 1.2000e+000 99224 -4.6273e+002 -2.6400e+002  4.0564e+002 39027 99247,98956,98930
 1.2000e+000 99201 -4.6909e+002 -3.7746e+002  2.0049e+002 39027 99247,98930,98878
 1.2000e+000 99178 -3.7522e+002 -4.2590e+002  3.1019e+002 39027 99319,98982,98956
 1.2000e+000 99155 -2.0561e+002 -2.7349e+002  2.0346e+002 39027 98852,99060,98878
 1.2000e+000 99132 -5.2819e+002 -2.6034e+002  1.4370e+002 39027 98878,98930,98904
 1.2000e+000 99109 -4.3793e+002 -7.4595e+002  3.8942e+002 39027 98982,99060,99034
 1.2000e+000 99086 -6.6404e+002 -1.1374e+003  6.7946e+002 39027 98982,99034,99008
 1.2000e+000 99273 -3.5093e+002 -3.5203e+002  3.0034e+002 39027 99319,98956,99247
 1.2000e+000 99296 -3.3506e+002 -3.2387e+002  1.6983e+002 39027 99060,99247,98878
 1.2000e+000 99345 -3.4093e+002 -4.5520e+002  2.6075e+002 39027 99060,98982,99319
 1.2000e+000 99368 -3.2719e+002 -4.3390e+002  2.5224e+002 39027 99060,99319,99247
 1.2000e+000 99923 -4.7765e+002 -3.8740e+002  1.9851e+002 38523 99946,99655,99603
 1.2000e+000 99900 -3.8148e+002 -3.4441e+002  2.0670e+002 38523 99946,99603,99759
 1.2000e+000 99877 -2.4784e+002 -4.9031e+002  2.5807e+002 38523 100018,99707,99681
 1.2000e+000 99854 -3.9966e+002 -2.4029e+002  1.9823e+002 38523 99551,99759,99603
 1.2000e+000 99831 -3.8578e+002 -2.3755e+002  1.8289e+002 38523 99551,99603,99577
 1.2000e+000 99808 -4.2416e+002 -6.1524e+002  1.7714e+002 38523 99707,99759,99733
 1.2000e+000 99785 -3.6470e+002 -3.3450e+002  1.6893e+002 38523 99603,99655,99629
 1.2000e+000 99972 -3.8828e+002 -2.1031e+002  2.3976e+002 38523 99681,99655,99946
 1.2000e+000 99995 -2.9343e+002 -2.8003e+002  3.0006e+002 38523 100018,99681,99946
 1.2000e+000 100044 -3.2654e+002 -5.7710e+002  1.6359e+002 38523 99759,99707,100018
 1.2000e+000 100067 -4.4399e+002 -4.9389e+002  2.0757e+002 38523 99759,100018,99946
 1.2000e+000 100467 -1.7254e+002 -2.7775e+002  1.2635e+002 38125 100219,100349,100323
 1.2000e+000 100444 -4.4657e+001 -1.1659e+002  1.8708e+002 38125 100193,100349,100219
 1.2000e+000 100421 -1.1524e+002 -3.4223e+002  1.3165e+002 38125 100245,100323,100297
 1.2000e+000 100398 -1.0170e+002 -2.4489e+002  1.4467e+002 38125 100219,100323,100245
 1.2000e+000 100375 -1.7485e+002 -3.3096e+002  2.1269e+002 38125 100245,100297,100271
 1.2000e+000 100666 -3.8742e+002 -5.2648e+002  1.5394e+002 37607 100689,100568,100542
 1.2000e+000 100643 -3.2735e+002 -3.5853e+002  1.4659e+002 37607 100689,100542,100490
 1.2000e+000 100620 -3.2887e+002 -2.4090e+002  1.5483e+002 37607 100490,100542,100516
 1.2000e+000 100715 -3.4341e+002 -3.6212e+002  1.2552e+002 37607 100594,100568,100689
 1.2000e+000 100738 -3.6812e+002 -3.1497e+002  1.2921e+002 37607 100594,100689,100490
 1.2000e+000 100937 -3.2658e+002 -1.8129e+002  2.8860e+002 37017 100960,100813,100787
 1.2000e+000 100914 -2.8998e+002 -2.0335e+002  1.7565e+002 37017 100960,100787,100761
 1.2000e+000 100891 -4.6113e+002 -1.7005e+002  2.8960e+002 37017 100813,100865,100839
 1.2000e+000 100986 -4.0231e+002 -3.0846e+002  3.2480e+002 37017 100865,100813,100960
 1.2000e+000 101009 -3.3117e+002 -2.9044e+002  2.0260e+002 37017 100865,100960,100761
 1.2000e+000 101519 -5.4837e+002 -3.2515e+002  1.5382e+002 36613 101222,101274,101248
 1.2000e+000 101496 -2.5101e+002 -2.3476e+002  1.4501e+002 36613 101222,101352,101274
 1.2000e+000 101473 -1.7655e+002 -3.9252e+002  8.6608e+000 36613 101274,101352,101326
 1.2000e+000 101450 -3.4553e+002 -2.4210e+002  1.4237e+002 36613 101222,101378,101352
 1.2000e+000 101427 -1.9282e+002 -6.7117e+002  2.0246e+001 36613 101274,101326,101300
 1.2000e+000 101404 -3.4129e+002 -2.2216e+002  1.2944e+002 36613 101196,101378,101222
 1.2000e+000 101718 -3.2570e+002 -2.0519e+002  2.7411e+002 36308 101594,101646,101620
 1.2000e+000 101695 -3.3188e+002 -1.6238e+002  2.2471e+002 36308 101568,101646,101594
 1.2000e+000 101672 -2.4658e+002 -2.2618e+002  2.3255e+002 36308 101542,101646,101568
 1.2000e+000 102098 -3.6832e+002 -2.6486e+002  1.7078e+002 35918 102121,101954,101876
 1.2000e+000 102075 -3.0060e+002 -3.2929e+002  1.4134e+002 35918 102121,101876,101824
 1.2000e+000 102052 -3.7538e+002 -2.6942e+002  1.4298e+002 35918 101876,101954,101928
 1.2000e+000 102029 -5.1950e+002 -1.1283e+002  1.6222e+002 35918 101876,101928,101902
 1.2000e+000 102006 -2.6527e+002 -2.3360e+002  1.1433e+002 35918 101824,101876,101850
 1.2000e+000 102147 -3.9723e+002 -3.2488e+002  1.9996e+002 35918 101980,101954,102121
 1.2000e+000 102170 -3.2807e+002 -3.9355e+002  1.6454e+002 35918 101980,102121,101824
 1.2000e+000 102489 -3.5028e+002 -7.9883e+002  2.6446e+002 35514 102241,102345,102267
 1.2000e+000 102466 -4.5957e+002 -8.2425e+002  2.5822e+002 35514 102215,102345,102241
 1.2000e+000 102443 -3.7046e+002 -8.9194e+002  2.7131e+002 35514 102215,102371,102345
 1.2000e+000 102420 -3.0132e+002 -7.1732e+002  2.8983e+002 35514 102267,102345,102293
 1.2000e+000 102397 -1.8961e+002 -4.8102e+002  3.2344e+002 35514 102293,102345,102319
 1.2000e+000 102820 -4.0510e+002 -3.3291e+002  9.4451e+001 35224 102843,102699,102647
 1.2000e+000 102797 -4.7075e+002 -3.7925e+002  1.8764e+002 35224 102971,102725,102699
 1.2000e+000 102774 -5.5506e+002 -4.5598e+002  3.0747e+002 35224 102595,102725,102621
 1.2000e+000 102751 -1.5331e+002 -1.8174e+002  1.7183e+002 35224 102647,102699,102673
 1.2000e+000 102869 -4.0122e+002 -3.3122e+002  1.6627e+002 35224 102971,102699,102843
 1.2000e+000 102997 -3.7139e+002 -4.3585e+002  1.8203e+002 35224 102621,102725,102971
 1.2000e+000 103020 -3.0035e+002 -3.9427e+002  1.6496e+002 35224 102621,102971,102843
 1.2000e+000 103349 -4.7235e+002 -3.6477e+002  2.2187e+002 34820 103150,103228,103176
 1.2000e+000 103326 -4.1933e+002 -3.9369e+002  2.1824e+002 34820 103124,103228,103150
 1.2000e+000 103303 -3.7858e+002 -3.8097e+002  3.7333e+002 34820 103176,103228,103202
 1.2000e+000 103280 -2.6680e+002 -3.2561e+002  2.5046e+002 34820 103124,103254,103228
 1.2000e+000 103806 -4.5375e+002 -3.0046e+002  1.7639e+002 34530 103558,103662,103636
 1.2000e+000 103783 -3.9318e+002 -3.2106e+002  1.1811e+002 34530 103558,103688,103662
 1.2000e+000 103760 -4.4162e+002 -4.5492e+002  1.2131e+002 34530 103532,103688,103558
 1.2000e+000 103737 -2.9747e+002 -4.1292e+002  1.6766e+002 34530 103584,103636,103610
 1.2000e+000 103714 -7.0345e+002 -3.8571e+002  2.0657e+002 34530 103558,103636,103584
 1.2000e+000 104263 -2.3271e+002 -2.6447e+002  1.8020e+002 34019 103989,104119,104015
 1.2000e+000 104240 -1.9142e+002 -2.4332e+002  1.9345e+002 34019 103989,104145,104119
 1.2000e+000 104217 -2.2425e+002 -3.1472e+002  1.1284e+002 34019 104015,104067,104041
 1.2000e+000 104194 -2.7764e+002 -3.4499e+002  1.5606e+002 34019 104015,104119,104067
 1.2000e+000 104171 -2.7131e+002 -2.1860e+002  1.4447e+002 34019 104067,104119,104093
 1.2000e+000 104641 -3.7459e+002 -2.2520e+002  1.5229e+002 33351 104419,104497,104445
 1.2000e+000 104618 -3.0687e+002 -1.5882e+002  1.8746e+002 33351 104393,104497,104419
 1.2000e+000 104595 -5.5386e+002 -2.7419e+002  1.3611e+002 33351 104367,104497,104393
 1.2000e+000 104572 -3.9491e+002 -2.7193e+002  1.5292e+002 33351 104445,104497,104471
 1.2000e+000 104549 -4.3397e+002 -1.9435e+002  6.6088e+001 33351 104367,104523,104497
 1.2000e+000 105019 -3.3304e+002 -6.5120e+002  3.3279e+002 32861 104823,104901,104875
 1.2000e+000 104996 -4.4633e+002 -7.2804e+002  2.7990e+002 32861 104745,104901,104823
 1.2000e+000 104973 -4.9353e+002 -7.2134e+002  3.1211e+002 32861 104823,104875,104849
 1.2000e+000 104950 -4.4635e+002 -7.0388e+002  3.5886e+002 32861 104745,104823,104797
 1.2000e+000 104927 -4.9805e+002 -2.7467e+002  3.6985e+002 32861 104745,104797,104771
 1.2000e+000 105397 -2.3926e+002 -4.5088e+002  2.0930e+002 32457 105149,105253,105175
 1.2000e+000 105374 -3.5517e+002 -3.8877e+002  1.7567e+002 32457 105149,105279,105253
 1.2000e+000 105351 -2.2855e+002 -3.3148e+002  1.9659e+002 32457 105123,105279,105149
 1.2000e+000 105328 -3.5191e+002 -9.0631e+001  2.6097e+002 32457 105175,105227,105201
 1.2000e+000 105305 -4.6132e+002 -5.4624e+002  2.0530e+002 32457 105175,105253,105227
 1.2000e+000 105726 -1.6814e+002 -4.7069e+002  2.0989e+002 32003 105527,105605,105553
 1.2000e+000 105703 -2.6954e+002 -4.0168e+002  1.9779e+002 32003 105501,105605,105527
 1.2000e+000 105680 -1.3819e+002 -3.4742e+002  1.9307e+002 32003 105501,105631,105605
 1.2000e+000 105657 -1.0054e+002 -2.7944e+002  2.0352e+002 32003 105553,105605,105579
 1.2000e+000 106104 -3.8395e+002 -3.2731e+002  1.8077e+002 31492 106127,105908,105856
 1.2000e+000 106081 -3.5789e+002 -3.0358e+002  1.0188e+002 31492 106127,105856,105830
 1.2000e+000 106058 -2.8702e+002 -5.3802e+002  2.1780e+002 31492 105856,105908,105882
 1.2000e+000 106035 -1.2899e+002 -2.9837e+002  7.2391e+001 31492 105830,105986,105960
 1.2000e+000 106012 -2.0111e+002 -4.6647e+002  2.6872e+002 31492 105908,105960,105934
 1.2000e+000 106153 -4.0404e+002 -3.8245e+002  1.7926e+002 31492 105960,105908,106127
 1.2000e+000 106176 -3.9982e+002 -4.1239e+002  1.0982e+002 31492 105960,106127,105830
 1.2000e+000 106375 -3.6089e+002 -3.5663e+002  2.4922e+002 30788 106398,106277,106251
 1.2000e+000 106352 -4.0172e+002 -4.9434e+002  2.4585e+002 30788 106398,106251,106225
 1.2000e+000 106329 -5.2555e+002 -4.0487e+002  3.4271e+002 30788 106600,106199,106303
 1.2000e+000 106424 -5.1372e+002 -5.6206e+002  1.8192e+002 30788 106470,106398,106303
 1.2000e+000 106447 -3.8980e+002 -4.6419e+002  2.4733e+002 30788 106600,106303,106398
 1.2000e+000 106496 -1.4766e+002 -4.0573e+002  2.0633e+002 30788 106277,106398,106470
 1.2000e+000 106626 -6.1071e+002 -5.2362e+002  4.0701e+002 30788 106225,106199,106600
 1.2000e+000 106649 -5.1516e+002 -5.8761e+002  3.1120e+002 30788 106225,106600,106398
 1.2000e+000 106799 -1.7533e+002 -6.3361e+002  4.3933e+001 30426 106698,106750,106724
 1.2000e+000 106776 -1.2457e+002 -2.9310e+002  8.3044e+001 30426 106672,106750,106698
 1.2000e+000 107356 -4.0354e+002 -3.1629e+002  1.7072e+002 29972 107010,107166,107114
 1.2000e+000 107333 -3.9265e+002 -3.0500e+002  1.7993e+002 29972 106984,107166,107010
 1.2000e+000 107310 -4.1256e+002 -1.7066e+002  1.0748e+002 29972 107010,107114,107088
 1.2000e+000 107287 -3.8551e+002 -1.7227e+002  1.3007e+002 29972 107114,107166,107140
 1.2000e+000 107264 -3.9140e+002 -3.4081e+002  2.0111e+002 29972 106984,107192,107166
 1.2000e+000 107241 -4.8400e+002 -3.2458e+002  1.2858e+002 29972 107010,107088,107036
 1.2000e+000 107218 -3.7084e+002 -2.7206e+002  1.0367e+002 29972 107036,107088,107062
 1.2000e+000 107783 -4.2395e+002 -5.5366e+002  2.7726e+002 29724 107878,107806,107590
 1.2000e+000 107760 -5.7535e+002 -6.0692e+002  2.4532e+002 29724 107806,107512,107486
 1.2000e+000 107737 -4.2710e+002 -5.3387e+002  3.0075e+002 29724 107878,107590,107538
 1.2000e+000 107714 -4.3707e+002 -6.3612e+002  3.1906e+002 29724 107950,107460,107616
 1.2000e+000 107691 -4.1883e+002 -6.2122e+002  2.9551e+002 29724 107460,107642,107616
 1.2000e+000 107668 -2.9948e+002 -4.0873e+002  3.5171e+002 29724 107538,107590,107564
 1.2000e+000 107832 -3.1050e+002 -5.6279e+002  3.4331e+002 29724 107616,107590,107806
 1.2000e+000 107855 -4.3898e+002 -6.4144e+002  3.0480e+002 29724 107950,107616,107806
 1.2000e+000 107904 -4.2914e+002 -5.1661e+002  3.0515e+002 29724 107512,107806,107878
 1.2000e+000 107927 -3.8122e+002 -4.6664e+002  3.3901e+002 29724 107512,107878,107538
 1.2000e+000 107976 -2.9487e+002 -6.5699e+002  3.5971e+002 29724 107486,107460,107950
 1.2000e+000 107999 -4.2343e+002 -6.8859e+002  2.9854e+002 29724 107486,107950,107806
 1.2000e+000 108296 -4.4119e+002 -3.7466e+002  2.2835e+002 29206 108319,108100,108048
 1.2000e+000 108273 -2.5696e+002 -3.3862e+002  2.8145e+002 29206 108319,108048,108022
 1.2000e+000 108250 -1.5189e+002 -3.9704e+002  3.4064e+002 29206 108391,108152,108126
 1.2000e+000 108227 -5.5125e+002 -2.6254e+002  2.9884e+002 29206 108048,108100,108074
 1.2000e+000 108204 -2.1093e+002 -5.2807e+002  2.9681e+002 29206 108022,108178,108152
 1.2000e+000 108345 -3.2581e+002 -2.2298e+002  3.2941e+002 29206 108126,108100,108319
 1.2000e+000 108368 -1.9377e+002 -3.2711e+002  3.7837e+002 29206 108391,108126,108319
 1.2000e+000 108417 -2.5491e+002 -4.8071e+002  2.9505e+002 29206 108022,108152,108391
 1.2000e+000 108440 -2.8772e+002 -4.2781e+002  3.3528e+002 29206 108022,108391,108319
 1.2000e+000 108688 -5.3472e+002 -5.4719e+002  3.0094e+002 28595 108711,108541,108515
 1.2000e+000 108665 -7.4234e+002 -5.8836e+002  4.2954e+002 28595 108783,108711,108515
 1.2000e+000 108642 -8.8030e+002 -5.2209e+002  4.2827e+002 28595 108783,108515,108489
 1.2000e+000 108619 -8.7786e+002 -6.6152e+002  2.2279e+002 28595 108463,108593,108489
 1.2000e+000 108737 -4.8177e+002 -4.2281e+002  2.0738e+002 28595 108567,108541,108711
 1.2000e+000 108760 -4.3189e+002 -4.7828e+002  3.7544e+002 28595 108567,108711,108593
 1.2000e+000 108809 -5.0887e+002 -6.0223e+002  3.3395e+002 28595 108593,108711,108783
 1.2000e+000 108832 -7.2182e+002 -5.8008e+002  2.9624e+002 28595 108593,108783,108489
 1.2000e+000 109033 -2.1275e+002 -2.8364e+002  1.5301e+002 28091 108909,108961,108935
 1.2000e+000 109010 -3.1265e+002 -2.7580e+002  1.2965e+002 28091 108857,108961,108909
 1.2000e+000 108987 -4.6586e+002 -4.0618e+002  3.1145e+002 28091 108857,108909,108883
 1.2000e+000 109136 -3.5581e+002 -8.3896e+002  1.5329e+002 27587 109058,109110,109084
 1.2000e+000 109695 -3.1733e+002 -3.6728e+002  1.2858e+002 26969 109718,109375,109323
 1.2000e+000 109672 -3.1627e+002 -3.5325e+002  1.3854e+002 26969 109718,109323,109505
 1.2000e+000 109649 -3.8705e+002 -1.4187e+002  8.2194e+001 26969 109790,109453,109427
 1.2000e+000 109626 -1.5741e+002 -3.3690e+002  1.6898e+002 26969 109323,109375,109349
 1.2000e+000 109603 -4.0393e+002 -4.6830e+002  2.0062e+002 26969 109323,109531,109505
 1.2000e+000 109580 -2.5049e+002 -4.3113e+002  9.3847e+001 26969 109375,109427,109401
 1.2000e+000 109557 -4.2341e+002 -1.9669e+002  9.9964e+001 26969 109453,109505,109479
 1.2000e+000 109744 -3.3743e+002 -3.9865e+002  7.3843e+001 26969 109427,109375,109718
 1.2000e+000 109767 -2.7076e+002 -2.4044e+002  7.7597e+001 26969 109790,109427,109718
 1.2000e+000 109816 -4.4626e+002 -2.4419e+002  1.2666e+002 26969 109505,109453,109790
 1.2000e+000 109839 -3.6778e+002 -3.6967e+002  1.3850e+002 26969 109505,109790,109718
 1.2000e+000 110266 -3.1329e+002 -4.5958e+002  1.7751e+002 26515 110361,110289,110099
 1.2000e+000 110243 -2.8733e+002 -3.6418e+002  2.4274e+002 26515 110289,109995,109943
 1.2000e+000 110220 -3.2832e+002 -4.7036e+002  1.9334e+002 26515 110361,110099,110021
 1.2000e+000 110197 -2.9041e+002 -7.4429e+002  9.6297e+001 26515 110047,110099,110073
 1.2000e+000 110174 -3.1807e+002 -7.8596e+002  3.0562e+001 26515 110021,110099,110047
 1.2000e+000 110151  3.1300e+001  1.8600e+001  3.9001e+002 26515 109943,109995,109969
 1.2000e+000 110315 -5.1717e+002 -3.3608e+002  1.5100e+002 26515 110125,110099,110289
 1.2000e+000 110338 -3.2561e+002 -1.1730e+002  3.0964e+002 26515 110125,110289,109943
 1.2000e+000 110387 -3.2096e+002 -4.1384e+002  1.5141e+002 26515 109995,110289,110361
 1.2000e+000 110410 -3.3968e+002 -4.3873e+002  1.6646e+002 26515 109995,110361,110021
 1.2000e+000 110609 -1.5152e+002 -5.0910e+002  1.9594e+002 25789 110906,110762,110632
 1.2000e+000 110586 -1.5900e+002 -6.3022e+002  2.2352e+002 25789 110762,110433,110537
 1.2000e+000 110563 -3.6445e+002 -5.5815e+002  3.1692e+002 25789 110834,110459,110433
 1.2000e+000 110658 -2.2342e+002 -4.9281e+002  2.4791e+002 25789 110906,110632,110834
 1.2000e+000 110788 -1.0915e+002 -3.3374e+002  1.2980e+002 25789 110511,110632,110762
 1.2000e+000 110811 -1.4687e+002 -5.0542e+002  2.2597e+002 25789 110511,110762,110537
 1.2000e+000 110860 -2.4887e+002 -4.9553e+002  2.8537e+002 25789 110485,110459,110834
 1.2000e+000 110883 -2.8797e+002 -5.1029e+002  2.5661e+002 25789 110485,110834,110632
 1.2000e+000 110932 -2.9832e+002 -5.5421e+002  2.0697e+002 25789 110433,110762,110906
 1.2000e+000 110955 -3.5497e+002 -5.1975e+002  2.4813e+002 25789 110433,110906,110834
 1.2000e+000 111350 -3.8465e+002 -4.6214e+002  2.9796e+002 25228 111445,111373,111186
 1.2000e+000 111327 -4.2344e+002 -5.0551e+002  1.3741e+002 25228 110978,111186,111004
 1.2000e+000 111304 -4.1981e+002 -5.8125e+002  2.5071e+002 25228 111373,111108,111082
 1.2000e+000 111281 -3.4748e+002 -6.1928e+002  2.5223e+002 25228 111134,111186,111160
 1.2000e+000 111258 -3.7293e+002 -4.3720e+002  3.0127e+002 25228 111445,111186,111134
 1.2000e+000 111235 -3.5832e+002 -3.9243e+002  1.7235e+002 25228 111517,111030,111004
 1.2000e+000 111212 -5.3325e+002 -4.7786e+002  2.5960e+002 25228 111030,111082,111056
 1.2000e+000 111399 -3.9811e+002 -5.3083e+002  2.8366e+002 25228 111004,111186,111373
 1.2000e+000 111422 -3.1416e+002 -4.3915e+002  2.3337e+002 25228 111517,111004,111373
 1.2000e+000 111471 -4.0173e+002 -4.5390e+002  2.5784e+002 25228 111108,111373,111445
 1.2000e+000 111494 -3.8696e+002 -4.2241e+002  2.6191e+002 25228 111108,111445,111134
 1.2000e+000 111543 -4.5567e+002 -4.2909e+002  2.1516e+002 25228 111082,111030,111517
 1.2000e+000 111566 -4.1256e+002 -4.9048e+002  2.7787e+002 25228 111082,111517,111373
 1.2000e+000 112074 -3.3436e+002 -3.6933e+002  2.5757e+002 24338 112097,111907,111881
 1.2000e+000 112051 -4.4990e+002 -3.7152e+002  1.8632e+002 24338 112097,111881,111829
 1.2000e+000 112028 -2.3094e+002 -4.2401e+002  1.4522e+002 24338 111829,111881,111855
 1.2000e+000 112005 -5.6510e+002 -5.6650e+002  1.7243e+002 24338 111777,111933,111829
 1.2000e+000 111982 -6.6744e+002 -1.7030e+002  2.0655e+002 24338 111751,111933,111777
 1.2000e+000 111959 -5.7668e+002 -6.4790e+002  2.1773e+002 24338 111777,111829,111803
 1.2000e+000 112123 -4.4379e+002 -5.3987e+002  2.0085e+002 24338 111933,111907,112097
 1.2000e+000 112146 -4.9153e+002 -3.9787e+002  1.6314e+002 24338 111933,112097,111829
 1.2000e+000 112443 -5.5006e+002 -3.7041e+002  2.4032e+002 23998 112466,112299,112247
 1.2000e+000 112420 -5.8743e+002 -6.3678e+002  2.1125e+002 23998 112466,112247,112221
 1.2000e+000 112397 -5.5427e+002 -6.4314e+002  3.2769e+002 23998 112169,112325,112221
 1.2000e+000 112374 -5.2903e+002 -5.7045e+002  3.3186e+002 23998 112169,112221,112195
 1.2000e+000 112351 -1.9944e+002 -3.3317e+002  2.8892e+002 23998 112247,112299,112273
 1.2000e+000 112492 -5.1175e+002 -4.0781e+002  3.9746e+002 23998 112325,112299,112466
 1.2000e+000 112515 -5.6593e+002 -5.6013e+002  3.3789e+002 23998 112325,112466,112221
 1.2000e+000 113200 -5.1411e+002 -5.9595e+002  3.9745e+002 23480 112779,112961,112805
 1.2000e+000 113177 -5.3607e+002 -4.4076e+002  1.9562e+002 23480 112779,112987,112961
 1.2000e+000 113154 -1.8434e+002 -3.3864e+002  2.6676e+002 23480 112805,112961,112883
 1.2000e+000 113131 -3.3948e+002 -5.3706e+002  2.7703e+002 23480 112883,112935,112909
 1.2000e+000 113108 -4.3127e+002 -4.4173e+002  2.8175e+002 23480 112883,112961,112935
 1.2000e+000 113085 -2.2955e+002 -2.8251e+002  1.4118e+002 23480 112831,112883,112857
 1.2000e+000 113062 -3.0572e+002 -3.4368e+002  1.7387e+002 23480 112805,112883,112831
 1.2000e+000 113039 -6.2857e+002 -3.4565e+002  2.1748e+002 23480 112779,113013,112987
 1.2000e+000 113676 -4.6121e+002 -2.7580e+002  3.4948e+002 23018 113699,113434,113356
 1.2000e+000 113653 -4.2724e+002 -2.7537e+002  2.1798e+002 23018 113771,113699,113356
 1.2000e+000 113630 -3.9400e+002 -3.9596e+002  1.6501e+002 23018 113771,113356,113512
 1.2000e+000 113607 -3.0477e+002 -5.1586e+002  2.4256e+002 23018 113330,113512,113356
 1.2000e+000 113584 -9.6862e+002 -4.6326e+002  5.3493e+002 23018 113356,113434,113382
 1.2000e+000 113561 -1.1337e+002 -4.8810e+002  2.3405e+002 23018 113304,113512,113330
 1.2000e+000 113538 -9.0963e+002 -1.0484e+002  2.4269e+002 23018 113382,113434,113408
 1.2000e+000 113725 -5.1292e+002 -3.9461e+002  3.4353e+002 23018 113460,113434,113699
 1.2000e+000 113748 -5.3553e+002 -4.1512e+002  2.4782e+002 23018 113460,113699,113486
 1.2000e+000 113797 -5.1754e+002 -4.5282e+002  2.5061e+002 23018 113486,113699,113771
 1.2000e+000 113820 -4.3250e+002 -4.8445e+002  1.7149e+002 23018 113486,113771,113512
 1.2000e+000 114424 -5.0124e+002 -4.6330e+002  1.1689e+002 22514 114447,114133,114029
 1.2000e+000 114401 -5.0438e+002 -5.6880e+002  1.1639e+002 22514 114447,114029,114237
 1.2000e+000 114378 -4.6351e+002 -3.3309e+002  8.3153e+001 22514 114133,114211,114185
 1.2000e+000 114355 -7.4212e+002 -3.7122e+002  4.1110e+001 22514 114133,114185,114159
 1.2000e+000 114332 -4.1274e+002 -5.9399e+002  2.6223e+002 22514 114003,114237,114029
 1.2000e+000 114309 -5.4226e+002 -4.0306e+002  6.8132e+001 22514 114029,114133,114055
 1.2000e+000 114286 -5.5909e+002 -3.9234e+002  7.4718e+001 22514 114055,114133,114107
 1.2000e+000 114263 -4.0929e+002 -1.6511e+001  1.0656e+002 22514 114055,114107,114081
 1.2000e+000 114473 -5.2626e+002 -4.0445e+002  1.5697e+002 22514 114211,114133,114447
 1.2000e+000 114496 -5.1052e+002 -4.8340e+002  1.5445e+002 22514 114211,114447,114237
 1.2000e+000 114597 -2.6933e+002 -6.8185e+002  3.7948e+002 22316 114620,114571,114545
 1.2000e+000 114646 -2.6933e+002 -6.8185e+002  3.7948e+002 22316 114519,114571,114620
 1.2000e+000 115127 -6.5403e+002 -4.5538e+002  2.2407e+002 21612 115150,114905,114879
 1.2000e+000 115104 -7.4229e+002 -2.7413e+002  2.4552e+002 21612 115150,114879,114853
 1.2000e+000 115081 -5.1316e+002 -1.1522e+002  3.5172e+002 21612 115222,114931,114905
 1.2000e+000 115058 -5.7537e+002 -3.5221e+002  2.8908e+002 21612 115222,114905,115009
 1.2000e+000 115035 -3.3015e+002 -4.9469e+002  2.2242e+002 21612 114957,115009,114983
 1.2000e+000 115176 -6.0052e+002 -3.2606e+002  2.1078e+002 21612 115009,114905,115150
 1.2000e+000 115199 -6.7175e+002 -1.1915e+002  2.2442e+002 21612 115009,115150,114853
 1.2000e+000 115248 -4.9055e+002 -3.3780e+002  2.8421e+002 21612 114957,114931,115222
 1.2000e+000 115271 -5.4733e+002 -5.6471e+002  2.2006e+002 21612 114957,115222,115009
 1.2000e+000 115519 -1.6481e+002  9.8653e+001  1.7839e+002 21208 115542,115372,115320
 1.2000e+000 115496  1.1456e+001  2.1929e+002  1.7369e+000 21208 115542,115320,115294
 1.2000e+000 115473 -1.1427e+002 -2.9039e+002  2.5558e+002 21208 115320,115372,115346
 1.2000e+000 115450 -3.8911e+002 -1.1810e+002  8.5835e+001 21208 115294,115424,115398
 1.2000e+000 115568 -2.3850e+002  2.6106e+001  2.4665e+002 21208 115398,115372,115542
 1.2000e+000 115591 -1.7681e+002 -8.4221e+001  1.0126e+002 21208 115398,115542,115294
 1.2000e+000 115839 -4.9144e+002 -3.2749e+002  2.9283e+002 20668 115862,115640,115614
 1.2000e+000 115816 -5.3480e+002 -3.5789e+002  3.1504e+002 20668 115862,115614,115744
 1.2000e+000 115793 -6.1495e+002 -2.6141e+002  2.9198e+002 20668 115640,115718,115692
 1.2000e+000 115770 -6.9976e+002 -2.8780e+002  2.9463e+002 20668 115640,115692,115666
 1.2000e+000 115888 -5.5136e+002 -2.6061e+002  3.1817e+002 20668 115718,115640,115862
 1.2000e+000 115911 -6.0536e+002 -3.2314e+002  3.5076e+002 20668 115718,115862,115744
 1.2000e+000 116134 -2.9135e+002 -5.0028e+002  2.8007e+002 20264 115958,116036,115984
 1.2000e+000 116111 -1.8184e+002 -4.5119e+002  2.7045e+002 20264 115958,116062,116036
 1.2000e+000 116088 -1.8511e+002 -4.6591e+002  3.0372e+002 20264 115984,116036,116010
 1.2000e+000 116384 -5.1163e+002 -3.2747e+002  3.1759e+002 19924 116407,116211,116159
 1.2000e+000 116361 -4.8207e+002 -5.2571e+002  2.6895e+002 19924 116407,116159,116263
 1.2000e+000 116338 -4.8279e+002 -2.2472e+002  3.1233e+002 19924 116159,116211,116185
 1.2000e+000 116315 -3.0902e+002 -5.3201e+002  3.5063e+002 19924 116159,116289,116263
 1.2000e+000 116433 -4.9595e+002 -2.1866e+002  3.6154e+002 19924 116237,116211,116407
 1.2000e+000 116456 -3.9335e+002 -3.5239e+002  3.3764e+002 19924 116237,116407,116263
 1.2000e+000 116608 -3.6790e+002 -1.2740e+002  2.1984e+002 19520 116703,116631,116533
 1.2000e+000 116585 -3.5779e+002 -1.6331e+002  1.9042e+002 19520 116631,116507,116481
 1.2000e+000 116657 -3.0344e+002 -1.6682e+002  2.3583e+002 19520 116559,116533,116631
 1.2000e+000 116680 -3.3985e+002 -2.5502e+002  1.9831e+002 19520 116559,116631,116481
 1.2000e+000 116729 -3.6790e+002 -1.2740e+002  2.1984e+002 19520 116507,116631,116703
 1.2000e+000 116952 -3.9328e+002 -3.4204e+002  4.7788e+002 19208 116975,116802,116776
 1.2000e+000 116929 -4.9590e+002 -6.4583e+002  2.7857e+002 19208 116975,116776,116880
 1.2000e+000 116906 -5.6145e+002 -2.4010e+002  3.3591e+002 19208 116802,116854,116828
 1.2000e+000 117001 -3.1806e+002 -2.8829e+002  5.0306e+002 19208 116854,116802,116975
 1.2000e+000 117024 -1.3252e+002 -3.6879e+002  4.0299e+002 19208 116854,116975,116880
 1.2000e+000 117428 -4.3890e+002 -1.6796e+002  2.5805e+002 18796 117154,117206,117180
 1.2000e+000 117405 -3.0357e+002 -3.2527e+002  2.3382e+002 18796 117154,117284,117206
 1.2000e+000 117382 -1.9945e+002 -2.7661e+002  2.5348e+002 18796 117154,117310,117284
 1.2000e+000 117359 -1.8218e+002 -2.2993e+002  3.0990e+002 18796 117206,117284,117258
 1.2000e+000 117336 -7.3043e+001 -5.2126e+001  4.1716e+002 18796 117206,117258,117232
 1.2000e+000 117529 -2.2353e+002 -1.1480e+002  1.3044e+002 18228 117810,117552,117477
 1.2000e+000 117578 -4.7148e+002 -3.1284e+002  1.9300e+002 18228 117682,117552,117503
 1.2000e+000 117708 -1.6759e+002 -1.6101e+002  1.2748e+002 18228 117477,117552,117682
 1.2000e+000 117836 -3.3688e+002 -3.1862e+002  1.9049e+002 18228 117451,117552,117810
 1.2000e+000 118364 -5.3088e+002 -1.8739e+002  1.9063e+002 17722 118067,118223,118093
 1.2000e+000 118341 -4.9896e+002 -7.8377e+001  1.9191e+002 17722 118041,118223,118067
 1.2000e+000 118318 -3.1292e+002 -1.6787e+002  1.3762e+002 17722 118093,118223,118197
 1.2000e+000 118295 -8.1586e+002 -7.7258e+002  4.8765e+002 17722 118119,118197,118171
 1.2000e+000 118272 -1.9031e+002 -5.0807e+001  2.1322e+002 17722 118093,118197,118119
 1.2000e+000 118249 -7.4469e+002 -2.5972e+002  3.9044e+002 17722 118119,118171,118145
 1.2000e+000 118514 -7.5616e+002 -3.0484e+002  2.6973e+002 17268 118387,118439,118413
 1.2000e+000 118491 -8.6772e+000 -3.0806e+002  2.7833e+002 17268 118387,118465,118439
 1.2000e+000 118916 -6.8448e+002 -2.4663e+002  1.7342e+002 16828 118668,118772,118694
 1.2000e+000 118893 -8.7456e+002 -3.2726e+002  1.4745e+002 16828 118668,118798,118772
 1.2000e+000 118870 -9.5651e+002 -5.4625e+002  1.3272e+002 16828 118642,118798,118668
 1.2000e+000 118847 -4.1017e+002 -1.7779e+002  3.4237e+002 16828 118694,118746,118720
 1.2000e+000 118824 -7.4313e+002 -4.4670e+002  1.6242e+002 16828 118694,118772,118746
 1.2000e+000 119316 -3.2693e+002 -2.4699e+002  3.3662e+002 16422 119042,119172,119094
 1.2000e+000 119293 -4.2860e+002 -2.6041e+002  3.5358e+002 16422 119042,119198,119172
 1.2000e+000 119270 -4.9519e+002 -1.7698e+002  2.0599e+002 16422 119042,119094,119068
 1.2000e+000 119247 -2.5808e+002 -1.4082e+002  4.6631e+002 16422 119094,119146,119120
 1.2000e+000 119224 -2.8245e+002 -1.7120e+002  3.5695e+002 16422 119094,119172,119146
 1.2000e+000 119466 -8.4116e+002 -2.3003e+002 -6.1930e+001 16010 119339,119391,119365
 1.2000e+000 119443 -3.8175e+002 -2.9270e+002  2.3287e+002 16010 119339,119417,119391
 1.2000e+000 119616 -2.0866e+002 -7.4900e+001  2.7291e+002 15547 119515,119567,119541
 1.2000e+000 119593  1.3058e+002  1.8686e+002  5.7249e+002 15547 119489,119567,119515
 1.2000e+000 119719 -5.8057e+002 -2.3227e+002  2.7609e+002 421 119641,119693,119667
 1.3000e+000 69562 -5.9553e+002 -2.8031e+002  4.6557e+002 69254 69484,69536,69510
 1.3000e+000 70009 -2.2694e+002 -2.4141e+002  2.3334e+002 68942 69686,69842,69816
 1.3000e+000 69986 -2.0382e+002 -9.9044e+001  1.3571e+002 68942 69686,69868,69842
 1.3000e+000 69963  2.2460e+001  1.4236e+001  3.3429e+002 68942 69686,69816,69712
 1.3000e+000 69940 -6.7211e+001 -6.1862e+001  4.8932e+002 68942 69712,69790,69738
 1.3000e+000 69917 -3.1280e+002 -7.5778e+002  3.7281e+002 68942 69712,69816,69790
 1.3000e+000 69894  8.6936e+000 -4.1568e+002  2.0053e+002 68942 69738,69790,69764
 1.3000e+000 70110 -2.8246e+002 -6.7197e+001  1.7812e+002 68766 70032,70084,70058
 1.3000e+000 70746 -1.8412e+002 -1.3580e+002  1.7966e+002 68448 70400,70556,70426
 1.3000e+000 70723 -5.6370e+002 -2.1076e+002  2.5952e+002 68448 70374,70556,70400
 1.3000e+000 70700 -2.8768e+002 -1.3534e+002  1.1964e+002 68448 70426,70556,70478
 1.3000e+000 70677 -4.4295e+002 -8.9224e+001  1.4318e+002 68448 70478,70556,70504
 1.3000e+000 70654 -3.1098e+002 -1.8757e+002  1.2695e+002 68448 70426,70478,70452
 1.3000e+000 70631 -5.6025e+002 -1.9688e+002  3.2187e+002 68448 70374,70582,70556
 1.3000e+000 70608 -4.6661e+002 -1.5252e+002  1.4329e+002 68448 70504,70556,70530
 1.3000e+000 70896 -3.0225e+002 -5.0200e+001  3.1105e+001 68250 70795,70847,70821
 1.3000e+000 70873 -1.0020e+003 -3.1245e+002  2.8674e+001 68250 70769,70847,70795
 1.3000e+000 70997 -1.6377e+003 -7.6910e+002  6.8104e+002 68052 70919,70971,70945
 1.3000e+000 71367 -4.9151e+002 -7.8589e+002  3.0746e+002 67740 71096,71226,71200
 1.3000e+000 71344 -3.2184e+002 -4.4893e+002  3.7804e+002 67740 71044,71226,71096
 1.3000e+000 71321  3.8952e+001 -3.8952e+001  5.9834e+002 67740 71044,71096,71070
 1.3000e+000 71298 -3.7151e+002 -8.4554e+002  5.8884e+002 67740 71096,71200,71174
 1.3000e+000 71275 -2.0628e+002 -5.0203e+002  2.3744e+002 67740 71096,71148,71122
 1.3000e+000 71252 -2.8579e+002 -6.0129e+002  3.8651e+002 67740 71096,71174,71148
 1.3000e+000 71519  1.8801e+002  1.2638e+002  1.8847e+002 67542 71418,71470,71444
 1.3000e+000 71496  3.2229e+002  6.2773e+002  5.9342e+002 67542 71392,71470,71418
 1.3000e+000 71923 -1.0400e+002  1.1290e+001  1.6623e+002 67230 71649,71779,71675
 1.3000e+000 71900 -7.1134e+001 -1.4997e+002  1.0316e+002 67230 71649,71805,71779
 1.3000e+000 71877 -1.0394e+002 -3.2703e+001  3.1134e+002 67230 71675,71727,71701
 1.3000e+000 71854 -1.4621e+002 -4.6299e+002  3.0040e+002 67230 71675,71753,71727
 1.3000e+000 71831 -1.5329e+002 -2.7801e+002  2.0913e+002 67230 71675,71779,71753
 1.3000e+000 72433 -2.4055e+002 -1.2676e+002  2.4571e+002 67032 72038,72246,72220
 1.3000e+000 72410 -1.7344e+002  8.8334e+000  8.8356e+001 67032 72012,72246,72038
 1.3000e+000 72387 -2.9770e+002 -8.0714e+001  2.7086e+002 67032 72064,72194,72168
 1.3000e+000 72364 -3.4221e+002 -1.2729e+002  2.9150e+002 67032 72038,72194,72064
 1.3000e+000 72341 -3.6903e+002 -4.7994e+002  3.4149e+002 67032 72038,72220,72194
 1.3000e+000 72318 -1.3839e+002  1.3689e+001  1.5719e+002 67032 72090,72168,72142
 1.3000e+000 72295 -2.6197e+000  3.6263e+001  2.2141e+002 67032 72064,72168,72090
 1.3000e+000 72272 -1.5900e+002 -5.6483e+000  1.4797e+002 67032 72090,72142,72116
 1.3000e+000 72933 -2.6254e+002 -3.0025e+002  3.0027e+002 66628 72956,72665,72613
 1.3000e+000 72910 -2.4631e+002 -3.2783e+002  2.9909e+002 66628 73100,72956,72613
 1.3000e+000 72887 -3.3354e+002 -4.6098e+002  2.5195e+002 66628 73028,72691,72665
 1.3000e+000 72864 -2.3544e+002 -3.0493e+002  3.0301e+002 66628 73100,72613,72587
 1.3000e+000 72841 -2.4951e+002 -2.8743e+002  2.7244e+002 66628 72613,72665,72639
 1.3000e+000 72818  1.1246e+002  3.1077e+001  4.1707e+002 66628 72587,72769,72743
 1.3000e+000 72795 -2.1974e+002 -6.4583e+002  7.8821e+001 66628 72561,72769,72587
 1.3000e+000 72982 -3.2745e+002 -3.3450e+002  3.2358e+002 66628 73028,72665,72956
 1.3000e+000 73005 -2.5977e+002 -9.8888e+001  3.1334e+002 66628 72717,72956,72743
 1.3000e+000 73054 -4.6864e+002 -3.8301e+002  1.5694e+002 66628 72717,72691,73028
 1.3000e+000 73077 -4.6613e+002 -3.4045e+002  2.2199e+002 66628 72717,73028,72956
 1.3000e+000 73126 -2.5485e+002 -3.2572e+002  2.7343e+002 66628 72743,72956,73100
 1.3000e+000 73149 -2.4462e+002 -3.0705e+002  2.7773e+002 66628 72743,73100,72587
 1.3000e+000 73606 -2.7720e+002 -2.9059e+002  2.5641e+002 66281 73332,73384,73358
 1.3000e+000 73583 -3.5351e+002 -3.9885e+002  2.1981e+002 66281 73332,73462,73384
 1.3000e+000 73560 -4.6258e+002 -2.8800e+002  2.9997e+002 66281 73384,73462,73436
 1.3000e+000 73537 -7.8428e+002 -4.1402e+002  3.7151e+002 66281 73332,73488,73462
 1.3000e+000 73514 -5.2310e+002 -2.6456e+002  1.4143e+002 66281 73384,73436,73410
 1.3000e+000 73984 -4.1432e+001 -8.8969e+001  5.6248e+001 65969 73736,73814,73788
 1.3000e+000 73961  2.8570e+001 -2.2615e+001  1.4153e+001 65969 73736,73866,73814
 1.3000e+000 73938 -1.2688e+002 -1.2381e+002  1.6131e+002 65969 73814,73866,73840
 1.3000e+000 73915 -1.5133e+001 -1.4469e+001  1.1460e+001 65969 73710,73866,73736
 1.3000e+000 73892 -8.6492e+000 -8.7545e+001  8.3771e+000 65969 73736,73788,73762
 1.3000e+000 74232 -2.3149e+002 -2.8824e+002  2.6875e+002 65572 74255,74085,74033
 1.3000e+000 74209 -2.0218e+002 -3.2516e+002  2.1592e+002 65572 74327,74255,74033
 1.3000e+000 74186 -2.3136e+002 -2.2606e+002  2.1702e+002 65572 74327,74033,74007
 1.3000e+000 74163 -2.5969e+002 -3.4560e+002  2.9227e+002 65572 74033,74085,74059
 1.3000e+000 74281 -3.0372e+002 -3.7907e+002  3.4908e+002 65572 74111,74085,74255
 1.3000e+000 74304 -1.8931e+002 -3.4155e+002  2.3808e+002 65572 74111,74255,74137
 1.3000e+000 74353 -1.7396e+002 -2.1108e+002  1.8001e+002 65572 74137,74255,74327
 1.3000e+000 74376 -2.2499e+002 -1.3720e+002  1.8639e+002 65572 74137,74327,74007
 1.3000e+000 74884 -2.3743e+002 -2.7733e+002  2.1328e+002 65174 74587,74717,74613
 1.3000e+000 74861 -2.3777e+002 -3.0702e+002  1.6247e+002 65174 74561,74717,74587
 1.3000e+000 74838 -2.4418e+002 -3.5079e+002  1.8783e+002 65174 74613,74691,74639
 1.3000e+000 74815 -2.1199e+002 -3.3120e+002  2.0605e+002 65174 74613,74717,74691
 1.3000e+000 74792 -9.9640e+001 -5.7016e+002  1.5023e+002 65174 74639,74691,74665
 1.3000e+000 74769 -3.0398e+002 -1.7425e+002  1.5720e+002 65174 74561,74743,74717
 1.3000e+000 75412 -1.5089e+001 -1.5550e+002  5.7478e+002 64770 75167,75245,75219
 1.3000e+000 75389 -2.8268e+002 -5.0288e+002  4.0050e+002 64770 75115,75245,75167
 1.3000e+000 75366 -2.2045e+002 -6.2887e+002  5.0440e+002 64770 75089,75245,75115
 1.3000e+000 75343 -4.3611e+002 -1.8028e+002  4.3400e+002 64770 75167,75219,75193
 1.3000e+000 75320 -2.2984e+002 -3.7528e+002  3.9554e+002 64770 75115,75167,75141
 1.3000e+000 75297 -3.4859e+002 -9.1858e+002  5.2902e+002 64770 75089,75271,75245
 1.3000e+000 75861 -6.1338e+002 -2.7102e+002  4.7747e+002 64316 75538,75694,75564
 1.3000e+000 75838 -2.5275e+002 -1.0225e+002  3.3624e+002 64316 75538,75720,75694
 1.3000e+000 75815 -5.1881e+002 -3.3580e+002  3.7632e+002 64316 75590,75694,75642
 1.3000e+000 75792 -5.0874e+002 -4.7160e+002  4.1916e+002 64316 75564,75694,75590
 1.3000e+000 75769 -1.5947e+002 -5.9549e+002  2.1420e+002 64316 75590,75642,75616
 1.3000e+000 75746 -4.9036e+002 -2.0946e+002  3.6191e+002 64316 75642,75694,75668
 1.3000e+000 76239 -7.3231e+002 -5.8004e+002  4.0536e+002 64018 76262,76095,76043
 1.3000e+000 76216 -4.9224e+002 -5.7033e+002  3.2392e+002 64018 76262,76043,76017
 1.3000e+000 76193 -1.7299e+002 -2.8266e+002  2.0911e+002 64018 75991,76121,76017
 1.3000e+000 76170 -6.7869e+002 -4.4759e+002  4.3530e+002 64018 76043,76095,76069
 1.3000e+000 76147 -2.3174e+001 -3.1655e+002  6.9052e+001 64018 75965,76121,75991
 1.3000e+000 76288 -4.8771e+002 -6.8206e+002  5.2198e+002 64018 76121,76095,76262
 1.3000e+000 76311 -2.9604e+002 -6.9834e+002  4.0636e+002 64018 76121,76262,76017
 1.3000e+000 76866 -2.8848e+002 -3.2427e+002  3.2373e+002 63728 76520,76676,76546
 1.3000e+000 76843 -2.6888e+002 -3.2975e+002  2.3975e+002 63728 76520,76702,76676
 1.3000e+000 76820 -2.3372e+002 -3.5688e+002  3.3625e+002 63728 76546,76650,76572
 1.3000e+000 76797 -4.0080e+002 -4.6684e+002  2.7498e+002 63728 76546,76676,76650
 1.3000e+000 76774 -4.1704e+002 -3.2239e+001  1.5931e+002 63728 76572,76650,76624
 1.3000e+000 76751 -2.3810e+002 -2.7923e+002  2.5694e+002 63728 76494,76702,76520
 1.3000e+000 76728 -8.4308e+001 -1.7160e+002  1.2047e+002 63728 76572,76624,76598
 1.3000e+000 77065 -7.3248e+001 -2.6755e+002  2.1634e+002 63288 77088,76941,76915
 1.3000e+000 77042 -2.7077e+002 -3.3168e+002  2.0414e+002 63288 77088,76915,76993
 1.3000e+000 77019 -1.0085e+002 -3.3939e+002  1.8660e+002 63288 76889,76993,76915
 1.3000e+000 77114 -1.8695e+002 -2.7094e+002  1.6698e+002 63288 76967,76941,77088
 1.3000e+000 77137 -4.4409e+002 -3.6028e+002  8.6236e+001 63288 77160,77088,76993
 1.3000e+000 77186 -1.2524e+002 -2.0166e+002  1.4104e+002 63288 76967,77088,77160
 1.3000e+000 77417 -1.2181e+002 -2.0894e+002  9.6578e+001 62884 77440,77342,77316
 1.3000e+000 77394 -2.3800e+002 -3.6154e+002  4.5509e+001 62884 77770,77440,77316
 1.3000e+000 77466 -2.6798e+002 -3.7349e+002  5.8091e+001 62884 77512,77440,77368
 1.3000e+000 77489 -1.5890e+002 -3.2483e+002  2.9491e+001 62884 77642,77440,77290
 1.3000e+000 77538 -1.2826e+002 -2.7848e+002  1.6365e+001 62884 77342,77440,77512
 1.3000e+000 77668 -2.2474e+002 -4.4690e+002  1.2715e+000 62884 77368,77440,77642
 1.3000e+000 77796 -1.5071e+002 -3.1442e+002  2.5904e+001 62884 77290,77440,77770
 1.3000e+000 78479 -6.0799e+002 -5.7915e+002  3.5909e+002 62480 78084,78240,78214
 1.3000e+000 78456 -3.2238e+002 -4.8556e+002 -7.2086e+000 62480 78084,78266,78240
 1.3000e+000 78433 -3.7486e+002 -4.6292e+002  1.4590e+002 62480 78110,78214,78136
 1.3000e+000 78410 -4.2609e+002 -4.7815e+002  3.0802e+002 62480 78084,78214,78110
 1.3000e+000 78387 -4.4938e+002 -3.1686e+002  1.7268e+002 62480 78136,78214,78188
 1.3000e+000 78364 -2.5628e+002 -5.4111e+002 -2.0659e+001 62480 78058,78266,78084
 1.3000e+000 78341 -4.9127e+002 -3.7803e+002  3.6817e+002 62480 78136,78188,78162
 1.3000e+000 78318 -1.6116e+002 -4.9248e+002 -3.9273e+001 62480 78058,78292,78266
 1.3000e+000 78678 -3.6023e+002 -6.5170e+002  2.8543e+002 61926 78528,78606,78554
 1.3000e+000 78655 -1.9454e+002 -6.9154e+002  3.5466e+002 61926 78502,78606,78528
 1.3000e+000 78632 -2.1542e+002 -3.9685e+002  1.4313e+002 61926 78554,78606,78580
 1.3000e+000 79058 -3.4106e+002 -3.6384e+002  2.0147e+002 61614 78836,78914,78862
 1.3000e+000 79035 -4.2441e+002 -4.0848e+002  1.8341e+002 61614 78810,78914,78836
 1.3000e+000 79012 -2.7815e+002 -3.4642e+002  1.6922e+002 61614 78784,78914,78810
 1.3000e+000 78989 -2.9030e+002 -3.6681e+002  3.0986e+002 61614 78862,78914,78888
 1.3000e+000 78966 -2.2486e+002 -4.6061e+002  1.9691e+002 61614 78784,78940,78914
 1.3000e+000 79208 -1.4588e+002 -3.4031e+002  2.4887e+001 61366 79081,79133,79107
 1.3000e+000 79185 -1.5199e+002 -9.8423e+001  2.7097e+002 61366 79081,79159,79133
 1.3000e+000 79358  6.4027e+001  3.0749e+001  3.0419e+001 60962 79231,79283,79257
 1.3000e+000 79335 -1.9579e+002 -4.6261e+002  1.2556e+002 60962 79231,79309,79283
 1.3000e+000 79608 -2.1878e+002 -4.7663e+002  2.5348e+002 60508 79631,79435,79409
 1.3000e+000 79585 -1.7368e+002 -5.0802e+002  1.6845e+002 60508 79703,79631,79409
 1.3000e+000 79562 -1.8275e+002 -1.3292e+002  2.2364e+002 60508 79703,79409,79383
 1.3000e+000 79539 -4.3763e+002 -4.8150e+002  4.1461e+002 60508 79435,79487,79461
 1.3000e+000 79657 -2.6661e+002 -6.2714e+002  3.9822e+002 60508 79487,79435,79631
 1.3000e+000 79680 -1.3019e+002 -4.4223e+002  1.8790e+002 60508 79487,79631,79513
 1.3000e+000 79729 -6.4561e+001 -1.5949e+002  7.8175e+001 60508 79513,79631,79703
 1.3000e+000 79752 -1.7642e+002 -9.9065e+001  2.4553e+001 60508 79513,79703,79383
 1.3000e+000 80390 -3.0427e+002 -3.7394e+002  3.0459e+002 59997 80413,80096,80018
 1.3000e+000 80367 -4.7160e+002 -4.2169e+002  3.5931e+002 59997 80413,80018,80226
 1.3000e+000 80344 -2.5678e+002 -2.9979e+002  2.2984e+002 59997 80096,80174,80148
 1.3000e+000 80321 -9.6952e+002 -7.1595e+002  4.7961e+002 59997 80018,80096,80070
 1.3000e+000 80298 -2.8280e+002 -3.6641e+002  1.9146e+002 59997 80096,80148,80122
 1.3000e+000 80275 -2.5387e+002 -2.7810e+002  2.3943e+002 59997 80174,80226,80200
 1.3000e+000 80252 -5.8709e+002 -4.7757e+002  8.9925e+001 59997 80018,80070,80044
 1.3000e+000 80439 -2.6172e+002 -3.8622e+002  2.5480e+002 59997 80174,80096,80413
 1.3000e+000 80462 -3.2837e+002 -3.2661e+002  2.8716e+002 59997 80174,80413,80226
 1.3000e+000 80840 -4.9134e+002 -4.6680e+002  2.3023e+002 59443 80863,80644,80618
 1.3000e+000 80817 -2.3524e+002 -3.4809e+002  2.7461e+002 59443 80863,80618,80566
 1.3000e+000 80794 -1.8698e+002 -2.9810e+002  2.9632e+002 59443 81007,80935,80670
 1.3000e+000 80771 -2.8960e+002 -3.2579e+002  2.9586e+002 59443 80566,80722,80696
 1.3000e+000 80748 -2.9835e+002 -4.7657e+002  3.1860e+002 59443 80566,80618,80592
 1.3000e+000 80889 -5.2597e+002 -3.9999e+002  3.4575e+002 59443 80935,80644,80863
 1.3000e+000 80912 -3.8313e+002 -3.6814e+002  3.0903e+002 59443 80696,80863,80566
 1.3000e+000 80961 -3.2145e+002 -3.3940e+002  3.5119e+002 59443 80696,80670,80935
 1.3000e+000 80984 -3.1602e+002 -3.1363e+002  3.3325e+002 59443 80696,80935,80863
 1.3000e+000 81033 -4.1207e+002 -5.1872e+002  4.1039e+002 59443 80644,80935,81007
 1.3000e+000 81360 -3.7529e+002 -2.6658e+002  2.2246e+002 59031 81383,81187,81161
 1.3000e+000 81337 -3.3481e+002 -2.9156e+002  1.2497e+002 59031 81455,81383,81161
 1.3000e+000 81314 -2.6023e+002 -2.3492e+002  1.4986e+002 59031 81455,81161,81135
 1.3000e+000 81291 -7.2160e+002 -1.3940e+002  3.0409e+002 59031 81187,81239,81213
 1.3000e+000 81409 -4.0179e+002 -3.7470e+002  2.4815e+002 59031 81239,81187,81383
 1.3000e+000 81432 -4.9897e+002 -3.3241e+002  1.1066e+002 59031 81239,81383,81265
 1.3000e+000 81481 -4.0342e+002 -1.8447e+002  1.5170e+002 59031 81265,81383,81455
 1.3000e+000 81504 -3.8218e+002 -1.7355e+002  1.5671e+002 59031 81265,81455,81135
 1.3000e+000 81835 -4.9467e+001 -2.0733e+002  6.2711e+001 58577 81610,81714,81636
 1.3000e+000 81812 -4.8152e+001 -2.0317e+002  6.1303e+001 58577 81610,81740,81714
 1.3000e+000 81789 -1.4417e+002 -2.4763e+002  5.5209e+001 58577 81636,81714,81688
 1.3000e+000 81766 -1.3236e+002 -2.6237e+002 -4.6078e+001 58577 81636,81688,81662
 1.3000e+000 81985 -1.1091e+002 -2.6896e+002  1.6714e+002 58030 81884,81936,81910
 1.3000e+000 81962 -2.1416e+002 -7.8948e+001  1.2029e+002 58030 81858,81936,81884
 1.3000e+000 82414 -9.0861e+001 -3.5345e+001  1.2093e+002 57690 82437,82169,82117
 1.3000e+000 82391 -1.3315e+002 -1.5299e+002  1.4425e+002 57690 82437,82117,82247
 1.3000e+000 82368  4.9349e+001  7.1780e+001  3.4682e+002 57690 82195,82247,82221
 1.3000e+000 82345 -1.0022e+002 -1.3888e+002  1.4429e+002 57690 82091,82247,82117
 1.3000e+000 82322 -1.6027e+002 -4.0329e+001  7.9384e+001 57690 82117,82169,82143
 1.3000e+000 82299 -1.1317e+002 -2.6555e+002  2.0134e+002 57690 82091,82273,82247
 1.3000e+000 82463 -1.4853e+002  9.5601e+000  1.7710e+002 57690 82195,82169,82437
 1.3000e+000 82486 -1.6832e+002 -7.0584e+001  1.8132e+002 57690 82195,82437,82247
 1.3000e+000 83041 -2.5150e+002 -2.9652e+002  1.9242e+002 57172 83064,82721,82695
 1.3000e+000 83018 -2.7759e+002 -3.0073e+002  2.7573e+002 57172 83064,82695,82851
 1.3000e+000 82995 -7.9946e+002 -3.8489e+002  3.6347e+002 57172 82669,82851,82695
 1.3000e+000 82972 -4.5244e+002 -3.1930e+002  2.5750e+002 57172 82773,82851,82825
 1.3000e+000 82949 -4.1826e+002 -3.3847e+002  3.4272e+002 57172 82773,82825,82799
 1.3000e+000 82926 -3.5908e+002 -2.3020e+002  1.6447e+002 57172 82721,82773,82747
 1.3000e+000 82903 -8.5053e+002 -3.4189e+002  4.7669e+002 57172 82669,82877,82851
 1.3000e+000 83090 -3.8899e+002 -3.4560e+002  1.7492e+002 57172 82773,82721,83064
 1.3000e+000 83113 -3.2448e+002 -3.1413e+002  2.5454e+002 57172 82773,83064,82851
 1.3000e+000 83747 -3.3652e+002 -2.8384e+002  2.0063e+002 56554 83770,83427,83401
 1.3000e+000 83724 -3.2323e+002 -3.7420e+002  2.4204e+002 56554 83842,83770,83401
 1.3000e+000 83701 -1.2685e+001 -3.0012e+002  9.6490e+001 56554 83842,83401,83583
 1.3000e+000 83678 -6.0547e+002 -5.4298e+002  4.7846e+002 56554 83914,83531,83505
 1.3000e+000 83655 -2.9901e+002 -3.4603e+002  1.3883e+002 56554 83531,83583,83557
 1.3000e+000 83632 -6.7119e+001 -1.5917e+002  8.3859e+001 56554 83375,83583,83401
 1.3000e+000 83609 -2.8890e+002 -2.7503e+002  1.9375e+002 56554 83427,83479,83453
 1.3000e+000 83796 -2.9491e+002 -2.8191e+002  2.0217e+002 56554 83479,83427,83770
 1.3000e+000 83819 -3.0054e+002 -2.4216e+002  2.0453e+002 56554 83479,83770,83505
 1.3000e+000 83868 -2.0933e+002 -1.6520e+002  2.9148e+002 56554 83505,83770,83842
 1.3000e+000 83891 -3.9096e+002 -3.2301e+002  3.6098e+002 56554 83914,83505,83842
 1.3000e+000 83940 -2.7639e+002 -5.5645e+002  2.6650e+002 56554 83583,83531,83914
 1.3000e+000 83963 -1.3596e+002 -5.1972e+002  2.0862e+002 56554 83583,83914,83842
 1.3000e+000 84341 -1.4425e+002 -6.2815e+002  2.1435e+002 56192 84067,84145,84119
 1.3000e+000 84318 -1.8617e+001 -4.5219e+002  1.5738e+002 56192 84067,84223,84145
 1.3000e+000 84295 -1.5217e+002 -5.7215e+002  5.6102e+001 56192 84145,84223,84197
 1.3000e+000 84272 -1.1220e+002 -5.5041e+002  2.2455e+002 56192 84067,84119,84093
 1.3000e+000 84249 -3.6605e+002 -1.6863e+002  1.5130e+002 56192 84145,84197,84171
 1.3000e+000 84611 -1.8058e+002 -4.6603e+002  3.4836e+002 55538 84386,84490,84412
 1.3000e+000 84588 -2.1543e+002 -4.2670e+002  3.4843e+002 55538 84386,84516,84490
 1.3000e+000 84565 -3.5337e+002 -5.3990e+002  3.5018e+002 55538 84412,84490,84464
 1.3000e+000 84542 -1.8295e+002 -4.4879e+002  2.4495e+002 55538 84412,84464,84438
 1.3000e+000 84942 -3.1024e+002 -2.8326e+002  2.4592e+002 55084 84769,84847,84795
 1.3000e+000 84919 -3.4240e+002 -3.4519e+002  1.9617e+002 55084 84717,84847,84769
 1.3000e+000 84896 -3.6263e+002 -4.2831e+002  2.0705e+002 55084 84717,84769,84743
 1.3000e+000 84873 -3.7526e+002 -1.3153e+002  1.9774e+002 55084 84795,84847,84821
 1.3000e+000 85271 -9.8096e+001 -1.1179e+002  1.7434e+002 54580 85294,85098,85072
 1.3000e+000 85248 -3.8425e+002 -2.0771e+002  2.3779e+002 54580 85294,85072,85176
 1.3000e+000 85225 -5.3263e+002 -1.1636e+001  7.4310e+001 54580 85124,85176,85150
 1.3000e+000 85202 -1.3254e+002 -1.8301e+002  9.2658e+001 54580 85046,85176,85072
 1.3000e+000 85320 -3.4965e+002 -1.3135e+002  2.0625e+002 54580 85124,85098,85294
 1.3000e+000 85343 -4.9950e+002 -1.1657e+002  2.5044e+002 54580 85124,85294,85176
 1.3000e+000 85542 -2.1498e+002 -3.4535e+002  2.5156e+002 53976 85565,85444,85418
 1.3000e+000 85519 -2.5373e+002 -2.7243e+002  2.1246e+002 53976 85565,85418,85366
 1.3000e+000 85496 -1.8092e+002 -2.0629e+002  1.0982e+002 53976 85366,85418,85392
 1.3000e+000 85591 -2.1707e+002 -3.1439e+002  2.0254e+002 53976 85470,85444,85565
 1.3000e+000 85614 -1.9801e+002 -1.4429e+002  1.6745e+002 53976 85470,85565,85366
 1.3000e+000 85960 -5.2964e+002 -4.6661e+002  3.4510e+002 53572 85663,85715,85689
 1.3000e+000 85937 -4.5423e+002 -3.8701e+002  2.2769e+002 53572 85983,85715,85663
 1.3000e+000 85914 -4.1042e+002 -4.4042e+002  2.4875e+002 53572 86055,85983,85663
 1.3000e+000 85891 -3.6585e+002 -4.2798e+002  3.0938e+002 53572 86055,85663,85637
 1.3000e+000 85868 -6.0384e+002 -9.2831e+002  4.2954e+002 53572 85637,85793,85767
 1.3000e+000 85845 -8.5548e+002 -2.1924e+002  2.4401e+002 53572 85637,85819,85793
 1.3000e+000 86009 -3.8863e+002 -3.9456e+002  2.3543e+002 53572 85741,85715,85983
 1.3000e+000 86032 -3.2968e+002 -3.5024e+002  2.0981e+002 53572 85741,85983,85767
 1.3000e+000 86081 -3.4843e+002 -3.1506e+002  2.6953e+002 53572 85767,85983,86055
 1.3000e+000 86104 -3.3224e+002 -3.6721e+002  3.2311e+002 53572 85767,86055,85637
 1.3000e+000 86693 -4.7884e+002 -1.6350e+002  3.0930e+002 52946 86474,86526,86500
 1.3000e+000 86670 -1.2924e+002 -1.0287e+002  1.2577e+002 52946 86396,86526,86474
 1.3000e+000 86647 -3.8324e+002 -4.6938e+002  2.5181e+002 52946 86370,86526,86396
 1.3000e+000 86624 -3.1574e+001 -3.3268e+001  6.3505e+001 52946 86422,86474,86448
 1.3000e+000 86601 -1.5035e+002 -1.1731e+002  1.1382e+002 52946 86396,86474,86422
 1.3000e+000 86578 -5.4498e+002 -2.3676e+002  3.8199e+001 52946 86370,86552,86526
 1.3000e+000 87376 -3.1496e+002 -3.2717e+002  1.1520e+002 52420 87007,87085,87033
 1.3000e+000 87353 -3.1120e+002 -3.3948e+002  1.2913e+002 52420 87007,87163,87085
 1.3000e+000 87330 -3.7610e+002 -3.3179e+002  1.4743e+002 52420 87007,87189,87163
 1.3000e+000 87307 -3.3000e+002 -2.9236e+002  1.5585e+002 52420 87033,87085,87059
 1.3000e+000 87284 -3.5319e+002 -3.3639e+002  3.8460e+001 52420 87085,87137,87111
 1.3000e+000 87261 -2.6840e+002 -3.5403e+002  3.5431e+001 52420 87085,87163,87137
 1.3000e+000 87238 -2.7703e+002 -4.0512e+002  3.1518e+002 52420 86955,87189,87007
 1.3000e+000 87215 -1.8423e+002 -2.8160e+002  1.9490e+002 52420 86955,87007,86981
 1.3000e+000 87624 -2.4051e+002 -3.1893e+002  1.7597e+002 51916 87451,87503,87477
 1.3000e+000 87601 -1.4387e+002 -4.3500e+002  2.1513e+002 51916 87425,87503,87451
 1.3000e+000 87578 -1.4771e+002 -4.3038e+002  2.2043e+002 51916 87425,87529,87503
 1.3000e+000 87555 -6.3297e+001 -1.6577e+002  2.2486e+002 51916 87399,87529,87425
 1.3000e+000 88053 -4.2379e+002 -3.5852e+002  1.3044e+002 51568 87782,87834,87808
 1.3000e+000 88030 -4.9344e+002 -3.3337e+002  2.1291e+002 51568 88076,87782,87886
 1.3000e+000 88007 -4.4687e+002 -2.2623e+002  1.9369e+002 51568 88076,87886,87860
 1.3000e+000 87984 -5.7907e+002 -4.5791e+002  1.7481e+002 51568 87756,87886,87782
 1.3000e+000 87961 -4.2662e+002 -3.6050e+002  3.4212e+002 51568 87756,87912,87886
 1.3000e+000 87938 -4.9002e+002 -3.0671e+002  3.1832e+002 51568 87730,87912,87756
 1.3000e+000 88102 -4.3932e+002 -3.8834e+002  1.4517e+002 51568 87834,87782,88076
 1.3000e+000 88125 -4.0283e+002 -3.1752e+002  1.2812e+002 51568 87834,88076,87860
 1.3000e+000 88324 -3.0169e+002 -4.3186e+002  1.3897e+002 51164 88419,88347,88200
 1.3000e+000 88301 -2.5287e+002 -3.9684e+002  2.0522e+002 51164 88347,88148,88252
 1.3000e+000 88278 -3.6430e+002 -6.6532e+002  1.6048e+002 51164 88419,88200,88174
 1.3000e+000 88373 -2.2424e+002 -3.9958e+002  1.6041e+002 51164 88226,88200,88347
 1.3000e+000 88396 -5.3294e+001 -4.3176e+002  1.5370e+002 51164 88226,88347,88252
 1.3000e+000 88445 -3.8665e+002 -4.7681e+002  2.7611e+002 51164 88148,88347,88419
 1.3000e+000 88468 -3.7581e+002 -4.6054e+002  3.0395e+002 51164 88148,88419,88174
 1.3000e+000 88738 -3.3283e+002 -5.0897e+002  1.1926e+002 50560 88513,88617,88539
 1.3000e+000 88715 -2.3879e+002 -5.5973e+002  8.3857e+001 50560 88513,88643,88617
 1.3000e+000 88692 -2.0783e+002 -2.2955e+002  1.5052e+002 50560 88539,88591,88565
 1.3000e+000 88669 -1.5882e+002 -3.8191e+002  1.7576e+002 50560 88539,88617,88591
 1.3000e+000 88939 -4.0397e+002 -2.0312e+002  2.1078e+002 50106 88962,88789,88763
 1.3000e+000 88916 -2.7765e+002 -2.2808e+002  1.6301e+002 50106 88962,88763,88841
 1.3000e+000 88893 -4.1310e+002 -3.1233e+002  2.5551e+002 50106 88763,88867,88841
 1.3000e+000 88988 -2.8163e+002 -2.5158e+002  1.3720e+002 50106 88815,88789,88962
 1.3000e+000 89011 -2.2500e+002 -2.0157e+002  1.7547e+002 50106 89034,88962,88841
 1.3000e+000 89060 -1.4290e+002 -9.7108e+001  4.7857e+001 50106 88815,88962,89034
 1.3000e+000 89472 -2.5285e+002 -5.4555e+002  1.1859e+002 49666 89273,89351,89325
 1.3000e+000 89449 -3.2423e+002 -3.7758e+002  1.8064e+002 49666 89273,89377,89351
 1.3000e+000 89426 -2.8056e+002 -4.4423e+002  3.2097e+002 49666 89273,89325,89299
 1.3000e+000 89403 -3.0467e+002 -2.7524e+002  1.9039e+002 49666 89247,89377,89273
 1.3000e+000 89978 -7.9246e+001 -5.4447e+002  1.3221e+002 49205 89681,89837,89733
 1.3000e+000 89955 -2.1883e+002 -4.5625e+002  2.6330e+002 49205 89655,89837,89681
 1.3000e+000 89932 -4.3500e+002 -7.0712e+002  1.5327e+002 49205 89785,89837,89811
 1.3000e+000 89909 -1.2647e+002 -1.3665e+002  2.0851e+001 49205 89733,89837,89785
 1.3000e+000 89886 -4.7735e+002 -2.6531e+002  2.5584e+002 49205 89733,89785,89759
 1.3000e+000 89863 -5.0389e+001 -1.7640e+002  1.7352e+001 49205 89681,89733,89707
 1.3000e+000 90177 -2.7130e+002 -2.2844e+002  1.1356e+002 48865 90530,90200,90053
 1.3000e+000 90154 -2.6730e+002 -4.3183e+002  2.0529e+002 48865 90402,90200,90001
 1.3000e+000 90131 -3.7424e+002 -4.4610e+001  1.1702e+002 48865 90530,90053,90027
 1.3000e+000 90226 -3.2716e+002 -2.7383e+002  1.9785e+002 48865 90079,90053,90200
 1.3000e+000 90249 -3.5060e+002 -3.3448e+002  1.3771e+002 48865 90272,90200,90105
 1.3000e+000 90298 -2.3186e+002 -2.2678e+002  1.8273e+002 48865 90079,90200,90272
 1.3000e+000 90428 -2.5061e+002 -1.2184e+002  1.8107e+002 48865 90105,90200,90402
 1.3000e+000 90556 -3.2313e+002 -5.0539e+002  8.3685e+001 48865 90001,90200,90530
 1.3000e+000 90579 -3.7986e+002 -2.3104e+002  2.9732e+001 48865 90001,90530,90027
 1.3000e+000 90827 -3.3685e+002 -3.2926e+002  1.6316e+002 48404 90850,90654,90628
 1.3000e+000 90804 -3.2427e+002 -3.6215e+002  2.5620e+002 48404 90850,90628,90732
 1.3000e+000 90781 -2.4102e+002 -2.4106e+002  1.7823e+002 48404 90680,90732,90706
 1.3000e+000 90758 -4.1779e+002 -2.1053e+002  2.6412e+002 48404 90602,90732,90628
 1.3000e+000 90876 -3.1465e+002 -1.9192e+002  1.5275e+002 48404 90680,90654,90850
 1.3000e+000 90899 -3.1694e+002 -2.9425e+002  2.2590e+002 48404 90680,90850,90732
 1.3000e+000 91000 -1.8796e+002 -4.7731e+002  3.2433e+002 48156 90922,90974,90948
 1.3000e+000 91250 -1.9844e+002 -4.9150e+002  2.7861e+002 47752 91051,91103,91077
 1.3000e+000 91227 -1.4720e+002 -1.3994e+002  1.7711e+002 47752 91025,91103,91051
 1.3000e+000 91204 -5.3002e+002 -3.9739e+002  4.2100e+002 47752 91025,91155,91103
 1.3000e+000 91181 -5.6402e+002 -2.1901e+002  3.0068e+002 47752 91103,91155,91129
 1.3000e+000 91402 -3.2531e+002 -3.0261e+002  1.9918e+002 47191 91425,91301,91275
 1.3000e+000 91379 -2.7369e+002 -2.8258e+002  2.3126e+002 47191 91497,91425,91275
 1.3000e+000 91451 -3.2592e+002 -1.7592e+002  1.3849e+002 47191 91327,91301,91425
 1.3000e+000 91474 -3.1799e+002 -3.3253e+002  2.6502e+002 47191 91327,91425,91353
 1.3000e+000 91523 -3.5851e+002 -6.1833e+002  2.4136e+002 47191 91353,91425,91497
 1.3000e+000 91854 -2.7915e+002 -1.9553e+002  1.9810e+002 46744 91949,91877,91707
 1.3000e+000 91831 -1.7002e+002 -4.0024e+002  1.5966e+002 46744 91877,91655,91629
 1.3000e+000 91808 -3.1471e+002 -1.5162e+002  1.6861e+002 46744 91949,91707,91681
 1.3000e+000 91785 -3.6567e+002 -2.7500e+002 -4.6346e+001 46744 91629,91759,91733
 1.3000e+000 91903 -4.8763e+002 -3.6702e+002  2.8315e+002 46744 91733,91707,91877
 1.3000e+000 91926 -2.4643e+002 -4.7315e+002  1.9617e+002 46744 91733,91877,91629
 1.3000e+000 91975 -2.8156e+002 -4.2746e+002  2.5031e+002 46744 91655,91877,91949
 1.3000e+000 91998 -2.0569e+002 -2.9510e+002  1.8264e+002 46744 91655,91949,91681
 1.3000e+000 92378 -2.4892e+002 -1.1947e+002  1.6090e+002 46090 92130,92208,92182
 1.3000e+000 92355 -3.3085e+002 -1.5345e+002  1.7079e+002 46090 92104,92208,92130
 1.3000e+000 92332 -1.5587e+002 -3.0354e+002  1.6811e+002 46090 92104,92260,92208
 1.3000e+000 92309 -1.4803e+002 -2.0177e+002  1.4565e+002 46090 92208,92260,92234
 1.3000e+000 92286 -4.4704e+002 -1.8017e+002  1.9516e+002 46090 92130,92182,92156
 1.3000e+000 92626 -2.6149e+002 -3.3581e+002  1.3410e+002 45693 92721,92649,92505
 1.3000e+000 92603 -3.0218e+002 -3.4728e+002  2.4939e+002 45693 92649,92453,92427
 1.3000e+000 92580 -2.7352e+002 -2.9431e+002  1.3197e+002 45693 92721,92505,92479
 1.3000e+000 92557 -5.5166e+002 -4.3886e+002  3.0492e+002 45693 92401,92531,92427
 1.3000e+000 92675 -4.0122e+002 -3.1714e+002  1.7565e+002 45693 92531,92505,92649
 1.3000e+000 92698 -4.4893e+002 -4.0377e+002  3.3056e+002 45693 92531,92649,92427
 1.3000e+000 92747 -2.8628e+002 -2.8321e+002  1.3975e+002 45693 92453,92649,92721
 1.3000e+000 92770 -2.1588e+002 -1.3696e+002  1.6890e+002 45693 92453,92721,92479
 1.3000e+000 93172 -1.8480e+002 -2.9349e+002  2.8326e+002 45331 92898,93028,92924
 1.3000e+000 93149 -1.4517e+002 -3.5138e+002  1.8593e+002 45331 92898,93054,93028
 1.3000e+000 93126 -2.4454e+002 -1.8376e+002  3.2110e+002 45331 92924,93002,92976
 1.3000e+000 93103 -9.9269e+001 -2.6100e+002  2.8359e+002 45331 92924,93028,93002
 1.3000e+000 93080 -2.8675e+002 -3.2829e+002  3.1937e+002 45331 92924,92976,92950
 1.3000e+000 93518 -2.5952e+002 -5.4980e+002  2.1750e+002 44820 93613,93273,93247
 1.3000e+000 93495 -4.5446e+002 -4.6077e+002  2.4473e+002 44820 93685,93541,93247
 1.3000e+000 93472 -4.0339e+002 -2.9591e+002  2.0547e+002 44820 93541,93195,93377
 1.3000e+000 93449 -5.0905e+002 -3.9847e+002  1.8591e+002 44820 93685,93247,93221
 1.3000e+000 93426 -3.4891e+002 -3.9668e+002  2.0844e+002 44820 93299,93377,93351
 1.3000e+000 93403 -2.5814e+002 -2.5974e+002  2.5432e+002 44820 93299,93351,93325
 1.3000e+000 93567 -3.5325e+002 -5.9496e+002  1.9811e+002 44820 93613,93247,93541
 1.3000e+000 93590 -3.7179e+002 -4.4394e+002  1.4566e+002 44820 93299,93541,93377
 1.3000e+000 93639 -3.5849e+002 -6.0141e+002  1.9836e+002 44820 93299,93273,93613
 1.3000e+000 93662 -3.6202e+002 -5.9788e+002  1.8993e+002 44820 93299,93613,93541
 1.3000e+000 93711 -3.9702e+002 -3.4813e+002  1.7985e+002 44820 93195,93541,93685
 1.3000e+000 93734 -3.6965e+002 -1.6277e+002  1.1087e+002 44820 93195,93685,93221
 1.3000e+000 94163 -3.9608e+002 -4.6806e+002  1.8194e+002 44237 94258,94186,93996
 1.3000e+000 94140 -4.7118e+002 -5.1582e+002  1.2117e+002 44237 94330,94022,93996
 1.3000e+000 94117 -4.8480e+002 -5.1872e+002  1.3551e+002 44237 94186,93918,93866
 1.3000e+000 94094 -3.3837e+002 -3.7296e+002  2.1282e+002 44237 94258,93996,93970
 1.3000e+000 94071 -4.2930e+002 -3.0901e+002  1.8466e+002 44237 94402,93944,93918
 1.3000e+000 94048 -3.0554e+002 -5.3001e+002  1.9781e+002 44237 93866,93918,93892
 1.3000e+000 94212 -4.7124e+002 -5.2268e+002  1.5769e+002 44237 94330,93996,94186
 1.3000e+000 94235 -4.6498e+002 -4.5184e+002  1.7570e+002 44237 93840,94186,93866
 1.3000e+000 94284 -4.2522e+002 -3.8064e+002  1.2978e+002 44237 93918,94186,94258
 1.3000e+000 94307 -3.9452e+002 -3.2379e+002  1.4706e+002 44237 94402,93918,94258
 1.3000e+000 94356 -4.7257e+002 -1.8810e+002  1.1059e+001 44237 93840,94022,94330
 1.3000e+000 94379 -4.4421e+002 -4.5377e+002  1.6756e+002 44237 93840,94330,94186
 1.3000e+000 94428 -5.0577e+002 -3.7630e+002  2.1494e+002 44237 93970,93944,94402
 1.3000e+000 94451 -4.4746e+002 -3.7911e+002  1.7376e+002 44237 93970,94402,94258
 1.3000e+000 94908 -1.6261e+002 -3.4475e+002  1.6914e+001 43890 94660,94790,94712
 1.3000e+000 94885 -9.2331e+001 -9.4112e+001  8.9535e+001 43890 94634,94790,94660
 1.3000e+000 94862 -3.1853e+002 -1.5359e+002  1.7377e+002 43890 94712,94764,94738
 1.3000e+000 94839 -1.0765e+002 -3.4682e+002  2.0650e+002 43890 94712,94790,94764
 1.3000e+000 94816 -2.3032e+002 -2.5454e+002 -8.8808e+001 43890 94660,94712,94686
 1.3000e+000 95414 -2.8683e+002 -2.3878e+002  1.3781e+002 43186 95437,95143,95117
 1.3000e+000 95391 -3.0987e+002 -4.3056e+002  1.7660e+002 43186 95437,95117,95091
 1.3000e+000 95368 -1.3114e+002 -1.7991e+002  1.4842e+002 43186 95143,95221,95195
 1.3000e+000 95345 -5.0607e+002 -3.9004e+002  4.0170e+002 43186 95091,95273,95221
 1.3000e+000 95322 -3.1887e+002 -2.2818e+002  1.9096e+002 43186 95221,95273,95247
 1.3000e+000 95299 -2.2102e+002 -3.3701e+002  1.0994e+002 43186 95143,95195,95169
 1.3000e+000 95463 -2.9230e+002 -3.6946e+002  2.2805e+002 43186 95221,95143,95437
 1.3000e+000 95486 -2.9427e+002 -5.2217e+002  2.7191e+002 43186 95221,95437,95091
 1.3000e+000 96041 -4.7829e+002 -4.7001e+002  1.2510e+002 42782 95695,95851,95799
 1.3000e+000 96018 -4.4028e+002 -5.5537e+002  1.2736e+002 42782 95669,95851,95695
 1.3000e+000 95995 -4.5262e+002 -2.9838e+002  1.4164e+002 42782 95695,95747,95721
 1.3000e+000 95972 -3.5081e+002 -4.1548e+002  1.2502e+002 42782 95695,95799,95747
 1.3000e+000 95949 -3.1498e+002 -2.7755e+002  9.2995e+001 42782 95747,95799,95773
 1.3000e+000 95926 -5.7192e+002 -5.6617e+002  1.8649e+002 42782 95799,95851,95825
 1.3000e+000 95903 -6.0302e+002 -6.3607e+002  1.5528e+002 42782 95669,95877,95851
 1.3000e+000 96370 -4.8247e+002 -6.2392e+002  2.8292e+002 42420 96197,96275,96223
 1.3000e+000 96347 -4.5220e+002 -5.4397e+002  2.8539e+002 42420 96145,96275,96197
 1.3000e+000 96324 -4.4038e+002 -3.9038e+002  2.7719e+002 42420 96145,96197,96171
 1.3000e+000 96301 -3.4622e+002 -4.6459e+002  1.8773e+002 42420 96223,96275,96249
 1.3000e+000 96699 -2.6364e+002 -3.0339e+002  6.1336e+001 41816 96474,96578,96526
 1.3000e+000 96676 -3.6826e+002 -2.3085e+002 -5.7272e+001 41816 96474,96604,96578
 1.3000e+000 96653 -2.3345e+002 -1.9035e+002  1.0420e+002 41816 96526,96578,96552
 1.3000e+000 96630 -2.6873e+002 -2.9341e+002  7.6033e+001 41816 96474,96526,96500
 1.3000e+000 96947 -1.8805e+002 -4.4902e+002  1.6743e+002 41212 96722,96800,96748
 1.3000e+000 96924 -2.8224e+002 -3.8428e+002  2.1266e+002 41212 96722,96826,96800
 1.3000e+000 96901 -3.6485e+002 -4.3112e+002  2.3258e+002 41212 96722,96852,96826
 1.3000e+000 96878 -3.1191e+002 -5.1223e+002  1.2183e+002 41212 96748,96800,96774
 1.3000e+000 97097 -2.3048e+002 -1.3168e+002  2.1610e+002 40793 97120,97022,96996
 1.3000e+000 97074 -4.1811e+002 -5.1334e+002  1.4042e+002 40793 97192,97120,96996
 1.3000e+000 97146 -1.7840e+002 -4.3042e+002  1.9632e+002 40793 97324,97120,97048
 1.3000e+000 97169 -1.5316e+002 -6.6525e+002  1.9196e+002 40793 97048,97120,96970
 1.3000e+000 97218 -6.3087e+001 -3.6152e+002  1.4086e+002 40793 96970,97120,97192
 1.3000e+000 97350 -1.7840e+002 -4.3042e+002  1.9632e+002 40793 97022,97120,97324
 1.3000e+000 97878 -2.6260e+002 -5.3031e+002  1.1797e+002 40446 97901,97607,97555
 1.3000e+000 97855 -2.6810e+002 -3.7841e+002  1.2543e+002 40446 97973,97901,97555
 1.3000e+000 97832 -2.0678e+002 -3.2515e+002  9.6896e+001 40446 97973,97555,97737
 1.3000e+000 97809 -3.9720e+002 -5.3968e+002  1.6902e+002 40446 97633,97685,97659
 1.3000e+000 97786 -2.9291e+002 -4.3426e+002  1.1684e+002 40446 97633,97711,97685
 1.3000e+000 97763 -2.6512e+002 -6.2793e+002  1.4099e+002 40446 97555,97607,97581
 1.3000e+000 97927 -3.0624e+002 -6.6014e+002 -1.3054e+001 40446 97633,97607,97901
 1.3000e+000 97950 -2.6389e+002 -5.0675e+002  9.7332e+001 40446 97633,97901,97711
 1.3000e+000 97999 -1.7557e+002 -4.9371e+002  1.5811e+002 40446 97711,97901,97973
 1.3000e+000 98022 -1.2078e+002 -4.2569e+002  1.3277e+002 40446 97711,97973,97737
 1.3000e+000 98449 -2.0929e+002 -1.4902e+002  1.3318e+002 39935 98152,98204,98178
 1.3000e+000 98426 -3.0852e+002 -2.2906e+002  8.8650e+001 39935 98152,98230,98204
 1.3000e+000 98403 -4.2021e+002 -2.4524e+002  1.9543e+002 39935 98152,98256,98230
 1.3000e+000 98380 -2.9917e+002 -3.0760e+002  2.1340e+002 39935 98126,98256,98152
 1.3000e+000 98357 -4.1911e+002 -5.8742e+002  2.3837e+002 39935 98126,98282,98256
 1.3000e+000 98334 -2.4694e+002 -7.4231e+002  2.8740e+002 39935 98126,98308,98282
 1.3000e+000 98746 -7.2050e+002 -5.1498e+002  1.7295e+002 39531 98498,98602,98524
 1.3000e+000 98723 -4.7349e+002 -4.5938e+002  1.6736e+002 39531 98472,98602,98498
 1.3000e+000 98700 -7.0155e+002 -3.5280e+002  1.4881e+002 39531 98524,98602,98576
 1.3000e+000 98677 -3.5911e+002 -4.6934e+002  1.7910e+002 39531 98472,98628,98602
 1.3000e+000 98654 -1.5066e+003 -4.5580e+002  1.9442e+002 39531 98524,98576,98550
 1.3000e+000 99224 -5.7760e+002 -2.9880e+002  4.8299e+002 39027 99247,98956,98930
 1.3000e+000 99201 -5.4222e+002 -3.3562e+002  2.3227e+002 39027 99247,98930,98878
 1.3000e+000 99178 -4.3556e+002 -4.0935e+002  3.1016e+002 39027 99319,98982,98956
 1.3000e+000 99155 -4.4540e+002 -2.8230e+002  1.8467e+002 39027 98852,99060,98878
 1.3000e+000 99132 -7.1049e+002 -3.0231e+002  2.1176e+002 39027 98878,98930,98904
 1.3000e+000 99109 -4.4861e+002 -7.8963e+002  4.0371e+002 39027 98982,99060,99034
 1.3000e+000 99086 -6.3192e+002 -1.0684e+003  6.7519e+002 39027 98982,99034,99008
 1.3000e+000 99273 -3.8342e+002 -3.0647e+002  3.3067e+002 39027 99319,98956,99247
 1.3000e+000 99296 -4.1259e+002 -2.8553e+002  1.8960e+002 39027 99060,99247,98878
 1.3000e+000 99345 -4.2432e+002 -4.5527e+002  2.5184e+002 39027 99060,98982,99319
 1.3000e+000 99368 -4.2295e+002 -4.3002e+002  2.6476e+002 39027 99060,99319,99247
 1.3000e+000 99923 -5.0404e+002 -4.1466e+002  2.1367e+002 38523 99946,99655,99603
 1.3000e+000 99900 -4.0300e+002 -3.6951e+002  2.2226e+002 38523 99946,99603,99759
 1.3000e+000 99877 -2.5724e+002 -5.2386e+002  2.7490e+002 38523 100018,99707,99681
 1.3000e+000 99854 -4.2822e+002 -2.5619e+002  2.1108e+002 38523 99551,99759,99603
 1.3000e+000 99831 -4.2466e+002 -2.5807e+002  2.0595e+002 38523 99551,99603,99577
 1.3000e+000 99808 -4.4581e+002 -6.4827e+002  1.8451e+002 38523 99707,99759,99733
 1.3000e+000 99785 -3.8073e+002 -3.5861e+002  1.8163e+002 38523 99603,99655,99629
 1.3000e+000 99972 -4.0904e+002 -2.2735e+002  2.5768e+002 38523 99681,99655,99946
 1.3000e+000 99995 -3.0681e+002 -3.0118e+002  3.2089e+002 38523 100018,99681,99946
 1.3000e+000 100044 -3.4371e+002 -6.1652e+002  1.7459e+002 38523 99759,99707,100018
 1.3000e+000 100067 -4.6910e+002 -5.2808e+002  2.2227e+002 38523 99759,100018,99946
 1.3000e+000 100467 -1.7641e+002 -2.2214e+002  1.1247e+002 38125 100219,100349,100323
 1.3000e+000 100444 -3.9475e+001 -1.0428e+002  1.8559e+002 38125 100193,100349,100219
 1.3000e+000 100421 -9.1113e+001 -2.6849e+002  1.0994e+002 38125 100245,100323,100297
 1.3000e+000 100398 -7.3251e+001 -1.7645e+002  1.2370e+002 38125 100219,100323,100245
 1.3000e+000 100375 -1.5452e+002 -2.6913e+002  1.6676e+002 38125 100245,100297,100271
 1.3000e+000 100666 -4.1822e+002 -5.7123e+002  1.7962e+002 37607 100689,100568,100542
 1.3000e+000 100643 -3.4869e+002 -3.7702e+002  1.7182e+002 37607 100689,100542,100490
 1.3000e+000 100620 -3.1403e+002 -2.5826e+002  1.6108e+002 37607 100490,100542,100516
 1.3000e+000 100715 -3.6764e+002 -3.8138e+002  1.4742e+002 37607 100594,100568,100689
 1.3000e+000 100738 -3.9569e+002 -3.2677e+002  1.5221e+002 37607 100594,100689,100490
 1.3000e+000 100937 -3.4347e+002 -2.0644e+002  3.0238e+002 37017 100960,100813,100787
 1.3000e+000 100914 -2.9914e+002 -2.2701e+002  1.8343e+002 37017 100960,100787,100761
 1.3000e+000 100891 -4.9695e+002 -1.8383e+002  3.0764e+002 37017 100813,100865,100839
 1.3000e+000 100986 -4.2914e+002 -3.4028e+002  3.4795e+002 37017 100865,100813,100960
 1.3000e+000 101009 -3.4215e+002 -3.1553e+002  2.1932e+002 37017 100865,100960,100761
 1.3000e+000 101519 -4.7910e+002 -2.5143e+002  1.1966e+002 36613 101222,101274,101248
 1.3000e+000 101496 -1.9370e+002 -1.7315e+002  1.1870e+002 36613 101222,101352,101274
 1.3000e+000 101473 -1.3656e+002 -2.9637e+002  1.4976e+001 36613 101274,101352,101326
 1.3000e+000 101450 -2.9487e+002 -1.7582e+002  1.1757e+002 36613 101222,101378,101352
 1.3000e+000 101427 -1.6170e+002 -5.0455e+002  1.7780e+001 36613 101274,101326,101300
 1.3000e+000 101404 -3.0047e+002 -1.8076e+002  1.0592e+002 36613 101196,101378,101222
 1.3000e+000 101718 -3.5429e+002 -2.3116e+002  2.9746e+002 36308 101594,101646,101620
 1.3000e+000 101695 -3.5795e+002 -1.7727e+002  2.4481e+002 36308 101568,101646,101594
 1.3000e+000 101672 -2.6837e+002 -2.3973e+002  2.5350e+002 36308 101542,101646,101568
 1.3000e+000 102098 -3.9350e+002 -2.8500e+002  1.8300e+002 35918 102121,101954,101876
 1.3000e+000 102075 -3.3227e+002 -3.5277e+002  1.5176e+002 35918 102121,101876,101824
 1.3000e+000 102052 -4.0548e+002 -2.9141e+002  1.5684e+002 35918 101876,101954,101928
 1.3000e+000 102029 -5.5277e+002 -1.1981e+002  1.7586e+002 35918 101876,101928,101902
 1.3000e+000 102006 -3.0141e+002 -2.6650e+002  1.2342e+002 35918 101824,101876,101850
 1.3000e+000 102147 -4.1125e+002 -3.4789e+002  2.1408e+002 35918 101980,101954,102121
 1.3000e+000 102170 -3.5161e+002 -4.2242e+002  1.7589e+002 35918 101980,102121,101824
 1.3000e+000 102489 -3.7926e+002 -8.7114e+002  2.8254e+002 35514 102241,102345,102267
 1.3000e+000 102466 -5.0205e+002 -9.0440e+002  2.7984e+002 35514 102215,102345,102241
 1.3000e+000 102443 -4.0510e+002 -9.7756e+002  2.9342e+002 35514 102215,102371,102345
 1.3000e+000 102420 -3.2300e+002 -7.7090e+002  3.1299e+002 35514 102267,102345,102293
 1.3000e+000 102397 -2.0146e+002 -5.1557e+002  3.5080e+002 35514 102293,102345,102319
 1.3000e+000 102820 -5.5323e+002 -3.7828e+002  1.0282e+002 35224 102843,102699,102647
 1.3000e+000 102797 -5.5333e+002 -4.3598e+002  2.1065e+002 35224 102971,102725,102699
 1.3000e+000 102774 -7.5073e+002 -5.3266e+002  3.9577e+002 35224 102595,102725,102621
 1.3000e+000 102751 -2.2740e+002 -1.9890e+002  1.9799e+002 35224 102647,102699,102673
 1.3000e+000 102869 -5.1125e+002 -3.6190e+002  1.8217e+002 35224 102971,102699,102843
 1.3000e+000 102997 -4.7389e+002 -5.0662e+002  1.9810e+002 35224 102621,102725,102971
 1.3000e+000 103020 -4.4420e+002 -4.5424e+002  1.6730e+002 35224 102621,102971,102843
 1.3000e+000 103349 -5.0663e+002 -3.9200e+002  2.3701e+002 34820 103150,103228,103176
 1.3000e+000 103326 -4.4317e+002 -4.2070e+002  2.3434e+002 34820 103124,103228,103150
 1.3000e+000 103303 -4.0333e+002 -4.1508e+002  4.0505e+002 34820 103176,103228,103202
 1.3000e+000 103280 -2.8114e+002 -3.4891e+002  2.6430e+002 34820 103124,103254,103228
 1.3000e+000 103806 -4.7107e+002 -3.3420e+002  1.6925e+002 34530 103558,103662,103636
 1.3000e+000 103783 -4.3545e+002 -3.5742e+002  1.1949e+002 34530 103558,103688,103662
 1.3000e+000 103760 -4.8835e+002 -4.9082e+002  1.1628e+002 34530 103532,103688,103558
 1.3000e+000 103737 -3.2344e+002 -4.2363e+002  1.6830e+002 34530 103584,103636,103610
 1.3000e+000 103714 -7.4509e+002 -4.1870e+002  1.9826e+002 34530 103558,103636,103584
 1.3000e+000 104263 -2.4493e+002 -2.8772e+002  1.9430e+002 34019 103989,104119,104015
 1.3000e+000 104240 -2.0432e+002 -2.6607e+002  2.1107e+002 34019 103989,104145,104119
 1.3000e+000 104217 -2.4112e+002 -3.3656e+002  1.1653e+002 34019 104015,104067,104041
 1.3000e+000 104194 -2.9824e+002 -3.7052e+002  1.6773e+002 34019 104015,104119,104067
 1.3000e+000 104171 -2.8311e+002 -2.3414e+002  1.5294e+002 34019 104067,104119,104093
 1.3000e+000 104641 -4.0361e+002 -2.4484e+002  1.6193e+002 33351 104419,104497,104445
 1.3000e+000 104618 -3.3454e+002 -1.7553e+002  1.9907e+002 33351 104393,104497,104419
 1.3000e+000 104595 -5.9572e+002 -2.9749e+002  1.4367e+002 33351 104367,104497,104393
 1.3000e+000 104572 -4.2922e+002 -3.0393e+002  1.6288e+002 33351 104445,104497,104471
 1.3000e+000 104549 -4.5921e+002 -2.1650e+002  6.1964e+001 33351 104367,104523,104497
 1.3000e+000 105019 -3.5488e+002 -7.0691e+002  3.5866e+002 32861 104823,104901,104875
 1.3000e+000 104996 -4.8143e+002 -7.9992e+002  3.0029e+002 32861 104745,104901,104823
 1.3000e+000 104973 -5.2273e+002 -7.8028e+002  3.3191e+002 32861 104823,104875,104849
 1.3000e+000 104950 -4.8390e+002 -7.8030e+002  3.9363e+002 32861 104745,104823,104797
 1.3000e+000 104927 -5.4913e+002 -3.0300e+002  4.0545e+002 32861 104745,104797,104771
 1.3000e+000 105397 -2.5318e+002 -4.9329e+002  2.2210e+002 32457 105149,105253,105175
 1.3000e+000 105374 -3.7194e+002 -4.1838e+002  1.8302e+002 32457 105149,105279,105253
 1.3000e+000 105351 -2.4918e+002 -3.5479e+002  2.0791e+002 32457 105123,105279,105149
 1.3000e+000 105328 -3.4907e+002 -9.4901e+001  2.6373e+002 32457 105175,105227,105201
 1.3000e+000 105305 -4.8437e+002 -5.9249e+002  2.1917e+002 32457 105175,105253,105227
 1.3000e+000 105726 -1.7103e+002 -5.0703e+002  2.2514e+002 32003 105527,105605,105553
 1.3000e+000 105703 -2.8368e+002 -4.3589e+002  2.1167e+002 32003 105501,105605,105527
 1.3000e+000 105680 -1.4279e+002 -3.7841e+002  2.0751e+002 32003 105501,105631,105605
 1.3000e+000 105657 -8.0148e+001 -2.9960e+002  2.0219e+002 32003 105553,105605,105579
 1.3000e+000 106104 -4.0955e+002 -4.1491e+002  1.8173e+002 31492 106127,105908,105856
 1.3000e+000 106081 -3.2278e+002 -3.6590e+002  1.0692e+002 31492 106127,105856,105830
 1.3000e+000 106058 -3.0120e+002 -6.1497e+002  2.1416e+002 31492 105856,105908,105882
 1.3000e+000 106035 -1.0361e+002 -3.2502e+002  1.0812e+002 31492 105830,105986,105960
 1.3000e+000 106012 -2.0356e+002 -5.1875e+002  3.2524e+002 31492 105908,105960,105934
 1.3000e+000 106153 -4.4819e+002 -4.4866e+002  2.2015e+002 31492 105960,105908,106127
 1.3000e+000 106176 -4.0750e+002 -4.6047e+002  1.5534e+002 31492 105960,106127,105830
 1.3000e+000 106375 -3.8345e+002 -3.9152e+002  2.6674e+002 30788 106398,106277,106251
 1.3000e+000 106352 -4.2069e+002 -5.2988e+002  2.6578e+002 30788 106398,106251,106225
 1.3000e+000 106329 -5.6848e+002 -4.3291e+002  3.6810e+002 30788 106600,106199,106303
 1.3000e+000 106424 -5.3644e+002 -6.0258e+002  1.9379e+002 30788 106470,106398,106303
 1.3000e+000 106447 -4.0911e+002 -4.9729e+002  2.6004e+002 30788 106600,106303,106398
 1.3000e+000 106496 -1.5395e+002 -4.3944e+002  2.1883e+002 30788 106277,106398,106470
 1.3000e+000 106626 -6.6608e+002 -5.6439e+002  4.4538e+002 30788 106225,106199,106600
 1.3000e+000 106649 -5.5556e+002 -6.3552e+002  3.3591e+002 30788 106225,106600,106398
 1.3000e+000 106799 -1.5826e+002 -6.9394e+002  2.1722e+001 30426 106698,106750,106724
 1.3000e+000 106776 -1.4746e+002 -3.4476e+002  4.6380e+001 30426 106672,106750,106698
 1.3000e+000 107356 -4.4168e+002 -3.4486e+002  1.7779e+002 29972 107010,107166,107114
 1.3000e+000 107333 -4.2305e+002 -3.3396e+002  1.8294e+002 29972 106984,107166,107010
 1.3000e+000 107310 -4.4188e+002 -1.7600e+002  1.0503e+002 29972 107010,107114,107088
 1.3000e+000 107287 -4.1528e+002 -1.8205e+002  1.3954e+002 29972 107114,107166,107140
 1.3000e+000 107264 -4.2855e+002 -3.8905e+002  2.1462e+002 29972 106984,107192,107166
 1.3000e+000 107241 -5.1162e+002 -3.2925e+002  1.2469e+002 29972 107010,107088,107036
 1.3000e+000 107218 -4.0169e+002 -2.7702e+002  9.4950e+001 29972 107036,107088,107062
 1.3000e+000 107783 -4.5900e+002 -6.0483e+002  2.9942e+002 29724 107878,107806,107590
 1.3000e+000 107760 -6.1358e+002 -6.5629e+002  2.6205e+002 29724 107806,107512,107486
 1.3000e+000 107737 -4.6441e+002 -5.8140e+002  3.2856e+002 29724 107878,107590,107538
 1.3000e+000 107714 -4.6773e+002 -6.8838e+002  3.3864e+002 29724 107950,107460,107616
 1.3000e+000 107691 -4.4473e+002 -6.7112e+002  3.1502e+002 29724 107460,107642,107616
 1.3000e+000 107668 -3.2205e+002 -4.5057e+002  3.8299e+002 29724 107538,107590,107564
 1.3000e+000 107832 -3.3208e+002 -6.1128e+002  3.6637e+002 29724 107616,107590,107806
 1.3000e+000 107855 -4.7206e+002 -6.9420e+002  3.2539e+002 29724 107950,107616,107806
 1.3000e+000 107904 -4.5863e+002 -5.5908e+002  3.2495e+002 29724 107512,107806,107878
 1.3000e+000 107927 -4.1523e+002 -5.0501e+002  3.6501e+002 29724 107512,107878,107538
 1.3000e+000 107976 -2.9932e+002 -7.0217e+002  3.7773e+002 29724 107486,107460,107950
 1.3000e+000 107999 -4.5241e+002 -7.4318e+002  3.1703e+002 29724 107486,107950,107806
 1.3000e+000 108296 -4.8099e+002 -4.0421e+002  2.5085e+002 29206 108319,108100,108048
 1.3000e+000 108273 -2.8036e+002 -3.6301e+002  3.0426e+002 29206 108319,108048,108022
 1.3000e+000 108250 -1.6256e+002 -4.2955e+002  3.6943e+002 29206 108391,108152,108126
 1.3000e+000 108227 -5.8961e+002 -2.8357e+002  3.2258e+002 29206 108048,108100,108074
 1.3000e+000 108204 -2.2806e+002 -5.7517e+002  3.2015e+002 29206 108022,108178,108152
 1.3000e+000 108345 -3.5550e+002 -2.4522e+002  3.6274e+002 29206 108126,108100,108319
 1.3000e+000 108368 -2.0901e+002 -3.5242e+002  4.1192e+002 29206 108391,108126,108319
 1.3000e+000 108417 -2.7858e+002 -5.2257e+002  3.1882e+002 29206 108022,108152,108391
 1.3000e+000 108440 -3.1469e+002 -4.6406e+002  3.6393e+002 29206 108022,108391,108319
 1.3000e+000 108688 -5.6137e+002 -5.9701e+002  3.2228e+002 28595 108711,108541,108515
 1.3000e+000 108665 -7.8690e+002 -6.4327e+002  4.6549e+002 28595 108783,108711,108515
 1.3000e+000 108642 -9.4274e+002 -5.6718e+002  4.6541e+002 28595 108783,108515,108489
 1.3000e+000 108619 -9.3977e+002 -7.1461e+002  2.3875e+002 28595 108463,108593,108489
 1.3000e+000 108737 -5.0457e+002 -4.5941e+002  2.2307e+002 28595 108567,108541,108711
 1.3000e+000 108760 -4.4343e+002 -5.2038e+002  4.0714e+002 28595 108567,108711,108593
 1.3000e+000 108809 -5.2980e+002 -6.5471e+002  3.5863e+002 28595 108593,108711,108783
 1.3000e+000 108832 -7.6647e+002 -6.2499e+002  3.1846e+002 28595 108593,108783,108489
 1.3000e+000 109033 -2.1997e+002 -3.0164e+002  1.5534e+002 28091 108909,108961,108935
 1.3000e+000 109010 -3.2006e+002 -2.9311e+002  1.3230e+002 28091 108857,108961,108909
 1.3000e+000 108987 -4.9074e+002 -4.3625e+002  3.4033e+002 28091 108857,108909,108883
 1.3000e+000 109136 -3.8616e+002 -9.1128e+002  1.6565e+002 27587 109058,109110,109084
 1.3000e+000 109695 -4.1565e+002 -4.1454e+002  1.5302e+002 26969 109718,109375,109323
 1.3000e+000 109672 -4.0049e+002 -3.8489e+002  1.4621e+002 26969 109718,109323,109505
 1.3000e+000 109649 -4.6846e+002 -1.5447e+002  8.0785e+001 26969 109790,109453,109427
 1.3000e+000 109626 -1.8198e+002 -3.9927e+002  2.0464e+002 26969 109323,109375,109349
 1.3000e+000 109603 -4.8386e+002 -4.9939e+002  2.0783e+002 26969 109323,109531,109505
 1.3000e+000 109580 -2.5998e+002 -4.4931e+002  9.1344e+001 26969 109375,109427,109401
 1.3000e+000 109557 -5.0104e+002 -2.1369e+002  1.0592e+002 26969 109453,109505,109479
 1.3000e+000 109744 -4.1661e+002 -4.4291e+002  8.2712e+001 26969 109427,109375,109718
 1.3000e+000 109767 -3.4718e+002 -2.6298e+002  7.3061e+001 26969 109790,109427,109718
 1.3000e+000 109816 -5.2620e+002 -2.6835e+002  1.2967e+002 26969 109505,109453,109790
 1.3000e+000 109839 -4.4454e+002 -4.0567e+002  1.4000e+002 26969 109505,109790,109718
 1.3000e+000 110266 -3.4090e+002 -4.9464e+002  1.8426e+002 26515 110361,110289,110099
 1.3000e+000 110243 -3.0425e+002 -3.9625e+002  2.4877e+002 26515 110289,109995,109943
 1.3000e+000 110220 -3.6576e+002 -5.0821e+002  1.9503e+002 26515 110361,110099,110021
 1.3000e+000 110197 -3.5069e+002 -8.8278e+002  1.3115e+002 26515 110047,110099,110073
 1.3000e+000 110174 -3.7866e+002 -8.6801e+002  8.4830e+000 26515 110021,110099,110047
 1.3000e+000 110151  2.2937e+001 -3.7017e+000  3.9990e+002 26515 109943,109995,109969
 1.3000e+000 110315 -5.7006e+002 -3.6573e+002  1.5901e+002 26515 110125,110099,110289
 1.3000e+000 110338 -3.5505e+002 -1.3030e+002  3.2839e+002 26515 110125,110289,109943
 1.3000e+000 110387 -3.5921e+002 -4.5730e+002  1.4998e+002 26515 109995,110289,110361
 1.3000e+000 110410 -3.8413e+002 -4.7895e+002  1.6127e+002 26515 109995,110361,110021
 1.3000e+000 110609 -1.6262e+002 -5.5333e+002  2.0913e+002 25789 110906,110762,110632
 1.3000e+000 110586 -1.7077e+002 -6.8377e+002  2.3733e+002 25789 110762,110433,110537
 1.3000e+000 110563 -3.8499e+002 -6.1018e+002  3.4332e+002 25789 110834,110459,110433
 1.3000e+000 110658 -2.3708e+002 -5.3583e+002  2.6423e+002 25789 110906,110632,110834
 1.3000e+000 110788 -1.1909e+002 -3.6538e+002  1.3750e+002 25789 110511,110632,110762
 1.3000e+000 110811 -1.6123e+002 -5.4928e+002  2.3892e+002 25789 110511,110762,110537
 1.3000e+000 110860 -2.5118e+002 -5.3852e+002  3.0940e+002 25789 110485,110459,110834
 1.3000e+000 110883 -3.0045e+002 -5.5248e+002  2.7284e+002 25789 110485,110834,110632
 1.3000e+000 110932 -3.1650e+002 -6.0153e+002  2.2043e+002 25789 110433,110762,110906
 1.3000e+000 110955 -3.7547e+002 -5.6550e+002  2.6433e+002 25789 110433,110906,110834
 1.3000e+000 111350 -4.0512e+002 -5.0213e+002  3.1947e+002 25228 111445,111373,111186
 1.3000e+000 111327 -4.4866e+002 -5.3814e+002  1.3993e+002 25228 110978,111186,111004
 1.3000e+000 111304 -4.4394e+002 -6.3165e+002  2.6736e+002 25228 111373,111108,111082
 1.3000e+000 111281 -3.6624e+002 -6.7341e+002  2.7289e+002 25228 111134,111186,111160
 1.3000e+000 111258 -3.9170e+002 -4.7804e+002  3.2674e+002 25228 111445,111186,111134
 1.3000e+000 111235 -3.7765e+002 -4.2337e+002  1.7773e+002 25228 111517,111030,111004
 1.3000e+000 111212 -5.7446e+002 -5.2405e+002  2.7204e+002 25228 111030,111082,111056
 1.3000e+000 111399 -4.1612e+002 -5.6970e+002  3.0550e+002 25228 111004,111186,111373
 1.3000e+000 111422 -3.2476e+002 -4.7639e+002  2.4784e+002 25228 111517,111004,111373
 1.3000e+000 111471 -4.2931e+002 -4.9575e+002  2.7918e+002 25228 111108,111373,111445
 1.3000e+000 111494 -4.1253e+002 -4.6487e+002  2.8733e+002 25228 111108,111445,111134
 1.3000e+000 111543 -4.9086e+002 -4.6721e+002  2.2420e+002 25228 111082,111030,111517
 1.3000e+000 111566 -4.3863e+002 -5.3606e+002  2.9641e+002 25228 111082,111517,111373
 1.3000e+000 112074 -3.4772e+002 -3.9663e+002  2.7617e+002 24338 112097,111907,111881
 1.3000e+000 112051 -4.8196e+002 -4.0164e+002  1.9974e+002 24338 112097,111881,111829
 1.3000e+000 112028 -2.5001e+002 -4.7021e+002  1.4714e+002 24338 111829,111881,111855
 1.3000e+000 112005 -6.2259e+002 -6.2165e+002  1.8104e+002 24338 111777,111933,111829
 1.3000e+000 111982 -7.5156e+002 -1.9013e+002  2.1531e+002 24338 111751,111933,111777
 1.3000e+000 111959 -6.6807e+002 -7.0384e+002  2.2323e+002 24338 111777,111829,111803
 1.3000e+000 112123 -4.7173e+002 -5.7295e+002  2.0535e+002 24338 111933,111907,112097
 1.3000e+000 112146 -5.3627e+002 -4.2471e+002  1.6834e+002 24338 111933,112097,111829
 1.3000e+000 112443 -5.8901e+002 -4.0122e+002  2.6255e+002 23998 112466,112299,112247
 1.3000e+000 112420 -6.2665e+002 -6.8502e+002  2.2710e+002 23998 112466,112247,112221
 1.3000e+000 112397 -5.7840e+002 -6.9504e+002  3.5307e+002 23998 112169,112325,112221
 1.3000e+000 112374 -5.5290e+002 -6.1531e+002  3.5617e+002 23998 112169,112221,112195
 1.3000e+000 112351 -2.1075e+002 -3.7257e+002  3.0817e+002 23998 112247,112299,112273
 1.3000e+000 112492 -5.4158e+002 -4.4243e+002  4.2937e+002 23998 112325,112299,112466
 1.3000e+000 112515 -6.0037e+002 -6.0478e+002  3.6275e+002 23998 112325,112466,112221
 1.3000e+000 113200 -5.5794e+002 -6.4948e+002  4.2658e+002 23480 112779,112961,112805
 1.3000e+000 113177 -5.8138e+002 -4.7298e+002  2.1225e+002 23480 112779,112987,112961
 1.3000e+000 113154 -2.0357e+002 -3.7192e+002  2.8490e+002 23480 112805,112961,112883
 1.3000e+000 113131 -3.7818e+002 -6.0562e+002  2.9982e+002 23480 112883,112935,112909
 1.3000e+000 113108 -4.7469e+002 -4.8543e+002  3.0269e+002 23480 112883,112961,112935
 1.3000e+000 113085 -2.3283e+002 -3.1350e+002  1.4316e+002 23480 112831,112883,112857
 1.3000e+000 113062 -3.3388e+002 -3.7355e+002  1.8655e+002 23480 112805,112883,112831
 1.3000e+000 113039 -6.6836e+002 -3.7044e+002  2.3295e+002 23480 112779,113013,112987
 1.3000e+000 113676 -5.0864e+002 -2.9261e+002  3.8071e+002 23018 113699,113434,113356
 1.3000e+000 113653 -4.6173e+002 -2.8849e+002  2.2820e+002 23018 113771,113699,113356
 1.3000e+000 113630 -4.2174e+002 -4.2282e+002  1.6856e+002 23018 113771,113356,113512
 1.3000e+000 113607 -3.1760e+002 -5.6189e+002  2.5722e+002 23018 113330,113512,113356
 1.3000e+000 113584 -1.0288e+003 -5.0800e+002  5.7231e+002 23018 113356,113434,113382
 1.3000e+000 113561 -1.2045e+002 -5.2703e+002  2.5159e+002 23018 113304,113512,113330
 1.3000e+000 113538 -9.6684e+002 -1.1551e+002  2.5252e+002 23018 113382,113434,113408
 1.3000e+000 113725 -5.6669e+002 -4.3003e+002  3.8075e+002 23018 113460,113434,113699
 1.3000e+000 113748 -5.9135e+002 -4.5313e+002  2.6550e+002 23018 113460,113699,113486
 1.3000e+000 113797 -5.6957e+002 -4.8662e+002  2.6974e+002 23018 113486,113699,113771
 1.3000e+000 113820 -4.6675e+002 -5.1823e+002  1.8096e+002 23018 113486,113771,113512
 1.3000e+000 114424 -5.4755e+002 -5.0222e+002  1.1793e+002 22514 114447,114133,114029
 1.3000e+000 114401 -5.5450e+002 -6.1765e+002  1.1823e+002 22514 114447,114029,114237
 1.3000e+000 114378 -5.5101e+002 -3.7303e+002  8.0011e+001 22514 114133,114211,114185
 1.3000e+000 114355 -8.3918e+002 -4.0391e+002  3.2269e+001 22514 114133,114185,114159
 1.3000e+000 114332 -4.5390e+002 -6.4958e+002  2.8076e+002 22514 114003,114237,114029
 1.3000e+000 114309 -5.9265e+002 -4.4105e+002  6.7126e+001 22514 114029,114133,114055
 1.3000e+000 114286 -6.5209e+002 -4.3634e+002  9.2858e+001 22514 114055,114133,114107
 1.3000e+000 114263 -5.0952e+002 -4.1248e+001  1.0946e+002 22514 114055,114107,114081
 1.3000e+000 114473 -5.7754e+002 -4.3811e+002  1.6309e+002 22514 114211,114133,114447
 1.3000e+000 114496 -5.6376e+002 -5.2400e+002  1.6094e+002 22514 114211,114447,114237
 1.3000e+000 114597 -2.9020e+002 -7.3538e+002  3.9585e+002 22316 114620,114571,114545
 1.3000e+000 114646 -2.9020e+002 -7.3538e+002  3.9585e+002 22316 114519,114571,114620
 1.3000e+000 115127 -6.9948e+002 -4.8607e+002  2.4380e+002 21612 115150,114905,114879
 1.3000e+000 115104 -8.0686e+002 -2.9547e+002  2.6590e+002 21612 115150,114879,114853
 1.3000e+000 115081 -5.4690e+002 -1.3470e+002  3.6912e+002 21612 115222,114931,114905
 1.3000e+000 115058 -6.0748e+002 -3.8156e+002  3.0324e+002 21612 115222,114905,115009
 1.3000e+000 115035 -3.0944e+002 -5.1140e+002  2.3207e+002 21612 114957,115009,114983
 1.3000e+000 115176 -6.3567e+002 -3.5560e+002  2.2261e+002 21612 115009,114905,115150
 1.3000e+000 115199 -7.2401e+002 -1.3682e+002  2.3581e+002 21612 115009,115150,114853
 1.3000e+000 115248 -5.2696e+002 -3.6438e+002  2.9945e+002 21612 114957,114931,115222
 1.3000e+000 115271 -5.8209e+002 -6.0087e+002  2.3187e+002 21612 114957,115222,115009
 1.3000e+000 115519 -1.7805e+002  9.0531e+001  1.8406e+002 21208 115542,115372,115320
 1.3000e+000 115496  9.3973e+000  2.1834e+002  7.4777e-001 21208 115542,115320,115294
 1.3000e+000 115473 -1.1840e+002 -3.0082e+002  2.5977e+002 21208 115320,115372,115346
 1.3000e+000 115450 -3.9247e+002 -1.1888e+002  8.8293e+001 21208 115294,115424,115398
 1.3000e+000 115568 -2.5676e+002  1.6686e+001  2.5953e+002 21208 115398,115372,115542
 1.3000e+000 115591 -1.8847e+002 -9.4897e+001  1.0880e+002 21208 115398,115542,115294
 1.3000e+000 115839 -5.1522e+002 -3.5059e+002  3.1378e+002 20668 115862,115640,115614
 1.3000e+000 115816 -5.6109e+002 -3.8352e+002  3.3758e+002 20668 115862,115614,115744
 1.3000e+000 115793 -6.8444e+002 -2.9234e+002  3.1415e+002 20668 115640,115718,115692
 1.3000e+000 115770 -7.5534e+002 -3.0665e+002  3.1102e+002 20668 115640,115692,115666
 1.3000e+000 115888 -5.7878e+002 -2.7912e+002  3.4210e+002 20668 115718,115640,115862
 1.3000e+000 115911 -6.3603e+002 -3.4678e+002  3.7682e+002 20668 115718,115862,115744
 1.3000e+000 116134 -3.1728e+002 -5.3654e+002  3.0355e+002 20264 115958,116036,115984
 1.3000e+000 116111 -1.9215e+002 -4.7946e+002  2.9060e+002 20264 115958,116062,116036
 1.3000e+000 116088 -1.9867e+002 -5.0336e+002  3.2837e+002 20264 115984,116036,116010
 1.3000e+000 116384 -5.4567e+002 -3.4944e+002  3.4354e+002 19924 116407,116211,116159
 1.3000e+000 116361 -5.1272e+002 -5.6491e+002  2.8777e+002 19924 116407,116159,116263
 1.3000e+000 116338 -5.1987e+002 -2.4514e+002  3.3549e+002 19924 116159,116211,116185
 1.3000e+000 116315 -3.3729e+002 -5.7682e+002  3.7439e+002 19924 116159,116289,116263
 1.3000e+000 116433 -5.2555e+002 -2.3227e+002  3.9195e+002 19924 116237,116211,116407
 1.3000e+000 116456 -4.1167e+002 -3.7696e+002  3.6333e+002 19924 116237,116407,116263
 1.3000e+000 116608 -3.8065e+002 -1.2718e+002  2.3744e+002 19520 116703,116631,116533
 1.3000e+000 116585 -3.6904e+002 -1.6794e+002  2.0296e+002 19520 116631,116507,116481
 1.3000e+000 116657 -3.0687e+002 -1.7261e+002  2.5480e+002 19520 116559,116533,116631
 1.3000e+000 116680 -3.4888e+002 -2.7354e+002  2.1110e+002 19520 116559,116631,116481
 1.3000e+000 116729 -3.8065e+002 -1.2718e+002  2.3744e+002 19520 116507,116631,116703
 1.3000e+000 116952 -4.2408e+002 -3.7321e+002  5.1824e+002 19208 116975,116802,116776
 1.3000e+000 116929 -5.3714e+002 -7.0033e+002  3.0151e+002 19208 116975,116776,116880
 1.3000e+000 116906 -6.0618e+002 -2.5919e+002  3.6518e+002 19208 116802,116854,116828
 1.3000e+000 117001 -3.4136e+002 -3.1502e+002  5.4539e+002 19208 116854,116802,116975
 1.3000e+000 117024 -1.4201e+002 -4.0122e+002  4.3603e+002 19208 116854,116975,116880
 1.3000e+000 117428 -4.8229e+002 -1.8340e+002  2.8216e+002 18796 117154,117206,117180
 1.3000e+000 117405 -3.3315e+002 -3.5777e+002  2.5318e+002 18796 117154,117284,117206
 1.3000e+000 117382 -2.1995e+002 -3.0546e+002  2.7316e+002 18796 117154,117310,117284
 1.3000e+000 117359 -1.9727e+002 -2.5016e+002  3.3681e+002 18796 117206,117284,117258
 1.3000e+000 117336 -7.1346e+001 -5.5683e+001  4.5476e+002 18796 117206,117258,117232
 1.3000e+000 117529 -2.3978e+002 -1.2498e+002  1.4171e+002 18228 117810,117552,117477
 1.3000e+000 117578 -5.0511e+002 -3.3652e+002  2.1037e+002 18228 117682,117552,117503
 1.3000e+000 117708 -1.7943e+002 -1.7164e+002  1.3714e+002 18228 117477,117552,117682
 1.3000e+000 117836 -3.5730e+002 -3.4223e+002  2.0100e+002 18228 117451,117552,117810
 1.3000e+000 118364 -5.7013e+002 -1.9694e+002  2.0714e+002 17722 118067,118223,118093
 1.3000e+000 118341 -5.4495e+002 -8.2202e+001  2.0257e+002 17722 118041,118223,118067
 1.3000e+000 118318 -3.2826e+002 -1.7488e+002  1.4637e+002 17722 118093,118223,118197
 1.3000e+000 118295 -8.6396e+002 -8.2855e+002  5.2644e+002 17722 118119,118197,118171
 1.3000e+000 118272 -1.9002e+002 -4.5147e+001  2.3062e+002 17722 118093,118197,118119
 1.3000e+000 118249 -7.8804e+002 -3.0392e+002  4.3555e+002 17722 118119,118171,118145
 1.3000e+000 118514 -8.1032e+002 -3.2402e+002  2.9172e+002 17268 118387,118439,118413
 1.3000e+000 118491 -6.1272e+001 -3.4867e+002  3.0388e+002 17268 118387,118465,118439
 1.3000e+000 118916 -7.6841e+002 -2.7420e+002  1.9017e+002 16828 118668,118772,118694
 1.3000e+000 118893 -9.4744e+002 -3.5395e+002  1.6381e+002 16828 118668,118798,118772
 1.3000e+000 118870 -1.0358e+003 -6.1376e+002  1.2538e+002 16828 118642,118798,118668
 1.3000e+000 118847 -4.2385e+002 -1.8198e+002  3.6379e+002 16828 118694,118746,118720
 1.3000e+000 118824 -8.2447e+002 -4.8164e+002  1.7191e+002 16828 118694,118772,118746
 1.3000e+000 119316 -3.4748e+002 -2.6305e+002  3.6476e+002 16422 119042,119172,119094
 1.3000e+000 119293 -4.4926e+002 -2.8038e+002  3.7907e+002 16422 119042,119198,119172
 1.3000e+000 119270 -5.0806e+002 -1.7671e+002  2.2494e+002 16422 119042,119094,119068
 1.3000e+000 119247 -2.4759e+002 -1.4259e+002  5.0972e+002 16422 119094,119146,119120
 1.3000e+000 119224 -3.0387e+002 -1.8739e+002  3.8392e+002 16422 119094,119172,119146
 1.3000e+000 119466 -9.4966e+002 -2.4359e+002 -8.5345e+001 16010 119339,119391,119365
 1.3000e+000 119443 -4.4680e+002 -3.3237e+002  2.4244e+002 16010 119339,119417,119391
 1.3000e+000 119616 -2.1066e+002 -7.2270e+001  2.9254e+002 15547 119515,119567,119541
 1.3000e+000 119593  1.4567e+002  2.0189e+002  6.1966e+002 15547 119489,119567,119515
 1.3000e+000 119719 -6.6683e+002 -2.6262e+002  2.8913e+002 421 119641,119693,119667
 1.4000e+000 69562 -6.2065e+002 -2.9068e+002  4.8494e+002 69254 69484,69536,69510
 1.4000e+000 70009 -2.2003e+002 -2.5924e+002  2.4635e+002 68942 69686,69842,69816
 1.4000e+000 69986 -1.9791e+002 -1.0562e+002  1.4030e+002 68942 69686,69868,69842
 1.4000e+000 69963  5.1047e+001  2.7687e+001  3.5782e+002 68942 69686,69816,69712
 1.4000e+000 69940 -5.9446e+001 -6.3833e+001  5.2690e+002 68942 69712,69790,69738
 1.4000e+000 69917 -3.1455e+002 -8.1424e+002  4.0240e+002 68942 69712,69816,69790
 1.4000e+000 69894  1.6829e+001 -4.4683e+002  2.1514e+002 68942 69738,69790,69764
 1.4000e+000 70110 -3.0785e+002 -7.1369e+001  1.9853e+002 68766 70032,70084,70058
 1.4000e+000 70746 -2.1845e+002 -1.4936e+002  1.9921e+002 68448 70400,70556,70426
 1.4000e+000 70723 -6.2464e+002 -2.3400e+002  2.8798e+002 68448 70374,70556,70400
 1.4000e+000 70700 -3.2493e+002 -1.4820e+002  1.3891e+002 68448 70426,70556,70478
 1.4000e+000 70677 -4.9772e+002 -1.0690e+002  1.6209e+002 68448 70478,70556,70504
 1.4000e+000 70654 -3.3485e+002 -1.9142e+002  1.3802e+002 68448 70426,70478,70452
 1.4000e+000 70631 -6.2121e+002 -2.2331e+002  3.5697e+002 68448 70374,70582,70556
 1.4000e+000 70608 -5.2064e+002 -1.7433e+002  1.6458e+002 68448 70504,70556,70530
 1.4000e+000 70896 -3.9603e+002 -7.1662e+001  3.3858e+001 68250 70795,70847,70821
 1.4000e+000 70873 -1.0862e+003 -3.3002e+002  3.5827e+001 68250 70769,70847,70795
 1.4000e+000 70997 -1.7594e+003 -8.3316e+002  7.4070e+002 68052 70919,70971,70945
 1.4000e+000 71367 -5.2751e+002 -8.4769e+002  3.3065e+002 67740 71096,71226,71200
 1.4000e+000 71344 -3.4263e+002 -4.8017e+002  4.0794e+002 67740 71044,71226,71096
 1.4000e+000 71321  4.5165e+001 -4.5165e+001  6.4408e+002 67740 71044,71096,71070
 1.4000e+000 71298 -3.9209e+002 -9.1198e+002  6.3363e+002 67740 71096,71200,71174
 1.4000e+000 71275 -2.2307e+002 -5.4430e+002  2.5424e+002 67740 71096,71148,71122
 1.4000e+000 71252 -3.0790e+002 -6.5093e+002  4.1689e+002 67740 71096,71174,71148
 1.4000e+000 71519  2.0485e+002  1.4067e+002  2.0351e+002 67542 71418,71470,71444
 1.4000e+000 71496  3.4933e+002  6.7072e+002  6.4013e+002 67542 71392,71470,71418
 1.4000e+000 71923 -1.0674e+002  2.0334e+001  1.7590e+002 67230 71649,71779,71675
 1.4000e+000 71900 -7.0006e+001 -1.5516e+002  1.0469e+002 67230 71649,71805,71779
 1.4000e+000 71877 -1.0377e+002 -2.9885e+001  3.3264e+002 67230 71675,71727,71701
 1.4000e+000 71854 -1.5045e+002 -4.9623e+002  3.1693e+002 67230 71675,71753,71727
 1.4000e+000 71831 -1.5959e+002 -2.9434e+002  2.2024e+002 67230 71675,71779,71753
 1.4000e+000 72433 -2.7152e+002 -1.3777e+002  2.6462e+002 67032 72038,72246,72220
 1.4000e+000 72410 -2.1222e+002  4.4506e+000  9.9998e+001 67032 72012,72246,72038
 1.4000e+000 72387 -3.2186e+002 -8.4157e+001  2.9148e+002 67032 72064,72194,72168
 1.4000e+000 72364 -3.7220e+002 -1.3704e+002  3.1501e+002 67032 72038,72194,72064
 1.4000e+000 72341 -4.1187e+002 -5.2448e+002  3.5874e+002 67032 72038,72220,72194
 1.4000e+000 72318 -1.4901e+002  1.7431e+001  1.7366e+002 67032 72090,72168,72142
 1.4000e+000 72295  1.5969e+001  5.1350e+001  2.3472e+002 67032 72064,72168,72090
 1.4000e+000 72272 -1.7246e+002 -2.7956e+000  1.6411e+002 67032 72090,72142,72116
 1.4000e+000 72933 -2.7885e+002 -3.2673e+002  3.2259e+002 66628 72956,72665,72613
 1.4000e+000 72910 -2.6102e+002 -3.5095e+002  3.2211e+002 66628 73100,72956,72613
 1.4000e+000 72887 -3.5422e+002 -4.9734e+002  2.6728e+002 66628 73028,72691,72665
 1.4000e+000 72864 -2.4781e+002 -3.2337e+002  3.2700e+002 66628 73100,72613,72587
 1.4000e+000 72841 -2.6583e+002 -3.1259e+002  2.9192e+002 66628 72613,72665,72639
 1.4000e+000 72818  1.2642e+002  3.5090e+001  4.4592e+002 66628 72587,72769,72743
 1.4000e+000 72795 -2.3494e+002 -6.8987e+002  8.3139e+001 66628 72561,72769,72587
 1.4000e+000 72982 -3.4729e+002 -3.6051e+002  3.4722e+002 66628 73028,72665,72956
 1.4000e+000 73005 -2.7683e+002 -1.0367e+002  3.3637e+002 66628 72717,72956,72743
 1.4000e+000 73054 -5.0516e+002 -4.1178e+002  1.6521e+002 66628 72717,72691,73028
 1.4000e+000 73077 -5.0137e+002 -3.6590e+002  2.3743e+002 66628 72717,73028,72956
 1.4000e+000 73126 -2.7185e+002 -3.4806e+002  2.9120e+002 66628 72743,72956,73100
 1.4000e+000 73149 -2.5937e+002 -3.2556e+002  2.9653e+002 66628 72743,73100,72587
 1.4000e+000 73606 -3.0346e+002 -3.0828e+002  2.7532e+002 66281 73332,73384,73358
 1.4000e+000 73583 -3.8261e+002 -4.1786e+002  2.3704e+002 66281 73332,73462,73384
 1.4000e+000 73560 -5.0493e+002 -3.1135e+002  3.1822e+002 66281 73384,73462,73436
 1.4000e+000 73537 -8.4333e+002 -4.5326e+002  4.0416e+002 66281 73332,73488,73462
 1.4000e+000 73514 -5.7919e+002 -2.8941e+002  1.5572e+002 66281 73384,73436,73410
 1.4000e+000 73984 -6.0182e+001 -1.0118e+002  6.8313e+001 65969 73736,73814,73788
 1.4000e+000 73961  1.9260e+001 -2.5547e+001  2.1022e+001 65969 73736,73866,73814
 1.4000e+000 73938 -1.4412e+002 -1.3951e+002  1.7652e+002 65969 73814,73866,73840
 1.4000e+000 73915 -2.2243e+001 -2.0168e+001  1.8109e+001 65969 73710,73866,73736
 1.4000e+000 73892 -1.8045e+001 -9.5126e+001  7.4934e+000 65969 73736,73788,73762
 1.4000e+000 74232 -2.4545e+002 -3.0902e+002  2.8549e+002 65572 74255,74085,74033
 1.4000e+000 74209 -2.1137e+002 -3.4661e+002  2.2899e+002 65572 74327,74255,74033
 1.4000e+000 74186 -2.4066e+002 -2.4105e+002  2.3129e+002 65572 74327,74033,74007
 1.4000e+000 74163 -2.7827e+002 -3.7632e+002  3.1288e+002 65572 74033,74085,74059
 1.4000e+000 74281 -3.2292e+002 -4.0663e+002  3.7399e+002 65572 74111,74085,74255
 1.4000e+000 74304 -1.9885e+002 -3.6396e+002  2.5446e+002 65572 74111,74255,74137
 1.4000e+000 74353 -1.8436e+002 -2.2435e+002  1.9140e+002 65572 74137,74255,74327
 1.4000e+000 74376 -2.3681e+002 -1.4579e+002  1.9917e+002 65572 74137,74327,74007
 1.4000e+000 74884 -2.5103e+002 -2.9743e+002  2.2746e+002 65174 74587,74717,74613
 1.4000e+000 74861 -2.5136e+002 -3.2888e+002  1.7225e+002 65174 74561,74717,74587
 1.4000e+000 74838 -2.6531e+002 -3.7700e+002  2.0459e+002 65174 74613,74691,74639
 1.4000e+000 74815 -2.2132e+002 -3.5355e+002  2.2013e+002 65174 74613,74717,74691
 1.4000e+000 74792 -1.1253e+002 -6.2310e+002  1.5896e+002 65174 74639,74691,74665
 1.4000e+000 74769 -3.3381e+002 -1.7529e+002  1.6893e+002 65174 74561,74743,74717
 1.4000e+000 75412 -1.5533e+001 -1.7427e+002  6.1535e+002 64770 75167,75245,75219
 1.4000e+000 75389 -2.9907e+002 -5.4345e+002  4.2835e+002 64770 75115,75245,75167
 1.4000e+000 75366 -2.3391e+002 -6.8184e+002  5.3987e+002 64770 75089,75245,75115
 1.4000e+000 75343 -4.5611e+002 -1.9286e+002  4.6446e+002 64770 75167,75219,75193
 1.4000e+000 75320 -2.4244e+002 -4.0775e+002  4.2551e+002 64770 75115,75167,75141
 1.4000e+000 75297 -3.7318e+002 -9.9276e+002  5.6869e+002 64770 75089,75271,75245
 1.4000e+000 75861 -6.4308e+002 -2.8872e+002  5.1789e+002 64316 75538,75694,75564
 1.4000e+000 75838 -2.8892e+002 -1.2005e+002  3.7432e+002 64316 75538,75720,75694
 1.4000e+000 75815 -5.5762e+002 -3.6649e+002  4.0731e+002 64316 75590,75694,75642
 1.4000e+000 75792 -5.4504e+002 -5.0543e+002  4.5140e+002 64316 75564,75694,75590
 1.4000e+000 75769 -1.6440e+002 -6.3312e+002  2.3248e+002 64316 75590,75642,75616
 1.4000e+000 75746 -5.2841e+002 -2.2625e+002  3.9299e+002 64316 75642,75694,75668
 1.4000e+000 76239 -7.8475e+002 -6.2759e+002  4.2903e+002 64018 76262,76095,76043
 1.4000e+000 76216 -5.3195e+002 -6.0556e+002  3.4070e+002 64018 76262,76043,76017
 1.4000e+000 76193 -1.8688e+002 -3.0563e+002  2.3542e+002 64018 75991,76121,76017
 1.4000e+000 76170 -7.2491e+002 -4.7949e+002  4.7262e+002 64018 76043,76095,76069
 1.4000e+000 76147 -2.4823e+001 -3.4673e+002  6.8597e+001 64018 75965,76121,75991
 1.4000e+000 76288 -5.2330e+002 -7.5232e+002  5.5048e+002 64018 76121,76095,76262
 1.4000e+000 76311 -3.2020e+002 -7.5345e+002  4.2671e+002 64018 76121,76262,76017
 1.4000e+000 76866 -3.0426e+002 -3.5012e+002  3.4755e+002 63728 76520,76676,76546
 1.4000e+000 76843 -2.8875e+002 -3.5641e+002  2.5956e+002 63728 76520,76702,76676
 1.4000e+000 76820 -2.4111e+002 -3.7866e+002  3.5793e+002 63728 76546,76650,76572
 1.4000e+000 76797 -4.2634e+002 -4.9602e+002  2.9491e+002 63728 76546,76676,76650
 1.4000e+000 76774 -4.4082e+002 -1.6151e+001  1.6741e+002 63728 76572,76650,76624
 1.4000e+000 76751 -2.5189e+002 -3.0728e+002  2.7747e+002 63728 76494,76702,76520
 1.4000e+000 76728 -8.1720e+001 -1.7361e+002  1.2070e+002 63728 76572,76624,76598
 1.4000e+000 77065 -9.6045e+001 -2.9670e+002  2.3308e+002 63288 77088,76941,76915
 1.4000e+000 77042 -3.0768e+002 -3.7071e+002  2.2825e+002 63288 77088,76915,76993
 1.4000e+000 77019 -1.1186e+002 -3.7851e+002  2.0659e+002 63288 76889,76993,76915
 1.4000e+000 77114 -2.1345e+002 -2.8620e+002  1.8354e+002 63288 76967,76941,77088
 1.4000e+000 77137 -5.0664e+002 -3.9839e+002  9.4922e+001 63288 77160,77088,76993
 1.4000e+000 77186 -1.3769e+002 -2.2003e+002  1.5379e+002 63288 76967,77088,77160
 1.4000e+000 77417 -1.3924e+002 -2.2529e+002  1.0691e+002 62884 77440,77342,77316
 1.4000e+000 77394 -2.6749e+002 -3.9181e+002  5.0633e+001 62884 77770,77440,77316
 1.4000e+000 77466 -2.9766e+002 -4.0456e+002  6.5405e+001 62884 77512,77440,77368
 1.4000e+000 77489 -1.8275e+002 -3.5606e+002  3.3549e+001 62884 77642,77440,77290
 1.4000e+000 77538 -1.4865e+002 -3.0251e+002  2.0540e+001 62884 77342,77440,77512
 1.4000e+000 77668 -2.4752e+002 -4.7726e+002  6.7432e+000 62884 77368,77440,77642
 1.4000e+000 77796 -1.7885e+002 -3.4464e+002  3.1854e+001 62884 77290,77440,77770
 1.4000e+000 78479 -6.5866e+002 -6.3291e+002  3.9549e+002 62480 78084,78240,78214
 1.4000e+000 78456 -3.5712e+002 -5.3051e+002 -6.6166e+000 62480 78084,78266,78240
 1.4000e+000 78433 -4.1131e+002 -4.9412e+002  1.5747e+002 62480 78110,78214,78136
 1.4000e+000 78410 -4.5203e+002 -5.0587e+002  3.3391e+002 62480 78084,78214,78110
 1.4000e+000 78387 -5.0462e+002 -3.4081e+002  1.8422e+002 62480 78136,78214,78188
 1.4000e+000 78364 -2.9588e+002 -5.7046e+002 -1.5792e+001 62480 78058,78266,78084
 1.4000e+000 78341 -5.7264e+002 -4.2360e+002  4.2717e+002 62480 78136,78188,78162
 1.4000e+000 78318 -2.3098e+002 -5.4756e+002 -1.2252e+001 62480 78058,78292,78266
 1.4000e+000 78678 -3.9002e+002 -7.0493e+002  3.0153e+002 61926 78528,78606,78554
 1.4000e+000 78655 -2.0219e+002 -7.4939e+002  3.7832e+002 61926 78502,78606,78528
 1.4000e+000 78632 -2.3205e+002 -4.2157e+002  1.4803e+002 61926 78554,78606,78580
 1.4000e+000 79058 -3.6835e+002 -3.9616e+002  2.1676e+002 61614 78836,78914,78862
 1.4000e+000 79035 -4.6826e+002 -4.5180e+002  1.9400e+002 61614 78810,78914,78836
 1.4000e+000 79012 -3.0246e+002 -3.8122e+002  1.7874e+002 61614 78784,78914,78810
 1.4000e+000 78989 -3.1941e+002 -4.0724e+002  3.2551e+002 61614 78862,78914,78888
 1.4000e+000 78966 -2.5054e+002 -5.0012e+002  2.0726e+002 61614 78784,78940,78914
 1.4000e+000 79208 -1.7541e+002 -4.0910e+002  2.0384e+001 61366 79081,79133,79107
 1.4000e+000 79185 -1.6520e+002 -1.0573e+002  2.8961e+002 61366 79081,79159,79133
 1.4000e+000 79358  8.0425e+001  6.4862e+001  2.8765e+001 60962 79231,79283,79257
 1.4000e+000 79335 -2.0757e+002 -4.9069e+002  1.3165e+002 60962 79231,79309,79283
 1.4000e+000 79608 -2.2544e+002 -5.1660e+002  2.7149e+002 60508 79631,79435,79409
 1.4000e+000 79585 -1.6342e+002 -5.4503e+002  1.7830e+002 60508 79703,79631,79409
 1.4000e+000 79562 -1.3863e+002 -1.3936e+002  2.4798e+002 60508 79703,79409,79383
 1.4000e+000 79539 -4.7894e+002 -5.2111e+002  4.4571e+002 60508 79435,79487,79461
 1.4000e+000 79657 -2.7550e+002 -6.7940e+002  4.2916e+002 60508 79487,79435,79631
 1.4000e+000 79680 -1.3683e+002 -4.7824e+002  1.9984e+002 60508 79487,79631,79513
 1.4000e+000 79729 -6.5891e+001 -1.7309e+002  8.7080e+001 60508 79513,79631,79703
 1.4000e+000 79752 -1.7992e+002 -1.2045e+002  3.3848e+001 60508 79513,79703,79383
 1.4000e+000 80390 -3.2942e+002 -4.0349e+002  3.3103e+002 59997 80413,80096,80018
 1.4000e+000 80367 -5.1785e+002 -4.6072e+002  3.8838e+002 59997 80413,80018,80226
 1.4000e+000 80344 -2.7928e+002 -3.2776e+002  2.4323e+002 59997 80096,80174,80148
 1.4000e+000 80321 -1.0545e+003 -7.8268e+002  5.2623e+002 59997 80018,80096,80070
 1.4000e+000 80298 -3.1167e+002 -3.9468e+002  2.0487e+002 59997 80096,80148,80122
 1.4000e+000 80275 -2.7769e+002 -3.1356e+002  2.6492e+002 59997 80174,80226,80200
 1.4000e+000 80252 -6.2349e+002 -5.1253e+002  7.5887e+001 59997 80018,80070,80044
 1.4000e+000 80439 -2.8199e+002 -4.2183e+002  2.7198e+002 59997 80174,80096,80413
 1.4000e+000 80462 -3.5773e+002 -3.6250e+002  3.0577e+002 59997 80174,80413,80226
 1.4000e+000 80840 -5.2429e+002 -4.9350e+002  2.4451e+002 59443 80863,80644,80618
 1.4000e+000 80817 -2.4564e+002 -3.7002e+002  2.8903e+002 59443 80863,80618,80566
 1.4000e+000 80794 -1.9212e+002 -3.1490e+002  3.1381e+002 59443 81007,80935,80670
 1.4000e+000 80771 -3.0713e+002 -3.4988e+002  3.1493e+002 59443 80566,80722,80696
 1.4000e+000 80748 -3.1318e+002 -5.0811e+002  3.3885e+002 59443 80566,80618,80592
 1.4000e+000 80889 -5.6242e+002 -4.2778e+002  3.7013e+002 59443 80935,80644,80863
 1.4000e+000 80912 -4.0566e+002 -3.9443e+002  3.2761e+002 59443 80696,80863,80566
 1.4000e+000 80961 -3.3967e+002 -3.6153e+002  3.7405e+002 59443 80696,80670,80935
 1.4000e+000 80984 -3.3370e+002 -3.3227e+002  3.5430e+002 59443 80696,80935,80863
 1.4000e+000 81033 -4.3764e+002 -5.6148e+002  4.3885e+002 59443 80644,80935,81007
 1.4000e+000 81360 -4.3780e+002 -3.0559e+002  2.3782e+002 59031 81383,81187,81161
 1.4000e+000 81337 -3.9532e+002 -3.2955e+002  1.3625e+002 59031 81455,81383,81161
 1.4000e+000 81314 -3.2553e+002 -2.6070e+002  1.6465e+002 59031 81455,81161,81135
 1.4000e+000 81291 -8.2198e+002 -1.5989e+002  3.4477e+002 59031 81187,81239,81213
 1.4000e+000 81409 -4.6177e+002 -4.3021e+002  2.7621e+002 59031 81239,81187,81383
 1.4000e+000 81432 -5.4000e+002 -3.7000e+002  1.2780e+002 59031 81239,81383,81265
 1.4000e+000 81481 -4.5627e+002 -2.0401e+002  1.6087e+002 59031 81265,81383,81455
 1.4000e+000 81504 -4.4302e+002 -1.8538e+002  1.6863e+002 59031 81265,81455,81135
 1.4000e+000 81835 -5.7273e+001 -2.2096e+002  7.1183e+001 58577 81610,81714,81636
 1.4000e+000 81812 -5.1829e+001 -2.1564e+002  6.8996e+001 58577 81610,81740,81714
 1.4000e+000 81789 -1.5666e+002 -2.6305e+002  6.0983e+001 58577 81636,81714,81688
 1.4000e+000 81766 -1.4467e+002 -2.8257e+002 -5.8439e+001 58577 81636,81688,81662
 1.4000e+000 81985 -1.1998e+002 -2.9187e+002  1.8071e+002 58030 81884,81936,81910
 1.4000e+000 81962 -2.3239e+002 -8.5377e+001  1.2999e+002 58030 81858,81936,81884
 1.4000e+000 82414 -9.8351e+001 -3.9181e+001  1.3170e+002 57690 82437,82169,82117
 1.4000e+000 82391 -1.3923e+002 -1.6631e+002  1.5510e+002 57690 82437,82117,82247
 1.4000e+000 82368  5.5503e+001  8.0996e+001  3.6683e+002 57690 82195,82247,82221
 1.4000e+000 82345 -1.0721e+002 -1.5257e+002  1.5608e+002 57690 82091,82247,82117
 1.4000e+000 82322 -1.7146e+002 -4.5106e+001  8.8366e+001 57690 82117,82169,82143
 1.4000e+000 82299 -1.2202e+002 -2.8881e+002  2.1710e+002 57690 82091,82273,82247
 1.4000e+000 82463 -1.5618e+002  1.0095e+001  1.9246e+002 57690 82195,82169,82437
 1.4000e+000 82486 -1.7486e+002 -7.7747e+001  1.9525e+002 57690 82195,82437,82247
 1.4000e+000 83041 -2.6976e+002 -3.1317e+002  2.0187e+002 57172 83064,82721,82695
 1.4000e+000 83018 -2.9932e+002 -3.2021e+002  2.9310e+002 57172 83064,82695,82851
 1.4000e+000 82995 -8.6037e+002 -4.0999e+002  3.8788e+002 57172 82669,82851,82695
 1.4000e+000 82972 -4.9630e+002 -3.4858e+002  2.7157e+002 57172 82773,82851,82825
 1.4000e+000 82949 -4.5555e+002 -3.7322e+002  3.7860e+002 57172 82773,82825,82799
 1.4000e+000 82926 -3.8217e+002 -2.4246e+002  1.7082e+002 57172 82721,82773,82747
 1.4000e+000 82903 -9.0795e+002 -3.5351e+002  5.0595e+002 57172 82669,82877,82851
 1.4000e+000 83090 -4.2001e+002 -3.6769e+002  1.8480e+002 57172 82773,82721,83064
 1.4000e+000 83113 -3.5019e+002 -3.3522e+002  2.7183e+002 57172 82773,83064,82851
 1.4000e+000 83747 -3.3811e+002 -3.0079e+002  2.1359e+002 56554 83770,83427,83401
 1.4000e+000 83724 -3.4190e+002 -4.0319e+002  2.6024e+002 56554 83842,83770,83401
 1.4000e+000 83701 -8.3679e+000 -3.2418e+002  1.0111e+002 56554 83842,83401,83583
 1.4000e+000 83678 -6.5840e+002 -5.8784e+002  5.1664e+002 56554 83914,83531,83505
 1.4000e+000 83655 -3.2384e+002 -3.5436e+002  1.3739e+002 56554 83531,83583,83557
 1.4000e+000 83632 -6.4841e+001 -1.5597e+002  8.9368e+001 56554 83375,83583,83401
 1.4000e+000 83609 -3.1329e+002 -2.8984e+002  2.0835e+002 56554 83427,83479,83453
 1.4000e+000 83796 -3.1239e+002 -2.9398e+002  2.1687e+002 56554 83479,83427,83770
 1.4000e+000 83819 -3.2940e+002 -2.5840e+002  2.2413e+002 56554 83479,83770,83505
 1.4000e+000 83868 -2.2034e+002 -1.7463e+002  3.0991e+002 56554 83505,83770,83842
 1.4000e+000 83891 -4.2203e+002 -3.4855e+002  3.8648e+002 56554 83914,83505,83842
 1.4000e+000 83940 -2.9532e+002 -5.9983e+002  2.8423e+002 56554 83583,83531,83914
 1.4000e+000 83963 -1.4041e+002 -5.6170e+002  2.1997e+002 56554 83583,83914,83842
 1.4000e+000 84341 -1.5211e+002 -6.5920e+002  2.1979e+002 56192 84067,84145,84119
 1.4000e+000 84318 -3.3284e+001 -5.0085e+002  1.6395e+002 56192 84067,84223,84145
 1.4000e+000 84295 -1.7541e+002 -6.0653e+002  5.3176e+001 56192 84145,84223,84197
 1.4000e+000 84272 -1.0466e+002 -6.2344e+002  2.4462e+002 56192 84067,84119,84093
 1.4000e+000 84249 -3.9305e+002 -1.7287e+002  1.6608e+002 56192 84145,84197,84171
 1.4000e+000 84611 -1.9160e+002 -5.0022e+002  3.7960e+002 55538 84386,84490,84412
 1.4000e+000 84588 -2.1940e+002 -4.4431e+002  3.7540e+002 55538 84386,84516,84490
 1.4000e+000 84565 -3.5797e+002 -5.7142e+002  3.8085e+002 55538 84412,84490,84464
 1.4000e+000 84542 -1.9726e+002 -4.8906e+002  2.8002e+002 55538 84412,84464,84438
 1.4000e+000 84942 -3.4250e+002 -3.0539e+002  2.6739e+002 55084 84769,84847,84795
 1.4000e+000 84919 -3.6810e+002 -3.6513e+002  2.1701e+002 55084 84717,84847,84769
 1.4000e+000 84896 -3.9698e+002 -4.5936e+002  2.2217e+002 55084 84717,84769,84743
 1.4000e+000 84873 -4.0634e+002 -1.5190e+002  2.2082e+002 55084 84795,84847,84821
 1.4000e+000 85271 -9.5071e+001 -1.1786e+002  1.8283e+002 54580 85294,85098,85072
 1.4000e+000 85248 -4.1285e+002 -2.2806e+002  2.5467e+002 54580 85294,85072,85176
 1.4000e+000 85225 -5.7726e+002 -1.0736e+001  8.1926e+001 54580 85124,85176,85150
 1.4000e+000 85202 -1.3421e+002 -1.9937e+002  9.2733e+001 54580 85046,85176,85072
 1.4000e+000 85320 -3.7581e+002 -1.3754e+002  2.2026e+002 54580 85124,85098,85294
 1.4000e+000 85343 -5.4230e+002 -1.2407e+002  2.6977e+002 54580 85124,85294,85176
 1.4000e+000 85542 -2.3242e+002 -3.7193e+002  2.6542e+002 53976 85565,85444,85418
 1.4000e+000 85519 -2.7187e+002 -2.9427e+002  2.2571e+002 53976 85565,85418,85366
 1.4000e+000 85496 -1.8968e+002 -2.1588e+002  1.1114e+002 53976 85366,85418,85392
 1.4000e+000 85591 -2.3847e+002 -3.3921e+002  2.1238e+002 53976 85470,85444,85565
 1.4000e+000 85614 -2.1557e+002 -1.5637e+002  1.7802e+002 53976 85470,85565,85366
 1.4000e+000 85960 -5.5915e+002 -4.7545e+002  3.6704e+002 53572 85663,85715,85689
 1.4000e+000 85937 -4.9171e+002 -4.1472e+002  2.4972e+002 53572 85983,85715,85663
 1.4000e+000 85914 -4.6043e+002 -4.8090e+002  2.7606e+002 53572 86055,85983,85663
 1.4000e+000 85891 -4.2088e+002 -4.7136e+002  3.4103e+002 53572 86055,85663,85637
 1.4000e+000 85868 -6.8600e+002 -1.0070e+003  4.5901e+002 53572 85637,85793,85767
 1.4000e+000 85845 -1.0292e+003 -2.7074e+002  2.7809e+002 53572 85637,85819,85793
 1.4000e+000 86009 -4.3895e+002 -4.2173e+002  2.5562e+002 53572 85741,85715,85983
 1.4000e+000 86032 -3.6709e+002 -3.7167e+002  2.2435e+002 53572 85741,85983,85767
 1.4000e+000 86081 -3.9964e+002 -3.4077e+002  2.8558e+002 53572 85767,85983,86055
 1.4000e+000 86104 -3.9315e+002 -4.0145e+002  3.4421e+002 53572 85767,86055,85637
 1.4000e+000 86693 -5.2850e+002 -1.8535e+002  3.3679e+002 52946 86474,86526,86500
 1.4000e+000 86670 -1.5408e+002 -1.1256e+002  1.3972e+002 52946 86396,86526,86474
 1.4000e+000 86647 -4.1371e+002 -5.1501e+002  2.7285e+002 52946 86370,86526,86396
 1.4000e+000 86624 -2.6956e+001 -4.2033e+001  6.7865e+001 52946 86422,86474,86448
 1.4000e+000 86601 -1.7223e+002 -1.2978e+002  1.3039e+002 52946 86396,86474,86422
 1.4000e+000 86578 -5.8956e+002 -2.5412e+002  4.7893e+001 52946 86370,86552,86526
 1.4000e+000 87376 -3.2865e+002 -3.4404e+002  1.2231e+002 52420 87007,87085,87033
 1.4000e+000 87353 -3.2059e+002 -3.5817e+002  1.3922e+002 52420 87007,87163,87085
 1.4000e+000 87330 -4.0808e+002 -3.5292e+002  1.6071e+002 52420 87007,87189,87163
 1.4000e+000 87307 -3.4785e+002 -3.0844e+002  1.6612e+002 52420 87033,87085,87059
 1.4000e+000 87284 -3.8234e+002 -3.5203e+002  4.1610e+001 52420 87085,87137,87111
 1.4000e+000 87261 -2.7525e+002 -3.7228e+002  3.8120e+001 52420 87085,87163,87137
 1.4000e+000 87238 -3.0096e+002 -4.4619e+002  3.4449e+002 52420 86955,87189,87007
 1.4000e+000 87215 -1.9977e+002 -3.0761e+002  2.1202e+002 52420 86955,87007,86981
 1.4000e+000 87624 -2.6373e+002 -3.4051e+002  1.8825e+002 51916 87451,87503,87477
 1.4000e+000 87601 -1.5582e+002 -4.6619e+002  2.3163e+002 51916 87425,87503,87451
 1.4000e+000 87578 -1.8356e+002 -4.7199e+002  2.3436e+002 51916 87425,87529,87503
 1.4000e+000 87555 -6.8865e+001 -1.8477e+002  2.5913e+002 51916 87399,87529,87425
 1.4000e+000 88053 -4.2968e+002 -3.6618e+002  1.3858e+002 51568 87782,87834,87808
 1.4000e+000 88030 -5.1377e+002 -3.4360e+002  2.3119e+002 51568 88076,87782,87886
 1.4000e+000 88007 -4.6358e+002 -2.2894e+002  1.9840e+002 51568 88076,87886,87860
 1.4000e+000 87984 -6.1768e+002 -4.8505e+002  1.8554e+002 51568 87756,87886,87782
 1.4000e+000 87961 -4.6686e+002 -3.8409e+002  3.7438e+002 51568 87756,87912,87886
 1.4000e+000 87938 -5.2931e+002 -3.2540e+002  3.5090e+002 51568 87730,87912,87756
 1.4000e+000 88102 -4.4459e+002 -4.0112e+002  1.5592e+002 51568 87834,87782,88076
 1.4000e+000 88125 -4.0082e+002 -3.2499e+002  1.2693e+002 51568 87834,88076,87860
 1.4000e+000 88324 -3.2730e+002 -4.5356e+002  1.4364e+002 51164 88419,88347,88200
 1.4000e+000 88301 -2.6912e+002 -4.2609e+002  2.1622e+002 51164 88347,88148,88252
 1.4000e+000 88278 -3.9817e+002 -7.1521e+002  1.6558e+002 51164 88419,88200,88174
 1.4000e+000 88373 -2.4123e+002 -4.0530e+002  1.6991e+002 51164 88226,88200,88347
 1.4000e+000 88396 -4.6921e+001 -4.5415e+002  1.6525e+002 51164 88226,88347,88252
 1.4000e+000 88445 -4.1898e+002 -5.0427e+002  2.9732e+002 51164 88148,88347,88419
 1.4000e+000 88468 -4.0668e+002 -4.8615e+002  3.2777e+002 51164 88148,88419,88174
 1.4000e+000 88738 -3.5611e+002 -5.3640e+002  1.2639e+002 50560 88513,88617,88539
 1.4000e+000 88715 -2.5623e+002 -6.0075e+002  8.8913e+001 50560 88513,88643,88617
 1.4000e+000 88692 -2.0341e+002 -2.1823e+002  1.5933e+002 50560 88539,88591,88565
 1.4000e+000 88669 -1.6222e+002 -3.9181e+002  1.9026e+002 50560 88539,88617,88591
 1.4000e+000 88939 -4.4519e+002 -2.1040e+002  2.2802e+002 50106 88962,88789,88763
 1.4000e+000 88916 -2.9964e+002 -2.3089e+002  1.7262e+002 50106 88962,88763,88841
 1.4000e+000 88893 -4.2776e+002 -3.1139e+002  2.6304e+002 50106 88763,88867,88841
 1.4000e+000 88988 -3.0300e+002 -2.6472e+002  1.4361e+002 50106 88815,88789,88962
 1.4000e+000 89011 -2.4177e+002 -2.0818e+002  1.8395e+002 50106 89034,88962,88841
 1.4000e+000 89060 -1.4706e+002 -9.0753e+001  4.2799e+001 50106 88815,88962,89034
 1.4000e+000 89472 -2.5802e+002 -5.8666e+002  1.1025e+002 49666 89273,89351,89325
 1.4000e+000 89449 -3.4714e+002 -3.8451e+002  1.8562e+002 49666 89273,89377,89351
 1.4000e+000 89426 -3.0355e+002 -4.7903e+002  3.3987e+002 49666 89273,89325,89299
 1.4000e+000 89403 -3.3655e+002 -2.9042e+002  2.0106e+002 49666 89247,89377,89273
 1.4000e+000 89978 -8.9962e+001 -5.9401e+002  1.3320e+002 49205 89681,89837,89733
 1.4000e+000 89955 -2.2927e+002 -4.9265e+002  2.8380e+002 49205 89655,89837,89681
 1.4000e+000 89932 -4.6384e+002 -7.4882e+002  1.5826e+002 49205 89785,89837,89811
 1.4000e+000 89909 -1.3880e+002 -1.4357e+002  2.0204e+001 49205 89733,89837,89785
 1.4000e+000 89886 -5.0084e+002 -2.8247e+002  2.6735e+002 49205 89733,89785,89759
 1.4000e+000 89863 -3.8029e+001 -1.2211e+002 -8.9696e+000 49205 89681,89733,89707
 1.4000e+000 90177 -2.9108e+002 -2.3973e+002  1.2161e+002 48865 90530,90200,90053
 1.4000e+000 90154 -2.7820e+002 -4.5860e+002  2.1789e+002 48865 90402,90200,90001
 1.4000e+000 90131 -3.9437e+002 -5.0322e+001  1.2572e+002 48865 90530,90053,90027
 1.4000e+000 90226 -3.5805e+002 -3.0109e+002  2.1932e+002 48865 90079,90053,90200
 1.4000e+000 90249 -3.7930e+002 -3.5272e+002  1.4713e+002 48865 90272,90200,90105
 1.4000e+000 90298 -2.4144e+002 -2.3976e+002  1.9649e+002 48865 90079,90200,90272
 1.4000e+000 90428 -2.7548e+002 -1.3774e+002  1.9975e+002 48865 90105,90200,90402
 1.4000e+000 90556 -3.4011e+002 -5.3496e+002  9.1106e+001 48865 90001,90200,90530
 1.4000e+000 90579 -3.8773e+002 -2.4339e+002  3.3533e+001 48865 90001,90530,90027
 1.4000e+000 90827 -3.4872e+002 -3.4774e+002  1.7418e+002 48404 90850,90654,90628
 1.4000e+000 90804 -3.4396e+002 -3.8716e+002  2.7099e+002 48404 90850,90628,90732
 1.4000e+000 90781 -2.4928e+002 -2.4073e+002  1.8042e+002 48404 90680,90732,90706
 1.4000e+000 90758 -4.4627e+002 -2.2855e+002  2.7973e+002 48404 90602,90732,90628
 1.4000e+000 90876 -3.3214e+002 -2.0388e+002  1.5919e+002 48404 90680,90654,90850
 1.4000e+000 90899 -3.3844e+002 -3.1264e+002  2.3500e+002 48404 90680,90850,90732
 1.4000e+000 91000 -1.9434e+002 -4.9834e+002  3.4876e+002 48156 90922,90974,90948
 1.4000e+000 91250 -2.0492e+002 -5.0827e+002  2.8646e+002 47752 91051,91103,91077
 1.4000e+000 91227 -1.4642e+002 -1.4659e+002  1.8159e+002 47752 91025,91103,91051
 1.4000e+000 91204 -5.5105e+002 -4.3620e+002  4.3634e+002 47752 91025,91155,91103
 1.4000e+000 91181 -5.9008e+002 -2.5358e+002  3.0890e+002 47752 91103,91155,91129
 1.4000e+000 91402 -3.4779e+002 -3.1721e+002  2.1285e+002 47191 91425,91301,91275
 1.4000e+000 91379 -2.8915e+002 -2.9495e+002  2.4905e+002 47191 91497,91425,91275
 1.4000e+000 91451 -3.4852e+002 -1.7250e+002  1.4517e+002 47191 91327,91301,91425
 1.4000e+000 91474 -3.4200e+002 -3.4932e+002  2.8610e+002 47191 91327,91425,91353
 1.4000e+000 91523 -3.8469e+002 -6.6813e+002  2.6003e+002 47191 91353,91425,91497
 1.4000e+000 91854 -3.0417e+002 -1.9816e+002  2.0775e+002 46744 91949,91877,91707
 1.4000e+000 91831 -1.7914e+002 -4.3156e+002  1.6522e+002 46744 91877,91655,91629
 1.4000e+000 91808 -3.5101e+002 -1.4419e+002  1.7098e+002 46744 91949,91707,91681
 1.4000e+000 91785 -4.4070e+002 -3.0510e+002 -4.9694e+001 46744 91629,91759,91733
 1.4000e+000 91903 -5.4184e+002 -3.9054e+002  3.0437e+002 46744 91733,91707,91877
 1.4000e+000 91926 -2.6971e+002 -5.0481e+002  2.0958e+002 46744 91733,91877,91629
 1.4000e+000 91975 -3.1665e+002 -4.6838e+002  2.6131e+002 46744 91655,91877,91949
 1.4000e+000 91998 -2.4186e+002 -3.1499e+002  1.8176e+002 46744 91655,91949,91681
 1.4000e+000 92378 -2.7902e+002 -1.2285e+002  1.6965e+002 46090 92130,92208,92182
 1.4000e+000 92355 -3.6321e+002 -1.5746e+002  1.8630e+002 46090 92104,92208,92130
 1.4000e+000 92332 -1.5808e+002 -3.2758e+002  1.7970e+002 46090 92104,92260,92208
 1.4000e+000 92309 -1.5884e+002 -2.0087e+002  1.4280e+002 46090 92208,92260,92234
 1.4000e+000 92286 -4.7855e+002 -1.8000e+002  2.0379e+002 46090 92130,92182,92156
 1.4000e+000 92626 -2.7864e+002 -3.5653e+002  1.4517e+002 45693 92721,92649,92505
 1.4000e+000 92603 -3.1936e+002 -3.6970e+002  2.6562e+002 45693 92649,92453,92427
 1.4000e+000 92580 -2.9254e+002 -3.1046e+002  1.4282e+002 45693 92721,92505,92479
 1.4000e+000 92557 -5.6607e+002 -4.4422e+002  3.3436e+002 45693 92401,92531,92427
 1.4000e+000 92675 -4.2321e+002 -3.3452e+002  1.9104e+002 45693 92531,92505,92649
 1.4000e+000 92698 -4.7360e+002 -4.2999e+002  3.5319e+002 45693 92531,92649,92427
 1.4000e+000 92747 -3.0269e+002 -2.9923e+002  1.5060e+002 45693 92453,92649,92721
 1.4000e+000 92770 -2.2987e+002 -1.4173e+002  1.8074e+002 45693 92453,92721,92479
 1.4000e+000 93172 -2.0007e+002 -3.1024e+002  3.0698e+002 45331 92898,93028,92924
 1.4000e+000 93149 -1.5970e+002 -3.8668e+002  1.9592e+002 45331 92898,93054,93028
 1.4000e+000 93126 -2.5217e+002 -1.9864e+002  3.4771e+002 45331 92924,93002,92976
 1.4000e+000 93103 -1.0242e+002 -2.7365e+002  3.0793e+002 45331 92924,93028,93002
 1.4000e+000 93080 -2.9780e+002 -3.4882e+002  3.4426e+002 45331 92924,92976,92950
 1.4000e+000 93518 -2.5631e+002 -5.9158e+002  2.1548e+002 44820 93613,93273,93247
 1.4000e+000 93495 -4.8143e+002 -4.8797e+002  2.6417e+002 44820 93685,93541,93247
 1.4000e+000 93472 -4.3559e+002 -3.0707e+002  2.1683e+002 44820 93541,93195,93377
 1.4000e+000 93449 -5.3770e+002 -4.2216e+002  2.0395e+002 44820 93685,93247,93221
 1.4000e+000 93426 -3.7894e+002 -4.2942e+002  2.2561e+002 44820 93299,93377,93351
 1.4000e+000 93403 -2.8561e+002 -2.8046e+002  2.7481e+002 44820 93299,93351,93325
 1.4000e+000 93567 -3.7627e+002 -6.4400e+002  2.0822e+002 44820 93613,93247,93541
 1.4000e+000 93590 -4.0002e+002 -4.6812e+002  1.5052e+002 44820 93299,93541,93377
 1.4000e+000 93639 -3.8269e+002 -6.4090e+002  2.0434e+002 44820 93299,93273,93613
 1.4000e+000 93662 -3.8429e+002 -6.3756e+002  1.9769e+002 44820 93299,93613,93541
 1.4000e+000 93711 -4.3351e+002 -3.6605e+002  1.9270e+002 44820 93195,93541,93685
 1.4000e+000 93734 -3.9968e+002 -1.6245e+002  1.2482e+002 44820 93195,93685,93221
 1.4000e+000 94163 -4.2551e+002 -4.9742e+002  1.8961e+002 44237 94258,94186,93996
 1.4000e+000 94140 -5.1087e+002 -5.4633e+002  1.2652e+002 44237 94330,94022,93996
 1.4000e+000 94117 -5.2336e+002 -5.4892e+002  1.4533e+002 44237 94186,93918,93866
 1.4000e+000 94094 -3.6374e+002 -4.0126e+002  2.2545e+002 44237 94258,93996,93970
 1.4000e+000 94071 -4.6275e+002 -3.3104e+002  1.9833e+002 44237 94402,93944,93918
 1.4000e+000 94048 -3.1438e+002 -5.4733e+002  2.0327e+002 44237 93866,93918,93892
 1.4000e+000 94212 -5.1095e+002 -5.5387e+002  1.6519e+002 44237 94330,93996,94186
 1.4000e+000 94235 -5.1101e+002 -4.8028e+002  1.8806e+002 44237 93840,94186,93866
 1.4000e+000 94284 -4.6149e+002 -4.0800e+002  1.3628e+002 44237 93918,94186,94258
 1.4000e+000 94307 -4.2393e+002 -3.4750e+002  1.5577e+002 44237 94402,93918,94258
 1.4000e+000 94356 -5.2345e+002 -2.0100e+002  1.2754e+001 44237 93840,94022,94330
 1.4000e+000 94379 -4.8216e+002 -4.8029e+002  1.7658e+002 44237 93840,94330,94186
 1.4000e+000 94428 -5.4873e+002 -4.0712e+002  2.3249e+002 44237 93970,93944,94402
 1.4000e+000 94451 -4.8332e+002 -4.1002e+002  1.8581e+002 44237 93970,94402,94258
 1.4000e+000 94908 -1.6248e+002 -3.5756e+002  2.5210e+001 43890 94660,94790,94712
 1.4000e+000 94885 -1.0109e+002 -9.8027e+001  1.0043e+002 43890 94634,94790,94660
 1.4000e+000 94862 -3.2194e+002 -1.6015e+002  1.7640e+002 43890 94712,94764,94738
 1.4000e+000 94839 -1.0367e+002 -3.5619e+002  2.0745e+002 43890 94712,94790,94764
 1.4000e+000 94816 -2.4439e+002 -2.6422e+002 -8.3592e+001 43890 94660,94712,94686
 1.4000e+000 95414 -3.0688e+002 -2.4305e+002  1.4661e+002 43186 95437,95143,95117
 1.4000e+000 95391 -3.3869e+002 -4.5625e+002  1.8287e+002 43186 95437,95117,95091
 1.4000e+000 95368 -1.3850e+002 -1.8557e+002  1.6668e+002 43186 95143,95221,95195
 1.4000e+000 95345 -5.4401e+002 -4.1173e+002  4.3334e+002 43186 95091,95273,95221
 1.4000e+000 95322 -3.2825e+002 -2.3153e+002  2.0639e+002 43186 95221,95273,95247
 1.4000e+000 95299 -2.2571e+002 -3.2165e+002  1.2299e+002 43186 95143,95195,95169
 1.4000e+000 95463 -3.0455e+002 -3.8833e+002  2.4767e+002 43186 95221,95143,95437
 1.4000e+000 95486 -3.1288e+002 -5.5765e+002  2.9021e+002 43186 95221,95437,95091
 1.4000e+000 96041 -5.1873e+002 -5.0169e+002  1.3819e+002 42782 95695,95851,95799
 1.4000e+000 96018 -4.6680e+002 -6.0187e+002  1.4224e+002 42782 95669,95851,95695
 1.4000e+000 95995 -4.7675e+002 -3.0725e+002  1.5057e+002 42782 95695,95747,95721
 1.4000e+000 95972 -3.7342e+002 -4.3910e+002  1.3392e+002 42782 95695,95799,95747
 1.4000e+000 95949 -3.3282e+002 -2.7966e+002  9.6759e+001 42782 95747,95799,95773
 1.4000e+000 95926 -6.0697e+002 -6.0418e+002  1.9263e+002 42782 95799,95851,95825
 1.4000e+000 95903 -6.4541e+002 -6.8906e+002  1.7031e+002 42782 95669,95877,95851
 1.4000e+000 96370 -5.1271e+002 -6.6770e+002  2.9592e+002 42420 96197,96275,96223
 1.4000e+000 96347 -4.7852e+002 -5.8326e+002  3.0116e+002 42420 96145,96275,96197
 1.4000e+000 96324 -4.8689e+002 -4.2955e+002  3.0213e+002 42420 96145,96197,96171
 1.4000e+000 96301 -3.6937e+002 -4.9855e+002  1.9503e+002 42420 96223,96275,96249
 1.4000e+000 96699 -2.6333e+002 -3.0624e+002  5.8964e+001 41816 96474,96578,96526
 1.4000e+000 96676 -3.6808e+002 -2.4327e+002 -4.9757e+001 41816 96474,96604,96578
 1.4000e+000 96653 -2.3415e+002 -2.0045e+002  9.9109e+001 41816 96526,96578,96552
 1.4000e+000 96630 -2.7087e+002 -2.8979e+002  8.1821e+001 41816 96474,96526,96500
 1.4000e+000 96947 -1.9624e+002 -4.6873e+002  1.7208e+002 41212 96722,96800,96748
 1.4000e+000 96924 -2.9398e+002 -3.9897e+002  2.1924e+002 41212 96722,96826,96800
 1.4000e+000 96901 -3.7662e+002 -4.4986e+002  2.4364e+002 41212 96722,96852,96826
 1.4000e+000 96878 -3.3382e+002 -5.3850e+002  1.2296e+002 41212 96748,96800,96774
 1.4000e+000 97097 -2.4342e+002 -1.2182e+002  2.3104e+002 40793 97120,97022,96996
 1.4000e+000 97074 -4.4891e+002 -5.4408e+002  1.4792e+002 40793 97192,97120,96996
 1.4000e+000 97146 -1.8784e+002 -4.5434e+002  2.0905e+002 40793 97324,97120,97048
 1.4000e+000 97169 -1.6070e+002 -7.1180e+002  2.0351e+002 40793 97048,97120,96970
 1.4000e+000 97218 -6.7959e+001 -3.8149e+002  1.5043e+002 40793 96970,97120,97192
 1.4000e+000 97350 -1.8784e+002 -4.5434e+002  2.0905e+002 40793 97022,97120,97324
 1.4000e+000 97878 -2.8071e+002 -5.6304e+002  1.2499e+002 40446 97901,97607,97555
 1.4000e+000 97855 -2.8344e+002 -3.9822e+002  1.3219e+002 40446 97973,97901,97555
 1.4000e+000 97832 -2.1325e+002 -3.3951e+002  1.0151e+002 40446 97973,97555,97737
 1.4000e+000 97809 -4.3782e+002 -5.9777e+002  1.8842e+002 40446 97633,97685,97659
 1.4000e+000 97786 -3.2261e+002 -4.6594e+002  1.2190e+002 40446 97633,97711,97685
 1.4000e+000 97763 -2.7973e+002 -6.6090e+002  1.5050e+002 40446 97555,97607,97581
 1.4000e+000 97927 -3.2468e+002 -7.0114e+002 -1.7619e+001 40446 97633,97607,97901
 1.4000e+000 97950 -2.7869e+002 -5.3881e+002  1.0306e+002 40446 97633,97901,97711
 1.4000e+000 97999 -1.7788e+002 -5.2362e+002  1.6847e+002 40446 97711,97901,97973
 1.4000e+000 98022 -1.1630e+002 -4.5027e+002  1.4086e+002 40446 97711,97973,97737
 1.4000e+000 98449 -2.1906e+002 -1.5488e+002  1.3978e+002 39935 98152,98204,98178
 1.4000e+000 98426 -3.1854e+002 -2.4000e+002  9.5377e+001 39935 98152,98230,98204
 1.4000e+000 98403 -4.3873e+002 -2.6099e+002  2.1037e+002 39935 98152,98256,98230
 1.4000e+000 98380 -3.1147e+002 -3.1957e+002  2.2594e+002 39935 98126,98256,98152
 1.4000e+000 98357 -4.4976e+002 -6.2114e+002  2.6228e+002 39935 98126,98282,98256
 1.4000e+000 98334 -2.5644e+002 -7.6954e+002  3.0634e+002 39935 98126,98308,98282
 1.4000e+000 98746 -7.6729e+002 -5.4752e+002  1.8976e+002 39531 98498,98602,98524
 1.4000e+000 98723 -5.0841e+002 -5.0027e+002  1.7483e+002 39531 98472,98602,98498
 1.4000e+000 98700 -7.4864e+002 -3.8151e+002  1.6513e+002 39531 98524,98602,98576
 1.4000e+000 98677 -3.8211e+002 -4.9998e+002  1.8126e+002 39531 98472,98628,98602
 1.4000e+000 98654 -1.6865e+003 -5.0631e+002  2.1603e+002 39531 98524,98576,98550
 1.4000e+000 99224 -6.1845e+002 -3.1591e+002  5.3330e+002 39027 99247,98956,98930
 1.4000e+000 99201 -5.7937e+002 -3.4579e+002  2.5581e+002 39027 99247,98930,98878
 1.4000e+000 99178 -4.6683e+002 -4.3945e+002  3.3659e+002 39027 99319,98982,98956
 1.4000e+000 99155 -4.2761e+002 -3.0253e+002  1.9958e+002 39027 98852,99060,98878
 1.4000e+000 99132 -7.2565e+002 -3.1676e+002  2.3864e+002 39027 98878,98930,98904
 1.4000e+000 99109 -4.8105e+002 -8.3977e+002  4.1849e+002 39027 98982,99060,99034
 1.4000e+000 99086 -6.8693e+002 -1.1655e+003  7.2974e+002 39027 98982,99034,99008
 1.4000e+000 99273 -4.0254e+002 -3.1417e+002  3.6265e+002 39027 99319,98956,99247
 1.4000e+000 99296 -4.3757e+002 -2.9121e+002  2.0057e+002 39027 99060,99247,98878
 1.4000e+000 99345 -4.5541e+002 -4.9535e+002  2.6491e+002 39027 99060,98982,99319
 1.4000e+000 99368 -4.5384e+002 -4.6476e+002  2.8135e+002 39027 99060,99319,99247
 1.4000e+000 99923 -5.3770e+002 -4.4259e+002  2.2837e+002 38523 99946,99655,99603
 1.4000e+000 99900 -4.3066e+002 -3.9443e+002  2.3831e+002 38523 99946,99603,99759
 1.4000e+000 99877 -2.7046e+002 -5.5741e+002  2.9220e+002 38523 100018,99707,99681
 1.4000e+000 99854 -4.5845e+002 -2.7344e+002  2.2648e+002 38523 99551,99759,99603
 1.4000e+000 99831 -4.6111e+002 -2.8232e+002  2.2576e+002 38523 99551,99603,99577
 1.4000e+000 99808 -4.6973e+002 -6.7462e+002  1.8856e+002 38523 99707,99759,99733
 1.4000e+000 99785 -4.1204e+002 -3.8284e+002  1.9483e+002 38523 99603,99655,99629
 1.4000e+000 99972 -4.3580e+002 -2.4301e+002  2.7610e+002 38523 99681,99655,99946
 1.4000e+000 99995 -3.2498e+002 -3.2171e+002  3.4281e+002 38523 100018,99681,99946
 1.4000e+000 100044 -3.6627e+002 -6.5666e+002  1.8594e+002 38523 99759,99707,100018
 1.4000e+000 100067 -5.0059e+002 -5.6238e+002  2.3773e+002 38523 99759,100018,99946
 1.4000e+000 100467 -1.7900e+002 -2.2913e+002  1.1770e+002 38125 100219,100349,100323
 1.4000e+000 100444 -4.4576e+001 -1.1676e+002  1.8990e+002 38125 100193,100349,100219
 1.4000e+000 100421 -9.3976e+001 -2.7910e+002  1.1413e+002 38125 100245,100323,100297
 1.4000e+000 100398 -7.6188e+001 -1.8371e+002  1.2819e+002 38125 100219,100323,100245
 1.4000e+000 100375 -1.4957e+002 -2.7627e+002  1.7187e+002 38125 100245,100297,100271
 1.4000e+000 100666 -4.3389e+002 -5.9091e+002  1.8119e+002 37607 100689,100568,100542
 1.4000e+000 100643 -3.6320e+002 -3.9932e+002  1.7723e+002 37607 100689,100542,100490
 1.4000e+000 100620 -3.3116e+002 -2.7757e+002  1.6845e+002 37607 100490,100542,100516
 1.4000e+000 100715 -3.8975e+002 -4.0223e+002  1.5178e+002 37607 100594,100568,100689
 1.4000e+000 100738 -4.1292e+002 -3.4810e+002  1.5783e+002 37607 100594,100689,100490
 1.4000e+000 100937 -3.5463e+002 -2.0865e+002  3.2419e+002 37017 100960,100813,100787
 1.4000e+000 100914 -3.0714e+002 -2.3281e+002  1.8588e+002 37017 100960,100787,100761
 1.4000e+000 100891 -5.3454e+002 -1.9165e+002  3.2541e+002 37017 100813,100865,100839
 1.4000e+000 100986 -4.5128e+002 -3.6455e+002  3.7363e+002 37017 100865,100813,100960
 1.4000e+000 101009 -3.5669e+002 -3.3702e+002  2.2388e+002 37017 100865,100960,100761
 1.4000e+000 101519 -4.9800e+002 -2.5731e+002  1.2009e+002 36613 101222,101274,101248
 1.4000e+000 101496 -2.0642e+002 -1.8354e+002  1.2363e+002 36613 101222,101352,101274
 1.4000e+000 101473 -1.4402e+002 -3.0774e+002  1.4013e+001 36613 101274,101352,101326
 1.4000e+000 101450 -3.0878e+002 -1.8912e+002  1.2129e+002 36613 101222,101378,101352
 1.4000e+000 101427 -1.6336e+002 -5.1680e+002  2.0021e+001 36613 101274,101326,101300
 1.4000e+000 101404 -3.1473e+002 -1.9366e+002  1.0794e+002 36613 101196,101378,101222
 1.4000e+000 101718 -3.8955e+002 -2.5780e+002  3.2260e+002 36308 101594,101646,101620
 1.4000e+000 101695 -3.9336e+002 -1.9546e+002  2.6365e+002 36308 101568,101646,101594
 1.4000e+000 101672 -2.9250e+002 -2.7129e+002  2.7191e+002 36308 101542,101646,101568
 1.4000e+000 102098 -4.2213e+002 -3.0557e+002  1.9496e+002 35918 102121,101954,101876
 1.4000e+000 102075 -3.5582e+002 -3.7687e+002  1.6173e+002 35918 102121,101876,101824
 1.4000e+000 102052 -4.3872e+002 -3.1395e+002  1.6555e+002 35918 101876,101954,101928
 1.4000e+000 102029 -5.8985e+002 -1.2625e+002  1.8452e+002 35918 101876,101928,101902
 1.4000e+000 102006 -3.2507e+002 -2.9425e+002  1.4169e+002 35918 101824,101876,101850
 1.4000e+000 102147 -4.4311e+002 -3.7178e+002  2.2742e+002 35918 101980,101954,102121
 1.4000e+000 102170 -3.7789e+002 -4.4975e+002  1.8700e+002 35918 101980,102121,101824
 1.4000e+000 102489 -4.0586e+002 -9.4036e+002  2.9983e+002 35514 102241,102345,102267
 1.4000e+000 102466 -5.4262e+002 -9.8283e+002  3.0166e+002 35514 102215,102345,102241
 1.4000e+000 102443 -4.3779e+002 -1.0589e+003  3.1488e+002 35514 102215,102371,102345
 1.4000e+000 102420 -3.4388e+002 -8.2251e+002  3.3487e+002 35514 102267,102345,102293
 1.4000e+000 102397 -2.1286e+002 -5.4935e+002  3.7714e+002 35514 102293,102345,102319
 1.4000e+000 102820 -5.5579e+002 -3.8869e+002  1.0464e+002 35224 102843,102699,102647
 1.4000e+000 102797 -5.7456e+002 -4.6736e+002  2.2376e+002 35224 102971,102725,102699
 1.4000e+000 102774 -8.0292e+002 -5.7957e+002  4.3414e+002 35224 102595,102725,102621
 1.4000e+000 102751 -2.2222e+002 -2.0915e+002  2.0022e+002 35224 102647,102699,102673
 1.4000e+000 102869 -5.3135e+002 -3.8140e+002  1.9139e+002 35224 102971,102699,102843
 1.4000e+000 102997 -4.8871e+002 -5.4781e+002  2.0809e+002 35224 102621,102725,102971
 1.4000e+000 103020 -4.6099e+002 -4.8767e+002  1.7228e+002 35224 102621,102971,102843
 1.4000e+000 103349 -5.4653e+002 -4.1711e+002  2.5293e+002 34820 103150,103228,103176
 1.4000e+000 103326 -4.7470e+002 -4.5028e+002  2.4953e+002 34820 103124,103228,103150
 1.4000e+000 103303 -4.3330e+002 -4.4761e+002  4.3815e+002 34820 103176,103228,103202
 1.4000e+000 103280 -2.9721e+002 -3.7211e+002  2.7802e+002 34820 103124,103254,103228
 1.4000e+000 103806 -4.8722e+002 -3.4434e+002  1.7857e+002 34530 103558,103662,103636
 1.4000e+000 103783 -4.5807e+002 -3.7414e+002  1.2242e+002 34530 103558,103688,103662
 1.4000e+000 103760 -5.1446e+002 -5.4323e+002  1.3226e+002 34530 103532,103688,103558
 1.4000e+000 103737 -3.1588e+002 -4.4809e+002  1.7239e+002 34530 103584,103636,103610
 1.4000e+000 103714 -7.8296e+002 -4.3677e+002  2.1097e+002 34530 103558,103636,103584
 1.4000e+000 104263 -2.5799e+002 -3.1481e+002  2.0899e+002 34019 103989,104119,104015
 1.4000e+000 104240 -2.1963e+002 -2.9367e+002  2.2827e+002 34019 103989,104145,104119
 1.4000e+000 104217 -2.6350e+002 -3.6126e+002  1.2470e+002 34019 104015,104067,104041
 1.4000e+000 104194 -3.1672e+002 -3.9539e+002  1.8150e+002 34019 104015,104119,104067
 1.4000e+000 104171 -2.9736e+002 -2.5473e+002  1.6546e+002 34019 104067,104119,104093
 1.4000e+000 104641 -4.2625e+002 -2.5480e+002  1.7447e+002 33351 104419,104497,104445
 1.4000e+000 104618 -3.4576e+002 -1.8054e+002  2.1328e+002 33351 104393,104497,104419
 1.4000e+000 104595 -6.2680e+002 -3.1122e+002  1.5436e+002 33351 104367,104497,104393
 1.4000e+000 104572 -4.6312e+002 -3.4031e+002  1.7713e+002 33351 104445,104497,104471
 1.4000e+000 104549 -4.7780e+002 -2.4288e+002  6.1272e+001 33351 104367,104523,104497
 1.4000e+000 105019 -3.7648e+002 -7.6242e+002  3.8496e+002 32861 104823,104901,104875
 1.4000e+000 104996 -5.1509e+002 -8.7329e+002  3.2178e+002 32861 104745,104901,104823
 1.4000e+000 104973 -5.4951e+002 -8.3796e+002  3.5133e+002 32861 104823,104875,104849
 1.4000e+000 104950 -5.1917e+002 -8.5747e+002  4.2861e+002 32861 104745,104823,104797
 1.4000e+000 104927 -5.9418e+002 -3.2958e+002  4.4330e+002 32861 104745,104797,104771
 1.4000e+000 105397 -2.6735e+002 -5.3237e+002  2.3707e+002 32457 105149,105253,105175
 1.4000e+000 105374 -3.9406e+002 -4.4974e+002  1.9505e+002 32457 105149,105279,105253
 1.4000e+000 105351 -2.8683e+002 -3.8078e+002  2.2470e+002 32457 105123,105279,105149
 1.4000e+000 105328 -3.6075e+002 -1.0303e+002  2.7046e+002 32457 105175,105227,105201
 1.4000e+000 105305 -5.1886e+002 -6.4027e+002  2.3420e+002 32457 105175,105253,105227
 1.4000e+000 105726 -1.8584e+002 -5.4469e+002  2.3777e+002 32003 105527,105605,105553
 1.4000e+000 105703 -2.9849e+002 -4.6693e+002  2.2633e+002 32003 105501,105605,105527
 1.4000e+000 105680 -1.5338e+002 -4.0630e+002  2.1954e+002 32003 105501,105631,105605
 1.4000e+000 105657 -8.3946e+001 -3.1459e+002  2.1159e+002 32003 105553,105605,105579
 1.4000e+000 106104 -4.1614e+002 -4.4587e+002  1.8403e+002 31492 106127,105908,105856
 1.4000e+000 106081 -3.2263e+002 -3.9308e+002  1.0924e+002 31492 106127,105856,105830
 1.4000e+000 106058 -2.9415e+002 -6.6609e+002  2.1808e+002 31492 105856,105908,105882
 1.4000e+000 106035 -1.0991e+002 -3.3884e+002  1.0701e+002 31492 105830,105986,105960
 1.4000e+000 106012 -2.3552e+002 -5.8369e+002  3.2000e+002 31492 105908,105960,105934
 1.4000e+000 106153 -4.5661e+002 -4.7757e+002  2.2724e+002 31492 105960,105908,106127
 1.4000e+000 106176 -4.1203e+002 -4.8673e+002  1.6249e+002 31492 105960,106127,105830
 1.4000e+000 106375 -4.0826e+002 -4.2961e+002  2.8653e+002 30788 106398,106277,106251
 1.4000e+000 106352 -4.5246e+002 -5.7164e+002  2.8078e+002 30788 106398,106251,106225
 1.4000e+000 106329 -6.1121e+002 -4.5712e+002  3.9535e+002 30788 106600,106199,106303
 1.4000e+000 106424 -5.6194e+002 -6.4935e+002  2.0706e+002 30788 106470,106398,106303
 1.4000e+000 106447 -4.3286e+002 -5.3036e+002  2.7239e+002 30788 106600,106303,106398
 1.4000e+000 106496 -1.5840e+002 -4.7745e+002  2.3256e+002 30788 106277,106398,106470
 1.4000e+000 106626 -7.2135e+002 -6.0665e+002  4.8210e+002 30788 106225,106199,106600
 1.4000e+000 106649 -5.9681e+002 -6.8673e+002  3.5754e+002 30788 106225,106600,106398
 1.4000e+000 106799 -1.8136e+002 -7.7542e+002  1.6807e+001 30426 106698,106750,106724
 1.4000e+000 106776 -1.6459e+002 -3.8472e+002  4.6378e+001 30426 106672,106750,106698
 1.4000e+000 107356 -4.6499e+002 -3.6552e+002  1.8761e+002 29972 107010,107166,107114
 1.4000e+000 107333 -4.5731e+002 -3.5470e+002  1.9791e+002 29972 106984,107166,107010
 1.4000e+000 107310 -4.6077e+002 -1.9131e+002  1.1325e+002 29972 107010,107114,107088
 1.4000e+000 107287 -4.4225e+002 -1.8613e+002  1.3862e+002 29972 107114,107166,107140
 1.4000e+000 107264 -4.6579e+002 -4.1600e+002  2.3271e+002 29972 106984,107192,107166
 1.4000e+000 107241 -5.5063e+002 -3.5938e+002  1.4689e+002 29972 107010,107088,107036
 1.4000e+000 107218 -3.9852e+002 -2.8586e+002  1.0229e+002 29972 107036,107088,107062
 1.4000e+000 107783 -4.9539e+002 -6.6016e+002  3.2392e+002 29724 107878,107806,107590
 1.4000e+000 107760 -6.4864e+002 -7.1007e+002  2.7923e+002 29724 107806,107512,107486
 1.4000e+000 107737 -5.0405e+002 -6.3244e+002  3.6016e+002 29724 107878,107590,107538
 1.4000e+000 107714 -4.9690e+002 -7.4372e+002  3.6063e+002 29724 107950,107460,107616
 1.4000e+000 107691 -4.6735e+002 -7.2352e+002  3.3746e+002 29724 107460,107642,107616
 1.4000e+000 107668 -3.5009e+002 -4.9627e+002  4.1751e+002 29724 107538,107590,107564
 1.4000e+000 107832 -3.5434e+002 -6.6322e+002  3.9100e+002 29724 107616,107590,107806
 1.4000e+000 107855 -5.0411e+002 -7.5041e+002  3.4785e+002 29724 107950,107616,107806
 1.4000e+000 107904 -4.8695e+002 -6.0338e+002  3.4454e+002 29724 107512,107806,107878
 1.4000e+000 107927 -4.5262e+002 -5.4572e+002  3.9209e+002 29724 107512,107878,107538
 1.4000e+000 107976 -2.9095e+002 -7.5040e+002  3.9993e+002 29724 107486,107460,107950
 1.4000e+000 107999 -4.7900e+002 -8.0400e+002  3.3669e+002 29724 107486,107950,107806
 1.4000e+000 108296 -5.1928e+002 -4.3420e+002  2.7283e+002 29206 108319,108100,108048
 1.4000e+000 108273 -3.0451e+002 -3.8989e+002  3.2816e+002 29206 108319,108048,108022
 1.4000e+000 108250 -1.7338e+002 -4.6263e+002  3.9695e+002 29206 108391,108152,108126
 1.4000e+000 108227 -6.2997e+002 -3.0798e+002  3.4772e+002 29206 108048,108100,108074
 1.4000e+000 108204 -2.4476e+002 -6.2194e+002  3.4212e+002 29206 108022,108178,108152
 1.4000e+000 108345 -3.8348e+002 -2.6543e+002  3.9361e+002 29206 108126,108100,108319
 1.4000e+000 108368 -2.2432e+002 -3.7872e+002  4.4420e+002 29206 108391,108126,108319
 1.4000e+000 108417 -3.0250e+002 -5.6473e+002  3.4156e+002 29206 108022,108152,108391
 1.4000e+000 108440 -3.4178e+002 -5.0082e+002  3.9149e+002 29206 108022,108391,108319
 1.4000e+000 108688 -6.0304e+002 -6.4452e+002  3.4344e+002 28595 108711,108541,108515
 1.4000e+000 108665 -8.4605e+002 -6.9696e+002  4.9912e+002 28595 108783,108711,108515
 1.4000e+000 108642 -1.0197e+003 -6.1135e+002  5.0049e+002 28595 108783,108515,108489
 1.4000e+000 108619 -1.0271e+003 -7.6835e+002  2.6773e+002 28595 108463,108593,108489
 1.4000e+000 108737 -5.4391e+002 -4.9678e+002  2.3940e+002 28595 108567,108541,108711
 1.4000e+000 108760 -4.6980e+002 -5.6199e+002  4.3698e+002 28595 108567,108711,108593
 1.4000e+000 108809 -5.6594e+002 -7.0615e+002  3.8091e+002 28595 108593,108711,108783
 1.4000e+000 108832 -8.2607e+002 -6.6903e+002  3.3852e+002 28595 108593,108783,108489
 1.4000e+000 109033 -2.3356e+002 -3.2289e+002  1.6358e+002 28091 108909,108961,108935
 1.4000e+000 109010 -3.4177e+002 -3.0754e+002  1.4006e+002 28091 108857,108961,108909
 1.4000e+000 108987 -5.2794e+002 -4.7512e+002  3.6279e+002 28091 108857,108909,108883
 1.4000e+000 109136 -4.1538e+002 -9.8101e+002  1.7748e+002 27587 109058,109110,109084
 1.4000e+000 109695 -4.2124e+002 -4.3443e+002  1.5825e+002 26969 109718,109375,109323
 1.4000e+000 109672 -4.0549e+002 -4.0850e+002  1.4631e+002 26969 109718,109323,109505
 1.4000e+000 109649 -4.7411e+002 -1.5254e+002  8.1496e+001 26969 109790,109453,109427
 1.4000e+000 109626 -1.7634e+002 -4.2911e+002  2.0845e+002 26969 109323,109375,109349
 1.4000e+000 109603 -4.6993e+002 -5.3120e+002  2.1465e+002 26969 109323,109531,109505
 1.4000e+000 109580 -2.4439e+002 -4.6187e+002  8.6715e+001 26969 109375,109427,109401
 1.4000e+000 109557 -5.0369e+002 -2.1953e+002  1.1971e+002 26969 109453,109505,109479
 1.4000e+000 109744 -4.2277e+002 -4.6350e+002  8.2586e+001 26969 109427,109375,109718
 1.4000e+000 109767 -3.4952e+002 -2.6990e+002  7.0426e+001 26969 109790,109427,109718
 1.4000e+000 109816 -5.2901e+002 -2.7742e+002  1.3434e+002 26969 109505,109453,109790
 1.4000e+000 109839 -4.4529e+002 -4.2517e+002  1.4277e+002 26969 109505,109790,109718
 1.4000e+000 110266 -3.4101e+002 -5.1328e+002  2.0878e+002 26515 110361,110289,110099
 1.4000e+000 110243 -2.8602e+002 -3.9948e+002  2.5905e+002 26515 110289,109995,109943
 1.4000e+000 110220 -3.8389e+002 -5.3358e+002  2.1639e+002 26515 110361,110099,110021
 1.4000e+000 110197 -3.2968e+002 -9.1215e+002  1.3278e+002 26515 110047,110099,110073
 1.4000e+000 110174 -3.6938e+002 -9.1991e+002  1.0086e+001 26515 110021,110099,110047
 1.4000e+000 110151  3.2165e+001  1.7067e+001  4.0269e+002 26515 109943,109995,109969
 1.4000e+000 110315 -5.6268e+002 -3.6929e+002  1.7972e+002 26515 110125,110099,110289
 1.4000e+000 110338 -3.5778e+002 -1.3424e+002  3.5471e+002 26515 110125,110289,109943
 1.4000e+000 110387 -3.7682e+002 -4.7628e+002  1.5626e+002 26515 109995,110289,110361
 1.4000e+000 110410 -4.1552e+002 -4.9959e+002  1.6603e+002 26515 109995,110361,110021
 1.4000e+000 110609 -1.6763e+002 -5.9567e+002  2.2160e+002 25789 110906,110762,110632
 1.4000e+000 110586 -1.7674e+002 -7.2887e+002  2.5089e+002 25789 110762,110433,110537
 1.4000e+000 110563 -4.0584e+002 -6.5857e+002  3.6370e+002 25789 110834,110459,110433
 1.4000e+000 110658 -2.4698e+002 -5.7956e+002  2.8109e+002 25789 110906,110632,110834
 1.4000e+000 110788 -1.2238e+002 -3.9883e+002  1.4922e+002 25789 110511,110632,110762
 1.4000e+000 110811 -1.6376e+002 -5.9222e+002  2.5462e+002 25789 110511,110762,110537
 1.4000e+000 110860 -2.7163e+002 -5.8353e+002  3.2463e+002 25789 110485,110459,110834
 1.4000e+000 110883 -3.1860e+002 -5.9649e+002  2.9040e+002 25789 110485,110834,110632
 1.4000e+000 110932 -3.3354e+002 -6.4659e+002  2.3605e+002 25789 110433,110762,110906
 1.4000e+000 110955 -3.9592e+002 -6.0932e+002  2.8336e+002 25789 110433,110906,110834
 1.4000e+000 111350 -4.3317e+002 -5.4422e+002  3.4061e+002 25228 111445,111373,111186
 1.4000e+000 111327 -4.7908e+002 -5.7398e+002  1.4525e+002 25228 110978,111186,111004
 1.4000e+000 111304 -4.7195e+002 -6.7959e+002  2.8518e+002 25228 111373,111108,111082
 1.4000e+000 111281 -3.9405e+002 -7.2889e+002  2.8781e+002 25228 111134,111186,111160
 1.4000e+000 111258 -4.1965e+002 -5.1869e+002  3.4679e+002 25228 111445,111186,111134
 1.4000e+000 111235 -4.0352e+002 -4.5985e+002  1.9278e+002 25228 111517,111030,111004
 1.4000e+000 111212 -6.0486e+002 -5.5966e+002  2.9156e+002 25228 111030,111082,111056
 1.4000e+000 111399 -4.4234e+002 -6.1264e+002  3.2648e+002 25228 111004,111186,111373
 1.4000e+000 111422 -3.4728e+002 -5.1617e+002  2.6518e+002 25228 111517,111004,111373
 1.4000e+000 111471 -4.5659e+002 -5.3594e+002  2.9886e+002 25228 111108,111373,111445
 1.4000e+000 111494 -4.3964e+002 -5.0343e+002  3.0596e+002 25228 111108,111445,111134
 1.4000e+000 111543 -5.2071e+002 -5.0609e+002  2.4206e+002 25228 111082,111030,111517
 1.4000e+000 111566 -4.6526e+002 -5.7919e+002  3.1657e+002 25228 111082,111517,111373
 1.4000e+000 112074 -3.7326e+002 -4.3063e+002  2.9801e+002 24338 112097,111907,111881
 1.4000e+000 112051 -5.2465e+002 -4.3634e+002  2.1421e+002 24338 112097,111881,111829
 1.4000e+000 112028 -2.4140e+002 -4.9863e+002  1.5898e+002 24338 111829,111881,111855
 1.4000e+000 112005 -6.8005e+002 -6.6799e+002  1.9680e+002 24338 111777,111933,111829
 1.4000e+000 111982 -8.2396e+002 -2.1361e+002  2.3328e+002 24338 111751,111933,111777
 1.4000e+000 111959 -7.1686e+002 -7.3222e+002  2.2925e+002 24338 111777,111829,111803
 1.4000e+000 112123 -5.1235e+002 -6.2260e+002  2.1687e+002 24338 111933,111907,112097
 1.4000e+000 112146 -5.8779e+002 -4.6018e+002  1.7775e+002 24338 111933,112097,111829
 1.4000e+000 112443 -6.1655e+002 -4.3569e+002  2.7305e+002 23998 112466,112299,112247
 1.4000e+000 112420 -6.6457e+002 -7.4151e+002  2.3838e+002 23998 112466,112247,112221
 1.4000e+000 112397 -6.1703e+002 -7.5292e+002  3.7287e+002 23998 112169,112325,112221
 1.4000e+000 112374 -5.8565e+002 -6.7296e+002  3.8088e+002 23998 112169,112221,112195
 1.4000e+000 112351 -2.3466e+002 -4.0235e+002  3.1796e+002 23998 112247,112299,112273
 1.4000e+000 112492 -5.7183e+002 -4.8626e+002  4.5197e+002 23998 112325,112299,112466
 1.4000e+000 112515 -6.3576e+002 -6.5773e+002  3.8484e+002 23998 112325,112466,112221
 1.4000e+000 113200 -5.9477e+002 -7.0165e+002  4.6191e+002 23480 112779,112961,112805
 1.4000e+000 113177 -6.2667e+002 -5.0728e+002  2.2485e+002 23480 112779,112987,112961
 1.4000e+000 113154 -2.0841e+002 -3.9696e+002  3.0589e+002 23480 112805,112961,112883
 1.4000e+000 113131 -4.0294e+002 -6.4244e+002  3.2412e+002 23480 112883,112935,112909
 1.4000e+000 113108 -5.0332e+002 -5.2058e+002  3.2921e+002 23480 112883,112961,112935
 1.4000e+000 113085 -2.5477e+002 -3.3403e+002  1.5834e+002 23480 112831,112883,112857
 1.4000e+000 113062 -3.5181e+002 -4.0089e+002  2.0059e+002 23480 112805,112883,112831
 1.4000e+000 113039 -7.0916e+002 -3.9967e+002  2.4485e+002 23480 112779,113013,112987
 1.4000e+000 113676 -5.4617e+002 -3.1194e+002  4.1123e+002 23018 113699,113434,113356
 1.4000e+000 113653 -4.9548e+002 -3.0671e+002  2.4333e+002 23018 113771,113699,113356
 1.4000e+000 113630 -4.5222e+002 -4.5247e+002  1.7771e+002 23018 113771,113356,113512
 1.4000e+000 113607 -3.3388e+002 -6.0967e+002  2.7612e+002 23018 113330,113512,113356
 1.4000e+000 113584 -1.0976e+003 -5.6133e+002  6.1658e+002 23018 113356,113434,113382
 1.4000e+000 113561 -1.2570e+002 -5.7359e+002  2.6852e+002 23018 113304,113512,113330
 1.4000e+000 113538 -1.0275e+003 -1.3213e+002  2.7127e+002 23018 113382,113434,113408
 1.4000e+000 113725 -6.1009e+002 -4.6383e+002  4.1214e+002 23018 113460,113434,113699
 1.4000e+000 113748 -6.3631e+002 -4.8815e+002  2.8415e+002 23018 113460,113699,113486
 1.4000e+000 113797 -6.1306e+002 -5.2251e+002  2.8861e+002 23018 113486,113699,113771
 1.4000e+000 113820 -5.0117e+002 -5.5602e+002  1.9136e+002 23018 113486,113771,113512
 1.4000e+000 114424 -5.9758e+002 -5.4036e+002  1.2144e+002 22514 114447,114133,114029
 1.4000e+000 114401 -6.0566e+002 -6.6264e+002  1.2136e+002 22514 114447,114029,114237
 1.4000e+000 114378 -6.1961e+002 -4.0463e+002  7.4962e+001 22514 114133,114211,114185
 1.4000e+000 114355 -9.5940e+002 -4.4816e+002  2.8193e+001 22514 114133,114185,114159
 1.4000e+000 114332 -4.9788e+002 -6.9747e+002  2.8976e+002 22514 114003,114237,114029
 1.4000e+000 114309 -6.4960e+002 -4.8598e+002  6.8020e+001 22514 114029,114133,114055
 1.4000e+000 114286 -7.0000e+002 -4.7635e+002  9.0210e+001 22514 114055,114133,114107
 1.4000e+000 114263 -5.4010e+002 -1.6596e+001  1.0204e+002 22514 114055,114107,114081
 1.4000e+000 114473 -6.2976e+002 -4.7331e+002  1.6990e+002 22514 114211,114133,114447
 1.4000e+000 114496 -6.1584e+002 -5.6411e+002  1.6723e+002 22514 114211,114447,114237
 1.4000e+000 114597 -3.0442e+002 -7.7487e+002  4.1636e+002 22316 114620,114571,114545
 1.4000e+000 114646 -3.0442e+002 -7.7487e+002  4.1636e+002 22316 114519,114571,114620
 1.4000e+000 115127 -7.4548e+002 -5.1739e+002  2.6495e+002 21612 115150,114905,114879
 1.4000e+000 115104 -8.6765e+002 -3.1873e+002  2.8847e+002 21612 115150,114879,114853
 1.4000e+000 115081 -5.7317e+002 -1.5342e+002  4.0009e+002 21612 115222,114931,114905
 1.4000e+000 115058 -6.4082e+002 -4.1661e+002  3.2772e+002 21612 115222,114905,115009
 1.4000e+000 115035 -3.9239e+002 -5.7364e+002  2.4313e+002 21612 114957,115009,114983
 1.4000e+000 115176 -6.7366e+002 -3.8542e+002  2.3745e+002 21612 115009,114905,115150
 1.4000e+000 115199 -7.7509e+002 -1.5644e+002  2.5120e+002 21612 115009,115150,114853
 1.4000e+000 115248 -5.5159e+002 -3.9806e+002  3.2266e+002 21612 114957,114931,115222
 1.4000e+000 115271 -6.1399e+002 -6.5096e+002  2.4851e+002 21612 114957,115222,115009
 1.4000e+000 115519 -1.8879e+002  9.5737e+001  2.0182e+002 21208 115542,115372,115320
 1.4000e+000 115496  2.2648e+001  2.4150e+002  8.9834e-001 21208 115542,115320,115294
 1.4000e+000 115473 -1.3053e+002 -3.3408e+002  2.8441e+002 21208 115320,115372,115346
 1.4000e+000 115450 -4.1349e+002 -1.2436e+002  1.0661e+002 21208 115294,115424,115398
 1.4000e+000 115568 -2.7808e+002  1.6578e+001  2.9226e+002 21208 115398,115372,115542
 1.4000e+000 115591 -1.9682e+002 -9.9219e+001  1.2668e+002 21208 115398,115542,115294
 1.4000e+000 115839 -5.4646e+002 -3.7346e+002  3.3264e+002 20668 115862,115640,115614
 1.4000e+000 115816 -5.9423e+002 -4.0841e+002  3.5774e+002 20668 115862,115614,115744
 1.4000e+000 115793 -7.0025e+002 -2.9832e+002  3.2915e+002 20668 115640,115718,115692
 1.4000e+000 115770 -8.2055e+002 -3.2952e+002  3.2971e+002 20668 115640,115692,115666
 1.4000e+000 115888 -6.1294e+002 -2.9858e+002  3.6359e+002 20668 115718,115640,115862
 1.4000e+000 115911 -6.7264e+002 -3.7034e+002  4.0003e+002 20668 115718,115862,115744
 1.4000e+000 116134 -3.4216e+002 -5.7644e+002  3.2626e+002 20264 115958,116036,115984
 1.4000e+000 116111 -2.0481e+002 -5.1387e+002  3.1223e+002 20264 115958,116062,116036
 1.4000e+000 116088 -2.1113e+002 -5.3888e+002  3.5370e+002 20264 115984,116036,116010
 1.4000e+000 116384 -5.7464e+002 -3.7047e+002  3.6868e+002 19924 116407,116211,116159
 1.4000e+000 116361 -5.4018e+002 -6.0242e+002  3.0664e+002 19924 116407,116159,116263
 1.4000e+000 116338 -5.4296e+002 -2.5590e+002  3.6383e+002 19924 116159,116211,116185
 1.4000e+000 116315 -3.6970e+002 -6.1688e+002  3.9111e+002 19924 116159,116289,116263
 1.4000e+000 116433 -5.5187e+002 -2.4440e+002  4.2189e+002 19924 116237,116211,116407
 1.4000e+000 116456 -4.2939e+002 -3.9983e+002  3.8911e+002 19924 116237,116407,116263
 1.4000e+000 116608 -3.9307e+002 -1.2660e+002  2.5599e+002 19520 116703,116631,116533
 1.4000e+000 116585 -3.8178e+002 -1.7104e+002  2.1756e+002 19520 116631,116507,116481
 1.4000e+000 116657 -3.1062e+002 -1.7690e+002  2.7401e+002 19520 116559,116533,116631
 1.4000e+000 116680 -3.5879e+002 -2.8773e+002  2.2519e+002 19520 116559,116631,116481
 1.4000e+000 116729 -3.9307e+002 -1.2660e+002  2.5599e+002 19520 116507,116631,116703
 1.4000e+000 116952 -4.5409e+002 -4.0558e+002  5.5824e+002 19208 116975,116802,116776
 1.4000e+000 116929 -5.7794e+002 -7.5569e+002  3.2444e+002 19208 116975,116776,116880
 1.4000e+000 116906 -6.5535e+002 -2.7981e+002  3.9356e+002 19208 116802,116854,116828
 1.4000e+000 117001 -3.6406e+002 -3.4286e+002  5.8747e+002 19208 116854,116802,116975
 1.4000e+000 117024 -1.5157e+002 -4.3459e+002  4.6892e+002 19208 116854,116975,116880
 1.4000e+000 117428 -5.0705e+002 -1.9061e+002  3.0592e+002 18796 117154,117206,117180
 1.4000e+000 117405 -3.4930e+002 -3.8184e+002  2.7330e+002 18796 117154,117284,117206
 1.4000e+000 117382 -2.2246e+002 -3.2446e+002  2.9106e+002 18796 117154,117310,117284
 1.4000e+000 117359 -2.0270e+002 -2.6782e+002  3.6256e+002 18796 117206,117284,117258
 1.4000e+000 117336 -6.3058e+001 -5.6753e+001  4.9202e+002 18796 117206,117258,117232
 1.4000e+000 117529 -2.5455e+002 -1.3571e+002  1.5462e+002 18228 117810,117552,117477
 1.4000e+000 117578 -5.3405e+002 -3.6101e+002  2.2668e+002 18228 117682,117552,117503
 1.4000e+000 117708 -1.8734e+002 -1.8426e+002  1.4811e+002 18228 117477,117552,117682
 1.4000e+000 117836 -3.7833e+002 -3.6814e+002  2.1585e+002 18228 117451,117552,117810
 1.4000e+000 118364 -5.9641e+002 -2.0023e+002  2.2327e+002 17722 118067,118223,118093
 1.4000e+000 118341 -5.5636e+002 -1.0286e+002  2.3450e+002 17722 118041,118223,118067
 1.4000e+000 118318 -3.4189e+002 -1.8336e+002  1.5827e+002 17722 118093,118223,118197
 1.4000e+000 118295 -9.1917e+002 -8.9442e+002  5.6966e+002 17722 118119,118197,118171
 1.4000e+000 118272 -1.8968e+002 -3.9341e+001  2.4909e+002 17722 118093,118197,118119
 1.4000e+000 118249 -8.3221e+002 -3.6570e+002  4.9335e+002 17722 118119,118171,118145
 1.4000e+000 118514 -8.9405e+002 -3.5630e+002  3.1740e+002 17268 118387,118439,118413
 1.4000e+000 118491 -6.0558e+001 -3.6930e+002  3.1897e+002 17268 118387,118465,118439
 1.4000e+000 118916 -8.0416e+002 -2.8095e+002  2.0720e+002 16828 118668,118772,118694
 1.4000e+000 118893 -9.9288e+002 -3.6777e+002  1.7808e+002 16828 118668,118798,118772
 1.4000e+000 118870 -1.0827e+003 -6.3898e+002  1.2889e+002 16828 118642,118798,118668
 1.4000e+000 118847 -4.7369e+002 -2.0040e+002  3.8285e+002 16828 118694,118746,118720
 1.4000e+000 118824 -8.6424e+002 -4.9333e+002  1.8959e+002 16828 118694,118772,118746
 1.4000e+000 119316 -3.8962e+002 -2.9324e+002  3.9405e+002 16422 119042,119172,119094
 1.4000e+000 119293 -4.8584e+002 -3.0726e+002  4.1062e+002 16422 119042,119198,119172
 1.4000e+000 119270 -5.6865e+002 -1.9513e+002  2.4176e+002 16422 119042,119094,119068
 1.4000e+000 119247 -2.4762e+002 -1.4902e+002  5.5147e+002 16422 119094,119146,119120
 1.4000e+000 119224 -3.4211e+002 -2.0968e+002  4.1426e+002 16422 119094,119172,119146
 1.4000e+000 119466 -1.0571e+003 -2.6072e+002 -9.1520e+001 16010 119339,119391,119365
 1.4000e+000 119443 -5.0857e+002 -3.6152e+002  2.5106e+002 16010 119339,119417,119391
 1.4000e+000 119616 -2.2970e+002 -7.7815e+001  3.1669e+002 15547 119515,119567,119541
 1.4000e+000 119593  1.6015e+002  2.1340e+002  6.6785e+002 15547 119489,119567,119515
 1.4000e+000 119719 -6.6455e+002 -2.5901e+002  3.1508e+002 421 119641,119693,119667
 1.5000e+000 69562 -6.6691e+002 -3.1669e+002  5.2980e+002 69254 69484,69536,69510
 1.5000e+000 70009 -2.6743e+002 -2.8584e+002  2.7191e+002 68942 69686,69842,69816
 1.5000e+000 69986 -2.4530e+002 -1.1783e+002  1.5788e+002 68942 69686,69868,69842
 1.5000e+000 69963  5.4231e+000  8.7925e+000  3.8539e+002 68942 69686,69816,69712
 1.5000e+000 69940 -6.6768e+001 -7.2133e+001  5.6258e+002 68942 69712,69790,69738
 1.5000e+000 69917 -3.7786e+002 -8.8004e+002  4.1196e+002 68942 69712,69816,69790
 1.5000e+000 69894  1.1612e+001 -4.8096e+002  2.2566e+002 68942 69738,69790,69764
 1.5000e+000 70110 -3.1038e+002 -6.1298e+001  2.0750e+002 68766 70032,70084,70058
 1.5000e+000 70746 -1.7328e+002 -1.4790e+002  2.0579e+002 68448 70400,70556,70426
 1.5000e+000 70723 -6.2117e+002 -2.2536e+002  3.0270e+002 68448 70374,70556,70400
 1.5000e+000 70700 -3.0606e+002 -1.5507e+002  1.4529e+002 68448 70426,70556,70478
 1.5000e+000 70677 -4.7945e+002 -1.0204e+002  1.7551e+002 68448 70478,70556,70504
 1.5000e+000 70654 -3.0367e+002 -1.8281e+002  1.3803e+002 68448 70426,70478,70452
 1.5000e+000 70631 -6.2449e+002 -2.3433e+002  3.6903e+002 68448 70374,70582,70556
 1.5000e+000 70608 -5.1144e+002 -1.6534e+002  1.6555e+002 68448 70504,70556,70530
 1.5000e+000 70896 -4.2590e+002 -6.7047e+001  3.8767e+001 68250 70795,70847,70821
 1.5000e+000 70873 -1.1488e+003 -3.3888e+002  4.6826e+001 68250 70769,70847,70795
 1.5000e+000 70997 -1.8750e+003 -8.9523e+002  7.9886e+002 68052 70919,70971,70945
 1.5000e+000 71367 -5.6394e+002 -9.1171e+002  3.5388e+002 67740 71096,71226,71200
 1.5000e+000 71344 -3.6354e+002 -5.1345e+002  4.3808e+002 67740 71044,71226,71096
 1.5000e+000 71321  5.1835e+001 -5.1835e+001  6.8975e+002 67740 71044,71096,71070
 1.5000e+000 71298 -4.1733e+002 -9.8297e+002  6.7874e+002 67740 71096,71200,71174
 1.5000e+000 71275 -2.4046e+002 -5.8782e+002  2.6933e+002 67740 71096,71148,71122
 1.5000e+000 71252 -3.3166e+002 -7.0367e+002  4.4743e+002 67740 71096,71174,71148
 1.5000e+000 71519  2.2211e+002  1.5559e+002  2.1870e+002 67542 71418,71470,71444
 1.5000e+000 71496  3.7668e+002  7.1285e+002  6.8694e+002 67542 71392,71470,71418
 1.5000e+000 71923 -1.1041e+002  2.9683e+001  1.8612e+002 67230 71649,71779,71675
 1.5000e+000 71900 -6.9671e+001 -1.6037e+002  1.0613e+002 67230 71649,71805,71779
 1.5000e+000 71877 -1.0782e+002 -2.8509e+001  3.5382e+002 67230 71675,71727,71701
 1.5000e+000 71854 -1.5427e+002 -5.2897e+002  3.3480e+002 67230 71675,71753,71727
 1.5000e+000 71831 -1.6668e+002 -3.0849e+002  2.3134e+002 67230 71675,71779,71753
 1.5000e+000 72433 -2.9559e+002 -1.4463e+002  2.8131e+002 67032 72038,72246,72220
 1.5000e+000 72410 -2.2712e+002  1.2435e+001  1.0785e+002 67032 72012,72246,72038
 1.5000e+000 72387 -3.3571e+002 -8.4184e+001  3.0947e+002 67032 72064,72194,72168
 1.5000e+000 72364 -3.8930e+002 -1.3985e+002  3.3482e+002 67032 72038,72194,72064
 1.5000e+000 72341 -4.4620e+002 -5.5759e+002  3.6814e+002 67032 72038,72220,72194
 1.5000e+000 72318 -1.4474e+002  3.4366e+001  1.7903e+002 67032 72090,72168,72142
 1.5000e+000 72295  3.3538e+001  6.5967e+001  2.4985e+002 67032 72064,72168,72090
 1.5000e+000 72272 -1.7082e+002  1.1600e+001  1.6814e+002 67032 72090,72142,72116
 1.5000e+000 72933 -2.9635e+002 -3.5035e+002  3.4559e+002 66628 72956,72665,72613
 1.5000e+000 72910 -2.7793e+002 -3.7287e+002  3.4528e+002 66628 73100,72956,72613
 1.5000e+000 72887 -3.7577e+002 -5.3149e+002  2.8416e+002 66628 73028,72691,72665
 1.5000e+000 72864 -2.6289e+002 -3.4209e+002  3.5136e+002 66628 73100,72613,72587
 1.5000e+000 72841 -2.8264e+002 -3.3531e+002  3.1478e+002 66628 72613,72665,72639
 1.5000e+000 72818  1.3132e+002  3.5147e+001  4.7486e+002 66628 72587,72769,72743
 1.5000e+000 72795 -2.5817e+002 -7.3381e+002  8.8547e+001 66628 72561,72769,72587
 1.5000e+000 72982 -3.6754e+002 -3.8547e+002  3.7152e+002 66628 73028,72665,72956
 1.5000e+000 73005 -2.9481e+002 -1.0883e+002  3.6015e+002 66628 72717,72956,72743
 1.5000e+000 73054 -5.4077e+002 -4.3844e+002  1.7607e+002 66628 72717,72691,73028
 1.5000e+000 73077 -5.3540e+002 -3.8974e+002  2.5460e+002 66628 72717,73028,72956
 1.5000e+000 73126 -2.9137e+002 -3.6951e+002  3.1068e+002 66628 72743,72956,73100
 1.5000e+000 73149 -2.7691e+002 -3.4432e+002  3.1721e+002 66628 72743,73100,72587
 1.5000e+000 73606 -3.2521e+002 -3.2481e+002  2.9673e+002 66281 73332,73384,73358
 1.5000e+000 73583 -4.1248e+002 -4.3894e+002  2.5342e+002 66281 73332,73462,73384
 1.5000e+000 73560 -5.4135e+002 -3.3827e+002  3.3389e+002 66281 73384,73462,73436
 1.5000e+000 73537 -8.9915e+002 -4.9032e+002  4.3437e+002 66281 73332,73488,73462
 1.5000e+000 73514 -6.2103e+002 -3.1562e+002  1.7149e+002 66281 73384,73436,73410
 1.5000e+000 73984 -2.6724e+001 -9.6414e+001  5.3124e+001 65969 73736,73814,73788
 1.5000e+000 73961  4.4607e+001 -2.8086e+001  1.0941e+001 65969 73736,73866,73814
 1.5000e+000 73938 -1.2565e+002 -1.4115e+002  1.8040e+002 65969 73814,73866,73840
 1.5000e+000 73915 -1.0757e+001 -1.3319e+001  9.7196e+000 65969 73710,73866,73736
 1.5000e+000 73892 -8.2125e+000 -1.1122e+002  1.4502e+001 65969 73736,73788,73762
 1.5000e+000 74232 -2.5073e+002 -3.1984e+002  2.9674e+002 65572 74255,74085,74033
 1.5000e+000 74209 -2.1430e+002 -3.5966e+002  2.3529e+002 65572 74327,74255,74033
 1.5000e+000 74186 -2.4354e+002 -2.5315e+002  2.3848e+002 65572 74327,74033,74007
 1.5000e+000 74163 -2.8265e+002 -3.9317e+002  3.2614e+002 65572 74033,74085,74059
 1.5000e+000 74281 -3.3339e+002 -4.2702e+002  3.9155e+002 65572 74111,74085,74255
 1.5000e+000 74304 -1.9894e+002 -3.7822e+002  2.6557e+002 65572 74111,74255,74137
 1.5000e+000 74353 -1.8791e+002 -2.3588e+002  1.9799e+002 65572 74137,74255,74327
 1.5000e+000 74376 -2.4045e+002 -1.5670e+002  2.0665e+002 65572 74137,74327,74007
 1.5000e+000 74884 -2.6822e+002 -3.1674e+002  2.4327e+002 65174 74587,74717,74613
 1.5000e+000 74861 -2.7083e+002 -3.5100e+002  1.8310e+002 65174 74561,74717,74587
 1.5000e+000 74838 -2.8704e+002 -4.0332e+002  2.2246e+002 65174 74613,74691,74639
 1.5000e+000 74815 -2.3452e+002 -3.7735e+002  2.3517e+002 65174 74613,74717,74691
 1.5000e+000 74792 -1.2105e+002 -6.6796e+002  1.7113e+002 65174 74639,74691,74665
 1.5000e+000 74769 -3.7247e+002 -1.7973e+002  1.8350e+002 65174 74561,74743,74717
 1.5000e+000 75412 -1.5094e+001 -1.9298e+002  6.5750e+002 64770 75167,75245,75219
 1.5000e+000 75389 -3.1330e+002 -5.8667e+002  4.5568e+002 64770 75115,75245,75167
 1.5000e+000 75366 -2.4890e+002 -7.4264e+002  5.7740e+002 64770 75089,75245,75115
 1.5000e+000 75343 -4.6973e+002 -1.9786e+002  4.9142e+002 64770 75167,75219,75193
 1.5000e+000 75320 -2.5350e+002 -4.4762e+002  4.5986e+002 64770 75115,75167,75141
 1.5000e+000 75297 -3.9994e+002 -1.0748e+003  6.1148e+002 64770 75089,75271,75245
 1.5000e+000 75861 -6.5981e+002 -3.0465e+002  5.6762e+002 64316 75538,75694,75564
 1.5000e+000 75838 -2.5436e+002 -1.1240e+002  4.2537e+002 64316 75538,75720,75694
 1.5000e+000 75815 -5.9126e+002 -3.9302e+002  4.4635e+002 64316 75590,75694,75642
 1.5000e+000 75792 -5.7952e+002 -5.4218e+002  4.9093e+002 64316 75564,75694,75590
 1.5000e+000 75769 -1.7590e+002 -6.8528e+002  2.4967e+002 64316 75590,75642,75616
 1.5000e+000 75746 -5.7329e+002 -2.5003e+002  4.3728e+002 64316 75642,75694,75668
 1.5000e+000 76239 -8.6982e+002 -6.9201e+002  4.5878e+002 64018 76262,76095,76043
 1.5000e+000 76216 -5.9933e+002 -6.6424e+002  3.6218e+002 64018 76262,76043,76017
 1.5000e+000 76193 -2.2333e+002 -3.4137e+002  2.5951e+002 64018 75991,76121,76017
 1.5000e+000 76170 -8.0533e+002 -5.3439e+002  5.0751e+002 64018 76043,76095,76069
 1.5000e+000 76147 -1.7626e+001 -3.7294e+002  7.2122e+001 64018 75965,76121,75991
 1.5000e+000 76288 -5.8392e+002 -8.3240e+002  5.8754e+002 64018 76121,76095,76262
 1.5000e+000 76311 -3.6781e+002 -8.2820e+002  4.5319e+002 64018 76121,76262,76017
 1.5000e+000 76866 -3.1842e+002 -3.7641e+002  3.6815e+002 63728 76520,76676,76546
 1.5000e+000 76843 -3.0998e+002 -3.8348e+002  2.8169e+002 63728 76520,76702,76676
 1.5000e+000 76820 -2.5328e+002 -3.9676e+002  3.6253e+002 63728 76546,76650,76572
 1.5000e+000 76797 -4.4925e+002 -5.0724e+002  3.1288e+002 63728 76546,76676,76650
 1.5000e+000 76774 -4.5328e+002 -5.7033e+001  1.8321e+002 63728 76572,76650,76624
 1.5000e+000 76751 -2.6680e+002 -3.3770e+002  2.9976e+002 63728 76494,76702,76520
 1.5000e+000 76728 -9.1387e+001 -2.0074e+002  1.3661e+002 63728 76572,76624,76598
 1.5000e+000 77065 -8.1320e+001 -3.2465e+002  2.4093e+002 63288 77088,76941,76915
 1.5000e+000 77042 -3.0688e+002 -4.0146e+002  2.3456e+002 63288 77088,76915,76993
 1.5000e+000 77019 -1.2301e+002 -4.0727e+002  2.1334e+002 63288 76889,76993,76915
 1.5000e+000 77114 -2.0763e+002 -3.3651e+002  1.8867e+002 63288 76967,76941,77088
 1.5000e+000 77137 -5.1072e+002 -4.2332e+002  1.0026e+002 63288 77160,77088,76993
 1.5000e+000 77186 -1.2168e+002 -2.4567e+002  1.5308e+002 63288 76967,77088,77160
 1.5000e+000 77417 -1.2265e+002 -2.2922e+002  9.3281e+001 62884 77440,77342,77316
 1.5000e+000 77394 -2.3819e+002 -4.0974e+002  3.9113e+001 62884 77770,77440,77316
 1.5000e+000 77466 -2.6867e+002 -4.1233e+002  4.9332e+001 62884 77512,77440,77368
 1.5000e+000 77489 -1.7105e+002 -3.8548e+002  2.9455e+001 62884 77642,77440,77290
 1.5000e+000 77538 -1.4267e+002 -3.2512e+002  1.0955e+001 62884 77342,77440,77512
 1.5000e+000 77668 -2.3468e+002 -4.8434e+002 -7.4223e+000 62884 77368,77440,77642
 1.5000e+000 77796 -1.6814e+002 -3.7537e+002  2.8233e+001 62884 77290,77440,77770
 1.5000e+000 78479 -6.1263e+002 -6.4459e+002  3.9483e+002 62480 78084,78240,78214
 1.5000e+000 78456 -3.3141e+002 -5.4122e+002  2.7575e+000 62480 78084,78266,78240
 1.5000e+000 78433 -3.6834e+002 -5.2663e+002  1.5026e+002 62480 78110,78214,78136
 1.5000e+000 78410 -4.4547e+002 -5.5859e+002  3.4907e+002 62480 78084,78214,78110
 1.5000e+000 78387 -4.0651e+002 -3.4688e+002  1.9427e+002 62480 78136,78214,78188
 1.5000e+000 78364 -2.5525e+002 -6.0340e+002 -1.4164e+001 62480 78058,78266,78084
 1.5000e+000 78341 -4.1467e+002 -3.8358e+002  3.1479e+002 62480 78136,78188,78162
 1.5000e+000 78318 -1.4414e+002 -5.3118e+002 -5.8249e+001 62480 78058,78292,78266
 1.5000e+000 78678 -3.9275e+002 -7.2680e+002  3.1038e+002 61926 78528,78606,78554
 1.5000e+000 78655 -1.9894e+002 -7.9724e+002  3.8707e+002 61926 78502,78606,78528
 1.5000e+000 78632 -2.3315e+002 -4.4237e+002  1.4297e+002 61926 78554,78606,78580
 1.5000e+000 79058 -3.9519e+002 -4.1407e+002  2.3042e+002 61614 78836,78914,78862
 1.5000e+000 79035 -4.8746e+002 -4.7984e+002  2.0133e+002 61614 78810,78914,78836
 1.5000e+000 79012 -3.1407e+002 -4.0577e+002  1.8833e+002 61614 78784,78914,78810
 1.5000e+000 78989 -3.4207e+002 -4.3852e+002  3.5550e+002 61614 78862,78914,78888
 1.5000e+000 78966 -2.5376e+002 -5.3109e+002  2.1705e+002 61614 78784,78940,78914
 1.5000e+000 79208 -2.1268e+002 -4.9603e+002  2.0105e+001 61366 79081,79133,79107
 1.5000e+000 79185 -2.0562e+002 -1.8841e+002  3.0246e+002 61366 79081,79159,79133
 1.5000e+000 79358  4.5694e+001  9.9253e+000  3.9936e+001 60962 79231,79283,79257
 1.5000e+000 79335 -1.9924e+002 -4.7062e+002  1.2505e+002 60962 79231,79309,79283
 1.5000e+000 79608 -2.5887e+002 -5.7186e+002  2.7546e+002 60508 79631,79435,79409
 1.5000e+000 79585 -1.8979e+002 -6.0132e+002  1.7508e+002 60508 79703,79631,79409
 1.5000e+000 79562 -1.7157e+002 -1.7137e+002  2.4711e+002 60508 79703,79409,79383
 1.5000e+000 79539 -5.3030e+002 -5.5170e+002  4.7807e+002 60508 79435,79487,79461
 1.5000e+000 79657 -3.1340e+002 -7.5212e+002  4.5138e+002 60508 79487,79435,79631
 1.5000e+000 79680 -1.5105e+002 -5.2897e+002  2.0571e+002 60508 79487,79631,79513
 1.5000e+000 79729 -8.1243e+001 -2.0515e+002  7.7362e+001 60508 79513,79631,79703
 1.5000e+000 79752 -2.0406e+002 -1.4638e+002  2.0321e+001 60508 79513,79703,79383
 1.5000e+000 80390 -3.5296e+002 -4.3318e+002  3.4706e+002 59997 80413,80096,80018
 1.5000e+000 80367 -5.5044e+002 -4.9591e+002  4.0347e+002 59997 80413,80018,80226
 1.5000e+000 80344 -3.0032e+002 -3.6028e+002  2.5472e+002 59997 80096,80174,80148
 1.5000e+000 80321 -1.1390e+003 -8.4540e+002  5.6126e+002 59997 80018,80096,80070
 1.5000e+000 80298 -3.4972e+002 -4.2591e+002  2.1906e+002 59997 80096,80148,80122
 1.5000e+000 80275 -2.9069e+002 -3.4731e+002  2.7873e+002 59997 80174,80226,80200
 1.5000e+000 80252 -6.6305e+002 -5.4017e+002  5.6210e+001 59997 80018,80070,80044
 1.5000e+000 80439 -3.0363e+002 -4.5617e+002  2.8250e+002 59997 80174,80096,80413
 1.5000e+000 80462 -3.8370e+002 -4.0059e+002  3.1561e+002 59997 80174,80413,80226
 1.5000e+000 80840 -5.5854e+002 -5.2663e+002  2.5921e+002 59443 80863,80644,80618
 1.5000e+000 80817 -2.5079e+002 -3.9707e+002  3.0364e+002 59443 80863,80618,80566
 1.5000e+000 80794 -2.0475e+002 -3.4299e+002  3.3848e+002 59443 81007,80935,80670
 1.5000e+000 80771 -3.1959e+002 -3.7286e+002  3.3183e+002 59443 80566,80722,80696
 1.5000e+000 80748 -3.1970e+002 -5.4022e+002  3.5430e+002 59443 80566,80618,80592
 1.5000e+000 80889 -6.0217e+002 -4.6451e+002  3.9863e+002 59443 80935,80644,80863
 1.5000e+000 80912 -4.2785e+002 -4.2236e+002  3.4717e+002 59443 80696,80863,80566
 1.5000e+000 80961 -3.5987e+002 -3.9402e+002  4.0091e+002 59443 80696,80670,80935
 1.5000e+000 80984 -3.5260e+002 -3.5564e+002  3.7540e+002 59443 80696,80935,80863
 1.5000e+000 81033 -4.6490e+002 -6.1439e+002  4.7133e+002 59443 80644,80935,81007
 1.5000e+000 81360 -4.8466e+002 -3.2043e+002  2.5642e+002 59031 81383,81187,81161
 1.5000e+000 81337 -4.3761e+002 -3.5234e+002  1.2689e+002 59031 81455,81383,81161
 1.5000e+000 81314 -3.5446e+002 -2.6845e+002  1.6142e+002 59031 81455,81161,81135
 1.5000e+000 81291 -9.6142e+002 -1.6255e+002  3.8632e+002 59031 81187,81239,81213
 1.5000e+000 81409 -5.1746e+002 -4.8580e+002  3.0474e+002 59031 81239,81187,81383
 1.5000e+000 81432 -6.0689e+002 -4.0327e+002  1.1912e+002 59031 81239,81383,81265
 1.5000e+000 81481 -5.0914e+002 -1.9923e+002  1.5739e+002 59031 81265,81383,81455
 1.5000e+000 81504 -4.9455e+002 -1.7612e+002  1.6708e+002 59031 81265,81455,81135
 1.5000e+000 81835 -5.9957e+001 -2.2803e+002  6.6322e+001 58577 81610,81714,81636
 1.5000e+000 81812 -4.3093e+001 -2.3932e+002  6.7806e+001 58577 81610,81740,81714
 1.5000e+000 81789 -1.5720e+002 -2.6836e+002  4.5527e+001 58577 81636,81714,81688
 1.5000e+000 81766 -1.3578e+002 -2.5227e+002 -5.2026e+001 58577 81636,81688,81662
 1.5000e+000 81985 -1.3041e+002 -3.1826e+002  1.9563e+002 58030 81884,81936,81910
 1.5000e+000 81962 -2.6075e+002 -9.1571e+001  1.3711e+002 58030 81858,81936,81884
 1.5000e+000 82414 -1.0735e+002 -4.3060e+001  1.4352e+002 57690 82437,82169,82117
 1.5000e+000 82391 -1.4932e+002 -1.8143e+002  1.6790e+002 57690 82437,82117,82247
 1.5000e+000 82368  6.2513e+001  8.9603e+001  3.9506e+002 57690 82195,82247,82221
 1.5000e+000 82345 -1.1584e+002 -1.6706e+002  1.6965e+002 57690 82091,82247,82117
 1.5000e+000 82322 -1.8735e+002 -5.0012e+001  9.6568e+001 57690 82117,82169,82143
 1.5000e+000 82299 -1.3174e+002 -3.1522e+002  2.3560e+002 57690 82091,82273,82247
 1.5000e+000 82463 -1.6778e+002  1.0716e+001  2.0984e+002 57690 82195,82169,82437
 1.5000e+000 82486 -1.8668e+002 -8.5350e+001  2.1185e+002 57690 82195,82437,82247
 1.5000e+000 83041 -2.9300e+002 -3.2630e+002  2.1399e+002 57172 83064,82721,82695
 1.5000e+000 83018 -3.2484e+002 -3.3672e+002  3.0965e+002 57172 83064,82695,82851
 1.5000e+000 82995 -9.2774e+002 -4.3755e+002  4.1394e+002 57172 82669,82851,82695
 1.5000e+000 82972 -5.3450e+002 -3.7075e+002  2.8787e+002 57172 82773,82851,82825
 1.5000e+000 82949 -4.9816e+002 -4.0293e+002  4.0903e+002 57172 82773,82825,82799
 1.5000e+000 82926 -4.0154e+002 -2.5389e+002  1.7984e+002 57172 82721,82773,82747
 1.5000e+000 82903 -9.6052e+002 -3.6621e+002  5.1872e+002 57172 82669,82877,82851
 1.5000e+000 83090 -4.5000e+002 -3.8428e+002  1.9874e+002 57172 82773,82721,83064
 1.5000e+000 83113 -3.7759e+002 -3.5281e+002  2.8974e+002 57172 82773,83064,82851
 1.5000e+000 83747 -3.6338e+002 -3.2310e+002  2.2816e+002 56554 83770,83427,83401
 1.5000e+000 83724 -3.6707e+002 -4.3334e+002  2.7825e+002 56554 83842,83770,83401
 1.5000e+000 83701 -7.9678e+000 -3.4888e+002  1.0275e+002 56554 83842,83401,83583
 1.5000e+000 83678 -7.1347e+002 -6.3751e+002  5.5513e+002 56554 83914,83531,83505
 1.5000e+000 83655 -3.5202e+002 -3.6221e+002  1.3278e+002 56554 83531,83583,83557
 1.5000e+000 83632 -7.9454e+001 -1.5499e+002  8.7269e+001 56554 83375,83583,83401
 1.5000e+000 83609 -3.4380e+002 -3.1192e+002  2.2840e+002 56554 83427,83479,83453
 1.5000e+000 83796 -3.3645e+002 -3.1161e+002  2.3338e+002 56554 83479,83427,83770
 1.5000e+000 83819 -3.5691e+002 -2.7907e+002  2.4220e+002 56554 83479,83770,83505
 1.5000e+000 83868 -2.3761e+002 -1.8992e+002  3.3105e+002 56554 83505,83770,83842
 1.5000e+000 83891 -4.5593e+002 -3.7640e+002  4.1308e+002 56554 83914,83505,83842
 1.5000e+000 83940 -3.1804e+002 -6.4843e+002  3.0079e+002 56554 83583,83531,83914
 1.5000e+000 83963 -1.5047e+002 -6.0787e+002  2.3058e+002 56554 83583,83914,83842
 1.5000e+000 84341 -9.8397e+001 -6.8163e+002  2.2996e+002 56192 84067,84145,84119
 1.5000e+000 84318  4.8913e+001 -5.6997e+002  1.4340e+002 56192 84067,84223,84145
 1.5000e+000 84295 -1.4632e+002 -6.8606e+002 -1.1475e+001 56192 84145,84223,84197
 1.5000e+000 84272 -6.4946e+001 -8.0129e+002  2.5884e+002 56192 84067,84119,84093
 1.5000e+000 84249 -4.8201e+002 -1.5970e+002  1.2440e+002 56192 84145,84197,84171
 1.5000e+000 84611 -2.0261e+002 -5.2784e+002  3.8629e+002 55538 84386,84490,84412
 1.5000e+000 84588 -2.3563e+002 -4.7492e+002  3.8381e+002 55538 84386,84516,84490
 1.5000e+000 84565 -3.8388e+002 -6.0569e+002  3.8416e+002 55538 84412,84490,84464
 1.5000e+000 84542 -2.2012e+002 -5.4191e+002  2.7761e+002 55538 84412,84464,84438
 1.5000e+000 84942 -3.7810e+002 -3.2370e+002  2.8702e+002 55084 84769,84847,84795
 1.5000e+000 84919 -3.8524e+002 -3.7999e+002  2.3361e+002 55084 84717,84847,84769
 1.5000e+000 84896 -4.1729e+002 -4.6092e+002  2.2969e+002 55084 84717,84769,84743
 1.5000e+000 84873 -4.4944e+002 -1.6292e+002  2.3621e+002 55084 84795,84847,84821
 1.5000e+000 85271 -8.6902e+001 -1.2491e+002  1.9299e+002 54580 85294,85098,85072
 1.5000e+000 85248 -4.3827e+002 -2.5149e+002  2.7431e+002 54580 85294,85072,85176
 1.5000e+000 85225 -6.2359e+002 -1.3270e+001  8.7610e+001 54580 85124,85176,85150
 1.5000e+000 85202 -1.3689e+002 -2.1989e+002  9.4687e+001 54580 85046,85176,85072
 1.5000e+000 85320 -3.9917e+002 -1.4424e+002  2.3711e+002 54580 85124,85098,85294
 1.5000e+000 85343 -5.8326e+002 -1.3298e+002  2.9252e+002 54580 85124,85294,85176
 1.5000e+000 85542 -2.5546e+002 -4.1920e+002  2.6622e+002 53976 85565,85444,85418
 1.5000e+000 85519 -2.7689e+002 -3.4194e+002  2.3882e+002 53976 85565,85418,85366
 1.5000e+000 85496 -2.0352e+002 -2.8110e+002  1.2801e+002 53976 85366,85418,85392
 1.5000e+000 85591 -2.9458e+002 -3.9099e+002  2.0042e+002 53976 85470,85444,85565
 1.5000e+000 85614 -2.4160e+002 -1.8384e+002  1.8736e+002 53976 85470,85565,85366
 1.5000e+000 85960 -5.4227e+002 -4.9589e+002  4.4241e+002 53572 85663,85715,85689
 1.5000e+000 85937 -4.4972e+002 -4.5676e+002  2.3064e+002 53572 85983,85715,85663
 1.5000e+000 85914 -5.4757e+002 -5.5348e+002  2.7234e+002 53572 86055,85983,85663
 1.5000e+000 85891 -4.9783e+002 -5.4127e+002  3.6664e+002 53572 86055,85663,85637
 1.5000e+000 85868 -7.8197e+002 -1.1200e+003  4.8871e+002 53572 85637,85793,85767
 1.5000e+000 85845 -1.2682e+003 -3.5706e+002  3.0742e+002 53572 85637,85819,85793
 1.5000e+000 86009 -5.2378e+002 -4.0636e+002  2.3102e+002 53572 85741,85715,85983
 1.5000e+000 86032 -5.8116e+002 -4.0826e+002  2.5466e+002 53572 85741,85983,85767
 1.5000e+000 86081 -4.6360e+002 -3.4742e+002  2.7715e+002 53572 85767,85983,86055
 1.5000e+000 86104 -4.6299e+002 -4.3701e+002  3.6323e+002 53572 85767,86055,85637
 1.5000e+000 86693 -7.0024e+002 -1.6082e+002  3.9286e+002 52946 86474,86526,86500
 1.5000e+000 86670 -3.4831e+001 -3.7400e+001  1.0250e+002 52946 86396,86526,86474
 1.5000e+000 86647 -5.4352e+002 -3.1480e+002  2.5589e+002 52946 86370,86526,86396
 1.5000e+000 86624  4.8446e+000 -1.7837e+000 -3.6299e+000 52946 86422,86474,86448
 1.5000e+000 86601 -1.1561e+002 -2.2920e+001  4.3709e+001 52946 86396,86474,86422
 1.5000e+000 86578 -6.0760e+002 -1.6852e+002  1.6357e+002 52946 86370,86552,86526
 1.5000e+000 87376 -3.7075e+002 -3.7057e+002  1.4858e+002 52420 87007,87085,87033
 1.5000e+000 87353 -3.3435e+002 -3.6095e+002  1.5110e+002 52420 87007,87163,87085
 1.5000e+000 87330 -4.2620e+002 -3.4504e+002  1.8168e+002 52420 87007,87189,87163
 1.5000e+000 87307 -3.6783e+002 -3.3771e+002  1.8195e+002 52420 87033,87085,87059
 1.5000e+000 87284 -4.1011e+002 -3.7579e+002  4.9916e+001 52420 87085,87137,87111
 1.5000e+000 87261 -2.9259e+002 -3.7827e+002  5.3337e+001 52420 87085,87163,87137
 1.5000e+000 87238 -3.2160e+002 -4.4525e+002  3.6501e+002 52420 86955,87189,87007
 1.5000e+000 87215 -2.1224e+002 -2.9210e+002  2.2583e+002 52420 86955,87007,86981
 1.5000e+000 87624 -2.6793e+002 -3.2514e+002  2.0548e+002 51916 87451,87503,87477
 1.5000e+000 87601 -1.4765e+002 -5.0099e+002  2.5424e+002 51916 87425,87503,87451
 1.5000e+000 87578 -2.0385e+002 -5.3725e+002  2.3725e+002 51916 87425,87529,87503
 1.5000e+000 87555 -9.1919e+001 -2.3804e+002  2.5672e+002 51916 87399,87529,87425
 1.5000e+000 88053 -4.4552e+002 -3.8441e+002  1.4339e+002 51568 87782,87834,87808
 1.5000e+000 88030 -5.4564e+002 -3.5871e+002  2.4980e+002 51568 88076,87782,87886
 1.5000e+000 88007 -4.8780e+002 -2.2608e+002  2.1502e+002 51568 88076,87886,87860
 1.5000e+000 87984 -6.5940e+002 -5.1049e+002  2.0000e+002 51568 87756,87886,87782
 1.5000e+000 87961 -4.9553e+002 -4.0160e+002  4.0282e+002 51568 87756,87912,87886
 1.5000e+000 87938 -5.5694e+002 -3.1024e+002  3.8043e+002 51568 87730,87912,87756
 1.5000e+000 88102 -4.6889e+002 -4.2506e+002  1.6309e+002 51568 87834,87782,88076
 1.5000e+000 88125 -4.1975e+002 -3.3713e+002  1.3239e+002 51568 87834,88076,87860
 1.5000e+000 88324 -3.5666e+002 -4.7480e+002  1.4835e+002 51164 88419,88347,88200
 1.5000e+000 88301 -2.8876e+002 -4.5335e+002  2.2917e+002 51164 88347,88148,88252
 1.5000e+000 88278 -4.3723e+002 -7.6812e+002  1.7011e+002 51164 88419,88200,88174
 1.5000e+000 88373 -2.6219e+002 -4.0735e+002  1.8018e+002 51164 88226,88200,88347
 1.5000e+000 88396 -4.7429e+001 -4.7568e+002  1.7839e+002 51164 88226,88347,88252
 1.5000e+000 88445 -4.5483e+002 -5.3185e+002  3.2052e+002 51164 88148,88347,88419
 1.5000e+000 88468 -4.4092e+002 -5.1165e+002  3.5359e+002 51164 88148,88419,88174
 1.5000e+000 88738 -3.8245e+002 -5.6518e+002  1.3664e+002 50560 88513,88617,88539
 1.5000e+000 88715 -2.7344e+002 -6.4136e+002  9.5623e+001 50560 88513,88643,88617
 1.5000e+000 88692 -2.0057e+002 -1.7536e+002  1.6566e+002 50560 88539,88591,88565
 1.5000e+000 88669 -1.6543e+002 -4.0200e+002  2.0850e+002 50560 88539,88617,88591
 1.5000e+000 88939 -4.7834e+002 -2.1779e+002  2.4906e+002 50106 88962,88789,88763
 1.5000e+000 88916 -3.1516e+002 -2.4019e+002  1.8639e+002 50106 88962,88763,88841
 1.5000e+000 88893 -4.6319e+002 -3.3300e+002  2.8920e+002 50106 88763,88867,88841
 1.5000e+000 88988 -3.2050e+002 -2.7576e+002  1.5580e+002 50106 88815,88789,88962
 1.5000e+000 89011 -2.4639e+002 -2.1418e+002  1.9943e+002 50106 89034,88962,88841
 1.5000e+000 89060 -1.5171e+002 -8.8162e+001  4.5264e+001 50106 88815,88962,89034
 1.5000e+000 89472 -2.6811e+002 -6.2969e+002  1.0398e+002 49666 89273,89351,89325
 1.5000e+000 89449 -3.7054e+002 -3.9308e+002  1.9350e+002 49666 89273,89377,89351
 1.5000e+000 89426 -3.2194e+002 -5.1341e+002  3.6002e+002 49666 89273,89325,89299
 1.5000e+000 89403 -3.6665e+002 -3.1088e+002  2.1183e+002 49666 89247,89377,89273
 1.5000e+000 89978 -3.0895e+002 -5.5461e+002 -6.1904e+000 49205 89681,89837,89733
 1.5000e+000 89955 -5.5899e+001 -3.0486e+002  1.3170e+002 49205 89655,89837,89681
 1.5000e+000 89932 -4.8817e+002 -6.6328e+002  2.5960e+002 49205 89785,89837,89811
 1.5000e+000 89909 -1.2468e+002 -3.6181e+002  1.0467e+002 49205 89733,89837,89785
 1.5000e+000 89886 -4.4590e+002 -4.7446e+002  2.2510e+002 49205 89733,89785,89759
 1.5000e+000 89863 -1.3758e+002 -2.2715e+002 -1.4247e+002 49205 89681,89733,89707
 1.5000e+000 90177 -2.8324e+002 -3.2030e+002  1.5643e+002 48865 90530,90200,90053
 1.5000e+000 90154 -2.8127e+002 -4.3797e+002  2.2609e+002 48865 90402,90200,90001
 1.5000e+000 90131 -3.7353e+002 -1.7776e+002  1.6228e+002 48865 90530,90053,90027
 1.5000e+000 90226 -3.2629e+002 -3.3571e+002  2.4127e+002 48865 90079,90053,90200
 1.5000e+000 90249 -2.8249e+002 -3.3320e+002  2.0547e+002 48865 90272,90200,90105
 1.5000e+000 90298 -2.2249e+002 -2.8594e+002  2.2652e+002 48865 90079,90200,90272
 1.5000e+000 90428 -2.0956e+002 -1.4889e+002  1.8300e+002 48865 90105,90200,90402
 1.5000e+000 90556 -3.4105e+002 -5.0382e+002  1.2745e+002 48865 90001,90200,90530
 1.5000e+000 90579 -4.2517e+002 -3.1883e+002  9.7784e+001 48865 90001,90530,90027
 1.5000e+000 90827 -3.6841e+002 -3.8168e+002  1.7734e+002 48404 90850,90654,90628
 1.5000e+000 90804 -3.7073e+002 -4.3365e+002  2.9118e+002 48404 90850,90628,90732
 1.5000e+000 90781 -2.7120e+002 -2.8046e+002  1.8283e+002 48404 90680,90732,90706
 1.5000e+000 90758 -4.9422e+002 -2.4148e+002  3.0330e+002 48404 90602,90732,90628
 1.5000e+000 90876 -3.5534e+002 -2.1199e+002  1.5630e+002 48404 90680,90654,90850
 1.5000e+000 90899 -3.6624e+002 -3.4216e+002  2.4496e+002 48404 90680,90850,90732
 1.5000e+000 91000 -1.9171e+002 -4.9403e+002  3.5567e+002 48156 90922,90974,90948
 1.5000e+000 91250 -2.1820e+002 -5.4086e+002  2.9390e+002 47752 91051,91103,91077
 1.5000e+000 91227 -1.7165e+002 -1.7274e+002  1.8938e+002 47752 91025,91103,91051
 1.5000e+000 91204 -6.0330e+002 -4.6012e+002  4.6834e+002 47752 91025,91155,91103
 1.5000e+000 91181 -6.1269e+002 -2.3644e+002  3.6264e+002 47752 91103,91155,91129
 1.5000e+000 91402 -3.4913e+002 -3.4103e+002  2.2640e+002 47191 91425,91301,91275
 1.5000e+000 91379 -2.8628e+002 -3.1763e+002  2.6651e+002 47191 91497,91425,91275
 1.5000e+000 91451 -3.4951e+002 -1.6983e+002  1.4805e+002 47191 91327,91301,91425
 1.5000e+000 91474 -3.7039e+002 -3.6839e+002  2.9942e+002 47191 91327,91425,91353
 1.5000e+000 91523 -3.9087e+002 -7.0087e+002  2.8117e+002 47191 91353,91425,91497
 1.5000e+000 91854 -2.8691e+002 -2.2662e+002  1.2671e+002 46744 91949,91877,91707
 1.5000e+000 91831 -3.2571e+002 -3.7393e+002  1.6313e+002 46744 91877,91655,91629
 1.5000e+000 91808 -3.0540e+002 -2.0190e+002  1.1058e+002 46744 91949,91707,91681
 1.5000e+000 91785 -5.9083e+002 -2.7482e+002 -4.2699e+001 46744 91629,91759,91733
 1.5000e+000 91903 -3.6480e+002 -3.2625e+002  1.6045e+002 46744 91733,91707,91877
 1.5000e+000 91926 -2.8554e+002 -3.4201e+002  1.4384e+002 46744 91733,91877,91629
 1.5000e+000 91975 -2.8532e+002 -3.5794e+002  1.5799e+002 46744 91655,91877,91949
 1.5000e+000 91998 -2.3905e+002 -2.8290e+002  1.1980e+002 46744 91655,91949,91681
 1.5000e+000 92378 -2.8348e+002 -1.3892e+002  1.8119e+002 46090 92130,92208,92182
 1.5000e+000 92355 -3.8766e+002 -1.8288e+002  1.8995e+002 46090 92104,92208,92130
 1.5000e+000 92332 -1.9261e+002 -3.3393e+002  1.7977e+002 46090 92104,92260,92208
 1.5000e+000 92309 -1.6893e+002 -1.5465e+002  1.5134e+002 46090 92208,92260,92234
 1.5000e+000 92286 -5.0638e+002 -1.9045e+002  2.1579e+002 46090 92130,92182,92156
 1.5000e+000 92626 -2.8928e+002 -3.7952e+002  1.4736e+002 45693 92721,92649,92505
 1.5000e+000 92603 -3.4215e+002 -3.9626e+002  2.8261e+002 45693 92649,92453,92427
 1.5000e+000 92580 -3.0001e+002 -3.3511e+002  1.4633e+002 45693 92721,92505,92479
 1.5000e+000 92557 -5.9476e+002 -5.0864e+002  3.5455e+002 45693 92401,92531,92427
 1.5000e+000 92675 -4.5709e+002 -3.6029e+002  1.9696e+002 45693 92531,92505,92649
 1.5000e+000 92698 -5.0950e+002 -4.6330e+002  3.7916e+002 45693 92531,92649,92427
 1.5000e+000 92747 -3.2648e+002 -3.2037e+002  1.5795e+002 45693 92453,92649,92721
 1.5000e+000 92770 -2.3304e+002 -1.5112e+002  1.9783e+002 45693 92453,92721,92479
 1.5000e+000 93172 -2.1380e+002 -3.6474e+002  3.1964e+002 45331 92898,93028,92924
 1.5000e+000 93149 -1.5084e+002 -3.6918e+002  2.1665e+002 45331 92898,93054,93028
 1.5000e+000 93126 -2.9970e+002 -2.4022e+002  3.6297e+002 45331 92924,93002,92976
 1.5000e+000 93103 -1.2510e+002 -3.2844e+002  3.1605e+002 45331 92924,93028,93002
 1.5000e+000 93080 -3.2449e+002 -3.8061e+002  3.7303e+002 45331 92924,92976,92950
 1.5000e+000 93518 -3.8442e+002 -6.2684e+002  2.5328e+002 44820 93613,93273,93247
 1.5000e+000 93495 -4.8910e+002 -4.9439e+002  2.5793e+002 44820 93685,93541,93247
 1.5000e+000 93472 -4.6862e+002 -3.3633e+002  2.0296e+002 44820 93541,93195,93377
 1.5000e+000 93449 -5.4758e+002 -4.2259e+002  1.9549e+002 44820 93685,93247,93221
 1.5000e+000 93426 -3.9163e+002 -4.6725e+002  2.6413e+002 44820 93299,93377,93351
 1.5000e+000 93403 -2.8895e+002 -3.2584e+002  3.1402e+002 44820 93299,93351,93325
 1.5000e+000 93567 -4.0158e+002 -6.4924e+002  2.0081e+002 44820 93613,93247,93541
 1.5000e+000 93590 -4.0739e+002 -4.8061e+002  1.4270e+002 44820 93299,93541,93377
 1.5000e+000 93639 -4.0253e+002 -6.8277e+002  2.1254e+002 44820 93299,93273,93613
 1.5000e+000 93662 -4.1262e+002 -6.7876e+002  1.9955e+002 44820 93299,93613,93541
 1.5000e+000 93711 -4.5121e+002 -3.5668e+002  1.7610e+002 44820 93195,93541,93685
 1.5000e+000 93734 -4.0765e+002 -1.2523e+002  1.0922e+002 44820 93195,93685,93221
 1.5000e+000 94163 -4.5427e+002 -5.2591e+002  1.9934e+002 44237 94258,94186,93996
 1.5000e+000 94140 -5.3850e+002 -5.8048e+002  1.3286e+002 44237 94330,94022,93996
 1.5000e+000 94117 -5.5342e+002 -5.7502e+002  1.5127e+002 44237 94186,93918,93866
 1.5000e+000 94094 -3.9008e+002 -4.2930e+002  2.3787e+002 44237 94258,93996,93970
 1.5000e+000 94071 -4.9463e+002 -3.5247e+002  2.1399e+002 44237 94402,93944,93918
 1.5000e+000 94048 -3.1988e+002 -5.6245e+002  2.0494e+002 44237 93866,93918,93892
 1.5000e+000 94212 -5.3826e+002 -5.8836e+002  1.7136e+002 44237 94330,93996,94186
 1.5000e+000 94235 -5.3214e+002 -5.0838e+002  1.9191e+002 44237 93840,94186,93866
 1.5000e+000 94284 -4.9268e+002 -4.3439e+002  1.4542e+002 44237 93918,94186,94258
 1.5000e+000 94307 -4.5188e+002 -3.7050e+002  1.6633e+002 44237 94402,93918,94258
 1.5000e+000 94356 -5.5273e+002 -2.3593e+002  2.1332e+001 44237 93840,94022,94330
 1.5000e+000 94379 -5.0953e+002 -5.1524e+002  1.8294e+002 44237 93840,94330,94186
 1.5000e+000 94428 -5.8902e+002 -4.3767e+002  2.5175e+002 44237 93970,93944,94402
 1.5000e+000 94451 -5.1717e+002 -4.4081e+002  1.9932e+002 44237 93970,94402,94258
 1.5000e+000 94908 -3.5336e+002 -3.6039e+002  8.2524e+001 43890 94660,94790,94712
 1.5000e+000 94885 -1.7903e+002 -1.7524e+002  1.5541e+002 43890 94634,94790,94660
 1.5000e+000 94862 -3.4609e+002 -1.4832e+002  1.6157e+002 43890 94712,94764,94738
 1.5000e+000 94839 -3.0523e+002 -2.9487e+002  1.5442e+002 43890 94712,94790,94764
 1.5000e+000 94816 -4.0676e+002 -2.1948e+002 -6.3363e+001 43890 94660,94712,94686
 1.5000e+000 95414 -3.1836e+002 -2.5655e+002  1.5416e+002 43186 95437,95143,95117
 1.5000e+000 95391 -3.5206e+002 -4.8446e+002  1.9232e+002 43186 95437,95117,95091
 1.5000e+000 95368 -1.4261e+002 -1.9833e+002  1.7806e+002 43186 95143,95221,95195
 1.5000e+000 95345 -5.6954e+002 -4.2970e+002  4.6603e+002 43186 95091,95273,95221
 1.5000e+000 95322 -3.4508e+002 -2.3903e+002  2.2348e+002 43186 95221,95273,95247
 1.5000e+000 95299 -2.3984e+002 -3.5043e+002  1.2964e+002 43186 95143,95195,95169
 1.5000e+000 95463 -3.1489e+002 -4.1210e+002  2.6173e+002 43186 95221,95143,95437
 1.5000e+000 95486 -3.2381e+002 -5.9362e+002  3.0676e+002 43186 95221,95437,95091
 1.5000e+000 96041 -5.4886e+002 -5.3023e+002  1.4915e+002 42782 95695,95851,95799
 1.5000e+000 96018 -5.0168e+002 -6.4716e+002  1.4925e+002 42782 95669,95851,95695
 1.5000e+000 95995 -5.0438e+002 -3.1945e+002  1.6060e+002 42782 95695,95747,95721
 1.5000e+000 95972 -3.9739e+002 -4.6479e+002  1.4314e+002 42782 95695,95799,95747
 1.5000e+000 95949 -3.5251e+002 -2.8785e+002  1.0279e+002 42782 95747,95799,95773
 1.5000e+000 95926 -6.5421e+002 -6.5073e+002  2.1550e+002 42782 95799,95851,95825
 1.5000e+000 95903 -7.0238e+002 -7.5004e+002  1.8853e+002 42782 95669,95877,95851
 1.5000e+000 96370 -5.3962e+002 -7.1517e+002  3.0877e+002 42420 96197,96275,96223
 1.5000e+000 96347 -5.0343e+002 -6.2003e+002  3.1240e+002 42420 96145,96275,96197
 1.5000e+000 96324 -5.0590e+002 -4.6189e+002  3.1172e+002 42420 96145,96197,96171
 1.5000e+000 96301 -3.9245e+002 -5.3671e+002  2.0545e+002 42420 96223,96275,96249
 1.5000e+000 96699 -2.6355e+002 -3.1474e+002  4.2757e+001 41816 96474,96578,96526
 1.5000e+000 96676 -3.2722e+002 -2.4921e+002 -5.3396e+001 41816 96474,96604,96578
 1.5000e+000 96653 -2.1949e+002 -2.3504e+002  7.4294e+001 41816 96526,96578,96552
 1.5000e+000 96630 -2.7034e+002 -3.0114e+002  6.2601e+001 41816 96474,96526,96500
 1.5000e+000 96947 -1.8884e+002 -4.5008e+002  1.6090e+002 41212 96722,96800,96748
 1.5000e+000 96924 -2.8122e+002 -3.6917e+002  2.0555e+002 41212 96722,96826,96800
 1.5000e+000 96901 -4.1856e+002 -4.3061e+002  2.2021e+002 41212 96722,96852,96826
 1.5000e+000 96878 -2.8368e+002 -5.0047e+002  1.1790e+002 41212 96748,96800,96774
 1.5000e+000 97097 -2.5735e+002 -1.1667e+002  2.4738e+002 40793 97120,97022,96996
 1.5000e+000 97074 -4.8006e+002 -5.7160e+002  1.5671e+002 40793 97192,97120,96996
 1.5000e+000 97146 -1.9626e+002 -4.7610e+002  2.2213e+002 40793 97324,97120,97048
 1.5000e+000 97169 -1.6945e+002 -7.5374e+002  2.1471e+002 40793 97048,97120,96970
 1.5000e+000 97218 -7.3520e+001 -3.9823e+002  1.5962e+002 40793 96970,97120,97192
 1.5000e+000 97350 -1.9626e+002 -4.7610e+002  2.2213e+002 40793 97022,97120,97324
 1.5000e+000 97878 -2.9513e+002 -5.9289e+002  1.3138e+002 40446 97901,97607,97555
 1.5000e+000 97855 -2.9522e+002 -4.1769e+002  1.3824e+002 40446 97973,97901,97555
 1.5000e+000 97832 -2.1709e+002 -3.5443e+002  1.0589e+002 40446 97973,97555,97737
 1.5000e+000 97809 -4.7481e+002 -6.4987e+002  2.0842e+002 40446 97633,97685,97659
 1.5000e+000 97786 -3.3935e+002 -4.9149e+002  1.2870e+002 40446 97633,97711,97685
 1.5000e+000 97763 -2.9280e+002 -7.0268e+002  1.6044e+002 40446 97555,97607,97581
 1.5000e+000 97927 -3.3897e+002 -7.3736e+002 -2.0732e+001 40446 97633,97607,97901
 1.5000e+000 97950 -2.9001e+002 -5.6833e+002  1.0849e+002 40446 97633,97901,97711
 1.5000e+000 97999 -1.7812e+002 -5.5117e+002  1.7762e+002 40446 97711,97901,97973
 1.5000e+000 98022 -1.1064e+002 -4.7367e+002  1.4814e+002 40446 97711,97973,97737
 1.5000e+000 98449 -2.3665e+002 -1.4894e+002  1.4593e+002 39935 98152,98204,98178
 1.5000e+000 98426 -3.4132e+002 -2.5099e+002  9.9591e+001 39935 98152,98230,98204
 1.5000e+000 98403 -4.7300e+002 -2.7626e+002  2.2671e+002 39935 98152,98256,98230
 1.5000e+000 98380 -3.3554e+002 -3.2747e+002  2.3810e+002 39935 98126,98256,98152
 1.5000e+000 98357 -4.7851e+002 -6.5833e+002  2.6803e+002 39935 98126,98282,98256
 1.5000e+000 98334 -2.6006e+002 -7.9370e+002  3.0474e+002 39935 98126,98308,98282
 1.5000e+000 98746 -7.9785e+002 -5.6788e+002  2.0820e+002 39531 98498,98602,98524
 1.5000e+000 98723 -5.3523e+002 -5.2906e+002  1.8491e+002 39531 98472,98602,98498
 1.5000e+000 98700 -8.0507e+002 -3.9304e+002  1.6096e+002 39531 98524,98602,98576
 1.5000e+000 98677 -4.0965e+002 -5.2186e+002  1.8704e+002 39531 98472,98628,98602
 1.5000e+000 98654 -1.8785e+003 -5.3043e+002  2.2169e+002 39531 98524,98576,98550
 1.5000e+000 99224 -7.3777e+002 -3.6685e+002  6.0565e+002 39027 99247,98956,98930
 1.5000e+000 99201 -6.6924e+002 -3.4142e+002  2.7779e+002 39027 99247,98930,98878
 1.5000e+000 99178 -5.3287e+002 -4.4727e+002  3.2847e+002 39027 99319,98982,98956
 1.5000e+000 99155 -5.8316e+002 -3.1521e+002  2.0643e+002 39027 98852,99060,98878
 1.5000e+000 99132 -8.4452e+002 -3.4816e+002  2.7683e+002 39027 98878,98930,98904
 1.5000e+000 99109 -5.0069e+002 -8.7921e+002  4.2138e+002 39027 98982,99060,99034
 1.5000e+000 99086 -6.8905e+002 -1.1688e+003  6.8403e+002 39027 98982,99034,99008
 1.5000e+000 99273 -4.4546e+002 -3.0561e+002  3.8498e+002 39027 99319,98956,99247
 1.5000e+000 99296 -5.3133e+002 -2.8841e+002  2.2130e+002 39027 99060,99247,98878
 1.5000e+000 99345 -5.4872e+002 -5.1445e+002  2.5553e+002 39027 99060,98982,99319
 1.5000e+000 99368 -5.6078e+002 -4.8327e+002  2.9386e+002 39027 99060,99319,99247
 1.5000e+000 99923 -5.7230e+002 -4.7254e+002  2.4139e+002 38523 99946,99655,99603
 1.5000e+000 99900 -4.5656e+002 -4.2074e+002  2.5144e+002 38523 99946,99603,99759
 1.5000e+000 99877 -2.9342e+002 -5.9172e+002  3.0991e+002 38523 100018,99707,99681
 1.5000e+000 99854 -4.8732e+002 -2.9032e+002  2.3892e+002 38523 99551,99759,99603
 1.5000e+000 99831 -5.0489e+002 -3.1175e+002  2.5093e+002 38523 99551,99603,99577
 1.5000e+000 99808 -4.9968e+002 -7.0885e+002  1.9868e+002 38523 99707,99759,99733
 1.5000e+000 99785 -4.4694e+002 -4.0841e+002  2.0655e+002 38523 99603,99655,99629
 1.5000e+000 99972 -4.6376e+002 -2.6197e+002  2.9325e+002 38523 99681,99655,99946
 1.5000e+000 99995 -3.4815e+002 -3.4559e+002  3.6268e+002 38523 100018,99681,99946
 1.5000e+000 100044 -3.9195e+002 -6.9441e+002  1.9789e+002 38523 99759,99707,100018
 1.5000e+000 100067 -5.3054e+002 -5.9694e+002  2.5233e+002 38523 99759,100018,99946
 1.5000e+000 100467 -1.6659e+002 -2.1184e+002  1.1378e+002 38125 100219,100349,100323
 1.5000e+000 100444 -4.1305e+001 -1.0796e+002  1.8131e+002 38125 100193,100349,100219
 1.5000e+000 100421 -7.1265e+001 -2.6697e+002  1.1458e+002 38125 100245,100323,100297
 1.5000e+000 100398 -7.0184e+001 -1.6927e+002  1.2344e+002 38125 100219,100323,100245
 1.5000e+000 100375 -1.4805e+002 -2.7262e+002  1.7295e+002 38125 100245,100297,100271
 1.5000e+000 100666 -4.4210e+002 -6.4744e+002  2.0181e+002 37607 100689,100568,100542
 1.5000e+000 100643 -3.6135e+002 -4.0665e+002  1.8606e+002 37607 100689,100542,100490
 1.5000e+000 100620 -3.0417e+002 -2.6891e+002  1.6499e+002 37607 100490,100542,100516
 1.5000e+000 100715 -3.6738e+002 -4.1435e+002  1.5951e+002 37607 100594,100568,100689
 1.5000e+000 100738 -4.1263e+002 -3.4783e+002  1.6415e+002 37607 100594,100689,100490
 1.5000e+000 100937 -3.7133e+002 -2.3572e+002  3.3398e+002 37017 100960,100813,100787
 1.5000e+000 100914 -3.1922e+002 -2.5825e+002  1.9177e+002 37017 100960,100787,100761
 1.5000e+000 100891 -5.7097e+002 -1.9395e+002  3.3422e+002 37017 100813,100865,100839
 1.5000e+000 100986 -4.7434e+002 -3.9603e+002  3.8971e+002 37017 100865,100813,100960
 1.5000e+000 101009 -3.6956e+002 -3.6321e+002  2.3578e+002 37017 100865,100960,100761
 1.5000e+000 101519 -4.7593e+002 -2.3968e+002  1.1571e+002 36613 101222,101274,101248
 1.5000e+000 101496 -1.8912e+002 -1.6355e+002  1.1631e+002 36613 101222,101352,101274
 1.5000e+000 101473 -1.3767e+002 -2.7305e+002  2.2439e+001 36613 101274,101352,101326
 1.5000e+000 101450 -3.0209e+002 -1.6201e+002  1.1716e+002 36613 101222,101378,101352
 1.5000e+000 101427 -1.5149e+002 -4.6060e+002  2.9372e+001 36613 101274,101326,101300
 1.5000e+000 101404 -3.1157e+002 -1.7135e+002  9.8578e+001 36613 101196,101378,101222
 1.5000e+000 101718 -3.9447e+002 -2.7180e+002  3.4092e+002 36308 101594,101646,101620
 1.5000e+000 101695 -4.0355e+002 -2.1334e+002  2.7602e+002 36308 101568,101646,101594
 1.5000e+000 101672 -2.9912e+002 -2.7731e+002  2.8672e+002 36308 101542,101646,101568
 1.5000e+000 102098 -4.4087e+002 -3.2246e+002  2.0558e+002 35918 102121,101954,101876
 1.5000e+000 102075 -3.7077e+002 -3.9702e+002  1.7036e+002 35918 102121,101876,101824
 1.5000e+000 102052 -4.5135e+002 -3.2806e+002  1.7497e+002 35918 101876,101954,101928
 1.5000e+000 102029 -6.0446e+002 -1.3059e+002  1.9429e+002 35918 101876,101928,101902
 1.5000e+000 102006 -3.4039e+002 -3.1360e+002  1.4789e+002 35918 101824,101876,101850
 1.5000e+000 102147 -4.6388e+002 -3.9191e+002  2.3939e+002 35918 101980,101954,102121
 1.5000e+000 102170 -3.9468e+002 -4.7326e+002  1.9669e+002 35918 101980,102121,101824
 1.5000e+000 102489 -4.3496e+002 -1.0119e+003  3.1751e+002 35514 102241,102345,102267
 1.5000e+000 102466 -5.8620e+002 -1.0634e+003  3.2363e+002 35514 102215,102345,102241
 1.5000e+000 102443 -4.7101e+002 -1.1417e+003  3.3597e+002 35514 102215,102371,102345
 1.5000e+000 102420 -3.6559e+002 -8.7638e+002  3.5756e+002 35514 102267,102345,102293
 1.5000e+000 102397 -2.2444e+002 -5.8444e+002  4.0471e+002 35514 102293,102345,102319
 1.5000e+000 102820 -6.5208e+002 -4.1597e+002  1.0681e+002 35224 102843,102699,102647
 1.5000e+000 102797 -6.3321e+002 -5.1184e+002  2.3848e+002 35224 102971,102725,102699
 1.5000e+000 102774 -9.5215e+002 -6.4482e+002  5.0117e+002 35224 102595,102725,102621
 1.5000e+000 102751 -2.7571e+002 -2.1312e+002  2.1352e+002 35224 102647,102699,102673
 1.5000e+000 102869 -6.0967e+002 -4.0318e+002  2.0048e+002 35224 102971,102699,102843
 1.5000e+000 102997 -5.6039e+002 -6.0531e+002  2.1672e+002 35224 102621,102725,102971
 1.5000e+000 103020 -5.6357e+002 -5.3445e+002  1.7008e+002 35224 102621,102971,102843
 1.5000e+000 103349 -5.8512e+002 -4.3977e+002  2.7057e+002 34820 103150,103228,103176
 1.5000e+000 103326 -4.9605e+002 -4.7685e+002  2.6733e+002 34820 103124,103228,103150
 1.5000e+000 103303 -4.6359e+002 -4.8120e+002  4.7171e+002 34820 103176,103228,103202
 1.5000e+000 103280 -3.1337e+002 -3.9680e+002  2.9388e+002 34820 103124,103254,103228
 1.5000e+000 103806 -5.0366e+002 -3.6402e+002  1.7871e+002 34530 103558,103662,103636
 1.5000e+000 103783 -4.8640e+002 -3.9513e+002  1.2611e+002 34530 103558,103688,103662
 1.5000e+000 103760 -5.4187e+002 -5.8139e+002  1.4512e+002 34530 103532,103688,103558
 1.5000e+000 103737 -3.0242e+002 -4.7555e+002  1.7170e+002 34530 103584,103636,103610
 1.5000e+000 103714 -8.0733e+002 -4.6442e+002  2.1533e+002 34530 103558,103636,103584
 1.5000e+000 104263 -2.8058e+002 -3.4702e+002  2.2146e+002 34019 103989,104119,104015
 1.5000e+000 104240 -2.3177e+002 -3.2012e+002  2.4707e+002 34019 103989,104145,104119
 1.5000e+000 104217 -2.7971e+002 -3.8532e+002  1.3161e+002 34019 104015,104067,104041
 1.5000e+000 104194 -3.3785e+002 -4.2368e+002  1.9493e+002 34019 104015,104119,104067
 1.5000e+000 104171 -3.1149e+002 -2.7147e+002  1.7619e+002 34019 104067,104119,104093
 1.5000e+000 104641 -4.5511e+002 -2.5676e+002  1.8047e+002 33351 104419,104497,104445
 1.5000e+000 104618 -3.5626e+002 -1.9171e+002  2.0941e+002 33351 104393,104497,104419
 1.5000e+000 104595 -6.6259e+002 -3.3069e+002  1.6143e+002 33351 104367,104497,104393
 1.5000e+000 104572 -5.0036e+002 -3.6621e+002  2.1678e+002 33351 104445,104497,104471
 1.5000e+000 104549 -4.7772e+002 -2.5338e+002  4.4173e+001 33351 104367,104523,104497
 1.5000e+000 105019 -3.9647e+002 -8.1677e+002  4.0919e+002 32861 104823,104901,104875
 1.5000e+000 104996 -5.4855e+002 -9.4515e+002  3.4049e+002 32861 104745,104901,104823
 1.5000e+000 104973 -5.7777e+002 -8.9562e+002  3.6883e+002 32861 104823,104875,104849
 1.5000e+000 104950 -5.5489e+002 -9.3537e+002  4.6061e+002 32861 104745,104823,104797
 1.5000e+000 104927 -6.3869e+002 -3.5922e+002  4.7868e+002 32861 104745,104797,104771
 1.5000e+000 105397 -2.8542e+002 -5.7631e+002  2.5235e+002 32457 105149,105253,105175
 1.5000e+000 105374 -4.2203e+002 -4.8534e+002  2.0729e+002 32457 105149,105279,105253
 1.5000e+000 105351 -3.3001e+002 -4.0713e+002  2.4424e+002 32457 105123,105279,105149
 1.5000e+000 105328 -3.6218e+002 -1.1189e+002  2.7236e+002 32457 105175,105227,105201
 1.5000e+000 105305 -5.4817e+002 -6.8899e+002  2.5031e+002 32457 105175,105253,105227
 1.5000e+000 105726 -2.0231e+002 -5.8424e+002  2.4997e+002 32003 105527,105605,105553
 1.5000e+000 105703 -3.1417e+002 -5.0504e+002  2.3986e+002 32003 105501,105605,105527
 1.5000e+000 105680 -1.7326e+002 -4.4910e+002  2.3744e+002 32003 105501,105631,105605
 1.5000e+000 105657 -1.0168e+002 -3.5152e+002  2.2615e+002 32003 105553,105605,105579
 1.5000e+000 106104 -4.4049e+002 -4.9220e+002  1.8116e+002 31492 106127,105908,105856
 1.5000e+000 106081 -3.1271e+002 -4.2327e+002  1.0168e+002 31492 106127,105856,105830
 1.5000e+000 106058 -2.9712e+002 -7.2538e+002  2.1409e+002 31492 105856,105908,105882
 1.5000e+000 106035 -1.0903e+002 -3.6481e+002  1.1942e+002 31492 105830,105986,105960
 1.5000e+000 106012 -2.4085e+002 -6.2133e+002  3.4855e+002 31492 105908,105960,105934
 1.5000e+000 106153 -4.9191e+002 -5.1803e+002  2.4598e+002 31492 105960,105908,106127
 1.5000e+000 106176 -4.2753e+002 -5.1927e+002  1.7753e+002 31492 105960,106127,105830
 1.5000e+000 106375 -4.2890e+002 -4.6791e+002  3.0027e+002 30788 106398,106277,106251
 1.5000e+000 106352 -4.7008e+002 -6.1411e+002  2.9710e+002 30788 106398,106251,106225
 1.5000e+000 106329 -6.4921e+002 -4.8334e+002  4.2375e+002 30788 106600,106199,106303
 1.5000e+000 106424 -5.8305e+002 -6.9235e+002  2.1732e+002 30788 106470,106398,106303
 1.5000e+000 106447 -4.4933e+002 -5.6587e+002  2.8428e+002 30788 106600,106303,106398
 1.5000e+000 106496 -1.6856e+002 -5.1601e+002  2.4267e+002 30788 106277,106398,106470
 1.5000e+000 106626 -7.7322e+002 -6.5228e+002  5.2156e+002 30788 106225,106199,106600
 1.5000e+000 106649 -6.3299e+002 -7.4187e+002  3.8010e+002 30788 106225,106600,106398
 1.5000e+000 106799 -1.8425e+002 -8.3785e+002  1.1175e+001 30426 106698,106750,106724
 1.5000e+000 106776 -1.7956e+002 -4.1939e+002  3.8189e+001 30426 106672,106750,106698
 1.5000e+000 107356 -4.8154e+002 -3.9371e+002  1.8825e+002 29972 107010,107166,107114
 1.5000e+000 107333 -4.8469e+002 -3.7473e+002  2.1483e+002 29972 106984,107166,107010
 1.5000e+000 107310 -4.8331e+002 -2.3684e+002  1.2248e+002 29972 107010,107114,107088
 1.5000e+000 107287 -4.4004e+002 -1.6526e+002  1.4245e+002 29972 107114,107166,107140
 1.5000e+000 107264 -4.8584e+002 -4.4774e+002  2.5677e+002 29972 106984,107192,107166
 1.5000e+000 107241 -5.7575e+002 -4.0807e+002  1.5757e+002 29972 107010,107088,107036
 1.5000e+000 107218 -4.0125e+002 -3.2395e+002  1.1043e+002 29972 107036,107088,107062
 1.5000e+000 107783 -5.3503e+002 -7.1771e+002  3.4553e+002 29724 107878,107806,107590
 1.5000e+000 107760 -6.8412e+002 -7.6434e+002  2.9531e+002 29724 107806,107512,107486
 1.5000e+000 107737 -5.4725e+002 -6.8466e+002  3.9050e+002 29724 107878,107590,107538
 1.5000e+000 107714 -5.3224e+002 -8.0255e+002  3.8369e+002 29724 107950,107460,107616
 1.5000e+000 107691 -4.9182e+002 -7.7572e+002  3.5546e+002 29724 107460,107642,107616
 1.5000e+000 107668 -3.7381e+002 -5.4350e+002  4.5149e+002 29724 107538,107590,107564
 1.5000e+000 107832 -3.7607e+002 -7.1572e+002  4.1240e+002 29724 107616,107590,107806
 1.5000e+000 107855 -5.3695e+002 -8.0924e+002  3.6636e+002 29724 107950,107616,107806
 1.5000e+000 107904 -5.1829e+002 -6.4742e+002  3.6214e+002 29724 107512,107806,107878
 1.5000e+000 107927 -4.9149e+002 -5.8390e+002  4.1933e+002 29724 107512,107878,107538
 1.5000e+000 107976 -3.3735e+002 -8.2462e+002  4.3060e+002 29724 107486,107460,107950
 1.5000e+000 107999 -5.1509e+002 -8.6847e+002  3.5616e+002 29724 107486,107950,107806
 1.5000e+000 108296 -5.5706e+002 -4.6619e+002  2.9510e+002 29206 108319,108100,108048
 1.5000e+000 108273 -3.2754e+002 -4.1798e+002  3.5142e+002 29206 108319,108048,108022
 1.5000e+000 108250 -1.8474e+002 -4.9769e+002  4.2484e+002 29206 108391,108152,108126
 1.5000e+000 108227 -6.7107e+002 -3.3274e+002  3.7414e+002 29206 108048,108100,108074
 1.5000e+000 108204 -2.6229e+002 -6.7145e+002  3.6478e+002 29206 108022,108178,108152
 1.5000e+000 108345 -4.1094e+002 -2.8847e+002  4.2505e+002 29206 108126,108100,108319
 1.5000e+000 108368 -2.3951e+002 -4.0704e+002  4.7653e+002 29206 108391,108126,108319
 1.5000e+000 108417 -3.2580e+002 -6.0857e+002  3.6456e+002 29206 108022,108152,108391
 1.5000e+000 108440 -3.6791e+002 -5.3965e+002  4.1907e+002 29206 108022,108391,108319
 1.5000e+000 108688 -6.3633e+002 -6.9923e+002  3.5697e+002 28595 108711,108541,108515
 1.5000e+000 108665 -8.8389e+002 -7.5107e+002  5.3017e+002 28595 108783,108711,108515
 1.5000e+000 108642 -1.0735e+003 -6.5471e+002  5.3361e+002 28595 108783,108515,108489
 1.5000e+000 108619 -1.0959e+003 -8.1795e+002  2.8532e+002 28595 108463,108593,108489
 1.5000e+000 108737 -5.7155e+002 -5.3430e+002  2.5755e+002 28595 108567,108541,108711
 1.5000e+000 108760 -4.7802e+002 -6.0312e+002  4.7082e+002 28595 108567,108711,108593
 1.5000e+000 108809 -5.8625e+002 -7.5387e+002  4.0283e+002 28595 108593,108711,108783
 1.5000e+000 108832 -8.6516e+002 -7.0565e+002  3.6004e+002 28595 108593,108783,108489
 1.5000e+000 109033 -2.2233e+002 -3.4266e+002  1.7060e+002 28091 108909,108961,108935
 1.5000e+000 109010 -3.5347e+002 -3.2774e+002  1.4188e+002 28091 108857,108961,108909
 1.5000e+000 108987 -5.6333e+002 -5.2216e+002  3.9327e+002 28091 108857,108909,108883
 1.5000e+000 109136 -4.4670e+002 -1.0559e+003  1.9012e+002 27587 109058,109110,109084
 1.5000e+000 109695 -4.8500e+002 -4.8995e+002  1.7464e+002 26969 109718,109375,109323
 1.5000e+000 109672 -4.6397e+002 -4.5779e+002  1.5538e+002 26969 109718,109323,109505
 1.5000e+000 109649 -5.3735e+002 -1.7228e+002  8.5498e+001 26969 109790,109453,109427
 1.5000e+000 109626 -1.9109e+002 -4.9136e+002  2.3046e+002 26969 109323,109375,109349
 1.5000e+000 109603 -5.0901e+002 -5.6302e+002  2.1409e+002 26969 109323,109531,109505
 1.5000e+000 109580 -2.6267e+002 -5.0466e+002  8.5551e+001 26969 109375,109427,109401
 1.5000e+000 109557 -5.8172e+002 -2.7853e+002  1.5399e+002 26969 109453,109505,109479
 1.5000e+000 109744 -4.8108e+002 -5.1859e+002  8.7978e+001 26969 109427,109375,109718
 1.5000e+000 109767 -4.0192e+002 -3.0216e+002  7.0739e+001 26969 109790,109427,109718
 1.5000e+000 109816 -5.9459e+002 -3.1190e+002  1.4362e+002 26969 109505,109453,109790
 1.5000e+000 109839 -5.0364e+002 -4.7580e+002  1.5057e+002 26969 109505,109790,109718
 1.5000e+000 110266 -3.7059e+002 -5.5326e+002  2.1655e+002 26515 110361,110289,110099
 1.5000e+000 110243 -3.0578e+002 -4.3668e+002  2.6373e+002 26515 110289,109995,109943
 1.5000e+000 110220 -4.2419e+002 -5.7650e+002  2.1905e+002 26515 110361,110099,110021
 1.5000e+000 110197 -4.0979e+002 -1.0500e+003  1.3031e+002 26515 110047,110099,110073
 1.5000e+000 110174 -4.4296e+002 -1.0121e+003 -1.4516e+001 26515 110021,110099,110047
 1.5000e+000 110151  3.2055e+001  1.3070e+001  4.1543e+002 26515 109943,109995,109969
 1.5000e+000 110315 -6.0628e+002 -4.0437e+002  1.8840e+002 26515 110125,110099,110289
 1.5000e+000 110338 -3.8905e+002 -1.6004e+002  3.7073e+002 26515 110125,110289,109943
 1.5000e+000 110387 -4.1808e+002 -5.2411e+002  1.5500e+002 26515 109995,110289,110361
 1.5000e+000 110410 -4.6377e+002 -5.4423e+002  1.6104e+002 26515 109995,110361,110021
 1.5000e+000 110609 -1.7547e+002 -6.3855e+002  2.3109e+002 25789 110906,110762,110632
 1.5000e+000 110586 -1.8411e+002 -7.8579e+002  2.6132e+002 25789 110762,110433,110537
 1.5000e+000 110563 -4.2803e+002 -7.1023e+002  3.8948e+002 25789 110834,110459,110433
 1.5000e+000 110658 -2.5906e+002 -6.2042e+002  2.9541e+002 25789 110906,110632,110834
 1.5000e+000 110788 -1.2830e+002 -4.2982e+002  1.5626e+002 25789 110511,110632,110762
 1.5000e+000 110811 -1.6606e+002 -6.3641e+002  2.6777e+002 25789 110511,110762,110537
 1.5000e+000 110860 -2.7223e+002 -6.2471e+002  3.4820e+002 25789 110485,110459,110834
 1.5000e+000 110883 -3.3136e+002 -6.3855e+002  3.0553e+002 25789 110485,110834,110632
 1.5000e+000 110932 -3.5274e+002 -6.9430e+002  2.4586e+002 25789 110433,110762,110906
 1.5000e+000 110955 -4.1897e+002 -6.5444e+002  2.9736e+002 25789 110433,110906,110834
 1.5000e+000 111350 -4.4466e+002 -5.8002e+002  3.5689e+002 25228 111445,111373,111186
 1.5000e+000 111327 -4.9420e+002 -6.0621e+002  1.5415e+002 25228 110978,111186,111004
 1.5000e+000 111304 -4.9255e+002 -7.2500e+002  2.9942e+002 25228 111373,111108,111082
 1.5000e+000 111281 -4.1186e+002 -7.8240e+002  3.1083e+002 25228 111134,111186,111160
 1.5000e+000 111258 -4.2861e+002 -5.5682e+002  3.6911e+002 25228 111445,111186,111134
 1.5000e+000 111235 -4.2125e+002 -4.8813e+002  2.0328e+002 25228 111517,111030,111004
 1.5000e+000 111212 -6.4172e+002 -6.0681e+002  3.1853e+002 25228 111030,111082,111056
 1.5000e+000 111399 -4.6055e+002 -6.5188e+002  3.4023e+002 25228 111004,111186,111373
 1.5000e+000 111422 -3.6288e+002 -5.4945e+002  2.7711e+002 25228 111517,111004,111373
 1.5000e+000 111471 -4.7828e+002 -5.7535e+002  3.1610e+002 25228 111108,111373,111445
 1.5000e+000 111494 -4.5842e+002 -5.4497e+002  3.2938e+002 25228 111108,111445,111134
 1.5000e+000 111543 -5.3984e+002 -5.3557e+002  2.5875e+002 25228 111082,111030,111517
 1.5000e+000 111566 -4.8318e+002 -6.1604e+002  3.3450e+002 25228 111082,111517,111373
 1.5000e+000 112074 -4.0618e+002 -4.6375e+002  3.0415e+002 24338 112097,111907,111881
 1.5000e+000 112051 -5.6468e+002 -4.6748e+002  2.1565e+002 24338 112097,111881,111829
 1.5000e+000 112028 -2.8075e+002 -5.3348e+002  1.5592e+002 24338 111829,111881,111855
 1.5000e+000 112005 -7.2859e+002 -7.1867e+002  2.0326e+002 24338 111777,111933,111829
 1.5000e+000 111982 -8.8668e+002 -2.1522e+002  2.4697e+002 24338 111751,111933,111777
 1.5000e+000 111959 -7.8217e+002 -7.7215e+002  2.2823e+002 24338 111777,111829,111803
 1.5000e+000 112123 -5.5305e+002 -6.7072e+002  2.2115e+002 24338 111933,111907,112097
 1.5000e+000 112146 -6.2879e+002 -4.9486e+002  1.7953e+002 24338 111933,112097,111829
 1.5000e+000 112443 -6.6592e+002 -4.7683e+002  2.9307e+002 23998 112466,112299,112247
 1.5000e+000 112420 -7.1374e+002 -7.9086e+002  2.5337e+002 23998 112466,112247,112221
 1.5000e+000 112397 -6.3175e+002 -8.0888e+002  3.9698e+002 23998 112169,112325,112221
 1.5000e+000 112374 -6.3077e+002 -7.2186e+002  3.8050e+002 23998 112169,112221,112195
 1.5000e+000 112351 -2.4795e+002 -4.3758e+002  3.3987e+002 23998 112247,112299,112273
 1.5000e+000 112492 -6.1394e+002 -5.3055e+002  4.7614e+002 23998 112325,112299,112466
 1.5000e+000 112515 -6.8088e+002 -7.0661e+002  4.0445e+002 23998 112325,112466,112221
 1.5000e+000 113200 -6.3228e+002 -7.5555e+002  4.9357e+002 23480 112779,112961,112805
 1.5000e+000 113177 -6.6939e+002 -5.3514e+002  2.3528e+002 23480 112779,112987,112961
 1.5000e+000 113154 -2.1787e+002 -4.2653e+002  3.2462e+002 23480 112805,112961,112883
 1.5000e+000 113131 -4.3405e+002 -7.0224e+002  3.4639e+002 23480 112883,112935,112909
 1.5000e+000 113108 -5.4286e+002 -5.6327e+002  3.5236e+002 23480 112883,112961,112935
 1.5000e+000 113085 -2.6508e+002 -3.5546e+002  1.6948e+002 23480 112831,112883,112857
 1.5000e+000 113062 -3.6889e+002 -4.2513e+002  2.1515e+002 23480 112805,112883,112831
 1.5000e+000 113039 -7.4737e+002 -4.2493e+002  2.5466e+002 23480 112779,113013,112987
 1.5000e+000 113676 -5.8765e+002 -3.3423e+002  4.4248e+002 23018 113699,113434,113356
 1.5000e+000 113653 -5.3260e+002 -3.2742e+002  2.5889e+002 23018 113771,113699,113356
 1.5000e+000 113630 -4.8610e+002 -4.8428e+002  1.8727e+002 23018 113771,113356,113512
 1.5000e+000 113607 -3.5494e+002 -6.6168e+002  2.9432e+002 23018 113330,113512,113356
 1.5000e+000 113584 -1.1703e+003 -6.0869e+002  6.6109e+002 23018 113356,113434,113382
 1.5000e+000 113561 -1.3375e+002 -6.2213e+002  2.8583e+002 23018 113304,113512,113330
 1.5000e+000 113538 -1.1264e+003 -1.5952e+002  2.9713e+002 23018 113382,113434,113408
 1.5000e+000 113725 -6.5754e+002 -5.0164e+002  4.4546e+002 23018 113460,113434,113699
 1.5000e+000 113748 -6.8266e+002 -5.2585e+002  3.0403e+002 23018 113460,113699,113486
 1.5000e+000 113797 -6.6002e+002 -5.6056e+002  3.0806e+002 23018 113486,113699,113771
 1.5000e+000 113820 -5.3899e+002 -5.9559e+002  2.0240e+002 23018 113486,113771,113512
 1.5000e+000 114424 -6.1748e+002 -5.6850e+002  1.2148e+002 22514 114447,114133,114029
 1.5000e+000 114401 -6.3606e+002 -7.0568e+002  1.2502e+002 22514 114447,114029,114237
 1.5000e+000 114378 -6.2815e+002 -4.0763e+002  7.5137e+001 22514 114133,114211,114185
 1.5000e+000 114355 -9.5832e+002 -4.4440e+002  2.8110e+001 22514 114133,114185,114159
 1.5000e+000 114332 -5.0587e+002 -7.4050e+002  3.0342e+002 22514 114003,114237,114029
 1.5000e+000 114309 -6.7136e+002 -5.1364e+002  6.8292e+001 22514 114029,114133,114055
 1.5000e+000 114286 -7.4301e+002 -5.0395e+002  1.0110e+002 22514 114055,114133,114107
 1.5000e+000 114263 -5.6787e+002 -3.1694e+001  1.3170e+002 22514 114055,114107,114081
 1.5000e+000 114473 -6.6216e+002 -4.9354e+002  1.7851e+002 22514 114211,114133,114447
 1.5000e+000 114496 -6.5591e+002 -5.9430e+002  1.7844e+002 22514 114211,114447,114237
 1.5000e+000 114597 -3.2160e+002 -8.2421e+002  4.4451e+002 22316 114620,114571,114545
 1.5000e+000 114646 -3.2160e+002 -8.2421e+002  4.4451e+002 22316 114519,114571,114620
 1.5000e+000 115127 -8.0346e+002 -5.3941e+002  2.9006e+002 21612 115150,114905,114879
 1.5000e+000 115104 -9.3743e+002 -3.3271e+002  3.1601e+002 21612 115150,114879,114853
 1.5000e+000 115081 -6.0091e+002 -1.6197e+002  4.2716e+002 21612 115222,114931,114905
 1.5000e+000 115058 -6.9132e+002 -4.3505e+002  3.4713e+002 21612 115222,114905,115009
 1.5000e+000 115035 -4.1954e+002 -5.9337e+002  2.3707e+002 21612 114957,115009,114983
 1.5000e+000 115176 -7.2586e+002 -4.0445e+002  2.5829e+002 21612 115009,114905,115150
 1.5000e+000 115199 -8.3768e+002 -1.6549e+002  2.7375e+002 21612 115009,115150,114853
 1.5000e+000 115248 -5.6919e+002 -4.2161e+002  3.3420e+002 21612 114957,114931,115222
 1.5000e+000 115271 -6.5478e+002 -6.8533e+002  2.5277e+002 21612 114957,115222,115009
 1.5000e+000 115519 -1.8863e+002  1.0222e+002  2.1408e+002 21208 115542,115372,115320
 1.5000e+000 115496  7.9410e+000  2.4428e+002  1.0274e+001 21208 115542,115320,115294
 1.5000e+000 115473 -1.3613e+002 -3.5085e+002  3.0155e+002 21208 115320,115372,115346
 1.5000e+000 115450 -4.4542e+002 -1.4822e+002  1.0977e+002 21208 115294,115424,115398
 1.5000e+000 115568 -2.7194e+002  1.6549e+001  2.9208e+002 21208 115398,115372,115542
 1.5000e+000 115591 -2.0516e+002 -1.0711e+002  1.2232e+002 21208 115398,115542,115294
 1.5000e+000 115839 -5.7107e+002 -3.9214e+002  3.5200e+002 20668 115862,115640,115614
 1.5000e+000 115816 -6.2197e+002 -4.3034e+002  3.7904e+002 20668 115862,115614,115744
 1.5000e+000 115793 -7.4909e+002 -3.1598e+002  3.5152e+002 20668 115640,115718,115692
 1.5000e+000 115770 -9.0950e+002 -3.6506e+002  3.5845e+002 20668 115640,115692,115666
 1.5000e+000 115888 -6.4207e+002 -3.1137e+002  3.8673e+002 20668 115718,115640,115862
 1.5000e+000 115911 -7.0590e+002 -3.8971e+002  4.2581e+002 20668 115718,115862,115744
 1.5000e+000 116134 -3.6561e+002 -6.1953e+002  3.4982e+002 20264 115958,116036,115984
 1.5000e+000 116111 -2.1918e+002 -5.5294e+002  3.3511e+002 20264 115958,116062,116036
 1.5000e+000 116088 -2.2491e+002 -5.7809e+002  3.7933e+002 20264 115984,116036,116010
 1.5000e+000 116384 -6.0094e+002 -3.9738e+002  3.9596e+002 19924 116407,116211,116159
 1.5000e+000 116361 -5.6843e+002 -6.4896e+002  3.2909e+002 19924 116407,116159,116263
 1.5000e+000 116338 -5.6580e+002 -2.6830e+002  3.9078e+002 19924 116159,116211,116185
 1.5000e+000 116315 -3.9087e+002 -6.6510e+002  4.1526e+002 19924 116159,116289,116263
 1.5000e+000 116433 -5.8012e+002 -2.5853e+002  4.5577e+002 19924 116237,116211,116407
 1.5000e+000 116456 -4.5277e+002 -4.2744e+002  4.2014e+002 19924 116237,116407,116263
 1.5000e+000 116608 -4.2381e+002 -1.3355e+002  2.7564e+002 19520 116703,116631,116533
 1.5000e+000 116585 -4.1411e+002 -1.8274e+002  2.3243e+002 19520 116631,116507,116481
 1.5000e+000 116657 -3.2896e+002 -1.9008e+002  2.9451e+002 19520 116559,116533,116631
 1.5000e+000 116680 -3.8645e+002 -3.1376e+002  2.3915e+002 19520 116559,116631,116481
 1.5000e+000 116729 -4.2381e+002 -1.3355e+002  2.7564e+002 19520 116507,116631,116703
 1.5000e+000 116952 -4.8269e+002 -4.3886e+002  5.9792e+002 19208 116975,116802,116776
 1.5000e+000 116929 -6.1778e+002 -8.1177e+002  3.4762e+002 19208 116975,116776,116880
 1.5000e+000 116906 -7.0599e+002 -3.0073e+002  4.2132e+002 19208 116802,116854,116828
 1.5000e+000 117001 -3.8579e+002 -3.7149e+002  6.2944e+002 19208 116854,116802,116975
 1.5000e+000 117024 -1.6102e+002 -4.6859e+002  5.0190e+002 19208 116854,116975,116880
 1.5000e+000 117428 -5.4254e+002 -2.0282e+002  3.3201e+002 18796 117154,117206,117180
 1.5000e+000 117405 -3.7465e+002 -4.0950e+002  2.9481e+002 18796 117154,117284,117206
 1.5000e+000 117382 -2.3395e+002 -3.4698e+002  3.0950e+002 18796 117154,117310,117284
 1.5000e+000 117359 -2.1693e+002 -2.9027e+002  3.9009e+002 18796 117206,117284,117258
 1.5000e+000 117336 -6.4749e+001 -6.2990e+001  5.3132e+002 18796 117206,117258,117232
 1.5000e+000 117529 -2.7478e+002 -1.5002e+002  1.6324e+002 18228 117810,117552,117477
 1.5000e+000 117578 -5.6780e+002 -3.9019e+002  2.4074e+002 18228 117682,117552,117503
 1.5000e+000 117708 -2.0387e+002 -2.0253e+002  1.5576e+002 18228 117477,117552,117682
 1.5000e+000 117836 -4.0357e+002 -3.9581e+002  2.2539e+002 18228 117451,117552,117810
 1.5000e+000 118364 -6.3951e+002 -2.1014e+002  2.4032e+002 17722 118067,118223,118093
 1.5000e+000 118341 -5.9477e+002 -1.1253e+002  2.5530e+002 17722 118041,118223,118067
 1.5000e+000 118318 -3.5937e+002 -1.9114e+002  1.6643e+002 17722 118093,118223,118197
 1.5000e+000 118295 -9.6090e+002 -9.5073e+002  6.0756e+002 17722 118119,118197,118171
 1.5000e+000 118272 -1.8922e+002 -3.2782e+001  2.6682e+002 17722 118093,118197,118119
 1.5000e+000 118249 -8.6738e+002 -4.2150e+002  5.4203e+002 17722 118119,118171,118145
 1.5000e+000 118514 -9.4396e+002 -3.7308e+002  3.4028e+002 17268 118387,118439,118413
 1.5000e+000 118491 -6.2990e+001 -3.9631e+002  3.3974e+002 17268 118387,118465,118439
 1.5000e+000 118916 -8.6362e+002 -2.9811e+002  2.2765e+002 16828 118668,118772,118694
 1.5000e+000 118893 -1.0530e+003 -3.8714e+002  1.9757e+002 16828 118668,118798,118772
 1.5000e+000 118870 -1.1581e+003 -6.7876e+002  1.5976e+002 16828 118642,118798,118668
 1.5000e+000 118847 -5.4527e+002 -2.3067e+002  4.1226e+002 16828 118694,118746,118720
 1.5000e+000 118824 -9.3092e+002 -5.2377e+002  2.1102e+002 16828 118694,118772,118746
 1.5000e+000 119316 -3.9324e+002 -3.0029e+002  4.0935e+002 16422 119042,119172,119094
 1.5000e+000 119293 -4.9179e+002 -3.2248e+002  4.1972e+002 16422 119042,119198,119172
 1.5000e+000 119270 -5.7764e+002 -1.8720e+002  2.4737e+002 16422 119042,119094,119068
 1.5000e+000 119247 -2.6154e+002 -1.5719e+002  5.7453e+002 16422 119094,119146,119120
 1.5000e+000 119224 -3.4071e+002 -2.0881e+002  4.3182e+002 16422 119094,119172,119146
 1.5000e+000 119466 -1.0862e+003 -2.5025e+002 -8.4094e+001 16010 119339,119391,119365
 1.5000e+000 119443 -4.6181e+002 -3.4808e+002  2.7028e+002 16010 119339,119417,119391
 1.5000e+000 119616 -2.2352e+002 -6.6646e+001  3.2307e+002 15547 119515,119567,119541
 1.5000e+000 119593  1.8050e+002  2.3758e+002  7.1484e+002 15547 119489,119567,119515
 1.5000e+000 119719 -7.0203e+002 -2.6892e+002  3.3234e+002 421 119641,119693,119667
 1.6000e+000 69562 -7.1818e+002 -3.4583e+002  5.7631e+002 69254 69484,69536,69510
 1.6000e+000 70009 -3.2565e+002 -3.2113e+002  3.0094e+002 68942 69686,69842,69816
 1.6000e+000 69986 -3.0143e+002 -1.3151e+002  1.7806e+002 68942 69686,69868,69842
 1.6000e+000 69963 -5.7110e+001 -1.7944e+001  4.1554e+002 68942 69686,69816,69712
 1.6000e+000 69940 -9.3551e+001 -8.9285e+001  5.9926e+002 68942 69712,69790,69738
 1.6000e+000 69917 -4.5576e+002 -9.4658e+002  4.2483e+002 68942 69712,69816,69790
 1.6000e+000 69894 -7.7343e+000 -5.1467e+002  2.3343e+002 68942 69738,69790,69764
 1.6000e+000 70110 -3.1957e+002 -5.4525e+001  2.2024e+002 68766 70032,70084,70058
 1.6000e+000 70746 -1.7003e+002 -1.5673e+002  2.1903e+002 68448 70400,70556,70426
 1.6000e+000 70723 -6.4100e+002 -2.2729e+002  3.2155e+002 68448 70374,70556,70400
 1.6000e+000 70700 -3.2877e+002 -1.6946e+002  1.5537e+002 68448 70426,70556,70478
 1.6000e+000 70677 -4.8804e+002 -1.3041e+002  1.8042e+002 68448 70478,70556,70504
 1.6000e+000 70654 -3.0497e+002 -1.8793e+002  1.3335e+002 68448 70426,70478,70452
 1.6000e+000 70631 -6.4919e+002 -2.5143e+002  3.8824e+002 68448 70374,70582,70556
 1.6000e+000 70608 -5.1954e+002 -1.9510e+002  1.7156e+002 68448 70504,70556,70530
 1.6000e+000 70896 -4.2867e+002 -4.4800e+001  3.4628e+001 68250 70795,70847,70821
 1.6000e+000 70873 -1.2565e+003 -3.6612e+002  6.0899e+001 68250 70769,70847,70795
 1.6000e+000 70997 -2.0074e+003 -9.6662e+002  8.6280e+002 68052 70919,70971,70945
 1.6000e+000 71367 -6.1216e+002 -9.8094e+002  3.7085e+002 67740 71096,71226,71200
 1.6000e+000 71344 -3.9031e+002 -5.5490e+002  4.6484e+002 67740 71044,71226,71096
 1.6000e+000 71321  5.8962e+001 -5.8962e+001  7.3535e+002 67740 71044,71096,71070
 1.6000e+000 71298 -4.5026e+002 -1.0591e+003  7.2346e+002 67740 71096,71200,71174
 1.6000e+000 71275 -2.5405e+002 -6.2250e+002  2.8365e+002 67740 71096,71148,71122
 1.6000e+000 71252 -3.5136e+002 -7.5057e+002  4.7031e+002 67740 71096,71174,71148
 1.6000e+000 71519  2.3951e+002  1.7098e+002  2.3409e+002 67542 71418,71470,71444
 1.6000e+000 71496  4.0432e+002  7.5412e+002  7.3390e+002 67542 71392,71470,71418
 1.6000e+000 71923 -1.1142e+002  4.2612e+001  1.9242e+002 67230 71649,71779,71675
 1.6000e+000 71900 -6.6344e+001 -1.6101e+002  1.0342e+002 67230 71649,71805,71779
 1.6000e+000 71877 -1.0181e+002 -2.0679e+001  3.6938e+002 67230 71675,71727,71701
 1.6000e+000 71854 -1.5440e+002 -5.4863e+002  3.4370e+002 67230 71675,71753,71727
 1.6000e+000 71831 -1.7005e+002 -3.1810e+002  2.3766e+002 67230 71675,71779,71753
 1.6000e+000 72433 -3.0560e+002 -1.4462e+002  2.9737e+002 67032 72038,72246,72220
 1.6000e+000 72410 -2.0336e+002  3.8590e+001  1.1291e+002 67032 72012,72246,72038
 1.6000e+000 72387 -3.3528e+002 -7.5145e+001  3.2614e+002 67032 72064,72194,72168
 1.6000e+000 72364 -3.9225e+002 -1.3582e+002  3.5322e+002 67032 72038,72194,72064
 1.6000e+000 72341 -4.6767e+002 -5.8528e+002  3.7551e+002 67032 72038,72220,72194
 1.6000e+000 72318 -1.3463e+002  5.5646e+001  1.8133e+002 67032 72090,72168,72142
 1.6000e+000 72295  5.5641e+001  8.5217e+001  2.5914e+002 67032 72064,72168,72090
 1.6000e+000 72272 -1.6295e+002  3.0953e+001  1.6938e+002 67032 72090,72142,72116
 1.6000e+000 72933 -3.0553e+002 -3.6793e+002  3.6022e+002 66628 72956,72665,72613
 1.6000e+000 72910 -2.8280e+002 -3.8629e+002  3.6131e+002 66628 73100,72956,72613
 1.6000e+000 72887 -3.8933e+002 -5.5618e+002  2.9186e+002 66628 73028,72691,72665
 1.6000e+000 72864 -2.6483e+002 -3.5156e+002  3.7051e+002 66628 73100,72613,72587
 1.6000e+000 72841 -2.8799e+002 -3.5016e+002  3.2786e+002 66628 72613,72665,72639
 1.6000e+000 72818  1.4197e+002  4.0030e+001  4.9554e+002 66628 72587,72769,72743
 1.6000e+000 72795 -2.7873e+002 -7.7736e+002  8.9858e+001 66628 72561,72769,72587
 1.6000e+000 72982 -3.8012e+002 -4.0189e+002  3.8752e+002 66628 73028,72665,72956
 1.6000e+000 73005 -3.0526e+002 -1.0803e+002  3.7661e+002 66628 72717,72956,72743
 1.6000e+000 73054 -5.6992e+002 -4.5626e+002  1.7862e+002 66628 72717,72691,73028
 1.6000e+000 73077 -5.6283e+002 -4.0512e+002  2.6411e+002 66628 72717,73028,72956
 1.6000e+000 73126 -3.0211e+002 -3.8321e+002  3.2166e+002 66628 72743,72956,73100
 1.6000e+000 73149 -2.8376e+002 -3.5446e+002  3.3124e+002 66628 72743,73100,72587
 1.6000e+000 73606 -3.5365e+002 -3.3893e+002  3.0714e+002 66281 73332,73384,73358
 1.6000e+000 73583 -4.4231e+002 -4.4440e+002  2.6150e+002 66281 73332,73462,73384
 1.6000e+000 73560 -5.7837e+002 -3.6292e+002  3.3346e+002 66281 73384,73462,73436
 1.6000e+000 73537 -9.4523e+002 -5.2303e+002  4.5407e+002 66281 73332,73488,73462
 1.6000e+000 73514 -6.7415e+002 -3.4845e+002  1.8608e+002 66281 73384,73436,73410
 1.6000e+000 73984 -6.1432e+000 -8.8980e+001  3.9270e+001 65969 73736,73814,73788
 1.6000e+000 73961  6.2226e+001 -2.5605e+001  1.5106e+000 65969 73736,73866,73814
 1.6000e+000 73938 -1.0825e+002 -1.4044e+002  1.7615e+002 65969 73814,73866,73840
 1.6000e+000 73915 -1.5610e+000 -5.3239e+000  1.7436e+000 65969 73710,73866,73736
 1.6000e+000 73892  4.7531e+000 -1.0395e+002  1.1268e+001 65969 73736,73788,73762
 1.6000e+000 74232 -2.5412e+002 -3.3703e+002  3.0497e+002 65572 74255,74085,74033
 1.6000e+000 74209 -2.1330e+002 -3.7704e+002  2.4012e+002 65572 74327,74255,74033
 1.6000e+000 74186 -2.4395e+002 -2.6236e+002  2.4448e+002 65572 74327,74033,74007
 1.6000e+000 74163 -2.8999e+002 -4.1724e+002  3.3688e+002 65572 74033,74085,74059
 1.6000e+000 74281 -3.4250e+002 -4.5160e+002  4.0997e+002 65572 74111,74085,74255
 1.6000e+000 74304 -1.9483e+002 -3.9536e+002  2.7525e+002 65572 74111,74255,74137
 1.6000e+000 74353 -1.8639e+002 -2.4316e+002  2.0060e+002 65572 74137,74255,74327
 1.6000e+000 74376 -2.4211e+002 -1.5812e+002  2.1077e+002 65572 74137,74327,74007
 1.6000e+000 74884 -2.8132e+002 -3.3118e+002  2.5499e+002 65174 74587,74717,74613
 1.6000e+000 74861 -2.9194e+002 -3.7307e+002  1.8446e+002 65174 74561,74717,74587
 1.6000e+000 74838 -3.1212e+002 -4.3077e+002  2.3979e+002 65174 74613,74691,74639
 1.6000e+000 74815 -2.5836e+002 -4.0786e+002  2.4080e+002 65174 74613,74717,74691
 1.6000e+000 74792 -1.2994e+002 -7.2474e+002  1.7964e+002 65174 74639,74691,74665
 1.6000e+000 74769 -4.0106e+002 -1.7797e+002  1.8547e+002 65174 74561,74743,74717
 1.6000e+000 75412 -1.5068e+001 -2.1240e+002  6.9655e+002 64770 75167,75245,75219
 1.6000e+000 75389 -3.2692e+002 -6.2769e+002  4.8135e+002 64770 75115,75245,75167
 1.6000e+000 75366 -2.6231e+002 -7.9928e+002  6.1191e+002 64770 75089,75245,75115
 1.6000e+000 75343 -4.8315e+002 -2.0552e+002  5.1793e+002 64770 75167,75219,75193
 1.6000e+000 75320 -2.6408e+002 -4.8532e+002  4.9137e+002 64770 75115,75167,75141
 1.6000e+000 75297 -4.2426e+002 -1.1511e+003  6.5106e+002 64770 75089,75271,75245
 1.6000e+000 75861 -7.2095e+002 -3.3812e+002  6.1941e+002 64316 75538,75694,75564
 1.6000e+000 75838 -2.8573e+002 -1.2868e+002  4.6200e+002 64316 75538,75720,75694
 1.6000e+000 75815 -6.3684e+002 -4.3311e+002  4.8633e+002 64316 75590,75694,75642
 1.6000e+000 75792 -6.2260e+002 -5.9614e+002  5.3433e+002 64316 75564,75694,75590
 1.6000e+000 75769 -1.7537e+002 -7.3911e+002  2.6965e+002 64316 75590,75642,75616
 1.6000e+000 75746 -6.0689e+002 -2.6673e+002  4.7280e+002 64316 75642,75694,75668
 1.6000e+000 76239 -9.3796e+002 -7.6351e+002  4.7820e+002 64018 76262,76095,76043
 1.6000e+000 76216 -6.6986e+002 -7.2375e+002  3.8059e+002 64018 76262,76043,76017
 1.6000e+000 76193 -2.7798e+002 -3.9179e+002  3.0209e+002 64018 75991,76121,76017
 1.6000e+000 76170 -8.7137e+002 -5.9804e+002  5.7040e+002 64018 76043,76095,76069
 1.6000e+000 76147 -1.7156e+001 -4.1753e+002  7.5424e+001 64018 75965,76121,75991
 1.6000e+000 76288 -6.5266e+002 -9.2105e+002  6.0478e+002 64018 76121,76095,76262
 1.6000e+000 76311 -4.3572e+002 -8.9983e+002  4.7032e+002 64018 76121,76262,76017
 1.6000e+000 76866 -3.3411e+002 -4.0260e+002  3.8854e+002 63728 76520,76676,76546
 1.6000e+000 76843 -3.3166e+002 -4.1025e+002  3.0353e+002 63728 76520,76702,76676
 1.6000e+000 76820 -2.6154e+002 -4.1094e+002  3.7196e+002 63728 76546,76650,76572
 1.6000e+000 76797 -4.7236e+002 -5.1997e+002  3.3142e+002 63728 76546,76676,76650
 1.6000e+000 76774 -4.6761e+002 -6.2605e+001  1.9358e+002 63728 76572,76650,76624
 1.6000e+000 76751 -2.8282e+002 -3.6682e+002  3.2179e+002 63728 76494,76702,76520
 1.6000e+000 76728 -9.3465e+001 -2.1187e+002  1.4088e+002 63728 76572,76624,76598
 1.6000e+000 77065 -6.2334e+001 -3.4197e+002  2.6229e+002 63288 77088,76941,76915
 1.6000e+000 77042 -3.2786e+002 -4.2881e+002  2.5290e+002 63288 77088,76915,76993
 1.6000e+000 77019 -1.1721e+002 -4.3887e+002  2.2315e+002 63288 76889,76993,76915
 1.6000e+000 77114 -2.2154e+002 -3.6381e+002  1.9823e+002 63288 76967,76941,77088
 1.6000e+000 77137 -5.5404e+002 -4.4288e+002  1.0750e+002 63288 77160,77088,76993
 1.6000e+000 77186 -1.3952e+002 -2.5434e+002  1.6204e+002 63288 76967,77088,77160
 1.6000e+000 77417 -1.2471e+002 -2.4429e+002  8.5152e+001 62884 77440,77342,77316
 1.6000e+000 77394 -2.2343e+002 -4.1639e+002  3.6398e+001 62884 77770,77440,77316
 1.6000e+000 77466 -2.6498e+002 -4.1653e+002  4.4655e+001 62884 77512,77440,77368
 1.6000e+000 77489 -1.7143e+002 -4.0115e+002  2.8566e+001 62884 77642,77440,77290
 1.6000e+000 77538 -1.4465e+002 -3.3220e+002  7.5011e+000 62884 77342,77440,77512
 1.6000e+000 77668 -2.3335e+002 -4.8634e+002 -1.1977e+001 62884 77368,77440,77642
 1.6000e+000 77796 -1.6196e+002 -3.8433e+002  2.4488e+001 62884 77290,77440,77770
 1.6000e+000 78479 -6.1565e+002 -6.8373e+002  3.9695e+002 62480 78084,78240,78214
 1.6000e+000 78456 -3.4154e+002 -5.7152e+002  1.5290e+001 62480 78084,78266,78240
 1.6000e+000 78433 -3.5041e+002 -5.6781e+002  1.4455e+002 62480 78110,78214,78136
 1.6000e+000 78410 -4.4658e+002 -6.1412e+002  3.5437e+002 62480 78084,78214,78110
 1.6000e+000 78387 -3.9532e+002 -3.5718e+002  1.9877e+002 62480 78136,78214,78188
 1.6000e+000 78364 -2.3415e+002 -6.6267e+002 -1.2252e+001 62480 78058,78266,78084
 1.6000e+000 78341 -3.6630e+002 -3.7136e+002  2.8457e+002 62480 78136,78188,78162
 1.6000e+000 78318 -1.1529e+002 -5.4025e+002 -1.1930e+002 62480 78058,78292,78266
 1.6000e+000 78678 -4.1422e+002 -7.6737e+002  3.1251e+002 61926 78528,78606,78554
 1.6000e+000 78655 -1.9283e+002 -8.6274e+002  3.9715e+002 61926 78502,78606,78528
 1.6000e+000 78632 -2.4748e+002 -4.6471e+002  1.3742e+002 61926 78554,78606,78580
 1.6000e+000 79058 -4.2267e+002 -4.4508e+002  2.4295e+002 61614 78836,78914,78862
 1.6000e+000 79035 -5.2438e+002 -5.2072e+002  2.0904e+002 61614 78810,78914,78836
 1.6000e+000 79012 -3.4053e+002 -4.4202e+002  1.9112e+002 61614 78784,78914,78810
 1.6000e+000 78989 -3.7156e+002 -4.7865e+002  3.6822e+002 61614 78862,78914,78888
 1.6000e+000 78966 -2.7994e+002 -5.7435e+002  2.2090e+002 61614 78784,78940,78914
 1.6000e+000 79208 -2.8363e+002 -6.6154e+002  1.9314e+001 61366 79081,79133,79107
 1.6000e+000 79185 -2.5919e+002 -3.0611e+002  3.0828e+002 61366 79081,79159,79133
 1.6000e+000 79358  4.0140e+001  1.1753e+001  4.2566e+001 60962 79231,79283,79257
 1.6000e+000 79335 -1.9622e+002 -4.6323e+002  1.2137e+002 60962 79231,79309,79283
 1.6000e+000 79608 -2.7474e+002 -6.3404e+002  2.8211e+002 60508 79631,79435,79409
 1.6000e+000 79585 -1.8262e+002 -6.5809e+002  1.7494e+002 60508 79703,79631,79409
 1.6000e+000 79562 -1.2325e+002 -2.1239e+002  2.6005e+002 60508 79703,79409,79383
 1.6000e+000 79539 -6.0687e+002 -5.7500e+002  5.0178e+002 60508 79435,79487,79461
 1.6000e+000 79657 -3.3137e+002 -8.2353e+002  4.7033e+002 60508 79487,79435,79631
 1.6000e+000 79680 -1.6576e+002 -5.8847e+002  2.1062e+002 60508 79487,79631,79513
 1.6000e+000 79729 -9.3659e+001 -2.5362e+002  8.0258e+001 60508 79513,79631,79703
 1.6000e+000 79752 -2.1236e+002 -2.0840e+002  2.5896e+001 60508 79513,79703,79383
 1.6000e+000 80390 -3.6994e+002 -4.5570e+002  3.6521e+002 59997 80413,80096,80018
 1.6000e+000 80367 -5.8112e+002 -5.2479e+002  4.2511e+002 59997 80413,80018,80226
 1.6000e+000 80344 -3.1918e+002 -3.8180e+002  2.6289e+002 59997 80096,80174,80148
 1.6000e+000 80321 -1.1926e+003 -8.9554e+002  5.9461e+002 59997 80018,80096,80070
 1.6000e+000 80298 -3.8824e+002 -4.4886e+002  2.2869e+002 59997 80096,80148,80122
 1.6000e+000 80275 -3.0925e+002 -3.7032e+002  2.9447e+002 59997 80174,80226,80200
 1.6000e+000 80252 -6.6843e+002 -5.6288e+002  2.2458e+001 59997 80018,80070,80044
 1.6000e+000 80439 -3.1817e+002 -4.8096e+002  2.9457e+002 59997 80174,80096,80413
 1.6000e+000 80462 -4.0385e+002 -4.2432e+002  3.2996e+002 59997 80174,80413,80226
 1.6000e+000 80840 -5.9564e+002 -5.5745e+002  2.6985e+002 59443 80863,80644,80618
 1.6000e+000 80817 -2.5693e+002 -4.1847e+002  3.1582e+002 59443 80863,80618,80566
 1.6000e+000 80794 -2.1062e+002 -3.6237e+002  3.5793e+002 59443 81007,80935,80670
 1.6000e+000 80771 -3.3015e+002 -3.8799e+002  3.4396e+002 59443 80566,80722,80696
 1.6000e+000 80748 -3.2315e+002 -5.5738e+002  3.6614e+002 59443 80566,80618,80592
 1.6000e+000 80889 -6.4417e+002 -4.9629e+002  4.2465e+002 59443 80935,80644,80863
 1.6000e+000 80912 -4.5150e+002 -4.4460e+002  3.6451e+002 59443 80696,80863,80566
 1.6000e+000 80961 -3.7786e+002 -4.1910e+002  4.2547e+002 59443 80696,80670,80935
 1.6000e+000 80984 -3.6998e+002 -3.7327e+002  3.9483e+002 59443 80696,80935,80863
 1.6000e+000 81033 -4.9219e+002 -6.6609e+002  5.0208e+002 59443 80644,80935,81007
 1.6000e+000 81360 -5.5291e+002 -3.3598e+002  2.6737e+002 59031 81383,81187,81161
 1.6000e+000 81337 -4.9925e+002 -3.7320e+002  1.1299e+002 59031 81455,81383,81161
 1.6000e+000 81314 -4.1153e+002 -2.6713e+002  1.5542e+002 59031 81455,81161,81135
 1.6000e+000 81291 -1.0740e+003 -1.8679e+002  4.3608e+002 59031 81187,81239,81213
 1.6000e+000 81409 -5.8966e+002 -5.5370e+002  3.3897e+002 59031 81239,81187,81383
 1.6000e+000 81432 -6.5874e+002 -4.3240e+002  1.1387e+002 59031 81239,81383,81265
 1.6000e+000 81481 -5.7033e+002 -1.8303e+002  1.4499e+002 59031 81265,81383,81455
 1.6000e+000 81504 -5.6237e+002 -1.4955e+002  1.5895e+002 59031 81265,81455,81135
 1.6000e+000 81835 -6.2720e+001 -2.4086e+002  6.9444e+001 58577 81610,81714,81636
 1.6000e+000 81812 -2.5263e+001 -2.5864e+002  7.0359e+001 58577 81610,81740,81714
 1.6000e+000 81789 -1.6671e+002 -2.8237e+002  3.1752e+001 58577 81636,81714,81688
 1.6000e+000 81766 -1.3891e+002 -2.4014e+002 -4.5641e+001 58577 81636,81688,81662
 1.6000e+000 81985 -1.3866e+002 -3.3926e+002  2.0732e+002 58030 81884,81936,81910
 1.6000e+000 81962 -2.8110e+002 -9.6605e+001  1.4361e+002 58030 81858,81936,81884
 1.6000e+000 82414 -1.1493e+002 -4.6878e+001  1.5368e+002 57690 82437,82169,82117
 1.6000e+000 82391 -1.5628e+002 -1.9327e+002  1.7822e+002 57690 82437,82117,82247
 1.6000e+000 82368  6.7869e+001  9.6221e+001  4.1522e+002 57690 82195,82247,82221
 1.6000e+000 82345 -1.2253e+002 -1.7879e+002  1.8038e+002 57690 82091,82247,82117
 1.6000e+000 82322 -2.0114e+002 -5.3437e+001  1.0331e+002 57690 82117,82169,82143
 1.6000e+000 82299 -1.3956e+002 -3.3578e+002  2.4992e+002 57690 82091,82273,82247
 1.6000e+000 82463 -1.7591e+002  1.0367e+001  2.2395e+002 57690 82195,82169,82437
 1.6000e+000 82486 -1.9418e+002 -9.1944e+001  2.2488e+002 57690 82195,82437,82247
 1.6000e+000 83041 -3.0738e+002 -3.3451e+002  2.2049e+002 57172 83064,82721,82695
 1.6000e+000 83018 -3.4252e+002 -3.4910e+002  3.2168e+002 57172 83064,82695,82851
 1.6000e+000 82995 -9.7201e+002 -4.5770e+002  4.3197e+002 57172 82669,82851,82695
 1.6000e+000 82972 -5.6428e+002 -3.9252e+002  2.9812e+002 57172 82773,82851,82825
 1.6000e+000 82949 -5.4036e+002 -4.3631e+002  4.3643e+002 57172 82773,82825,82799
 1.6000e+000 82926 -4.2143e+002 -2.6123e+002  1.8737e+002 57172 82721,82773,82747
 1.6000e+000 82903 -9.9689e+002 -3.6822e+002  5.3655e+002 57172 82669,82877,82851
 1.6000e+000 83090 -4.7273e+002 -3.9688e+002  2.0749e+002 57172 82773,82721,83064
 1.6000e+000 83113 -3.9747e+002 -3.6661e+002  3.0349e+002 57172 82773,83064,82851
 1.6000e+000 83747 -3.8245e+002 -3.4317e+002  2.3981e+002 56554 83770,83427,83401
 1.6000e+000 83724 -3.9139e+002 -4.6025e+002  2.9288e+002 56554 83842,83770,83401
 1.6000e+000 83701 -8.7558e+000 -3.6951e+002  1.0627e+002 56554 83842,83401,83583
 1.6000e+000 83678 -7.5726e+002 -6.7755e+002  5.8865e+002 56554 83914,83531,83505
 1.6000e+000 83655 -3.7163e+002 -3.5809e+002  1.2619e+002 56554 83531,83583,83557
 1.6000e+000 83632 -8.1540e+001 -1.4667e+002  9.2144e+001 56554 83375,83583,83401
 1.6000e+000 83609 -3.6918e+002 -3.3899e+002  2.4368e+002 56554 83427,83479,83453
 1.6000e+000 83796 -3.5808e+002 -3.3458e+002  2.4377e+002 56554 83479,83427,83770
 1.6000e+000 83819 -3.8260e+002 -2.9572e+002  2.5441e+002 56554 83479,83770,83505
 1.6000e+000 83868 -2.5218e+002 -1.9919e+002  3.4998e+002 56554 83505,83770,83842
 1.6000e+000 83891 -4.8311e+002 -3.9826e+002  4.3756e+002 56554 83914,83505,83842
 1.6000e+000 83940 -3.3642e+002 -6.8800e+002  3.1658e+002 56554 83583,83531,83914
 1.6000e+000 83963 -1.5965e+002 -6.4520e+002  2.4200e+002 56554 83583,83914,83842
 1.6000e+000 84341 -6.7240e+001 -7.1039e+002  2.2337e+002 56192 84067,84145,84119
 1.6000e+000 84318  8.0572e+001 -6.2880e+002  1.2502e+002 56192 84067,84223,84145
 1.6000e+000 84295 -1.5270e+002 -7.5142e+002 -5.3392e+001 56192 84145,84223,84197
 1.6000e+000 84272 -2.2390e+001 -9.4593e+002  2.5923e+002 56192 84067,84119,84093
 1.6000e+000 84249 -5.4464e+002 -1.5282e+002  1.1653e+002 56192 84145,84197,84171
 1.6000e+000 84611 -2.1241e+002 -5.5420e+002  3.9816e+002 55538 84386,84490,84412
 1.6000e+000 84588 -2.1833e+002 -4.6790e+002  3.8382e+002 55538 84386,84516,84490
 1.6000e+000 84565 -4.1200e+002 -6.3997e+002  3.9533e+002 55538 84412,84490,84464
 1.6000e+000 84542 -2.3387e+002 -5.7420e+002  2.7852e+002 55538 84412,84464,84438
 1.6000e+000 84942 -4.0654e+002 -3.4029e+002  3.0271e+002 55084 84769,84847,84795
 1.6000e+000 84919 -4.0367e+002 -3.9421e+002  2.4753e+002 55084 84717,84847,84769
 1.6000e+000 84896 -4.3928e+002 -4.8086e+002  2.4174e+002 55084 84717,84769,84743
 1.6000e+000 84873 -4.6888e+002 -1.8221e+002  2.5819e+002 55084 84795,84847,84821
 1.6000e+000 85271 -7.8443e+001 -1.3102e+002  2.0239e+002 54580 85294,85098,85072
 1.6000e+000 85248 -4.6616e+002 -2.7608e+002  2.9383e+002 54580 85294,85072,85176
 1.6000e+000 85225 -6.7076e+002 -1.3752e+001  9.6872e+001 54580 85124,85176,85150
 1.6000e+000 85202 -1.3143e+002 -2.3904e+002  9.4094e+001 54580 85046,85176,85072
 1.6000e+000 85320 -4.2502e+002 -1.4907e+002  2.5379e+002 54580 85124,85098,85294
 1.6000e+000 85343 -6.2820e+002 -1.4090e+002  3.1523e+002 54580 85124,85294,85176
 1.6000e+000 85542 -2.6424e+002 -4.4767e+002  2.6308e+002 53976 85565,85444,85418
 1.6000e+000 85519 -2.7852e+002 -3.6424e+002  2.3924e+002 53976 85565,85418,85366
 1.6000e+000 85496 -2.1126e+002 -3.0981e+002  1.3769e+002 53976 85366,85418,85392
 1.6000e+000 85591 -3.2278e+002 -4.1958e+002  1.8529e+002 53976 85470,85444,85565
 1.6000e+000 85614 -2.5054e+002 -1.8326e+002  1.8137e+002 53976 85470,85565,85366
 1.6000e+000 85960 -5.4236e+002 -5.1008e+002  3.4383e+002 53572 85663,85715,85689
 1.6000e+000 85937 -4.8928e+002 -4.7581e+002  2.4573e+002 53572 85983,85715,85663
 1.6000e+000 85914 -5.7284e+002 -5.9815e+002  2.9776e+002 53572 86055,85983,85663
 1.6000e+000 85891 -5.3191e+002 -5.9040e+002  3.9824e+002 53572 86055,85663,85637
 1.6000e+000 85868 -8.3233e+002 -1.2111e+003  5.0470e+002 53572 85637,85793,85767
 1.6000e+000 85845 -1.4706e+003 -4.1954e+002  3.3129e+002 53572 85637,85819,85793
 1.6000e+000 86009 -5.5185e+002 -4.1096e+002  2.5182e+002 53572 85741,85715,85983
 1.6000e+000 86032 -5.6507e+002 -4.1910e+002  2.5737e+002 53572 85741,85983,85767
 1.6000e+000 86081 -4.9153e+002 -3.7133e+002  2.8457e+002 53572 85767,85983,86055
 1.6000e+000 86104 -5.0627e+002 -4.7298e+002  3.7801e+002 53572 85767,86055,85637
 1.6000e+000 86693 -7.3802e+002 -1.7160e+002  4.1810e+002 52946 86474,86526,86500
 1.6000e+000 86670 -1.1146e+001 -3.5180e+001  9.8984e+001 52946 86396,86526,86474
 1.6000e+000 86647 -5.7813e+002 -3.1568e+002  2.6528e+002 52946 86370,86526,86396
 1.6000e+000 86624  1.3341e+000 -3.7365e-001 -5.8370e+000 52946 86422,86474,86448
 1.6000e+000 86601 -9.9984e+001 -1.4062e+001  3.4226e+001 52946 86396,86474,86422
 1.6000e+000 86578 -6.6112e+002 -2.0773e+002  1.6965e+002 52946 86370,86552,86526
 1.6000e+000 87376 -3.9684e+002 -3.7776e+002  1.6138e+002 52420 87007,87085,87033
 1.6000e+000 87353 -3.5792e+002 -3.6928e+002  1.6567e+002 52420 87007,87163,87085
 1.6000e+000 87330 -4.6460e+002 -3.5869e+002  1.9613e+002 52420 87007,87189,87163
 1.6000e+000 87307 -4.0031e+002 -3.3354e+002  2.0971e+002 52420 87033,87085,87059
 1.6000e+000 87284 -4.4455e+002 -3.8309e+002  5.3192e+001 52420 87085,87137,87111
 1.6000e+000 87261 -3.1040e+002 -3.7922e+002  5.9173e+001 52420 87085,87163,87137
 1.6000e+000 87238 -3.4711e+002 -4.6823e+002  3.9511e+002 52420 86955,87189,87007
 1.6000e+000 87215 -2.2887e+002 -3.0065e+002  2.3929e+002 52420 86955,87007,86981
 1.6000e+000 87624 -2.8569e+002 -3.7904e+002  1.9800e+002 51916 87451,87503,87477
 1.6000e+000 87601 -1.6971e+002 -5.4907e+002  2.4501e+002 51916 87425,87503,87451
 1.6000e+000 87578 -2.3420e+002 -5.8315e+002  2.3245e+002 51916 87425,87529,87503
 1.6000e+000 87555 -1.1726e+002 -2.9765e+002  2.5954e+002 51916 87399,87529,87425
 1.6000e+000 88053 -4.6749e+002 -4.0227e+002  1.5867e+002 51568 87782,87834,87808
 1.6000e+000 88030 -5.8125e+002 -3.6852e+002  2.7164e+002 51568 88076,87782,87886
 1.6000e+000 88007 -5.1825e+002 -2.2400e+002  2.3293e+002 51568 88076,87886,87860
 1.6000e+000 87984 -7.1076e+002 -5.3601e+002  2.1529e+002 51568 87756,87886,87782
 1.6000e+000 87961 -5.2495e+002 -4.1438e+002  4.3449e+002 51568 87756,87912,87886
 1.6000e+000 87938 -6.0716e+002 -2.7444e+002  4.0411e+002 51568 87730,87912,87756
 1.6000e+000 88102 -4.9714e+002 -4.4055e+002  1.7677e+002 51568 87834,87782,88076
 1.6000e+000 88125 -4.4344e+002 -3.4475e+002  1.4264e+002 51568 87834,88076,87860
 1.6000e+000 88324 -3.8160e+002 -4.8949e+002  1.5161e+002 51164 88419,88347,88200
 1.6000e+000 88301 -3.0452e+002 -4.7613e+002  2.3879e+002 51164 88347,88148,88252
 1.6000e+000 88278 -4.7024e+002 -8.1051e+002  1.7337e+002 51164 88419,88200,88174
 1.6000e+000 88373 -2.7941e+002 -4.0423e+002  1.8870e+002 51164 88226,88200,88347
 1.6000e+000 88396 -4.3939e+001 -4.9111e+002  1.8932e+002 51164 88226,88347,88252
 1.6000e+000 88445 -4.8557e+002 -5.5263e+002  3.4002e+002 51164 88148,88347,88419
 1.6000e+000 88468 -4.7020e+002 -5.3081e+002  3.7570e+002 51164 88148,88419,88174
 1.6000e+000 88738 -4.0441e+002 -5.8805e+002  1.4534e+002 50560 88513,88617,88539
 1.6000e+000 88715 -2.8724e+002 -6.7397e+002  1.0110e+002 50560 88513,88643,88617
 1.6000e+000 88692 -2.0041e+002 -1.5773e+002  1.7609e+002 50560 88539,88591,88565
 1.6000e+000 88669 -1.6741e+002 -4.0909e+002  2.2402e+002 50560 88539,88617,88591
 1.6000e+000 88939 -5.0338e+002 -2.1799e+002  2.6873e+002 50106 88962,88789,88763
 1.6000e+000 88916 -3.3486e+002 -2.4651e+002  2.0386e+002 50106 88962,88763,88841
 1.6000e+000 88893 -4.9895e+002 -3.4714e+002  3.0940e+002 50106 88763,88867,88841
 1.6000e+000 88988 -3.4283e+002 -2.8481e+002  1.6592e+002 50106 88815,88789,88962
 1.6000e+000 89011 -2.5633e+002 -2.1104e+002  2.2086e+002 50106 89034,88962,88841
 1.6000e+000 89060 -1.6261e+002 -7.5187e+001  5.0450e+001 50106 88815,88962,89034
 1.6000e+000 89472 -2.6989e+002 -6.6741e+002  9.2226e+001 49666 89273,89351,89325
 1.6000e+000 89449 -3.8640e+002 -3.8886e+002  1.9856e+002 49666 89273,89377,89351
 1.6000e+000 89426 -3.4206e+002 -5.4253e+002  3.8064e+002 49666 89273,89325,89299
 1.6000e+000 89403 -3.9041e+002 -3.2274e+002  2.1949e+002 49666 89247,89377,89273
 1.6000e+000 89978 -3.1249e+002 -5.7307e+002 -1.5876e+001 49205 89681,89837,89733
 1.6000e+000 89955 -6.3344e+001 -3.0755e+002  1.3310e+002 49205 89655,89837,89681
 1.6000e+000 89932 -5.1161e+002 -6.7456e+002  2.8184e+002 49205 89785,89837,89811
 1.6000e+000 89909 -1.0952e+002 -3.7522e+002  1.1147e+002 49205 89733,89837,89785
 1.6000e+000 89886 -4.6115e+002 -4.9895e+002  2.3489e+002 49205 89733,89785,89759
 1.6000e+000 89863 -1.4144e+002 -2.3835e+002 -1.5629e+002 49205 89681,89733,89707
 1.6000e+000 90177 -3.0218e+002 -3.3058e+002  1.6644e+002 48865 90530,90200,90053
 1.6000e+000 90154 -2.7188e+002 -4.3153e+002  2.1958e+002 48865 90402,90200,90001
 1.6000e+000 90131 -3.7998e+002 -2.0551e+002  1.7132e+002 48865 90530,90053,90027
 1.6000e+000 90226 -3.5351e+002 -3.5270e+002  2.6564e+002 48865 90079,90053,90200
 1.6000e+000 90249 -3.2573e+002 -3.5563e+002  1.9711e+002 48865 90272,90200,90105
 1.6000e+000 90298 -2.2547e+002 -2.7780e+002  2.3194e+002 48865 90079,90200,90272
 1.6000e+000 90428 -2.3742e+002 -1.4321e+002  1.9096e+002 48865 90105,90200,90402
 1.6000e+000 90556 -3.5059e+002 -4.9598e+002  1.4161e+002 48865 90001,90200,90530
 1.6000e+000 90579 -4.1933e+002 -3.3055e+002  1.1408e+002 48865 90001,90530,90027
 1.6000e+000 90827 -3.8132e+002 -3.8924e+002  1.8857e+002 48404 90850,90654,90628
 1.6000e+000 90804 -3.9404e+002 -4.4864e+002  3.0484e+002 48404 90850,90628,90732
 1.6000e+000 90781 -2.8673e+002 -2.9170e+002  1.8064e+002 48404 90680,90732,90706
 1.6000e+000 90758 -5.3348e+002 -2.5297e+002  3.1618e+002 48404 90602,90732,90628
 1.6000e+000 90876 -3.7587e+002 -2.1461e+002  1.6240e+002 48404 90680,90654,90850
 1.6000e+000 90899 -3.9206e+002 -3.5027e+002  2.5258e+002 48404 90680,90850,90732
 1.6000e+000 91000 -2.0963e+002 -5.3664e+002  3.5862e+002 48156 90922,90974,90948
 1.6000e+000 91250 -2.0983e+002 -5.2126e+002  2.9357e+002 47752 91051,91103,91077
 1.6000e+000 91227 -1.4755e+002 -1.5291e+002  1.8669e+002 47752 91025,91103,91051
 1.6000e+000 91204 -5.8065e+002 -4.4042e+002  4.6617e+002 47752 91025,91155,91103
 1.6000e+000 91181 -6.4518e+002 -2.3607e+002  2.9986e+002 47752 91103,91155,91129
 1.6000e+000 91402 -3.4632e+002 -3.3547e+002  2.5371e+002 47191 91425,91301,91275
 1.6000e+000 91379 -2.8149e+002 -3.1119e+002  2.8792e+002 47191 91497,91425,91275
 1.6000e+000 91451 -3.5665e+002 -1.4803e+002  1.5729e+002 47191 91327,91301,91425
 1.6000e+000 91474 -4.0568e+002 -3.7044e+002  3.2039e+002 47191 91327,91425,91353
 1.6000e+000 91523 -4.0609e+002 -7.4007e+002  3.0794e+002 47191 91353,91425,91497
 1.6000e+000 91854 -2.8457e+002 -2.8811e+002  1.2350e+002 46744 91949,91877,91707
 1.6000e+000 91831 -3.0340e+002 -3.6631e+002  1.5118e+002 46744 91877,91655,91629
 1.6000e+000 91808 -2.8548e+002 -2.8159e+002  1.1970e+002 46744 91949,91707,91681
 1.6000e+000 91785 -5.8418e+002 -2.7385e+002 -3.7513e+001 46744 91629,91759,91733
 1.6000e+000 91903 -3.4231e+002 -3.3798e+002  1.4738e+002 46744 91733,91707,91877
 1.6000e+000 91926 -2.8072e+002 -3.3817e+002  1.4096e+002 46744 91733,91877,91629
 1.6000e+000 91975 -2.6963e+002 -3.5227e+002  1.4952e+002 46744 91655,91877,91949
 1.6000e+000 91998 -2.2651e+002 -3.1517e+002  1.3231e+002 46744 91655,91949,91681
 1.6000e+000 92378 -3.0790e+002 -1.4113e+002  1.9369e+002 46090 92130,92208,92182
 1.6000e+000 92355 -4.1542e+002 -1.8680e+002  2.0067e+002 46090 92104,92208,92130
 1.6000e+000 92332 -2.0494e+002 -3.5087e+002  1.8792e+002 46090 92104,92260,92208
 1.6000e+000 92309 -1.7829e+002 -1.4018e+002  1.5443e+002 46090 92208,92260,92234
 1.6000e+000 92286 -5.3241e+002 -1.8614e+002  2.2722e+002 46090 92130,92182,92156
 1.6000e+000 92626 -3.0635e+002 -3.9650e+002  1.5920e+002 45693 92721,92649,92505
 1.6000e+000 92603 -3.4698e+002 -4.0783e+002  3.1650e+002 45693 92649,92453,92427
 1.6000e+000 92580 -3.2575e+002 -3.3554e+002  1.5623e+002 45693 92721,92505,92479
 1.6000e+000 92557 -6.0631e+002 -5.4618e+002  3.9348e+002 45693 92401,92531,92427
 1.6000e+000 92675 -4.8972e+002 -3.8260e+002  2.0852e+002 45693 92531,92505,92649
 1.6000e+000 92698 -5.4255e+002 -4.8821e+002  4.1764e+002 45693 92531,92649,92427
 1.6000e+000 92747 -3.3250e+002 -3.2261e+002  1.6518e+002 45693 92453,92649,92721
 1.6000e+000 92770 -2.4518e+002 -1.2282e+002  2.0153e+002 45693 92453,92721,92479
 1.6000e+000 93172 -2.2748e+002 -3.9069e+002  3.4118e+002 45331 92898,93028,92924
 1.6000e+000 93149 -1.5606e+002 -3.8369e+002  2.3076e+002 45331 92898,93054,93028
 1.6000e+000 93126 -3.1877e+002 -2.6037e+002  3.8752e+002 45331 92924,93002,92976
 1.6000e+000 93103 -1.3282e+002 -3.5137e+002  3.3646e+002 45331 92924,93028,93002
 1.6000e+000 93080 -3.4530e+002 -4.0697e+002  3.9708e+002 45331 92924,92976,92950
 1.6000e+000 93518 -3.8138e+002 -5.9092e+002  3.2769e+002 44820 93613,93273,93247
 1.6000e+000 93495 -4.9612e+002 -4.8552e+002  2.5992e+002 44820 93685,93541,93247
 1.6000e+000 93472 -4.8970e+002 -3.2670e+002  2.0437e+002 44820 93541,93195,93377
 1.6000e+000 93449 -5.4592e+002 -4.2139e+002  2.0675e+002 44820 93685,93247,93221
 1.6000e+000 93426 -4.0342e+002 -4.8916e+002  2.6564e+002 44820 93299,93377,93351
 1.6000e+000 93403 -3.0164e+002 -3.3120e+002  3.1925e+002 44820 93299,93351,93325
 1.6000e+000 93567 -4.0530e+002 -6.3773e+002  2.0329e+002 44820 93613,93247,93541
 1.6000e+000 93590 -4.1395e+002 -4.8522e+002  1.3733e+002 44820 93299,93541,93377
 1.6000e+000 93639 -4.0650e+002 -7.1850e+002  2.3207e+002 44820 93299,93273,93613
 1.6000e+000 93662 -4.3027e+002 -7.0913e+002  2.0202e+002 44820 93299,93613,93541
 1.6000e+000 93711 -4.7920e+002 -3.5625e+002  1.8128e+002 44820 93195,93541,93685
 1.6000e+000 93734 -4.3105e+002 -1.3534e+002  1.2851e+002 44820 93195,93685,93221
 1.6000e+000 94163 -4.7262e+002 -5.4680e+002  2.0977e+002 44237 94258,94186,93996
 1.6000e+000 94140 -5.5348e+002 -6.0031e+002  1.4076e+002 44237 94330,94022,93996
 1.6000e+000 94117 -5.6765e+002 -5.9652e+002  1.5921e+002 44237 94186,93918,93866
 1.6000e+000 94094 -4.0771e+002 -4.4732e+002  2.4759e+002 44237 94258,93996,93970
 1.6000e+000 94071 -5.1389e+002 -3.6721e+002  2.2580e+002 44237 94402,93944,93918
 1.6000e+000 94048 -3.2637e+002 -5.7044e+002  2.0219e+002 44237 93866,93918,93892
 1.6000e+000 94212 -5.5231e+002 -6.0858e+002  1.8174e+002 44237 94330,93996,94186
 1.6000e+000 94235 -5.4324e+002 -5.2829e+002  2.0066e+002 44237 93840,94186,93866
 1.6000e+000 94284 -5.0552e+002 -4.5167e+002  1.5471e+002 44237 93918,94186,94258
 1.6000e+000 94307 -4.6879e+002 -3.8620e+002  1.7516e+002 44237 94402,93918,94258
 1.6000e+000 94356 -5.4281e+002 -2.2580e+002  1.8492e+001 44237 93840,94022,94330
 1.6000e+000 94379 -5.2186e+002 -5.3221e+002  1.9206e+002 44237 93840,94330,94186
 1.6000e+000 94428 -6.1422e+002 -4.5762e+002  2.6596e+002 44237 93970,93944,94402
 1.6000e+000 94451 -5.3803e+002 -4.6067e+002  2.1026e+002 44237 93970,94402,94258
 1.6000e+000 94908 -3.6178e+002 -3.7024e+002  8.4672e+001 43890 94660,94790,94712
 1.6000e+000 94885 -1.9108e+002 -1.7229e+002  1.6009e+002 43890 94634,94790,94660
 1.6000e+000 94862 -3.4184e+002 -1.4338e+002  1.7721e+002 43890 94712,94764,94738
 1.6000e+000 94839 -3.1398e+002 -3.0904e+002  1.6468e+002 43890 94712,94790,94764
 1.6000e+000 94816 -4.3656e+002 -2.3206e+002 -6.7077e+001 43890 94660,94712,94686
 1.6000e+000 95414 -3.3053e+002 -2.5658e+002  1.6388e+002 43186 95437,95143,95117
 1.6000e+000 95391 -3.7016e+002 -5.0293e+002  2.0157e+002 43186 95437,95117,95091
 1.6000e+000 95368 -1.4538e+002 -2.0483e+002  1.9468e+002 43186 95143,95221,95195
 1.6000e+000 95345 -5.9931e+002 -4.4136e+002  4.9908e+002 43186 95091,95273,95221
 1.6000e+000 95322 -3.5768e+002 -2.3652e+002  2.3764e+002 43186 95221,95273,95247
 1.6000e+000 95299 -2.4611e+002 -3.1663e+002  1.2640e+002 43186 95143,95195,95169
 1.6000e+000 95463 -3.2221e+002 -4.2458e+002  2.8051e+002 43186 95221,95143,95437
 1.6000e+000 95486 -3.3520e+002 -6.2081e+002  3.2602e+002 43186 95221,95437,95091
 1.6000e+000 96041 -5.8516e+002 -5.5789e+002  1.6054e+002 42782 95695,95851,95799
 1.6000e+000 96018 -5.3491e+002 -6.8951e+002  1.5899e+002 42782 95669,95851,95695
 1.6000e+000 95995 -5.2967e+002 -3.2860e+002  1.7026e+002 42782 95695,95747,95721
 1.6000e+000 95972 -4.1942e+002 -4.8596e+002  1.5175e+002 42782 95695,95799,95747
 1.6000e+000 95949 -3.7125e+002 -2.9195e+002  1.0719e+002 42782 95747,95799,95773
 1.6000e+000 95926 -6.9124e+002 -6.8584e+002  2.2569e+002 42782 95799,95851,95825
 1.6000e+000 95903 -7.5404e+002 -8.0377e+002  2.0449e+002 42782 95669,95877,95851
 1.6000e+000 96370 -5.6775e+002 -7.6117e+002  3.2859e+002 42420 96197,96275,96223
 1.6000e+000 96347 -5.2864e+002 -6.5088e+002  3.3010e+002 42420 96145,96275,96197
 1.6000e+000 96324 -5.2328e+002 -4.8730e+002  3.2674e+002 42420 96145,96197,96171
 1.6000e+000 96301 -4.1208e+002 -5.6152e+002  2.2268e+002 42420 96223,96275,96249
 1.6000e+000 96699 -2.3123e+002 -2.8997e+002  3.9870e+001 41816 96474,96578,96526
 1.6000e+000 96676 -3.1605e+002 -2.3284e+002 -5.2973e+001 41816 96474,96604,96578
 1.6000e+000 96653 -2.0006e+002 -2.6252e+002  5.1593e+001 41816 96526,96578,96552
 1.6000e+000 96630 -2.4580e+002 -3.2128e+002  4.3663e+001 41816 96474,96526,96500
 1.6000e+000 96947 -1.9668e+002 -4.6812e+002  1.5880e+002 41212 96722,96800,96748
 1.6000e+000 96924 -2.9600e+002 -3.7682e+002  2.0697e+002 41212 96722,96826,96800
 1.6000e+000 96901 -3.9850e+002 -4.1836e+002  2.1313e+002 41212 96722,96852,96826
 1.6000e+000 96878 -3.1576e+002 -5.2868e+002  1.1628e+002 41212 96748,96800,96774
 1.6000e+000 97097 -2.7084e+002 -1.0852e+002  2.6361e+002 40793 97120,97022,96996
 1.6000e+000 97074 -5.1165e+002 -6.0020e+002  1.6504e+002 40793 97192,97120,96996
 1.6000e+000 97146 -2.0473e+002 -4.9807e+002  2.3511e+002 40793 97324,97120,97048
 1.6000e+000 97169 -1.7741e+002 -7.9808e+002  2.2588e+002 40793 97048,97120,96970
 1.6000e+000 97218 -7.7906e+001 -4.1545e+002  1.6871e+002 40793 96970,97120,97192
 1.6000e+000 97350 -2.0473e+002 -4.9807e+002  2.3511e+002 40793 97022,97120,97324
 1.6000e+000 97878 -3.0522e+002 -6.2445e+002  1.3646e+002 40446 97901,97607,97555
 1.6000e+000 97855 -3.0208e+002 -4.3471e+002  1.4281e+002 40446 97973,97901,97555
 1.6000e+000 97832 -2.1265e+002 -3.6503e+002  1.0805e+002 40446 97973,97555,97737
 1.6000e+000 97809 -4.9614e+002 -6.9752e+002  2.2517e+002 40446 97633,97685,97659
 1.6000e+000 97786 -3.5335e+002 -5.1848e+002  1.3460e+002 40446 97633,97711,97685
 1.6000e+000 97763 -3.0557e+002 -7.3799e+002  1.6381e+002 40446 97555,97607,97581
 1.6000e+000 97927 -3.4899e+002 -7.7817e+002 -2.8637e+001 40446 97633,97607,97901
 1.6000e+000 97950 -2.9640e+002 -6.0006e+002  1.1283e+002 40446 97633,97901,97711
 1.6000e+000 97999 -1.6869e+002 -5.7965e+002  1.8681e+002 40446 97711,97901,97973
 1.6000e+000 98022 -9.2808e+001 -4.9622e+002  1.5461e+002 40446 97711,97973,97737
 1.6000e+000 98449 -2.3210e+002 -1.3747e+002  1.6055e+002 39935 98152,98204,98178
 1.6000e+000 98426 -3.5742e+002 -2.6610e+002  1.0527e+002 39935 98152,98230,98204
 1.6000e+000 98403 -5.0338e+002 -2.9357e+002  2.4783e+002 39935 98152,98256,98230
 1.6000e+000 98380 -3.6315e+002 -3.2880e+002  2.5247e+002 39935 98126,98256,98152
 1.6000e+000 98357 -5.1738e+002 -6.9862e+002  2.7919e+002 39935 98126,98282,98256
 1.6000e+000 98334 -2.7497e+002 -8.2483e+002  3.1001e+002 39935 98126,98308,98282
 1.6000e+000 98746 -8.4453e+002 -5.9359e+002  2.2222e+002 39531 98498,98602,98524
 1.6000e+000 98723 -5.4110e+002 -5.5250e+002  1.9163e+002 39531 98472,98602,98498
 1.6000e+000 98700 -8.6217e+002 -4.3198e+002  1.7002e+002 39531 98524,98602,98576
 1.6000e+000 98677 -4.1870e+002 -5.4356e+002  1.9230e+002 39531 98472,98628,98602
 1.6000e+000 98654 -2.0143e+003 -5.7247e+002  2.3918e+002 39531 98524,98576,98550
 1.6000e+000 99224 -8.3679e+002 -4.0671e+002  6.5434e+002 39027 99247,98956,98930
 1.6000e+000 99201 -7.3242e+002 -3.2023e+002  2.9244e+002 39027 99247,98930,98878
 1.6000e+000 99178 -5.8985e+002 -4.4224e+002  3.5635e+002 39027 99319,98982,98956
 1.6000e+000 99155 -6.3825e+002 -3.1347e+002  2.0270e+002 39027 98852,99060,98878
 1.6000e+000 99132 -8.9152e+002 -3.4723e+002  3.0053e+002 39027 98878,98930,98904
 1.6000e+000 99109 -5.2975e+002 -9.1180e+002  4.5801e+002 39027 98982,99060,99034
 1.6000e+000 99086 -6.7330e+002 -1.1042e+003  6.8411e+002 39027 98982,99034,99008
 1.6000e+000 99273 -4.9810e+002 -2.8720e+002  4.1164e+002 39027 99319,98956,99247
 1.6000e+000 99296 -5.8138e+002 -2.6384e+002  2.2378e+002 39027 99060,99247,98878
 1.6000e+000 99345 -5.9995e+002 -5.1503e+002  2.7505e+002 39027 99060,98982,99319
 1.6000e+000 99368 -6.0986e+002 -4.7962e+002  3.1225e+002 39027 99060,99319,99247
 1.6000e+000 99923 -6.0333e+002 -4.9972e+002  2.5525e+002 38523 99946,99655,99603
 1.6000e+000 99900 -4.8404e+002 -4.4659e+002  2.6496e+002 38523 99946,99603,99759
 1.6000e+000 99877 -3.0790e+002 -6.2877e+002  3.2489e+002 38523 100018,99707,99681
 1.6000e+000 99854 -5.2042e+002 -3.1268e+002  2.5042e+002 38523 99551,99759,99603
 1.6000e+000 99831 -5.5130e+002 -3.4069e+002  2.7612e+002 38523 99551,99603,99577
 1.6000e+000 99808 -5.3320e+002 -7.4407e+002  1.9995e+002 38523 99707,99759,99733
 1.6000e+000 99785 -4.7860e+002 -4.2778e+002  2.1841e+002 38523 99603,99655,99629
 1.6000e+000 99972 -4.8891e+002 -2.7639e+002  3.0808e+002 38523 99681,99655,99946
 1.6000e+000 99995 -3.6658e+002 -3.6594e+002  3.8166e+002 38523 100018,99681,99946
 1.6000e+000 100044 -4.1416e+002 -7.3903e+002  2.0466e+002 38523 99759,99707,100018
 1.6000e+000 100067 -5.6236e+002 -6.3491e+002  2.6329e+002 38523 99759,100018,99946
 1.6000e+000 100467 -1.6141e+002 -1.8369e+002  1.0782e+002 38125 100219,100349,100323
 1.6000e+000 100444 -2.6961e+001 -7.4379e+001  1.8064e+002 38125 100193,100349,100219
 1.6000e+000 100421 -5.6530e+001 -2.7761e+002  1.0569e+002 38125 100245,100323,100297
 1.6000e+000 100398 -5.6804e+001 -1.3755e+002  1.1787e+002 38125 100219,100323,100245
 1.6000e+000 100375 -1.5472e+002 -2.9091e+002  1.6722e+002 38125 100245,100297,100271
 1.6000e+000 100666 -4.9458e+002 -7.0756e+002  2.1308e+002 37607 100689,100568,100542
 1.6000e+000 100643 -3.9679e+002 -4.2645e+002  1.9994e+002 37607 100689,100542,100490
 1.6000e+000 100620 -3.2178e+002 -2.8956e+002  1.6903e+002 37607 100490,100542,100516
 1.6000e+000 100715 -4.1557e+002 -4.3377e+002  1.6674e+002 37607 100594,100568,100689
 1.6000e+000 100738 -4.6128e+002 -3.5581e+002  1.7394e+002 37607 100594,100689,100490
 1.6000e+000 100937 -3.8458e+002 -2.4231e+002  3.5047e+002 37017 100960,100813,100787
 1.6000e+000 100914 -3.3292e+002 -2.6778e+002  2.0039e+002 37017 100960,100787,100761
 1.6000e+000 100891 -5.8835e+002 -2.0559e+002  3.4796e+002 37017 100813,100865,100839
 1.6000e+000 100986 -4.9002e+002 -4.1138e+002  4.0500e+002 37017 100865,100813,100960
 1.6000e+000 101009 -3.8620e+002 -3.8009e+002  2.4244e+002 37017 100865,100960,100761
 1.6000e+000 101519 -5.2367e+002 -2.4493e+002  1.3030e+002 36613 101222,101274,101248
 1.6000e+000 101496 -1.8814e+002 -1.4411e+002  1.2074e+002 36613 101222,101352,101274
 1.6000e+000 101473 -1.4532e+002 -2.2643e+002  4.3281e+001 36613 101274,101352,101326
 1.6000e+000 101450 -3.1569e+002 -1.2120e+002  1.3177e+002 36613 101222,101378,101352
 1.6000e+000 101427 -1.5113e+002 -4.0244e+002  5.2181e+001 36613 101274,101326,101300
 1.6000e+000 101404 -3.3708e+002 -1.3310e+002  7.6937e+001 36613 101196,101378,101222
 1.6000e+000 101718 -4.1003e+002 -3.1060e+002  3.5640e+002 36308 101594,101646,101620
 1.6000e+000 101695 -4.0534e+002 -2.2575e+002  2.9739e+002 36308 101568,101646,101594
 1.6000e+000 101672 -3.2349e+002 -2.9500e+002  3.0239e+002 36308 101542,101646,101568
 1.6000e+000 102098 -4.5860e+002 -3.4748e+002  2.1555e+002 35918 102121,101954,101876
 1.6000e+000 102075 -3.8506e+002 -4.2472e+002  1.7881e+002 35918 102121,101876,101824
 1.6000e+000 102052 -4.6260e+002 -3.5029e+002  1.8228e+002 35918 101876,101954,101928
 1.6000e+000 102029 -6.1624e+002 -1.3832e+002  2.0066e+002 35918 101876,101928,101902
 1.6000e+000 102006 -3.5216e+002 -3.4512e+002  1.7605e+002 35918 101824,101876,101850
 1.6000e+000 102147 -4.8335e+002 -4.1945e+002  2.5046e+002 35918 101980,101954,102121
 1.6000e+000 102170 -4.1051e+002 -5.0356e+002  2.0602e+002 35918 101980,102121,101824
 1.6000e+000 102489 -4.6265e+002 -1.0818e+003  3.3374e+002 35514 102241,102345,102267
 1.6000e+000 102466 -6.2704e+002 -1.1426e+003  3.4456e+002 35514 102215,102345,102241
 1.6000e+000 102443 -5.0477e+002 -1.2262e+003  3.5724e+002 35514 102215,102371,102345
 1.6000e+000 102420 -3.8470e+002 -9.2427e+002  3.7996e+002 35514 102267,102345,102293
 1.6000e+000 102397 -2.3343e+002 -6.1411e+002  4.3232e+002 35514 102293,102345,102319
 1.6000e+000 102820 -8.0515e+002 -4.8138e+002  1.0693e+002 35224 102843,102699,102647
 1.6000e+000 102797 -6.9251e+002 -5.6287e+002  2.3110e+002 35224 102971,102725,102699
 1.6000e+000 102774 -1.0332e+003 -6.8326e+002  5.4251e+002 35224 102595,102725,102621
 1.6000e+000 102751 -3.0922e+002 -2.3167e+002  2.4320e+002 35224 102647,102699,102673
 1.6000e+000 102869 -6.8487e+002 -4.3399e+002  1.8730e+002 35224 102971,102699,102843
 1.6000e+000 102997 -6.2950e+002 -6.6866e+002  2.0518e+002 35224 102621,102725,102971
 1.6000e+000 103020 -6.5843e+002 -5.8828e+002  1.4827e+002 35224 102621,102971,102843
 1.6000e+000 103349 -6.2793e+002 -4.6690e+002  2.8709e+002 34820 103150,103228,103176
 1.6000e+000 103326 -5.2439e+002 -5.0907e+002  2.8346e+002 34820 103124,103228,103150
 1.6000e+000 103303 -4.9733e+002 -5.1439e+002  5.0337e+002 34820 103176,103228,103202
 1.6000e+000 103280 -3.3368e+002 -4.2571e+002  3.0950e+002 34820 103124,103254,103228
 1.6000e+000 103806 -4.9744e+002 -4.0165e+002  1.6018e+002 34530 103558,103662,103636
 1.6000e+000 103783 -5.0974e+002 -4.2176e+002  1.3856e+002 34530 103558,103688,103662
 1.6000e+000 103760 -5.6587e+002 -6.0451e+002  1.5528e+002 34530 103532,103688,103558
 1.6000e+000 103737 -3.0153e+002 -4.6847e+002  1.6406e+002 34530 103584,103636,103610
 1.6000e+000 103714 -8.2374e+002 -4.9253e+002  1.9174e+002 34530 103558,103636,103584
 1.6000e+000 104263 -2.9150e+002 -3.7043e+002  2.3411e+002 34019 103989,104119,104015
 1.6000e+000 104240 -2.4595e+002 -3.4431e+002  2.6361e+002 34019 103989,104145,104119
 1.6000e+000 104217 -2.9416e+002 -4.0626e+002  1.3430e+002 34019 104015,104067,104041
 1.6000e+000 104194 -3.5298e+002 -4.4784e+002  2.0647e+002 34019 104015,104119,104067
 1.6000e+000 104171 -3.2393e+002 -2.8666e+002  1.8678e+002 34019 104067,104119,104093
 1.6000e+000 104641 -4.6575e+002 -2.7610e+002  1.8588e+002 33351 104419,104497,104445
 1.6000e+000 104618 -3.5703e+002 -2.0392e+002  2.1819e+002 33351 104393,104497,104419
 1.6000e+000 104595 -6.7436e+002 -3.4841e+002  1.6472e+002 33351 104367,104497,104393
 1.6000e+000 104572 -5.2084e+002 -4.1031e+002  2.3205e+002 33351 104445,104497,104471
 1.6000e+000 104549 -4.6188e+002 -2.7778e+002  2.6706e+001 33351 104367,104523,104497
 1.6000e+000 105019 -4.1317e+002 -8.6935e+002  4.3383e+002 32861 104823,104901,104875
 1.6000e+000 104996 -5.8149e+002 -1.0187e+003  3.5841e+002 32861 104745,104901,104823
 1.6000e+000 104973 -6.0130e+002 -9.5068e+002  3.8660e+002 32861 104823,104875,104849
 1.6000e+000 104950 -5.8767e+002 -1.0100e+003  4.9456e+002 32861 104745,104823,104797
 1.6000e+000 104927 -6.8414e+002 -3.9121e+002  5.1513e+002 32861 104745,104797,104771
 1.6000e+000 105397 -3.0234e+002 -6.1423e+002  2.6449e+002 32457 105149,105253,105175
 1.6000e+000 105374 -4.4156e+002 -5.1589e+002  2.1699e+002 32457 105149,105279,105253
 1.6000e+000 105351 -3.7234e+002 -4.3003e+002  2.6137e+002 32457 105123,105279,105149
 1.6000e+000 105328 -3.6499e+002 -1.0894e+002  2.7270e+002 32457 105175,105227,105201
 1.6000e+000 105305 -5.7982e+002 -7.3321e+002  2.6316e+002 32457 105175,105253,105227
 1.6000e+000 105726 -1.9928e+002 -6.1272e+002  2.6940e+002 32003 105527,105605,105553
 1.6000e+000 105703 -3.2930e+002 -5.3100e+002  2.5691e+002 32003 105501,105605,105527
 1.6000e+000 105680 -1.6800e+002 -4.6714e+002  2.5401e+002 32003 105501,105631,105605
 1.6000e+000 105657 -7.6788e+001 -3.5561e+002  2.3226e+002 32003 105553,105605,105579
 1.6000e+000 106104 -4.4016e+002 -5.5830e+002  1.7700e+002 31492 106127,105908,105856
 1.6000e+000 106081 -3.3608e+002 -5.0373e+002  1.1568e+002 31492 106127,105856,105830
 1.6000e+000 106058 -3.1978e+002 -7.7161e+002  2.1003e+002 31492 105856,105908,105882
 1.6000e+000 106035 -1.1272e+002 -3.7132e+002  8.8038e+001 31492 105830,105986,105960
 1.6000e+000 106012 -1.9351e+002 -6.7397e+002  3.4962e+002 31492 105908,105960,105934
 1.6000e+000 106153 -4.8137e+002 -5.7614e+002  2.2937e+002 31492 105960,105908,106127
 1.6000e+000 106176 -4.2855e+002 -5.7689e+002  1.7678e+002 31492 105960,106127,105830
 1.6000e+000 106375 -4.5803e+002 -5.1321e+002  3.2366e+002 30788 106398,106277,106251
 1.6000e+000 106352 -5.1252e+002 -6.5990e+002  3.1073e+002 30788 106398,106251,106225
 1.6000e+000 106329 -6.9610e+002 -5.0554e+002  4.5221e+002 30788 106600,106199,106303
 1.6000e+000 106424 -6.1104e+002 -7.4500e+002  2.3250e+002 30788 106470,106398,106303
 1.6000e+000 106447 -4.7866e+002 -5.9896e+002  2.9612e+002 30788 106600,106303,106398
 1.6000e+000 106496 -1.7313e+002 -5.5893e+002  2.5820e+002 30788 106277,106398,106470
 1.6000e+000 106626 -8.3337e+002 -6.9563e+002  5.5854e+002 30788 106225,106199,106600
 1.6000e+000 106649 -6.7904e+002 -7.9527e+002  4.0049e+002 30788 106225,106600,106398
 1.6000e+000 106799 -1.8868e+002 -8.7894e+002  1.6620e+001 30426 106698,106750,106724
 1.6000e+000 106776 -2.1527e+002 -5.0248e+002  2.9553e+001 30426 106672,106750,106698
 1.6000e+000 107356 -5.2762e+002 -4.3330e+002  1.9248e+002 29972 107010,107166,107114
 1.6000e+000 107333 -5.2692e+002 -4.1138e+002  2.2119e+002 29972 106984,107166,107010
 1.6000e+000 107310 -5.2925e+002 -2.6089e+002  1.2064e+002 29972 107010,107114,107088
 1.6000e+000 107287 -4.7136e+002 -1.8119e+002  1.5452e+002 29972 107114,107166,107140
 1.6000e+000 107264 -5.4324e+002 -5.0505e+002  2.7348e+002 29972 106984,107192,107166
 1.6000e+000 107241 -6.2648e+002 -4.3879e+002  1.5824e+002 29972 107010,107088,107036
 1.6000e+000 107218 -4.1875e+002 -3.3844e+002  1.0295e+002 29972 107036,107088,107062
 1.6000e+000 107783 -5.6784e+002 -7.7309e+002  3.6976e+002 29724 107878,107806,107590
 1.6000e+000 107760 -7.0920e+002 -8.1281e+002  3.1118e+002 29724 107806,107512,107486
 1.6000e+000 107737 -5.8399e+002 -7.3558e+002  4.2294e+002 29724 107878,107590,107538
 1.6000e+000 107714 -5.5639e+002 -8.5234e+002  4.0153e+002 29724 107950,107460,107616
 1.6000e+000 107691 -5.1221e+002 -8.2341e+002  3.7294e+002 29724 107460,107642,107616
 1.6000e+000 107668 -3.9838e+002 -5.9113e+002  4.8617e+002 29724 107538,107590,107564
 1.6000e+000 107832 -3.9336e+002 -7.6447e+002  4.3339e+002 29724 107616,107590,107806
 1.6000e+000 107855 -5.6452e+002 -8.5979e+002  3.8590e+002 29724 107950,107616,107806
 1.6000e+000 107904 -5.4099e+002 -6.9005e+002  3.7877e+002 29724 107512,107806,107878
 1.6000e+000 107927 -5.2774e+002 -6.2415e+002  4.4435e+002 29724 107512,107878,107538
 1.6000e+000 107976 -3.2555e+002 -8.6397e+002  4.4565e+002 29724 107486,107460,107950
 1.6000e+000 107999 -5.3709e+002 -9.2124e+002  3.7271e+002 29724 107486,107950,107806
 1.6000e+000 108296 -5.9365e+002 -4.9662e+002  3.1876e+002 29206 108319,108100,108048
 1.6000e+000 108273 -3.5100e+002 -4.4511e+002  3.7593e+002 29206 108319,108048,108022
 1.6000e+000 108250 -1.9510e+002 -5.3105e+002  4.5280e+002 29206 108391,108152,108126
 1.6000e+000 108227 -7.0888e+002 -3.5760e+002  4.0063e+002 29206 108048,108100,108074
 1.6000e+000 108204 -2.7789e+002 -7.1737e+002  3.8703e+002 29206 108022,108178,108152
 1.6000e+000 108345 -4.3776e+002 -3.1123e+002  4.5741e+002 29206 108126,108100,108319
 1.6000e+000 108368 -2.5403e+002 -4.3415e+002  5.0922e+002 29206 108391,108126,108319
 1.6000e+000 108417 -3.4917e+002 -6.5060e+002  3.8797e+002 29206 108022,108152,108391
 1.6000e+000 108440 -3.9413e+002 -5.7668e+002  4.4723e+002 29206 108022,108391,108319
 1.6000e+000 108688 -6.7839e+002 -7.5972e+002  3.7831e+002 28595 108711,108541,108515
 1.6000e+000 108665 -9.4774e+002 -8.1829e+002  5.7145e+002 28595 108783,108711,108515
 1.6000e+000 108642 -1.1627e+003 -7.0693e+002  5.7721e+002 28595 108783,108515,108489
 1.6000e+000 108619 -1.1608e+003 -8.6585e+002  3.0773e+002 28595 108463,108593,108489
 1.6000e+000 108737 -6.0779e+002 -5.7557e+002  2.7183e+002 28595 108567,108541,108711
 1.6000e+000 108760 -5.0063e+002 -6.5272e+002  5.0573e+002 28595 108567,108711,108593
 1.6000e+000 108809 -6.2007e+002 -8.1524e+002  4.2955e+002 28595 108593,108711,108783
 1.6000e+000 108832 -9.2976e+002 -7.5314e+002  3.8442e+002 28595 108593,108783,108489
 1.6000e+000 109033 -2.4352e+002 -3.7915e+002  1.7102e+002 28091 108909,108961,108935
 1.6000e+000 109010 -3.6909e+002 -3.5160e+002  1.4592e+002 28091 108857,108961,108909
 1.6000e+000 108987 -5.9444e+002 -5.6132e+002  4.1872e+002 28091 108857,108909,108883
 1.6000e+000 109136 -4.7581e+002 -1.1255e+003  2.0162e+002 27587 109058,109110,109084
 1.6000e+000 109695 -5.7628e+002 -5.2496e+002  1.8885e+002 26969 109718,109375,109323
 1.6000e+000 109672 -5.4702e+002 -4.8754e+002  1.5322e+002 26969 109718,109323,109505
 1.6000e+000 109649 -6.1283e+002 -1.7083e+002  8.0970e+001 26969 109790,109453,109427
 1.6000e+000 109626 -2.0255e+002 -5.5413e+002  2.5034e+002 26969 109323,109375,109349
 1.6000e+000 109603 -5.7747e+002 -5.7925e+002  2.0468e+002 26969 109323,109531,109505
 1.6000e+000 109580 -2.8709e+002 -5.0621e+002  7.0511e+001 26969 109375,109427,109401
 1.6000e+000 109557 -6.6040e+002 -3.1939e+002  1.6447e+002 26969 109453,109505,109479
 1.6000e+000 109744 -5.6219e+002 -5.5198e+002  8.8308e+001 26969 109427,109375,109718
 1.6000e+000 109767 -4.7946e+002 -3.1187e+002  6.1178e+001 26969 109790,109427,109718
 1.6000e+000 109816 -6.6117e+002 -3.2544e+002  1.4417e+002 26969 109505,109453,109790
 1.6000e+000 109839 -5.7230e+002 -5.0143e+002  1.4774e+002 26969 109505,109790,109718
 1.6000e+000 110266 -3.9335e+002 -5.8546e+002  2.1966e+002 26515 110361,110289,110099
 1.6000e+000 110243 -3.3035e+002 -4.4539e+002  2.6274e+002 26515 110289,109995,109943
 1.6000e+000 110220 -4.7088e+002 -6.1823e+002  2.2065e+002 26515 110361,110099,110021
 1.6000e+000 110197 -4.1568e+002 -1.1484e+003  1.4108e+002 26515 110047,110099,110073
 1.6000e+000 110174 -4.5278e+002 -1.0763e+003 -3.2586e+001 26515 110021,110099,110047
 1.6000e+000 110151  1.5588e+001 -2.7296e+001  4.2194e+002 26515 109943,109995,109969
 1.6000e+000 110315 -5.6972e+002 -3.9986e+002  1.7583e+002 26515 110125,110099,110289
 1.6000e+000 110338 -4.2274e+002 -1.6374e+002  3.7659e+002 26515 110125,110289,109943
 1.6000e+000 110387 -4.6360e+002 -5.4982e+002  1.3222e+002 26515 109995,110289,110361
 1.6000e+000 110410 -5.2879e+002 -5.7541e+002  1.3856e+002 26515 109995,110361,110021
 1.6000e+000 110609 -1.9603e+002 -6.8771e+002  2.4814e+002 25789 110906,110762,110632
 1.6000e+000 110586 -2.0414e+002 -8.4203e+002  2.7947e+002 25789 110762,110433,110537
 1.6000e+000 110563 -4.5246e+002 -7.6401e+002  4.1138e+002 25789 110834,110459,110433
 1.6000e+000 110658 -2.8047e+002 -6.7035e+002  3.1445e+002 25789 110906,110632,110834
 1.6000e+000 110788 -1.4729e+002 -4.6391e+002  1.6815e+002 25789 110511,110632,110762
 1.6000e+000 110811 -1.9030e+002 -6.8357e+002  2.8469e+002 25789 110511,110762,110537
 1.6000e+000 110860 -2.9476e+002 -6.7563e+002  3.6744e+002 25789 110485,110459,110834
 1.6000e+000 110883 -3.5476e+002 -6.8735e+002  3.2459e+002 25789 110485,110834,110632
 1.6000e+000 110932 -3.7737e+002 -7.4486e+002  2.6428e+002 25789 110433,110762,110906
 1.6000e+000 110955 -4.4418e+002 -7.0498e+002  3.1748e+002 25789 110433,110906,110834
 1.6000e+000 111350 -4.8165e+002 -6.2485e+002  3.7685e+002 25228 111445,111373,111186
 1.6000e+000 111327 -5.3982e+002 -6.4472e+002  1.5521e+002 25228 110978,111186,111004
 1.6000e+000 111304 -5.2316e+002 -7.7610e+002  3.1332e+002 25228 111373,111108,111082
 1.6000e+000 111281 -4.4416e+002 -8.4236e+002  3.1927e+002 25228 111134,111186,111160
 1.6000e+000 111258 -4.6606e+002 -6.0106e+002  3.8747e+002 25228 111445,111186,111134
 1.6000e+000 111235 -4.4502e+002 -5.2660e+002  2.1029e+002 25228 111517,111030,111004
 1.6000e+000 111212 -6.8533e+002 -6.5164e+002  3.3627e+002 25228 111030,111082,111056
 1.6000e+000 111399 -4.8579e+002 -6.9492e+002  3.6251e+002 25228 111004,111186,111373
 1.6000e+000 111422 -3.7996e+002 -5.9277e+002  2.8960e+002 25228 111517,111004,111373
 1.6000e+000 111471 -5.1329e+002 -6.1830e+002  3.3609e+002 25228 111108,111373,111445
 1.6000e+000 111494 -4.9397e+002 -5.8739e+002  3.4777e+002 25228 111108,111445,111134
 1.6000e+000 111543 -5.7367e+002 -5.7929e+002  2.6864e+002 25228 111082,111030,111517
 1.6000e+000 111566 -5.1009e+002 -6.6552e+002  3.5008e+002 25228 111082,111517,111373
 1.6000e+000 112074 -4.3738e+002 -5.0322e+002  3.2262e+002 24338 112097,111907,111881
 1.6000e+000 112051 -6.1469e+002 -5.0918e+002  2.2851e+002 24338 112097,111881,111829
 1.6000e+000 112028 -3.2182e+002 -5.8857e+002  1.5828e+002 24338 111829,111881,111855
 1.6000e+000 112005 -7.9773e+002 -7.7514e+002  2.1323e+002 24338 111777,111933,111829
 1.6000e+000 111982 -9.8624e+002 -2.2770e+002  2.5810e+002 24338 111751,111933,111777
 1.6000e+000 111959 -8.9431e+002 -8.0425e+002  2.2230e+002 24338 111777,111829,111803
 1.6000e+000 112123 -5.9895e+002 -7.1862e+002  2.2707e+002 24338 111933,111907,112097
 1.6000e+000 112146 -6.9012e+002 -5.3432e+002  1.8561e+002 24338 111933,112097,111829
 1.6000e+000 112443 -7.2400e+002 -5.1531e+002  3.2333e+002 23998 112466,112299,112247
 1.6000e+000 112420 -7.5698e+002 -8.4383e+002  2.6378e+002 23998 112466,112247,112221
 1.6000e+000 112397 -6.6195e+002 -8.8058e+002  4.1112e+002 23998 112169,112325,112221
 1.6000e+000 112374 -6.5664e+002 -7.6010e+002  3.9200e+002 23998 112169,112221,112195
 1.6000e+000 112351 -2.5593e+002 -4.7945e+002  3.6874e+002 23998 112247,112299,112273
 1.6000e+000 112492 -6.4156e+002 -5.6485e+002  5.1440e+002 23998 112325,112299,112466
 1.6000e+000 112515 -7.1393e+002 -7.5440e+002  4.2340e+002 23998 112325,112466,112221
 1.6000e+000 113200 -6.7315e+002 -8.1216e+002  5.2421e+002 23480 112779,112961,112805
 1.6000e+000 113177 -7.1469e+002 -5.6477e+002  2.4711e+002 23480 112779,112987,112961
 1.6000e+000 113154 -2.3490e+002 -4.5630e+002  3.4359e+002 23480 112805,112961,112883
 1.6000e+000 113131 -4.5151e+002 -7.5023e+002  3.6689e+002 23480 112883,112935,112909
 1.6000e+000 113108 -5.7486e+002 -5.9980e+002  3.7645e+002 23480 112883,112961,112935
 1.6000e+000 113085 -2.8368e+002 -3.8042e+002  1.8233e+002 23480 112831,112883,112857
 1.6000e+000 113062 -3.9426e+002 -4.5922e+002  2.3150e+002 23480 112805,112883,112831
 1.6000e+000 113039 -7.7874e+002 -4.4915e+002  2.6226e+002 23480 112779,113013,112987
 1.6000e+000 113676 -6.2876e+002 -3.5873e+002  4.7181e+002 23018 113699,113434,113356
 1.6000e+000 113653 -5.6790e+002 -3.4955e+002  2.7339e+002 23018 113771,113699,113356
 1.6000e+000 113630 -5.1784e+002 -5.1686e+002  1.9599e+002 23018 113771,113356,113512
 1.6000e+000 113607 -3.7032e+002 -7.1412e+002  3.1345e+002 23018 113330,113512,113356
 1.6000e+000 113584 -1.2404e+003 -6.6450e+002  7.0317e+002 23018 113356,113434,113382
 1.6000e+000 113561 -1.3727e+002 -6.6956e+002  3.0523e+002 23018 113304,113512,113330
 1.6000e+000 113538 -1.2205e+003 -1.9145e+002  3.1790e+002 23018 113382,113434,113408
 1.6000e+000 113725 -7.0385e+002 -5.4045e+002  4.7777e+002 23018 113460,113434,113699
 1.6000e+000 113748 -7.2821e+002 -5.6449e+002  3.2341e+002 23018 113460,113699,113486
 1.6000e+000 113797 -7.0587e+002 -5.9913e+002  3.2717e+002 23018 113486,113699,113771
 1.6000e+000 113820 -5.7475e+002 -6.3491e+002  2.1346e+002 23018 113486,113771,113512
 1.6000e+000 114424 -6.5357e+002 -5.9791e+002  1.2298e+002 22514 114447,114133,114029
 1.6000e+000 114401 -6.7302e+002 -7.4776e+002  1.2548e+002 22514 114447,114029,114237
 1.6000e+000 114378 -7.0554e+002 -4.3435e+002  7.0289e+001 22514 114133,114211,114185
 1.6000e+000 114355 -1.0676e+003 -4.7586e+002  2.3763e+001 22514 114133,114185,114159
 1.6000e+000 114332 -5.1781e+002 -7.8236e+002  3.1604e+002 22514 114003,114237,114029
 1.6000e+000 114309 -7.2075e+002 -5.5160e+002  6.3036e+001 22514 114029,114133,114055
 1.6000e+000 114286 -7.9590e+002 -5.4198e+002  9.8280e+001 22514 114055,114133,114107
 1.6000e+000 114263 -5.9911e+002 -3.3403e+001  1.4264e+002 22514 114055,114107,114081
 1.6000e+000 114473 -7.0112e+002 -5.1736e+002  1.8590e+002 22514 114211,114133,114447
 1.6000e+000 114496 -6.9333e+002 -6.2719e+002  1.8464e+002 22514 114211,114447,114237
 1.6000e+000 114597 -3.3387e+002 -8.5469e+002  4.4991e+002 22316 114620,114571,114545
 1.6000e+000 114646 -3.3387e+002 -8.5469e+002  4.4991e+002 22316 114519,114571,114620
 1.6000e+000 115127 -8.7763e+002 -5.7330e+002  3.0609e+002 21612 115150,114905,114879
 1.6000e+000 115104 -1.0217e+003 -3.5665e+002  3.3512e+002 21612 115150,114879,114853
 1.6000e+000 115081 -6.7180e+002 -2.0015e+002  4.3852e+002 21612 115222,114931,114905
 1.6000e+000 115058 -7.5980e+002 -4.6669e+002  3.5913e+002 21612 115222,114905,115009
 1.6000e+000 115035 -3.8262e+002 -5.7956e+002  2.4531e+002 21612 114957,115009,114983
 1.6000e+000 115176 -7.9475e+002 -4.3312e+002  2.7093e+002 21612 115009,114905,115150
 1.6000e+000 115199 -9.1527e+002 -1.8224e+002  2.8880e+002 21612 115009,115150,114853
 1.6000e+000 115248 -6.4303e+002 -4.5295e+002  3.4631e+002 21612 114957,114931,115222
 1.6000e+000 115271 -7.2614e+002 -7.0996e+002  2.6556e+002 21612 114957,115222,115009
 1.6000e+000 115519 -2.0236e+002  9.6146e+001  2.2248e+002 21208 115542,115372,115320
 1.6000e+000 115496  3.6068e+000  2.4399e+002  1.5443e+001 21208 115542,115320,115294
 1.6000e+000 115473 -1.3907e+002 -3.5912e+002  3.0786e+002 21208 115320,115372,115346
 1.6000e+000 115450 -4.7214e+002 -1.6088e+002  1.2730e+002 21208 115294,115424,115398
 1.6000e+000 115568 -2.8978e+002  1.0939e+001  3.0784e+002 21208 115398,115372,115542
 1.6000e+000 115591 -2.1611e+002 -1.1079e+002  1.3568e+002 21208 115398,115542,115294
 1.6000e+000 115839 -6.2469e+002 -4.2165e+002  3.8160e+002 20668 115862,115640,115614
 1.6000e+000 115816 -6.6553e+002 -4.6252e+002  4.0222e+002 20668 115862,115614,115744
 1.6000e+000 115793 -7.8347e+002 -3.3086e+002  3.7042e+002 20668 115640,115718,115692
 1.6000e+000 115770 -8.9134e+002 -3.4738e+002  3.6450e+002 20668 115640,115692,115666
 1.6000e+000 115888 -6.8183e+002 -3.4121e+002  4.1755e+002 20668 115718,115640,115862
 1.6000e+000 115911 -7.3791e+002 -4.2211e+002  4.4794e+002 20668 115718,115862,115744
 1.6000e+000 116134 -3.8993e+002 -6.6240e+002  3.7247e+002 20264 115958,116036,115984
 1.6000e+000 116111 -2.3318e+002 -5.9132e+002  3.5710e+002 20264 115958,116062,116036
 1.6000e+000 116088 -2.3808e+002 -6.1622e+002  4.0447e+002 20264 115984,116036,116010
 1.6000e+000 116384 -6.1912e+002 -4.1905e+002  4.2319e+002 19924 116407,116211,116159
 1.6000e+000 116361 -5.8755e+002 -6.8936e+002  3.5061e+002 19924 116407,116159,116263
 1.6000e+000 116338 -5.8860e+002 -2.9054e+002  4.1482e+002 19924 116159,116211,116185
 1.6000e+000 116315 -4.0384e+002 -7.0794e+002  4.3891e+002 19924 116159,116289,116263
 1.6000e+000 116433 -5.9854e+002 -2.6859e+002  4.8937e+002 19924 116237,116211,116407
 1.6000e+000 116456 -4.6494e+002 -4.5002e+002  4.5009e+002 19924 116237,116407,116263
 1.6000e+000 116608 -4.4370e+002 -1.3498e+002  2.9397e+002 19520 116703,116631,116533
 1.6000e+000 116585 -4.3650e+002 -1.8842e+002  2.4642e+002 19520 116631,116507,116481
 1.6000e+000 116657 -3.3634e+002 -1.9736e+002  3.1322e+002 19520 116559,116533,116631
 1.6000e+000 116680 -4.0374e+002 -3.3281e+002  2.5166e+002 19520 116559,116631,116481
 1.6000e+000 116729 -4.4370e+002 -1.3498e+002  2.9397e+002 19520 116507,116631,116703
 1.6000e+000 116952 -5.1209e+002 -4.7302e+002  6.3803e+002 19208 116975,116802,116776
 1.6000e+000 116929 -6.5851e+002 -8.6812e+002  3.7070e+002 19208 116975,116776,116880
 1.6000e+000 116906 -7.5330e+002 -3.1993e+002  4.4865e+002 19208 116802,116854,116828
 1.6000e+000 117001 -4.0768e+002 -4.0116e+002  6.7160e+002 19208 116854,116802,116975
 1.6000e+000 117024 -1.7049e+002 -5.0342e+002  5.3474e+002 19208 116854,116975,116880
 1.6000e+000 117428 -5.6172e+002 -2.0737e+002  3.5632e+002 18796 117154,117206,117180
 1.6000e+000 117405 -3.8893e+002 -4.3680e+002  3.1642e+002 18796 117154,117284,117206
 1.6000e+000 117382 -2.4148e+002 -3.7221e+002  3.2718e+002 18796 117154,117310,117284
 1.6000e+000 117359 -2.1985e+002 -3.0669e+002  4.1660e+002 18796 117206,117284,117258
 1.6000e+000 117336 -4.7131e+001 -6.1239e+001  5.6971e+002 18796 117206,117258,117232
 1.6000e+000 117529 -2.9477e+002 -1.6257e+002  1.8033e+002 18228 117810,117552,117477
 1.6000e+000 117578 -5.9648e+002 -4.2008e+002  2.5870e+002 18228 117682,117552,117503
 1.6000e+000 117708 -2.1464e+002 -2.2289e+002  1.7108e+002 18228 117477,117552,117682
 1.6000e+000 117836 -4.2835e+002 -4.2377e+002  2.4100e+002 18228 117451,117552,117810
 1.6000e+000 118364 -6.7260e+002 -2.1566e+002  2.5857e+002 17722 118067,118223,118093
 1.6000e+000 118341 -6.2395e+002 -1.1668e+002  2.7636e+002 17722 118041,118223,118067
 1.6000e+000 118318 -3.7871e+002 -1.9882e+002  1.7906e+002 17722 118093,118223,118197
 1.6000e+000 118295 -1.0019e+003 -1.0127e+003  6.4586e+002 17722 118119,118197,118171
 1.6000e+000 118272 -1.9497e+002 -2.8809e+001  2.8582e+002 17722 118093,118197,118119
 1.6000e+000 118249 -8.8886e+002 -5.0238e+002  6.0770e+002 17722 118119,118171,118145
 1.6000e+000 118514 -1.0163e+003 -3.9941e+002  3.6504e+002 17268 118387,118439,118413
 1.6000e+000 118491 -6.0428e+001 -4.1581e+002  3.5411e+002 17268 118387,118465,118439
 1.6000e+000 118916 -9.1528e+002 -3.1268e+002  2.5124e+002 16828 118668,118772,118694
 1.6000e+000 118893 -1.1636e+003 -4.3331e+002  2.0961e+002 16828 118668,118798,118772
 1.6000e+000 118870 -1.2884e+003 -7.5959e+002  1.8113e+002 16828 118642,118798,118668
 1.6000e+000 118847 -4.4347e+002 -1.8361e+002  4.2811e+002 16828 118694,118746,118720
 1.6000e+000 118824 -9.6820e+002 -5.3229e+002  2.1806e+002 16828 118694,118772,118746
 1.6000e+000 119316 -4.0862e+002 -3.1656e+002  4.3361e+002 16422 119042,119172,119094
 1.6000e+000 119293 -5.1654e+002 -3.4496e+002  4.4167e+002 16422 119042,119198,119172
 1.6000e+000 119270 -6.0985e+002 -1.9079e+002  2.6090e+002 16422 119042,119094,119068
 1.6000e+000 119247 -2.4644e+002 -1.5503e+002  6.0552e+002 16422 119094,119146,119120
 1.6000e+000 119224 -3.5092e+002 -2.1524e+002  4.5777e+002 16422 119094,119172,119146
 1.6000e+000 119466 -1.2072e+003 -2.6471e+002 -9.5650e+001 16010 119339,119391,119365
 1.6000e+000 119443 -5.5531e+002 -3.9631e+002  2.8476e+002 16010 119339,119417,119391
 1.6000e+000 119616 -2.3103e+002 -6.3731e+001  3.3934e+002 15547 119515,119567,119541
 1.6000e+000 119593  1.9842e+002  2.5407e+002  7.6255e+002 15547 119489,119567,119515
 1.6000e+000 119719 -7.2348e+002 -2.7441e+002  3.5762e+002 421 119641,119693,119667
 1.7000e+000 69562 -7.4060e+002 -3.5798e+002  6.0548e+002 69254 69484,69536,69510
 1.7000e+000 70009 -3.4534e+002 -3.4485e+002  3.1629e+002 68942 69686,69842,69816
 1.7000e+000 69986 -3.2028e+002 -1.4022e+002  1.8888e+002 68942 69686,69868,69842
 1.7000e+000 69963 -5.7821e+001 -1.6801e+001  4.4006e+002 68942 69686,69816,69712
 1.7000e+000 69940 -9.4987e+001 -9.6093e+001  6.3619e+002 68942 69712,69790,69738
 1.7000e+000 69917 -4.8468e+002 -1.0113e+003  4.4619e+002 68942 69712,69816,69790
 1.7000e+000 69894 -8.0841e+000 -5.4867e+002  2.4393e+002 68942 69738,69790,69764
 1.7000e+000 70110 -3.3117e+002 -4.9046e+001  2.3557e+002 68766 70032,70084,70058
 1.7000e+000 70746 -1.7448e+002 -1.6323e+002  2.2686e+002 68448 70400,70556,70426
 1.7000e+000 70723 -6.8622e+002 -2.3961e+002  3.4154e+002 68448 70374,70556,70400
 1.7000e+000 70700 -3.5410e+002 -1.8414e+002  1.6626e+002 68448 70426,70556,70478
 1.7000e+000 70677 -5.2604e+002 -1.4490e+002  1.9342e+002 68448 70478,70556,70504
 1.7000e+000 70654 -3.0780e+002 -1.8226e+002  1.3054e+002 68448 70426,70478,70452
 1.7000e+000 70631 -6.9600e+002 -2.7206e+002  4.1238e+002 68448 70374,70582,70556
 1.7000e+000 70608 -5.5493e+002 -2.1388e+002  1.8897e+002 68448 70504,70556,70530
 1.7000e+000 70896 -4.9137e+002 -5.0640e+001  4.2181e+001 68250 70795,70847,70821
 1.7000e+000 70873 -1.2951e+003 -3.6228e+002  7.1553e+001 68250 70769,70847,70795
 1.7000e+000 70997 -2.1247e+003 -1.0312e+003  9.2082e+002 68052 70919,70971,70945
 1.7000e+000 71367 -6.4785e+002 -1.0425e+003  3.9396e+002 67740 71096,71226,71200
 1.7000e+000 71344 -4.0950e+002 -5.8621e+002  4.9542e+002 67740 71044,71226,71096
 1.7000e+000 71321  6.6544e+001 -6.6544e+001  7.8088e+002 67740 71044,71096,71070
 1.7000e+000 71298 -4.7246e+002 -1.1267e+003  7.6651e+002 67740 71096,71200,71174
 1.7000e+000 71275 -2.7065e+002 -6.6558e+002  3.0336e+002 67740 71096,71148,71122
 1.7000e+000 71252 -3.7171e+002 -8.0069e+002  5.0012e+002 67740 71096,71174,71148
 1.7000e+000 71519  2.5668e+002  1.8672e+002  2.4963e+002 67542 71418,71470,71444
 1.7000e+000 71496  4.3231e+002  7.9459e+002  7.8104e+002 67542 71392,71470,71418
 1.7000e+000 71923 -1.1217e+002  5.5957e+001  2.0056e+002 67230 71649,71779,71675
 1.7000e+000 71900 -6.3661e+001 -1.6206e+002  1.0169e+002 67230 71649,71805,71779
 1.7000e+000 71877 -9.7787e+001 -1.4322e+001  3.8814e+002 67230 71675,71727,71701
 1.7000e+000 71854 -1.5588e+002 -5.7676e+002  3.5572e+002 67230 71675,71753,71727
 1.7000e+000 71831 -1.7383e+002 -3.2927e+002  2.4589e+002 67230 71675,71779,71753
 1.7000e+000 72433 -3.4670e+002 -1.5845e+002  3.1856e+002 67032 72038,72246,72220
 1.7000e+000 72410 -2.1935e+002  4.6304e+001  1.2516e+002 67032 72012,72246,72038
 1.7000e+000 72387 -3.6921e+002 -8.5815e+001  3.4815e+002 67032 72064,72194,72168
 1.7000e+000 72364 -4.2913e+002 -1.4751e+002  3.7714e+002 67032 72038,72194,72064
 1.7000e+000 72341 -5.2025e+002 -6.2775e+002  3.9027e+002 67032 72038,72220,72194
 1.7000e+000 72318 -1.3205e+002  7.3106e+001  1.9050e+002 67032 72090,72168,72142
 1.7000e+000 72295  6.0889e+001  9.3027e+001  2.8143e+002 67032 72064,72168,72090
 1.7000e+000 72272 -1.6230e+002  4.5872e+001  1.7702e+002 67032 72090,72142,72116
 1.7000e+000 72933 -3.1995e+002 -3.8841e+002  3.7873e+002 66628 72956,72665,72613
 1.7000e+000 72910 -2.9501e+002 -4.0078e+002  3.8117e+002 66628 73100,72956,72613
 1.7000e+000 72887 -4.0466e+002 -5.7784e+002  3.0262e+002 66628 73028,72691,72665
 1.7000e+000 72864 -2.7460e+002 -3.6317e+002  3.9308e+002 66628 73100,72613,72587
 1.7000e+000 72841 -3.0408e+002 -3.7133e+002  3.4829e+002 66628 72613,72665,72639
 1.7000e+000 72818  1.4046e+002  3.9075e+001  5.1921e+002 66628 72587,72769,72743
 1.7000e+000 72795 -3.0494e+002 -8.1002e+002  9.2720e+001 66628 72561,72769,72587
 1.7000e+000 72982 -3.9544e+002 -4.1894e+002  4.0647e+002 66628 73028,72665,72956
 1.7000e+000 73005 -3.2122e+002 -1.1046e+002  3.9714e+002 66628 72717,72956,72743
 1.7000e+000 73054 -6.0027e+002 -4.7433e+002  1.8727e+002 66628 72717,72691,73028
 1.7000e+000 73077 -5.9163e+002 -4.2187e+002  2.7952e+002 66628 72717,73028,72956
 1.7000e+000 73126 -3.1949e+002 -3.9785e+002  3.3774e+002 66628 72743,72956,73100
 1.7000e+000 73149 -2.9782e+002 -3.6644e+002  3.4993e+002 66628 72743,73100,72587
 1.7000e+000 73606 -3.8444e+002 -3.5484e+002  3.2480e+002 66281 73332,73384,73358
 1.7000e+000 73583 -4.7611e+002 -4.5366e+002  2.7620e+002 66281 73332,73462,73384
 1.7000e+000 73560 -6.1860e+002 -3.9044e+002  3.3966e+002 66281 73384,73462,73436
 1.7000e+000 73537 -1.0016e+003 -5.5755e+002  4.8274e+002 66281 73332,73488,73462
 1.7000e+000 73514 -7.1799e+002 -3.7788e+002  2.0280e+002 66281 73384,73436,73410
 1.7000e+000 73984 -6.9661e-002 -8.8781e+001  3.5273e+001 65969 73736,73814,73788
 1.7000e+000 73961  6.9056e+001 -2.7363e+001  4.9063e-002 65969 73736,73866,73814
 1.7000e+000 73938 -1.0324e+002 -1.4508e+002  1.8150e+002 65969 73814,73866,73840
 1.7000e+000 73915 -4.2625e+000 -1.4945e+000  1.8201e+000 65969 73710,73866,73736
 1.7000e+000 73892  4.9211e+000 -1.1035e+002  1.1695e+001 65969 73736,73788,73762
 1.7000e+000 74232 -2.6996e+002 -3.5796e+002  3.2333e+002 65572 74255,74085,74033
 1.7000e+000 74209 -2.3204e+002 -4.0043e+002  2.5522e+002 65572 74327,74255,74033
 1.7000e+000 74186 -2.6627e+002 -2.8120e+002  2.5986e+002 65572 74327,74033,74007
 1.7000e+000 74163 -3.0731e+002 -4.4264e+002  3.5665e+002 65572 74033,74085,74059
 1.7000e+000 74281 -3.6081e+002 -4.7948e+002  4.3124e+002 65572 74111,74085,74255
 1.7000e+000 74304 -2.0734e+002 -4.1874e+002  2.9193e+002 65572 74111,74255,74137
 1.7000e+000 74353 -2.0080e+002 -2.6213e+002  2.1457e+002 65572 74137,74255,74327
 1.7000e+000 74376 -2.6122e+002 -1.7389e+002  2.2545e+002 65572 74137,74327,74007
 1.7000e+000 74884 -2.9671e+002 -3.5172e+002  2.6694e+002 65174 74587,74717,74613
 1.7000e+000 74861 -3.0668e+002 -3.9456e+002  1.9170e+002 65174 74561,74717,74587
 1.7000e+000 74838 -3.3396e+002 -4.6072e+002  2.5593e+002 65174 74613,74691,74639
 1.7000e+000 74815 -2.7094e+002 -4.3556e+002  2.5090e+002 65174 74613,74717,74691
 1.7000e+000 74792 -1.3656e+002 -7.7047e+002  1.8999e+002 65174 74639,74691,74665
 1.7000e+000 74769 -4.5039e+002 -1.7719e+002  2.0138e+002 65174 74561,74743,74717
 1.7000e+000 75412 -1.5853e+001 -2.3480e+002  7.3542e+002 64770 75167,75245,75219
 1.7000e+000 75389 -3.4000e+002 -6.7037e+002  5.0722e+002 64770 75115,75245,75167
 1.7000e+000 75366 -2.7579e+002 -8.5786e+002  6.4640e+002 64770 75089,75245,75115
 1.7000e+000 75343 -4.9035e+002 -2.1027e+002  5.4141e+002 64770 75167,75219,75193
 1.7000e+000 75320 -2.7439e+002 -5.2557e+002  5.2279e+002 64770 75115,75167,75141
 1.7000e+000 75297 -4.4877e+002 -1.2293e+003  6.9095e+002 64770 75089,75271,75245
 1.7000e+000 75861 -7.5780e+002 -3.6138e+002  6.6294e+002 64316 75538,75694,75564
 1.7000e+000 75838 -2.9504e+002 -1.3707e+002  5.0182e+002 64316 75538,75720,75694
 1.7000e+000 75815 -6.7908e+002 -4.7156e+002  5.2236e+002 64316 75590,75694,75642
 1.7000e+000 75792 -6.6313e+002 -6.3404e+002  5.6977e+002 64316 75564,75694,75590
 1.7000e+000 75769 -1.7962e+002 -7.8422e+002  2.8942e+002 64316 75590,75642,75616
 1.7000e+000 75746 -6.3891e+002 -2.8192e+002  5.0530e+002 64316 75642,75694,75668
 1.7000e+000 76239 -9.9467e+002 -8.1242e+002  5.0300e+002 64018 76262,76095,76043
 1.7000e+000 76216 -7.1152e+002 -7.6642e+002  3.9778e+002 64018 76262,76043,76017
 1.7000e+000 76193 -2.9339e+002 -4.1653e+002  3.1804e+002 64018 75991,76121,76017
 1.7000e+000 76170 -9.2135e+002 -6.3529e+002  6.0208e+002 64018 76043,76095,76069
 1.7000e+000 76147 -1.9292e+001 -4.4020e+002  7.4633e+001 64018 75965,76121,75991
 1.7000e+000 76288 -6.8700e+002 -9.8534e+002  6.3499e+002 64018 76121,76095,76262
 1.7000e+000 76311 -4.5915e+002 -9.5779e+002  4.9103e+002 64018 76121,76262,76017
 1.7000e+000 76866 -3.4597e+002 -4.2919e+002  4.0917e+002 63728 76520,76676,76546
 1.7000e+000 76843 -3.5189e+002 -4.3843e+002  3.2671e+002 63728 76520,76702,76676
 1.7000e+000 76820 -2.6620e+002 -4.2666e+002  3.8239e+002 63728 76546,76650,76572
 1.7000e+000 76797 -4.9462e+002 -5.3700e+002  3.4918e+002 63728 76546,76676,76650
 1.7000e+000 76774 -4.8125e+002 -6.6611e+001  2.0265e+002 63728 76572,76650,76624
 1.7000e+000 76751 -2.9657e+002 -3.9884e+002  3.4474e+002 63728 76494,76702,76520
 1.7000e+000 76728 -9.4720e+001 -2.2005e+002  1.4445e+002 63728 76572,76624,76598
 1.7000e+000 77065 -4.5575e+001 -3.7068e+002  2.7268e+002 63288 77088,76941,76915
 1.7000e+000 77042 -3.2901e+002 -4.6657e+002  2.6810e+002 63288 77088,76915,76993
 1.7000e+000 77019 -1.1566e+002 -4.7207e+002  2.3862e+002 63288 76889,76993,76915
 1.7000e+000 77114 -2.1762e+002 -3.9308e+002  2.0511e+002 63288 76967,76941,77088
 1.7000e+000 77137 -5.6883e+002 -4.6988e+002  1.1599e+002 63288 77160,77088,76993
 1.7000e+000 77186 -1.3163e+002 -2.7730e+002  1.6717e+002 63288 76967,77088,77160
 1.7000e+000 77417 -1.3655e+002 -2.6149e+002  7.9379e+001 62884 77440,77342,77316
 1.7000e+000 77394 -2.2948e+002 -4.3828e+002  3.1281e+001 62884 77770,77440,77316
 1.7000e+000 77466 -2.7278e+002 -4.3201e+002  3.2325e+001 62884 77512,77440,77368
 1.7000e+000 77489 -1.8973e+002 -4.3386e+002  3.1002e+001 62884 77642,77440,77290
 1.7000e+000 77538 -1.5707e+002 -3.5019e+002 -3.7337e+000 62884 77342,77440,77512
 1.7000e+000 77668 -2.5531e+002 -5.0141e+002 -2.2355e+001 62884 77368,77440,77642
 1.7000e+000 77796 -1.7314e+002 -4.1158e+002  2.3716e+001 62884 77290,77440,77770
 1.7000e+000 78479 -6.3501e+002 -7.2978e+002  4.1079e+002 62480 78084,78240,78214
 1.7000e+000 78456 -3.4466e+002 -6.0431e+002  7.9963e+000 62480 78084,78266,78240
 1.7000e+000 78433 -3.6297e+002 -5.9332e+002  1.4695e+002 62480 78110,78214,78136
 1.7000e+000 78410 -4.5286e+002 -6.4025e+002  3.6080e+002 62480 78084,78214,78110
 1.7000e+000 78387 -4.0761e+002 -3.6969e+002  2.0636e+002 62480 78136,78214,78188
 1.7000e+000 78364 -2.1831e+002 -6.9812e+002 -2.1255e+001 62480 78058,78266,78084
 1.7000e+000 78341 -3.9230e+002 -3.9481e+002  3.0526e+002 62480 78136,78188,78162
 1.7000e+000 78318 -6.5649e+001 -5.4654e+002 -1.4682e+002 62480 78058,78292,78266
 1.7000e+000 78678 -4.4176e+002 -8.1548e+002  3.2424e+002 61926 78528,78606,78554
 1.7000e+000 78655 -1.9721e+002 -9.3000e+002  4.1449e+002 61926 78502,78606,78528
 1.7000e+000 78632 -2.6514e+002 -4.8811e+002  1.3965e+002 61926 78554,78606,78580
 1.7000e+000 79058 -4.4704e+002 -4.7071e+002  2.5761e+002 61614 78836,78914,78862
 1.7000e+000 79035 -5.4923e+002 -5.5259e+002  2.2002e+002 61614 78810,78914,78836
 1.7000e+000 79012 -3.5799e+002 -4.7047e+002  2.0316e+002 61614 78784,78914,78810
 1.7000e+000 78989 -3.9004e+002 -5.0456e+002  3.9026e+002 61614 78862,78914,78888
 1.7000e+000 78966 -2.9224e+002 -6.0866e+002  2.3292e+002 61614 78784,78940,78914
 1.7000e+000 79208 -2.9731e+002 -6.9351e+002  2.2806e+001 61366 79081,79133,79107
 1.7000e+000 79185 -2.7057e+002 -3.1627e+002  3.3154e+002 61366 79081,79159,79133
 1.7000e+000 79358  3.6928e+001  1.3180e+001  4.5185e+001 60962 79231,79283,79257
 1.7000e+000 79335 -1.9876e+002 -4.6914e+002  1.2118e+002 60962 79231,79309,79283
 1.7000e+000 79608 -2.7830e+002 -6.6668e+002  3.0281e+002 60508 79631,79435,79409
 1.7000e+000 79585 -1.8584e+002 -6.9389e+002  1.8760e+002 60508 79703,79631,79409
 1.7000e+000 79562 -1.2278e+002 -2.2260e+002  2.7886e+002 60508 79703,79409,79383
 1.7000e+000 79539 -6.1799e+002 -6.1537e+002  5.3376e+002 60508 79435,79487,79461
 1.7000e+000 79657 -3.3828e+002 -8.7090e+002  4.9908e+002 60508 79487,79435,79631
 1.7000e+000 79680 -1.6723e+002 -6.1958e+002  2.2362e+002 60508 79487,79631,79513
 1.7000e+000 79729 -9.2019e+001 -2.6522e+002  8.8694e+001 60508 79513,79631,79703
 1.7000e+000 79752 -2.1816e+002 -2.1666e+002  3.1887e+001 60508 79513,79703,79383
 1.7000e+000 80390 -3.8971e+002 -4.7957e+002  3.8378e+002 59997 80413,80096,80018
 1.7000e+000 80367 -6.1404e+002 -5.5636e+002  4.4215e+002 59997 80413,80018,80226
 1.7000e+000 80344 -3.3888e+002 -4.0990e+002  2.7157e+002 59997 80096,80174,80148
 1.7000e+000 80321 -1.2588e+003 -9.4270e+002  6.2871e+002 59997 80018,80096,80070
 1.7000e+000 80298 -4.2321e+002 -4.7655e+002  2.3970e+002 59997 80096,80148,80122
 1.7000e+000 80275 -3.2633e+002 -4.0537e+002  3.0917e+002 59997 80174,80226,80200
 1.7000e+000 80252 -6.8754e+002 -5.7948e+002 -1.0801e+001 59997 80018,80070,80044
 1.7000e+000 80439 -3.3540e+002 -5.1131e+002  3.0505e+002 59997 80174,80096,80413
 1.7000e+000 80462 -4.2746e+002 -4.6014e+002  3.3920e+002 59997 80174,80413,80226
 1.7000e+000 80840 -6.2666e+002 -5.7894e+002  2.8188e+002 59443 80863,80644,80618
 1.7000e+000 80817 -2.6131e+002 -4.3773e+002  3.2517e+002 59443 80863,80618,80566
 1.7000e+000 80794 -2.1283e+002 -3.7847e+002  3.7551e+002 59443 81007,80935,80670
 1.7000e+000 80771 -3.4067e+002 -4.0952e+002  3.5887e+002 59443 80566,80722,80696
 1.7000e+000 80748 -3.3057e+002 -5.8491e+002  3.7959e+002 59443 80566,80618,80592
 1.7000e+000 80889 -6.8035e+002 -5.2467e+002  4.4896e+002 59443 80935,80644,80863
 1.7000e+000 80912 -4.7005e+002 -4.6982e+002  3.7945e+002 59443 80696,80863,80566
 1.7000e+000 80961 -3.9115e+002 -4.4066e+002  4.4856e+002 59443 80696,80670,80935
 1.7000e+000 80984 -3.8330e+002 -3.8841e+002  4.1297e+002 59443 80696,80935,80863
 1.7000e+000 81033 -5.1429e+002 -7.1399e+002  5.3016e+002 59443 80644,80935,81007
 1.7000e+000 81360 -5.5898e+002 -3.6509e+002  2.8303e+002 59031 81383,81187,81161
 1.7000e+000 81337 -5.2125e+002 -4.0946e+002  1.1830e+002 59031 81455,81383,81161
 1.7000e+000 81314 -4.3772e+002 -2.8901e+002  1.6566e+002 59031 81455,81161,81135
 1.7000e+000 81291 -1.1339e+003 -1.8862e+002  4.6162e+002 59031 81187,81239,81213
 1.7000e+000 81409 -6.0215e+002 -5.9582e+002  3.4958e+002 59031 81239,81187,81383
 1.7000e+000 81432 -6.8630e+002 -4.6579e+002  1.1099e+002 59031 81239,81383,81265
 1.7000e+000 81481 -5.8417e+002 -1.9687e+002  1.4911e+002 59031 81265,81383,81455
 1.7000e+000 81504 -5.8501e+002 -1.5484e+002  1.6687e+002 59031 81265,81455,81135
 1.7000e+000 81835 -6.4789e+001 -2.5218e+002  7.1954e+001 58577 81610,81714,81636
 1.7000e+000 81812 -2.7050e+001 -2.7523e+002  7.4089e+001 58577 81610,81740,81714
 1.7000e+000 81789 -1.7151e+002 -2.9443e+002  3.5556e+001 58577 81636,81714,81688
 1.7000e+000 81766 -1.4139e+002 -2.4486e+002 -4.3733e+001 58577 81636,81688,81662
 1.7000e+000 81985 -1.4715e+002 -3.6102e+002  2.1970e+002 58030 81884,81936,81910
 1.7000e+000 81962 -3.0102e+002 -1.0217e+002  1.5118e+002 58030 81858,81936,81884
 1.7000e+000 82414 -1.2194e+002 -5.0601e+001  1.6375e+002 57690 82437,82169,82117
 1.7000e+000 82391 -1.6301e+002 -2.0566e+002  1.8857e+002 57690 82437,82117,82247
 1.7000e+000 82368  7.3732e+001  1.0362e+002  4.3573e+002 57690 82195,82247,82221
 1.7000e+000 82345 -1.2902e+002 -1.9108e+002  1.9137e+002 57690 82091,82247,82117
 1.7000e+000 82322 -2.1274e+002 -5.7129e+001  1.1104e+002 57690 82117,82169,82143
 1.7000e+000 82299 -1.4724e+002 -3.5749e+002  2.6470e+002 57690 82091,82273,82247
 1.7000e+000 82463 -1.8384e+002  1.0273e+001  2.3832e+002 57690 82195,82169,82437
 1.7000e+000 82486 -2.0165e+002 -9.8642e+001  2.3820e+002 57690 82195,82437,82247
 1.7000e+000 83041 -3.1697e+002 -3.3996e+002  2.3003e+002 57172 83064,82721,82695
 1.7000e+000 83018 -3.5436e+002 -3.5792e+002  3.3561e+002 57172 83064,82695,82851
 1.7000e+000 82995 -1.0251e+003 -4.7270e+002  4.5427e+002 57172 82669,82851,82695
 1.7000e+000 82972 -5.9055e+002 -4.0760e+002  3.1160e+002 57172 82773,82851,82825
 1.7000e+000 82949 -5.6546e+002 -4.5551e+002  4.6102e+002 57172 82773,82825,82799
 1.7000e+000 82926 -4.3065e+002 -2.7528e+002  1.9512e+002 57172 82721,82773,82747
 1.7000e+000 82903 -1.0301e+003 -3.6306e+002  5.3995e+002 57172 82669,82877,82851
 1.7000e+000 83090 -4.8904e+002 -4.0578e+002  2.1885e+002 57172 82773,82721,83064
 1.7000e+000 83113 -4.1116e+002 -3.7653e+002  3.1876e+002 57172 82773,83064,82851
 1.7000e+000 83747 -3.8863e+002 -3.6031e+002  2.5394e+002 56554 83770,83427,83401
 1.7000e+000 83724 -4.0606e+002 -4.8513e+002  3.1022e+002 56554 83842,83770,83401
 1.7000e+000 83701 -3.2226e+000 -3.9024e+002  1.0809e+002 56554 83842,83401,83583
 1.7000e+000 83678 -8.0109e+002 -7.2140e+002  6.2304e+002 56554 83914,83531,83505
 1.7000e+000 83655 -3.9244e+002 -3.5974e+002  1.2091e+002 56554 83531,83583,83557
 1.7000e+000 83632 -8.2178e+001 -1.4256e+002  9.3812e+001 56554 83375,83583,83401
 1.7000e+000 83609 -3.9234e+002 -3.5544e+002  2.6245e+002 56554 83427,83479,83453
 1.7000e+000 83796 -3.7236e+002 -3.4616e+002  2.6008e+002 56554 83479,83427,83770
 1.7000e+000 83819 -4.0557e+002 -3.1309e+002  2.7457e+002 56554 83479,83770,83505
 1.7000e+000 83868 -2.6129e+002 -2.1188e+002  3.6848e+002 56554 83505,83770,83842
 1.7000e+000 83891 -5.0770e+002 -4.2220e+002  4.6092e+002 56554 83914,83505,83842
 1.7000e+000 83940 -3.5080e+002 -7.2984e+002  3.3053e+002 56554 83583,83531,83914
 1.7000e+000 83963 -1.6269e+002 -6.8518e+002  2.5034e+002 56554 83583,83914,83842
 1.7000e+000 84341 -6.8330e+001 -7.2822e+002  2.1831e+002 56192 84067,84145,84119
 1.7000e+000 84318  7.7216e+001 -6.6632e+002  1.1340e+002 56192 84067,84223,84145
 1.7000e+000 84295 -1.6287e+002 -7.8460e+002 -6.5482e+001 56192 84145,84223,84197
 1.7000e+000 84272 -6.4984e+000 -1.0443e+003  2.6005e+002 56192 84067,84119,84093
 1.7000e+000 84249 -5.8712e+002 -1.5750e+002  1.2380e+002 56192 84145,84197,84171
 1.7000e+000 84611 -2.2508e+002 -5.9302e+002  4.2807e+002 55538 84386,84490,84412
 1.7000e+000 84588 -2.4393e+002 -5.0651e+002  4.1694e+002 55538 84386,84516,84490
 1.7000e+000 84565 -4.3898e+002 -6.8497e+002  4.2487e+002 55538 84412,84490,84464
 1.7000e+000 84542 -2.5065e+002 -6.1802e+002  2.9986e+002 55538 84412,84464,84438
 1.7000e+000 84942 -4.2561e+002 -3.5700e+002  3.1953e+002 55084 84769,84847,84795
 1.7000e+000 84919 -4.2554e+002 -4.1338e+002  2.6178e+002 55084 84717,84847,84769
 1.7000e+000 84896 -4.6041e+002 -5.0411e+002  2.5816e+002 55084 84717,84769,84743
 1.7000e+000 84873 -5.0067e+002 -1.9132e+002  2.6891e+002 55084 84795,84847,84821
 1.7000e+000 85271 -6.3840e+001 -1.3591e+002  2.1304e+002 54580 85294,85098,85072
 1.7000e+000 85248 -4.8905e+002 -2.9925e+002  3.1473e+002 54580 85294,85072,85176
 1.7000e+000 85225 -7.1755e+002 -1.2594e+001  9.7163e+001 54580 85124,85176,85150
 1.7000e+000 85202 -1.2501e+002 -2.5988e+002  9.0761e+001 54580 85046,85176,85072
 1.7000e+000 85320 -4.4583e+002 -1.5294e+002  2.7164e+002 54580 85124,85098,85294
 1.7000e+000 85343 -6.6892e+002 -1.4739e+002  3.3928e+002 54580 85124,85294,85176
 1.7000e+000 85542 -2.7687e+002 -4.8389e+002  2.8812e+002 53976 85565,85444,85418
 1.7000e+000 85519 -3.0131e+002 -3.9257e+002  2.5687e+002 53976 85565,85418,85366
 1.7000e+000 85496 -2.3122e+002 -3.3267e+002  1.5061e+002 53976 85366,85418,85392
 1.7000e+000 85591 -3.2555e+002 -4.5018e+002  2.1020e+002 53976 85470,85444,85565
 1.7000e+000 85614 -2.6186e+002 -2.0521e+002  1.9673e+002 53976 85470,85565,85366
 1.7000e+000 85960 -5.6709e+002 -5.2061e+002  3.9297e+002 53572 85663,85715,85689
 1.7000e+000 85937 -5.0691e+002 -4.9711e+002  2.6109e+002 53572 85983,85715,85663
 1.7000e+000 85914 -5.9331e+002 -6.3073e+002  3.1780e+002 53572 86055,85983,85663
 1.7000e+000 85891 -5.5487e+002 -6.2443e+002  4.2314e+002 53572 86055,85663,85637
 1.7000e+000 85868 -8.6356e+002 -1.2728e+003  5.2258e+002 53572 85637,85793,85767
 1.7000e+000 85845 -1.5768e+003 -4.6033e+002  3.5003e+002 53572 85637,85819,85793
 1.7000e+000 86009 -5.7284e+002 -4.3148e+002  2.6692e+002 53572 85741,85715,85983
 1.7000e+000 86032 -5.6958e+002 -4.3464e+002  2.6557e+002 53572 85741,85983,85767
 1.7000e+000 86081 -5.1153e+002 -3.9007e+002  2.9624e+002 53572 85767,85983,86055
 1.7000e+000 86104 -5.3280e+002 -4.9874e+002  3.9485e+002 53572 85767,86055,85637
 1.7000e+000 86693 -7.6354e+002 -1.7981e+002  4.4427e+002 52946 86474,86526,86500
 1.7000e+000 86670 -1.0983e+001 -3.5306e+001  1.0311e+002 52946 86396,86526,86474
 1.7000e+000 86647 -5.9056e+002 -3.3319e+002  2.7767e+002 52946 86370,86526,86396
 1.7000e+000 86624  5.8100e+000 -2.3862e+000 -2.5297e+000 52946 86422,86474,86448
 1.7000e+000 86601 -9.9872e+001 -1.4930e+001  4.0185e+001 52946 86396,86474,86422
 1.7000e+000 86578 -6.8818e+002 -2.1219e+002  1.6979e+002 52946 86370,86552,86526
 1.7000e+000 87376 -4.0975e+002 -3.8474e+002  1.7195e+002 52420 87007,87085,87033
 1.7000e+000 87353 -3.5333e+002 -3.7491e+002  1.8010e+002 52420 87007,87163,87085
 1.7000e+000 87330 -4.8465e+002 -3.7318e+002  2.1009e+002 52420 87007,87189,87163
 1.7000e+000 87307 -4.3206e+002 -3.4488e+002  2.2401e+002 52420 87033,87085,87059
 1.7000e+000 87284 -4.6272e+002 -3.9659e+002  5.1903e+001 52420 87085,87137,87111
 1.7000e+000 87261 -3.0374e+002 -3.9335e+002  5.7893e+001 52420 87085,87163,87137
 1.7000e+000 87238 -3.5679e+002 -4.9972e+002  4.2321e+002 52420 86955,87189,87007
 1.7000e+000 87215 -2.3242e+002 -3.1067e+002  2.6576e+002 52420 86955,87007,86981
 1.7000e+000 87624 -2.9610e+002 -3.8998e+002  2.1959e+002 51916 87451,87503,87477
 1.7000e+000 87601 -1.6529e+002 -5.7446e+002  2.7188e+002 51916 87425,87503,87451
 1.7000e+000 87578 -2.3773e+002 -6.1403e+002  2.5658e+002 51916 87425,87529,87503
 1.7000e+000 87555 -1.2126e+002 -3.1080e+002  2.7922e+002 51916 87399,87529,87425
 1.7000e+000 88053 -4.7529e+002 -4.1029e+002  1.6381e+002 51568 87782,87834,87808
 1.7000e+000 88030 -5.9135e+002 -3.7457e+002  2.8786e+002 51568 88076,87782,87886
 1.7000e+000 88007 -5.2301e+002 -2.1761e+002  2.4327e+002 51568 88076,87886,87860
 1.7000e+000 87984 -7.3259e+002 -5.5173e+002  2.2676e+002 51568 87756,87886,87782
 1.7000e+000 87961 -5.4318e+002 -4.2677e+002  4.5766e+002 51568 87756,87912,87886
 1.7000e+000 87938 -6.3026e+002 -2.8634e+002  4.2530e+002 51568 87730,87912,87756
 1.7000e+000 88102 -4.9791e+002 -4.5204e+002  1.8393e+002 51568 87834,87782,88076
 1.7000e+000 88125 -4.3891e+002 -3.4802e+002  1.4466e+002 51568 87834,88076,87860
 1.7000e+000 88324 -4.0433e+002 -5.0432e+002  1.5390e+002 51164 88419,88347,88200
 1.7000e+000 88301 -3.1924e+002 -4.9949e+002  2.4800e+002 51164 88347,88148,88252
 1.7000e+000 88278 -4.9996e+002 -8.5477e+002  1.7703e+002 51164 88419,88200,88174
 1.7000e+000 88373 -2.9537e+002 -3.9990e+002  1.9650e+002 51164 88226,88200,88347
 1.7000e+000 88396 -3.9831e+001 -5.0714e+002  1.9985e+002 51164 88226,88347,88252
 1.7000e+000 88445 -5.1643e+002 -5.7517e+002  3.5987e+002 51164 88148,88347,88419
 1.7000e+000 88468 -4.9938e+002 -5.5193e+002  3.9951e+002 51164 88148,88419,88174
 1.7000e+000 88738 -4.2667e+002 -6.1171e+002  1.5377e+002 50560 88513,88617,88539
 1.7000e+000 88715 -3.0189e+002 -7.0858e+002  1.0651e+002 50560 88513,88643,88617
 1.7000e+000 88692 -2.0247e+002 -1.4152e+002  1.8725e+002 50560 88539,88591,88565
 1.7000e+000 88669 -1.6939e+002 -4.1638e+002  2.3948e+002 50560 88539,88617,88591
 1.7000e+000 88939 -5.1937e+002 -2.1666e+002  2.8109e+002 50106 88962,88789,88763
 1.7000e+000 88916 -3.5051e+002 -2.5229e+002  2.1590e+002 50106 88962,88763,88841
 1.7000e+000 88893 -5.2593e+002 -3.6069e+002  3.3044e+002 50106 88763,88867,88841
 1.7000e+000 88988 -3.6286e+002 -2.9251e+002  1.7027e+002 50106 88815,88789,88962
 1.7000e+000 89011 -2.5902e+002 -2.0490e+002  2.3792e+002 50106 89034,88962,88841
 1.7000e+000 89060 -1.7659e+002 -6.4616e+001  5.4229e+001 50106 88815,88962,89034
 1.7000e+000 89472 -2.7463e+002 -7.0495e+002  7.7372e+001 49666 89273,89351,89325
 1.7000e+000 89449 -4.0429e+002 -3.8678e+002  2.0006e+002 49666 89273,89377,89351
 1.7000e+000 89426 -3.5498e+002 -5.6768e+002  3.9882e+002 49666 89273,89325,89299
 1.7000e+000 89403 -4.2445e+002 -3.4438e+002  2.2882e+002 49666 89247,89377,89273
 1.7000e+000 89978 -3.2839e+002 -6.0837e+002 -2.1159e+001 49205 89681,89837,89733
 1.7000e+000 89955 -6.1418e+001 -3.2218e+002  1.4041e+002 49205 89655,89837,89681
 1.7000e+000 89932 -5.5219e+002 -7.1088e+002  2.9839e+002 49205 89785,89837,89811
 1.7000e+000 89909 -1.1507e+002 -4.0258e+002  1.1235e+002 49205 89733,89837,89785
 1.7000e+000 89886 -4.9923e+002 -5.3876e+002  2.4772e+002 49205 89733,89785,89759
 1.7000e+000 89863 -1.5431e+002 -2.6344e+002 -1.6501e+002 49205 89681,89733,89707
 1.7000e+000 90177 -3.1859e+002 -3.5426e+002  1.7594e+002 48865 90530,90200,90053
 1.7000e+000 90154 -2.7901e+002 -4.4958e+002  2.2221e+002 48865 90402,90200,90001
 1.7000e+000 90131 -3.9842e+002 -2.2836e+002  1.8228e+002 48865 90530,90053,90027
 1.7000e+000 90226 -3.7594e+002 -3.8420e+002  2.8576e+002 48865 90079,90053,90200
 1.7000e+000 90249 -3.3056e+002 -3.6682e+002  2.0981e+002 48865 90272,90200,90105
 1.7000e+000 90298 -2.3866e+002 -2.9627e+002  2.4145e+002 48865 90079,90200,90272
 1.7000e+000 90428 -2.4137e+002 -1.4489e+002  1.9286e+002 48865 90105,90200,90402
 1.7000e+000 90556 -3.7039e+002 -5.1618e+002  1.4950e+002 48865 90001,90200,90530
 1.7000e+000 90579 -4.4566e+002 -3.5310e+002  1.2470e+002 48865 90001,90530,90027
 1.7000e+000 90827 -3.9612e+002 -4.0366e+002  1.9852e+002 48404 90850,90654,90628
 1.7000e+000 90804 -4.0635e+002 -4.6932e+002  3.2473e+002 48404 90850,90628,90732
 1.7000e+000 90781 -2.8034e+002 -2.8830e+002  1.8416e+002 48404 90680,90732,90706
 1.7000e+000 90758 -5.5478e+002 -2.6891e+002  3.3732e+002 48404 90602,90732,90628
 1.7000e+000 90876 -3.8977e+002 -2.1350e+002  1.7198e+002 48404 90680,90654,90850
 1.7000e+000 90899 -4.0451e+002 -3.6175e+002  2.6912e+002 48404 90680,90850,90732
 1.7000e+000 91000 -2.2397e+002 -5.7857e+002  3.8876e+002 48156 90922,90974,90948
 1.7000e+000 91250 -2.3029e+002 -5.7621e+002  3.2480e+002 47752 91051,91103,91077
 1.7000e+000 91227 -1.6734e+002 -1.5381e+002  2.0535e+002 47752 91025,91103,91051
 1.7000e+000 91204 -6.4239e+002 -4.8434e+002  5.1460e+002 47752 91025,91155,91103
 1.7000e+000 91181 -7.1709e+002 -2.5717e+002  3.3341e+002 47752 91103,91155,91129
 1.7000e+000 91402 -3.2701e+002 -3.5323e+002  2.7089e+002 47191 91425,91301,91275
 1.7000e+000 91379 -2.6687e+002 -3.3141e+002  3.0641e+002 47191 91497,91425,91275
 1.7000e+000 91451 -3.4173e+002 -1.4400e+002  1.6057e+002 47191 91327,91301,91425
 1.7000e+000 91474 -4.2248e+002 -3.8428e+002  3.3019e+002 47191 91327,91425,91353
 1.7000e+000 91523 -3.9465e+002 -7.6029e+002  3.2770e+002 47191 91353,91425,91497
 1.7000e+000 91854 -3.2434e+002 -3.2856e+002  1.2495e+002 46744 91949,91877,91707
 1.7000e+000 91831 -3.6160e+002 -3.9855e+002  1.6767e+002 46744 91877,91655,91629
 1.7000e+000 91808 -3.2655e+002 -3.2225e+002  1.2120e+002 46744 91949,91707,91681
 1.7000e+000 91785 -6.3857e+002 -2.8062e+002 -2.3446e+001 46744 91629,91759,91733
 1.7000e+000 91903 -3.7045e+002 -3.6361e+002  1.4387e+002 46744 91733,91707,91877
 1.7000e+000 91926 -3.2631e+002 -3.4068e+002  1.5279e+002 46744 91733,91877,91629
 1.7000e+000 91975 -3.1340e+002 -3.8290e+002  1.4527e+002 46744 91655,91877,91949
 1.7000e+000 91998 -2.8019e+002 -3.5155e+002  1.3051e+002 46744 91655,91949,91681
 1.7000e+000 92378 -3.3066e+002 -1.4133e+002  2.0783e+002 46090 92130,92208,92182
 1.7000e+000 92355 -4.4457e+002 -1.9002e+002  2.1121e+002 46090 92104,92208,92130
 1.7000e+000 92332 -2.1763e+002 -3.6895e+002  1.9565e+002 46090 92104,92260,92208
 1.7000e+000 92309 -1.8849e+002 -1.2619e+002  1.5683e+002 46090 92208,92260,92234
 1.7000e+000 92286 -5.5707e+002 -1.8409e+002  2.4179e+002 46090 92130,92182,92156
 1.7000e+000 92626 -3.1059e+002 -4.0817e+002  1.6206e+002 45693 92721,92649,92505
 1.7000e+000 92603 -3.5203e+002 -4.1955e+002  3.3220e+002 45693 92649,92453,92427
 1.7000e+000 92580 -3.3258e+002 -3.3981e+002  1.5902e+002 45693 92721,92505,92479
 1.7000e+000 92557 -5.9856e+002 -5.6503e+002  4.1877e+002 45693 92401,92531,92427
 1.7000e+000 92675 -5.0901e+002 -3.9837e+002  2.1263e+002 45693 92531,92505,92649
 1.7000e+000 92698 -5.6084e+002 -5.0724e+002  4.3897e+002 45693 92531,92649,92427
 1.7000e+000 92747 -3.3827e+002 -3.2580e+002  1.6871e+002 45693 92453,92649,92721
 1.7000e+000 92770 -2.4269e+002 -1.0446e+002  2.0883e+002 45693 92453,92721,92479
 1.7000e+000 93172 -2.4276e+002 -4.1869e+002  3.6401e+002 45331 92898,93028,92924
 1.7000e+000 93149 -1.6244e+002 -4.0104e+002  2.4477e+002 45331 92898,93054,93028
 1.7000e+000 93126 -3.3719e+002 -2.8119e+002  4.1305e+002 45331 92924,93002,92976
 1.7000e+000 93103 -1.4094e+002 -3.7588e+002  3.5813e+002 45331 92924,93028,93002
 1.7000e+000 93080 -3.6552e+002 -4.3471e+002  4.2218e+002 45331 92924,92976,92950
 1.7000e+000 93518 -5.1949e+002 -6.7317e+002  3.4024e+002 44820 93613,93273,93247
 1.7000e+000 93495 -5.2913e+002 -5.1307e+002  2.7210e+002 44820 93685,93541,93247
 1.7000e+000 93472 -5.1871e+002 -3.3772e+002  2.2250e+002 44820 93541,93195,93377
 1.7000e+000 93449 -5.8782e+002 -4.3913e+002  2.1043e+002 44820 93685,93247,93221
 1.7000e+000 93426 -4.2760e+002 -5.2788e+002  2.9648e+002 44820 93299,93377,93351
 1.7000e+000 93403 -3.1049e+002 -3.7075e+002  3.5308e+002 44820 93299,93351,93325
 1.7000e+000 93567 -4.3870e+002 -6.7636e+002  2.1006e+002 44820 93613,93247,93541
 1.7000e+000 93590 -4.3840e+002 -5.1209e+002  1.4689e+002 44820 93299,93541,93377
 1.7000e+000 93639 -4.3345e+002 -7.6797e+002  2.4431e+002 44820 93299,93273,93613
 1.7000e+000 93662 -4.5883e+002 -7.6077e+002  2.1756e+002 44820 93299,93613,93541
 1.7000e+000 93711 -4.9877e+002 -3.6990e+002  1.8727e+002 44820 93195,93541,93685
 1.7000e+000 93734 -4.5129e+002 -1.2828e+002  1.2328e+002 44820 93195,93685,93221
 1.7000e+000 94163 -5.0209e+002 -5.6734e+002  2.1352e+002 44237 94258,94186,93996
 1.7000e+000 94140 -5.8308e+002 -6.2869e+002  1.3971e+002 44237 94330,94022,93996
 1.7000e+000 94117 -5.9816e+002 -6.0984e+002  1.6344e+002 44237 94186,93918,93866
 1.7000e+000 94094 -4.3379e+002 -4.6882e+002  2.5621e+002 44237 94258,93996,93970
 1.7000e+000 94071 -5.4822e+002 -3.7968e+002  2.3893e+002 44237 94402,93944,93918
 1.7000e+000 94048 -3.1197e+002 -5.3788e+002  1.7710e+002 44237 93866,93918,93892
 1.7000e+000 94212 -5.8247e+002 -6.3753e+002  1.8064e+002 44237 94330,93996,94186
 1.7000e+000 94235 -5.6895e+002 -5.4725e+002  2.0074e+002 44237 93840,94186,93866
 1.7000e+000 94284 -5.3823e+002 -4.7097e+002  1.5798e+002 44237 93918,94186,94258
 1.7000e+000 94307 -4.9630e+002 -4.0130e+002  1.8038e+002 44237 94402,93918,94258
 1.7000e+000 94356 -6.0799e+002 -2.6268e+002  2.4833e+001 44237 93840,94022,94330
 1.7000e+000 94379 -5.5166e+002 -5.5933e+002  1.9386e+002 44237 93840,94330,94186
 1.7000e+000 94428 -6.6398e+002 -4.8445e+002  2.8536e+002 44237 93970,93944,94402
 1.7000e+000 94451 -5.7600e+002 -4.8755e+002  2.2086e+002 44237 93970,94402,94258
 1.7000e+000 94908 -3.8442e+002 -3.7928e+002  8.6272e+001 43890 94660,94790,94712
 1.7000e+000 94885 -1.9693e+002 -1.7825e+002  1.6507e+002 43890 94634,94790,94660
 1.7000e+000 94862 -3.8064e+002 -1.5747e+002  1.7984e+002 43890 94712,94764,94738
 1.7000e+000 94839 -3.3162e+002 -3.1265e+002  1.7407e+002 43890 94712,94790,94764
 1.7000e+000 94816 -4.4636e+002 -2.4045e+002 -6.1370e+001 43890 94660,94712,94686
 1.7000e+000 95414 -3.3652e+002 -2.5151e+002  1.7178e+002 43186 95437,95143,95117
 1.7000e+000 95391 -3.8381e+002 -5.1772e+002  2.0761e+002 43186 95437,95117,95091
 1.7000e+000 95368 -1.3620e+002 -2.0639e+002  2.0780e+002 43186 95143,95221,95195
 1.7000e+000 95345 -6.1943e+002 -4.5075e+002  5.2912e+002 43186 95091,95273,95221
 1.7000e+000 95322 -3.6569e+002 -2.3342e+002  2.4855e+002 43186 95221,95273,95247
 1.7000e+000 95299 -2.3288e+002 -2.7943e+002  1.2858e+002 43186 95143,95195,95169
 1.7000e+000 95463 -3.2136e+002 -4.3303e+002  2.9827e+002 43186 95221,95143,95437
 1.7000e+000 95486 -3.3989e+002 -6.4496e+002  3.4309e+002 43186 95221,95437,95091
 1.7000e+000 96041 -6.2161e+002 -5.9025e+002  1.7107e+002 42782 95695,95851,95799
 1.7000e+000 96018 -5.7179e+002 -7.3947e+002  1.6632e+002 42782 95669,95851,95695
 1.7000e+000 95995 -5.5671e+002 -3.4057e+002  1.7930e+002 42782 95695,95747,95721
 1.7000e+000 95972 -4.4280e+002 -5.1229e+002  1.5959e+002 42782 95695,95799,95747
 1.7000e+000 95949 -3.8952e+002 -2.9885e+002  1.1261e+002 42782 95747,95799,95773
 1.7000e+000 95926 -7.2573e+002 -7.2650e+002  2.3176e+002 42782 95799,95851,95825
 1.7000e+000 95903 -8.1185e+002 -8.7048e+002  2.2467e+002 42782 95669,95877,95851
 1.7000e+000 96370 -5.7411e+002 -7.7223e+002  3.1133e+002 42420 96197,96275,96223
 1.7000e+000 96347 -5.2260e+002 -6.9218e+002  3.3634e+002 42420 96145,96275,96197
 1.7000e+000 96324 -5.5091e+002 -5.1794e+002  3.4960e+002 42420 96145,96197,96171
 1.7000e+000 96301 -4.2931e+002 -5.6767e+002  2.2022e+002 42420 96223,96275,96249
 1.7000e+000 96699 -2.3555e+002 -2.7257e+002  4.7005e+001 41816 96474,96578,96526
 1.7000e+000 96676 -2.9210e+002 -2.0055e+002 -4.9819e+001 41816 96474,96604,96578
 1.7000e+000 96653 -2.1600e+002 -2.6798e+002  4.9570e+001 41816 96526,96578,96552
 1.7000e+000 96630 -2.6461e+002 -3.3916e+002  5.1759e+001 41816 96474,96526,96500
 1.7000e+000 96947 -2.0761e+002 -4.9632e+002  1.8027e+002 41212 96722,96800,96748
 1.7000e+000 96924 -3.1448e+002 -3.9119e+002  2.3304e+002 41212 96722,96826,96800
 1.7000e+000 96901 -3.9449e+002 -4.2257e+002  2.3684e+002 41212 96722,96852,96826
 1.7000e+000 96878 -3.5572e+002 -5.7026e+002  1.3184e+002 41212 96748,96800,96774
 1.7000e+000 97097 -2.8452e+002 -1.0199e+002  2.7942e+002 40793 97120,97022,96996
 1.7000e+000 97074 -5.4154e+002 -6.3354e+002  1.7389e+002 40793 97192,97120,96996
 1.7000e+000 97146 -2.1490e+002 -5.2415e+002  2.4814e+002 40793 97324,97120,97048
 1.7000e+000 97169 -1.8567e+002 -8.5029e+002  2.3720e+002 40793 97048,97120,96970
 1.7000e+000 97218 -8.2197e+001 -4.3809e+002  1.7789e+002 40793 96970,97120,97192
 1.7000e+000 97350 -2.1490e+002 -5.2415e+002  2.4814e+002 40793 97022,97120,97324
 1.7000e+000 97878 -3.2717e+002 -6.6545e+002  1.4253e+002 40446 97901,97607,97555
 1.7000e+000 97855 -3.1964e+002 -4.5567e+002  1.4810e+002 40446 97973,97901,97555
 1.7000e+000 97832 -2.1791e+002 -3.7746e+002  1.0951e+002 40446 97973,97555,97737
 1.7000e+000 97809 -5.3900e+002 -7.6025e+002  2.4267e+002 40446 97633,97685,97659
 1.7000e+000 97786 -3.8181e+002 -5.5653e+002  1.3993e+002 40446 97633,97711,97685
 1.7000e+000 97763 -3.2366e+002 -7.7880e+002  1.7259e+002 40446 97555,97607,97581
 1.7000e+000 97927 -3.7088e+002 -8.3123e+002 -3.9345e+001 40446 97633,97607,97901
 1.7000e+000 97950 -3.1340e+002 -6.4131e+002  1.1719e+002 40446 97633,97901,97711
 1.7000e+000 97999 -1.6765e+002 -6.1753e+002  1.9700e+002 40446 97711,97901,97973
 1.7000e+000 98022 -8.2011e+001 -5.2472e+002  1.6104e+002 40446 97711,97973,97737
 1.7000e+000 98449 -2.4676e+002 -1.5571e+002  1.5504e+002 39935 98152,98204,98178
 1.7000e+000 98426 -3.7487e+002 -2.1580e+002  9.9265e+001 39935 98152,98230,98204
 1.7000e+000 98403 -5.3125e+002 -2.8982e+002  2.4167e+002 39935 98152,98256,98230
 1.7000e+000 98380 -3.6158e+002 -3.4270e+002  2.4881e+002 39935 98126,98256,98152
 1.7000e+000 98357 -5.0165e+002 -6.7579e+002  2.7320e+002 39935 98126,98282,98256
 1.7000e+000 98334 -2.7903e+002 -8.7683e+002  3.2878e+002 39935 98126,98308,98282
 1.7000e+000 98746 -8.1372e+002 -6.5735e+002  2.1259e+002 39531 98498,98602,98524
 1.7000e+000 98723 -5.6940e+002 -5.8097e+002  2.1851e+002 39531 98472,98602,98498
 1.7000e+000 98700 -8.5131e+002 -3.7928e+002  1.2402e+002 39531 98524,98602,98576
 1.7000e+000 98677 -4.3859e+002 -5.7402e+002  2.1910e+002 39531 98472,98628,98602
 1.7000e+000 98654 -1.1067e+003 -1.0082e+003 -3.0550e+002 39531 98524,98576,98550
 1.7000e+000 99224 -8.9127e+002 -4.3950e+002  6.9693e+002 39027 99247,98956,98930
 1.7000e+000 99201 -7.7634e+002 -3.3503e+002  3.0580e+002 39027 99247,98930,98878
 1.7000e+000 99178 -6.2172e+002 -4.6487e+002  3.7109e+002 39027 99319,98982,98956
 1.7000e+000 99155 -6.8363e+002 -3.3317e+002  2.0892e+002 39027 98852,99060,98878
 1.7000e+000 99132 -9.3306e+002 -3.6246e+002  3.1426e+002 39027 98878,98930,98904
 1.7000e+000 99109 -5.6425e+002 -9.5594e+002  4.7564e+002 39027 98982,99060,99034
 1.7000e+000 99086 -7.0115e+002 -1.1352e+003  6.9416e+002 39027 98982,99034,99008
 1.7000e+000 99273 -5.2274e+002 -3.0067e+002  4.3269e+002 39027 99319,98956,99247
 1.7000e+000 99296 -6.1749e+002 -2.7550e+002  2.3343e+002 39027 99060,99247,98878
 1.7000e+000 99345 -6.3562e+002 -5.4230e+002  2.8552e+002 39027 99060,98982,99319
 1.7000e+000 99368 -6.4746e+002 -5.0521e+002  3.2716e+002 39027 99060,99319,99247
 1.7000e+000 99923 -6.3740e+002 -5.4011e+002  2.6991e+002 38523 99946,99655,99603
 1.7000e+000 99900 -5.0714e+002 -4.8102e+002  2.8339e+002 38523 99946,99603,99759
 1.7000e+000 99877 -3.1931e+002 -6.7758e+002  3.4878e+002 38523 100018,99707,99681
 1.7000e+000 99854 -5.5100e+002 -3.3588e+002  2.6598e+002 38523 99551,99759,99603
 1.7000e+000 99831 -5.9928e+002 -3.8417e+002  3.0427e+002 38523 99551,99603,99577
 1.7000e+000 99808 -5.6082e+002 -7.8531e+002  2.0222e+002 38523 99707,99759,99733
 1.7000e+000 99785 -5.1705e+002 -4.5191e+002  2.2955e+002 38523 99603,99655,99629
 1.7000e+000 99972 -5.0941e+002 -2.8712e+002  3.2546e+002 38523 99681,99655,99946
 1.7000e+000 99995 -3.8077e+002 -3.9170e+002  4.0904e+002 38523 100018,99681,99946
 1.7000e+000 100044 -4.3222e+002 -7.9750e+002  2.1642e+002 38523 99759,99707,100018
 1.7000e+000 100067 -5.9154e+002 -6.8522e+002  2.7968e+002 38523 99759,100018,99946
 1.7000e+000 100467 -1.8609e+002 -2.1245e+002  1.1740e+002 38125 100219,100349,100323
 1.7000e+000 100444 -2.7689e+001 -7.9060e+001  2.0220e+002 38125 100193,100349,100219
 1.7000e+000 100421 -7.8946e+001 -3.1838e+002  1.1150e+002 38125 100245,100323,100297
 1.7000e+000 100398 -6.5618e+001 -1.5920e+002  1.2994e+002 38125 100219,100323,100245
 1.7000e+000 100375 -1.9032e+002 -3.3173e+002  1.8571e+002 38125 100245,100297,100271
 1.7000e+000 100666 -5.2933e+002 -7.9348e+002  2.2588e+002 37607 100689,100568,100542
 1.7000e+000 100643 -4.1073e+002 -4.4114e+002  2.0581e+002 37607 100689,100542,100490
 1.7000e+000 100620 -3.1305e+002 -2.8673e+002  1.6383e+002 37607 100490,100542,100516
 1.7000e+000 100715 -4.2192e+002 -4.5180e+002  1.6668e+002 37607 100594,100568,100689
 1.7000e+000 100738 -4.8649e+002 -3.5539e+002  1.7535e+002 37607 100594,100689,100490
 1.7000e+000 100937 -3.8820e+002 -2.6389e+002  3.6917e+002 37017 100960,100813,100787
 1.7000e+000 100914 -3.2890e+002 -2.8966e+002  2.0480e+002 37017 100960,100787,100761
 1.7000e+000 100891 -6.2294e+002 -2.1803e+002  3.6705e+002 37017 100813,100865,100839
 1.7000e+000 100986 -5.0709e+002 -4.4904e+002  4.3345e+002 37017 100865,100813,100960
 1.7000e+000 101009 -3.8636e+002 -4.1028e+002  2.5534e+002 37017 100865,100960,100761
 1.7000e+000 101519 -5.7576e+002 -2.7692e+002  1.4728e+002 36613 101222,101274,101248
 1.7000e+000 101496 -2.0518e+002 -1.5988e+002  1.3164e+002 36613 101222,101352,101274
 1.7000e+000 101473 -1.6109e+002 -2.4021e+002  5.2329e+001 36613 101274,101352,101326
 1.7000e+000 101450 -3.2777e+002 -1.2688e+002  1.4771e+002 36613 101222,101378,101352
 1.7000e+000 101427 -1.3134e+002 -4.4029e+002  7.9800e+001 36613 101274,101326,101300
 1.7000e+000 101404 -3.4994e+002 -1.3234e+002  8.2687e+001 36613 101196,101378,101222
 1.7000e+000 101718 -4.6988e+002 -4.2276e+002  4.7523e+002 36308 101594,101646,101620
 1.7000e+000 101695 -4.8322e+002 -2.2683e+002  3.0398e+002 36308 101568,101646,101594
 1.7000e+000 101672 -3.1236e+002 -3.1728e+002  3.2228e+002 36308 101542,101646,101568
 1.7000e+000 102098 -5.1360e+002 -3.5485e+002  2.0350e+002 35918 102121,101954,101876
 1.7000e+000 102075 -4.4133e+002 -5.0632e+002  1.2785e+002 35918 102121,101876,101824
 1.7000e+000 102052 -5.2637e+002 -3.6024e+002  1.8296e+002 35918 101876,101954,101928
 1.7000e+000 102029 -6.3308e+002 -1.2435e+002  1.8899e+002 35918 101876,101928,101902
 1.7000e+000 102006 -4.5837e+002 -6.2871e+002  2.4494e+002 35918 101824,101876,101850
 1.7000e+000 102147 -4.6765e+002 -4.9735e+002  2.7450e+002 35918 101980,101954,102121
 1.7000e+000 102170 -4.2172e+002 -6.8319e+002  1.7838e+002 35918 101980,102121,101824
 1.7000e+000 102489 -4.8883e+002 -1.1531e+003  3.4958e+002 35514 102241,102345,102267
 1.7000e+000 102466 -6.6873e+002 -1.2248e+003  3.6581e+002 35514 102215,102345,102241
 1.7000e+000 102443 -5.3889e+002 -1.3119e+003  3.7816e+002 35514 102215,102371,102345
 1.7000e+000 102420 -4.0529e+002 -9.7570e+002  4.0100e+002 35514 102267,102345,102293
 1.7000e+000 102397 -2.4429e+002 -6.4822e+002  4.5842e+002 35514 102293,102345,102319
 1.7000e+000 102820 -8.7084e+002 -4.9850e+002  1.1558e+002 35224 102843,102699,102647
 1.7000e+000 102797 -7.1475e+002 -6.0073e+002  2.3302e+002 35224 102971,102725,102699
 1.7000e+000 102774 -1.1202e+003 -7.4220e+002  5.8959e+002 35224 102595,102725,102621
 1.7000e+000 102751 -3.4154e+002 -2.5796e+002  2.5287e+002 35224 102647,102699,102673
 1.7000e+000 102869 -7.2534e+002 -4.4061e+002  1.8111e+002 35224 102971,102699,102843
 1.7000e+000 102997 -6.5950e+002 -7.2652e+002  1.9945e+002 35224 102621,102725,102971
 1.7000e+000 103020 -7.2016e+002 -6.2927e+002  1.2846e+002 35224 102621,102971,102843
 1.7000e+000 103349 -6.7310e+002 -4.9222e+002  3.0571e+002 34820 103150,103228,103176
 1.7000e+000 103326 -5.5972e+002 -5.6229e+002  2.9357e+002 34820 103124,103228,103150
 1.7000e+000 103303 -5.3707e+002 -5.4610e+002  5.3050e+002 34820 103176,103228,103202
 1.7000e+000 103280 -3.7057e+002 -4.7806e+002  3.5112e+002 34820 103124,103254,103228
 1.7000e+000 103806 -5.2886e+002 -4.1494e+002  1.5923e+002 34530 103558,103662,103636
 1.7000e+000 103783 -5.4352e+002 -4.2574e+002  1.5180e+002 34530 103558,103688,103662
 1.7000e+000 103760 -6.1934e+002 -6.4761e+002  1.6112e+002 34530 103532,103688,103558
 1.7000e+000 103737 -3.1307e+002 -4.9972e+002  1.7000e+002 34530 103584,103636,103610
 1.7000e+000 103714 -8.7122e+002 -5.2728e+002  2.0170e+002 34530 103558,103636,103584
 1.7000e+000 104263 -3.0615e+002 -3.9758e+002  2.4919e+002 34019 103989,104119,104015
 1.7000e+000 104240 -2.6310e+002 -3.7141e+002  2.8552e+002 34019 103989,104145,104119
 1.7000e+000 104217 -3.1667e+002 -4.3280e+002  1.4667e+002 34019 104015,104067,104041
 1.7000e+000 104194 -3.7229e+002 -4.7446e+002  2.2062e+002 34019 104015,104119,104067
 1.7000e+000 104171 -3.3963e+002 -3.0323e+002  1.9968e+002 34019 104067,104119,104093
 1.7000e+000 104641 -4.6197e+002 -2.4093e+002  1.8941e+002 33351 104419,104497,104445
 1.7000e+000 104618 -2.6410e+002 -1.4735e+002  2.2008e+002 33351 104393,104497,104419
 1.7000e+000 104595 -5.1483e+002 -2.7548e+002  3.8925e+001 33351 104367,104497,104393
 1.7000e+000 104572 -5.3050e+002 -4.1559e+002  2.5821e+002 33351 104445,104497,104471
 1.7000e+000 104549 -5.2037e+002 -5.4968e+002 -1.5411e+001 33351 104367,104523,104497
 1.7000e+000 105019 -4.3561e+002 -9.2773e+002  4.5678e+002 32861 104823,104901,104875
 1.7000e+000 104996 -6.1566e+002 -1.0972e+003  3.7675e+002 32861 104745,104901,104823
 1.7000e+000 104973 -6.2664e+002 -1.0097e+003  4.0097e+002 32861 104823,104875,104849
 1.7000e+000 104950 -6.2335e+002 -1.0948e+003  5.2946e+002 32861 104745,104823,104797
 1.7000e+000 104927 -7.2864e+002 -4.2468e+002  5.5518e+002 32861 104745,104797,104771
 1.7000e+000 105397 -3.1183e+002 -6.5108e+002  2.7609e+002 32457 105149,105253,105175
 1.7000e+000 105374 -4.6080e+002 -5.4507e+002  2.2609e+002 32457 105149,105279,105253
 1.7000e+000 105351 -4.1372e+002 -4.5316e+002  2.7714e+002 32457 105123,105279,105149
 1.7000e+000 105328 -3.6401e+002 -1.1354e+002  2.7315e+002 32457 105175,105227,105201
 1.7000e+000 105305 -6.0391e+002 -7.7631e+002  2.7552e+002 32457 105175,105253,105227
 1.7000e+000 105726 -2.1739e+002 -6.5472e+002  2.7672e+002 32003 105527,105605,105553
 1.7000e+000 105703 -3.3974e+002 -5.7229e+002  2.6682e+002 32003 105501,105605,105527
 1.7000e+000 105680 -1.7638e+002 -5.0898e+002  2.6552e+002 32003 105501,105631,105605
 1.7000e+000 105657 -1.0216e+002 -3.9456e+002  2.4811e+002 32003 105553,105605,105579
 1.7000e+000 106104 -4.7883e+002 -5.8339e+002  1.8788e+002 31492 106127,105908,105856
 1.7000e+000 106081 -3.5855e+002 -5.1796e+002  1.1181e+002 31492 106127,105856,105830
 1.7000e+000 106058 -3.4748e+002 -8.2890e+002  2.2505e+002 31492 105856,105908,105882
 1.7000e+000 106035 -1.1039e+002 -3.8297e+002  8.5953e+001 31492 105830,105986,105960
 1.7000e+000 106012 -2.0433e+002 -7.3169e+002  3.7830e+002 31492 105908,105960,105934
 1.7000e+000 106153 -5.2697e+002 -6.0836e+002  2.4853e+002 31492 105960,105908,106127
 1.7000e+000 106176 -4.6662e+002 -6.0985e+002  1.8299e+002 31492 105960,106127,105830
 1.7000e+000 106375 -4.9250e+002 -5.4778e+002  3.4395e+002 30788 106398,106277,106251
 1.7000e+000 106352 -5.5214e+002 -7.0579e+002  3.2896e+002 30788 106398,106251,106225
 1.7000e+000 106329 -7.5361e+002 -5.4095e+002  4.8250e+002 30788 106600,106199,106303
 1.7000e+000 106424 -6.4980e+002 -7.9619e+002  2.4535e+002 30788 106470,106398,106303
 1.7000e+000 106447 -5.1260e+002 -6.4118e+002  3.1058e+002 30788 106600,106303,106398
 1.7000e+000 106496 -1.8426e+002 -5.9866e+002  2.7166e+002 30788 106277,106398,106470
 1.7000e+000 106626 -9.0464e+002 -7.4784e+002  6.0212e+002 30788 106225,106199,106600
 1.7000e+000 106649 -7.3419e+002 -8.5524e+002  4.2734e+002 30788 106225,106600,106398
 1.7000e+000 106799 -2.1736e+002 -9.4529e+002  2.7713e+000 30426 106698,106750,106724
 1.7000e+000 106776 -2.1976e+002 -5.1290e+002  2.7840e+001 30426 106672,106750,106698
 1.7000e+000 107356 -6.1464e+002 -4.4602e+002  1.9097e+002 29972 107010,107166,107114
 1.7000e+000 107333 -5.7679e+002 -3.8151e+002  2.5933e+002 29972 106984,107166,107010
 1.7000e+000 107310 -5.5661e+002 -2.7959e+002  1.2177e+002 29972 107010,107114,107088
 1.7000e+000 107287 -5.4215e+002 -1.9059e+002  1.7247e+002 29972 107114,107166,107140
 1.7000e+000 107264 -5.5687e+002 -5.1008e+002  3.3474e+002 29972 106984,107192,107166
 1.7000e+000 107241 -6.5671e+002 -4.5979e+002  1.6145e+002 29972 107010,107088,107036
 1.7000e+000 107218 -4.1533e+002 -3.4116e+002  9.2186e+001 29972 107036,107088,107062
 1.7000e+000 107783 -6.0765e+002 -8.3313e+002  3.9312e+002 29724 107878,107806,107590
 1.7000e+000 107760 -7.4377e+002 -8.6892e+002  3.2680e+002 29724 107806,107512,107486
 1.7000e+000 107737 -6.2744e+002 -7.9065e+002  4.5562e+002 29724 107878,107590,107538
 1.7000e+000 107714 -5.8914e+002 -9.1301e+002  4.2364e+002 29724 107950,107460,107616
 1.7000e+000 107691 -5.3330e+002 -8.7776e+002  3.9229e+002 29724 107460,107642,107616
 1.7000e+000 107668 -4.2353e+002 -6.4147e+002  5.2206e+002 29724 107538,107590,107564
 1.7000e+000 107832 -4.1303e+002 -8.1874e+002  4.5615e+002 29724 107616,107590,107806
 1.7000e+000 107855 -5.9741e+002 -9.2086e+002  4.0552e+002 29724 107950,107616,107806
 1.7000e+000 107904 -5.7122e+002 -7.3595e+002  3.9606e+002 29724 107512,107806,107878
 1.7000e+000 107927 -5.6873e+002 -6.6586e+002  4.7159e+002 29724 107512,107878,107538
 1.7000e+000 107976 -3.4736e+002 -9.3038e+002  4.7171e+002 29724 107486,107460,107950
 1.7000e+000 107999 -5.6941e+002 -9.8753e+002  3.9142e+002 29724 107486,107950,107806
 1.7000e+000 108296 -6.3199e+002 -5.2800e+002  3.4101e+002 29206 108319,108100,108048
 1.7000e+000 108273 -3.7521e+002 -4.7231e+002  3.9825e+002 29206 108319,108048,108022
 1.7000e+000 108250 -2.0605e+002 -5.6589e+002  4.7937e+002 29206 108391,108152,108126
 1.7000e+000 108227 -7.4791e+002 -3.8280e+002  4.2551e+002 29206 108048,108100,108074
 1.7000e+000 108204 -2.9573e+002 -7.6820e+002  4.0775e+002 29206 108022,108178,108152
 1.7000e+000 108345 -4.6572e+002 -3.3480e+002  4.8895e+002 29206 108126,108100,108319
 1.7000e+000 108368 -2.6921e+002 -4.6178e+002  5.4085e+002 29206 108391,108126,108319
 1.7000e+000 108417 -3.7377e+002 -6.9513e+002  4.0922e+002 29206 108022,108152,108391
 1.7000e+000 108440 -4.2175e+002 -6.1573e+002  4.7364e+002 29206 108022,108391,108319
 1.7000e+000 108688 -7.0385e+002 -8.0444e+002  4.0947e+002 28595 108711,108541,108515
 1.7000e+000 108665 -9.9277e+002 -8.7311e+002  6.1592e+002 28595 108783,108711,108515
 1.7000e+000 108642 -1.2227e+003 -7.5467e+002  6.2452e+002 28595 108783,108515,108489
 1.7000e+000 108619 -1.2539e+003 -9.3161e+002  3.3193e+002 28595 108463,108593,108489
 1.7000e+000 108737 -6.3028e+002 -6.0337e+002  2.8686e+002 28595 108567,108541,108711
 1.7000e+000 108760 -5.3007e+002 -6.9573e+002  5.3458e+002 28595 108567,108711,108593
 1.7000e+000 108809 -6.4978e+002 -8.6791e+002  4.6392e+002 28595 108593,108711,108783
 1.7000e+000 108832 -9.7868e+002 -7.9950e+002  4.1891e+002 28595 108593,108783,108489
 1.7000e+000 109033 -2.3582e+002 -3.7967e+002  1.7665e+002 28091 108909,108961,108935
 1.7000e+000 109010 -3.1710e+002 -3.4986e+002  1.6309e+002 28091 108857,108961,108909
 1.7000e+000 108987 -5.1882e+002 -5.4405e+002  4.1069e+002 28091 108857,108909,108883
 1.7000e+000 109136 -5.0674e+002 -1.1997e+003  2.1383e+002 27587 109058,109110,109084
 1.7000e+000 109695 -6.1552e+002 -5.6323e+002  1.9579e+002 26969 109718,109375,109323
 1.7000e+000 109672 -5.8057e+002 -5.1454e+002  1.5530e+002 26969 109718,109323,109505
 1.7000e+000 109649 -6.5423e+002 -1.8720e+002  7.7943e+001 26969 109790,109453,109427
 1.7000e+000 109626 -2.1753e+002 -6.0007e+002  2.5627e+002 26969 109323,109375,109349
 1.7000e+000 109603 -5.9290e+002 -6.0023e+002  2.0408e+002 26969 109323,109531,109505
 1.7000e+000 109580 -2.7901e+002 -5.2598e+002  6.1626e+001 26969 109375,109427,109401
 1.7000e+000 109557 -7.0832e+002 -3.4322e+002  1.7958e+002 26969 109453,109505,109479
 1.7000e+000 109744 -5.9371e+002 -5.8680e+002  8.7710e+001 26969 109427,109375,109718
 1.7000e+000 109767 -5.0991e+002 -3.3421e+002  5.5801e+001 26969 109790,109427,109718
 1.7000e+000 109816 -7.0908e+002 -3.4929e+002  1.4322e+002 26969 109505,109453,109790
 1.7000e+000 109839 -6.1247e+002 -5.3459e+002  1.4574e+002 26969 109505,109790,109718
 1.7000e+000 110266 -4.0597e+002 -6.0608e+002  2.3555e+002 26515 110361,110289,110099
 1.7000e+000 110243 -3.2552e+002 -4.6588e+002  2.7614e+002 26515 110289,109995,109943
 1.7000e+000 110220 -4.8932e+002 -6.3961e+002  2.3165e+002 26515 110361,110099,110021
 1.7000e+000 110197 -4.4603e+002 -1.2540e+003  1.5546e+002 26515 110047,110099,110073
 1.7000e+000 110174 -4.9352e+002 -1.1514e+003 -5.3794e+001 26515 110021,110099,110047
 1.7000e+000 110151  2.2019e+001 -1.5759e+001  4.3315e+002 26515 109943,109995,109969
 1.7000e+000 110315 -6.2964e+002 -4.2285e+002  1.9842e+002 26515 110125,110099,110289
 1.7000e+000 110338 -4.3274e+002 -1.6617e+002  4.0612e+002 26515 110125,110289,109943
 1.7000e+000 110387 -4.8371e+002 -5.8007e+002  1.4468e+002 26515 109995,110289,110361
 1.7000e+000 110410 -5.5195e+002 -6.0105e+002  1.4715e+002 26515 109995,110361,110021
 1.7000e+000 110609 -1.8840e+002 -7.2813e+002  2.5462e+002 25789 110906,110762,110632
 1.7000e+000 110586 -2.0055e+002 -8.8561e+002  2.8457e+002 25789 110762,110433,110537
 1.7000e+000 110563 -4.6520e+002 -8.1341e+002  4.3262e+002 25789 110834,110459,110433
 1.7000e+000 110658 -2.7901e+002 -7.0961e+002  3.2707e+002 25789 110906,110632,110834
 1.7000e+000 110788 -1.4074e+002 -5.0364e+002  1.7503e+002 25789 110511,110632,110762
 1.7000e+000 110811 -1.8129e+002 -7.2804e+002  2.9278e+002 25789 110511,110762,110537
 1.7000e+000 110860 -2.9604e+002 -7.1656e+002  3.8311e+002 25789 110485,110459,110834
 1.7000e+000 110883 -3.6016e+002 -7.2551e+002  3.3751e+002 25789 110485,110834,110632
 1.7000e+000 110932 -3.8549e+002 -7.9075e+002  2.7243e+002 25789 110433,110762,110906
 1.7000e+000 110955 -4.5740e+002 -7.4799e+002  3.3074e+002 25789 110433,110906,110834
 1.7000e+000 111350 -4.9870e+002 -6.6203e+002  3.9470e+002 25228 111445,111373,111186
 1.7000e+000 111327 -5.6306e+002 -6.7687e+002  1.5956e+002 25228 110978,111186,111004
 1.7000e+000 111304 -5.4957e+002 -8.1893e+002  3.2974e+002 25228 111373,111108,111082
 1.7000e+000 111281 -4.6062e+002 -8.8813e+002  3.3687e+002 25228 111134,111186,111160
 1.7000e+000 111258 -4.8096e+002 -6.3851e+002  4.0872e+002 25228 111445,111186,111134
 1.7000e+000 111235 -4.7225e+002 -5.5769e+002  2.2671e+002 25228 111517,111030,111004
 1.7000e+000 111212 -6.9890e+002 -6.7914e+002  3.4920e+002 25228 111030,111082,111056
 1.7000e+000 111399 -5.1168e+002 -7.3691e+002  3.7715e+002 25228 111004,111186,111373
 1.7000e+000 111422 -4.0599e+002 -6.2707e+002  3.0561e+002 25228 111517,111004,111373
 1.7000e+000 111471 -5.3704e+002 -6.5666e+002  3.5286e+002 25228 111108,111373,111445
 1.7000e+000 111494 -5.1520e+002 -6.2562e+002  3.6807e+002 25228 111108,111445,111134
 1.7000e+000 111543 -5.9960e+002 -6.1097e+002  2.8881e+002 25228 111082,111030,111517
 1.7000e+000 111566 -5.3543e+002 -7.0178e+002  3.6961e+002 25228 111082,111517,111373
 1.7000e+000 112074 -4.6501e+002 -5.3441e+002  3.0244e+002 24338 112097,111907,111881
 1.7000e+000 112051 -6.3995e+002 -5.4410e+002  2.1897e+002 24338 112097,111881,111829
 1.7000e+000 112028 -3.2923e+002 -6.1953e+002  1.4616e+002 24338 111829,111881,111855
 1.7000e+000 112005 -8.3745e+002 -8.1009e+002  2.1348e+002 24338 111777,111933,111829
 1.7000e+000 111982 -1.0642e+003 -2.4027e+002  2.5721e+002 24338 111751,111933,111777
 1.7000e+000 111959 -9.0533e+002 -8.2185e+002  2.1558e+002 24338 111777,111829,111803
 1.7000e+000 112123 -6.2038e+002 -7.1464e+002  2.0199e+002 24338 111933,111907,112097
 1.7000e+000 112146 -7.2260e+002 -5.5737e+002  1.7115e+002 24338 111933,112097,111829
 1.7000e+000 112443 -7.3227e+002 -5.4184e+002  3.3677e+002 23998 112466,112299,112247
 1.7000e+000 112420 -7.7491e+002 -8.8882e+002  2.7633e+002 23998 112466,112247,112221
 1.7000e+000 112397 -6.2227e+002 -9.5468e+002  4.3621e+002 23998 112169,112325,112221
 1.7000e+000 112374 -6.7648e+002 -7.8763e+002  3.6644e+002 23998 112169,112221,112195
 1.7000e+000 112351 -2.5577e+002 -5.1198e+002  3.7630e+002 23998 112247,112299,112273
 1.7000e+000 112492 -6.5015e+002 -6.0169e+002  5.3752e+002 23998 112325,112299,112466
 1.7000e+000 112515 -7.2779e+002 -7.9806e+002  4.4553e+002 23998 112325,112466,112221
 1.7000e+000 113200 -7.0788e+002 -8.6272e+002  5.5989e+002 23480 112779,112961,112805
 1.7000e+000 113177 -7.6077e+002 -5.9460e+002  2.5941e+002 23480 112779,112987,112961
 1.7000e+000 113154 -2.3783e+002 -4.8750e+002  3.6456e+002 23480 112805,112961,112883
 1.7000e+000 113131 -4.8143e+002 -7.9976e+002  3.9324e+002 23480 112883,112935,112909
 1.7000e+000 113108 -6.0266e+002 -6.4221e+002  4.0321e+002 23480 112883,112961,112935
 1.7000e+000 113085 -3.1739e+002 -4.1077e+002  1.9819e+002 23480 112831,112883,112857
 1.7000e+000 113062 -4.1466e+002 -4.8485e+002  2.4184e+002 23480 112805,112883,112831
 1.7000e+000 113039 -8.1406e+002 -4.7422e+002  2.7157e+002 23480 112779,113013,112987
 1.7000e+000 113676 -6.7059e+002 -3.7735e+002  5.0372e+002 23018 113699,113434,113356
 1.7000e+000 113653 -6.0463e+002 -3.6643e+002  2.8658e+002 23018 113771,113699,113356
 1.7000e+000 113630 -5.5071e+002 -5.4603e+002  2.0242e+002 23018 113771,113356,113512
 1.7000e+000 113607 -3.8744e+002 -7.6499e+002  3.2961e+002 23018 113330,113512,113356
 1.7000e+000 113584 -1.3080e+003 -7.2320e+002  7.4696e+002 23018 113356,113434,113382
 1.7000e+000 113561 -1.4358e+002 -7.1865e+002  3.1945e+002 23018 113304,113512,113330
 1.7000e+000 113538 -1.3205e+003 -2.2695e+002  3.3819e+002 23018 113382,113434,113408
 1.7000e+000 113725 -7.5266e+002 -5.7707e+002  5.1189e+002 23018 113460,113434,113699
 1.7000e+000 113748 -7.7840e+002 -6.0219e+002  3.4098e+002 23018 113460,113699,113486
 1.7000e+000 113797 -7.5430e+002 -6.3547e+002  3.4526e+002 23018 113486,113699,113771
 1.7000e+000 113820 -6.1219e+002 -6.7251e+002  2.2208e+002 23018 113486,113771,113512
 1.7000e+000 114424 -7.0166e+002 -6.2787e+002  1.2757e+002 22514 114447,114133,114029
 1.7000e+000 114401 -7.1758e+002 -7.8446e+002  1.2692e+002 22514 114447,114029,114237
 1.7000e+000 114378 -7.6307e+002 -4.5261e+002  6.3229e+001 22514 114133,114211,114185
 1.7000e+000 114355 -1.1454e+003 -4.9950e+002  2.0593e+001 22514 114133,114185,114159
 1.7000e+000 114332 -5.2532e+002 -8.0577e+002  3.1203e+002 22514 114003,114237,114029
 1.7000e+000 114309 -7.8758e+002 -6.0044e+002  5.9080e+001 22514 114029,114133,114055
 1.7000e+000 114286 -9.1803e+002 -5.9381e+002  1.2241e+002 22514 114055,114133,114107
 1.7000e+000 114263 -7.0240e+002 -4.2926e+001  1.7496e+002 22514 114055,114107,114081
 1.7000e+000 114473 -7.4571e+002 -5.4505e+002  1.9329e+002 22514 114211,114133,114447
 1.7000e+000 114496 -7.3316e+002 -6.6002e+002  1.8921e+002 22514 114211,114447,114237
 1.7000e+000 114597 -3.5503e+002 -9.1278e+002  4.7445e+002 22316 114620,114571,114545
 1.7000e+000 114646 -3.5503e+002 -9.1278e+002  4.7445e+002 22316 114519,114571,114620
 1.7000e+000 115127 -9.3064e+002 -5.9936e+002  3.3166e+002 21612 115150,114905,114879
 1.7000e+000 115104 -1.0945e+003 -3.7758e+002  3.6196e+002 21612 115150,114879,114853
 1.7000e+000 115081 -7.0044e+002 -2.2530e+002  4.5728e+002 21612 115222,114931,114905
 1.7000e+000 115058 -8.0219e+002 -4.9562e+002  3.7342e+002 21612 115222,114905,115009
 1.7000e+000 115035 -4.4649e+002 -6.1218e+002  2.3892e+002 21612 114957,115009,114983
 1.7000e+000 115176 -8.3823e+002 -4.6163e+002  2.8676e+002 21612 115009,114905,115150
 1.7000e+000 115199 -9.7628e+002 -2.0303e+002  3.0483e+002 21612 115009,115150,114853
 1.7000e+000 115248 -6.6701e+002 -4.8469e+002  3.5550e+002 21612 114957,114931,115222
 1.7000e+000 115271 -7.6405e+002 -7.4601e+002  2.7052e+002 21612 114957,115222,115009
 1.7000e+000 115519 -2.1132e+002  1.0365e+002  2.3784e+002 21208 115542,115372,115320
 1.7000e+000 115496  4.4472e+000  2.6288e+002  1.6371e+001 21208 115542,115320,115294
 1.7000e+000 115473 -1.4803e+002 -3.8490e+002  3.2853e+002 21208 115320,115372,115346
 1.7000e+000 115450 -4.5975e+002 -1.4797e+002  1.2598e+002 21208 115294,115424,115398
 1.7000e+000 115568 -3.0356e+002  1.1045e+001  3.2797e+002 21208 115398,115372,115542
 1.7000e+000 115591 -2.2789e+002 -1.1768e+002  1.4264e+002 21208 115398,115542,115294
 1.7000e+000 115839 -6.3871e+002 -4.5264e+002  4.0089e+002 20668 115862,115640,115614
 1.7000e+000 115816 -6.8875e+002 -4.9895e+002  4.2709e+002 20668 115862,115614,115744
 1.7000e+000 115793 -8.6507e+002 -3.7153e+002  4.0180e+002 20668 115640,115718,115692
 1.7000e+000 115770 -9.3598e+002 -3.5966e+002  3.8341e+002 20668 115640,115692,115666
 1.7000e+000 115888 -7.0929e+002 -3.6052e+002  4.4382e+002 20668 115718,115640,115862
 1.7000e+000 115911 -7.7601e+002 -4.5350e+002  4.8191e+002 20668 115718,115862,115744
 1.7000e+000 116134 -4.1425e+002 -7.0246e+002  3.9539e+002 20264 115958,116036,115984
 1.7000e+000 116111 -2.4537e+002 -6.2566e+002  3.7846e+002 20264 115958,116062,116036
 1.7000e+000 116088 -2.5062e+002 -6.5332e+002  4.2943e+002 20264 115984,116036,116010
 1.7000e+000 116384 -6.5372e+002 -4.4338e+002  4.4842e+002 19924 116407,116211,116159
 1.7000e+000 116361 -6.1965e+002 -7.3421e+002  3.6690e+002 19924 116407,116159,116263
 1.7000e+000 116338 -6.2258e+002 -3.0535e+002  4.3895e+002 19924 116159,116211,116185
 1.7000e+000 116315 -4.1325e+002 -7.4759e+002  4.5526e+002 19924 116159,116289,116263
 1.7000e+000 116433 -6.2815e+002 -2.8270e+002  5.2060e+002 19924 116237,116211,116407
 1.7000e+000 116456 -4.8244e+002 -4.7698e+002  4.7516e+002 19924 116237,116407,116263
 1.7000e+000 116608 -4.6968e+002 -1.3911e+002  3.1416e+002 19520 116703,116631,116533
 1.7000e+000 116585 -4.6080e+002 -1.9534e+002  2.6220e+002 19520 116631,116507,116481
 1.7000e+000 116657 -3.5733e+002 -2.0581e+002  3.3325e+002 19520 116559,116533,116631
 1.7000e+000 116680 -4.2795e+002 -3.4946e+002  2.6681e+002 19520 116559,116631,116481
 1.7000e+000 116729 -4.6968e+002 -1.3911e+002  3.1416e+002 19520 116507,116631,116703
 1.7000e+000 116952 -5.4140e+002 -5.0825e+002  6.7814e+002 19208 116975,116802,116776
 1.7000e+000 116929 -6.9890e+002 -9.2408e+002  3.9400e+002 19208 116975,116776,116880
 1.7000e+000 116906 -8.0569e+002 -3.4067e+002  4.7498e+002 19208 116802,116854,116828
 1.7000e+000 117001 -4.2916e+002 -4.3218e+002  7.1347e+002 19208 116854,116802,116975
 1.7000e+000 117024 -1.8003e+002 -5.3915e+002  5.6735e+002 19208 116854,116975,116880
 1.7000e+000 117428 -5.9032e+002 -2.1535e+002  3.8012e+002 18796 117154,117206,117180
 1.7000e+000 117405 -4.0720e+002 -4.6096e+002  3.3470e+002 18796 117154,117284,117206
 1.7000e+000 117382 -2.5844e+002 -3.9593e+002  3.4543e+002 18796 117154,117310,117284
 1.7000e+000 117359 -2.2880e+002 -3.3052e+002  4.4006e+002 18796 117206,117284,117258
 1.7000e+000 117336 -3.8000e+001 -6.3661e+001  6.0855e+002 18796 117206,117258,117232
 1.7000e+000 117529 -3.0455e+002 -1.7602e+002  1.8980e+002 18228 117810,117552,117477
 1.7000e+000 117578 -6.3049e+002 -4.4347e+002  2.7361e+002 18228 117682,117552,117503
 1.7000e+000 117708 -2.2406e+002 -2.3165e+002  1.7875e+002 18228 117477,117552,117682
 1.7000e+000 117836 -4.4193e+002 -4.4603e+002  2.5281e+002 18228 117451,117552,117810
 1.7000e+000 118364 -7.1605e+002 -2.2493e+002  2.7720e+002 17722 118067,118223,118093
 1.7000e+000 118341 -6.6666e+002 -1.3398e+002  2.9702e+002 17722 118041,118223,118067
 1.7000e+000 118318 -4.0319e+002 -2.0938e+002  1.9021e+002 17722 118093,118223,118197
 1.7000e+000 118295 -1.0347e+003 -1.0713e+003  6.8135e+002 17722 118119,118197,118171
 1.7000e+000 118272 -2.0260e+002 -2.5298e+001  3.0516e+002 17722 118093,118197,118119
 1.7000e+000 118249 -8.9691e+002 -5.9555e+002  6.7749e+002 17722 118119,118171,118145
 1.7000e+000 118514 -1.0861e+003 -4.2392e+002  3.8906e+002 17268 118387,118439,118413
 1.7000e+000 118491 -5.8035e+001 -4.3549e+002  3.6759e+002 17268 118387,118465,118439
 1.7000e+000 118916 -9.6393e+002 -3.2372e+002  2.7076e+002 16828 118668,118772,118694
 1.7000e+000 118893 -1.2014e+003 -4.4293e+002  2.2854e+002 16828 118668,118798,118772
 1.7000e+000 118870 -1.3316e+003 -7.9019e+002  1.8716e+002 16828 118642,118798,118668
 1.7000e+000 118847 -4.6902e+002 -1.9047e+002  4.4693e+002 16828 118694,118746,118720
 1.7000e+000 118824 -1.0172e+003 -5.4595e+002  2.3425e+002 16828 118694,118772,118746
 1.7000e+000 119316 -4.0966e+002 -3.2528e+002  4.5298e+002 16422 119042,119172,119094
 1.7000e+000 119293 -5.2884e+002 -3.5926e+002  4.6002e+002 16422 119042,119198,119172
 1.7000e+000 119270 -6.4267e+002 -1.9254e+002  2.7166e+002 16422 119042,119094,119068
 1.7000e+000 119247 -2.2915e+002 -1.5411e+002  6.4341e+002 16422 119094,119146,119120
 1.7000e+000 119224 -3.4745e+002 -2.1880e+002  4.7980e+002 16422 119094,119172,119146
 1.7000e+000 119466 -1.3040e+003 -2.6004e+002 -1.1696e+002 16010 119339,119391,119365
 1.7000e+000 119443 -6.0952e+002 -4.2873e+002  2.9365e+002 16010 119339,119417,119391
 1.7000e+000 119616 -2.1958e+002 -5.2694e+001  3.5643e+002 15547 119515,119567,119541
 1.7000e+000 119593  2.1608e+002  2.6901e+002  8.0909e+002 15547 119489,119567,119515
 1.7000e+000 119719 -7.8814e+002 -2.9773e+002  3.8333e+002 421 119641,119693,119667
 1.8000e+000 69562 -7.7036e+002 -3.7535e+002  6.4115e+002 69254 69484,69536,69510
 1.8000e+000 70009 -3.7803e+002 -3.7827e+002  3.3845e+002 68942 69686,69842,69816
 1.8000e+000 69986 -3.5123e+002 -1.5188e+002  2.0334e+002 68942 69686,69868,69842
 1.8000e+000 69963 -8.2471e+001 -2.7213e+001  4.6917e+002 68942 69686,69816,69712
 1.8000e+000 69940 -9.6612e+001 -1.0339e+002  6.7323e+002 68942 69712,69790,69738
 1.8000e+000 69917 -5.2910e+002 -1.0689e+003  4.6249e+002 68942 69712,69816,69790
 1.8000e+000 69894 -9.7043e+000 -5.7752e+002  2.5775e+002 68942 69738,69790,69764
 1.8000e+000 70110 -3.5306e+002 -5.0306e+001  2.5799e+002 68766 70032,70084,70058
 1.8000e+000 70746 -1.9508e+002 -1.7046e+002  2.4356e+002 68448 70400,70556,70426
 1.8000e+000 70723 -7.4630e+002 -2.6202e+002  3.7225e+002 68448 70374,70556,70400
 1.8000e+000 70700 -3.9485e+002 -1.9891e+002  1.8544e+002 68448 70426,70556,70478
 1.8000e+000 70677 -5.7600e+002 -1.6403e+002  2.1240e+002 68448 70478,70556,70504
 1.8000e+000 70654 -3.2302e+002 -1.8502e+002  1.3148e+002 68448 70426,70478,70452
 1.8000e+000 70631 -7.5658e+002 -3.0065e+002  4.4924e+002 68448 70374,70582,70556
 1.8000e+000 70608 -6.0562e+002 -2.3559e+002  2.0795e+002 68448 70504,70556,70530
 1.8000e+000 70896 -5.1143e+002 -3.9528e+001  4.8306e+001 68250 70795,70847,70821
 1.8000e+000 70873 -1.3974e+003 -3.8553e+002  8.7854e+001 68250 70769,70847,70795
 1.8000e+000 70997 -2.2483e+003 -1.1024e+003  9.9126e+002 68052 70919,70971,70945
 1.8000e+000 71367 -6.9139e+002 -1.1108e+003  4.1268e+002 67740 71096,71226,71200
 1.8000e+000 71344 -4.3243e+002 -6.2184e+002  5.2348e+002 67740 71044,71226,71096
 1.8000e+000 71321  7.4581e+001 -7.4581e+001  8.2633e+002 67740 71044,71096,71070
 1.8000e+000 71298 -4.9698e+002 -1.2008e+003  8.1134e+002 67740 71096,71200,71174
 1.8000e+000 71275 -2.8545e+002 -7.0373e+002  3.1876e+002 67740 71096,71148,71122
 1.8000e+000 71252 -3.9273e+002 -8.5117e+002  5.2612e+002 67740 71096,71174,71148
 1.8000e+000 71519  2.7464e+002  2.0318e+002  2.6537e+002 67542 71418,71470,71444
 1.8000e+000 71496  4.6056e+002  8.3415e+002  8.2821e+002 67542 71392,71470,71418
 1.8000e+000 71923 -1.1199e+002  7.2004e+001  2.0592e+002 67230 71649,71779,71675
 1.8000e+000 71900 -5.9079e+001 -1.5851e+002  9.7352e+001 67230 71649,71805,71779
 1.8000e+000 71877 -9.6122e+001 -6.9197e+000  4.0284e+002 67230 71675,71727,71701
 1.8000e+000 71854 -1.5527e+002 -5.9693e+002  3.6493e+002 67230 71675,71753,71727
 1.8000e+000 71831 -1.7777e+002 -3.3630e+002  2.5118e+002 67230 71675,71779,71753
 1.8000e+000 72433 -3.6850e+002 -1.6648e+002  3.4034e+002 67032 72038,72246,72220
 1.8000e+000 72410 -2.3501e+002  5.6766e+001  1.3397e+002 67032 72012,72246,72038
 1.8000e+000 72387 -3.8906e+002 -9.3716e+001  3.7396e+002 67032 72064,72194,72168
 1.8000e+000 72364 -4.4868e+002 -1.5265e+002  4.0337e+002 67032 72038,72194,72064
 1.8000e+000 72341 -5.5510e+002 -6.7011e+002  4.0860e+002 67032 72038,72220,72194
 1.8000e+000 72318 -1.3373e+002  8.7696e+001  2.0518e+002 67032 72090,72168,72142
 1.8000e+000 72295  6.0091e+001  9.5088e+001  3.1190e+002 67032 72064,72168,72090
 1.8000e+000 72272 -1.6603e+002  5.7576e+001  1.8991e+002 67032 72090,72142,72116
 1.8000e+000 72933 -3.2939e+002 -4.0991e+002  3.9401e+002 66628 72956,72665,72613
 1.8000e+000 72910 -2.9933e+002 -4.1814e+002  3.9805e+002 66628 73100,72956,72613
 1.8000e+000 72887 -4.2239e+002 -6.0954e+002  3.1247e+002 66628 73028,72691,72665
 1.8000e+000 72864 -2.7557e+002 -3.7718e+002  4.1410e+002 66628 73100,72613,72587
 1.8000e+000 72841 -3.1416e+002 -3.9167e+002  3.6125e+002 66628 72613,72665,72639
 1.8000e+000 72818  1.5197e+002  4.3531e+001  5.4344e+002 66628 72587,72769,72743
 1.8000e+000 72795 -3.2595e+002 -8.5401e+002  9.4831e+001 66628 72561,72769,72587
 1.8000e+000 72982 -4.1055e+002 -4.4051e+002  4.2413e+002 66628 73028,72665,72956
 1.8000e+000 73005 -3.3140e+002 -1.0908e+002  4.1513e+002 66628 72717,72956,72743
 1.8000e+000 73054 -6.3286e+002 -4.9614e+002  1.9071e+002 66628 72717,72691,73028
 1.8000e+000 73077 -6.2166e+002 -4.4089e+002  2.8943e+002 66628 72717,73028,72956
 1.8000e+000 73126 -3.3151e+002 -4.1592e+002  3.4973e+002 66628 72743,72956,73100
 1.8000e+000 73149 -3.0500e+002 -3.8128e+002  3.6593e+002 66628 72743,73100,72587
 1.8000e+000 73606 -4.0611e+002 -3.7036e+002  3.4043e+002 66281 73332,73384,73358
 1.8000e+000 73583 -4.9983e+002 -4.6965e+002  2.9102e+002 66281 73332,73462,73384
 1.8000e+000 73560 -6.4948e+002 -4.1820e+002  3.4995e+002 66281 73384,73462,73436
 1.8000e+000 73537 -1.0378e+003 -5.9425e+002  5.0727e+002 66281 73332,73488,73462
 1.8000e+000 73514 -7.6004e+002 -4.0907e+002  2.1817e+002 66281 73384,73436,73410
 1.8000e+000 73984  2.6494e+000 -9.5363e+001  3.7334e+001 65969 73736,73814,73788
 1.8000e+000 73961  6.9338e+001 -3.2371e+001  6.2116e-001 65969 73736,73866,73814
 1.8000e+000 73938 -1.0693e+002 -1.5596e+002  1.9040e+002 65969 73814,73866,73840
 1.8000e+000 73915 -4.1618e+000 -5.2708e+000  3.4669e+000 65969 73710,73866,73736
 1.8000e+000 73892  5.7052e+000 -1.1827e+002  1.5301e+001 65969 73736,73788,73762
 1.8000e+000 74232 -2.8467e+002 -3.8438e+002  3.4545e+002 65572 74255,74085,74033
 1.8000e+000 74209 -2.4490e+002 -4.2718e+002  2.7458e+002 65572 74327,74255,74033
 1.8000e+000 74186 -2.7985e+002 -3.0470e+002  2.8016e+002 65572 74327,74033,74007
 1.8000e+000 74163 -3.2642e+002 -4.7762e+002  3.8182e+002 65572 74033,74085,74059
 1.8000e+000 74281 -3.7876e+002 -5.1204e+002  4.5940e+002 65572 74111,74085,74255
 1.8000e+000 74304 -2.1670e+002 -4.4546e+002  3.1520e+002 65572 74111,74255,74137
 1.8000e+000 74353 -2.1353e+002 -2.8511e+002  2.3353e+002 65572 74137,74255,74327
 1.8000e+000 74376 -2.7534e+002 -1.9456e+002  2.4551e+002 65572 74137,74327,74007
 1.8000e+000 74884 -3.0903e+002 -3.7357e+002  2.7986e+002 65174 74587,74717,74613
 1.8000e+000 74861 -3.2452e+002 -4.1786e+002  2.0344e+002 65174 74561,74717,74587
 1.8000e+000 74838 -3.5364e+002 -4.8991e+002  2.7191e+002 65174 74613,74691,74639
 1.8000e+000 74815 -2.8637e+002 -4.6435e+002  2.6094e+002 65174 74613,74717,74691
 1.8000e+000 74792 -1.5017e+002 -8.2354e+002  1.9621e+002 65174 74639,74691,74665
 1.8000e+000 74769 -4.8276e+002 -1.7816e+002  2.1688e+002 65174 74561,74743,74717
 1.8000e+000 75412 -1.5604e+001 -2.5521e+002  7.7299e+002 64770 75167,75245,75219
 1.8000e+000 75389 -3.5198e+002 -7.1099e+002  5.3158e+002 64770 75115,75245,75167
 1.8000e+000 75366 -2.8817e+002 -9.1490e+002  6.7953e+002 64770 75089,75245,75115
 1.8000e+000 75343 -5.0156e+002 -2.1782e+002  5.6715e+002 64770 75167,75219,75193
 1.8000e+000 75320 -2.8280e+002 -5.6326e+002  5.5396e+002 64770 75115,75167,75141
 1.8000e+000 75297 -4.7211e+002 -1.3056e+003  7.2981e+002 64770 75089,75271,75245
 1.8000e+000 75861 -7.6730e+002 -3.7575e+002  7.0883e+002 64316 75538,75694,75564
 1.8000e+000 75838 -2.6122e+002 -1.3172e+002  5.5259e+002 64316 75538,75720,75694
 1.8000e+000 75815 -7.0463e+002 -5.0405e+002  5.5416e+002 64316 75590,75694,75642
 1.8000e+000 75792 -6.8521e+002 -6.7219e+002  6.0379e+002 64316 75564,75694,75590
 1.8000e+000 75769 -1.8104e+002 -8.2510e+002  3.0582e+002 64316 75590,75642,75616
 1.8000e+000 75746 -6.6822e+002 -2.9680e+002  5.3985e+002 64316 75642,75694,75668
 1.8000e+000 76239 -1.0589e+003 -8.7089e+002  5.2751e+002 64018 76262,76095,76043
 1.8000e+000 76216 -7.5914e+002 -8.1736e+002  4.1406e+002 64018 76262,76043,76017
 1.8000e+000 76193 -3.1797e+002 -4.6140e+002  3.3827e+002 64018 75991,76121,76017
 1.8000e+000 76170 -9.7991e+002 -6.8497e+002  6.4333e+002 64018 76043,76095,76069
 1.8000e+000 76147 -2.0103e+001 -4.7739e+002  7.9282e+001 64018 75965,76121,75991
 1.8000e+000 76288 -7.2941e+002 -1.0610e+003  6.6438e+002 64018 76121,76095,76262
 1.8000e+000 76311 -4.8947e+002 -1.0257e+003  5.1029e+002 64018 76121,76262,76017
 1.8000e+000 76866 -3.5766e+002 -4.5422e+002  4.2949e+002 63728 76520,76676,76546
 1.8000e+000 76843 -3.7150e+002 -4.6507e+002  3.4821e+002 63728 76520,76702,76676
 1.8000e+000 76820 -2.7100e+002 -4.3818e+002  3.9094e+002 63728 76546,76650,76572
 1.8000e+000 76797 -5.1499e+002 -5.4762e+002  3.6783e+002 63728 76546,76676,76650
 1.8000e+000 76774 -4.9377e+002 -7.1349e+001  2.1169e+002 63728 76572,76650,76624
 1.8000e+000 76751 -3.1042e+002 -4.2941e+002  3.6573e+002 63728 76494,76702,76520
 1.8000e+000 76728 -9.5810e+001 -2.2785e+002  1.4796e+002 63728 76572,76624,76598
 1.8000e+000 77065 -5.2156e+001 -4.0082e+002  2.8770e+002 63288 77088,76941,76915
 1.8000e+000 77042 -3.5280e+002 -5.0655e+002  2.8924e+002 63288 77088,76915,76993
 1.8000e+000 77019 -1.2768e+002 -5.1930e+002  2.5077e+002 63288 76889,76993,76915
 1.8000e+000 77114 -2.3631e+002 -4.1239e+002  2.1787e+002 63288 76967,76941,77088
 1.8000e+000 77137 -6.1353e+002 -5.0218e+002  1.2738e+002 63288 77160,77088,76993
 1.8000e+000 77186 -1.4718e+002 -2.9867e+002  1.7914e+002 63288 76967,77088,77160
 1.8000e+000 77417 -1.5497e+002 -2.7729e+002  8.9449e+001 62884 77440,77342,77316
 1.8000e+000 77394 -2.6892e+002 -4.7047e+002  3.2960e+001 62884 77770,77440,77316
 1.8000e+000 77466 -2.8998e+002 -4.5585e+002  2.4859e+001 62884 77512,77440,77368
 1.8000e+000 77489 -2.2161e+002 -4.7760e+002  3.2949e+001 62884 77642,77440,77290
 1.8000e+000 77538 -1.7856e+002 -3.7649e+002 -1.0130e+001 62884 77342,77440,77512
 1.8000e+000 77668 -2.8882e+002 -5.2792e+002 -2.9616e+001 62884 77368,77440,77642
 1.8000e+000 77796 -2.0204e+002 -4.3946e+002  2.4751e+001 62884 77290,77440,77770
 1.8000e+000 78479 -6.6498e+002 -7.8740e+002  4.3502e+002 62480 78084,78240,78214
 1.8000e+000 78456 -3.5469e+002 -6.4692e+002 -4.9833e+000 62480 78084,78266,78240
 1.8000e+000 78433 -3.8519e+002 -6.0727e+002  1.5815e+002 62480 78110,78214,78136
 1.8000e+000 78410 -4.7665e+002 -6.5816e+002  3.7393e+002 62480 78084,78214,78110
 1.8000e+000 78387 -4.3720e+002 -3.8107e+002  2.1894e+002 62480 78136,78214,78188
 1.8000e+000 78364 -2.2690e+002 -7.3314e+002 -3.2903e+001 62480 78058,78266,78084
 1.8000e+000 78341 -4.3215e+002 -4.1678e+002  3.3350e+002 62480 78136,78188,78162
 1.8000e+000 78318 -4.2648e+001 -5.7187e+002 -1.5319e+002 62480 78058,78292,78266
 1.8000e+000 78678 -4.7144e+002 -8.5831e+002  3.4402e+002 61926 78528,78606,78554
 1.8000e+000 78655 -1.9792e+002 -1.0007e+003  4.4055e+002 61926 78502,78606,78528
 1.8000e+000 78632 -2.8760e+002 -5.1368e+002  1.4472e+002 61926 78554,78606,78580
 1.8000e+000 79058 -4.5821e+002 -4.8998e+002  2.7403e+002 61614 78836,78914,78862
 1.8000e+000 79035 -5.6998e+002 -5.8568e+002  2.2910e+002 61614 78810,78914,78836
 1.8000e+000 79012 -3.7133e+002 -5.0018e+002  2.1495e+002 61614 78784,78914,78810
 1.8000e+000 78989 -4.0093e+002 -5.3006e+002  4.0760e+002 61614 78862,78914,78888
 1.8000e+000 78966 -3.0429e+002 -6.4750e+002  2.4588e+002 61614 78784,78940,78914
 1.8000e+000 79208 -3.1755e+002 -7.4073e+002  2.5344e+001 61366 79081,79133,79107
 1.8000e+000 79185 -2.9713e+002 -3.6821e+002  3.4720e+002 61366 79081,79159,79133
 1.8000e+000 79358  3.0835e+001  1.5186e+001  4.7971e+001 60962 79231,79283,79257
 1.8000e+000 79335 -1.9340e+002 -4.5623e+002  1.1657e+002 60962 79231,79309,79283
 1.8000e+000 79608 -3.0669e+002 -7.2373e+002  3.1635e+002 60508 79631,79435,79409
 1.8000e+000 79585 -2.0743e+002 -7.5078e+002  1.9474e+002 60508 79703,79631,79409
 1.8000e+000 79562 -1.3592e+002 -2.4526e+002  2.9447e+002 60508 79703,79409,79383
 1.8000e+000 79539 -6.8215e+002 -6.5881e+002  5.6545e+002 60508 79435,79487,79461
 1.8000e+000 79657 -3.6857e+002 -9.4118e+002  5.2634e+002 60508 79487,79435,79631
 1.8000e+000 79680 -1.8761e+002 -6.7017e+002  2.3332e+002 60508 79487,79631,79513
 1.8000e+000 79729 -1.0902e+002 -2.9072e+002  9.0331e+001 60508 79513,79631,79703
 1.8000e+000 79752 -2.4416e+002 -2.3962e+002  3.0405e+001 60508 79513,79703,79383
 1.8000e+000 80390 -4.0906e+002 -5.0848e+002  3.9986e+002 59997 80413,80096,80018
 1.8000e+000 80367 -6.4385e+002 -5.9106e+002  4.5941e+002 59997 80413,80018,80226
 1.8000e+000 80344 -3.5648e+002 -4.3278e+002  2.8087e+002 59997 80096,80174,80148
 1.8000e+000 80321 -1.3290e+003 -9.9725e+002  6.6217e+002 59997 80018,80096,80070
 1.8000e+000 80298 -4.5670e+002 -4.9821e+002  2.5221e+002 59997 80096,80148,80122
 1.8000e+000 80275 -3.4032e+002 -4.3724e+002  3.2472e+002 59997 80174,80226,80200
 1.8000e+000 80252 -7.0666e+002 -5.9702e+002 -5.1302e+001 59997 80018,80070,80044
 1.8000e+000 80439 -3.5332e+002 -5.4316e+002  3.1529e+002 59997 80174,80096,80413
 1.8000e+000 80462 -4.5004e+002 -4.9383e+002  3.5016e+002 59997 80174,80413,80226
 1.8000e+000 80840 -6.5927e+002 -6.0863e+002  2.9443e+002 59443 80863,80644,80618
 1.8000e+000 80817 -2.6556e+002 -4.5955e+002  3.3814e+002 59443 80863,80618,80566
 1.8000e+000 80794 -2.1713e+002 -3.9994e+002  3.9523e+002 59443 81007,80935,80670
 1.8000e+000 80771 -3.4977e+002 -4.2473e+002  3.7144e+002 59443 80566,80722,80696
 1.8000e+000 80748 -3.3248e+002 -6.0381e+002  3.9049e+002 59443 80566,80618,80592
 1.8000e+000 80889 -7.1726e+002 -5.5735e+002  4.7587e+002 59443 80935,80644,80863
 1.8000e+000 80912 -4.9031e+002 -4.9168e+002  3.9751e+002 59443 80696,80863,80566
 1.8000e+000 80961 -4.0795e+002 -4.6865e+002  4.7183e+002 59443 80696,80670,80935
 1.8000e+000 80984 -3.9862e+002 -4.0710e+002  4.3258e+002 59443 80696,80935,80863
 1.8000e+000 81033 -5.3761e+002 -7.6511e+002  5.6020e+002 59443 80644,80935,81007
 1.8000e+000 81360 -6.3248e+002 -3.9233e+002  2.9523e+002 59031 81383,81187,81161
 1.8000e+000 81337 -5.9243e+002 -4.3702e+002  1.1867e+002 59031 81455,81383,81161
 1.8000e+000 81314 -5.1204e+002 -3.0296e+002  1.7098e+002 59031 81455,81161,81135
 1.8000e+000 81291 -1.2387e+003 -2.1951e+002  5.0937e+002 59031 81187,81239,81213
 1.8000e+000 81409 -6.7470e+002 -6.6074e+002  3.8075e+002 59031 81239,81187,81383
 1.8000e+000 81432 -7.2886e+002 -4.9738e+002  1.2128e+002 59031 81239,81383,81265
 1.8000e+000 81481 -6.4817e+002 -2.0251e+002  1.4862e+002 59031 81265,81383,81455
 1.8000e+000 81504 -6.5685e+002 -1.5269e+002  1.7010e+002 59031 81265,81455,81135
 1.8000e+000 81835 -6.2175e+001 -2.5724e+002  7.2750e+001 58577 81610,81714,81636
 1.8000e+000 81812 -3.4551e+001 -2.9014e+002  7.8556e+001 58577 81610,81740,81714
 1.8000e+000 81789 -1.7372e+002 -3.0150e+002  4.1388e+001 58577 81636,81714,81688
 1.8000e+000 81766 -1.4311e+002 -2.4898e+002 -4.1312e+001 58577 81636,81688,81662
 1.8000e+000 81985 -1.5485e+002 -3.8086e+002  2.3091e+002 58030 81884,81936,81910
 1.8000e+000 81962 -3.2103e+002 -1.0700e+002  1.5716e+002 58030 81858,81936,81884
 1.8000e+000 82414 -1.2884e+002 -5.3896e+001  1.7303e+002 57690 82437,82169,82117
 1.8000e+000 82391 -1.6933e+002 -2.1707e+002  1.9797e+002 57690 82437,82117,82247
 1.8000e+000 82368  7.9130e+001  1.1018e+002  4.5454e+002 57690 82195,82247,82221
 1.8000e+000 82345 -1.3520e+002 -2.0244e+002  2.0136e+002 57690 82091,82247,82117
 1.8000e+000 82322 -2.2511e+002 -6.1631e+001  1.1759e+002 57690 82117,82169,82143
 1.8000e+000 82299 -1.5430e+002 -3.7745e+002  2.7813e+002 57690 82091,82273,82247
 1.8000e+000 82463 -1.9128e+002  1.0415e+001  2.5162e+002 57690 82195,82169,82437
 1.8000e+000 82486 -2.0848e+002 -1.0475e+002  2.5038e+002 57690 82195,82437,82247
 1.8000e+000 83041 -3.2574e+002 -3.5258e+002  2.3883e+002 57172 83064,82721,82695
 1.8000e+000 83018 -3.6519e+002 -3.7175e+002  3.4984e+002 57172 83064,82695,82851
 1.8000e+000 82995 -1.0658e+003 -4.9088e+002  4.7408e+002 57172 82669,82851,82695
 1.8000e+000 82972 -6.1304e+002 -4.3138e+002  3.2118e+002 57172 82773,82851,82825
 1.8000e+000 82949 -5.8731e+002 -4.8485e+002  4.8599e+002 57172 82773,82825,82799
 1.8000e+000 82926 -4.5511e+002 -2.8432e+002  2.0719e+002 57172 82721,82773,82747
 1.8000e+000 82903 -1.0571e+003 -3.6928e+002  5.4464e+002 57172 82669,82877,82851
 1.8000e+000 83090 -5.0670e+002 -4.2193e+002  2.2731e+002 57172 82773,82721,83064
 1.8000e+000 83113 -4.2487e+002 -3.9136e+002  3.3238e+002 57172 82773,83064,82851
 1.8000e+000 83747 -4.1060e+002 -3.7941e+002  2.6363e+002 56554 83770,83427,83401
 1.8000e+000 83724 -4.3031e+002 -5.1174e+002  3.2321e+002 56554 83842,83770,83401
 1.8000e+000 83701 -3.7989e+000 -4.1039e+002  1.0993e+002 56554 83842,83401,83583
 1.8000e+000 83678 -8.3953e+002 -7.6249e+002  6.5408e+002 56554 83914,83531,83505
 1.8000e+000 83655 -4.1031e+002 -3.5952e+002  1.1239e+002 56554 83531,83583,83557
 1.8000e+000 83632 -9.7601e+001 -1.3642e+002  9.1942e+001 56554 83375,83583,83401
 1.8000e+000 83609 -4.1488e+002 -3.7964e+002  2.7437e+002 56554 83427,83479,83453
 1.8000e+000 83796 -3.9364e+002 -3.6804e+002  2.6862e+002 56554 83479,83427,83770
 1.8000e+000 83819 -4.2901e+002 -3.2803e+002  2.8415e+002 56554 83479,83770,83505
 1.8000e+000 83868 -2.7468e+002 -2.1918e+002  3.8645e+002 56554 83505,83770,83842
 1.8000e+000 83891 -5.3094e+002 -4.4242e+002  4.8462e+002 56554 83914,83505,83842
 1.8000e+000 83940 -3.6638e+002 -7.7210e+002  3.4275e+002 56554 83583,83531,83914
 1.8000e+000 83963 -1.7217e+002 -7.2393e+002  2.5942e+002 56554 83583,83914,83842
 1.8000e+000 84341 -5.3611e+001 -7.3638e+002  2.1408e+002 56192 84067,84145,84119
 1.8000e+000 84318  7.9934e+001 -7.0799e+002  1.0618e+002 56192 84067,84223,84145
 1.8000e+000 84295 -1.7853e+002 -7.9959e+002 -8.8395e+001 56192 84145,84223,84197
 1.8000e+000 84272  1.6372e+001 -1.1438e+003  2.5401e+002 56192 84067,84119,84093
 1.8000e+000 84249 -6.1073e+002 -1.4420e+002  1.2187e+002 56192 84145,84197,84171
 1.8000e+000 84611 -2.3881e+002 -6.3276e+002  4.5131e+002 55538 84386,84490,84412
 1.8000e+000 84588 -2.6245e+002 -5.4136e+002  4.4068e+002 55538 84386,84516,84490
 1.8000e+000 84565 -4.6680e+002 -7.3075e+002  4.4825e+002 55538 84412,84490,84464
 1.8000e+000 84542 -2.6657e+002 -6.5862e+002  3.1471e+002 55538 84412,84464,84438
 1.8000e+000 84942 -4.4693e+002 -3.7106e+002  3.3543e+002 55084 84769,84847,84795
 1.8000e+000 84919 -4.4962e+002 -4.2957e+002  2.7508e+002 55084 84717,84847,84769
 1.8000e+000 84896 -4.7498e+002 -5.1331e+002  2.7871e+002 55084 84717,84769,84743
 1.8000e+000 84873 -5.1679e+002 -2.1236e+002  2.8986e+002 55084 84795,84847,84821
 1.8000e+000 85271 -4.6664e+001 -1.4088e+002  2.2014e+002 54580 85294,85098,85072
 1.8000e+000 85248 -5.1416e+002 -3.2274e+002  3.3294e+002 54580 85294,85072,85176
 1.8000e+000 85225 -7.6520e+002 -8.3418e+000  1.0135e+002 54580 85124,85176,85150
 1.8000e+000 85202 -1.2393e+002 -2.7954e+002  8.9105e+001 54580 85046,85176,85072
 1.8000e+000 85320 -4.6802e+002 -1.5773e+002  2.8614e+002 54580 85124,85098,85294
 1.8000e+000 85343 -7.1402e+002 -1.5358e+002  3.6081e+002 54580 85124,85294,85176
 1.8000e+000 85542 -2.9661e+002 -5.1331e+002  2.9630e+002 53976 85565,85444,85418
 1.8000e+000 85519 -3.1402e+002 -4.1966e+002  2.6974e+002 53976 85565,85418,85366
 1.8000e+000 85496 -2.4334e+002 -3.5755e+002  1.6285e+002 53976 85366,85418,85392
 1.8000e+000 85591 -3.6109e+002 -4.8033e+002  2.1129e+002 53976 85470,85444,85565
 1.8000e+000 85614 -2.8287e+002 -2.1890e+002  2.0699e+002 53976 85470,85565,85366
 1.8000e+000 85960 -5.8587e+002 -5.3504e+002  4.0949e+002 53572 85663,85715,85689
 1.8000e+000 85937 -5.2840e+002 -5.2465e+002  2.6944e+002 53572 85983,85715,85663
 1.8000e+000 85914 -6.3584e+002 -6.7043e+002  3.3141e+002 53572 86055,85983,85663
 1.8000e+000 85891 -5.9369e+002 -6.6389e+002  4.4744e+002 53572 86055,85663,85637
 1.8000e+000 85868 -9.1546e+002 -1.3439e+003  5.5068e+002 53572 85637,85793,85767
 1.8000e+000 85845 -1.7586e+003 -5.2113e+002  3.9315e+002 53572 85637,85819,85793
 1.8000e+000 86009 -6.1352e+002 -4.5001e+002  2.7457e+002 53572 85741,85715,85983
 1.8000e+000 86032 -6.2490e+002 -4.5691e+002  2.7933e+002 53572 85741,85983,85767
 1.8000e+000 86081 -5.4550e+002 -4.0548e+002  3.0852e+002 53572 85767,85983,86055
 1.8000e+000 86104 -5.6870e+002 -5.2511e+002  4.1697e+002 53572 85767,86055,85637
 1.8000e+000 86693 -8.1688e+002 -2.0243e+002  4.6726e+002 52946 86474,86526,86500
 1.8000e+000 86670 -2.2726e+001 -4.0437e+001  1.0837e+002 52946 86396,86526,86474
 1.8000e+000 86647 -6.2177e+002 -3.5735e+002  2.9288e+002 52946 86370,86526,86396
 1.8000e+000 86624  4.8494e+000  1.8372e-001 -1.7118e+000 52946 86422,86474,86448
 1.8000e+000 86601 -1.1255e+002 -2.3712e+001  4.7029e+001 52946 86396,86474,86422
 1.8000e+000 86578 -7.1664e+002 -2.0995e+002  1.8464e+002 52946 86370,86552,86526
 1.8000e+000 87376 -4.3367e+002 -3.9414e+002  1.8183e+002 52420 87007,87085,87033
 1.8000e+000 87353 -3.6633e+002 -3.8780e+002  1.9591e+002 52420 87007,87163,87085
 1.8000e+000 87330 -5.1162e+002 -3.9172e+002  2.2606e+002 52420 87007,87189,87163
 1.8000e+000 87307 -4.7995e+002 -3.5713e+002  2.4202e+002 52420 87033,87085,87059
 1.8000e+000 87284 -4.8750e+002 -4.1196e+002  5.1584e+001 52420 87085,87137,87111
 1.8000e+000 87261 -3.1418e+002 -4.1435e+002  5.4908e+001 52420 87085,87163,87137
 1.8000e+000 87238 -3.7410e+002 -5.4047e+002  4.5205e+002 52420 86955,87189,87007
 1.8000e+000 87215 -2.4330e+002 -3.3693e+002  2.7900e+002 52420 86955,87007,86981
 1.8000e+000 87624 -3.1754e+002 -4.1784e+002  2.2744e+002 51916 87451,87503,87477
 1.8000e+000 87601 -1.8057e+002 -6.0720e+002  2.8165e+002 51916 87425,87503,87451
 1.8000e+000 87578 -2.4803e+002 -6.4156e+002  2.6971e+002 51916 87425,87529,87503
 1.8000e+000 87555 -1.2902e+002 -3.3178e+002  2.9308e+002 51916 87399,87529,87425
 1.8000e+000 88053 -4.9503e+002 -4.2818e+002  1.7174e+002 51568 87782,87834,87808
 1.8000e+000 88030 -6.2256e+002 -3.9144e+002  3.0548e+002 51568 88076,87782,87886
 1.8000e+000 88007 -5.4970e+002 -2.2387e+002  2.5327e+002 51568 88076,87886,87860
 1.8000e+000 87984 -7.8308e+002 -5.8890e+002  2.3631e+002 51568 87756,87886,87782
 1.8000e+000 87961 -5.7809e+002 -4.5352e+002  4.8871e+002 51568 87756,87912,87886
 1.8000e+000 87938 -6.7668e+002 -3.0467e+002  4.5149e+002 51568 87730,87912,87756
 1.8000e+000 88102 -5.1896e+002 -4.7304e+002  1.9324e+002 51568 87834,87782,88076
 1.8000e+000 88125 -4.5459e+002 -3.6195e+002  1.4728e+002 51568 87834,88076,87860
 1.8000e+000 88324 -4.2506e+002 -5.1466e+002  1.5612e+002 51164 88419,88347,88200
 1.8000e+000 88301 -3.3318e+002 -5.1955e+002  2.5576e+002 51164 88347,88148,88252
 1.8000e+000 88278 -5.2587e+002 -8.9096e+002  1.8103e+002 51164 88419,88200,88174
 1.8000e+000 88373 -3.1063e+002 -3.9217e+002  2.0389e+002 51164 88226,88200,88347
 1.8000e+000 88396 -3.6524e+001 -5.1904e+002  2.0974e+002 51164 88226,88347,88252
 1.8000e+000 88445 -5.4502e+002 -5.9318e+002  3.7765e+002 51164 88148,88347,88419
 1.8000e+000 88468 -5.2639e+002 -5.6901e+002  4.2143e+002 51164 88148,88419,88174
 1.8000e+000 88738 -4.4845e+002 -6.3208e+002  1.6290e+002 50560 88513,88617,88539
 1.8000e+000 88715 -3.1404e+002 -7.3736e+002  1.1171e+002 50560 88513,88643,88617
 1.8000e+000 88692 -2.0534e+002 -1.2911e+002  2.0079e+002 50560 88539,88591,88565
 1.8000e+000 88669 -1.7014e+002 -4.2107e+002  2.5549e+002 50560 88539,88617,88591
 1.8000e+000 88939 -5.4754e+002 -2.3568e+002  2.8932e+002 50106 88962,88789,88763
 1.8000e+000 88916 -3.7075e+002 -2.4844e+002  2.1967e+002 50106 88962,88763,88841
 1.8000e+000 88893 -5.5600e+002 -3.6679e+002  3.5109e+002 50106 88763,88867,88841
 1.8000e+000 88988 -3.8026e+002 -3.0926e+002  1.7628e+002 50106 88815,88789,88962
 1.8000e+000 89011 -2.8007e+002 -2.2274e+002  2.3334e+002 50106 89034,88962,88841
 1.8000e+000 89060 -1.9914e+002 -8.8667e+001  6.2261e+001 50106 88815,88962,89034
 1.8000e+000 89472 -2.6988e+002 -7.3645e+002  6.3636e+001 49666 89273,89351,89325
 1.8000e+000 89449 -4.1303e+002 -3.7917e+002  2.0248e+002 49666 89273,89377,89351
 1.8000e+000 89426 -3.7222e+002 -5.9271e+002  4.1723e+002 49666 89273,89325,89299
 1.8000e+000 89403 -4.4559e+002 -3.5183e+002  2.3808e+002 49666 89247,89377,89273
 1.8000e+000 89978 -3.4784e+002 -6.2648e+002 -1.7931e+001 49205 89681,89837,89733
 1.8000e+000 89955 -7.1161e+001 -3.3465e+002  1.4741e+002 49205 89655,89837,89681
 1.8000e+000 89932 -5.7386e+002 -7.3670e+002  3.0577e+002 49205 89785,89837,89811
 1.8000e+000 89909 -1.3255e+002 -4.2328e+002  1.1655e+002 49205 89733,89837,89785
 1.8000e+000 89886 -5.2101e+002 -5.6155e+002  2.6058e+002 49205 89733,89785,89759
 1.8000e+000 89863 -1.7545e+002 -2.6914e+002 -1.6529e+002 49205 89681,89733,89707
 1.8000e+000 90177 -3.4334e+002 -3.8026e+002  1.7460e+002 48865 90530,90200,90053
 1.8000e+000 90154 -2.7730e+002 -4.6651e+002  2.2166e+002 48865 90402,90200,90001
 1.8000e+000 90131 -4.1614e+002 -2.6180e+002  1.8077e+002 48865 90530,90053,90027
 1.8000e+000 90226 -4.1288e+002 -4.1890e+002  3.1162e+002 48865 90079,90053,90200
 1.8000e+000 90249 -3.2696e+002 -3.7358e+002  2.2840e+002 48865 90272,90200,90105
 1.8000e+000 90298 -2.4242e+002 -3.0949e+002  2.5718e+002 48865 90079,90200,90272
 1.8000e+000 90428 -2.4199e+002 -1.4853e+002  1.9405e+002 48865 90105,90200,90402
 1.8000e+000 90556 -3.8817e+002 -5.3957e+002  1.5044e+002 48865 90001,90200,90530
 1.8000e+000 90579 -4.5054e+002 -3.8011e+002  1.2533e+002 48865 90001,90530,90027
 1.8000e+000 90827 -4.2198e+002 -4.3267e+002  2.0870e+002 48404 90850,90654,90628
 1.8000e+000 90804 -4.3986e+002 -5.1073e+002  3.4670e+002 48404 90850,90628,90732
 1.8000e+000 90781 -3.1005e+002 -3.0669e+002  1.9303e+002 48404 90680,90732,90706
 1.8000e+000 90758 -5.9791e+002 -2.9125e+002  3.6406e+002 48404 90602,90732,90628
 1.8000e+000 90876 -4.2161e+002 -2.2349e+002  1.7718e+002 48404 90680,90654,90850
 1.8000e+000 90899 -4.4029e+002 -3.8837e+002  2.8258e+002 48404 90680,90850,90732
 1.8000e+000 91000 -2.3710e+002 -6.1455e+002  4.0670e+002 48156 90922,90974,90948
 1.8000e+000 91250 -2.3596e+002 -5.9080e+002  3.3027e+002 47752 91051,91103,91077
 1.8000e+000 91227 -1.7876e+002 -1.5665e+002  2.0900e+002 47752 91025,91103,91051
 1.8000e+000 91204 -6.6846e+002 -4.8396e+002  5.3315e+002 47752 91025,91155,91103
 1.8000e+000 91181 -7.2423e+002 -2.2492e+002  3.6444e+002 47752 91103,91155,91129
 1.8000e+000 91402 -3.4105e+002 -3.7855e+002  2.8461e+002 47191 91425,91301,91275
 1.8000e+000 91379 -2.7113e+002 -3.5406e+002  3.2826e+002 47191 91497,91425,91275
 1.8000e+000 91451 -3.5188e+002 -1.4018e+002  1.6910e+002 47191 91327,91301,91425
 1.8000e+000 91474 -4.4449e+002 -4.0359e+002  3.5238e+002 47191 91327,91425,91353
 1.8000e+000 91523 -4.0724e+002 -8.0015e+002  3.5136e+002 47191 91353,91425,91497
 1.8000e+000 91854 -3.3494e+002 -3.5912e+002  1.2838e+002 46744 91949,91877,91707
 1.8000e+000 91831 -3.9240e+002 -3.9560e+002  1.7315e+002 46744 91877,91655,91629
 1.8000e+000 91808 -3.2545e+002 -3.6534e+002  1.3263e+002 46744 91949,91707,91681
 1.8000e+000 91785 -5.7133e+002 -2.5458e+002 -2.6625e+001 46744 91629,91759,91733
 1.8000e+000 91903 -3.4106e+002 -3.7050e+002  1.3111e+002 46744 91733,91707,91877
 1.8000e+000 91926 -3.3913e+002 -3.4166e+002  1.4812e+002 46744 91733,91877,91629
 1.8000e+000 91975 -3.1599e+002 -3.6886e+002  1.4498e+002 46744 91655,91877,91949
 1.8000e+000 91998 -2.8515e+002 -3.6315e+002  1.4405e+002 46744 91655,91949,91681
 1.8000e+000 92378 -3.5155e+002 -1.4440e+002  2.2272e+002 46090 92130,92208,92182
 1.8000e+000 92355 -4.7160e+002 -1.9587e+002  2.2294e+002 46090 92104,92208,92130
 1.8000e+000 92332 -2.3039e+002 -3.8671e+002  2.0445e+002 46090 92104,92260,92208
 1.8000e+000 92309 -1.9861e+002 -1.1587e+002  1.6165e+002 46090 92208,92260,92234
 1.8000e+000 92286 -5.8176e+002 -1.8490e+002  2.5722e+002 46090 92130,92182,92156
 1.8000e+000 92626 -3.1804e+002 -4.2859e+002  1.7149e+002 45693 92721,92649,92505
 1.8000e+000 92603 -3.6627e+002 -4.4123e+002  3.5612e+002 45693 92649,92453,92427
 1.8000e+000 92580 -3.4149e+002 -3.5302e+002  1.6879e+002 45693 92721,92505,92479
 1.8000e+000 92557 -6.2843e+002 -6.0060e+002  4.4864e+002 45693 92401,92531,92427
 1.8000e+000 92675 -5.3762e+002 -4.2374e+002  2.2391e+002 45693 92531,92505,92649
 1.8000e+000 92698 -5.8858e+002 -5.3647e+002  4.7092e+002 45693 92531,92649,92427
 1.8000e+000 92747 -3.5257e+002 -3.3657e+002  1.8084e+002 45693 92453,92649,92721
 1.8000e+000 92770 -2.4015e+002 -8.7870e+001  2.2866e+002 45693 92453,92721,92479
 1.8000e+000 93172 -2.5740e+002 -4.4615e+002  3.8684e+002 45331 92898,93028,92924
 1.8000e+000 93149 -1.6903e+002 -4.1911e+002  2.5919e+002 45331 92898,93054,93028
 1.8000e+000 93126 -3.5568e+002 -3.0292e+002  4.3900e+002 45331 92924,93002,92976
 1.8000e+000 93103 -1.4874e+002 -4.0003e+002  3.7989e+002 45331 92924,93028,93002
 1.8000e+000 93080 -3.8603e+002 -4.6302e+002  4.4741e+002 45331 92924,92976,92950
 1.8000e+000 93518 -4.7106e+002 -6.9802e+002  3.7172e+002 44820 93613,93273,93247
 1.8000e+000 93495 -5.5503e+002 -5.3950e+002  2.9567e+002 44820 93685,93541,93247
 1.8000e+000 93472 -5.4462e+002 -3.4736e+002  2.3263e+002 44820 93541,93195,93377
 1.8000e+000 93449 -6.1559e+002 -4.6107e+002  2.3244e+002 44820 93685,93247,93221
 1.8000e+000 93426 -4.3253e+002 -5.7420e+002  3.1107e+002 44820 93299,93377,93351
 1.8000e+000 93403 -3.2563e+002 -3.9133e+002  3.7254e+002 44820 93299,93351,93325
 1.8000e+000 93567 -4.4542e+002 -7.2761e+002  2.2268e+002 44820 93613,93247,93541
 1.8000e+000 93590 -4.4081e+002 -5.4032e+002  1.4699e+002 44820 93299,93541,93377
 1.8000e+000 93639 -4.4346e+002 -8.2861e+002  2.5864e+002 44820 93299,93273,93613
 1.8000e+000 93662 -4.7201e+002 -8.1782e+002  2.2531e+002 44820 93299,93613,93541
 1.8000e+000 93711 -5.3292e+002 -3.8493e+002  2.0390e+002 44820 93195,93541,93685
 1.8000e+000 93734 -4.7859e+002 -1.2326e+002  1.4092e+002 44820 93195,93685,93221
 1.8000e+000 94163 -5.1848e+002 -5.7705e+002  2.2078e+002 44237 94258,94186,93996
 1.8000e+000 94140 -5.9566e+002 -6.4081e+002  1.4480e+002 44237 94330,94022,93996
 1.8000e+000 94117 -6.1081e+002 -6.1442e+002  1.6998e+002 44237 94186,93918,93866
 1.8000e+000 94094 -4.5063e+002 -4.8040e+002  2.6352e+002 44237 94258,93996,93970
 1.8000e+000 94071 -5.6672e+002 -3.8307e+002  2.5284e+002 44237 94402,93944,93918
 1.8000e+000 94048 -3.0577e+002 -5.1986e+002  1.6831e+002 44237 93866,93918,93892
 1.8000e+000 94212 -5.9463e+002 -6.4984e+002  1.8589e+002 44237 94330,93996,94186
 1.8000e+000 94235 -5.7891e+002 -5.5613e+002  2.0421e+002 44237 93840,94186,93866
 1.8000e+000 94284 -5.5300e+002 -4.8000e+002  1.6546e+002 44237 93918,94186,94258
 1.8000e+000 94307 -5.1103e+002 -4.0685e+002  1.8864e+002 44237 94402,93918,94258
 1.8000e+000 94356 -6.0669e+002 -2.6826e+002  2.7705e+001 44237 93840,94022,94330
 1.8000e+000 94379 -5.6368e+002 -5.7199e+002  1.9816e+002 44237 93840,94330,94186
 1.8000e+000 94428 -6.8948e+002 -4.9832e+002  3.0250e+002 44237 93970,93944,94402
 1.8000e+000 94451 -5.9618e+002 -5.0276e+002  2.3141e+002 44237 93970,94402,94258
 1.8000e+000 94908 -3.9844e+002 -3.9787e+002  9.4490e+001 43890 94660,94790,94712
 1.8000e+000 94885 -2.0498e+002 -1.7834e+002  1.7905e+002 43890 94634,94790,94660
 1.8000e+000 94862 -4.0420e+002 -1.6390e+002  1.8181e+002 43890 94712,94764,94738
 1.8000e+000 94839 -3.3960e+002 -3.1780e+002  1.7964e+002 43890 94712,94790,94764
 1.8000e+000 94816 -4.7756e+002 -2.4507e+002 -6.7384e+001 43890 94660,94712,94686
 1.8000e+000 95414 -3.4911e+002 -2.4537e+002  1.7462e+002 43186 95437,95143,95117
 1.8000e+000 95391 -4.0175e+002 -5.3085e+002  2.1067e+002 43186 95437,95117,95091
 1.8000e+000 95368 -1.4031e+002 -2.1054e+002  2.1741e+002 43186 95143,95221,95195
 1.8000e+000 95345 -6.4548e+002 -4.7571e+002  5.4355e+002 43186 95091,95273,95221
 1.8000e+000 95322 -3.6197e+002 -2.4976e+002  2.7136e+002 43186 95221,95273,95247
 1.8000e+000 95299 -2.3660e+002 -2.5183e+002  1.2575e+002 43186 95143,95195,95169
 1.8000e+000 95463 -3.2969e+002 -4.3995e+002  3.1034e+002 43186 95221,95143,95437
 1.8000e+000 95486 -3.5178e+002 -6.6759e+002  3.5635e+002 43186 95221,95437,95091
 1.8000e+000 96041 -6.6022e+002 -6.2765e+002  1.8082e+002 42782 95695,95851,95799
 1.8000e+000 96018 -6.1313e+002 -7.9447e+002  1.7215e+002 42782 95669,95851,95695
 1.8000e+000 95995 -5.8770e+002 -3.5662e+002  1.8821e+002 42782 95695,95747,95721
 1.8000e+000 95972 -4.7034e+002 -5.4459e+002  1.6742e+002 42782 95695,95799,95747
 1.8000e+000 95949 -4.1165e+002 -3.1201e+002  1.1878e+002 42782 95747,95799,95773
 1.8000e+000 95926 -7.6208e+002 -7.6907e+002  2.3772e+002 42782 95799,95851,95825
 1.8000e+000 95903 -8.7570e+002 -9.4293e+002  2.4306e+002 42782 95669,95877,95851
 1.8000e+000 96370 -6.1011e+002 -8.1772e+002  3.2716e+002 42420 96197,96275,96223
 1.8000e+000 96347 -5.5733e+002 -7.4233e+002  3.5469e+002 42420 96145,96275,96197
 1.8000e+000 96324 -5.9943e+002 -5.5649e+002  3.7615e+002 42420 96145,96197,96171
 1.8000e+000 96301 -4.5748e+002 -6.0451e+002  2.2793e+002 42420 96223,96275,96249
 1.8000e+000 96699 -2.2097e+002 -2.7620e+002  5.2648e+001 41816 96474,96578,96526
 1.8000e+000 96676 -2.9329e+002 -2.0060e+002 -5.1132e+001 41816 96474,96604,96578
 1.8000e+000 96653 -2.5575e+002 -2.9309e+002  4.4821e+001 41816 96526,96578,96552
 1.8000e+000 96630 -2.4552e+002 -3.6198e+002  3.6317e+001 41816 96474,96526,96500
 1.8000e+000 96947 -2.2224e+002 -5.3011e+002  1.7764e+002 41212 96722,96800,96748
 1.8000e+000 96924 -3.3785e+002 -4.1428e+002  2.3487e+002 41212 96722,96826,96800
 1.8000e+000 96901 -4.0135e+002 -4.3292e+002  2.3107e+002 41212 96722,96852,96826
 1.8000e+000 96878 -3.4592e+002 -5.9152e+002  1.3883e+002 41212 96748,96800,96774
 1.8000e+000 97097 -2.9969e+002 -1.0541e+002  2.9483e+002 40793 97120,97022,96996
 1.8000e+000 97074 -5.7040e+002 -6.7323e+002  1.8335e+002 40793 97192,97120,96996
 1.8000e+000 97146 -2.2746e+002 -5.5593e+002  2.6107e+002 40793 97324,97120,97048
 1.8000e+000 97169 -1.9521e+002 -9.0769e+002  2.4874e+002 40793 97048,97120,96970
 1.8000e+000 97218 -8.5452e+001 -4.6694e+002  1.8662e+002 40793 96970,97120,97192
 1.8000e+000 97350 -2.2746e+002 -5.5593e+002  2.6107e+002 40793 97022,97120,97324
 1.8000e+000 97878 -3.5087e+002 -7.0377e+002  1.4831e+002 40446 97901,97607,97555
 1.8000e+000 97855 -3.3523e+002 -4.7502e+002  1.5121e+002 40446 97973,97901,97555
 1.8000e+000 97832 -2.1854e+002 -3.8809e+002  1.0919e+002 40446 97973,97555,97737
 1.8000e+000 97809 -5.8343e+002 -8.2506e+002  2.6135e+002 40446 97633,97685,97659
 1.8000e+000 97786 -4.0685e+002 -5.9338e+002  1.4519e+002 40446 97633,97711,97685
 1.8000e+000 97763 -3.4406e+002 -8.1466e+002  1.8005e+002 40446 97555,97607,97581
 1.8000e+000 97927 -3.8869e+002 -8.7793e+002 -4.8822e+001 40446 97633,97607,97901
 1.8000e+000 97950 -3.2795e+002 -6.8128e+002  1.2132e+002 40446 97633,97901,97711
 1.8000e+000 97999 -1.6150e+002 -6.5279e+002  2.0602e+002 40446 97711,97901,97973
 1.8000e+000 98022 -6.4726e+001 -5.5164e+002  1.6630e+002 40446 97711,97973,97737
 1.8000e+000 98449 -2.5717e+002 -1.4820e+002  1.5995e+002 39935 98152,98204,98178
 1.8000e+000 98426 -3.9487e+002 -2.0701e+002  1.0051e+002 39935 98152,98230,98204
 1.8000e+000 98403 -5.6994e+002 -3.0255e+002  2.5734e+002 39935 98152,98256,98230
 1.8000e+000 98380 -3.9118e+002 -3.4525e+002  2.5925e+002 39935 98126,98256,98152
 1.8000e+000 98357 -5.4270e+002 -7.0515e+002  2.8521e+002 39935 98126,98282,98256
 1.8000e+000 98334 -2.9602e+002 -8.9543e+002  3.3343e+002 39935 98126,98308,98282
 1.8000e+000 98746 -8.4562e+002 -6.9104e+002  2.3903e+002 39531 98498,98602,98524
 1.8000e+000 98723 -6.0297e+002 -6.2061e+002  2.3937e+002 39531 98472,98602,98498
 1.8000e+000 98700 -9.1328e+002 -4.0242e+002  1.2792e+002 39531 98524,98602,98576
 1.8000e+000 98677 -4.5683e+002 -6.0250e+002  2.3416e+002 39531 98472,98628,98602
 1.8000e+000 98654 -1.0229e+003 -9.4555e+002 -2.7071e+002 39531 98524,98576,98550
 1.8000e+000 99224 -9.2871e+002 -4.6214e+002  7.4934e+002 39027 99247,98956,98930
 1.8000e+000 99201 -8.1322e+002 -3.5662e+002  3.2669e+002 39027 99247,98930,98878
 1.8000e+000 99178 -6.4577e+002 -4.9800e+002  3.9445e+002 39027 99319,98982,98956
 1.8000e+000 99155 -7.0551e+002 -3.7849e+002  2.1792e+002 39027 98852,99060,98878
 1.8000e+000 99132 -9.7023e+002 -3.8151e+002  3.3431e+002 39027 98878,98930,98904
 1.8000e+000 99109 -5.6567e+002 -1.0179e+003  4.9983e+002 39027 98982,99060,99034
 1.8000e+000 99086 -7.1903e+002 -1.1987e+003  7.9812e+002 39027 98982,99034,99008
 1.8000e+000 99273 -5.3677e+002 -3.1936e+002  4.6295e+002 39027 99319,98956,99247
 1.8000e+000 99296 -6.4287e+002 -2.9207e+002  2.4866e+002 39027 99060,99247,98878
 1.8000e+000 99345 -6.6294e+002 -5.8222e+002  3.0097e+002 39027 99060,98982,99319
 1.8000e+000 99368 -6.7594e+002 -5.4207e+002  3.4740e+002 39027 99060,99319,99247
 1.8000e+000 99923 -6.7211e+002 -5.7350e+002  2.8630e+002 38523 99946,99655,99603
 1.8000e+000 99900 -5.3884e+002 -5.1317e+002  2.9982e+002 38523 99946,99603,99759
 1.8000e+000 99877 -3.3763e+002 -7.1958e+002  3.6626e+002 38523 100018,99707,99681
 1.8000e+000 99854 -5.8863e+002 -3.6058e+002  2.8032e+002 38523 99551,99759,99603
 1.8000e+000 99831 -6.5434e+002 -4.2411e+002  3.3385e+002 38523 99551,99603,99577
 1.8000e+000 99808 -5.9835e+002 -8.2361e+002  2.0578e+002 38523 99707,99759,99733
 1.8000e+000 99785 -5.6713e+002 -4.7576e+002  2.4590e+002 38523 99603,99655,99629
 1.8000e+000 99972 -5.3831e+002 -3.0794e+002  3.4287e+002 38523 99681,99655,99946
 1.8000e+000 99995 -4.0317e+002 -4.1837e+002  4.3046e+002 38523 100018,99681,99946
 1.8000e+000 100044 -4.5871e+002 -8.4697e+002  2.2626e+002 38523 99759,99707,100018
 1.8000e+000 100067 -6.2715e+002 -7.2839e+002  2.9353e+002 38523 99759,100018,99946
 1.8000e+000 100467 -1.8545e+002 -2.1623e+002  1.1895e+002 38125 100219,100349,100323
 1.8000e+000 100444 -2.2101e+001 -6.6348e+001  2.0455e+002 38125 100193,100349,100219
 1.8000e+000 100421 -8.4569e+001 -3.3335e+002  1.1307e+002 38125 100245,100323,100297
 1.8000e+000 100398 -6.7382e+001 -1.6368e+002  1.3376e+002 38125 100219,100323,100245
 1.8000e+000 100375 -1.9830e+002 -3.4892e+002  1.8486e+002 38125 100245,100297,100271
 1.8000e+000 100666 -5.6883e+002 -8.4989e+002  2.4438e+002 37607 100689,100568,100542
 1.8000e+000 100643 -4.4272e+002 -4.6493e+002  2.1963e+002 37607 100689,100542,100490
 1.8000e+000 100620 -3.3415e+002 -2.9831e+002  1.7257e+002 37607 100490,100542,100516
 1.8000e+000 100715 -4.4491e+002 -4.7827e+002  1.7879e+002 37607 100594,100568,100689
 1.8000e+000 100738 -5.2129e+002 -3.7364e+002  1.8812e+002 37607 100594,100689,100490
 1.8000e+000 100937 -3.9907e+002 -2.7709e+002  3.9361e+002 37017 100960,100813,100787
 1.8000e+000 100914 -3.3610e+002 -3.0644e+002  2.0933e+002 37017 100960,100787,100761
 1.8000e+000 100891 -6.5617e+002 -2.1638e+002  3.8927e+002 37017 100813,100865,100839
 1.8000e+000 100986 -5.2982e+002 -4.8470e+002  4.6255e+002 37017 100865,100813,100960
 1.8000e+000 101009 -4.0003e+002 -4.4247e+002  2.6264e+002 37017 100865,100960,100761
 1.8000e+000 101519 -6.2283e+002 -3.0636e+002  1.6159e+002 36613 101222,101274,101248
 1.8000e+000 101496 -2.0804e+002 -1.6788e+002  1.3801e+002 36613 101222,101352,101274
 1.8000e+000 101473 -1.7158e+002 -2.7172e+002  5.7260e+001 36613 101274,101352,101326
 1.8000e+000 101450 -3.2646e+002 -1.2791e+002  1.5755e+002 36613 101222,101378,101352
 1.8000e+000 101427 -1.7986e+002 -4.9391e+002  6.6402e+001 36613 101274,101326,101300
 1.8000e+000 101404 -3.4374e+002 -1.1698e+002  8.7203e+001 36613 101196,101378,101222
 1.8000e+000 101718 -5.0411e+002 -4.6325e+002  5.2835e+002 36308 101594,101646,101620
 1.8000e+000 101695 -5.3458e+002 -2.3374e+002  3.0496e+002 36308 101568,101646,101594
 1.8000e+000 101672 -3.3415e+002 -3.3334e+002  3.2722e+002 36308 101542,101646,101568
 1.8000e+000 102098 -5.3648e+002 -3.6516e+002  2.1291e+002 35918 102121,101954,101876
 1.8000e+000 102075 -4.6246e+002 -5.2337e+002  1.3315e+002 35918 102121,101876,101824
 1.8000e+000 102052 -5.4650e+002 -3.6925e+002  1.9276e+002 35918 101876,101954,101928
 1.8000e+000 102029 -6.5582e+002 -1.1889e+002  1.9896e+002 35918 101876,101928,101902
 1.8000e+000 102006 -4.8054e+002 -6.5982e+002  2.6190e+002 35918 101824,101876,101850
 1.8000e+000 102147 -4.8607e+002 -5.1434e+002  2.8680e+002 35918 101980,101954,102121
 1.8000e+000 102170 -4.4034e+002 -7.0918e+002  1.8548e+002 35918 101980,102121,101824
 1.8000e+000 102489 -5.1561e+002 -1.2236e+003  3.6329e+002 35514 102241,102345,102267
 1.8000e+000 102466 -7.1346e+002 -1.3088e+003  3.8644e+002 35514 102215,102345,102241
 1.8000e+000 102443 -5.7299e+002 -1.3974e+003  3.9749e+002 35514 102215,102371,102345
 1.8000e+000 102420 -4.2388e+002 -1.0222e+003  4.2131e+002 35514 102267,102345,102293
 1.8000e+000 102397 -2.5324e+002 -6.7830e+002  4.8424e+002 35514 102293,102345,102319
 1.8000e+000 102820 -9.0529e+002 -5.1076e+002  1.3496e+002 35224 102843,102699,102647
 1.8000e+000 102797 -7.2810e+002 -6.3753e+002  2.3988e+002 35224 102971,102725,102699
 1.8000e+000 102774 -1.1937e+003 -8.1092e+002  6.3061e+002 35224 102595,102725,102621
 1.8000e+000 102751 -3.4063e+002 -2.7517e+002  2.7424e+002 35224 102647,102699,102673
 1.8000e+000 102869 -7.4931e+002 -4.4785e+002  1.8046e+002 35224 102971,102699,102843
 1.8000e+000 102997 -6.7230e+002 -7.8404e+002  1.9882e+002 35224 102621,102725,102971
 1.8000e+000 103020 -7.5454e+002 -6.6883e+002  1.1561e+002 35224 102621,102971,102843
 1.8000e+000 103349 -7.1728e+002 -5.2042e+002  3.2601e+002 34820 103150,103228,103176
 1.8000e+000 103326 -5.9913e+002 -6.0253e+002  3.1013e+002 34820 103124,103228,103150
 1.8000e+000 103303 -5.7451e+002 -5.8019e+002  5.6184e+002 34820 103176,103228,103202
 1.8000e+000 103280 -3.9854e+002 -5.1339e+002  3.7278e+002 34820 103124,103254,103228
 1.8000e+000 103806 -5.4069e+002 -4.3558e+002  1.6089e+002 34530 103558,103662,103636
 1.8000e+000 103783 -5.7376e+002 -4.6136e+002  1.4196e+002 34530 103558,103688,103662
 1.8000e+000 103760 -6.4529e+002 -7.2955e+002  1.7821e+002 34530 103532,103688,103558
 1.8000e+000 103737 -2.8245e+002 -5.2089e+002  1.7508e+002 34530 103584,103636,103610
 1.8000e+000 103714 -9.3725e+002 -5.6352e+002  2.0942e+002 34530 103558,103636,103584
 1.8000e+000 104263 -3.2244e+002 -4.2800e+002  2.6313e+002 34019 103989,104119,104015
 1.8000e+000 104240 -2.7793e+002 -4.0050e+002  3.0506e+002 34019 103989,104145,104119
 1.8000e+000 104217 -3.3511e+002 -4.5999e+002  1.5211e+002 34019 104015,104067,104041
 1.8000e+000 104194 -3.9291e+002 -5.0554e+002  2.3352e+002 34019 104015,104119,104067
 1.8000e+000 104171 -3.5913e+002 -3.2228e+002  2.1219e+002 34019 104067,104119,104093
 1.8000e+000 104641 -4.5148e+002 -2.2797e+002  1.9676e+002 33351 104419,104497,104445
 1.8000e+000 104618 -2.3619e+002 -1.3816e+002  2.2081e+002 33351 104393,104497,104419
 1.8000e+000 104595 -5.0996e+002 -2.7488e+002  3.3741e+001 33351 104367,104497,104393
 1.8000e+000 104572 -5.2971e+002 -4.2205e+002  2.4906e+002 33351 104445,104497,104471
 1.8000e+000 104549 -5.1167e+002 -5.3698e+002 -2.2571e+001 33351 104367,104523,104497
 1.8000e+000 105019 -4.5559e+002 -9.8284e+002  4.7830e+002 32861 104823,104901,104875
 1.8000e+000 104996 -6.5016e+002 -1.1758e+003  3.9240e+002 32861 104745,104901,104823
 1.8000e+000 104973 -6.4911e+002 -1.0649e+003  4.1317e+002 32861 104823,104875,104849
 1.8000e+000 104950 -6.5870e+002 -1.1794e+003  5.6399e+002 32861 104745,104823,104797
 1.8000e+000 104927 -7.7612e+002 -4.5722e+002  5.9458e+002 32861 104745,104797,104771
 1.8000e+000 105397 -3.3462e+002 -6.9831e+002  2.9052e+002 32457 105149,105253,105175
 1.8000e+000 105374 -4.8845e+002 -5.8650e+002  2.3920e+002 32457 105149,105279,105253
 1.8000e+000 105351 -4.6925e+002 -4.8865e+002  2.9787e+002 32457 105123,105279,105149
 1.8000e+000 105328 -3.8265e+002 -1.1965e+002  2.8241e+002 32457 105175,105227,105201
 1.8000e+000 105305 -6.4685e+002 -8.3219e+002  2.9056e+002 32457 105175,105253,105227
 1.8000e+000 105726 -2.2586e+002 -6.9487e+002  2.9028e+002 32003 105527,105605,105553
 1.8000e+000 105703 -3.5937e+002 -6.1352e+002  2.7888e+002 32003 105501,105605,105527
 1.8000e+000 105680 -1.8332e+002 -5.4735e+002  2.7998e+002 32003 105501,105631,105605
 1.8000e+000 105657 -1.0259e+002 -4.2509e+002  2.5705e+002 32003 105553,105605,105579
 1.8000e+000 106104 -5.0983e+002 -6.0804e+002  1.8552e+002 31492 106127,105908,105856
 1.8000e+000 106081 -3.5697e+002 -5.2380e+002  9.1525e+001 31492 106127,105856,105830
 1.8000e+000 106058 -3.3135e+002 -8.7172e+002  2.1782e+002 31492 105856,105908,105882
 1.8000e+000 106035 -9.8106e+001 -3.8720e+002  7.7207e+001 31492 105830,105986,105960
 1.8000e+000 106012 -1.9523e+002 -7.8814e+002  4.0959e+002 31492 105908,105960,105934
 1.8000e+000 106153 -5.7036e+002 -6.3831e+002  2.6486e+002 31492 105960,105908,106127
 1.8000e+000 106176 -4.9292e+002 -6.3688e+002  1.8370e+002 31492 105960,106127,105830
 1.8000e+000 106375 -5.1497e+002 -5.7960e+002  3.6043e+002 30788 106398,106277,106251
 1.8000e+000 106352 -5.8301e+002 -7.4749e+002  3.4092e+002 30788 106398,106251,106225
 1.8000e+000 106329 -7.9391e+002 -5.6067e+002  5.1228e+002 30788 106600,106199,106303
 1.8000e+000 106424 -6.6643e+002 -8.3702e+002  2.5824e+002 30788 106470,106398,106303
 1.8000e+000 106447 -5.3119e+002 -6.7223e+002  3.2102e+002 30788 106600,106303,106398
 1.8000e+000 106496 -1.9310e+002 -6.3645e+002  2.8374e+002 30788 106277,106398,106470
 1.8000e+000 106626 -9.6046e+002 -7.9105e+002  6.4318e+002 30788 106225,106199,106600
 1.8000e+000 106649 -7.7306e+002 -9.0905e+002  4.4874e+002 30788 106225,106600,106398
 1.8000e+000 106799 -2.1585e+002 -9.9413e+002  1.1778e+001 30426 106698,106750,106724
 1.8000e+000 106776 -2.2512e+002 -5.2564e+002  3.7576e+001 30426 106672,106750,106698
 1.8000e+000 107356 -6.2535e+002 -4.5524e+002  1.9900e+002 29972 107010,107166,107114
 1.8000e+000 107333 -6.2516e+002 -3.9881e+002  2.7580e+002 29972 106984,107166,107010
 1.8000e+000 107310 -5.7170e+002 -2.6176e+002  1.1928e+002 29972 107010,107114,107088
 1.8000e+000 107287 -5.5815e+002 -1.7345e+002  1.6443e+002 29972 107114,107166,107140
 1.8000e+000 107264 -6.1805e+002 -5.8140e+002  3.8173e+002 29972 106984,107192,107166
 1.8000e+000 107241 -6.8886e+002 -4.7706e+002  1.6440e+002 29972 107010,107088,107036
 1.8000e+000 107218 -4.2763e+002 -3.4554e+002  7.9675e+001 29972 107036,107088,107062
 1.8000e+000 107783 -6.4419e+002 -8.9420e+002  4.1384e+002 29724 107878,107806,107590
 1.8000e+000 107760 -7.7324e+002 -9.2139e+002  3.3904e+002 29724 107806,107512,107486
 1.8000e+000 107737 -6.6873e+002 -8.4487e+002  4.8885e+002 29724 107878,107590,107538
 1.8000e+000 107714 -6.1678e+002 -9.6886e+002  4.3867e+002 29724 107950,107460,107616
 1.8000e+000 107691 -5.5282e+002 -9.2949e+002  4.0654e+002 29724 107460,107642,107616
 1.8000e+000 107668 -4.4725e+002 -6.9322e+002  5.5762e+002 29724 107538,107590,107564
 1.8000e+000 107832 -4.3257e+002 -8.7251e+002  4.7332e+002 29724 107616,107590,107806
 1.8000e+000 107855 -6.2729e+002 -9.7724e+002  4.2117e+002 29724 107950,107616,107806
 1.8000e+000 107904 -5.9613e+002 -7.7805e+002  4.1016e+002 29724 107512,107806,107878
 1.8000e+000 107927 -6.0551e+002 -7.0103e+002  4.9933e+002 29724 107512,107878,107538
 1.8000e+000 107976 -3.5055e+002 -9.8092e+002  4.8512e+002 29724 107486,107460,107950
 1.8000e+000 107999 -5.9581e+002 -1.0462e+003  4.0482e+002 29724 107486,107950,107806
 1.8000e+000 108296 -6.6971e+002 -5.5940e+002  3.6440e+002 29206 108319,108100,108048
 1.8000e+000 108273 -4.0060e+002 -4.9961e+002  4.2082e+002 29206 108319,108048,108022
 1.8000e+000 108250 -2.1696e+002 -6.0097e+002  5.0533e+002 29206 108391,108152,108126
 1.8000e+000 108227 -7.8546e+002 -4.0785e+002  4.5109e+002 29206 108048,108100,108074
 1.8000e+000 108204 -3.1338e+002 -8.1938e+002  4.2733e+002 29206 108022,108178,108152
 1.8000e+000 108345 -4.9389e+002 -3.6011e+002  5.2109e+002 29206 108126,108100,108319
 1.8000e+000 108368 -2.8471e+002 -4.8951e+002  5.7226e+002 29206 108391,108126,108319
 1.8000e+000 108417 -3.9955e+002 -7.4035e+002  4.2974e+002 29206 108022,108152,108391
 1.8000e+000 108440 -4.5071e+002 -6.5520e+002  4.9968e+002 29206 108022,108391,108319
 1.8000e+000 108688 -7.2840e+002 -8.6629e+002  4.2603e+002 28595 108711,108541,108515
 1.8000e+000 108665 -1.0359e+003 -9.4121e+002  6.5831e+002 28595 108783,108711,108515
 1.8000e+000 108642 -1.2932e+003 -8.0612e+002  6.7056e+002 28595 108783,108515,108489
 1.8000e+000 108619 -1.3354e+003 -9.8790e+002  3.6516e+002 28595 108463,108593,108489
 1.8000e+000 108737 -6.4667e+002 -6.3753e+002  2.9670e+002 28595 108567,108541,108711
 1.8000e+000 108760 -5.3332e+002 -7.4304e+002  5.6922e+002 28595 108567,108711,108593
 1.8000e+000 108809 -6.6413e+002 -9.2746e+002  4.9118e+002 28595 108593,108711,108783
 1.8000e+000 108832 -1.0244e+003 -8.4187e+002  4.4532e+002 28595 108593,108783,108489
 1.8000e+000 109033 -2.2344e+002 -3.8718e+002  1.6996e+002 28091 108909,108961,108935
 1.8000e+000 109010 -2.9380e+002 -3.6276e+002  1.5815e+002 28091 108857,108961,108909
 1.8000e+000 108987 -5.1824e+002 -5.7975e+002  4.3939e+002 28091 108857,108909,108883
 1.8000e+000 109136 -5.3721e+002 -1.2728e+003  2.2571e+002 27587 109058,109110,109084
 1.8000e+000 109695 -6.5449e+002 -6.0411e+002  1.9329e+002 26969 109718,109375,109323
 1.8000e+000 109672 -6.2216e+002 -5.5055e+002  1.6389e+002 26969 109718,109323,109505
 1.8000e+000 109649 -7.2037e+002 -2.0254e+002  8.0955e+001 26969 109790,109453,109427
 1.8000e+000 109626 -1.9277e+002 -6.3052e+002  2.6292e+002 26969 109323,109375,109349
 1.8000e+000 109603 -5.9590e+002 -6.1839e+002  2.0480e+002 26969 109323,109531,109505
 1.8000e+000 109580 -3.0732e+002 -5.5712e+002  5.0711e+001 26969 109375,109427,109401
 1.8000e+000 109557 -7.9268e+002 -3.6434e+002  2.4167e+002 26969 109453,109505,109479
 1.8000e+000 109744 -6.3872e+002 -6.2835e+002  8.3123e+001 26969 109427,109375,109718
 1.8000e+000 109767 -5.4723e+002 -3.6097e+002  5.6973e+001 26969 109790,109427,109718
 1.8000e+000 109816 -7.9653e+002 -3.7557e+002  1.5032e+002 26969 109505,109453,109790
 1.8000e+000 109839 -6.7961e+002 -5.8002e+002  1.5355e+002 26969 109505,109790,109718
 1.8000e+000 110266 -4.2706e+002 -6.3537e+002  2.5319e+002 26515 110361,110289,110099
 1.8000e+000 110243 -3.2763e+002 -4.8838e+002  2.7871e+002 26515 110289,109995,109943
 1.8000e+000 110220 -5.3365e+002 -6.7525e+002  2.3996e+002 26515 110361,110099,110021
 1.8000e+000 110197 -4.7756e+002 -1.3571e+003  1.7658e+002 26515 110047,110099,110073
 1.8000e+000 110174 -5.3739e+002 -1.2195e+003 -6.9405e+001 26515 110021,110099,110047
 1.8000e+000 110151  2.0034e+001 -2.0699e+001  4.3420e+002 26515 109943,109995,109969
 1.8000e+000 110315 -6.5050e+002 -4.4402e+002  2.1505e+002 26515 110125,110099,110289
 1.8000e+000 110338 -4.5794e+002 -1.8739e+002  4.2691e+002 26515 110125,110289,109943
 1.8000e+000 110387 -5.2969e+002 -6.2237e+002  1.4188e+002 26515 109995,110289,110361
 1.8000e+000 110410 -6.1417e+002 -6.3837e+002  1.3779e+002 26515 109995,110361,110021
 1.8000e+000 110609 -1.9208e+002 -7.7010e+002  2.6542e+002 25789 110906,110762,110632
 1.8000e+000 110586 -2.0407e+002 -9.3442e+002  2.9576e+002 25789 110762,110433,110537
 1.8000e+000 110563 -4.7825e+002 -8.6226e+002  4.5376e+002 25789 110834,110459,110433
 1.8000e+000 110658 -2.8535e+002 -7.5175e+002  3.4150e+002 25789 110906,110632,110834
 1.8000e+000 110788 -1.4338e+002 -5.3731e+002  1.8517e+002 25789 110511,110632,110762
 1.8000e+000 110811 -1.8134e+002 -7.7091e+002  3.0615e+002 25789 110511,110762,110537
 1.8000e+000 110860 -2.9781e+002 -7.5914e+002  4.0236e+002 25789 110485,110459,110834
 1.8000e+000 110883 -3.6853e+002 -7.7001e+002  3.5330e+002 25789 110485,110834,110632
 1.8000e+000 110932 -3.9756e+002 -8.3569e+002  2.8487e+002 25789 110433,110762,110906
 1.8000e+000 110955 -4.7161e+002 -7.9192e+002  3.4627e+002 25789 110433,110906,110834
 1.8000e+000 111350 -5.2548e+002 -7.0354e+002  4.1399e+002 25228 111445,111373,111186
 1.8000e+000 111327 -5.9967e+002 -7.1747e+002  1.6668e+002 25228 110978,111186,111004
 1.8000e+000 111304 -5.8629e+002 -8.6866e+002  3.4549e+002 25228 111373,111108,111082
 1.8000e+000 111281 -4.7885e+002 -9.4766e+002  3.5210e+002 25228 111134,111186,111160
 1.8000e+000 111258 -5.0407e+002 -6.8227e+002  4.3477e+002 25228 111445,111186,111134
 1.8000e+000 111235 -5.0528e+002 -5.9012e+002  2.3542e+002 25228 111517,111030,111004
 1.8000e+000 111212 -7.5479e+002 -7.4378e+002  3.7026e+002 25228 111030,111082,111056
 1.8000e+000 111399 -5.4396e+002 -7.8481e+002  3.9359e+002 25228 111004,111186,111373
 1.8000e+000 111422 -4.3334e+002 -6.6560e+002  3.1873e+002 25228 111517,111004,111373
 1.8000e+000 111471 -5.7567e+002 -7.0205e+002  3.7247e+002 25228 111108,111373,111445
 1.8000e+000 111494 -5.4960e+002 -6.7286e+002  3.9462e+002 25228 111108,111445,111134
 1.8000e+000 111543 -6.3984e+002 -6.4762e+002  3.0282e+002 25228 111082,111030,111517
 1.8000e+000 111566 -5.7039e+002 -7.4650e+002  3.8807e+002 25228 111082,111517,111373
 1.8000e+000 112074 -4.5857e+002 -5.6969e+002  3.1117e+002 24338 112097,111907,111881
 1.8000e+000 112051 -6.5262e+002 -5.7773e+002  2.1776e+002 24338 112097,111881,111829
 1.8000e+000 112028 -3.0561e+002 -6.5202e+002  1.3833e+002 24338 111829,111881,111855
 1.8000e+000 112005 -8.6277e+002 -8.6163e+002  2.1137e+002 24338 111777,111933,111829
 1.8000e+000 111982 -1.1220e+003 -2.6491e+002  2.5619e+002 24338 111751,111933,111777
 1.8000e+000 111959 -9.6575e+002 -8.5432e+002  2.0249e+002 24338 111777,111829,111803
 1.8000e+000 112123 -6.3214e+002 -7.7565e+002  2.0198e+002 24338 111933,111907,112097
 1.8000e+000 112146 -7.4218e+002 -5.9471e+002  1.6711e+002 24338 111933,112097,111829
 1.8000e+000 112443 -7.8051e+002 -5.8480e+002  3.6410e+002 23998 112466,112299,112247
 1.8000e+000 112420 -8.1759e+002 -9.5175e+002  2.8749e+002 23998 112466,112247,112221
 1.8000e+000 112397 -6.0179e+002 -1.0189e+003  4.6520e+002 23998 112169,112325,112221
 1.8000e+000 112374 -6.9230e+002 -8.6077e+002  3.7485e+002 23998 112169,112221,112195
 1.8000e+000 112351 -2.8039e+002 -5.6110e+002  3.9727e+002 23998 112247,112299,112273
 1.8000e+000 112492 -6.7506e+002 -6.4723e+002  5.7535e+002 23998 112325,112299,112466
 1.8000e+000 112515 -7.6009e+002 -8.5662e+002  4.6803e+002 23998 112325,112466,112221
 1.8000e+000 113200 -7.4685e+002 -9.2122e+002  5.9151e+002 23480 112779,112961,112805
 1.8000e+000 113177 -8.0488e+002 -6.2091e+002  2.7082e+002 23480 112779,112987,112961
 1.8000e+000 113154 -2.4930e+002 -5.1882e+002  3.8270e+002 23480 112805,112961,112883
 1.8000e+000 113131 -5.0770e+002 -8.4985e+002  4.1238e+002 23480 112883,112935,112909
 1.8000e+000 113108 -6.3874e+002 -6.8483e+002  4.2580e+002 23480 112883,112961,112935
 1.8000e+000 113085 -3.2459e+002 -4.2670e+002  2.0405e+002 23480 112831,112883,112857
 1.8000e+000 113062 -4.3711e+002 -5.1479e+002  2.5494e+002 23480 112805,112883,112831
 1.8000e+000 113039 -8.4661e+002 -4.9677e+002  2.7948e+002 23480 112779,113013,112987
 1.8000e+000 113676 -7.1660e+002 -4.0086e+002  5.3295e+002 23018 113699,113434,113356
 1.8000e+000 113653 -6.4132e+002 -3.8624e+002  2.9886e+002 23018 113771,113699,113356
 1.8000e+000 113630 -5.8278e+002 -5.7711e+002  2.0835e+002 23018 113771,113356,113512
 1.8000e+000 113607 -4.0153e+002 -8.1952e+002  3.4646e+002 23018 113330,113512,113356
 1.8000e+000 113584 -1.3751e+003 -7.8654e+002  7.8628e+002 23018 113356,113434,113382
 1.8000e+000 113561 -1.4949e+002 -7.6966e+002  3.3601e+002 23018 113304,113512,113330
 1.8000e+000 113538 -1.4418e+003 -2.7570e+002  3.5608e+002 23018 113382,113434,113408
 1.8000e+000 113725 -8.0423e+002 -6.1776e+002  5.4715e+002 23018 113460,113434,113699
 1.8000e+000 113748 -8.2562e+002 -6.4112e+002  3.6064e+002 23018 113460,113699,113486
 1.8000e+000 113797 -8.0429e+002 -6.7328e+002  3.6399e+002 23018 113486,113699,113771
 1.8000e+000 113820 -6.4905e+002 -7.1015e+002  2.3197e+002 23018 113486,113771,113512
 1.8000e+000 114424 -6.7972e+002 -6.2733e+002  1.1585e+002 22514 114447,114133,114029
 1.8000e+000 114401 -7.0412e+002 -7.9227e+002  1.1797e+002 22514 114447,114029,114237
 1.8000e+000 114378 -7.4142e+002 -4.4055e+002  5.5459e+001 22514 114133,114211,114185
 1.8000e+000 114355 -1.1652e+003 -4.8403e+002  5.9117e+000 22514 114133,114185,114159
 1.8000e+000 114332 -4.7128e+002 -8.0362e+002  3.0506e+002 22514 114003,114237,114029
 1.8000e+000 114309 -7.6650e+002 -5.9555e+002  4.7886e+001 22514 114029,114133,114055
 1.8000e+000 114286 -8.4517e+002 -5.9436e+002  8.6311e+001 22514 114055,114133,114107
 1.8000e+000 114263 -5.8353e+002 -6.1002e+001  1.9959e+002 22514 114055,114107,114081
 1.8000e+000 114473 -7.3285e+002 -5.4111e+002  1.8757e+002 22514 114211,114133,114447
 1.8000e+000 114496 -7.2732e+002 -6.6143e+002  1.8557e+002 22514 114211,114447,114237
 1.8000e+000 114597 -3.7264e+002 -9.5936e+002  4.8928e+002 22316 114620,114571,114545
 1.8000e+000 114646 -3.7264e+002 -9.5936e+002  4.8928e+002 22316 114519,114571,114620
 1.8000e+000 115127 -9.3171e+002 -6.1102e+002  3.3893e+002 21612 115150,114905,114879
 1.8000e+000 115104 -1.1025e+003 -3.8966e+002  3.7137e+002 21612 115150,114879,114853
 1.8000e+000 115081 -6.9317e+002 -2.2213e+002  4.7791e+002 21612 115222,114931,114905
 1.8000e+000 115058 -7.9572e+002 -5.1780e+002  3.8570e+002 21612 115222,114905,115009
 1.8000e+000 115035 -4.1005e+002 -6.3579e+002  2.3564e+002 21612 114957,115009,114983
 1.8000e+000 115176 -8.3629e+002 -4.7548e+002  2.8993e+002 21612 115009,114905,115150
 1.8000e+000 115199 -9.8063e+002 -2.1634e+002  3.0984e+002 21612 115009,115150,114853
 1.8000e+000 115248 -6.6297e+002 -5.0193e+002  3.6944e+002 21612 114957,114931,115222
 1.8000e+000 115271 -7.6122e+002 -7.8862e+002  2.7570e+002 21612 114957,115222,115009
 1.8000e+000 115519 -2.2912e+002  1.0462e+002  2.4981e+002 21208 115542,115372,115320
 1.8000e+000 115496 -2.1636e+001  2.6410e+002  2.3276e+001 21208 115542,115320,115294
 1.8000e+000 115473 -1.5440e+002 -4.0284e+002  3.4099e+002 21208 115320,115372,115346
 1.8000e+000 115450 -5.1896e+002 -1.8144e+002  1.3439e+002 21208 115294,115424,115398
 1.8000e+000 115568 -3.1859e+002  5.7695e+000  3.3245e+002 21208 115398,115372,115542
 1.8000e+000 115591 -2.5272e+002 -1.2971e+002  1.4132e+002 21208 115398,115542,115294
 1.8000e+000 115839 -6.4532e+002 -4.7525e+002  4.1678e+002 20668 115862,115640,115614
 1.8000e+000 115816 -7.0153e+002 -5.2945e+002  4.4637e+002 20668 115862,115614,115744
 1.8000e+000 115793 -8.7225e+002 -3.7495e+002  4.2518e+002 20668 115640,115718,115692
 1.8000e+000 115770 -9.5334e+002 -3.6116e+002  4.0504e+002 20668 115640,115692,115666
 1.8000e+000 115888 -7.2436e+002 -3.6942e+002  4.6806e+002 20668 115718,115640,115862
 1.8000e+000 115911 -8.0011e+002 -4.7786e+002  5.1094e+002 20668 115718,115862,115744
 1.8000e+000 116134 -4.3862e+002 -7.4443e+002  4.1872e+002 20264 115958,116036,115984
 1.8000e+000 116111 -2.5832e+002 -6.6234e+002  4.0047e+002 20264 115958,116062,116036
 1.8000e+000 116088 -2.6350e+002 -6.9188e+002  4.5484e+002 20264 115984,116036,116010
 1.8000e+000 116384 -6.7903e+002 -4.6710e+002  4.7506e+002 19924 116407,116211,116159
 1.8000e+000 116361 -6.4378e+002 -7.8016e+002  3.8474e+002 19924 116407,116159,116263
 1.8000e+000 116338 -6.3984e+002 -3.1469e+002  4.6975e+002 19924 116159,116211,116185
 1.8000e+000 116315 -4.5507e+002 -8.0654e+002  4.7748e+002 19924 116159,116289,116263
 1.8000e+000 116433 -6.5013e+002 -2.9451e+002  5.5419e+002 19924 116237,116211,116407
 1.8000e+000 116456 -4.9333e+002 -5.0285e+002  5.0277e+002 19924 116237,116407,116263
 1.8000e+000 116608 -4.9714e+002 -1.4373e+002  3.3523e+002 19520 116703,116631,116533
 1.8000e+000 116585 -4.9156e+002 -2.0275e+002  2.8005e+002 19520 116631,116507,116481
 1.8000e+000 116657 -3.7472e+002 -2.1476e+002  3.5377e+002 19520 116559,116533,116631
 1.8000e+000 116680 -4.5428e+002 -3.6661e+002  2.8254e+002 19520 116559,116631,116481
 1.8000e+000 116729 -4.9714e+002 -1.4373e+002  3.3523e+002 19520 116507,116631,116703
 1.8000e+000 116952 -5.6930e+002 -5.4412e+002  7.1781e+002 19208 116975,116802,116776
 1.8000e+000 116929 -7.3831e+002 -9.8053e+002  4.1740e+002 19208 116975,116776,116880
 1.8000e+000 116906 -8.6121e+002 -3.6241e+002  5.0130e+002 19208 116802,116854,116828
 1.8000e+000 117001 -4.4965e+002 -4.6371e+002  7.5512e+002 19208 116854,116802,116975
 1.8000e+000 117024 -1.8936e+002 -5.7525e+002  5.9993e+002 19208 116854,116975,116880
 1.8000e+000 117428 -6.1908e+002 -2.2388e+002  4.0589e+002 18796 117154,117206,117180
 1.8000e+000 117405 -4.2726e+002 -4.8958e+002  3.5545e+002 18796 117154,117284,117206
 1.8000e+000 117382 -2.6933e+002 -4.2087e+002  3.6524e+002 18796 117154,117310,117284
 1.8000e+000 117359 -2.3678e+002 -3.5169e+002  4.6656e+002 18796 117206,117284,117258
 1.8000e+000 117336 -2.6336e+001 -6.5806e+001  6.4847e+002 18796 117206,117258,117232
 1.8000e+000 117529 -3.2513e+002 -1.8872e+002  2.0321e+002 18228 117810,117552,117477
 1.8000e+000 117578 -6.6082e+002 -4.7346e+002  2.8833e+002 18228 117682,117552,117503
 1.8000e+000 117708 -2.3756e+002 -2.5236e+002  1.9065e+002 18228 117477,117552,117682
 1.8000e+000 117836 -4.6758e+002 -4.7419e+002  2.6504e+002 18228 117451,117552,117810
 1.8000e+000 118364 -7.5906e+002 -2.3367e+002  2.9663e+002 17722 118067,118223,118093
 1.8000e+000 118341 -6.9657e+002 -1.4905e+002  3.2635e+002 17722 118041,118223,118067
 1.8000e+000 118318 -4.2387e+002 -2.1697e+002  2.0055e+002 17722 118093,118223,118197
 1.8000e+000 118295 -1.0561e+003 -1.1286e+003  7.1527e+002 17722 118119,118197,118171
 1.8000e+000 118272 -2.0522e+002 -1.9247e+001  3.2441e+002 17722 118093,118197,118119
 1.8000e+000 118249 -8.8954e+002 -7.1943e+002  7.5481e+002 17722 118119,118171,118145
 1.8000e+000 118514 -1.1632e+003 -4.5070e+002  4.1275e+002 17268 118387,118439,118413
 1.8000e+000 118491 -5.8419e+001 -4.5738e+002  3.7957e+002 17268 118387,118465,118439
 1.8000e+000 118916 -9.8147e+002 -3.1931e+002  2.8591e+002 16828 118668,118772,118694
 1.8000e+000 118893 -1.2348e+003 -4.5035e+002  2.3831e+002 16828 118668,118798,118772
 1.8000e+000 118870 -1.3642e+003 -8.0615e+002  1.7872e+002 16828 118642,118798,118668
 1.8000e+000 118847 -4.4161e+002 -1.7718e+002  4.7194e+002 16828 118694,118746,118720
 1.8000e+000 118824 -1.0392e+003 -5.5788e+002  2.4448e+002 16828 118694,118772,118746
 1.8000e+000 119316 -3.9747e+002 -3.2395e+002  4.6016e+002 16422 119042,119172,119094
 1.8000e+000 119293 -5.2557e+002 -3.6407e+002  4.6488e+002 16422 119042,119198,119172
 1.8000e+000 119270 -6.5930e+002 -1.8100e+002  2.7028e+002 16422 119042,119094,119068
 1.8000e+000 119247 -2.2346e+002 -1.5209e+002  6.6066e+002 16422 119094,119146,119120
 1.8000e+000 119224 -3.2732e+002 -2.0690e+002  4.9111e+002 16422 119094,119172,119146
 1.8000e+000 119466 -1.3863e+003 -2.6503e+002 -1.0698e+002 16010 119339,119391,119365
 1.8000e+000 119443 -5.9833e+002 -4.1881e+002  2.9984e+002 16010 119339,119417,119391
 1.8000e+000 119616 -2.1409e+002 -3.6336e+001  3.5595e+002 15547 119515,119567,119541
 1.8000e+000 119593  2.4030e+002  2.9723e+002  8.5643e+002 15547 119489,119567,119515
 1.8000e+000 119719 -7.8987e+002 -2.9163e+002  4.0169e+002 421 119641,119693,119667
 1.9000e+000 69562 -7.9990e+002 -3.9284e+002  6.7683e+002 69254 69484,69536,69510
 1.9000e+000 70009 -4.0022e+002 -3.9907e+002  3.6008e+002 68942 69686,69842,69816
 1.9000e+000 69986 -3.7680e+002 -1.6299e+002  2.1747e+002 68942 69686,69868,69842
 1.9000e+000 69963 -9.4542e+001 -3.1796e+001  4.9679e+002 68942 69686,69816,69712
 1.9000e+000 69940 -8.6575e+001 -1.0604e+002  7.1001e+002 68942 69712,69790,69738
 1.9000e+000 69917 -5.6455e+002 -1.1280e+003  4.7722e+002 68942 69712,69816,69790
 1.9000e+000 69894 -1.4421e+000 -6.0786e+002  2.6979e+002 68942 69738,69790,69764
 1.9000e+000 70110 -3.5653e+002 -3.8659e+001  2.7000e+002 68766 70032,70084,70058
 1.9000e+000 70746 -1.7495e+002 -1.7098e+002  2.4992e+002 68448 70400,70556,70426
 1.9000e+000 70723 -7.6305e+002 -2.6040e+002  3.8945e+002 68448 70374,70556,70400
 1.9000e+000 70700 -4.0457e+002 -2.1134e+002  1.9543e+002 68448 70426,70556,70478
 1.9000e+000 70677 -5.8467e+002 -1.6906e+002  2.2779e+002 68448 70478,70556,70504
 1.9000e+000 70654 -3.0761e+002 -1.6864e+002  1.2674e+002 68448 70426,70478,70452
 1.9000e+000 70631 -7.7938e+002 -3.1763e+002  4.6575e+002 68448 70374,70582,70556
 1.9000e+000 70608 -6.1510e+002 -2.3705e+002  2.2107e+002 68448 70504,70556,70530
 1.9000e+000 70896 -5.6629e+002 -3.8003e+001  5.5092e+001 68250 70795,70847,70821
 1.9000e+000 70873 -1.4385e+003 -3.8149e+002  1.0141e+002 68250 70769,70847,70795
 1.9000e+000 70997 -2.3626e+003 -1.1681e+003  1.0510e+003 68052 70919,70971,70945
 1.9000e+000 71367 -7.1999e+002 -1.1687e+003  4.3859e+002 67740 71096,71226,71200
 1.9000e+000 71344 -4.4992e+002 -6.5151e+002  5.5457e+002 67740 71044,71226,71096
 1.9000e+000 71321  8.3073e+001 -8.3073e+001  8.7170e+002 67740 71044,71096,71070
 1.9000e+000 71298 -5.1241e+002 -1.2648e+003  8.5386e+002 67740 71096,71200,71174
 1.9000e+000 71275 -3.0299e+002 -7.4967e+002  3.3898e+002 67740 71096,71148,71122
 1.9000e+000 71252 -4.1371e+002 -9.0316e+002  5.5925e+002 67740 71096,71174,71148
 1.9000e+000 71519  2.9429e+002  2.2077e+002  2.8118e+002 67542 71418,71470,71444
 1.9000e+000 71496  4.8913e+002  8.7296e+002  8.7530e+002 67542 71392,71470,71418
 1.9000e+000 71923 -1.1273e+002  8.7219e+001  2.1462e+002 67230 71649,71779,71675
 1.9000e+000 71900 -5.6277e+001 -1.5829e+002  9.4713e+001 67230 71649,71805,71779
 1.9000e+000 71877 -8.9652e+001  9.1335e-001  4.2267e+002 67230 71675,71727,71701
 1.9000e+000 71854 -1.5499e+002 -6.2383e+002  3.7689e+002 67230 71675,71753,71727
 1.9000e+000 71831 -1.8146e+002 -3.4832e+002  2.5938e+002 67230 71675,71779,71753
 1.9000e+000 72433 -3.9719e+002 -1.7475e+002  3.6095e+002 67032 72038,72246,72220
 1.9000e+000 72410 -2.4675e+002  6.8909e+001  1.4474e+002 67032 72012,72246,72038
 1.9000e+000 72387 -4.0628e+002 -9.3806e+001  3.9537e+002 67032 72064,72194,72168
 1.9000e+000 72364 -4.6946e+002 -1.5691e+002  4.2684e+002 67032 72038,72194,72064
 1.9000e+000 72341 -5.9634e+002 -7.0640e+002  4.1993e+002 67032 72038,72220,72194
 1.9000e+000 72318 -1.3123e+002  1.0591e+002  2.1442e+002 67032 72090,72168,72142
 1.9000e+000 72295  7.3892e+001  1.0967e+002  3.2757e+002 67032 72064,72168,72090
 1.9000e+000 72272 -1.6573e+002  7.4078e+001  1.9810e+002 67032 72090,72142,72116
 1.9000e+000 72933 -3.3728e+002 -4.3351e+002  4.1293e+002 66628 72956,72665,72613
 1.9000e+000 72910 -2.9858e+002 -4.3276e+002  4.2026e+002 66628 73100,72956,72613
 1.9000e+000 72887 -4.4031e+002 -6.3861e+002  3.2747e+002 66628 73028,72691,72665
 1.9000e+000 72864 -2.7015e+002 -3.8590e+002  4.4080e+002 66628 73100,72613,72587
 1.9000e+000 72841 -3.2167e+002 -4.1414e+002  3.7912e+002 66628 72613,72665,72639
 1.9000e+000 72818  1.6877e+002  4.9640e+001  5.6945e+002 66628 72587,72769,72743
 1.9000e+000 72795 -3.4149e+002 -8.9450e+002  9.7287e+001 66628 72561,72769,72587
 1.9000e+000 72982 -4.2519e+002 -4.5992e+002  4.4559e+002 66628 73028,72665,72956
 1.9000e+000 73005 -3.4011e+002 -1.0823e+002  4.3703e+002 66628 72717,72956,72743
 1.9000e+000 73054 -6.6310e+002 -5.1496e+002  1.9981e+002 66628 72717,72691,73028
 1.9000e+000 73077 -6.4914e+002 -4.5710e+002  3.0378e+002 66628 72717,73028,72956
 1.9000e+000 73126 -3.3960e+002 -4.3066e+002  3.6431e+002 66628 72743,72956,73100
 1.9000e+000 73149 -3.0702e+002 -3.9069e+002  3.8487e+002 66628 72743,73100,72587
 1.9000e+000 73606 -4.3534e+002 -3.8749e+002  3.5756e+002 66281 73332,73384,73358
 1.9000e+000 73583 -5.3095e+002 -4.7664e+002  3.0571e+002 66281 73332,73462,73384
 1.9000e+000 73560 -6.8886e+002 -4.4891e+002  3.5190e+002 66281 73384,73462,73436
 1.9000e+000 73537 -1.0962e+003 -6.3585e+002  5.3810e+002 66281 73332,73488,73462
 1.9000e+000 73514 -8.0702e+002 -4.4596e+002  2.3496e+002 66281 73384,73436,73410
 1.9000e+000 73984  4.6199e+000 -9.7290e+001  3.7209e+001 65969 73736,73814,73788
 1.9000e+000 73961  7.3519e+001 -3.2495e+001  1.2216e-001 65969 73736,73866,73814
 1.9000e+000 73938 -1.0300e+002 -1.6089e+002  1.9421e+002 65969 73814,73866,73840
 1.9000e+000 73915 -3.2552e+000 -3.6585e+000  4.0802e+000 65969 73710,73866,73736
 1.9000e+000 73892  6.9373e+000 -1.1923e+002  1.6190e+001 65969 73736,73788,73762
 1.9000e+000 74232 -2.9232e+002 -3.9971e+002  3.5749e+002 65572 74255,74085,74033
 1.9000e+000 74209 -2.5121e+002 -4.4443e+002  2.8201e+002 65572 74327,74255,74033
 1.9000e+000 74186 -2.8717e+002 -3.1834e+002  2.8856e+002 65572 74327,74033,74007
 1.9000e+000 74163 -3.3592e+002 -5.0060e+002  3.9641e+002 65572 74033,74085,74059
 1.9000e+000 74281 -3.9082e+002 -5.3656e+002  4.7751e+002 65572 74111,74085,74255
 1.9000e+000 74304 -2.1968e+002 -4.6382e+002  3.2613e+002 65572 74111,74255,74137
 1.9000e+000 74353 -2.1926e+002 -2.9796e+002  2.4038e+002 65572 74137,74255,74327
 1.9000e+000 74376 -2.8284e+002 -2.0489e+002  2.5350e+002 65572 74137,74327,74007
 1.9000e+000 74884 -3.2869e+002 -3.9383e+002  2.9568e+002 65174 74587,74717,74613
 1.9000e+000 74861 -3.4354e+002 -4.4078e+002  2.1055e+002 65174 74561,74717,74587
 1.9000e+000 74838 -3.7866e+002 -5.2523e+002  2.9205e+002 65174 74613,74691,74639
 1.9000e+000 74815 -2.9982e+002 -4.9625e+002  2.7409e+002 65174 74613,74717,74691
 1.9000e+000 74792 -1.5503e+002 -8.8178e+002  2.0791e+002 65174 74639,74691,74665
 1.9000e+000 74769 -5.2049e+002 -1.8018e+002  2.2970e+002 65174 74561,74743,74717
 1.9000e+000 75412 -1.5300e+001 -2.7777e+002  8.1253e+002 64770 75167,75245,75219
 1.9000e+000 75389 -3.6404e+002 -7.5449e+002  5.5706e+002 64770 75115,75245,75167
 1.9000e+000 75366 -3.0140e+002 -9.7658e+002  7.1440e+002 64770 75089,75245,75115
 1.9000e+000 75343 -5.0728e+002 -2.2022e+002  5.9047e+002 64770 75167,75219,75193
 1.9000e+000 75320 -2.9119e+002 -6.0373e+002  5.8572e+002 64770 75115,75167,75141
 1.9000e+000 75297 -4.9692e+002 -1.3880e+003  7.7071e+002 64770 75089,75271,75245
 1.9000e+000 75861 -8.0744e+002 -4.0257e+002  7.5717e+002 64316 75538,75694,75564
 1.9000e+000 75838 -2.7144e+002 -1.4206e+002  5.9365e+002 64316 75538,75720,75694
 1.9000e+000 75815 -7.4510e+002 -5.4008e+002  5.9412e+002 64316 75590,75694,75642
 1.9000e+000 75792 -7.2579e+002 -7.1531e+002  6.4328e+002 64316 75564,75694,75590
 1.9000e+000 75769 -1.8462e+002 -8.7123e+002  3.2587e+002 64316 75590,75642,75616
 1.9000e+000 75746 -7.0066e+002 -3.1432e+002  5.7747e+002 64316 75642,75694,75668
 1.9000e+000 76239 -1.1281e+003 -9.2781e+002  5.4222e+002 64018 76262,76095,76043
 1.9000e+000 76216 -8.1641e+002 -8.6898e+002  4.2247e+002 64018 76262,76043,76017
 1.9000e+000 76193 -3.4556e+002 -4.9448e+002  3.6623e+002 64018 75991,76121,76017
 1.9000e+000 76170 -1.0419e+003 -7.3061e+002  6.8256e+002 64018 76043,76095,76069
 1.9000e+000 76147 -1.2417e+001 -5.0250e+002  7.8603e+001 64018 75965,76121,75991
 1.9000e+000 76288 -7.8082e+002 -1.1305e+003  6.8257e+002 64018 76121,76095,76262
 1.9000e+000 76311 -5.3254e+002 -1.0899e+003  5.2077e+002 64018 76121,76262,76017
 1.9000e+000 76866 -3.6964e+002 -4.8294e+002  4.4947e+002 63728 76520,76676,76546
 1.9000e+000 76843 -3.9340e+002 -4.9620e+002  3.7036e+002 63728 76520,76702,76676
 1.9000e+000 76820 -2.7613e+002 -4.5416e+002  3.9975e+002 63728 76546,76650,76572
 1.9000e+000 76797 -5.3739e+002 -5.6455e+002  3.8571e+002 63728 76546,76676,76650
 1.9000e+000 76774 -5.0390e+002 -7.6955e+001  2.2268e+002 63728 76572,76650,76624
 1.9000e+000 76751 -3.2375e+002 -4.6398e+002  3.8769e+002 63728 76494,76702,76520
 1.9000e+000 76728 -9.3893e+001 -2.3944e+002  1.5160e+002 63728 76572,76624,76598
 1.9000e+000 77065 -2.8600e+001 -4.3119e+002  2.9576e+002 63288 77088,76941,76915
 1.9000e+000 77042 -3.5058e+002 -5.4650e+002  3.0133e+002 63288 77088,76915,76993
 1.9000e+000 77019 -1.2444e+002 -5.5548e+002  2.6254e+002 63288 76889,76993,76915
 1.9000e+000 77114 -2.2990e+002 -4.3620e+002  2.2175e+002 63288 76967,76941,77088
 1.9000e+000 77137 -6.2961e+002 -5.3333e+002  1.3149e+002 63288 77160,77088,76993
 1.9000e+000 77186 -1.4245e+002 -3.2171e+002  1.8357e+002 63288 76967,77088,77160
 1.9000e+000 77417 -1.6146e+002 -2.9510e+002  8.2542e+001 62884 77440,77342,77316
 1.9000e+000 77394 -2.6367e+002 -4.8497e+002  2.9207e+001 62884 77770,77440,77316
 1.9000e+000 77466 -2.8692e+002 -4.6563e+002  1.6664e+001 62884 77512,77440,77368
 1.9000e+000 77489 -2.2937e+002 -5.0258e+002  3.0599e+001 62884 77642,77440,77290
 1.9000e+000 77538 -1.8703e+002 -3.9381e+002 -1.5009e+001 62884 77342,77440,77512
 1.9000e+000 77668 -2.9621e+002 -5.3796e+002 -3.6922e+001 62884 77368,77440,77642
 1.9000e+000 77796 -2.0684e+002 -4.5784e+002  2.1278e+001 62884 77290,77440,77770
 1.9000e+000 78479 -6.9329e+002 -8.2547e+002  4.5242e+002 62480 78084,78240,78214
 1.9000e+000 78456 -3.7352e+002 -6.7340e+002 -4.6727e+000 62480 78084,78266,78240
 1.9000e+000 78433 -4.1280e+002 -6.4213e+002  1.6705e+002 62480 78110,78214,78136
 1.9000e+000 78410 -4.8524e+002 -6.8765e+002  3.8591e+002 62480 78084,78214,78110
 1.9000e+000 78387 -4.7138e+002 -4.1563e+002  2.2849e+002 62480 78136,78214,78188
 1.9000e+000 78364 -2.3243e+002 -7.6554e+002 -3.6092e+001 62480 78058,78266,78084
 1.9000e+000 78341 -4.5285e+002 -4.5570e+002  3.7036e+002 62480 78136,78188,78162
 1.9000e+000 78318 -4.7367e+001 -5.9432e+002 -1.6535e+002 62480 78058,78292,78266
 1.9000e+000 78678 -4.9757e+002 -9.0552e+002  3.4893e+002 61926 78528,78606,78554
 1.9000e+000 78655 -2.0150e+002 -1.0544e+003  4.5087e+002 61926 78502,78606,78528
 1.9000e+000 78632 -3.0440e+002 -5.3380e+002  1.4808e+002 61926 78554,78606,78580
 1.9000e+000 79058 -5.0206e+002 -5.2632e+002  2.9029e+002 61614 78836,78914,78862
 1.9000e+000 79035 -6.1706e+002 -6.2935e+002  2.4112e+002 61614 78810,78914,78836
 1.9000e+000 79012 -3.9945e+002 -5.3547e+002  2.2489e+002 61614 78784,78914,78810
 1.9000e+000 78989 -4.3628e+002 -5.7353e+002  4.4013e+002 61614 78862,78914,78888
 1.9000e+000 78966 -3.2846e+002 -6.8954e+002  2.5610e+002 61614 78784,78940,78914
 1.9000e+000 79208 -3.3967e+002 -7.9236e+002  2.5705e+001 61366 79081,79133,79107
 1.9000e+000 79185 -3.2064e+002 -4.0490e+002  3.6950e+002 61366 79081,79159,79133
 1.9000e+000 79358  2.6894e+001  1.6445e+001  5.0103e+001 60962 79231,79283,79257
 1.9000e+000 79335 -1.9478e+002 -4.5931e+002  1.1503e+002 60962 79231,79309,79283
 1.9000e+000 79608 -3.1760e+002 -7.6583e+002  3.3455e+002 60508 79631,79435,79409
 1.9000e+000 79585 -2.2205e+002 -7.9808e+002  2.0410e+002 60508 79703,79631,79409
 1.9000e+000 79562 -1.6375e+002 -2.7318e+002  3.0481e+002 60508 79703,79409,79383
 1.9000e+000 79539 -7.2089e+002 -7.0261e+002  5.9738e+002 60508 79435,79487,79461
 1.9000e+000 79657 -3.8446e+002 -1.0027e+003  5.5471e+002 60508 79487,79435,79631
 1.9000e+000 79680 -1.8820e+002 -7.1187e+002  2.4692e+002 60508 79487,79631,79513
 1.9000e+000 79729 -1.1081e+002 -3.1696e+002  9.4213e+001 60508 79513,79631,79703
 1.9000e+000 79752 -2.5536e+002 -2.5711e+002  3.0820e+001 60508 79513,79703,79383
 1.9000e+000 80390 -4.3004e+002 -5.3969e+002  4.1937e+002 59997 80413,80096,80018
 1.9000e+000 80367 -6.8634e+002 -6.3300e+002  4.7899e+002 59997 80413,80018,80226
 1.9000e+000 80344 -3.7126e+002 -4.5858e+002  2.8839e+002 59997 80096,80174,80148
 1.9000e+000 80321 -1.4020e+003 -1.0489e+003  6.9842e+002 59997 80018,80096,80070
 1.9000e+000 80298 -4.9308e+002 -5.2681e+002  2.6139e+002 59997 80096,80148,80122
 1.9000e+000 80275 -3.6258e+002 -4.8127e+002  3.3779e+002 59997 80174,80226,80200
 1.9000e+000 80252 -7.3019e+002 -6.2202e+002 -9.5565e+001 59997 80018,80070,80044
 1.9000e+000 80439 -3.7030e+002 -5.8214e+002  3.2333e+002 59997 80174,80096,80413
 1.9000e+000 80462 -4.7694e+002 -5.3734e+002  3.5769e+002 59997 80174,80413,80226
 1.9000e+000 80840 -6.9264e+002 -6.3716e+002  3.0462e+002 59443 80863,80644,80618
 1.9000e+000 80817 -2.6700e+002 -4.8060e+002  3.4768e+002 59443 80863,80618,80566
 1.9000e+000 80794 -2.2240e+002 -4.1904e+002  4.1301e+002 59443 81007,80935,80670
 1.9000e+000 80771 -3.6215e+002 -4.4462e+002  3.8483e+002 59443 80566,80722,80696
 1.9000e+000 80748 -3.3537e+002 -6.2968e+002  4.0517e+002 59443 80566,80618,80592
 1.9000e+000 80889 -7.5404e+002 -5.8851e+002  5.0071e+002 59443 80935,80644,80863
 1.9000e+000 80912 -5.0967e+002 -5.1573e+002  4.1346e+002 59443 80696,80863,80566
 1.9000e+000 80961 -4.2323e+002 -4.9332e+002  4.9489e+002 59443 80696,80670,80935
 1.9000e+000 80984 -4.1426e+002 -4.2485e+002  4.5068e+002 59443 80696,80935,80863
 1.9000e+000 81033 -5.6074e+002 -8.1622e+002  5.8736e+002 59443 80644,80935,81007
 1.9000e+000 81360 -6.5965e+002 -4.2091e+002  3.0884e+002 59031 81383,81187,81161
 1.9000e+000 81337 -6.3274e+002 -4.7482e+002  1.1370e+002 59031 81455,81383,81161
 1.9000e+000 81314 -5.5602e+002 -3.2046e+002  1.7345e+002 59031 81455,81161,81135
 1.9000e+000 81291 -1.3171e+003 -2.3551e+002  5.4578e+002 59031 81187,81239,81213
 1.9000e+000 81409 -7.0989e+002 -7.2440e+002  3.9937e+002 59031 81239,81187,81383
 1.9000e+000 81432 -7.6398e+002 -5.3555e+002  1.1279e+002 59031 81239,81383,81265
 1.9000e+000 81481 -6.7943e+002 -2.0758e+002  1.4218e+002 59031 81265,81383,81455
 1.9000e+000 81504 -6.9909e+002 -1.4664e+002  1.6906e+002 59031 81265,81455,81135
 1.9000e+000 81835 -7.1946e+001 -2.7119e+002  7.8249e+001 58577 81610,81714,81636
 1.9000e+000 81812 -3.8199e+001 -3.0987e+002  8.4611e+001 58577 81610,81740,81714
 1.9000e+000 81789 -1.8958e+002 -3.1759e+002  4.6587e+001 58577 81636,81714,81688
 1.9000e+000 81766 -1.6337e+002 -2.7687e+002 -5.2584e+001 58577 81636,81688,81662
 1.9000e+000 81985 -1.6230e+002 -4.0013e+002  2.4166e+002 58030 81884,81936,81910
 1.9000e+000 81962 -3.3884e+002 -1.1176e+002  1.6359e+002 58030 81858,81936,81884
 1.9000e+000 82414 -1.3495e+002 -5.7116e+001  1.8159e+002 57690 82437,82169,82117
 1.9000e+000 82391 -1.7575e+002 -2.2815e+002  2.0692e+002 57690 82437,82117,82247
 1.9000e+000 82368  8.4229e+001  1.1580e+002  4.7334e+002 57690 82195,82247,82221
 1.9000e+000 82345 -1.4105e+002 -2.1331e+002  2.1095e+002 57690 82091,82247,82117
 1.9000e+000 82322 -2.3579e+002 -6.5307e+001  1.2389e+002 57690 82117,82169,82143
 1.9000e+000 82299 -1.6125e+002 -3.9653e+002  2.9095e+002 57690 82091,82273,82247
 1.9000e+000 82463 -1.9867e+002  1.0300e+001  2.6414e+002 57690 82195,82169,82437
 1.9000e+000 82486 -2.1576e+002 -1.1063e+002  2.6209e+002 57690 82195,82437,82247
 1.9000e+000 83041 -3.4613e+002 -3.6356e+002  2.4905e+002 57172 83064,82721,82695
 1.9000e+000 83018 -3.8734e+002 -3.8477e+002  3.6454e+002 57172 83064,82695,82851
 1.9000e+000 82995 -1.1301e+003 -5.1975e+002  4.9979e+002 57172 82669,82851,82695
 1.9000e+000 82972 -6.4801e+002 -4.5032e+002  3.3428e+002 57172 82773,82851,82825
 1.9000e+000 82949 -6.3281e+002 -5.1539e+002  5.1751e+002 57172 82773,82825,82799
 1.9000e+000 82926 -4.6681e+002 -2.9432e+002  2.1054e+002 57172 82721,82773,82747
 1.9000e+000 82903 -1.0979e+003 -3.7987e+002  5.4250e+002 57172 82669,82877,82851
 1.9000e+000 83090 -5.3404e+002 -4.3598e+002  2.3816e+002 57172 82773,82721,83064
 1.9000e+000 83113 -4.4903e+002 -4.0522e+002  3.4735e+002 57172 82773,83064,82851
 1.9000e+000 83747 -4.3960e+002 -4.0200e+002  2.7626e+002 56554 83770,83427,83401
 1.9000e+000 83724 -4.5498e+002 -5.4220e+002  3.3932e+002 56554 83842,83770,83401
 1.9000e+000 83701 -2.3012e+000 -4.3444e+002  1.1101e+002 56554 83842,83401,83583
 1.9000e+000 83678 -8.8680e+002 -8.1098e+002  6.9076e+002 56554 83914,83531,83505
 1.9000e+000 83655 -4.2863e+002 -3.5499e+002  1.0343e+002 56554 83531,83583,83557
 1.9000e+000 83632 -1.0884e+002 -1.3069e+002  9.0517e+001 56554 83375,83583,83401
 1.9000e+000 83609 -4.4730e+002 -4.0253e+002  2.9742e+002 56554 83427,83479,83453
 1.9000e+000 83796 -4.1728e+002 -3.8345e+002  2.8432e+002 56554 83479,83427,83770
 1.9000e+000 83819 -4.5756e+002 -3.4937e+002  3.0207e+002 56554 83479,83770,83505
 1.9000e+000 83868 -2.8970e+002 -2.3373e+002  4.0764e+002 56554 83505,83770,83842
 1.9000e+000 83891 -5.5909e+002 -4.6884e+002  5.1101e+002 56554 83914,83505,83842
 1.9000e+000 83940 -3.8460e+002 -8.1964e+002  3.5789e+002 56554 83583,83531,83914
 1.9000e+000 83963 -1.8068e+002 -7.6893e+002  2.6965e+002 56554 83583,83914,83842
 1.9000e+000 84341 -4.3781e+001 -7.3572e+002  2.0729e+002 56192 84067,84145,84119
 1.9000e+000 84318  8.0706e+001 -7.4762e+002  9.0700e+001 56192 84067,84223,84145
 1.9000e+000 84295 -1.8919e+002 -8.2824e+002 -1.0788e+002 56192 84145,84223,84197
 1.9000e+000 84272  4.5834e+001 -1.2636e+003  2.4569e+002 56192 84067,84119,84093
 1.9000e+000 84249 -6.5600e+002 -1.4152e+002  1.2563e+002 56192 84145,84197,84171
 1.9000e+000 84611 -2.5131e+002 -6.7033e+002  4.7532e+002 55538 84386,84490,84412
 1.9000e+000 84588 -2.7575e+002 -5.7541e+002  4.6460e+002 55538 84386,84516,84490
 1.9000e+000 84565 -4.6675e+002 -7.6285e+002  4.7387e+002 55538 84412,84490,84464
 1.9000e+000 84542 -2.7485e+002 -6.8585e+002  3.4630e+002 55538 84412,84464,84438
 1.9000e+000 84942 -4.7604e+002 -4.0388e+002  3.5531e+002 55084 84769,84847,84795
 1.9000e+000 84919 -4.8047e+002 -4.6024e+002  2.9706e+002 55084 84717,84847,84769
 1.9000e+000 84896 -5.1499e+002 -5.6182e+002  2.9726e+002 55084 84717,84769,84743
 1.9000e+000 84873 -5.5442e+002 -2.2888e+002  3.0530e+002 55084 84795,84847,84821
 1.9000e+000 85271 -3.6183e+001 -1.4809e+002  2.2749e+002 54580 85294,85098,85072
 1.9000e+000 85248 -5.4226e+002 -3.5022e+002  3.5132e+002 54580 85294,85072,85176
 1.9000e+000 85225 -8.1651e+002 -1.5643e+001  1.1022e+002 54580 85124,85176,85150
 1.9000e+000 85202 -1.1720e+002 -3.0140e+002  8.3302e+001 54580 85046,85176,85072
 1.9000e+000 85320 -4.9458e+002 -1.6291e+002  3.0170e+002 54580 85124,85098,85294
 1.9000e+000 85343 -7.6124e+002 -1.6261e+002  3.8283e+002 54580 85124,85294,85176
 1.9000e+000 85542 -3.1039e+002 -5.4416e+002  3.0862e+002 53976 85565,85444,85418
 1.9000e+000 85519 -3.2473e+002 -4.4816e+002  2.8417e+002 53976 85565,85418,85366
 1.9000e+000 85496 -2.4909e+002 -3.7903e+002  1.7053e+002 53976 85366,85418,85392
 1.9000e+000 85591 -3.8329e+002 -5.1080e+002  2.1965e+002 53976 85470,85444,85565
 1.9000e+000 85614 -2.9739e+002 -2.3884e+002  2.1996e+002 53976 85470,85565,85366
 1.9000e+000 85960 -6.4607e+002 -5.5596e+002  4.1700e+002 53572 85663,85715,85689
 1.9000e+000 85937 -5.9119e+002 -5.4362e+002  2.8739e+002 53572 85983,85715,85663
 1.9000e+000 85914 -6.6242e+002 -7.0406e+002  3.5465e+002 53572 86055,85983,85663
 1.9000e+000 85891 -6.2463e+002 -6.9937e+002  4.7336e+002 53572 86055,85663,85637
 1.9000e+000 85868 -9.3228e+002 -1.3941e+003  5.5942e+002 53572 85637,85793,85767
 1.9000e+000 85845 -1.9128e+003 -5.7918e+002  4.1703e+002 53572 85637,85819,85793
 1.9000e+000 86009 -6.4128e+002 -4.6438e+002  2.9948e+002 53572 85741,85715,85983
 1.9000e+000 86032 -6.0213e+002 -4.7055e+002  2.8318e+002 53572 85741,85983,85767
 1.9000e+000 86081 -5.7338e+002 -4.3002e+002  3.2330e+002 53572 85767,85983,86055
 1.9000e+000 86104 -6.0371e+002 -5.5466e+002  4.3501e+002 53572 85767,86055,85637
 1.9000e+000 86693 -8.7397e+002 -2.2204e+002  5.0219e+002 52946 86474,86526,86500
 1.9000e+000 86670 -3.8490e+001 -4.6962e+001  1.1961e+002 52946 86396,86526,86474
 1.9000e+000 86647 -6.6123e+002 -4.0293e+002  3.1825e+002 52946 86370,86526,86396
 1.9000e+000 86624  8.5169e+000 -3.4959e+000 -2.9095e+000 52946 86422,86474,86448
 1.9000e+000 86601 -1.3208e+002 -2.3267e+001  5.6115e+001 52946 86396,86474,86422
 1.9000e+000 86578 -7.7591e+002 -2.4194e+002  1.9362e+002 52946 86370,86552,86526
 1.9000e+000 87376 -4.6087e+002 -4.0898e+002  1.8638e+002 52420 87007,87085,87033
 1.9000e+000 87353 -3.8267e+002 -4.0613e+002  2.0607e+002 52420 87007,87163,87085
 1.9000e+000 87330 -5.6076e+002 -4.1593e+002  2.4037e+002 52420 87007,87189,87163
 1.9000e+000 87307 -5.2672e+002 -3.6955e+002  2.5919e+002 52420 87033,87085,87059
 1.9000e+000 87284 -5.1485e+002 -4.3218e+002  5.0579e+001 52420 87085,87137,87111
 1.9000e+000 87261 -3.2971e+002 -4.3893e+002  5.1618e+001 52420 87085,87163,87137
 1.9000e+000 87238 -3.9932e+002 -5.9766e+002  5.0004e+002 52420 86955,87189,87007
 1.9000e+000 87215 -2.5695e+002 -3.6546e+002  3.1146e+002 52420 86955,87007,86981
 1.9000e+000 87624 -3.1272e+002 -4.3632e+002  2.5056e+002 51916 87451,87503,87477
 1.9000e+000 87601 -1.7847e+002 -6.3310e+002  3.0264e+002 51916 87425,87503,87451
 1.9000e+000 87578 -2.7662e+002 -6.8087e+002  2.8737e+002 51916 87425,87529,87503
 1.9000e+000 87555 -1.3610e+002 -3.5556e+002  3.2512e+002 51916 87399,87529,87425
 1.9000e+000 88053 -5.0983e+002 -4.4362e+002  1.7629e+002 51568 87782,87834,87808
 1.9000e+000 88030 -6.5133e+002 -4.0658e+002  3.2468e+002 51568 88076,87782,87886
 1.9000e+000 88007 -5.7161e+002 -2.2299e+002  2.6483e+002 51568 88076,87886,87860
 1.9000e+000 87984 -8.2497e+002 -6.1152e+002  2.5047e+002 51568 87756,87886,87782
 1.9000e+000 87961 -6.1422e+002 -4.7148e+002  5.1540e+002 51568 87756,87912,87886
 1.9000e+000 87938 -7.1095e+002 -3.2095e+002  4.7887e+002 51568 87730,87912,87756
 1.9000e+000 88102 -5.3574e+002 -4.9504e+002  2.0083e+002 51568 87834,87782,88076
 1.9000e+000 88125 -4.6468e+002 -3.7342e+002  1.4822e+002 51568 87834,88076,87860
 1.9000e+000 88324 -4.4325e+002 -5.3436e+002  1.5396e+002 51164 88419,88347,88200
 1.9000e+000 88301 -3.4544e+002 -5.4312e+002  2.6429e+002 51164 88347,88148,88252
 1.9000e+000 88278 -5.5124e+002 -9.4559e+002  1.8132e+002 51164 88419,88200,88174
 1.9000e+000 88373 -3.2398e+002 -3.8986e+002  2.0785e+002 51164 88226,88200,88347
 1.9000e+000 88396 -3.6743e+001 -5.3977e+002  2.1773e+002 51164 88226,88347,88252
 1.9000e+000 88445 -5.7424e+002 -6.2273e+002  3.9662e+002 51164 88148,88347,88419
 1.9000e+000 88468 -5.5352e+002 -5.9702e+002  4.4585e+002 51164 88148,88419,88174
 1.9000e+000 88738 -4.6866e+002 -6.5616e+002  1.7030e+002 50560 88513,88617,88539
 1.9000e+000 88715 -3.2794e+002 -7.7022e+002  1.1652e+002 50560 88513,88643,88617
 1.9000e+000 88692 -2.1227e+002 -1.2346e+002  2.1177e+002 50560 88539,88591,88565
 1.9000e+000 88669 -1.7369e+002 -4.3191e+002  2.6860e+002 50560 88539,88617,88591
 1.9000e+000 88939 -5.7506e+002 -2.4478e+002  3.0440e+002 50106 88962,88789,88763
 1.9000e+000 88916 -3.9348e+002 -2.5105e+002  2.3211e+002 50106 88962,88763,88841
 1.9000e+000 88893 -5.9998e+002 -3.8407e+002  3.8034e+002 50106 88763,88867,88841
 1.9000e+000 88988 -4.0282e+002 -3.2212e+002  1.8517e+002 50106 88815,88789,88962
 1.9000e+000 89011 -3.0008e+002 -2.2979e+002  2.4407e+002 50106 89034,88962,88841
 1.9000e+000 89060 -2.1741e+002 -9.1423e+001  6.9416e+001 50106 88815,88962,89034
 1.9000e+000 89472 -2.7469e+002 -7.7975e+002  4.7677e+001 49666 89273,89351,89325
 1.9000e+000 89449 -4.3678e+002 -3.7803e+002  2.0511e+002 49666 89273,89377,89351
 1.9000e+000 89426 -3.9434e+002 -6.2451e+002  4.4081e+002 49666 89273,89325,89299
 1.9000e+000 89403 -4.8518e+002 -3.7748e+002  2.4742e+002 49666 89247,89377,89273
 1.9000e+000 89978 -3.8152e+002 -6.5556e+002 -1.2736e+001 49205 89681,89837,89733
 1.9000e+000 89955 -6.6744e+001 -3.5632e+002  1.5126e+002 49205 89655,89837,89681
 1.9000e+000 89932 -6.2474e+002 -7.5719e+002  3.2571e+002 49205 89785,89837,89811
 1.9000e+000 89909 -1.5861e+002 -4.4240e+002  1.2504e+002 49205 89733,89837,89785
 1.9000e+000 89886 -5.7185e+002 -5.9041e+002  2.7807e+002 49205 89733,89785,89759
 1.9000e+000 89863 -1.7140e+002 -2.7131e+002 -1.7130e+002 49205 89681,89733,89707
 1.9000e+000 90177 -3.7441e+002 -3.9272e+002  1.9016e+002 48865 90530,90200,90053
 1.9000e+000 90154 -2.8476e+002 -4.7260e+002  2.1975e+002 48865 90402,90200,90001
 1.9000e+000 90131 -4.4066e+002 -2.8261e+002  1.9629e+002 48865 90530,90053,90027
 1.9000e+000 90226 -4.5306e+002 -4.4966e+002  3.3699e+002 48865 90079,90053,90200
 1.9000e+000 90249 -3.7822e+002 -3.9294e+002  2.2809e+002 48865 90272,90200,90105
 1.9000e+000 90298 -2.7857e+002 -3.1839e+002  2.6162e+002 48865 90079,90200,90272
 1.9000e+000 90428 -2.8455e+002 -1.5463e+002  2.0792e+002 48865 90105,90200,90402
 1.9000e+000 90556 -4.1414e+002 -5.4527e+002  1.6773e+002 48865 90001,90200,90530
 1.9000e+000 90579 -4.6728e+002 -3.9341e+002  1.4365e+002 48865 90001,90530,90027
 1.9000e+000 90827 -4.3310e+002 -4.4164e+002  2.1902e+002 48404 90850,90654,90628
 1.9000e+000 90804 -4.6047e+002 -5.2940e+002  3.6305e+002 48404 90850,90628,90732
 1.9000e+000 90781 -3.1753e+002 -3.0776e+002  1.8950e+002 48404 90680,90732,90706
 1.9000e+000 90758 -6.2913e+002 -3.0224e+002  3.8231e+002 48404 90602,90732,90628
 1.9000e+000 90876 -4.4037e+002 -2.2199e+002  1.8256e+002 48404 90680,90654,90850
 1.9000e+000 90899 -4.6369e+002 -3.9662e+002  2.9194e+002 48404 90680,90850,90732
 1.9000e+000 91000 -2.4889e+002 -6.5050e+002  4.3332e+002 48156 90922,90974,90948
 1.9000e+000 91250 -2.4600e+002 -6.2036e+002  3.5411e+002 47752 91051,91103,91077
 1.9000e+000 91227 -1.7819e+002 -1.4996e+002  2.2337e+002 47752 91025,91103,91051
 1.9000e+000 91204 -6.6432e+002 -4.9772e+002  5.4257e+002 47752 91025,91155,91103
 1.9000e+000 91181 -7.2803e+002 -2.1073e+002  3.5488e+002 47752 91103,91155,91129
 1.9000e+000 91402 -3.3249e+002 -3.8999e+002  2.9729e+002 47191 91425,91301,91275
 1.9000e+000 91379 -2.6568e+002 -3.6681e+002  3.3792e+002 47191 91497,91425,91275
 1.9000e+000 91451 -3.5190e+002 -1.2543e+002  1.6125e+002 47191 91327,91301,91425
 1.9000e+000 91474 -4.9390e+002 -4.1373e+002  3.5325e+002 47191 91327,91425,91353
 1.9000e+000 91523 -4.1464e+002 -8.2556e+002  3.6684e+002 47191 91353,91425,91497
 1.9000e+000 91854 -3.6411e+002 -3.9596e+002  1.1944e+002 46744 91949,91877,91707
 1.9000e+000 91831 -3.8806e+002 -4.0822e+002  1.6674e+002 46744 91877,91655,91629
 1.9000e+000 91808 -3.4805e+002 -4.0780e+002  1.2732e+002 46744 91949,91707,91681
 1.9000e+000 91785 -6.6238e+002 -2.7009e+002 -1.0707e+001 46744 91629,91759,91733
 1.9000e+000 91903 -4.0222e+002 -3.8342e+002  1.3376e+002 46744 91733,91707,91877
 1.9000e+000 91926 -3.6387e+002 -3.3398e+002  1.5934e+002 46744 91733,91877,91629
 1.9000e+000 91975 -3.3778e+002 -3.9242e+002  1.3888e+002 46744 91655,91877,91949
 1.9000e+000 91998 -3.0001e+002 -3.9396e+002  1.4238e+002 46744 91655,91949,91681
 1.9000e+000 92378 -3.7211e+002 -1.4569e+002  2.3737e+002 46090 92130,92208,92182
 1.9000e+000 92355 -4.9669e+002 -1.9917e+002  2.3294e+002 46090 92104,92208,92130
 1.9000e+000 92332 -2.4164e+002 -4.0243e+002  2.1173e+002 46090 92104,92260,92208
 1.9000e+000 92309 -2.0819e+002 -1.0988e+002  1.6581e+002 46090 92208,92260,92234
 1.9000e+000 92286 -6.1642e+002 -1.8986e+002  2.7522e+002 46090 92130,92182,92156
 1.9000e+000 92626 -3.4235e+002 -4.5071e+002  1.7924e+002 45693 92721,92649,92505
 1.9000e+000 92603 -3.8267e+002 -4.6451e+002  3.7543e+002 45693 92649,92453,92427
 1.9000e+000 92580 -3.7109e+002 -3.6526e+002  1.7589e+002 45693 92721,92505,92479
 1.9000e+000 92557 -6.4110e+002 -6.3637e+002  4.7869e+002 45693 92401,92531,92427
 1.9000e+000 92675 -5.6777e+002 -4.4162e+002  2.3775e+002 45693 92531,92505,92649
 1.9000e+000 92698 -6.2181e+002 -5.6899e+002  4.9914e+002 45693 92531,92649,92427
 1.9000e+000 92747 -3.7017e+002 -3.4998e+002  1.8627e+002 45693 92453,92649,92721
 1.9000e+000 92770 -2.6152e+002 -8.3795e+001  2.3260e+002 45693 92453,92721,92479
 1.9000e+000 93172 -2.7159e+002 -4.7230e+002  4.0756e+002 45331 92898,93028,92924
 1.9000e+000 93149 -1.7603e+002 -4.3788e+002  2.7160e+002 45331 92898,93054,93028
 1.9000e+000 93126 -3.7232e+002 -3.2362e+002  4.6251e+002 45331 92924,93002,92976
 1.9000e+000 93103 -1.5612e+002 -4.2298e+002  3.9967e+002 45331 92924,93028,93002
 1.9000e+000 93080 -4.0466e+002 -4.8995e+002  4.7022e+002 45331 92924,92976,92950
 1.9000e+000 93518 -4.9955e+002 -7.0984e+002  4.1607e+002 44820 93613,93273,93247
 1.9000e+000 93495 -5.7455e+002 -5.5402e+002  3.0421e+002 44820 93685,93541,93247
 1.9000e+000 93472 -5.6756e+002 -3.4302e+002  2.4797e+002 44820 93541,93195,93377
 1.9000e+000 93449 -6.3799e+002 -4.7167e+002  2.3875e+002 44820 93685,93247,93221
 1.9000e+000 93426 -4.7034e+002 -6.1011e+002  3.2713e+002 44820 93299,93377,93351
 1.9000e+000 93403 -3.6473e+002 -4.2813e+002  3.8882e+002 44820 93299,93351,93325
 1.9000e+000 93567 -4.6297e+002 -7.4431e+002  2.2921e+002 44820 93613,93247,93541
 1.9000e+000 93590 -4.7542e+002 -5.5684e+002  1.5100e+002 44820 93299,93541,93377
 1.9000e+000 93639 -4.5948e+002 -8.7171e+002  2.7396e+002 44820 93299,93273,93613
 1.9000e+000 93662 -4.9600e+002 -8.5831e+002  2.3276e+002 44820 93299,93613,93541
 1.9000e+000 93711 -5.5223e+002 -3.9278e+002  2.0933e+002 44820 93195,93541,93685
 1.9000e+000 93734 -4.9636e+002 -1.2029e+002  1.4434e+002 44820 93195,93685,93221
 1.9000e+000 94163 -5.5411e+002 -5.9908e+002  2.2638e+002 44237 94258,94186,93996
 1.9000e+000 94140 -6.3185e+002 -6.6587e+002  1.4659e+002 44237 94330,94022,93996
 1.9000e+000 94117 -6.4695e+002 -6.3444e+002  1.7508e+002 44237 94186,93918,93866
 1.9000e+000 94094 -4.8250e+002 -5.0143e+002  2.7318e+002 44237 94258,93996,93970
 1.9000e+000 94071 -6.0614e+002 -3.9774e+002  2.6567e+002 44237 94402,93944,93918
 1.9000e+000 94048 -3.0776e+002 -5.1561e+002  1.6064e+002 44237 93866,93918,93892
 1.9000e+000 94212 -6.3116e+002 -6.7581e+002  1.8911e+002 44237 94330,93996,94186
 1.9000e+000 94235 -6.1148e+002 -5.7681e+002  2.0861e+002 44237 93840,94186,93866
 1.9000e+000 94284 -5.8876e+002 -4.9936e+002  1.7027e+002 44237 93918,94186,94258
 1.9000e+000 94307 -5.4487e+002 -4.2353e+002  1.9449e+002 44237 94402,93918,94258
 1.9000e+000 94356 -6.6199e+002 -2.8286e+002  3.0040e+001 44237 93840,94022,94330
 1.9000e+000 94379 -5.9871e+002 -5.9399e+002  2.0347e+002 44237 93840,94330,94186
 1.9000e+000 94428 -7.4406e+002 -5.2504e+002  3.2137e+002 44237 93970,93944,94402
 1.9000e+000 94451 -6.3972e+002 -5.2859e+002  2.4268e+002 44237 93970,94402,94258
 1.9000e+000 94908 -4.2473e+002 -4.1339e+002  1.0298e+002 43890 94660,94790,94712
 1.9000e+000 94885 -2.2375e+002 -1.9628e+002  1.8804e+002 43890 94634,94790,94660
 1.9000e+000 94862 -4.3436e+002 -1.6936e+002  1.9532e+002 43890 94712,94764,94738
 1.9000e+000 94839 -3.6456e+002 -3.3408e+002  1.9302e+002 43890 94712,94790,94764
 1.9000e+000 94816 -5.1495e+002 -2.6217e+002 -6.0142e+001 43890 94660,94712,94686
 1.9000e+000 95414 -3.6839e+002 -2.3980e+002  1.7768e+002 43186 95437,95143,95117
 1.9000e+000 95391 -4.2847e+002 -5.5265e+002  2.1404e+002 43186 95437,95117,95091
 1.9000e+000 95368 -1.4206e+002 -2.1362e+002  2.2717e+002 43186 95143,95221,95195
 1.9000e+000 95345 -6.8382e+002 -4.9972e+002  5.7314e+002 43186 95091,95273,95221
 1.9000e+000 95322 -3.7945e+002 -2.6173e+002  2.9142e+002 43186 95221,95273,95247
 1.9000e+000 95299 -2.4075e+002 -2.0224e+002  1.1092e+002 43186 95143,95195,95169
 1.9000e+000 95463 -3.4297e+002 -4.5302e+002  3.2642e+002 43186 95221,95143,95437
 1.9000e+000 95486 -3.7004e+002 -7.0312e+002  3.7419e+002 43186 95221,95437,95091
 1.9000e+000 96041 -6.9688e+002 -6.5859e+002  1.8987e+002 42782 95695,95851,95799
 1.9000e+000 96018 -6.5678e+002 -8.4527e+002  1.7571e+002 42782 95669,95851,95695
 1.9000e+000 95995 -6.1505e+002 -3.6660e+002  1.9602e+002 42782 95695,95747,95721
 1.9000e+000 95972 -4.9520e+002 -5.7001e+002  1.7420e+002 42782 95695,95799,95747
 1.9000e+000 95949 -4.3102e+002 -3.1862e+002  1.2442e+002 42782 95747,95799,95773
 1.9000e+000 95926 -7.9620e+002 -8.1034e+002  2.4055e+002 42782 95799,95851,95825
 1.9000e+000 95903 -9.5046e+002 -1.0186e+003  2.6499e+002 42782 95669,95877,95851
 1.9000e+000 96370 -6.3801e+002 -8.6589e+002  3.3525e+002 42420 96197,96275,96223
 1.9000e+000 96347 -5.7890e+002 -7.8325e+002  3.6633e+002 42420 96145,96275,96197
 1.9000e+000 96324 -6.3660e+002 -5.8838e+002  3.9690e+002 42420 96145,96197,96171
 1.9000e+000 96301 -4.8294e+002 -6.4372e+002  2.3553e+002 42420 96223,96275,96249
 1.9000e+000 96699 -2.2912e+002 -2.7298e+002  4.5180e+001 41816 96474,96578,96526
 1.9000e+000 96676 -2.9162e+002 -2.0325e+002 -4.9024e+001 41816 96474,96604,96578
 1.9000e+000 96653 -2.4941e+002 -3.1022e+002  3.0004e+001 41816 96526,96578,96552
 1.9000e+000 96630 -2.7251e+002 -3.8911e+002  4.0575e+001 41816 96474,96526,96500
 1.9000e+000 96947 -2.3226e+002 -5.5543e+002  1.9168e+002 41212 96722,96800,96748
 1.9000e+000 96924 -3.5116e+002 -4.3174e+002  2.5123e+002 41212 96722,96826,96800
 1.9000e+000 96901 -4.3659e+002 -4.5999e+002  2.4972e+002 41212 96722,96852,96826
 1.9000e+000 96878 -4.1002e+002 -6.3924e+002  1.5438e+002 41212 96748,96800,96774
 1.9000e+000 97097 -3.1355e+002 -1.0145e+002  3.0969e+002 40793 97120,97022,96996
 1.9000e+000 97074 -5.9968e+002 -7.0756e+002  1.9135e+002 40793 97192,97120,96996
 1.9000e+000 97146 -2.3793e+002 -5.8274e+002  2.7296e+002 40793 97324,97120,97048
 1.9000e+000 97169 -2.0362e+002 -9.6045e+002  2.5881e+002 40793 97048,97120,96970
 1.9000e+000 97218 -8.9186e+001 -4.9057e+002  1.9456e+002 40793 96970,97120,97192
 1.9000e+000 97350 -2.3793e+002 -5.8274e+002  2.7296e+002 40793 97022,97120,97324
 1.9000e+000 97878 -3.7331e+002 -7.3295e+002  1.5213e+002 40446 97901,97607,97555
 1.9000e+000 97855 -3.5127e+002 -4.9657e+002  1.5298e+002 40446 97973,97901,97555
 1.9000e+000 97832 -2.2258e+002 -4.0501e+002  1.1004e+002 40446 97973,97555,97737
 1.9000e+000 97809 -6.1651e+002 -8.8079e+002  2.7962e+002 40446 97633,97685,97659
 1.9000e+000 97786 -4.2780e+002 -6.2356e+002  1.5104e+002 40446 97633,97711,97685
 1.9000e+000 97763 -3.5762e+002 -8.5688e+002  1.9314e+002 40446 97555,97607,97581
 1.9000e+000 97927 -4.0476e+002 -9.0714e+002 -5.1422e+001 40446 97633,97607,97901
 1.9000e+000 97950 -3.4349e+002 -7.1312e+002  1.2603e+002 40446 97633,97901,97711
 1.9000e+000 97999 -1.6095e+002 -6.8019e+002  2.1178e+002 40446 97711,97901,97973
 1.9000e+000 98022 -5.6431e+001 -5.7705e+002  1.7028e+002 40446 97711,97973,97737
 1.9000e+000 98449 -2.5098e+002 -1.3316e+002  1.6709e+002 39935 98152,98204,98178
 1.9000e+000 98426 -4.0780e+002 -2.1517e+002  9.9642e+001 39935 98152,98230,98204
 1.9000e+000 98403 -5.9829e+002 -3.1999e+002  2.7185e+002 39935 98152,98256,98230
 1.9000e+000 98380 -4.1118e+002 -3.4291e+002  2.6546e+002 39935 98126,98256,98152
 1.9000e+000 98357 -5.7387e+002 -7.3161e+002  2.9172e+002 39935 98126,98282,98256
 1.9000e+000 98334 -2.8997e+002 -9.0364e+002  3.2914e+002 39935 98126,98308,98282
 1.9000e+000 98746 -8.6875e+002 -7.0396e+002  2.6181e+002 39531 98498,98602,98524
 1.9000e+000 98723 -6.0609e+002 -6.4247e+002  2.4903e+002 39531 98472,98602,98498
 1.9000e+000 98700 -9.5809e+002 -4.2851e+002  1.3889e+002 39531 98524,98602,98576
 1.9000e+000 98677 -4.7212e+002 -6.2685e+002  2.4400e+002 39531 98472,98628,98602
 1.9000e+000 98654 -9.9123e+002 -9.3421e+002 -2.5106e+002 39531 98524,98576,98550
 1.9000e+000 99224 -9.8666e+002 -4.9734e+002  7.7182e+002 39027 99247,98956,98930
 1.9000e+000 99201 -8.5573e+002 -3.6358e+002  3.3660e+002 39027 99247,98930,98878
 1.9000e+000 99178 -6.8882e+002 -5.1533e+002  4.0956e+002 39027 99319,98982,98956
 1.9000e+000 99155 -7.1265e+002 -3.8670e+002  2.2476e+002 39027 98852,99060,98878
 1.9000e+000 99132 -9.9096e+002 -3.9492e+002  3.4757e+002 39027 98878,98930,98904
 1.9000e+000 99109 -6.2629e+002 -1.0651e+003  5.2119e+002 39027 98982,99060,99034
 1.9000e+000 99086 -7.8118e+002 -1.2651e+003  7.8133e+002 39027 98982,99034,99008
 1.9000e+000 99273 -5.7675e+002 -3.2808e+002  4.7751e+002 39027 99319,98956,99247
 1.9000e+000 99296 -6.8054e+002 -2.9806e+002  2.5106e+002 39027 99060,99247,98878
 1.9000e+000 99345 -7.0260e+002 -6.0303e+002  3.1050e+002 39027 99060,98982,99319
 1.9000e+000 99368 -7.1420e+002 -5.6023e+002  3.5638e+002 39027 99060,99319,99247
 1.9000e+000 99923 -6.8986e+002 -5.9065e+002  2.9806e+002 38523 99946,99655,99603
 1.9000e+000 99900 -5.5535e+002 -5.3070e+002  3.0915e+002 38523 99946,99603,99759
 1.9000e+000 99877 -3.5715e+002 -7.4615e+002  3.7815e+002 38523 100018,99707,99681
 1.9000e+000 99854 -6.1071e+002 -3.7556e+002  2.8798e+002 38523 99551,99759,99603
 1.9000e+000 99831 -6.9608e+002 -4.4925e+002  3.6269e+002 38523 99551,99603,99577
 1.9000e+000 99808 -6.1622e+002 -8.3646e+002  2.0254e+002 38523 99707,99759,99733
 1.9000e+000 99785 -5.7826e+002 -4.9017e+002  2.5595e+002 38523 99603,99655,99629
 1.9000e+000 99972 -5.5335e+002 -3.1624e+002  3.5203e+002 38523 99681,99655,99946
 1.9000e+000 99995 -4.1978e+002 -4.3310e+002  4.4260e+002 38523 100018,99681,99946
 1.9000e+000 100044 -4.7585e+002 -8.7590e+002  2.3080e+002 38523 99759,99707,100018
 1.9000e+000 100067 -6.4669e+002 -7.5484e+002  2.9991e+002 38523 99759,100018,99946
 1.9000e+000 100467 -2.1130e+002 -2.4296e+002  1.1744e+002 38125 100219,100349,100323
 1.9000e+000 100444 -2.8026e+001 -8.1646e+001  2.1437e+002 38125 100193,100349,100219
 1.9000e+000 100421 -8.2440e+001 -3.5319e+002  1.1555e+002 38125 100245,100323,100297
 1.9000e+000 100398 -7.5592e+001 -1.8276e+002  1.3303e+002 38125 100219,100323,100245
 1.9000e+000 100375 -2.1907e+002 -3.7778e+002  1.8849e+002 38125 100245,100297,100271
 1.9000e+000 100666 -5.9355e+002 -8.9133e+002  2.5161e+002 37607 100689,100568,100542
 1.9000e+000 100643 -4.5483e+002 -4.7473e+002  2.2909e+002 37607 100689,100542,100490
 1.9000e+000 100620 -3.5409e+002 -3.1336e+002  1.8600e+002 37607 100490,100542,100516
 1.9000e+000 100715 -4.6508e+002 -4.8758e+002  1.8357e+002 37607 100594,100568,100689
 1.9000e+000 100738 -5.4305e+002 -3.7447e+002  1.9537e+002 37607 100594,100689,100490
 1.9000e+000 100937 -4.0703e+002 -2.9240e+002  3.9539e+002 37017 100960,100813,100787
 1.9000e+000 100914 -3.3456e+002 -3.1885e+002  2.0573e+002 37017 100960,100787,100761
 1.9000e+000 100891 -6.8164e+002 -2.6353e+002  4.0262e+002 37017 100813,100865,100839
 1.9000e+000 100986 -5.4958e+002 -5.0656e+002  4.7659e+002 37017 100865,100813,100960
 1.9000e+000 101009 -3.9929e+002 -4.5458e+002  2.7083e+002 37017 100865,100960,100761
 1.9000e+000 101519 -6.3099e+002 -3.1813e+002  1.7091e+002 36613 101222,101274,101248
 1.9000e+000 101496 -2.3613e+002 -1.8457e+002  1.4670e+002 36613 101222,101352,101274
 1.9000e+000 101473 -1.9969e+002 -2.9099e+002  6.4019e+001 36613 101274,101352,101326
 1.9000e+000 101450 -3.5608e+002 -1.3756e+002  1.6989e+002 36613 101222,101378,101352
 1.9000e+000 101427 -2.2034e+002 -5.1345e+002  6.6643e+001 36613 101274,101326,101300
 1.9000e+000 101404 -3.7325e+002 -1.2369e+002  9.7271e+001 36613 101196,101378,101222
 1.9000e+000 101718 -5.2668e+002 -5.0125e+002  5.5073e+002 36308 101594,101646,101620
 1.9000e+000 101695 -5.6028e+002 -2.5789e+002  3.1425e+002 36308 101568,101646,101594
 1.9000e+000 101672 -3.4156e+002 -3.4768e+002  3.4179e+002 36308 101542,101646,101568
 1.9000e+000 102098 -5.5131e+002 -3.7555e+002  2.2009e+002 35918 102121,101954,101876
 1.9000e+000 102075 -4.8567e+002 -5.3363e+002  1.4001e+002 35918 102121,101876,101824
 1.9000e+000 102052 -5.6067e+002 -3.7923e+002  2.0050e+002 35918 101876,101954,101928
 1.9000e+000 102029 -6.7282e+002 -1.1975e+002  2.0759e+002 35918 101876,101928,101902
 1.9000e+000 102006 -5.0129e+002 -6.7277e+002  2.7698e+002 35918 101824,101876,101850
 1.9000e+000 102147 -4.9083e+002 -5.2477e+002  2.9372e+002 35918 101980,101954,102121
 1.9000e+000 102170 -4.5592e+002 -7.2113e+002  1.9157e+002 35918 101980,102121,101824
 1.9000e+000 102489 -5.4321e+002 -1.2949e+003  3.7763e+002 35514 102241,102345,102267
 1.9000e+000 102466 -7.5670e+002 -1.3919e+003  4.0678e+002 35514 102215,102345,102241
 1.9000e+000 102443 -6.0651e+002 -1.4817e+003  4.1654e+002 35514 102215,102371,102345
 1.9000e+000 102420 -4.4408e+002 -1.0729e+003  4.4152e+002 35514 102267,102345,102293
 1.9000e+000 102397 -2.6382e+002 -7.1265e+002  5.0985e+002 35514 102293,102345,102319
 1.9000e+000 102820 -9.7713e+002 -5.2160e+002  1.4147e+002 35224 102843,102699,102647
 1.9000e+000 102797 -7.4689e+002 -6.7613e+002  2.3532e+002 35224 102971,102725,102699
 1.9000e+000 102774 -1.2723e+003 -8.6442e+002  6.7221e+002 35224 102595,102725,102621
 1.9000e+000 102751 -3.5954e+002 -2.9212e+002  2.8479e+002 35224 102647,102699,102673
 1.9000e+000 102869 -7.9675e+002 -4.4686e+002  1.6651e+002 35224 102971,102699,102843
 1.9000e+000 102997 -7.0707e+002 -8.4641e+002  1.8497e+002 35224 102621,102725,102971
 1.9000e+000 103020 -8.3669e+002 -7.1027e+002  8.3990e+001 35224 102621,102971,102843
 1.9000e+000 103349 -7.4911e+002 -5.3384e+002  3.3663e+002 34820 103150,103228,103176
 1.9000e+000 103326 -6.0456e+002 -6.2247e+002  3.2067e+002 34820 103124,103228,103150
 1.9000e+000 103303 -5.9668e+002 -6.0893e+002  5.9245e+002 34820 103176,103228,103202
 1.9000e+000 103280 -4.0172e+002 -5.3301e+002  3.7834e+002 34820 103124,103254,103228
 1.9000e+000 103806 -5.3927e+002 -4.4856e+002  1.5825e+002 34530 103558,103662,103636
 1.9000e+000 103783 -5.9700e+002 -4.8088e+002  1.4340e+002 34530 103558,103688,103662
 1.9000e+000 103760 -6.8422e+002 -7.6192e+002  1.6546e+002 34530 103532,103688,103558
 1.9000e+000 103737 -2.7651e+002 -5.5180e+002  1.6090e+002 34530 103584,103636,103610
 1.9000e+000 103714 -9.3896e+002 -5.7750e+002  2.0761e+002 34530 103558,103636,103584
 1.9000e+000 104263 -3.3398e+002 -4.5512e+002  2.7179e+002 34019 103989,104119,104015
 1.9000e+000 104240 -2.8342e+002 -4.2383e+002  3.2289e+002 34019 103989,104145,104119
 1.9000e+000 104217 -3.5162e+002 -4.7737e+002  1.5522e+002 34019 104015,104067,104041
 1.9000e+000 104194 -4.0119e+002 -5.2288e+002  2.4479e+002 34019 104015,104119,104067
 1.9000e+000 104171 -3.6784e+002 -3.3334e+002  2.2402e+002 34019 104067,104119,104093
 1.9000e+000 104641 -4.5268e+002 -2.3627e+002  1.9791e+002 33351 104419,104497,104445
 1.9000e+000 104618 -2.3459e+002 -1.4437e+002  2.2292e+002 33351 104393,104497,104419
 1.9000e+000 104595 -5.1075e+002 -2.8223e+002  2.9602e+001 33351 104367,104497,104393
 1.9000e+000 104572 -5.4339e+002 -4.6743e+002  2.7884e+002 33351 104445,104497,104471
 1.9000e+000 104549 -5.1032e+002 -5.2795e+002 -2.5400e+001 33351 104367,104523,104497
 1.9000e+000 105019 -4.7861e+002 -1.0406e+003  4.9922e+002 32861 104823,104901,104875
 1.9000e+000 104996 -6.8762e+002 -1.2585e+003  4.0745e+002 32861 104745,104901,104823
 1.9000e+000 104973 -6.7594e+002 -1.1231e+003  4.2308e+002 32861 104823,104875,104849
 1.9000e+000 104950 -6.9807e+002 -1.2718e+003  6.0052e+002 32861 104745,104823,104797
 1.9000e+000 104927 -8.2745e+002 -4.9454e+002  6.3709e+002 32861 104745,104797,104771
 1.9000e+000 105397 -3.5253e+002 -7.4137e+002  3.0125e+002 32457 105149,105253,105175
 1.9000e+000 105374 -5.0253e+002 -6.1672e+002  2.4568e+002 32457 105149,105279,105253
 1.9000e+000 105351 -5.1578e+002 -5.0886e+002  3.1545e+002 32457 105123,105279,105149
 1.9000e+000 105328 -3.8149e+002 -1.2359e+002  2.8513e+002 32457 105175,105227,105201
 1.9000e+000 105305 -6.6989e+002 -8.7745e+002  3.0279e+002 32457 105175,105253,105227
 1.9000e+000 105726 -2.3826e+002 -7.3031e+002  2.9888e+002 32003 105527,105605,105553
 1.9000e+000 105703 -3.6418e+002 -6.4349e+002  2.9124e+002 32003 105501,105605,105527
 1.9000e+000 105680 -1.9173e+002 -5.8102e+002  2.9495e+002 32003 105501,105631,105605
 1.9000e+000 105657 -1.1355e+002 -4.5127e+002  2.6774e+002 32003 105553,105605,105579
 1.9000e+000 106104 -5.3099e+002 -6.4468e+002  1.8364e+002 31492 106127,105908,105856
 1.9000e+000 106081 -3.6727e+002 -5.5409e+002  8.6124e+001 31492 106127,105856,105830
 1.9000e+000 106058 -3.4408e+002 -9.2853e+002  2.1789e+002 31492 105856,105908,105882
 1.9000e+000 106035 -9.5175e+001 -3.8685e+002  6.1819e+001 31492 105830,105986,105960
 1.9000e+000 106012 -1.8204e+002 -8.4440e+002  4.2495e+002 31492 105908,105960,105934
 1.9000e+000 106153 -5.9478e+002 -6.7499e+002  2.7004e+002 31492 105960,105908,106127
 1.9000e+000 106176 -5.1131e+002 -6.7094e+002  1.8585e+002 31492 105960,106127,105830
 1.9000e+000 106375 -5.3577e+002 -6.1913e+002  3.7840e+002 30788 106398,106277,106251
 1.9000e+000 106352 -6.1622e+002 -7.9026e+002  3.5068e+002 30788 106398,106251,106225
 1.9000e+000 106329 -8.3914e+002 -5.8397e+002  5.3607e+002 30788 106600,106199,106303
 1.9000e+000 106424 -6.7712e+002 -8.8463e+002  2.6872e+002 30788 106470,106398,106303
 1.9000e+000 106447 -5.4926e+002 -7.0541e+002  3.2552e+002 30788 106600,106303,106398
 1.9000e+000 106496 -1.8989e+002 -6.7843e+002  2.9380e+002 30788 106277,106398,106470
 1.9000e+000 106626 -1.0229e+003 -8.3605e+002  6.8223e+002 30788 106225,106199,106600
 1.9000e+000 106649 -8.1577e+002 -9.6416e+002  4.6740e+002 30788 106225,106600,106398
 1.9000e+000 106799 -2.2772e+002 -1.0565e+003  7.9154e+000 30426 106698,106750,106724
 1.9000e+000 106776 -2.3420e+002 -5.4683e+002  3.7712e+001 30426 106672,106750,106698
 1.9000e+000 107356 -6.4028e+002 -4.7763e+002  2.0060e+002 29972 107010,107166,107114
 1.9000e+000 107333 -6.5312e+002 -4.1498e+002  2.9361e+002 29972 106984,107166,107010
 1.9000e+000 107310 -5.9295e+002 -2.8800e+002  1.2329e+002 29972 107010,107114,107088
 1.9000e+000 107287 -5.6459e+002 -1.7985e+002  1.7036e+002 29972 107114,107166,107140
 1.9000e+000 107264 -6.5211e+002 -6.1829e+002  4.1064e+002 29972 106984,107192,107166
 1.9000e+000 107241 -7.2617e+002 -5.2904e+002  1.7588e+002 29972 107010,107088,107036
 1.9000e+000 107218 -3.8724e+002 -3.5925e+002  7.3831e+001 29972 107036,107088,107062
 1.9000e+000 107783 -6.8571e+002 -9.5503e+002  4.3782e+002 29724 107878,107806,107590
 1.9000e+000 107760 -8.0298e+002 -9.7446e+002  3.5400e+002 29724 107806,107512,107486
 1.9000e+000 107737 -7.1449e+002 -9.0068e+002  5.2359e+002 29724 107878,107590,107538
 1.9000e+000 107714 -6.4946e+002 -1.0271e+003  4.5843e+002 29724 107950,107460,107616
 1.9000e+000 107691 -5.7000e+002 -9.7997e+002  4.2418e+002 29724 107460,107642,107616
 1.9000e+000 107668 -4.7100e+002 -7.4610e+002  5.9506e+002 29724 107538,107590,107564
 1.9000e+000 107832 -4.5215e+002 -9.2490e+002  4.9418e+002 29724 107616,107590,107806
 1.9000e+000 107855 -6.6036e+002 -1.0357e+003  4.3923e+002 29724 107950,107616,107806
 1.9000e+000 107904 -6.2599e+002 -8.2256e+002  4.2529e+002 29724 107512,107806,107878
 1.9000e+000 107927 -6.5060e+002 -7.4261e+002  5.2566e+002 29724 107512,107878,107538
 1.9000e+000 107976 -3.7352e+002 -1.0429e+003  5.0674e+002 29724 107486,107460,107950
 1.9000e+000 107999 -6.2828e+002 -1.1082e+003  4.2180e+002 29724 107486,107950,107806
 1.9000e+000 108296 -7.0825e+002 -5.9408e+002  3.8780e+002 29206 108319,108100,108048
 1.9000e+000 108273 -4.2708e+002 -5.3021e+002  4.4322e+002 29206 108319,108048,108022
 1.9000e+000 108250 -2.2929e+002 -6.3975e+002  5.3095e+002 29206 108391,108152,108126
 1.9000e+000 108227 -8.2348e+002 -4.3332e+002  4.7695e+002 29206 108048,108100,108074
 1.9000e+000 108204 -3.3369e+002 -8.7674e+002  4.4658e+002 29206 108022,108178,108152
 1.9000e+000 108345 -5.2258e+002 -3.8780e+002  5.5277e+002 29206 108126,108100,108319
 1.9000e+000 108368 -3.0142e+002 -5.2042e+002  6.0343e+002 29206 108391,108126,108319
 1.9000e+000 108417 -4.2680e+002 -7.8978e+002  4.4938e+002 29206 108022,108152,108391
 1.9000e+000 108440 -4.8110e+002 -6.9875e+002  5.2503e+002 29206 108022,108391,108319
 1.9000e+000 108688 -7.5740e+002 -9.1812e+002  4.4028e+002 28595 108711,108541,108515
 1.9000e+000 108665 -1.0749e+003 -9.9737e+002  6.9167e+002 28595 108783,108711,108515
 1.9000e+000 108642 -1.3542e+003 -8.4754e+002  7.0776e+002 28595 108783,108515,108489
 1.9000e+000 108619 -1.4098e+003 -1.0332e+003  3.7569e+002 28595 108463,108593,108489
 1.9000e+000 108737 -6.7003e+002 -6.6970e+002  3.1027e+002 28595 108567,108541,108711
 1.9000e+000 108760 -5.4169e+002 -7.8357e+002  5.9915e+002 28595 108567,108711,108593
 1.9000e+000 108809 -6.8223e+002 -9.7406e+002  5.1287e+002 28595 108593,108711,108783
 1.9000e+000 108832 -1.0663e+003 -8.7183e+002  4.6773e+002 28595 108593,108783,108489
 1.9000e+000 109033 -2.2155e+002 -4.0405e+002  1.6018e+002 28091 108909,108961,108935
 1.9000e+000 109010 -2.8445e+002 -3.6497e+002  1.5274e+002 28091 108857,108961,108909
 1.9000e+000 108987 -5.3754e+002 -6.1779e+002  4.6847e+002 28091 108857,108909,108883
 1.9000e+000 109136 -5.7024e+002 -1.3522e+003  2.3854e+002 27587 109058,109110,109084
 1.9000e+000 109695 -6.6801e+002 -6.2901e+002  2.1298e+002 26969 109718,109375,109323
 1.9000e+000 109672 -6.2862e+002 -5.7506e+002  1.6034e+002 26969 109718,109323,109505
 1.9000e+000 109649 -7.1342e+002 -2.0299e+002  8.1605e+001 26969 109790,109453,109427
 1.9000e+000 109626 -1.9768e+002 -6.8148e+002  2.7331e+002 26969 109323,109375,109349
 1.9000e+000 109603 -6.3970e+002 -6.6058e+002  2.0715e+002 26969 109323,109531,109505
 1.9000e+000 109580 -2.3509e+002 -5.3891e+002  4.3883e+001 26969 109375,109427,109401
 1.9000e+000 109557 -7.9635e+002 -4.3643e+002  2.2205e+002 26969 109453,109505,109479
 1.9000e+000 109744 -6.3554e+002 -6.4568e+002  9.4050e+001 26969 109427,109375,109718
 1.9000e+000 109767 -5.5009e+002 -3.6699e+002  5.2467e+001 26969 109790,109427,109718
 1.9000e+000 109816 -7.7470e+002 -3.8624e+002  1.5320e+002 26969 109505,109453,109790
 1.9000e+000 109839 -6.6512e+002 -5.9538e+002  1.5202e+002 26969 109505,109790,109718
 1.9000e+000 110266 -4.3709e+002 -6.5394e+002  2.6984e+002 26515 110361,110289,110099
 1.9000e+000 110243 -3.2550e+002 -4.9897e+002  2.8796e+002 26515 110289,109995,109943
 1.9000e+000 110220 -5.5525e+002 -6.9729e+002  2.5345e+002 26515 110361,110099,110021
 1.9000e+000 110197 -4.6371e+002 -1.4030e+003  1.5695e+002 26515 110047,110099,110073
 1.9000e+000 110174 -5.2432e+002 -1.2666e+003 -7.9468e+001 26515 110021,110099,110047
 1.9000e+000 110151  2.8517e+001 -4.1827e+000  4.4457e+002 26515 109943,109995,109969
 1.9000e+000 110315 -6.6437e+002 -4.5448e+002  2.3121e+002 26515 110125,110099,110289
 1.9000e+000 110338 -4.6888e+002 -1.9472e+002  4.4820e+002 26515 110125,110289,109943
 1.9000e+000 110387 -5.5217e+002 -6.4363e+002  1.4785e+002 26515 109995,110289,110361
 1.9000e+000 110410 -6.4528e+002 -6.5884e+002  1.4179e+002 26515 109995,110361,110021
 1.9000e+000 110609 -2.0116e+002 -8.1367e+002  2.7172e+002 25789 110906,110762,110632
 1.9000e+000 110586 -2.1487e+002 -9.8674e+002  3.0214e+002 25789 110762,110433,110537
 1.9000e+000 110563 -5.0276e+002 -9.1673e+002  4.7593e+002 25789 110834,110459,110433
 1.9000e+000 110658 -2.9888e+002 -7.9477e+002  3.5329e+002 25789 110906,110632,110834
 1.9000e+000 110788 -1.5182e+002 -5.6957e+002  1.8837e+002 25789 110511,110632,110762
 1.9000e+000 110811 -1.9048e+002 -8.1585e+002  3.1400e+002 25789 110511,110762,110537
 1.9000e+000 110860 -3.0696e+002 -8.0362e+002  4.1961e+002 25789 110485,110459,110834
 1.9000e+000 110883 -3.8586e+002 -8.1248e+002  3.6560e+002 25789 110485,110834,110632
 1.9000e+000 110932 -4.1952e+002 -8.8400e+002  2.9296e+002 25789 110433,110762,110906
 1.9000e+000 110955 -4.9732e+002 -8.3824e+002  3.5906e+002 25789 110433,110906,110834
 1.9000e+000 111350 -5.3694e+002 -7.3937e+002  4.2892e+002 25228 111445,111373,111186
 1.9000e+000 111327 -6.1841e+002 -7.3979e+002  1.6637e+002 25228 110978,111186,111004
 1.9000e+000 111304 -5.9442e+002 -9.1045e+002  3.5882e+002 25228 111373,111108,111082
 1.9000e+000 111281 -5.0624e+002 -9.9808e+002  3.7229e+002 25228 111134,111186,111160
 1.9000e+000 111258 -5.1613e+002 -7.2023e+002  4.4931e+002 25228 111445,111186,111134
 1.9000e+000 111235 -5.1053e+002 -6.1972e+002  2.4800e+002 25228 111517,111030,111004
 1.9000e+000 111212 -7.5790e+002 -7.5628e+002  3.9348e+002 25228 111030,111082,111056
 1.9000e+000 111399 -5.5039e+002 -8.1572e+002  4.0998e+002 25228 111004,111186,111373
 1.9000e+000 111422 -4.3793e+002 -6.9906e+002  3.3032e+002 25228 111517,111004,111373
 1.9000e+000 111471 -5.8610e+002 -7.3800e+002  3.9054e+002 25228 111108,111373,111445
 1.9000e+000 111494 -5.6087e+002 -7.1145e+002  4.1225e+002 25228 111108,111445,111134
 1.9000e+000 111543 -6.4256e+002 -6.7764e+002  3.2081e+002 25228 111082,111030,111517
 1.9000e+000 111566 -5.7347e+002 -7.8247e+002  4.0471e+002 25228 111082,111517,111373
 1.9000e+000 112074 -4.6148e+002 -5.9367e+002  3.3025e+002 24338 112097,111907,111881
 1.9000e+000 112051 -6.7829e+002 -6.0027e+002  2.2560e+002 24338 112097,111881,111829
 1.9000e+000 112028 -3.2832e+002 -6.8024e+002  1.3908e+002 24338 111829,111881,111855
 1.9000e+000 112005 -8.9681e+002 -8.8656e+002  2.1700e+002 24338 111777,111933,111829
 1.9000e+000 111982 -1.2050e+003 -2.8040e+002  2.5624e+002 24338 111751,111933,111777
 1.9000e+000 111959 -1.0327e+003 -8.8178e+002  2.0876e+002 24338 111777,111829,111803
 1.9000e+000 112123 -6.5650e+002 -8.2814e+002  2.0985e+002 24338 111933,111907,112097
 1.9000e+000 112146 -7.7718e+002 -6.2113e+002  1.7077e+002 24338 111933,112097,111829
 1.9000e+000 112443 -7.9903e+002 -6.0993e+002  3.7889e+002 23998 112466,112299,112247
 1.9000e+000 112420 -8.3934e+002 -9.9039e+002  2.9677e+002 23998 112466,112247,112221
 1.9000e+000 112397 -6.2526e+002 -1.0817e+003  4.7275e+002 23998 112169,112325,112221
 1.9000e+000 112374 -7.0614e+002 -9.0185e+002  3.8866e+002 23998 112169,112221,112195
 1.9000e+000 112351 -2.5701e+002 -5.7373e+002  4.1438e+002 23998 112247,112299,112273
 1.9000e+000 112492 -6.8652e+002 -6.7848e+002  5.9692e+002 23998 112325,112299,112466
 1.9000e+000 112515 -7.7640e+002 -8.9414e+002  4.8472e+002 23998 112325,112466,112221
 1.9000e+000 113200 -7.8209e+002 -9.7830e+002  6.2222e+002 23480 112779,112961,112805
 1.9000e+000 113177 -8.4928e+002 -6.4913e+002  2.7980e+002 23480 112779,112987,112961
 1.9000e+000 113154 -2.5781e+002 -5.5032e+002  3.9989e+002 23480 112805,112961,112883
 1.9000e+000 113131 -5.2631e+002 -9.0358e+002  4.3515e+002 23480 112883,112935,112909
 1.9000e+000 113108 -6.6650e+002 -7.2553e+002  4.5138e+002 23480 112883,112961,112935
 1.9000e+000 113085 -3.3470e+002 -4.5136e+002  2.1726e+002 23480 112831,112883,112857
 1.9000e+000 113062 -4.5062e+002 -5.3668e+002  2.7040e+002 23480 112805,112883,112831
 1.9000e+000 113039 -8.7404e+002 -5.1675e+002  2.8269e+002 23480 112779,113013,112987
 1.9000e+000 113676 -7.6120e+002 -4.2322e+002  5.6332e+002 23018 113699,113434,113356
 1.9000e+000 113653 -6.7814e+002 -4.0543e+002  3.1084e+002 23018 113771,113699,113356
 1.9000e+000 113630 -6.1517e+002 -6.0827e+002  2.1344e+002 23018 113771,113356,113512
 1.9000e+000 113607 -4.1412e+002 -8.7443e+002  3.6282e+002 23018 113330,113512,113356
 1.9000e+000 113584 -1.4374e+003 -8.5415e+002  8.2581e+002 23018 113356,113434,113382
 1.9000e+000 113561 -1.5126e+002 -8.2066e+002  3.5172e+002 23018 113304,113512,113330
 1.9000e+000 113538 -1.5570e+003 -3.2650e+002  3.7251e+002 23018 113382,113434,113408
 1.9000e+000 113725 -8.5516e+002 -6.5818e+002  5.8203e+002 23018 113460,113434,113699
 1.9000e+000 113748 -8.7570e+002 -6.8121e+002  3.7884e+002 23018 113460,113699,113486
 1.9000e+000 113797 -8.5441e+002 -7.1184e+002  3.8217e+002 23018 113486,113699,113771
 1.9000e+000 113820 -6.8630e+002 -7.4881e+002  2.4059e+002 23018 113486,113771,113512
 1.9000e+000 114424 -7.3500e+002 -6.6090e+002  1.1895e+002 22514 114447,114133,114029
 1.9000e+000 114401 -7.5323e+002 -8.3090e+002  1.1644e+002 22514 114447,114029,114237
 1.9000e+000 114378 -7.7183e+002 -4.5438e+002  4.9669e+001 22514 114133,114211,114185
 1.9000e+000 114355 -1.2543e+003 -5.1429e+002  5.4119e+000 22514 114133,114185,114159
 1.9000e+000 114332 -5.4320e+002 -8.5597e+002  3.0441e+002 22514 114003,114237,114029
 1.9000e+000 114309 -8.3610e+002 -6.4956e+002  4.6090e+001 22514 114029,114133,114055
 1.9000e+000 114286 -9.8613e+002 -6.6022e+002  1.2168e+002 22514 114055,114133,114107
 1.9000e+000 114263 -7.2500e+002 -5.9655e+001  2.1110e+002 22514 114055,114107,114081
 1.9000e+000 114473 -7.8112e+002 -5.7334e+002  1.9223e+002 22514 114211,114133,114447
 1.9000e+000 114496 -7.6846e+002 -6.9780e+002  1.8621e+002 22514 114211,114447,114237
 1.9000e+000 114597 -3.8751e+002 -1.0008e+003  5.0673e+002 22316 114620,114571,114545
 1.9000e+000 114646 -3.8751e+002 -1.0008e+003  5.0673e+002 22316 114519,114571,114620
 1.9000e+000 115127 -9.7194e+002 -6.3473e+002  3.6294e+002 21612 115150,114905,114879
 1.9000e+000 115104 -1.1596e+003 -4.0863e+002  3.9758e+002 21612 115150,114879,114853
 1.9000e+000 115081 -7.0795e+002 -2.3029e+002  5.0434e+002 21612 115222,114931,114905
 1.9000e+000 115058 -8.2410e+002 -5.4046e+002  4.0471e+002 21612 115222,114905,115009
 1.9000e+000 115035 -4.1809e+002 -6.5105e+002  2.2686e+002 21612 114957,115009,114983
 1.9000e+000 115176 -8.6961e+002 -5.0012e+002  3.0619e+002 21612 115009,114905,115150
 1.9000e+000 115199 -1.0288e+003 -2.3386e+002  3.2738e+002 21612 115009,115150,114853
 1.9000e+000 115248 -6.7401e+002 -5.2495e+002  3.8394e+002 21612 114957,114931,115222
 1.9000e+000 115271 -7.8631e+002 -8.2686e+002  2.8280e+002 21612 114957,115222,115009
 1.9000e+000 115519 -2.3839e+002  1.0247e+002  2.7065e+002 21208 115542,115372,115320
 1.9000e+000 115496 -1.7607e+001  2.7459e+002  3.1687e+001 21208 115542,115320,115294
 1.9000e+000 115473 -1.6312e+002 -4.2941e+002  3.6476e+002 21208 115320,115372,115346
 1.9000e+000 115450 -5.4863e+002 -1.9707e+002  1.5492e+002 21208 115294,115424,115398
 1.9000e+000 115568 -3.3394e+002 -1.2343e+000  3.6194e+002 21208 115398,115372,115542
 1.9000e+000 115591 -2.6189e+002 -1.3968e+002  1.5969e+002 21208 115398,115542,115294
 1.9000e+000 115839 -6.6772e+002 -4.9684e+002  4.3436e+002 20668 115862,115640,115614
 1.9000e+000 115816 -7.2273e+002 -5.5875e+002  4.6224e+002 20668 115862,115614,115744
 1.9000e+000 115793 -9.0839e+002 -3.8831e+002  4.4898e+002 20668 115640,115718,115692
 1.9000e+000 115770 -9.8830e+002 -3.6952e+002  4.2692e+002 20668 115640,115692,115666
 1.9000e+000 115888 -7.4446e+002 -3.8042e+002  4.9260e+002 20668 115718,115640,115862
 1.9000e+000 115911 -8.2275e+002 -5.0225e+002  5.3346e+002 20668 115718,115862,115744
 1.9000e+000 116134 -4.6161e+002 -7.8694e+002  4.4214e+002 20264 115958,116036,115984
 1.9000e+000 116111 -2.7162e+002 -7.0028e+002  4.2264e+002 20264 115958,116062,116036
 1.9000e+000 116088 -2.7677e+002 -7.3172e+002  4.7988e+002 20264 115984,116036,116010
 1.9000e+000 116384 -6.9550e+002 -4.9189e+002  5.0251e+002 19924 116407,116211,116159
 1.9000e+000 116361 -6.6248e+002 -8.2755e+002  4.0528e+002 19924 116407,116159,116263
 1.9000e+000 116338 -6.5486e+002 -3.2738e+002  4.9640e+002 19924 116159,116211,116185
 1.9000e+000 116315 -4.3579e+002 -8.3998e+002  4.9397e+002 19924 116159,116289,116263
 1.9000e+000 116433 -6.6723e+002 -3.0523e+002  5.8992e+002 19924 116237,116211,116407
 1.9000e+000 116456 -5.0387e+002 -5.2842e+002  5.3402e+002 19924 116237,116407,116263
 1.9000e+000 116608 -5.1960e+002 -1.4545e+002  3.5551e+002 19520 116703,116631,116533
 1.9000e+000 116585 -5.1169e+002 -2.0945e+002  2.9315e+002 19520 116631,116507,116481
 1.9000e+000 116657 -3.8750e+002 -2.2380e+002  3.7433e+002 19520 116559,116533,116631
 1.9000e+000 116680 -4.7338e+002 -3.9028e+002  2.9487e+002 19520 116559,116631,116481
 1.9000e+000 116729 -5.1960e+002 -1.4545e+002  3.5551e+002 19520 116507,116631,116703
 1.9000e+000 116952 -5.9729e+002 -5.8117e+002  7.5747e+002 19208 116975,116802,116776
 1.9000e+000 116929 -7.7796e+002 -1.0376e+003  4.4073e+002 19208 116975,116776,116880
 1.9000e+000 116906 -9.1799e+002 -3.8403e+002  5.2686e+002 19208 116802,116854,116828
 1.9000e+000 117001 -4.7001e+002 -4.9649e+002  7.9665e+002 19208 116854,116802,116975
 1.9000e+000 117024 -1.9883e+002 -6.1240e+002  6.3231e+002 19208 116854,116975,116880
 1.9000e+000 117428 -6.4580e+002 -2.3162e+002  4.3238e+002 18796 117154,117206,117180
 1.9000e+000 117405 -4.4536e+002 -5.1787e+002  3.7656e+002 18796 117154,117284,117206
 1.9000e+000 117382 -2.7157e+002 -4.4306e+002  3.8051e+002 18796 117154,117310,117284
 1.9000e+000 117359 -2.4155e+002 -3.7625e+002  4.9472e+002 18796 117206,117284,117258
 1.9000e+000 117336 -2.3139e+001 -7.3132e+001  6.9174e+002 18796 117206,117258,117232
 1.9000e+000 117529 -3.4132e+002 -2.0129e+002  2.1539e+002 18228 117810,117552,117477
 1.9000e+000 117578 -6.8892e+002 -5.0031e+002  3.0346e+002 18228 117682,117552,117503
 1.9000e+000 117708 -2.5037e+002 -2.6967e+002  2.0155e+002 18228 117477,117552,117682
 1.9000e+000 117836 -4.8683e+002 -4.9901e+002  2.7411e+002 18228 117451,117552,117810
 1.9000e+000 118364 -8.0940e+002 -2.4507e+002  3.1687e+002 17722 118067,118223,118093
 1.9000e+000 118341 -7.3995e+002 -1.6795e+002  3.5198e+002 17722 118041,118223,118067
 1.9000e+000 118318 -4.4946e+002 -2.2739e+002  2.1061e+002 17722 118093,118223,118197
 1.9000e+000 118295 -1.0640e+003 -1.1824e+003  7.4531e+002 17722 118119,118197,118171
 1.9000e+000 118272 -2.1041e+002 -1.4159e+001  3.4444e+002 17722 118093,118197,118119
 1.9000e+000 118249 -8.5821e+002 -8.6178e+002  8.3839e+002 17722 118119,118171,118145
 1.9000e+000 118514 -1.2489e+003 -4.8104e+002  4.3796e+002 17268 118387,118439,118413
 1.9000e+000 118491 -5.6406e+001 -4.7318e+002  3.8792e+002 17268 118387,118465,118439
 1.9000e+000 118916 -1.0036e+003 -3.1831e+002  3.0591e+002 16828 118668,118772,118694
 1.9000e+000 118893 -1.2542e+003 -4.5131e+002  2.5640e+002 16828 118668,118798,118772
 1.9000e+000 118870 -1.3994e+003 -8.2483e+002  2.1591e+002 16828 118642,118798,118668
 1.9000e+000 118847 -4.4305e+002 -1.7502e+002  4.9513e+002 16828 118694,118746,118720
 1.9000e+000 118824 -1.0644e+003 -5.6485e+002  2.6151e+002 16828 118694,118772,118746
 1.9000e+000 119316 -4.2472e+002 -3.3744e+002  4.7706e+002 16422 119042,119172,119094
 1.9000e+000 119293 -5.4907e+002 -3.7570e+002  4.8329e+002 16422 119042,119198,119172
 1.9000e+000 119270 -6.8223e+002 -1.7579e+002  2.8026e+002 16422 119042,119094,119068
 1.9000e+000 119247 -1.9419e+002 -1.4365e+002  6.8971e+002 16422 119094,119146,119120
 1.9000e+000 119224 -3.5606e+002 -2.2040e+002  5.0630e+002 16422 119094,119172,119146
 1.9000e+000 119466 -1.4246e+003 -2.3374e+002 -1.2265e+002 16010 119339,119391,119365
 1.9000e+000 119443 -6.2375e+002 -4.3216e+002  3.0683e+002 16010 119339,119417,119391
 1.9000e+000 119616 -2.0900e+002 -2.4252e+001  3.6799e+002 15547 119515,119567,119541
 1.9000e+000 119593  2.6086e+002  3.1539e+002  9.0358e+002 15547 119489,119567,119515
 1.9000e+000 119719 -8.0734e+002 -2.9455e+002  4.2714e+002 421 119641,119693,119667
 2.0000e+000 69562 -8.3041e+002 -4.1165e+002  7.1328e+002 69254 69484,69536,69510
 2.0000e+000 70009 -4.3935e+002 -4.2647e+002  3.7815e+002 68942 69686,69842,69816
 2.0000e+000 69986 -4.1473e+002 -1.7569e+002  2.3342e+002 68942 69686,69868,69842
 2.0000e+000 69963 -1.1460e+002 -3.9747e+001  5.2318e+002 68942 69686,69816,69712
 2.0000e+000 69940 -1.0035e+002 -1.1896e+002  7.4552e+002 68942 69712,69790,69738
 2.0000e+000 69917 -6.0739e+002 -1.1879e+003  4.9693e+002 68942 69712,69816,69790
 2.0000e+000 69894 -1.3255e+001 -6.3733e+002  2.8041e+002 68942 69738,69790,69764
 2.0000e+000 70110 -3.6463e+002 -3.0587e+001  2.8497e+002 68766 70032,70084,70058
 2.0000e+000 70746 -2.2329e+002 -1.9354e+002  2.6421e+002 68448 70400,70556,70426
 2.0000e+000 70723 -8.1519e+002 -2.7363e+002  4.0709e+002 68448 70374,70556,70400
 2.0000e+000 70700 -4.6114e+002 -2.2260e+002  1.9582e+002 68448 70426,70556,70478
 2.0000e+000 70677 -6.4403e+002 -1.6859e+002  2.3708e+002 68448 70478,70556,70504
 2.0000e+000 70654 -3.5258e+002 -2.0436e+002  1.0973e+002 68448 70426,70478,70452
 2.0000e+000 70631 -8.3174e+002 -3.3760e+002  4.8819e+002 68448 70374,70582,70556
 2.0000e+000 70608 -6.7096e+002 -2.7019e+002  2.4489e+002 68448 70504,70556,70530
 2.0000e+000 70896 -6.8651e+002 -6.8691e+001  7.1690e+001 68250 70795,70847,70821
 2.0000e+000 70873 -1.5653e+003 -4.1744e+002  1.2499e+002 68250 70769,70847,70795
 2.0000e+000 70997 -2.4992e+003 -1.2462e+003  1.1181e+003 68052 70919,70971,70945
 2.0000e+000 71367 -7.6527e+002 -1.2345e+003  4.5373e+002 67740 71096,71226,71200
 2.0000e+000 71344 -4.7462e+002 -6.8940e+002  5.7911e+002 67740 71044,71226,71096
 2.0000e+000 71321  9.1533e+001 -9.1533e+001  9.1459e+002 67740 71044,71096,71070
 2.0000e+000 71298 -5.4018e+002 -1.3363e+003  8.9307e+002 67740 71096,71200,71174
 2.0000e+000 71275 -3.1723e+002 -7.8539e+002  3.4853e+002 67740 71096,71148,71122
 2.0000e+000 71252 -4.3423e+002 -9.5072e+002  5.8044e+002 67740 71096,71174,71148
 2.0000e+000 71519  3.1133e+002  2.3712e+002  2.9640e+002 67542 71418,71470,71444
 2.0000e+000 71496  5.1653e+002  9.0894e+002  9.2024e+002 67542 71392,71470,71418
 2.0000e+000 71923 -1.1131e+002  1.0546e+002  2.1898e+002 67230 71649,71779,71675
 2.0000e+000 71900 -5.1699e+001 -1.5201e+002  8.8679e+001 67230 71649,71805,71779
 2.0000e+000 71877 -8.9282e+001  9.0010e+000  4.3538e+002 67230 71675,71727,71701
 2.0000e+000 71854 -1.5456e+002 -6.4163e+002  3.8385e+002 67230 71675,71753,71727
 2.0000e+000 71831 -1.8503e+002 -3.5137e+002  2.6336e+002 67230 71675,71779,71753
 2.0000e+000 72433 -4.5769e+002 -1.9788e+002  3.8594e+002 67032 72038,72246,72220
 2.0000e+000 72410 -2.7979e+002  6.9814e+001  1.6002e+002 67032 72012,72246,72038
 2.0000e+000 72387 -4.4592e+002 -1.1193e+002  4.2013e+002 67032 72064,72194,72168
 2.0000e+000 72364 -5.0954e+002 -1.7070e+002  4.5281e+002 67032 72038,72194,72064
 2.0000e+000 72341 -6.7183e+002 -7.5191e+002  4.2482e+002 67032 72038,72220,72194
 2.0000e+000 72318 -1.1872e+002  1.3519e+002  2.1752e+002 67032 72090,72168,72142
 2.0000e+000 72295  7.3206e+001  1.0978e+002  3.6058e+002 67032 72064,72168,72090
 2.0000e+000 72272 -1.5536e+002  9.8847e+001  1.9812e+002 67032 72090,72142,72116
 2.0000e+000 72933 -3.5126e+002 -4.5304e+002  4.2778e+002 66628 72956,72665,72613
 2.0000e+000 72910 -3.1133e+002 -4.4655e+002  4.3633e+002 66628 73100,72956,72613
 2.0000e+000 72887 -4.5241e+002 -6.5905e+002  3.3201e+002 66628 73028,72691,72665
 2.0000e+000 72864 -2.7997e+002 -3.9983e+002  4.6238e+002 66628 73100,72613,72587
 2.0000e+000 72841 -3.3826e+002 -4.3337e+002  3.9241e+002 66628 72613,72665,72639
 2.0000e+000 72818  1.4756e+002  4.0945e+001  5.9149e+002 66628 72587,72769,72743
 2.0000e+000 72795 -3.9220e+002 -9.4220e+002  1.0042e+002 66628 72561,72769,72587
 2.0000e+000 72982 -4.3786e+002 -4.7725e+002  4.6047e+002 66628 73028,72665,72956
 2.0000e+000 73005 -3.5689e+002 -1.0898e+002  4.5417e+002 66628 72717,72956,72743
 2.0000e+000 73054 -6.9408e+002 -5.3318e+002  2.0366e+002 66628 72717,72691,73028
 2.0000e+000 73077 -6.7809e+002 -4.7464e+002  3.1610e+002 66628 72717,73028,72956
 2.0000e+000 73126 -3.6211e+002 -4.4659e+002  3.7873e+002 66628 72743,72956,73100
 2.0000e+000 73149 -3.2408e+002 -4.0591e+002  4.0448e+002 66628 72743,73100,72587
 2.0000e+000 73606 -4.7409e+002 -4.0383e+002  3.7973e+002 66281 73332,73384,73358
 2.0000e+000 73583 -5.7583e+002 -4.7342e+002  3.2152e+002 66281 73332,73462,73384
 2.0000e+000 73560 -7.4913e+002 -4.8253e+002  3.4673e+002 66281 73384,73462,73436
 2.0000e+000 73537 -1.1535e+003 -6.8465e+002  5.6483e+002 66281 73332,73488,73462
 2.0000e+000 73514 -8.7028e+002 -4.8732e+002  2.5230e+002 66281 73384,73436,73410
 2.0000e+000 73984  3.2489e+000 -9.5226e+001  3.5898e+001 65969 73736,73814,73788
 2.0000e+000 73961  6.5936e+001 -3.4045e+001  1.0249e+000 65969 73736,73866,73814
 2.0000e+000 73938 -9.7938e+001 -1.5915e+002  1.8541e+002 65969 73814,73866,73840
 2.0000e+000 73915 -3.8923e+000 -7.5846e+000  5.7020e+000 65969 73710,73866,73736
 2.0000e+000 73892  1.5130e+000 -1.2282e+002  1.6978e+001 65969 73736,73788,73762
 2.0000e+000 74232 -3.1204e+002 -4.2340e+002  3.7928e+002 65572 74255,74085,74033
 2.0000e+000 74209 -2.6549e+002 -4.6662e+002  3.0164e+002 65572 74327,74255,74033
 2.0000e+000 74186 -2.9976e+002 -3.3955e+002  3.0948e+002 65572 74327,74033,74007
 2.0000e+000 74163 -3.5795e+002 -5.3754e+002  4.2278e+002 65572 74033,74085,74059
 2.0000e+000 74281 -4.1442e+002 -5.6603e+002  5.0821e+002 65572 74111,74085,74255
 2.0000e+000 74304 -2.3121e+002 -4.8578e+002  3.5258e+002 65572 74111,74255,74137
 2.0000e+000 74353 -2.3662e+002 -3.1834e+002  2.6060e+002 65572 74137,74255,74327
 2.0000e+000 74376 -2.9859e+002 -2.2460e+002  2.7487e+002 65572 74137,74327,74007
 2.0000e+000 74884 -3.5300e+002 -4.1763e+002  3.1070e+002 65174 74587,74717,74613
 2.0000e+000 74861 -3.8078e+002 -4.7120e+002  2.1831e+002 65174 74561,74717,74587
 2.0000e+000 74838 -4.2108e+002 -5.6470e+002  3.1350e+002 65174 74613,74691,74639
 2.0000e+000 74815 -3.3286e+002 -5.3405e+002  2.8319e+002 65174 74613,74717,74691
 2.0000e+000 74792 -1.7064e+002 -9.7320e+002  2.1046e+002 65174 74639,74691,74665
 2.0000e+000 74769 -6.1313e+002 -1.6521e+002  2.5391e+002 65174 74561,74743,74717
 2.0000e+000 75412 -1.5804e+001 -3.1083e+002  8.6361e+002 64770 75167,75245,75219
 2.0000e+000 75389 -3.8124e+002 -8.1220e+002  5.9114e+002 64770 75115,75245,75167
 2.0000e+000 75366 -3.1748e+002 -1.0550e+003  7.5879e+002 64770 75089,75245,75115
 2.0000e+000 75343 -5.2432e+002 -2.3751e+002  6.2853e+002 64770 75167,75219,75193
 2.0000e+000 75320 -3.0429e+002 -6.5762e+002  6.2551e+002 64770 75115,75167,75141
 2.0000e+000 75297 -5.2797e+002 -1.4937e+003  8.2279e+002 64770 75089,75271,75245
 2.0000e+000 75861 -8.6044e+002 -4.3273e+002  7.9787e+002 64316 75538,75694,75564
 2.0000e+000 75838 -3.0939e+002 -1.6112e+002  6.2486e+002 64316 75538,75720,75694
 2.0000e+000 75815 -8.0301e+002 -5.9541e+002  6.2488e+002 64316 75590,75694,75642
 2.0000e+000 75792 -7.7804e+002 -7.6196e+002  6.7448e+002 64316 75564,75694,75590
 2.0000e+000 75769 -1.9547e+002 -9.4427e+002  3.2725e+002 64316 75590,75642,75616
 2.0000e+000 75746 -7.3758e+002 -3.2869e+002  6.0068e+002 64316 75642,75694,75668
 2.0000e+000 76239 -1.2048e+003 -9.9684e+002  5.5976e+002 64018 76262,76095,76043
 2.0000e+000 76216 -8.8718e+002 -9.2441e+002  4.3585e+002 64018 76262,76043,76017
 2.0000e+000 76193 -3.9108e+002 -5.4413e+002  4.0077e+002 64018 75991,76121,76017
 2.0000e+000 76170 -1.1155e+003 -7.9961e+002  7.3211e+002 64018 76043,76095,76069
 2.0000e+000 76147 -1.9872e+001 -5.4563e+002  7.4066e+001 64018 75965,76121,75991
 2.0000e+000 76288 -8.4765e+002 -1.2224e+003  7.0062e+002 64018 76121,76095,76262
 2.0000e+000 76311 -5.9266e+002 -1.1637e+003  5.3453e+002 64018 76121,76262,76017
 2.0000e+000 76866 -3.8743e+002 -5.2150e+002  4.7851e+002 63728 76520,76676,76546
 2.0000e+000 76843 -4.2137e+002 -5.3701e+002  4.0236e+002 63728 76520,76702,76676
 2.0000e+000 76820 -2.8449e+002 -4.7593e+002  4.1601e+002 63728 76546,76650,76572
 2.0000e+000 76797 -5.6723e+002 -5.8842e+002  4.1288e+002 63728 76546,76676,76650
 2.0000e+000 76774 -5.2651e+002 -8.5208e+001  2.3672e+002 63728 76572,76650,76624
 2.0000e+000 76751 -3.4609e+002 -5.0987e+002  4.1845e+002 63728 76494,76702,76520
 2.0000e+000 76728 -9.6797e+001 -2.5220e+002  1.5781e+002 63728 76572,76624,76598
 2.0000e+000 77065 -3.6228e+001 -4.4864e+002  3.1521e+002 63288 77088,76941,76915
 2.0000e+000 77042 -3.7725e+002 -5.6829e+002  3.2141e+002 63288 77088,76915,76993
 2.0000e+000 77019 -1.2076e+002 -5.8738e+002  2.6589e+002 63288 76889,76993,76915
 2.0000e+000 77114 -2.4938e+002 -4.5083e+002  2.4040e+002 63288 76967,76941,77088
 2.0000e+000 77137 -6.8587e+002 -5.5934e+002  1.4192e+002 63288 77160,77088,76993
 2.0000e+000 77186 -1.5319e+002 -3.2617e+002  1.9855e+002 63288 76967,77088,77160
 2.0000e+000 77417 -1.8283e+002 -3.0787e+002  8.6663e+001 62884 77440,77342,77316
 2.0000e+000 77394 -3.1999e+002 -5.1443e+002  2.1186e+001 62884 77770,77440,77316
 2.0000e+000 77466 -3.0271e+002 -4.9349e+002 -6.4636e+000 62884 77512,77440,77368
 2.0000e+000 77489 -2.7832e+002 -5.5192e+002  4.9475e+000 62884 77642,77440,77290
 2.0000e+000 77538 -2.1933e+002 -4.3277e+002 -3.3242e+001 62884 77342,77440,77512
 2.0000e+000 77668 -3.4050e+002 -5.7327e+002 -6.1052e+001 62884 77368,77440,77642
 2.0000e+000 77796 -2.8372e+002 -4.9231e+002  1.0768e+001 62884 77290,77440,77770
 2.0000e+000 78479 -7.3408e+002 -8.8262e+002  4.6599e+002 62480 78084,78240,78214
 2.0000e+000 78456 -4.0645e+002 -7.1530e+002  1.1830e+000 62480 78084,78266,78240
 2.0000e+000 78433 -4.3660e+002 -6.6543e+002  1.8643e+002 62480 78110,78214,78136
 2.0000e+000 78410 -5.2049e+002 -7.2012e+002  3.9226e+002 62480 78084,78214,78110
 2.0000e+000 78387 -4.9641e+002 -4.3372e+002  2.5177e+002 62480 78136,78214,78188
 2.0000e+000 78364 -2.5668e+002 -8.3589e+002 -4.4197e+001 62480 78058,78266,78084
 2.0000e+000 78341 -4.8489e+002 -4.7483e+002  3.7853e+002 62480 78136,78188,78162
 2.0000e+000 78318 -5.3280e+001 -6.4509e+002 -1.8405e+002 62480 78058,78292,78266
 2.0000e+000 78678 -5.2887e+002 -9.5780e+002  3.6644e+002 61926 78528,78606,78554
 2.0000e+000 78655 -2.0049e+002 -1.1388e+003  4.7468e+002 61926 78502,78606,78528
 2.0000e+000 78632 -3.2201e+002 -5.5317e+002  1.5198e+002 61926 78554,78606,78580
 2.0000e+000 79058 -5.2757e+002 -5.6512e+002  3.0953e+002 61614 78836,78914,78862
 2.0000e+000 79035 -6.4852e+002 -6.8436e+002  2.5087e+002 61614 78810,78914,78836
 2.0000e+000 79012 -4.1582e+002 -5.8398e+002  2.3842e+002 61614 78784,78914,78810
 2.0000e+000 78989 -4.5552e+002 -6.1189e+002  4.6552e+002 61614 78862,78914,78888
 2.0000e+000 78966 -3.4201e+002 -7.3899e+002  2.6824e+002 61614 78784,78940,78914
 2.0000e+000 79208 -3.8956e+002 -9.0867e+002  2.2277e+001 61366 79081,79133,79107
 2.0000e+000 79185 -3.5810e+002 -4.8381e+002  3.7419e+002 61366 79081,79159,79133
 2.0000e+000 79358  2.4062e+001  1.6824e+001  5.0178e+001 60962 79231,79283,79257
 2.0000e+000 79335 -1.9272e+002 -4.5424e+002  1.1197e+002 60962 79231,79309,79283
 2.0000e+000 79608 -3.3365e+002 -8.2025e+002  3.4010e+002 60508 79631,79435,79409
 2.0000e+000 79585 -2.2301e+002 -8.5089e+002  2.0086e+002 60508 79703,79631,79409
 2.0000e+000 79562 -1.3711e+002 -3.0104e+002  3.1279e+002 60508 79703,79409,79383
 2.0000e+000 79539 -7.8056e+002 -7.2824e+002  6.2345e+002 60508 79435,79487,79461
 2.0000e+000 79657 -4.0405e+002 -1.0719e+003  5.7377e+002 60508 79487,79435,79631
 2.0000e+000 79680 -2.0031e+002 -7.6286e+002  2.4783e+002 60508 79487,79631,79513
 2.0000e+000 79729 -1.2026e+002 -3.4986e+002  9.0112e+001 60508 79513,79631,79703
 2.0000e+000 79752 -2.6658e+002 -2.9678e+002  2.6678e+001 60508 79513,79703,79383
 2.0000e+000 80390 -4.4938e+002 -5.7459e+002  4.3528e+002 59997 80413,80096,80018
 2.0000e+000 80367 -7.3417e+002 -6.8197e+002  4.9583e+002 59997 80413,80018,80226
 2.0000e+000 80344 -3.8996e+002 -4.8175e+002  2.8136e+002 59997 80096,80174,80148
 2.0000e+000 80321 -1.4679e+003 -1.0753e+003  7.2575e+002 59997 80018,80096,80070
 2.0000e+000 80298 -5.5827e+002 -5.3972e+002  2.7001e+002 59997 80096,80148,80122
 2.0000e+000 80275 -3.8399e+002 -5.3668e+002  3.5549e+002 59997 80174,80226,80200
 2.0000e+000 80252 -8.0053e+002 -6.7822e+002 -1.2387e+002 59997 80018,80070,80044
 2.0000e+000 80439 -3.8475e+002 -6.2623e+002  3.2397e+002 59997 80174,80096,80413
 2.0000e+000 80462 -5.0436e+002 -5.8669e+002  3.5816e+002 59997 80174,80413,80226
 2.0000e+000 80840 -7.5025e+002 -6.7166e+002  3.1979e+002 59443 80863,80644,80618
 2.0000e+000 80817 -2.6433e+002 -5.0800e+002  3.5770e+002 59443 80863,80618,80566
 2.0000e+000 80794 -2.3142e+002 -4.5143e+002  4.4871e+002 59443 81007,80935,80670
 2.0000e+000 80771 -3.7237e+002 -4.6795e+002  4.0106e+002 59443 80566,80722,80696
 2.0000e+000 80748 -3.3496e+002 -6.6478e+002  4.1734e+002 59443 80566,80618,80592
 2.0000e+000 80889 -8.2544e+002 -6.3842e+002  5.4433e+002 59443 80935,80644,80863
 2.0000e+000 80912 -5.4155e+002 -5.5060e+002  4.3526e+002 59443 80696,80863,80566
 2.0000e+000 80961 -4.4982e+002 -5.3537e+002  5.3444e+002 59443 80696,80670,80935
 2.0000e+000 80984 -4.3800e+002 -4.4284e+002  4.7809e+002 59443 80696,80935,80863
 2.0000e+000 81033 -6.0110e+002 -8.9954e+002  6.3950e+002 59443 80644,80935,81007
 2.0000e+000 81360 -7.2286e+002 -4.3424e+002  3.1077e+002 59031 81383,81187,81161
 2.0000e+000 81337 -6.9711e+002 -4.9092e+002  9.8584e+001 59031 81455,81383,81161
 2.0000e+000 81314 -6.2284e+002 -3.1541e+002  1.6654e+002 59031 81455,81161,81135
 2.0000e+000 81291 -1.4069e+003 -2.6217e+002  5.8651e+002 59031 81187,81239,81213
 2.0000e+000 81409 -7.7375e+002 -7.8567e+002  4.2144e+002 59031 81239,81187,81383
 2.0000e+000 81432 -8.0147e+002 -5.5512e+002  1.0465e+002 59031 81239,81383,81265
 2.0000e+000 81481 -7.3505e+002 -1.8810e+002  1.2639e+002 59031 81265,81383,81455
 2.0000e+000 81504 -7.6556e+002 -1.1618e+002  1.5903e+002 59031 81265,81455,81135
 2.0000e+000 81835 -7.1082e+001 -2.8964e+002  7.7902e+001 58577 81610,81714,81636
 2.0000e+000 81812 -3.9658e+001 -3.3494e+002  8.5976e+001 58577 81610,81740,81714
 2.0000e+000 81789 -1.9644e+002 -3.3817e+002  4.1878e+001 58577 81636,81714,81688
 2.0000e+000 81766 -1.6067e+002 -2.6898e+002 -4.6361e+001 58577 81636,81688,81662
 2.0000e+000 81985 -1.6316e+002 -4.0236e+002  2.4296e+002 58030 81884,81936,81910
 2.0000e+000 81962 -3.4181e+002 -1.1225e+002  1.6397e+002 58030 81858,81936,81884
 2.0000e+000 82414 -1.3610e+002 -5.8763e+001  1.8315e+002 57690 82437,82169,82117
 2.0000e+000 82391 -1.7732e+002 -2.2983e+002  2.0861e+002 57690 82437,82117,82247
 2.0000e+000 82368  8.3977e+001  1.1418e+002  4.7636e+002 57690 82195,82247,82221
 2.0000e+000 82345 -1.4202e+002 -2.1472e+002  2.1229e+002 57690 82091,82247,82117
 2.0000e+000 82322 -2.3815e+002 -6.5714e+001  1.2465e+002 57690 82117,82169,82143
 2.0000e+000 82299 -1.6217e+002 -3.9899e+002  2.9270e+002 57690 82091,82273,82247
 2.0000e+000 82463 -2.0019e+002  8.5518e+000  2.6577e+002 57690 82195,82169,82437
 2.0000e+000 82486 -2.1752e+002 -1.1224e+002  2.6386e+002 57690 82195,82437,82247
 2.0000e+000 83041 -3.6121e+002 -3.7358e+002  2.5519e+002 57172 83064,82721,82695
 2.0000e+000 83018 -4.0360e+002 -3.9619e+002  3.7401e+002 57172 83064,82695,82851
 2.0000e+000 82995 -1.2134e+003 -5.3244e+002  5.2046e+002 57172 82669,82851,82695
 2.0000e+000 82972 -6.8244e+002 -4.7912e+002  3.3633e+002 57172 82773,82851,82825
 2.0000e+000 82949 -6.6897e+002 -5.5422e+002  5.4317e+002 57172 82773,82825,82799
 2.0000e+000 82926 -4.7874e+002 -3.0342e+002  2.1311e+002 57172 82721,82773,82747
 2.0000e+000 82903 -1.0875e+003 -3.3532e+002  4.3904e+002 57172 82669,82877,82851
 2.0000e+000 83090 -5.5429e+002 -4.4820e+002  2.4466e+002 57172 82773,82721,83064
 2.0000e+000 83113 -4.6681e+002 -4.1723e+002  3.5690e+002 57172 82773,83064,82851
 2.0000e+000 83747 -4.4120e+002 -4.3304e+002  2.8370e+002 56554 83770,83427,83401
 2.0000e+000 83724 -4.8775e+002 -5.8451e+002  3.5111e+002 56554 83842,83770,83401
 2.0000e+000 83701 -1.1155e+001 -4.6803e+002  1.1120e+002 56554 83842,83401,83583
 2.0000e+000 83678 -9.4594e+002 -8.6682e+002  7.2611e+002 56554 83914,83531,83505
 2.0000e+000 83655 -4.6908e+002 -3.7130e+002  1.0495e+002 56554 83531,83583,83557
 2.0000e+000 83632 -1.1725e+002 -1.4117e+002  9.3823e+001 56554 83375,83583,83401
 2.0000e+000 83609 -4.9348e+002 -4.5313e+002  3.2253e+002 56554 83427,83479,83453
 2.0000e+000 83796 -4.4740e+002 -4.1732e+002  2.9023e+002 56554 83479,83427,83770
 2.0000e+000 83819 -5.0942e+002 -3.7973e+002  3.1776e+002 56554 83479,83770,83505
 2.0000e+000 83868 -3.1103e+002 -2.5261e+002  4.2261e+002 56554 83505,83770,83842
 2.0000e+000 83891 -5.9813e+002 -5.0574e+002  5.3374e+002 56554 83914,83505,83842
 2.0000e+000 83940 -4.1284e+002 -8.6990e+002  3.7210e+002 56554 83583,83531,83914
 2.0000e+000 83963 -1.9597e+002 -8.1855e+002  2.7691e+002 56554 83583,83914,83842
 2.0000e+000 84341 -4.0613e+001 -7.4798e+002  1.9496e+002 56192 84067,84145,84119
 2.0000e+000 84318  6.8454e+001 -7.8326e+002  8.0585e+001 56192 84067,84223,84145
 2.0000e+000 84295 -2.1241e+002 -8.4417e+002 -1.2400e+002 56192 84145,84223,84197
 2.0000e+000 84272  7.1832e+001 -1.3867e+003  2.3082e+002 56192 84067,84119,84093
 2.0000e+000 84249 -6.8392e+002 -1.3770e+002  1.2956e+002 56192 84145,84197,84171
 2.0000e+000 84611 -2.5990e+002 -6.9507e+002  4.8817e+002 55538 84386,84490,84412
 2.0000e+000 84588 -2.5787e+002 -5.7823e+002  4.6775e+002 55538 84386,84516,84490
 2.0000e+000 84565 -5.1984e+002 -8.0681e+002  4.8536e+002 55538 84412,84490,84464
 2.0000e+000 84542 -2.9232e+002 -7.2314e+002  3.3256e+002 55538 84412,84464,84438
 2.0000e+000 84942 -4.9430e+002 -4.2444e+002  3.7284e+002 55084 84769,84847,84795
 2.0000e+000 84919 -5.0700e+002 -4.8454e+002  3.1237e+002 55084 84717,84847,84769
 2.0000e+000 84896 -5.3804e+002 -5.8047e+002  3.1378e+002 55084 84717,84769,84743
 2.0000e+000 84873 -5.7897e+002 -2.4314e+002  3.2101e+002 55084 84795,84847,84821
 2.0000e+000 85271  1.8112e+001 -1.6331e+002  2.3132e+002 54580 85294,85098,85072
 2.0000e+000 85248 -5.9791e+002 -4.0106e+002  3.7773e+002 54580 85294,85072,85176
 2.0000e+000 85225 -9.2017e+002 -1.3407e+001  1.1167e+002 54580 85124,85176,85150
 2.0000e+000 85202 -9.2483e+001 -3.4222e+002  6.4185e+001 54580 85046,85176,85072
 2.0000e+000 85320 -5.3976e+002 -1.7904e+002  3.1604e+002 54580 85124,85098,85294
 2.0000e+000 85343 -8.6878e+002 -1.7455e+002  4.1172e+002 54580 85124,85294,85176
 2.0000e+000 85542 -3.2012e+002 -5.5883e+002  3.0772e+002 53976 85565,85444,85418
 2.0000e+000 85519 -3.3554e+002 -4.5677e+002  2.8172e+002 53976 85565,85418,85366
 2.0000e+000 85496 -2.6355e+002 -3.8685e+002  1.7693e+002 53976 85366,85418,85392
 2.0000e+000 85591 -3.9733e+002 -5.2311e+002  2.1354e+002 53976 85470,85444,85565
 2.0000e+000 85614 -3.0661e+002 -2.3491e+002  2.1386e+002 53976 85470,85565,85366
 2.0000e+000 85960 -6.5441e+002 -5.7189e+002  4.1411e+002 53572 85663,85715,85689
 2.0000e+000 85937 -6.0928e+002 -5.7094e+002  2.9992e+002 53572 85983,85715,85663
 2.0000e+000 85914 -7.1778e+002 -7.4298e+002  3.7234e+002 53572 86055,85983,85663
 2.0000e+000 85891 -6.7970e+002 -7.3999e+002  5.0005e+002 53572 86055,85663,85637
 2.0000e+000 85868 -1.0008e+003 -1.4763e+003  5.8258e+002 53572 85637,85793,85767
 2.0000e+000 85845 -2.1148e+003 -6.4747e+002  4.5667e+002 53572 85637,85819,85793
 2.0000e+000 86009 -6.9603e+002 -4.8737e+002  3.0766e+002 53572 85741,85715,85983
 2.0000e+000 86032 -6.7540e+002 -4.9141e+002  2.9902e+002 53572 85741,85983,85767
 2.0000e+000 86081 -6.2424e+002 -4.4606e+002  3.3448e+002 53572 85767,85983,86055
 2.0000e+000 86104 -6.6002e+002 -5.8201e+002  4.5483e+002 53572 85767,86055,85637
 2.0000e+000 86693 -9.1731e+002 -2.2941e+002  5.3390e+002 52946 86474,86526,86500
 2.0000e+000 86670 -5.0737e+001 -4.6587e+001  1.2379e+002 52946 86396,86526,86474
 2.0000e+000 86647 -7.0168e+002 -4.2775e+002  3.3499e+002 52946 86370,86526,86396
 2.0000e+000 86624  5.8805e+000  1.7542e+000  6.0925e+000 52946 86422,86474,86448
 2.0000e+000 86601 -1.3686e+002 -3.0112e+001  6.7401e+001 52946 86396,86474,86422
 2.0000e+000 86578 -8.1811e+002 -2.3828e+002  2.0625e+002 52946 86370,86552,86526
 2.0000e+000 87376 -5.0016e+002 -4.2307e+002  1.9563e+002 52420 87007,87085,87033
 2.0000e+000 87353 -3.8917e+002 -4.1547e+002  2.1905e+002 52420 87007,87163,87085
 2.0000e+000 87330 -6.0248e+002 -4.3991e+002  2.5160e+002 52420 87007,87189,87163
 2.0000e+000 87307 -5.9968e+002 -3.8468e+002  2.8431e+002 52420 87033,87085,87059
 2.0000e+000 87284 -5.4137e+002 -4.6092e+002  4.8954e+001 52420 87085,87137,87111
 2.0000e+000 87261 -3.3872e+002 -4.5800e+002  5.3125e+001 52420 87085,87163,87137
 2.0000e+000 87238 -4.2299e+002 -6.4060e+002  5.2946e+002 52420 86955,87189,87007
 2.0000e+000 87215 -2.7499e+002 -3.9273e+002  3.2425e+002 52420 86955,87007,86981
 2.0000e+000 87624 -3.4407e+002 -4.7583e+002  2.3901e+002 51916 87451,87503,87477
 2.0000e+000 87601 -2.0289e+002 -6.6837e+002  2.9423e+002 51916 87425,87503,87451
 2.0000e+000 87578 -2.7386e+002 -7.0463e+002  2.8156e+002 51916 87425,87529,87503
 2.0000e+000 87555 -1.4066e+002 -3.6235e+002  3.0909e+002 51916 87399,87529,87425
 2.0000e+000 88053 -5.2726e+002 -4.6163e+002  1.8221e+002 51568 87782,87834,87808
 2.0000e+000 88030 -6.7984e+002 -4.2531e+002  3.3655e+002 51568 88076,87782,87886
 2.0000e+000 88007 -5.9738e+002 -2.3514e+002  2.7521e+002 51568 88076,87886,87860
 2.0000e+000 87984 -8.6045e+002 -6.3986e+002  2.5927e+002 51568 87756,87886,87782
 2.0000e+000 87961 -6.4139e+002 -4.9440e+002  5.3477e+002 51568 87756,87912,87886
 2.0000e+000 87938 -7.4129e+002 -3.3121e+002  4.9695e+002 51568 87730,87912,87756
 2.0000e+000 88102 -5.6094e+002 -5.1672e+002  2.0819e+002 51568 87834,87782,88076
 2.0000e+000 88125 -4.8775e+002 -3.9081e+002  1.5430e+002 51568 87834,88076,87860
 2.0000e+000 88324 -4.7623e+002 -5.7437e+002  1.1078e+002 51164 88419,88347,88200
 2.0000e+000 88301 -3.3988e+002 -5.5743e+002  2.6779e+002 51164 88347,88148,88252
 2.0000e+000 88278 -6.4200e+002 -1.0945e+003  1.1444e+002 51164 88419,88200,88174
 2.0000e+000 88373 -3.3214e+002 -3.6017e+002  1.8583e+002 51164 88226,88200,88347
 2.0000e+000 88396 -4.2355e+001 -5.7056e+002  2.1191e+002 51164 88226,88347,88252
 2.0000e+000 88445 -5.9632e+002 -6.6879e+002  4.1324e+002 51164 88148,88347,88419
 2.0000e+000 88468 -5.7182e+002 -6.3039e+002  4.5454e+002 51164 88148,88419,88174
 2.0000e+000 88738 -4.7306e+002 -6.6752e+002  1.6777e+002 50560 88513,88617,88539
 2.0000e+000 88715 -3.3833e+002 -7.9447e+002  1.1668e+002 50560 88513,88643,88617
 2.0000e+000 88692 -2.2854e+002 -1.1778e+002  2.1253e+002 50560 88539,88591,88565
 2.0000e+000 88669 -1.7565e+002 -4.3645e+002  2.6849e+002 50560 88539,88617,88591
 2.0000e+000 88939 -5.9742e+002 -2.5329e+002  3.1585e+002 50106 88962,88789,88763
 2.0000e+000 88916 -4.1190e+002 -2.6299e+002  2.4186e+002 50106 88962,88763,88841
 2.0000e+000 88893 -6.2008e+002 -3.9896e+002  3.9689e+002 50106 88763,88867,88841
 2.0000e+000 88988 -4.2060e+002 -3.2890e+002  1.9624e+002 50106 88815,88789,88962
 2.0000e+000 89011 -3.2127e+002 -2.4017e+002  2.5427e+002 50106 89034,88962,88841
 2.0000e+000 89060 -2.3065e+002 -9.6142e+001  7.5937e+001 50106 88815,88962,89034
 2.0000e+000 89472 -3.2336e+002 -8.4593e+002  1.9420e+001 49666 89273,89351,89325
 2.0000e+000 89449 -4.4641e+002 -3.8212e+002  1.9586e+002 49666 89273,89377,89351
 2.0000e+000 89426 -3.8694e+002 -6.3947e+002  4.4180e+002 49666 89273,89325,89299
 2.0000e+000 89403 -5.1482e+002 -3.9406e+002  2.5048e+002 49666 89247,89377,89273
 2.0000e+000 89978 -3.9723e+002 -6.8213e+002 -1.4958e+001 49205 89681,89837,89733
 2.0000e+000 89955 -7.0447e+001 -3.6372e+002  1.6126e+002 49205 89655,89837,89681
 2.0000e+000 89932 -6.5313e+002 -7.7663e+002  3.3911e+002 49205 89785,89837,89811
 2.0000e+000 89909 -1.6611e+002 -4.6578e+002  1.2882e+002 49205 89733,89837,89785
 2.0000e+000 89886 -6.0193e+002 -6.2134e+002  2.9491e+002 49205 89733,89785,89759
 2.0000e+000 89863 -1.8365e+002 -2.8685e+002 -1.7773e+002 49205 89681,89733,89707
 2.0000e+000 90177 -3.9053e+002 -4.1345e+002  1.9626e+002 48865 90530,90200,90053
 2.0000e+000 90154 -2.8475e+002 -4.8064e+002  2.1808e+002 48865 90402,90200,90001
 2.0000e+000 90131 -4.4782e+002 -3.1588e+002  2.0189e+002 48865 90530,90053,90027
 2.0000e+000 90226 -4.7998e+002 -4.8479e+002  3.6309e+002 48865 90079,90053,90200
 2.0000e+000 90249 -3.6579e+002 -3.9489e+002  2.4566e+002 48865 90272,90200,90105
 2.0000e+000 90298 -2.7887e+002 -3.3059e+002  2.7460e+002 48865 90079,90200,90272
 2.0000e+000 90428 -2.7956e+002 -1.5739e+002  2.0581e+002 48865 90105,90200,90402
 2.0000e+000 90556 -4.2343e+002 -5.5289e+002  1.7660e+002 48865 90001,90200,90530
 2.0000e+000 90579 -4.6563e+002 -4.1485e+002  1.5428e+002 48865 90001,90530,90027
 2.0000e+000 90827 -4.4110e+002 -4.5531e+002  2.3207e+002 48404 90850,90654,90628
 2.0000e+000 90804 -4.8182e+002 -5.5705e+002  3.8588e+002 48404 90850,90628,90732
 2.0000e+000 90781 -3.2917e+002 -3.2275e+002  1.8834e+002 48404 90680,90732,90706
 2.0000e+000 90758 -6.6830e+002 -3.1923e+002  4.0689e+002 48404 90602,90732,90628
 2.0000e+000 90876 -4.5893e+002 -2.1934e+002  1.8860e+002 48404 90680,90654,90850
 2.0000e+000 90899 -4.8886e+002 -4.0880e+002  3.0465e+002 48404 90680,90850,90732
 2.0000e+000 91000 -2.5680e+002 -6.6894e+002  4.3321e+002 48156 90922,90974,90948
 2.0000e+000 91250 -2.4769e+002 -6.1780e+002  3.2884e+002 47752 91051,91103,91077
 2.0000e+000 91227 -1.8137e+002 -1.6189e+002  2.0070e+002 47752 91025,91103,91051
 2.0000e+000 91204 -6.9538e+002 -5.0023e+002  5.4369e+002 47752 91025,91155,91103
 2.0000e+000 91181 -7.5220e+002 -2.2128e+002  3.6786e+002 47752 91103,91155,91129
 2.0000e+000 91402 -3.3128e+002 -4.0999e+002  3.1548e+002 47191 91425,91301,91275
 2.0000e+000 91379 -2.4876e+002 -3.8036e+002  3.5523e+002 47191 91497,91425,91275
 2.0000e+000 91451 -3.4906e+002 -1.2042e+002  1.7270e+002 47191 91327,91301,91425
 2.0000e+000 91474 -5.2657e+002 -4.2989e+002  3.7248e+002 47191 91327,91425,91353
 2.0000e+000 91523 -4.1838e+002 -8.5454e+002  3.9485e+002 47191 91353,91425,91497
 2.0000e+000 91854 -3.8454e+002 -4.3157e+002  1.2724e+002 46744 91949,91877,91707
 2.0000e+000 91831 -4.3156e+002 -3.9690e+002  1.7238e+002 46744 91877,91655,91629
 2.0000e+000 91808 -3.5553e+002 -4.5848e+002  1.4404e+002 46744 91949,91707,91681
 2.0000e+000 91785 -6.4908e+002 -2.6184e+002 -1.2777e+001 46744 91629,91759,91733
 2.0000e+000 91903 -3.6571e+002 -3.8751e+002  1.1840e+002 46744 91733,91707,91877
 2.0000e+000 91926 -3.8762e+002 -3.3513e+002  1.5304e+002 46744 91733,91877,91629
 2.0000e+000 91975 -3.5215e+002 -3.6935e+002  1.3917e+002 46744 91655,91877,91949
 2.0000e+000 91998 -3.2312e+002 -4.0461e+002  1.6004e+002 46744 91655,91949,91681
 2.0000e+000 92378 -4.0380e+002 -1.3052e+002  2.5576e+002 46090 92130,92208,92182
 2.0000e+000 92355 -5.3750e+002 -1.8791e+002  2.3577e+002 46090 92104,92208,92130
 2.0000e+000 92332 -2.5317e+002 -4.0440e+002  2.0883e+002 46090 92104,92260,92208
 2.0000e+000 92309 -2.2206e+002 -1.0266e+002  1.5912e+002 46090 92208,92260,92234
 2.0000e+000 92286 -6.6669e+002 -1.9772e+002  3.0297e+002 46090 92130,92182,92156
 2.0000e+000 92626 -3.4819e+002 -4.6386e+002  1.8400e+002 45693 92721,92649,92505
 2.0000e+000 92603 -3.9108e+002 -4.7683e+002  4.0340e+002 45693 92649,92453,92427
 2.0000e+000 92580 -3.7915e+002 -3.6998e+002  1.8081e+002 45693 92721,92505,92479
 2.0000e+000 92557 -6.5065e+002 -6.8406e+002  5.1011e+002 45693 92401,92531,92427
 2.0000e+000 92675 -6.0135e+002 -4.6378e+002  2.4243e+002 45693 92531,92505,92649
 2.0000e+000 92698 -6.5337e+002 -5.9342e+002  5.3427e+002 45693 92531,92649,92427
 2.0000e+000 92747 -3.8131e+002 -3.5255e+002  1.9314e+002 45693 92453,92649,92721
 2.0000e+000 92770 -2.5754e+002 -5.7774e+001  2.4639e+002 45693 92453,92721,92479
 2.0000e+000 93172 -2.9092e+002 -4.9492e+002  4.2388e+002 45331 92898,93028,92924
 2.0000e+000 93149 -1.8534e+002 -4.5954e+002  2.7118e+002 45331 92898,93054,93028
 2.0000e+000 93126 -3.8677e+002 -3.4095e+002  4.8181e+002 45331 92924,93002,92976
 2.0000e+000 93103 -1.6126e+002 -4.3966e+002  4.1513e+002 45331 92924,93028,93002
 2.0000e+000 93080 -4.2013e+002 -5.0975e+002  4.8888e+002 45331 92924,92976,92950
 2.0000e+000 93518 -5.0635e+002 -7.4655e+002  4.4107e+002 44820 93613,93273,93247
 2.0000e+000 93495 -5.8994e+002 -5.7976e+002  3.1622e+002 44820 93685,93541,93247
 2.0000e+000 93472 -5.8481e+002 -3.4173e+002  2.6147e+002 44820 93541,93195,93377
 2.0000e+000 93449 -6.5817e+002 -4.9064e+002  2.4615e+002 44820 93685,93247,93221
 2.0000e+000 93426 -4.9570e+002 -6.5438e+002  3.4934e+002 44820 93299,93377,93351
 2.0000e+000 93403 -3.7049e+002 -4.6218e+002  4.1729e+002 44820 93299,93351,93325
 2.0000e+000 93567 -4.7265e+002 -7.8637e+002  2.3369e+002 44820 93613,93247,93541
 2.0000e+000 93590 -5.0009e+002 -5.8149e+002  1.5076e+002 44820 93299,93541,93377
 2.0000e+000 93639 -4.6782e+002 -9.2732e+002  2.8273e+002 44820 93299,93273,93613
 2.0000e+000 93662 -5.0942e+002 -9.1233e+002  2.3702e+002 44820 93299,93613,93541
 2.0000e+000 93711 -5.6787e+002 -4.0561e+002  2.1425e+002 44820 93195,93541,93685
 2.0000e+000 93734 -5.0779e+002 -1.1183e+002  1.4526e+002 44820 93195,93685,93221
 2.0000e+000 94163 -5.7483e+002 -6.0717e+002  2.4134e+002 44237 94258,94186,93996
 2.0000e+000 94140 -6.5534e+002 -6.8280e+002  1.5698e+002 44237 94330,94022,93996
 2.0000e+000 94117 -6.7465e+002 -6.4100e+002  1.8453e+002 44237 94186,93918,93866
 2.0000e+000 94094 -4.9967e+002 -4.9466e+002  2.8541e+002 44237 94258,93996,93970
 2.0000e+000 94071 -6.2363e+002 -3.9192e+002  2.6933e+002 44237 94402,93944,93918
 2.0000e+000 94048 -3.2016e+002 -4.9471e+002  1.5016e+002 44237 93866,93918,93892
 2.0000e+000 94212 -6.5389e+002 -6.9248e+002  1.9917e+002 44237 94330,93996,94186
 2.0000e+000 94235 -6.3673e+002 -5.8321e+002  2.1791e+002 44237 93840,94186,93866
 2.0000e+000 94284 -6.1185e+002 -4.9556e+002  1.7891e+002 44237 93918,94186,94258
 2.0000e+000 94307 -5.6824e+002 -4.1548e+002  2.0402e+002 44237 94402,93918,94258
 2.0000e+000 94356 -6.6723e+002 -2.9790e+002  3.8395e+001 44237 93840,94022,94330
 2.0000e+000 94379 -6.2186e+002 -6.1239e+002  2.1197e+002 44237 93840,94330,94186
 2.0000e+000 94428 -7.4704e+002 -5.0948e+002  3.1954e+002 44237 93970,93944,94402
 2.0000e+000 94451 -6.5392e+002 -5.1357e+002  2.4709e+002 44237 93970,94402,94258
 2.0000e+000 94908 -4.5968e+002 -4.4265e+002  1.1108e+002 43890 94660,94790,94712
 2.0000e+000 94885 -2.5036e+002 -2.0578e+002  2.0248e+002 43890 94634,94790,94660
 2.0000e+000 94862 -4.7708e+002 -1.7746e+002  2.0119e+002 43890 94712,94764,94738
 2.0000e+000 94839 -3.9143e+002 -3.4578e+002  2.0263e+002 43890 94712,94790,94764
 2.0000e+000 94816 -5.2625e+002 -2.6662e+002 -6.6730e+001 43890 94660,94712,94686
 2.0000e+000 95414 -3.7386e+002 -1.6782e+002  1.5838e+002 43186 95437,95143,95117
 2.0000e+000 95391 -4.5328e+002 -5.4792e+002  1.9745e+002 43186 95437,95117,95091
 2.0000e+000 95368 -1.0912e+002 -1.9385e+002  2.2550e+002 43186 95143,95221,95195
 2.0000e+000 95345 -7.3848e+002 -5.1265e+002  6.0621e+002 43186 95091,95273,95221
 2.0000e+000 95322 -4.0632e+002 -2.6677e+002  3.1584e+002 43186 95221,95273,95247
 2.0000e+000 95299 -2.1019e+002 -4.3439e+001  3.7642e+001 43186 95143,95195,95169
 2.0000e+000 95463 -3.3580e+002 -4.2478e+002  3.4211e+002 43186 95221,95143,95437
 2.0000e+000 95486 -3.7670e+002 -7.3028e+002  3.9614e+002 43186 95221,95437,95091
 2.0000e+000 96041 -7.3799e+002 -6.8747e+002  1.9544e+002 42782 95695,95851,95799
 2.0000e+000 96018 -7.1815e+002 -8.9642e+002  1.7201e+002 42782 95669,95851,95695
 2.0000e+000 95995 -6.5397e+002 -3.7699e+002  2.0396e+002 42782 95695,95747,95721
 2.0000e+000 95972 -5.2585e+002 -5.9423e+002  1.7907e+002 42782 95695,95799,95747
 2.0000e+000 95949 -4.5711e+002 -3.2999e+002  1.3015e+002 42782 95747,95799,95773
 2.0000e+000 95926 -8.3392e+002 -8.4996e+002  2.3855e+002 42782 95799,95851,95825
 2.0000e+000 95903 -1.0545e+003 -1.1098e+003  2.9524e+002 42782 95669,95877,95851
 2.0000e+000 96370 -6.5879e+002 -8.9747e+002  3.4370e+002 42420 96197,96275,96223
 2.0000e+000 96347 -5.9690e+002 -8.2157e+002  3.7916e+002 42420 96145,96275,96197
 2.0000e+000 96324 -6.5030e+002 -6.2163e+002  4.0965e+002 42420 96145,96197,96171
 2.0000e+000 96301 -5.0093e+002 -6.6850e+002  2.4183e+002 42420 96223,96275,96249
 2.0000e+000 96699 -2.5564e+002 -2.7532e+002  5.3727e+001 41816 96474,96578,96526
 2.0000e+000 96676 -3.8153e+002 -2.1320e+002 -5.1323e+001 41816 96474,96604,96578
 2.0000e+000 96653 -3.6392e+002 -3.4841e+002  2.1532e+001 41816 96526,96578,96552
 2.0000e+000 96630 -3.0287e+002 -4.5240e+002  1.2405e+001 41816 96474,96526,96500
 2.0000e+000 96947 -2.5329e+002 -6.0035e+002  1.6040e+002 41212 96722,96800,96748
 2.0000e+000 96924 -3.8886e+002 -4.5481e+002  2.2762e+002 41212 96722,96826,96800
 2.0000e+000 96901 -4.1353e+002 -4.5880e+002  2.2264e+002 41212 96722,96852,96826
 2.0000e+000 96878 -3.8859e+002 -6.5885e+002  1.5463e+002 41212 96748,96800,96774
 2.0000e+000 97097 -3.2868e+002 -1.0165e+002  3.2518e+002 40793 97120,97022,96996
 2.0000e+000 97074 -6.3035e+002 -7.4183e+002  1.9973e+002 40793 97192,97120,96996
 2.0000e+000 97146 -2.4848e+002 -6.0982e+002  2.8483e+002 40793 97324,97120,97048
 2.0000e+000 97169 -2.1328e+002 -1.0120e+003  2.6848e+002 40793 97048,97120,96970
 2.0000e+000 97218 -9.3485e+001 -5.1367e+002  2.0196e+002 40793 96970,97120,97192
 2.0000e+000 97350 -2.4848e+002 -6.0982e+002  2.8483e+002 40793 97022,97120,97324
 2.0000e+000 97878 -4.1630e+002 -7.6599e+002  1.4963e+002 40446 97901,97607,97555
 2.0000e+000 97855 -3.6907e+002 -5.1841e+002  1.3858e+002 40446 97973,97901,97555
 2.0000e+000 97832 -1.9684e+002 -4.1684e+002  9.6682e+001 40446 97973,97555,97737
 2.0000e+000 97809 -6.5938e+002 -9.4231e+002  2.9715e+002 40446 97633,97685,97659
 2.0000e+000 97786 -4.5357e+002 -6.5859e+002  1.5614e+002 40446 97633,97711,97685
 2.0000e+000 97763 -3.9046e+002 -8.9298e+002  1.9869e+002 40446 97555,97607,97581
 2.0000e+000 97927 -4.1191e+002 -9.3160e+002 -6.2652e+001 40446 97633,97607,97901
 2.0000e+000 97950 -3.5759e+002 -7.5639e+002  1.2808e+002 40446 97633,97901,97711
 2.0000e+000 97999 -1.2504e+002 -7.0552e+002  2.1524e+002 40446 97711,97901,97973
 2.0000e+000 98022  5.3212e+000 -6.0660e+002  1.6997e+002 40446 97711,97973,97737
 2.0000e+000 98449 -2.4743e+002 -1.5377e+002  1.6644e+002 39935 98152,98204,98178
 2.0000e+000 98426 -4.1966e+002 -2.0255e+002  9.3828e+001 39935 98152,98230,98204
 2.0000e+000 98403 -6.2677e+002 -3.2536e+002  2.8128e+002 39935 98152,98256,98230
 2.0000e+000 98380 -4.2870e+002 -3.5944e+002  2.7652e+002 39935 98126,98256,98152
 2.0000e+000 98357 -5.8740e+002 -7.5028e+002  2.9623e+002 39935 98126,98282,98256
 2.0000e+000 98334 -3.0548e+002 -9.5329e+002  3.4257e+002 39935 98126,98308,98282
 2.0000e+000 98746 -8.8354e+002 -7.2056e+002  2.9942e+002 39531 98498,98602,98524
 2.0000e+000 98723 -6.1474e+002 -6.9146e+002  2.5747e+002 39531 98472,98602,98498
 2.0000e+000 98700 -9.9426e+002 -4.1376e+002  1.5321e+002 39531 98524,98602,98576
 2.0000e+000 98677 -4.8626e+002 -6.4741e+002  2.3894e+002 39531 98472,98628,98602
 2.0000e+000 98654 -9.3906e+002 -8.9276e+002 -2.3270e+002 39531 98524,98576,98550
 2.0000e+000 99224 -1.0246e+003 -5.1432e+002  8.0559e+002 39027 99247,98956,98930
 2.0000e+000 99201 -8.7811e+002 -3.5361e+002  3.5504e+002 39027 99247,98930,98878
 2.0000e+000 99178 -7.1385e+002 -5.2241e+002  4.3500e+002 39027 99319,98982,98956
 2.0000e+000 99155 -7.2006e+002 -3.9795e+002  2.2657e+002 39027 98852,99060,98878
 2.0000e+000 99132 -9.9230e+002 -3.8818e+002  3.6796e+002 39027 98878,98930,98904
 2.0000e+000 99109 -6.1206e+002 -1.0871e+003  5.4068e+002 39027 98982,99060,99034
 2.0000e+000 99086 -7.9433e+002 -1.3358e+003  8.2456e+002 39027 98982,99034,99008
 2.0000e+000 99273 -5.9571e+002 -3.1915e+002  5.0244e+002 39027 99319,98956,99247
 2.0000e+000 99296 -6.9499e+002 -2.8639e+002  2.5721e+002 39027 99060,99247,98878
 2.0000e+000 99345 -7.2217e+002 -6.1687e+002  3.2544e+002 39027 99060,98982,99319
 2.0000e+000 99368 -7.3138e+002 -5.6935e+002  3.7068e+002 39027 99060,99319,99247
 2.0000e+000 99923 -7.0121e+002 -6.0892e+002  3.0702e+002 38523 99946,99655,99603
 2.0000e+000 99900 -5.6712e+002 -5.4919e+002  3.1803e+002 38523 99946,99603,99759
 2.0000e+000 99877 -3.6371e+002 -7.7197e+002  3.8697e+002 38523 100018,99707,99681
 2.0000e+000 99854 -6.2976e+002 -3.9109e+002  2.9427e+002 38523 99551,99759,99603
 2.0000e+000 99831 -7.2852e+002 -4.7607e+002  3.8149e+002 38523 99551,99603,99577
 2.0000e+000 99808 -6.3312e+002 -8.5222e+002  1.9754e+002 38523 99707,99759,99733
 2.0000e+000 99785 -6.0144e+002 -5.0373e+002  2.6566e+002 38523 99603,99655,99629
 2.0000e+000 99972 -5.6112e+002 -3.2351e+002  3.5859e+002 38523 99681,99655,99946
 2.0000e+000 99995 -4.2693e+002 -4.4745e+002  4.5315e+002 38523 100018,99681,99946
 2.0000e+000 100044 -4.8496e+002 -9.0600e+002  2.3323e+002 38523 99759,99707,100018
 2.0000e+000 100067 -6.6072e+002 -7.8122e+002  3.0480e+002 38523 99759,100018,99946
 2.0000e+000 100467 -1.7876e+002 -2.1077e+002  1.0493e+002 38125 100219,100349,100323
 2.0000e+000 100444 -1.3654e+001 -4.4442e+001  1.8950e+002 38125 100193,100349,100219
 2.0000e+000 100421 -7.4843e+001 -3.3690e+002  1.0384e+002 38125 100245,100323,100297
 2.0000e+000 100398 -6.6366e+001 -1.6023e+002  1.2223e+002 38125 100219,100323,100245
 2.0000e+000 100375 -2.3594e+002 -3.7791e+002  1.6185e+002 38125 100245,100297,100271
 2.0000e+000 100666 -6.0649e+002 -9.1549e+002  2.6143e+002 37607 100689,100568,100542
 2.0000e+000 100643 -4.6035e+002 -4.8131e+002  2.4098e+002 37607 100689,100542,100490
 2.0000e+000 100620 -3.2247e+002 -3.0999e+002  1.7752e+002 37607 100490,100542,100516
 2.0000e+000 100715 -4.7655e+002 -4.9386e+002  1.9268e+002 37607 100594,100568,100689
 2.0000e+000 100738 -5.5447e+002 -3.7593e+002  2.0624e+002 37607 100594,100689,100490
 2.0000e+000 100937 -4.0722e+002 -2.8952e+002  4.1257e+002 37017 100960,100813,100787
 2.0000e+000 100914 -3.2674e+002 -3.1803e+002  2.0592e+002 37017 100960,100787,100761
 2.0000e+000 100891 -7.1108e+002 -2.5042e+002  4.2018e+002 37017 100813,100865,100839
 2.0000e+000 100986 -5.6467e+002 -5.2318e+002  5.0333e+002 37017 100865,100813,100960
 2.0000e+000 101009 -3.9676e+002 -4.6460e+002  2.7891e+002 37017 100865,100960,100761
 2.0000e+000 101519 -5.9797e+002 -3.1465e+002  1.6831e+002 36613 101222,101274,101248
 2.0000e+000 101496 -2.2452e+002 -1.7914e+002  1.3901e+002 36613 101222,101352,101274
 2.0000e+000 101473 -1.9155e+002 -2.7273e+002  6.5237e+001 36613 101274,101352,101326
 2.0000e+000 101450 -3.3045e+002 -1.3134e+002  1.6230e+002 36613 101222,101378,101352
 2.0000e+000 101427 -1.8955e+002 -4.7589e+002  7.8350e+001 36613 101274,101326,101300
 2.0000e+000 101404 -3.4049e+002 -9.1122e+001  7.6668e+001 36613 101196,101378,101222
 2.0000e+000 101718 -5.4272e+002 -5.1781e+002  5.7815e+002 36308 101594,101646,101620
 2.0000e+000 101695 -5.7439e+002 -2.5038e+002  3.2785e+002 36308 101568,101646,101594
 2.0000e+000 101672 -3.5009e+002 -3.4972e+002  3.5480e+002 36308 101542,101646,101568
 2.0000e+000 102098 -5.7191e+002 -3.9328e+002  2.3290e+002 35918 102121,101954,101876
 2.0000e+000 102075 -4.9619e+002 -5.5086e+002  1.5211e+002 35918 102121,101876,101824
 2.0000e+000 102052 -5.8336e+002 -3.9766e+002  2.0879e+002 35918 101876,101954,101928
 2.0000e+000 102029 -6.7583e+002 -1.2442e+002  2.0913e+002 35918 101876,101928,101902
 2.0000e+000 102006 -5.1191e+002 -6.9551e+002  2.9301e+002 35918 101824,101876,101850
 2.0000e+000 102147 -5.2458e+002 -5.4243e+002  3.0557e+002 35918 101980,101954,102121
 2.0000e+000 102170 -4.7632e+002 -7.3562e+002  2.0346e+002 35918 101980,102121,101824
 2.0000e+000 102489 -5.6617e+002 -1.3640e+003  3.8838e+002 35514 102241,102345,102267
 2.0000e+000 102466 -7.9662e+002 -1.4760e+003  4.2570e+002 35514 102215,102345,102241
 2.0000e+000 102443 -6.4114e+002 -1.5689e+003  4.3517e+002 35514 102215,102371,102345
 2.0000e+000 102420 -4.6124e+002 -1.1154e+003  4.5904e+002 35514 102267,102345,102293
 2.0000e+000 102397 -2.7209e+002 -7.4116e+002  5.3312e+002 35514 102293,102345,102319
 2.0000e+000 102820 -1.0291e+003 -5.2785e+002  1.5391e+002 35224 102843,102699,102647
 2.0000e+000 102797 -7.5306e+002 -7.0444e+002  2.3139e+002 35224 102971,102725,102699
 2.0000e+000 102774 -1.3274e+003 -9.0513e+002  7.0831e+002 35224 102595,102725,102621
 2.0000e+000 102751 -3.6674e+002 -3.1601e+002  2.9711e+002 35224 102647,102699,102673
 2.0000e+000 102869 -8.2572e+002 -4.4103e+002  1.5454e+002 35224 102971,102699,102843
 2.0000e+000 102997 -7.2475e+002 -8.9563e+002  1.7313e+002 35224 102621,102725,102971
 2.0000e+000 103020 -8.9293e+002 -7.4069e+002  5.7119e+001 35224 102621,102971,102843
 2.0000e+000 103349 -7.8344e+002 -5.4680e+002  3.4614e+002 34820 103150,103228,103176
 2.0000e+000 103326 -6.1985e+002 -6.4178e+002  3.2953e+002 34820 103124,103228,103150
 2.0000e+000 103303 -6.2281e+002 -6.3816e+002  6.2042e+002 34820 103176,103228,103202
 2.0000e+000 103280 -4.1299e+002 -5.5094e+002  3.8506e+002 34820 103124,103254,103228
 2.0000e+000 103806 -5.3722e+002 -4.5451e+002  1.5113e+002 34530 103558,103662,103636
 2.0000e+000 103783 -6.1993e+002 -4.9374e+002  1.4015e+002 34530 103558,103688,103662
 2.0000e+000 103760 -7.0686e+002 -8.2029e+002  1.8368e+002 34530 103532,103688,103558
 2.0000e+000 103737 -2.7675e+002 -5.9870e+002  1.4522e+002 34530 103584,103636,103610
 2.0000e+000 103714 -9.6296e+002 -6.0185e+002  2.0866e+002 34530 103558,103636,103584
 2.0000e+000 104263 -3.5516e+002 -4.8432e+002  2.8229e+002 34019 103989,104119,104015
 2.0000e+000 104240 -3.0037e+002 -4.5048e+002  3.4095e+002 34019 103989,104145,104119
 2.0000e+000 104217 -3.6541e+002 -4.9582e+002  1.5965e+002 34019 104015,104067,104041
 2.0000e+000 104194 -4.1684e+002 -5.4586e+002  2.5764e+002 34019 104015,104119,104067
 2.0000e+000 104171 -3.6476e+002 -3.4521e+002  2.2986e+002 34019 104067,104119,104093
 2.0000e+000 104641 -4.6002e+002 -2.5277e+002  2.0447e+002 33351 104419,104497,104445
 2.0000e+000 104618 -2.3815e+002 -1.5561e+002  2.3267e+002 33351 104393,104497,104419
 2.0000e+000 104595 -5.0363e+002 -2.8902e+002  3.1227e+001 33351 104367,104497,104393
 2.0000e+000 104572 -5.5876e+002 -5.0920e+002  3.0539e+002 33351 104445,104497,104471
 2.0000e+000 104549 -5.0587e+002 -5.2031e+002 -1.9213e+001 33351 104367,104523,104497
 2.0000e+000 105019 -5.0097e+002 -1.0964e+003  5.1667e+002 32861 104823,104901,104875
 2.0000e+000 104996 -7.2761e+002 -1.3416e+003  4.1761e+002 32861 104745,104901,104823
 2.0000e+000 104973 -6.9354e+002 -1.1754e+003  4.2964e+002 32861 104823,104875,104849
 2.0000e+000 104950 -7.3920e+002 -1.3650e+003  6.3853e+002 32861 104745,104823,104797
 2.0000e+000 104927 -8.7271e+002 -5.3351e+002  6.8510e+002 32861 104745,104797,104771
 2.0000e+000 105397 -3.5223e+002 -7.8074e+002  3.1049e+002 32457 105149,105253,105175
 2.0000e+000 105374 -5.0510e+002 -6.4237e+002  2.5036e+002 32457 105149,105279,105253
 2.0000e+000 105351 -5.5052e+002 -5.2628e+002  3.3052e+002 32457 105123,105279,105149
 2.0000e+000 105328 -3.6601e+002 -1.3390e+002  2.8228e+002 32457 105175,105227,105201
 2.0000e+000 105305 -6.7831e+002 -9.2059e+002  3.1331e+002 32457 105175,105253,105227
 2.0000e+000 105726 -2.4960e+002 -7.6331e+002  3.0781e+002 32003 105527,105605,105553
 2.0000e+000 105703 -3.8310e+002 -6.8263e+002  2.9858e+002 32003 105501,105605,105527
 2.0000e+000 105680 -1.9959e+002 -6.2364e+002  3.1207e+002 32003 105501,105631,105605
 2.0000e+000 105657 -1.1722e+002 -4.6739e+002  2.7505e+002 32003 105553,105605,105579
 2.0000e+000 106104 -5.2718e+002 -6.7382e+002  1.6736e+002 31492 106127,105908,105856
 2.0000e+000 106081 -3.1648e+002 -5.6131e+002  6.1501e+001 31492 106127,105856,105830
 2.0000e+000 106058 -3.2545e+002 -9.6310e+002  2.0048e+002 31492 105856,105908,105882
 2.0000e+000 106035 -9.7756e+001 -3.7098e+002  5.1044e+001 31492 105830,105986,105960
 2.0000e+000 106012 -1.6396e+002 -8.9703e+002  4.4454e+002 31492 105908,105960,105934
 2.0000e+000 106153 -6.0570e+002 -6.9832e+002  2.8336e+002 31492 105960,105908,106127
 2.0000e+000 106176 -4.9450e+002 -6.8396e+002  1.9234e+002 31492 105960,106127,105830
 2.0000e+000 106375 -5.5058e+002 -6.6293e+002  3.8799e+002 30788 106398,106277,106251
 2.0000e+000 106352 -6.2800e+002 -8.2439e+002  3.6065e+002 30788 106398,106251,106225
 2.0000e+000 106329 -8.7433e+002 -5.9875e+002  5.5552e+002 30788 106600,106199,106303
 2.0000e+000 106424 -6.7728e+002 -9.2027e+002  2.7388e+002 30788 106470,106398,106303
 2.0000e+000 106447 -5.5654e+002 -7.3011e+002  3.2539e+002 30788 106600,106303,106398
 2.0000e+000 106496 -1.9366e+002 -7.1585e+002  2.9798e+002 30788 106277,106398,106470
 2.0000e+000 106626 -1.0760e+003 -8.7284e+002  7.1776e+002 30788 106225,106199,106600
 2.0000e+000 106649 -8.4846e+002 -1.0110e+003  4.8206e+002 30788 106225,106600,106398
 2.0000e+000 106799 -2.3219e+002 -1.0881e+003 -1.0491e-001 30426 106698,106750,106724
 2.0000e+000 106776 -2.4346e+002 -5.6818e+002  2.8304e+001 30426 106672,106750,106698
 2.0000e+000 107356 -6.9713e+002 -5.0717e+002  2.0756e+002 29972 107010,107166,107114
 2.0000e+000 107333 -7.0225e+002 -4.3640e+002  3.0776e+002 29972 106984,107166,107010
 2.0000e+000 107310 -6.4159e+002 -3.0462e+002  1.2500e+002 29972 107010,107114,107088
 2.0000e+000 107287 -5.9378e+002 -1.9631e+002  2.0295e+002 29972 107114,107166,107140
 2.0000e+000 107264 -6.9591e+002 -6.6250e+002  4.3900e+002 29972 106984,107192,107166
 2.0000e+000 107241 -7.8081e+002 -5.5767e+002  1.7961e+002 29972 107010,107088,107036
 2.0000e+000 107218 -4.1751e+002 -3.6892e+002  4.7674e+001 29972 107036,107088,107062
 2.0000e+000 107783 -7.2004e+002 -1.0179e+003  4.5816e+002 29724 107878,107806,107590
 2.0000e+000 107760 -8.2255e+002 -1.0274e+003  3.6368e+002 29724 107806,107512,107486
 2.0000e+000 107737 -7.5424e+002 -9.5695e+002  5.5768e+002 29724 107878,107590,107538
 2.0000e+000 107714 -6.7174e+002 -1.0816e+003  4.7326e+002 29724 107950,107460,107616
 2.0000e+000 107691 -5.8485e+002 -1.0301e+003  4.3705e+002 29724 107460,107642,107616
 2.0000e+000 107668 -4.9725e+002 -8.0200e+002  6.3016e+002 29724 107538,107590,107564
 2.0000e+000 107832 -4.6879e+002 -9.7854e+002  5.0904e+002 29724 107616,107590,107806
 2.0000e+000 107855 -6.8487e+002 -1.0910e+003  4.5328e+002 29724 107950,107616,107806
 2.0000e+000 107904 -6.4630e+002 -8.6460e+002  4.3526e+002 29724 107512,107806,107878
 2.0000e+000 107927 -6.8878e+002 -7.7998e+002  5.5012e+002 29724 107512,107878,107538
 2.0000e+000 107976 -3.6406e+002 -1.0951e+003  5.2254e+002 29724 107486,107460,107950
 2.0000e+000 107999 -6.4886e+002 -1.1691e+003  4.3306e+002 29724 107486,107950,107806
 2.0000e+000 108296 -7.4419e+002 -6.2397e+002  4.1015e+002 29206 108319,108100,108048
 2.0000e+000 108273 -4.5248e+002 -5.5510e+002  4.6270e+002 29206 108319,108048,108022
 2.0000e+000 108250 -2.4002e+002 -6.7413e+002  5.5371e+002 29206 108391,108152,108126
 2.0000e+000 108227 -8.5741e+002 -4.5680e+002  5.0032e+002 29206 108048,108100,108074
 2.0000e+000 108204 -3.5296e+002 -9.3178e+002  4.6263e+002 29206 108022,108178,108152
 2.0000e+000 108345 -5.4992e+002 -4.1354e+002  5.8321e+002 29206 108126,108100,108319
 2.0000e+000 108368 -3.1683e+002 -5.4633e+002  6.3212e+002 29206 108391,108126,108319
 2.0000e+000 108417 -4.5342e+002 -8.3561e+002  4.6569e+002 29206 108022,108152,108391
 2.0000e+000 108440 -5.1108e+002 -7.3824e+002  5.4746e+002 29206 108022,108391,108319
 2.0000e+000 108688 -7.7546e+002 -9.6319e+002  4.4899e+002 28595 108711,108541,108515
 2.0000e+000 108665 -1.1055e+003 -1.0480e+003  7.1914e+002 28595 108783,108711,108515
 2.0000e+000 108642 -1.4076e+003 -8.8474e+002  7.3861e+002 28595 108783,108515,108489
 2.0000e+000 108619 -1.4754e+003 -1.0757e+003  3.9744e+002 28595 108463,108593,108489
 2.0000e+000 108737 -6.8328e+002 -6.9747e+002  3.1810e+002 28595 108567,108541,108711
 2.0000e+000 108760 -5.3643e+002 -8.1856e+002  6.2398e+002 28595 108567,108711,108593
 2.0000e+000 108809 -6.8924e+002 -1.0180e+003  5.2765e+002 28595 108593,108711,108783
 2.0000e+000 108832 -1.0991e+003 -9.0155e+002  4.8202e+002 28595 108593,108783,108489
 2.0000e+000 109033 -2.1847e+002 -4.2149e+002  1.5927e+002 28091 108909,108961,108935
 2.0000e+000 109010 -2.8017e+002 -3.7228e+002  1.5406e+002 28091 108857,108961,108909
 2.0000e+000 108987 -5.5265e+002 -6.4898e+002  4.9595e+002 28091 108857,108909,108883
 2.0000e+000 109136 -6.0117e+002 -1.4267e+003  2.5027e+002 27587 109058,109110,109084
 2.0000e+000 109695 -7.0920e+002 -6.6000e+002  2.1484e+002 26969 109718,109375,109323
 2.0000e+000 109672 -6.6917e+002 -6.0639e+002  1.5627e+002 26969 109718,109323,109505
 2.0000e+000 109649 -7.5758e+002 -2.0534e+002  7.8688e+001 26969 109790,109453,109427
 2.0000e+000 109626 -1.8729e+002 -7.1729e+002  2.7713e+002 26969 109323,109375,109349
 2.0000e+000 109603 -6.7482e+002 -6.8877e+002  2.0088e+002 26969 109323,109531,109505
 2.0000e+000 109580 -2.4338e+002 -5.5064e+002  2.9440e+001 26969 109375,109427,109401
 2.0000e+000 109557 -8.3321e+002 -4.3853e+002  2.3034e+002 26969 109453,109505,109479
 2.0000e+000 109744 -6.7611e+002 -6.7525e+002  8.9506e+001 26969 109427,109375,109718
 2.0000e+000 109767 -5.8752e+002 -3.7944e+002  4.4978e+001 26969 109790,109427,109718
 2.0000e+000 109816 -8.1867e+002 -4.0184e+002  1.5417e+002 26969 109505,109453,109790
 2.0000e+000 109839 -7.0479e+002 -6.2431e+002  1.5023e+002 26969 109505,109790,109718
 2.0000e+000 110266 -4.4590e+002 -6.6552e+002  2.7397e+002 26515 110361,110289,110099
 2.0000e+000 110243 -3.1727e+002 -5.0995e+002  2.7553e+002 26515 110289,109995,109943
 2.0000e+000 110220 -5.8814e+002 -7.1449e+002  2.4568e+002 26515 110361,110099,110021
 2.0000e+000 110197 -5.0705e+002 -1.5095e+003  1.6073e+002 26515 110047,110099,110073
 2.0000e+000 110174 -5.8106e+002 -1.3310e+003 -1.1644e+002 26515 110021,110099,110047
 2.0000e+000 110151  1.9691e+001 -1.7915e+001  4.2287e+002 26515 109943,109995,109969
 2.0000e+000 110315 -6.7091e+002 -4.6438e+002  2.3495e+002 26515 110125,110099,110289
 2.0000e+000 110338 -4.8307e+002 -2.0836e+002  4.5135e+002 26515 110125,110289,109943
 2.0000e+000 110387 -5.8683e+002 -6.7418e+002  1.3189e+002 26515 109995,110289,110361
 2.0000e+000 110410 -6.9645e+002 -6.8146e+002  1.1706e+002 26515 109995,110361,110021
 2.0000e+000 110609 -2.0097e+002 -8.5657e+002  2.8028e+002 25789 110906,110762,110632
 2.0000e+000 110586 -2.1314e+002 -1.0363e+003  3.1068e+002 25789 110762,110433,110537
 2.0000e+000 110563 -5.0768e+002 -9.7020e+002  4.9416e+002 25789 110834,110459,110433
 2.0000e+000 110658 -2.9950e+002 -8.3810e+002  3.6420e+002 25789 110906,110632,110834
 2.0000e+000 110788 -1.5083e+002 -6.0725e+002  1.9839e+002 25789 110511,110632,110762
 2.0000e+000 110811 -1.8353e+002 -8.5991e+002  3.2554e+002 25789 110511,110762,110537
 2.0000e+000 110860 -3.0502e+002 -8.4900e+002  4.3102e+002 25789 110485,110459,110834
 2.0000e+000 110883 -3.8718e+002 -8.4779e+002  3.7430e+002 25789 110485,110834,110632
 2.0000e+000 110932 -4.2413e+002 -9.2899e+002  3.0267e+002 25789 110433,110762,110906
 2.0000e+000 110955 -5.0261e+002 -8.8306e+002  3.7085e+002 25789 110433,110906,110834
 2.0000e+000 111350 -5.4280e+002 -7.7228e+002  4.4182e+002 25228 111445,111373,111186
 2.0000e+000 111327 -6.2505e+002 -7.6033e+002  1.6525e+002 25228 110978,111186,111004
 2.0000e+000 111304 -6.0237e+002 -9.5338e+002  3.6711e+002 25228 111373,111108,111082
 2.0000e+000 111281 -5.1134e+002 -1.0409e+003  3.8250e+002 25228 111134,111186,111160
 2.0000e+000 111258 -5.2042e+002 -7.5492e+002  4.6478e+002 25228 111445,111186,111134
 2.0000e+000 111235 -5.1415e+002 -6.3962e+002  2.4557e+002 25228 111517,111030,111004
 2.0000e+000 111212 -7.7989e+002 -7.8198e+002  4.0308e+002 25228 111030,111082,111056
 2.0000e+000 111399 -5.5212e+002 -8.4784e+002  4.2324e+002 25228 111004,111186,111373
 2.0000e+000 111422 -4.3253e+002 -7.2702e+002  3.3512e+002 25228 111517,111004,111373
 2.0000e+000 111471 -5.9663e+002 -7.7240e+002  4.0475e+002 25228 111108,111373,111445
 2.0000e+000 111494 -5.6967e+002 -7.4765e+002  4.2910e+002 25228 111108,111445,111134
 2.0000e+000 111543 -6.5902e+002 -7.0452e+002  3.2463e+002 25228 111082,111030,111517
 2.0000e+000 111566 -5.8117e+002 -8.1976e+002  4.1598e+002 25228 111082,111517,111373
 2.0000e+000 112074 -4.3593e+002 -6.0067e+002  3.4477e+002 24338 112097,111907,111881
 2.0000e+000 112051 -6.7415e+002 -6.0711e+002  2.3099e+002 24338 112097,111881,111829
 2.0000e+000 112028 -3.3440e+002 -7.0516e+002  1.3196e+002 24338 111829,111881,111855
 2.0000e+000 112005 -9.1269e+002 -9.1798e+002  2.2151e+002 24338 111777,111933,111829
 2.0000e+000 111982 -1.2632e+003 -2.8835e+002  2.5781e+002 24338 111751,111933,111777
 2.0000e+000 111959 -1.0571e+003 -8.7759e+002  1.9641e+002 24338 111777,111829,111803
 2.0000e+000 112123 -6.4989e+002 -8.5613e+002  2.1279e+002 24338 111933,111907,112097
 2.0000e+000 112146 -7.8313e+002 -6.2951e+002  1.7116e+002 24338 111933,112097,111829
 2.0000e+000 112443 -8.1398e+002 -6.2368e+002  3.9390e+002 23998 112466,112299,112247
 2.0000e+000 112420 -8.5596e+002 -1.0238e+003  3.0223e+002 23998 112466,112247,112221
 2.0000e+000 112397 -5.9738e+002 -1.1140e+003  4.9241e+002 23998 112169,112325,112221
 2.0000e+000 112374 -6.9842e+002 -9.4175e+002  3.9910e+002 23998 112169,112221,112195
 2.0000e+000 112351 -2.4503e+002 -5.9273e+002  4.2348e+002 23998 112247,112299,112273
 2.0000e+000 112492 -6.8870e+002 -6.9837e+002  6.2197e+002 23998 112325,112299,112466
 2.0000e+000 112515 -7.8528e+002 -9.2442e+002  5.0077e+002 23998 112325,112466,112221
 2.0000e+000 113200 -8.0867e+002 -1.0257e+003  6.5698e+002 23480 112779,112961,112805
 2.0000e+000 113177 -8.9045e+002 -6.6892e+002  2.8630e+002 23480 112779,112987,112961
 2.0000e+000 113154 -2.4949e+002 -5.6926e+002  4.1744e+002 23480 112805,112961,112883
 2.0000e+000 113131 -5.4701e+002 -9.5413e+002  4.5812e+002 23480 112883,112935,112909
 2.0000e+000 113108 -6.9089e+002 -7.5973e+002  4.7553e+002 23480 112883,112961,112935
 2.0000e+000 113085 -3.2456e+002 -4.6376e+002  2.1990e+002 23480 112831,112883,112857
 2.0000e+000 113062 -4.5734e+002 -5.5809e+002  2.8147e+002 23480 112805,112883,112831
 2.0000e+000 113039 -8.9930e+002 -5.4022e+002  2.8409e+002 23480 112779,113013,112987
 2.0000e+000 113676 -8.0527e+002 -4.3899e+002  5.9227e+002 23018 113699,113434,113356
 2.0000e+000 113653 -7.1171e+002 -4.1746e+002  3.1945e+002 23018 113771,113699,113356
 2.0000e+000 113630 -6.4334e+002 -6.3330e+002  2.1475e+002 23018 113771,113356,113512
 2.0000e+000 113607 -4.2113e+002 -9.2484e+002  3.7619e+002 23018 113330,113512,113356
 2.0000e+000 113584 -1.4942e+003 -9.2377e+002  8.6227e+002 23018 113356,113434,113382
 2.0000e+000 113561 -1.5457e+002 -8.6758e+002  3.6562e+002 23018 113304,113512,113330
 2.0000e+000 113538 -1.6926e+003 -3.8856e+002  3.8523e+002 23018 113382,113434,113408
 2.0000e+000 113725 -9.0602e+002 -6.9414e+002  6.1734e+002 23018 113460,113434,113699
 2.0000e+000 113748 -9.2444e+002 -7.1664e+002  3.9523e+002 23018 113460,113699,113486
 2.0000e+000 113797 -9.0365e+002 -7.4486e+002  3.9853e+002 23018 113486,113699,113771
 2.0000e+000 113820 -7.2003e+002 -7.8145e+002  2.4673e+002 23018 113486,113771,113512
 2.0000e+000 114424 -7.2353e+002 -6.6388e+002  1.1936e+002 22514 114447,114133,114029
 2.0000e+000 114401 -7.4567e+002 -8.4411e+002  1.1711e+002 22514 114447,114029,114237
 2.0000e+000 114378 -8.0387e+002 -4.6236e+002  5.4179e+001 22514 114133,114211,114185
 2.0000e+000 114355 -1.2590e+003 -4.9985e+002  2.6750e+000 22514 114133,114185,114159
 2.0000e+000 114332 -4.9700e+002 -8.5930e+002  3.0686e+002 22514 114003,114237,114029
 2.0000e+000 114309 -8.3816e+002 -6.6783e+002  4.1326e+001 22514 114029,114133,114055
 2.0000e+000 114286 -9.9410e+002 -6.6249e+002  1.2272e+002 22514 114055,114133,114107
 2.0000e+000 114263 -7.5308e+002 -5.8900e+001  1.9286e+002 22514 114055,114107,114081
 2.0000e+000 114473 -7.7386e+002 -5.7196e+002  1.9860e+002 22514 114211,114133,114447
 2.0000e+000 114496 -7.6323e+002 -7.0340e+002  1.9254e+002 22514 114211,114447,114237
 2.0000e+000 114597 -3.9019e+002 -1.0101e+003  5.1460e+002 22316 114620,114571,114545
 2.0000e+000 114646 -3.9019e+002 -1.0101e+003  5.1460e+002 22316 114519,114571,114620
 2.0000e+000 115127 -9.8738e+002 -6.4457e+002  3.7907e+002 21612 115150,114905,114879
 2.0000e+000 115104 -1.1906e+003 -4.0923e+002  4.1700e+002 21612 115150,114879,114853
 2.0000e+000 115081 -6.9183e+002 -2.2001e+002  5.2743e+002 21612 115222,114931,114905
 2.0000e+000 115058 -8.2710e+002 -5.4608e+002  4.1942e+002 21612 115222,114905,115009
 2.0000e+000 115035 -3.8543e+002 -6.4186e+002  2.0536e+002 21612 114957,115009,114983
 2.0000e+000 115176 -8.7835e+002 -5.0659e+002  3.1592e+002 21612 115009,114905,115150
 2.0000e+000 115199 -1.0509e+003 -2.2841e+002  3.3944e+002 21612 115009,115150,114853
 2.0000e+000 115248 -6.5170e+002 -5.3250e+002  3.9181e+002 21612 114957,114931,115222
 2.0000e+000 115271 -7.8366e+002 -8.5142e+002  2.8237e+002 21612 114957,115222,115009
 2.0000e+000 115519 -2.3477e+002  1.0464e+002  2.7015e+002 21208 115542,115372,115320
 2.0000e+000 115496 -2.3092e+001  2.6919e+002  4.0510e+001 21208 115542,115320,115294
 2.0000e+000 115473 -1.5967e+002 -4.2096e+002  3.6322e+002 21208 115320,115372,115346
 2.0000e+000 115450 -5.4386e+002 -1.8359e+002  1.5555e+002 21208 115294,115424,115398
 2.0000e+000 115568 -3.2619e+002  4.9230e+000  3.5684e+002 21208 115398,115372,115542
 2.0000e+000 115591 -2.5787e+002 -1.2930e+002  1.6271e+002 21208 115398,115542,115294
 2.0000e+000 115839 -6.6616e+002 -5.0772e+002  4.4569e+002 20668 115862,115640,115614
 2.0000e+000 115816 -7.2089e+002 -5.7364e+002  4.7297e+002 20668 115862,115614,115744
 2.0000e+000 115793 -8.5731e+002 -3.8850e+002  4.7579e+002 20668 115640,115718,115692
 2.0000e+000 115770 -9.9632e+002 -3.6531e+002  4.4471e+002 20668 115640,115692,115666
 2.0000e+000 115888 -7.4219e+002 -3.8614e+002  5.0835e+002 20668 115718,115640,115862
 2.0000e+000 115911 -8.2198e+002 -5.1515e+002  5.4847e+002 20668 115718,115862,115744
 2.0000e+000 116134 -4.8637e+002 -8.2304e+002  4.6383e+002 20264 115958,116036,115984
 2.0000e+000 116111 -2.8121e+002 -7.2897e+002  4.4192e+002 20264 115958,116062,116036
 2.0000e+000 116088 -2.8747e+002 -7.6555e+002  5.0358e+002 20264 115984,116036,116010
 2.0000e+000 116384 -6.9750e+002 -5.0205e+002  5.2739e+002 19924 116407,116211,116159
 2.0000e+000 116361 -6.5963e+002 -8.6159e+002  4.1773e+002 19924 116407,116159,116263
 2.0000e+000 116338 -6.6579e+002 -3.4979e+002  5.1781e+002 19924 116159,116211,116185
 2.0000e+000 116315 -4.2203e+002 -8.7177e+002  5.0566e+002 19924 116159,116289,116263
 2.0000e+000 116433 -6.5972e+002 -3.0475e+002  6.2125e+002 19924 116237,116211,116407
 2.0000e+000 116456 -4.7889e+002 -5.4191e+002  5.5653e+002 19924 116237,116407,116263
 2.0000e+000 116608 -5.0149e+002 -1.2795e+002  3.6926e+002 19520 116703,116631,116533
 2.0000e+000 116585 -4.9096e+002 -1.9769e+002  2.9849e+002 19520 116631,116507,116481
 2.0000e+000 116657 -3.5762e+002 -2.1494e+002  3.8849e+002 19520 116559,116533,116631
 2.0000e+000 116680 -4.5124e+002 -3.9876e+002  2.9926e+002 19520 116559,116631,116481
 2.0000e+000 116729 -5.0149e+002 -1.2795e+002  3.6926e+002 19520 116507,116631,116703
 2.0000e+000 116952 -6.2441e+002 -6.1724e+002  7.9531e+002 19208 116975,116802,116776
 2.0000e+000 116929 -8.1598e+002 -1.0916e+003  4.6286e+002 19208 116975,116776,116880
 2.0000e+000 116906 -9.7193e+002 -4.0393e+002  5.5044e+002 19208 116802,116854,116828
 2.0000e+000 117001 -4.8935e+002 -5.2874e+002  8.3594e+002 19208 116854,116802,116975
 2.0000e+000 117024 -2.0789e+002 -6.4846e+002  6.6276e+002 19208 116854,116975,116880
 2.0000e+000 117428 -6.6182e+002 -2.3403e+002  4.5551e+002 18796 117154,117206,117180
 2.0000e+000 117405 -4.5169e+002 -5.3648e+002  3.9334e+002 18796 117154,117284,117206
 2.0000e+000 117382 -2.7323e+002 -4.6022e+002  3.9095e+002 18796 117154,117310,117284
 2.0000e+000 117359 -2.3750e+002 -3.9119e+002  5.1636e+002 18796 117206,117284,117258
 2.0000e+000 117336  2.2748e+000 -6.9192e+001  7.2698e+002 18796 117206,117258,117232
 2.0000e+000 117529 -3.5371e+002 -2.1287e+002  2.2611e+002 18228 117810,117552,117477
 2.0000e+000 117578 -7.0955e+002 -5.2186e+002  3.1918e+002 18228 117682,117552,117503
 2.0000e+000 117708 -2.5822e+002 -2.8077e+002  2.0982e+002 18228 117477,117552,117682
 2.0000e+000 117836 -5.0123e+002 -5.1906e+002  2.8277e+002 18228 117451,117552,117810
 2.0000e+000 118364 -8.2799e+002 -2.4197e+002  3.3314e+002 17722 118067,118223,118093
 2.0000e+000 118341 -7.5524e+002 -1.8301e+002  3.7231e+002 17722 118041,118223,118067
 2.0000e+000 118318 -4.5547e+002 -2.3084e+002  2.2077e+002 17722 118093,118223,118197
 2.0000e+000 118295 -1.0575e+003 -1.2297e+003  7.7295e+002 17722 118119,118197,118171
 2.0000e+000 118272 -1.9919e+002 -1.7239e+000  3.6203e+002 17722 118093,118197,118119
 2.0000e+000 118249 -8.1161e+002 -1.0286e+003  9.2272e+002 17722 118119,118171,118145
 2.0000e+000 118514 -1.3376e+003 -5.1183e+002  4.6096e+002 17268 118387,118439,118413
 2.0000e+000 118491 -5.6021e+001 -4.8942e+002  3.9328e+002 17268 118387,118465,118439
 2.0000e+000 118916 -1.0040e+003 -3.0859e+002  3.2505e+002 16828 118668,118772,118694
 2.0000e+000 118893 -1.2839e+003 -4.5724e+002  2.6987e+002 16828 118668,118798,118772
 2.0000e+000 118870 -1.4400e+003 -8.4632e+002  2.3895e+002 16828 118642,118798,118668
 2.0000e+000 118847 -4.1524e+002 -1.5952e+002  5.1432e+002 16828 118694,118746,118720
 2.0000e+000 118824 -1.0657e+003 -5.5932e+002  2.7677e+002 16828 118694,118772,118746
 2.0000e+000 119316 -4.0307e+002 -3.3235e+002  4.8926e+002 16422 119042,119172,119094
 2.0000e+000 119293 -5.3237e+002 -3.7490e+002  4.9341e+002 16422 119042,119198,119172
 2.0000e+000 119270 -6.8458e+002 -1.5961e+002  2.8514e+002 16422 119042,119094,119068
 2.0000e+000 119247 -1.3678e+002 -1.1673e+002  6.9878e+002 16422 119094,119146,119120
 2.0000e+000 119224 -3.2699e+002 -2.0157e+002  5.2111e+002 16422 119094,119172,119146
 2.0000e+000 119466 -1.4328e+003 -2.0746e+002 -1.1306e+002 16010 119339,119391,119365
 2.0000e+000 119443 -5.7867e+002 -4.1241e+002  3.2016e+002 16010 119339,119417,119391
 2.0000e+000 119616 -1.9119e+002 -3.8404e+000  3.7316e+002 15547 119515,119567,119541
 2.0000e+000 119593  2.8250e+002  3.3664e+002  9.4759e+002 15547 119489,119567,119515
 2.0000e+000 119719 -8.2395e+002 -2.9619e+002  4.4916e+002 421 119641,119693,119667
 2.1000e+000 69562 -8.4534e+002 -4.2281e+002  7.0798e+002 69254 69484,69536,69510
 2.1000e+000 70009 -5.2414e+002 -4.5656e+002  3.9703e+002 68942 69686,69842,69816
 2.1000e+000 69986 -4.8894e+002 -1.7524e+002  2.4442e+002 68942 69686,69868,69842
 2.1000e+000 69963 -3.0806e+002 -1.2593e+002  5.1037e+002 68942 69686,69816,69712
 2.1000e+000 69940 -1.7352e+002 -1.4203e+002  7.0750e+002 68942 69712,69790,69738
 2.1000e+000 69917 -7.5090e+002 -1.1637e+003  4.3984e+002 68942 69712,69816,69790
 2.1000e+000 69894 -7.3804e+001 -6.1951e+002  2.5695e+002 68942 69738,69790,69764
 2.1000e+000 70110 -4.1202e+002 -7.6973e+001  3.0270e+002 68766 70032,70084,70058
 2.1000e+000 70746 -4.3529e+002 -2.4713e+002  2.9817e+002 68448 70400,70556,70426
 2.1000e+000 70723 -9.5519e+002 -3.5627e+002  4.2743e+002 68448 70374,70556,70400
 2.1000e+000 70700 -6.2308e+002 -2.4065e+002  2.0682e+002 68448 70426,70556,70478
 2.1000e+000 70677 -8.1793e+002 -2.5651e+002  2.1142e+002 68448 70478,70556,70504
 2.1000e+000 70654 -5.3849e+002 -2.8992e+002  1.2530e+002 68448 70426,70478,70452
 2.1000e+000 70631 -9.4698e+002 -3.6322e+002  5.3376e+002 68448 70374,70582,70556
 2.1000e+000 70608 -8.2645e+002 -4.5315e+002  2.6749e+002 68448 70504,70556,70530
 2.1000e+000 70896 -9.6219e+002 -1.8482e+002  5.9847e+001 68250 70795,70847,70821
 2.1000e+000 70873 -1.7592e+003 -5.2638e+002  1.3222e+002 68250 70769,70847,70795
 2.1000e+000 70997 -2.3845e+003 -1.1783e+003  1.0544e+003 68052 70919,70971,70945
 2.1000e+000 71367 -7.3982e+002 -1.1801e+003  4.2916e+002 67740 71096,71226,71200
 2.1000e+000 71344 -4.6308e+002 -6.7184e+002  5.4819e+002 67740 71044,71226,71096
 2.1000e+000 71321  8.3022e+001 -8.3022e+001  8.7144e+002 67740 71044,71096,71070
 2.1000e+000 71298 -5.1838e+002 -1.2722e+003  8.5385e+002 67740 71096,71200,71174
 2.1000e+000 71275 -3.3657e+002 -8.1339e+002  2.7595e+002 67740 71096,71148,71122
 2.1000e+000 71252 -4.3482e+002 -9.0531e+002  5.4871e+002 67740 71096,71174,71148
 2.1000e+000 71519  2.4395e+002  1.9963e+002  2.8223e+002 67542 71418,71470,71444
 2.1000e+000 71496  4.9132e+002  8.7402e+002  8.8197e+002 67542 71392,71470,71418
 2.1000e+000 71923 -1.1997e+002  7.7977e+001  2.2719e+002 67230 71649,71779,71675
 2.1000e+000 71900 -6.2826e+001 -1.7503e+002  1.0415e+002 67230 71649,71805,71779
 2.1000e+000 71877 -1.0714e+002 -1.5230e+001  4.4380e+002 67230 71675,71727,71701
 2.1000e+000 71854 -1.6811e+002 -6.6620e+002  3.9977e+002 67230 71675,71753,71727
 2.1000e+000 71831 -1.9488e+002 -3.7406e+002  2.7557e+002 67230 71675,71779,71753
 2.1000e+000 72433 -5.7004e+002 -2.4855e+002  3.9724e+002 67032 72038,72246,72220
 2.1000e+000 72410 -2.7952e+002  2.8168e+001  1.9793e+002 67032 72012,72246,72038
 2.1000e+000 72387 -5.2141e+002 -1.8783e+002  4.2217e+002 67032 72064,72194,72168
 2.1000e+000 72364 -5.6569e+002 -2.0547e+002  4.4744e+002 67032 72038,72194,72064
 2.1000e+000 72341 -7.8089e+002 -7.4325e+002  3.8318e+002 67032 72038,72220,72194
 2.1000e+000 72318 -1.3063e+002  1.1954e+002  2.1905e+002 67032 72090,72168,72142
 2.1000e+000 72295 -3.1192e+001  2.2797e+001  4.2789e+002 67032 72064,72168,72090
 2.1000e+000 72272 -1.6420e+002  7.6287e+001  1.9469e+002 67032 72090,72142,72116
 2.1000e+000 72933 -3.8815e+002 -4.6142e+002  4.4554e+002 66628 72956,72665,72613
 2.1000e+000 72910 -3.4597e+002 -4.5314e+002  4.5520e+002 66628 73100,72956,72613
 2.1000e+000 72887 -4.8127e+002 -6.8528e+002  3.4728e+002 66628 73028,72691,72665
 2.1000e+000 72864 -3.0953e+002 -3.9587e+002  4.8432e+002 66628 73100,72613,72587
 2.1000e+000 72841 -3.7081e+002 -4.4251e+002  4.1435e+002 66628 72613,72665,72639
 2.1000e+000 72818  5.8018e+001 -1.3068e+000  5.8185e+002 66628 72587,72769,72743
 2.1000e+000 72795 -4.5186e+002 -9.4507e+002  1.1021e+002 66628 72561,72769,72587
 2.1000e+000 72982 -4.6627e+002 -4.9183e+002  4.7485e+002 66628 73028,72665,72956
 2.1000e+000 73005 -4.0076e+002 -1.4041e+002  4.5381e+002 66628 72717,72956,72743
 2.1000e+000 73054 -7.2279e+002 -5.5329e+002  2.0839e+002 66628 72717,72691,73028
 2.1000e+000 73077 -7.0779e+002 -4.8957e+002  3.2129e+002 66628 72717,73028,72956
 2.1000e+000 73126 -4.0269e+002 -4.5319e+002  3.8559e+002 66628 72743,72956,73100
 2.1000e+000 73149 -3.5903e+002 -4.0346e+002  4.1463e+002 66628 72743,73100,72587
 2.1000e+000 73606 -5.2212e+002 -4.3029e+002  4.0570e+002 66281 73332,73384,73358
 2.1000e+000 73583 -6.6209e+002 -4.8233e+002  3.1759e+002 66281 73332,73462,73384
 2.1000e+000 73560 -7.8805e+002 -5.0484e+002  3.2389e+002 66281 73384,73462,73436
 2.1000e+000 73537 -1.2473e+003 -6.9690e+002  5.6039e+002 66281 73332,73488,73462
 2.1000e+000 73514 -9.0965e+002 -5.1971e+002  2.4837e+002 66281 73384,73436,73410
 2.1000e+000 73984 -9.5669e+001 -1.1959e+002  8.3570e+001 65969 73736,73814,73788
 2.1000e+000 73961 -1.7827e+001 -5.2949e+001  4.7745e+001 65969 73736,73866,73814
 2.1000e+000 73938 -1.4619e+002 -1.6321e+002  1.8236e+002 65969 73814,73866,73840
 2.1000e+000 73915 -3.3977e+001 -5.9215e+001  4.4506e+001 65969 73710,73866,73736
 2.1000e+000 73892 -9.4924e+001 -2.4971e+002 -1.9208e+001 65969 73736,73788,73762
 2.1000e+000 74232 -3.4900e+002 -4.4660e+002  4.1170e+002 65572 74255,74085,74033
 2.1000e+000 74209 -3.2050e+002 -4.8157e+002  3.5343e+002 65572 74327,74255,74033
 2.1000e+000 74186 -3.5688e+002 -3.7715e+002  3.5748e+002 65572 74327,74033,74007
 2.1000e+000 74163 -4.0201e+002 -5.3071e+002  4.4477e+002 65572 74033,74085,74059
 2.1000e+000 74281 -4.2944e+002 -5.5701e+002  5.1453e+002 65572 74111,74085,74255
 2.1000e+000 74304 -2.7570e+002 -4.9120e+002  3.9793e+002 65572 74111,74255,74137
 2.1000e+000 74353 -2.8522e+002 -3.6417e+002  3.1876e+002 65572 74137,74255,74327
 2.1000e+000 74376 -3.4454e+002 -2.8669e+002  3.2885e+002 65572 74137,74327,74007
 2.1000e+000 74884 -3.7647e+002 -4.4122e+002  3.4784e+002 65174 74587,74717,74613
 2.1000e+000 74861 -4.6266e+002 -5.1986e+002  2.5378e+002 65174 74561,74717,74587
 2.1000e+000 74838 -4.0761e+002 -5.7540e+002  3.1804e+002 65174 74613,74691,74639
 2.1000e+000 74815 -3.8399e+002 -5.6623e+002  3.1440e+002 65174 74613,74717,74691
 2.1000e+000 74792 -2.0043e+002 -9.1330e+002  2.3417e+002 65174 74639,74691,74665
 2.1000e+000 74769 -7.7152e+002 -1.6293e+002  3.0791e+002 65174 74561,74743,74717
 2.1000e+000 75412 -1.3711e+001 -3.0690e+002  8.6509e+002 64770 75167,75245,75219
 2.1000e+000 75389 -3.7868e+002 -8.1260e+002  5.8956e+002 64770 75115,75245,75167
 2.1000e+000 75366 -3.2975e+002 -1.0665e+003  7.6200e+002 64770 75089,75245,75115
 2.1000e+000 75343 -5.2932e+002 -2.3766e+002  6.3186e+002 64770 75167,75219,75193
 2.1000e+000 75320 -3.0115e+002 -6.6392e+002  6.3198e+002 64770 75115,75167,75141
 2.1000e+000 75297 -5.3380e+002 -1.5028e+003  8.1596e+002 64770 75089,75271,75245
 2.1000e+000 75861 -9.6080e+002 -4.6129e+002  7.6432e+002 64316 75538,75694,75564
 2.1000e+000 75838 -4.8047e+002 -2.1186e+002  5.4743e+002 64316 75538,75720,75694
 2.1000e+000 75815 -8.2999e+002 -6.0741e+002  5.8791e+002 64316 75590,75694,75642
 2.1000e+000 75792 -7.9269e+002 -7.8251e+002  6.4896e+002 64316 75564,75694,75590
 2.1000e+000 75769 -2.1226e+002 -9.4944e+002  2.9783e+002 64316 75590,75642,75616
 2.1000e+000 75746 -7.3221e+002 -3.1622e+002  5.4854e+002 64316 75642,75694,75668
 2.1000e+000 76239 -1.2101e+003 -1.0166e+003  5.1909e+002 64018 76262,76095,76043
 2.1000e+000 76216 -9.4585e+002 -9.7964e+002  4.2024e+002 64018 76262,76043,76017
 2.1000e+000 76193 -4.9610e+002 -5.6551e+002  4.2327e+002 64018 75991,76121,76017
 2.1000e+000 76170 -1.1295e+003 -8.3214e+002  7.8291e+002 64018 76043,76095,76069
 2.1000e+000 76147 -4.7755e+001 -5.5132e+002  8.4582e+001 64018 75965,76121,75991
 2.1000e+000 76288 -9.2209e+002 -1.1715e+003  6.4148e+002 64018 76121,76095,76262
 2.1000e+000 76311 -7.1033e+002 -1.1536e+003  5.0601e+002 64018 76121,76262,76017
 2.1000e+000 76866 -3.8652e+002 -5.1125e+002  4.7844e+002 63728 76520,76676,76546
 2.1000e+000 76843 -4.1738e+002 -5.2495e+002  3.9901e+002 63728 76520,76702,76676
 2.1000e+000 76820 -2.8651e+002 -4.5435e+002  4.0616e+002 63728 76546,76650,76572
 2.1000e+000 76797 -5.6259e+002 -5.5640e+002  4.1602e+002 63728 76546,76676,76650
 2.1000e+000 76774 -5.2029e+002 -8.3969e+001  2.3665e+002 63728 76572,76650,76624
 2.1000e+000 76751 -3.3465e+002 -5.0765e+002  4.1271e+002 63728 76494,76702,76520
 2.1000e+000 76728 -9.4751e+001 -2.5180e+002  1.5446e+002 63728 76572,76624,76598
 2.1000e+000 77065 -1.3260e+002 -4.3792e+002  3.6507e+002 63288 77088,76941,76915
 2.1000e+000 77042 -4.8950e+002 -5.5452e+002  3.6227e+002 63288 77088,76915,76993
 2.1000e+000 77019 -1.1040e+002 -5.9935e+002  2.6749e+002 63288 76889,76993,76915
 2.1000e+000 77114 -3.4339e+002 -4.5843e+002  2.8920e+002 63288 76967,76941,77088
 2.1000e+000 77137 -8.3464e+002 -5.7555e+002  1.6284e+002 63288 77160,77088,76993
 2.1000e+000 77186 -2.1118e+002 -2.9980e+002  2.3244e+002 63288 76967,77088,77160
 2.1000e+000 77417 -2.5704e+002 -3.8017e+002  1.4766e+002 62884 77440,77342,77316
 2.1000e+000 77394 -5.1622e+002 -5.4531e+002  5.7629e+001 62884 77770,77440,77316
 2.1000e+000 77466 -4.1830e+002 -5.5667e+002  3.1195e+001 62884 77512,77440,77368
 2.1000e+000 77489 -3.7786e+002 -5.4371e+002  2.3528e+001 62884 77642,77440,77290
 2.1000e+000 77538 -2.6236e+002 -4.4310e+002 -1.8909e+001 62884 77342,77440,77512
 2.1000e+000 77668 -4.2744e+002 -6.0885e+002 -8.0873e+000 62884 77368,77440,77642
 2.1000e+000 77796 -3.9939e+002 -4.8588e+002  3.7135e+001 62884 77290,77440,77770
 2.1000e+000 78479 -8.3173e+002 -9.2931e+002  4.7059e+002 62480 78084,78240,78214
 2.1000e+000 78456 -5.1706e+002 -7.6662e+002  2.7726e+001 62480 78084,78266,78240
 2.1000e+000 78433 -5.9308e+002 -7.1125e+002  2.3364e+002 62480 78110,78214,78136
 2.1000e+000 78410 -6.6428e+002 -7.5912e+002  4.0286e+002 62480 78084,78214,78110
 2.1000e+000 78387 -5.1973e+002 -5.6033e+002  2.8826e+002 62480 78136,78214,78188
 2.1000e+000 78364 -4.4474e+002 -8.9259e+002 -2.1340e+001 62480 78058,78266,78084
 2.1000e+000 78341 -4.1423e+002 -5.2783e+002  3.1445e+002 62480 78136,78188,78162
 2.1000e+000 78318 -3.7122e+002 -6.6925e+002 -2.5254e+002 62480 78058,78292,78266
 2.1000e+000 78678 -5.8413e+002 -1.0194e+003  3.7781e+002 61926 78528,78606,78554
 2.1000e+000 78655 -2.2790e+002 -1.1789e+003  4.9908e+002 61926 78502,78606,78528
 2.1000e+000 78632 -3.8392e+002 -6.2263e+002  1.8996e+002 61926 78554,78606,78580
 2.1000e+000 79058 -5.6920e+002 -5.9590e+002  3.1828e+002 61614 78836,78914,78862
 2.1000e+000 79035 -7.0534e+002 -7.2524e+002  2.5518e+002 61614 78810,78914,78836
 2.1000e+000 79012 -4.6217e+002 -6.2125e+002  2.5930e+002 61614 78784,78914,78810
 2.1000e+000 78989 -5.0743e+002 -6.7896e+002  4.8044e+002 61614 78862,78914,78888
 2.1000e+000 78966 -3.9871e+002 -7.7993e+002  2.9180e+002 61614 78784,78940,78914
 2.1000e+000 79208 -4.6795e+002 -1.0913e+003  1.1319e+001 61366 79081,79133,79107
 2.1000e+000 79185 -4.4441e+002 -7.5520e+002  2.7827e+002 61366 79081,79159,79133
 2.1000e+000 79358  1.4594e+001  1.9184e+001  5.1567e+001 60962 79231,79283,79257
 2.1000e+000 79335 -1.6492e+002 -3.8828e+002  9.7747e+001 60962 79231,79309,79283
 2.1000e+000 79608 -3.7128e+002 -8.6465e+002  2.9350e+002 60508 79631,79435,79409
 2.1000e+000 79585 -2.4419e+002 -8.7802e+002  1.8169e+002 60508 79703,79631,79409
 2.1000e+000 79562 -1.8026e+002 -4.3513e+002  2.6722e+002 60508 79703,79409,79383
 2.1000e+000 79539 -8.6828e+002 -6.6556e+002  5.6270e+002 60508 79435,79487,79461
 2.1000e+000 79657 -4.3075e+002 -1.0709e+003  5.1497e+002 60508 79487,79435,79631
 2.1000e+000 79680 -2.1655e+002 -8.0903e+002  2.4543e+002 60508 79487,79631,79513
 2.1000e+000 79729 -1.5890e+002 -4.7636e+002  8.8003e+001 60508 79513,79631,79703
 2.1000e+000 79752 -2.7643e+002 -4.3483e+002  3.4056e+001 60508 79513,79703,79383
 2.1000e+000 80390 -5.0183e+002 -5.8839e+002  4.5689e+002 59997 80413,80096,80018
 2.1000e+000 80367 -8.2998e+002 -7.1231e+002  5.1949e+002 59997 80413,80018,80226
 2.1000e+000 80344 -4.5449e+002 -5.1975e+002  2.6488e+002 59997 80096,80174,80148
 2.1000e+000 80321 -1.5379e+003 -1.1017e+003  7.5016e+002 59997 80018,80096,80070
 2.1000e+000 80298 -6.9885e+002 -5.5916e+002  2.7722e+002 59997 80096,80148,80122
 2.1000e+000 80275 -5.2147e+002 -5.9084e+002  3.4761e+002 59997 80174,80226,80200
 2.1000e+000 80252 -8.9269e+002 -6.4892e+002 -2.0430e+001 59997 80018,80070,80044
 2.1000e+000 80439 -4.2594e+002 -6.5433e+002  3.2810e+002 59997 80174,80096,80413
 2.1000e+000 80462 -5.6435e+002 -6.1507e+002  3.6189e+002 59997 80174,80413,80226
 2.1000e+000 80840 -7.5241e+002 -6.6008e+002  3.1114e+002 59443 80863,80644,80618
 2.1000e+000 80817 -2.5205e+002 -4.9821e+002  3.4618e+002 59443 80863,80618,80566
 2.1000e+000 80794 -2.3224e+002 -4.5245e+002  4.5361e+002 59443 81007,80935,80670
 2.1000e+000 80771 -3.5726e+002 -4.4133e+002  3.7658e+002 59443 80566,80722,80696
 2.1000e+000 80748 -3.0990e+002 -6.2732e+002  3.8612e+002 59443 80566,80618,80592
 2.1000e+000 80889 -8.3827e+002 -6.4100e+002  5.4557e+002 59443 80935,80644,80863
 2.1000e+000 80912 -5.4011e+002 -5.3503e+002  4.2560e+002 59443 80696,80863,80566
 2.1000e+000 80961 -4.4882e+002 -5.3645e+002  5.3440e+002 59443 80696,80670,80935
 2.1000e+000 80984 -4.3569e+002 -4.2904e+002  4.6810e+002 59443 80696,80935,80863
 2.1000e+000 81033 -6.0598e+002 -9.1693e+002  6.4422e+002 59443 80644,80935,81007
 2.1000e+000 81360 -8.1430e+002 -3.9752e+002  3.0489e+002 59031 81383,81187,81161
 2.1000e+000 81337 -7.2376e+002 -4.5254e+002  5.6606e+001 59031 81455,81383,81161
 2.1000e+000 81314 -6.0222e+002 -2.8387e+002  1.2338e+002 59031 81455,81161,81135
 2.1000e+000 81291 -1.3947e+003 -3.1823e+002  6.1350e+002 59031 81187,81239,81213
 2.1000e+000 81409 -8.6809e+002 -8.1962e+002  4.6529e+002 59031 81239,81187,81383
 2.1000e+000 81432 -8.6118e+002 -5.5106e+002  9.5532e+001 59031 81239,81383,81265
 2.1000e+000 81481 -8.1430e+002 -1.4974e+002  1.0325e+002 59031 81265,81383,81455
 2.1000e+000 81504 -8.1422e+002 -9.3827e+001  1.2753e+002 59031 81265,81455,81135
 2.1000e+000 81835 -9.2558e+001 -3.1689e+002  1.0947e+002 58577 81610,81714,81636
 2.1000e+000 81812 -7.4773e+001 -3.9545e+002  1.2787e+002 58577 81610,81740,81714
 2.1000e+000 81789 -2.4717e+002 -3.7258e+002  4.4956e+001 58577 81636,81714,81688
 2.1000e+000 81766 -2.1991e+002 -3.2208e+002 -6.8834e+001 58577 81636,81688,81662
 2.1000e+000 81985 -1.6267e+002 -4.0096e+002  2.4151e+002 58030 81884,81936,81910
 2.1000e+000 81962 -3.4638e+002 -1.1075e+002  1.6012e+002 58030 81858,81936,81884
 2.1000e+000 82414 -1.3759e+002 -5.8248e+001  1.8350e+002 57690 82437,82169,82117
 2.1000e+000 82391 -1.7249e+002 -2.2901e+002  2.0672e+002 57690 82437,82117,82247
 2.1000e+000 82368  8.5378e+001  1.2080e+002  4.6649e+002 57690 82195,82247,82221
 2.1000e+000 82345 -1.4121e+002 -2.1563e+002  2.1140e+002 57690 82091,82247,82117
 2.1000e+000 82322 -2.3849e+002 -6.5916e+001  1.2577e+002 57690 82117,82169,82143
 2.1000e+000 82299 -1.6184e+002 -3.9778e+002  2.9096e+002 57690 82091,82273,82247
 2.1000e+000 82463 -1.9589e+002  1.0378e+001  2.6568e+002 57690 82195,82169,82437
 2.1000e+000 82486 -2.0973e+002 -1.1215e+002  2.6154e+002 57690 82195,82437,82247
 2.1000e+000 83041 -3.8897e+002 -3.8617e+002  2.5800e+002 57172 83064,82721,82695
 2.1000e+000 83018 -4.3480e+002 -4.1827e+002  3.8185e+002 57172 83064,82695,82851
 2.1000e+000 82995 -1.2467e+003 -5.7644e+002  5.3764e+002 57172 82669,82851,82695
 2.1000e+000 82972 -7.3050e+002 -4.9199e+002  3.5671e+002 57172 82773,82851,82825
 2.1000e+000 82949 -7.0402e+002 -5.6377e+002  5.6312e+002 57172 82773,82825,82799
 2.1000e+000 82926 -4.8419e+002 -2.9680e+002  2.0931e+002 57172 82721,82773,82747
 2.1000e+000 82903 -1.2115e+003 -4.1000e+002  5.9810e+002 57172 82669,82877,82851
 2.1000e+000 83090 -5.8864e+002 -4.6602e+002  2.5402e+002 57172 82773,82721,83064
 2.1000e+000 83113 -4.9919e+002 -4.4124e+002  3.7008e+002 57172 82773,83064,82851
 2.1000e+000 83747 -4.5002e+002 -4.3702e+002  2.9014e+002 56554 83770,83427,83401
 2.1000e+000 83724 -5.0025e+002 -5.6418e+002  3.4623e+002 56554 83842,83770,83401
 2.1000e+000 83701 -4.4535e+001 -4.5225e+002  1.0970e+002 56554 83842,83401,83583
 2.1000e+000 83678 -9.7361e+002 -8.3238e+002  7.1394e+002 56554 83914,83531,83505
 2.1000e+000 83655 -5.7196e+002 -3.5974e+002  1.3675e+002 56554 83531,83583,83557
 2.1000e+000 83632 -1.2594e+002 -1.1390e+002  1.0349e+002 56554 83375,83583,83401
 2.1000e+000 83609 -5.2271e+002 -4.6089e+002  3.3234e+002 56554 83427,83479,83453
 2.1000e+000 83796 -4.6583e+002 -4.1924e+002  2.9749e+002 56554 83479,83427,83770
 2.1000e+000 83819 -5.4526e+002 -3.9690e+002  3.3288e+002 56554 83479,83770,83505
 2.1000e+000 83868 -3.4198e+002 -2.7801e+002  4.1571e+002 56554 83505,83770,83842
 2.1000e+000 83891 -6.3244e+002 -5.0722e+002  5.1583e+002 56554 83914,83505,83842
 2.1000e+000 83940 -4.4780e+002 -8.1666e+002  3.8108e+002 56554 83583,83531,83914
 2.1000e+000 83963 -2.1788e+002 -7.7807e+002  2.7872e+002 56554 83583,83914,83842
 2.1000e+000 84341 -1.5873e+002 -8.4670e+002  2.0644e+002 56192 84067,84145,84119
 2.1000e+000 84318 -9.0412e+001 -8.7076e+002  1.4412e+002 56192 84067,84223,84145
 2.1000e+000 84295 -3.1278e+002 -8.4854e+002 -5.6933e+001 56192 84145,84223,84197
 2.1000e+000 84272  4.4994e+001 -1.5065e+003  3.1657e+002 56192 84067,84119,84093
 2.1000e+000 84249 -6.5843e+002 -2.1387e+002  1.3879e+002 56192 84145,84197,84171
 2.1000e+000 84611 -2.4012e+002 -6.2974e+002  4.3314e+002 55538 84386,84490,84412
 2.1000e+000 84588 -2.5927e+002 -5.6359e+002  4.2556e+002 55538 84386,84516,84490
 2.1000e+000 84565 -5.2471e+002 -7.5258e+002  4.2133e+002 55538 84412,84490,84464
 2.1000e+000 84542 -2.9777e+002 -7.2004e+002  2.6225e+002 55538 84412,84464,84438
 2.1000e+000 84942 -5.3265e+002 -4.6415e+002  3.9352e+002 55084 84769,84847,84795
 2.1000e+000 84919 -5.3705e+002 -5.2101e+002  3.3367e+002 55084 84717,84847,84769
 2.1000e+000 84896 -5.9148e+002 -6.5984e+002  3.2607e+002 55084 84717,84769,84743
 2.1000e+000 84873 -6.1645e+002 -2.4874e+002  3.3974e+002 55084 84795,84847,84821
 2.1000e+000 85271  5.2168e+000 -1.6007e+002  2.1836e+002 54580 85294,85098,85072
 2.1000e+000 85248 -5.9960e+002 -4.1425e+002  3.6753e+002 54580 85294,85072,85176
 2.1000e+000 85225 -9.1422e+002 -1.2252e+001  1.0875e+002 54580 85124,85176,85150
 2.1000e+000 85202 -8.8674e+001 -3.4684e+002  7.2847e+001 54580 85046,85176,85072
 2.1000e+000 85320 -5.4700e+002 -1.6517e+002  3.0950e+002 54580 85124,85098,85294
 2.1000e+000 85343 -8.6761e+002 -1.7685e+002  4.0413e+002 54580 85124,85294,85176
 2.1000e+000 85542 -3.3903e+002 -5.7031e+002  2.3922e+002 53976 85565,85444,85418
 2.1000e+000 85519 -2.9766e+002 -4.8840e+002  2.5406e+002 53976 85565,85418,85366
 2.1000e+000 85496 -2.5406e+002 -4.3978e+002  2.0396e+002 53976 85366,85418,85392
 2.1000e+000 85591 -5.0146e+002 -5.6118e+002  1.1824e+002 53976 85470,85444,85565
 2.1000e+000 85614 -3.3330e+002 -2.4458e+002  1.8070e+002 53976 85470,85565,85366
 2.1000e+000 85960 -6.0364e+002 -6.0837e+002  2.6230e+002 53572 85663,85715,85689
 2.1000e+000 85937 -6.0900e+002 -6.1803e+002  2.8800e+002 53572 85983,85715,85663
 2.1000e+000 85914 -8.1401e+002 -8.1773e+002  3.7344e+002 53572 86055,85983,85663
 2.1000e+000 85891 -7.7627e+002 -8.1908e+002  5.1977e+002 53572 86055,85663,85637
 2.1000e+000 85868 -1.1159e+003 -1.6316e+003  5.8936e+002 53572 85637,85793,85767
 2.1000e+000 85845 -2.1305e+003 -6.8799e+002  4.1549e+002 53572 85637,85819,85793
 2.1000e+000 86009 -7.9271e+002 -4.9894e+002  2.8985e+002 53572 85741,85715,85983
 2.1000e+000 86032 -8.4509e+002 -5.3003e+002  3.1200e+002 53572 85741,85983,85767
 2.1000e+000 86081 -7.1217e+002 -4.7322e+002  3.2107e+002 53572 85767,85983,86055
 2.1000e+000 86104 -7.6009e+002 -6.3306e+002  4.5927e+002 53572 85767,86055,85637
 2.1000e+000 86693 -1.0142e+003 -2.1915e+002  5.4417e+002 52946 86474,86526,86500
 2.1000e+000 86670 -1.6510e+002 -6.1398e+001  1.4221e+002 52946 86396,86526,86474
 2.1000e+000 86647 -7.4850e+002 -5.5277e+002  3.5684e+002 52946 86370,86526,86396
 2.1000e+000 86624  7.8905e+000  5.4594e+000  1.1137e+001 52946 86422,86474,86448
 2.1000e+000 86601 -2.1985e+002 -5.7462e+001  1.0569e+002 52946 86396,86474,86422
 2.1000e+000 86578 -8.3591e+002 -2.0872e+002  1.9640e+002 52946 86370,86552,86526
 2.1000e+000 87376 -5.3931e+002 -4.4211e+002  2.1343e+002 52420 87007,87085,87033
 2.1000e+000 87353 -4.2040e+002 -4.2888e+002  2.3365e+002 52420 87007,87163,87085
 2.1000e+000 87330 -6.6697e+002 -4.5782e+002  2.7130e+002 52420 87007,87189,87163
 2.1000e+000 87307 -6.5962e+002 -4.0493e+002  3.1048e+002 52420 87033,87085,87059
 2.1000e+000 87284 -5.8206e+002 -4.7361e+002  5.1823e+001 52420 87085,87137,87111
 2.1000e+000 87261 -3.6797e+002 -4.7934e+002  5.2511e+001 52420 87085,87163,87137
 2.1000e+000 87238 -4.5931e+002 -6.7675e+002  5.8299e+002 52420 86955,87189,87007
 2.1000e+000 87215 -2.9568e+002 -3.9466e+002  3.5902e+002 52420 86955,87007,86981
 2.1000e+000 87624 -3.4725e+002 -6.0108e+002  1.9937e+002 51916 87451,87503,87477
 2.1000e+000 87601 -3.5483e+002 -7.7026e+002  1.9440e+002 51916 87425,87503,87451
 2.1000e+000 87578 -3.3973e+002 -7.5658e+002  2.0244e+002 51916 87425,87529,87503
 2.1000e+000 87555 -2.1662e+002 -5.2706e+002  2.4881e+002 51916 87399,87529,87425
 2.1000e+000 88053 -5.4806e+002 -4.6990e+002  1.8975e+002 51568 87782,87834,87808
 2.1000e+000 88030 -6.9524e+002 -4.3842e+002  3.4007e+002 51568 88076,87782,87886
 2.1000e+000 88007 -6.1551e+002 -2.5365e+002  2.9006e+002 51568 88076,87886,87860
 2.1000e+000 87984 -8.6592e+002 -6.5619e+002  2.6596e+002 51568 87756,87886,87782
 2.1000e+000 87961 -6.4031e+002 -5.0959e+002  5.4048e+002 51568 87756,87912,87886
 2.1000e+000 87938 -7.4652e+002 -3.3786e+002  5.0072e+002 51568 87730,87912,87756
 2.1000e+000 88102 -5.8878e+002 -5.2820e+002  2.1702e+002 51568 87834,87782,88076
 2.1000e+000 88125 -5.2103e+002 -4.0589e+002  1.7298e+002 51568 87834,88076,87860
 2.1000e+000 88324 -4.6835e+002 -5.4545e+002  1.0282e+002 51164 88419,88347,88200
 2.1000e+000 88301 -3.3095e+002 -5.4369e+002  2.5845e+002 51164 88347,88148,88252
 2.1000e+000 88278 -6.3356e+002 -1.0698e+003  1.0729e+002 51164 88419,88200,88174
 2.1000e+000 88373 -3.2762e+002 -3.1585e+002  1.8134e+002 51164 88226,88200,88347
 2.1000e+000 88396 -3.2944e+001 -5.4343e+002  2.1129e+002 51164 88226,88347,88252
 2.1000e+000 88445 -5.9025e+002 -6.4315e+002  4.0784e+002 51164 88148,88347,88419
 2.1000e+000 88468 -5.6545e+002 -6.0550e+002  4.5082e+002 51164 88148,88419,88174
 2.1000e+000 88738 -4.6519e+002 -6.4368e+002  1.6613e+002 50560 88513,88617,88539
 2.1000e+000 88715 -3.3100e+002 -7.7725e+002  1.1542e+002 50560 88513,88643,88617
 2.1000e+000 88692 -2.0447e+002 -7.5929e+001  2.0839e+002 50560 88539,88591,88565
 2.1000e+000 88669 -1.6298e+002 -4.0701e+002  2.6908e+002 50560 88539,88617,88591
 2.1000e+000 88939 -6.0413e+002 -2.5565e+002  3.1815e+002 50106 88962,88789,88763
 2.1000e+000 88916 -4.2802e+002 -2.7205e+002  2.4788e+002 50106 88962,88763,88841
 2.1000e+000 88893 -6.3978e+002 -4.1039e+002  4.0435e+002 50106 88763,88867,88841
 2.1000e+000 88988 -4.3532e+002 -3.3052e+002  2.0125e+002 50106 88815,88789,88962
 2.1000e+000 89011 -3.4706e+002 -2.4481e+002  2.6155e+002 50106 89034,88962,88841
 2.1000e+000 89060 -2.4478e+002 -9.4873e+001  8.1324e+001 50106 88815,88962,89034
 2.1000e+000 89472 -3.2135e+002 -8.0700e+002  2.8802e+001 49666 89273,89351,89325
 2.1000e+000 89449 -4.3556e+002 -3.6845e+002  1.9410e+002 49666 89273,89377,89351
 2.1000e+000 89426 -3.7516e+002 -6.0825e+002  4.2536e+002 49666 89273,89325,89299
 2.1000e+000 89403 -5.0123e+002 -3.7923e+002  2.4646e+002 49666 89247,89377,89273
 2.1000e+000 89978 -4.7746e+002 -7.5449e+002 -1.4696e+000 49205 89681,89837,89733
 2.1000e+000 89955 -7.4364e+001 -4.0709e+002  1.7709e+002 49205 89655,89837,89681
 2.1000e+000 89932 -7.3955e+002 -7.8337e+002  3.4276e+002 49205 89785,89837,89811
 2.1000e+000 89909 -2.5044e+002 -5.1638e+002  1.3770e+002 49205 89733,89837,89785
 2.1000e+000 89886 -6.9552e+002 -6.6365e+002  3.1801e+002 49205 89733,89785,89759
 2.1000e+000 89863 -1.8084e+002 -3.0077e+002 -1.9432e+002 49205 89681,89733,89707
 2.1000e+000 90177 -4.0393e+002 -4.6700e+002  2.1487e+002 48865 90530,90200,90053
 2.1000e+000 90154 -2.6760e+002 -4.6391e+002  2.0656e+002 48865 90402,90200,90001
 2.1000e+000 90131 -4.4467e+002 -4.0696e+002  2.1945e+002 48865 90530,90053,90027
 2.1000e+000 90226 -4.9165e+002 -5.2321e+002  3.9111e+002 48865 90079,90053,90200
 2.1000e+000 90249 -3.5384e+002 -3.9755e+002  2.6198e+002 48865 90272,90200,90105
 2.1000e+000 90298 -2.8991e+002 -3.5015e+002  2.8329e+002 48865 90079,90200,90272
 2.1000e+000 90428 -2.7034e+002 -1.4725e+002  1.9697e+002 48865 90105,90200,90402
 2.1000e+000 90556 -4.3390e+002 -5.3535e+002  2.0032e+002 48865 90001,90200,90530
 2.1000e+000 90579 -4.8087e+002 -4.6539e+002  1.9273e+002 48865 90001,90530,90027
 2.1000e+000 90827 -4.5143e+002 -4.6710e+002  2.4024e+002 48404 90850,90654,90628
 2.1000e+000 90804 -5.0696e+002 -5.8021e+002  4.0051e+002 48404 90850,90628,90732
 2.1000e+000 90781 -3.4918e+002 -3.3137e+002  1.8564e+002 48404 90680,90732,90706
 2.1000e+000 90758 -7.1339e+002 -3.3019e+002  4.2207e+002 48404 90602,90732,90628
 2.1000e+000 90876 -4.8054e+002 -2.2036e+002  1.8929e+002 48404 90680,90654,90850
 2.1000e+000 90899 -5.1785e+002 -4.1980e+002  3.0982e+002 48404 90680,90850,90732
 2.1000e+000 91000 -2.6808e+002 -6.5928e+002  3.0359e+002 48156 90922,90974,90948
 2.1000e+000 91250 -1.9152e+002 -4.5594e+002  1.6025e+002 47752 91051,91103,91077
 2.1000e+000 91227 -2.9921e+002 -4.0119e+002  1.5704e+002 47752 91025,91103,91051
 2.1000e+000 91204 -5.6559e+002 -5.6962e+002  3.1814e+002 47752 91025,91155,91103
 2.1000e+000 91181 -5.5538e+002 -4.4378e+002  2.7097e+002 47752 91103,91155,91129
 2.1000e+000 91402 -3.3669e+002 -4.1908e+002  3.2113e+002 47191 91425,91301,91275
 2.1000e+000 91379 -2.6263e+002 -3.9265e+002  3.5704e+002 47191 91497,91425,91275
 2.1000e+000 91451 -3.5968e+002 -1.3981e+002  1.7723e+002 47191 91327,91301,91425
 2.1000e+000 91474 -5.3286e+002 -4.4270e+002  3.7230e+002 47191 91327,91425,91353
 2.1000e+000 91523 -4.2697e+002 -8.6318e+002  3.9334e+002 47191 91353,91425,91497
 2.1000e+000 91854 -3.8657e+002 -3.9024e+002  8.4922e+001 46744 91949,91877,91707
 2.1000e+000 91831 -3.4613e+002 -4.1170e+002  9.7894e+001 46744 91877,91655,91629
 2.1000e+000 91808 -3.3076e+002 -4.2968e+002  1.1350e+002 46744 91949,91707,91681
 2.1000e+000 91785 -6.8622e+002 -3.7850e+002 -6.3040e+001 46744 91629,91759,91733
 2.1000e+000 91903 -4.9492e+002 -4.1102e+002  1.2625e+002 46744 91733,91707,91877
 2.1000e+000 91926 -3.5627e+002 -4.2631e+002  1.0239e+002 46744 91733,91877,91629
 2.1000e+000 91975 -2.9665e+002 -3.7862e+002  1.5375e+002 46744 91655,91877,91949
 2.1000e+000 91998 -1.6582e+002 -3.8270e+002  1.6715e+002 46744 91655,91949,91681
 2.1000e+000 92378 -3.9999e+002 -1.2009e+002  2.5148e+002 46090 92130,92208,92182
 2.1000e+000 92355 -5.3313e+002 -1.7715e+002  2.3112e+002 46090 92104,92208,92130
 2.1000e+000 92332 -2.4940e+002 -3.9150e+002  2.0316e+002 46090 92104,92260,92208
 2.1000e+000 92309 -2.1672e+002 -6.7060e+001  1.4951e+002 46090 92208,92260,92234
 2.1000e+000 92286 -6.4652e+002 -1.8894e+002  2.9769e+002 46090 92130,92182,92156
 2.1000e+000 92626 -3.3862e+002 -4.5063e+002  1.8029e+002 45693 92721,92649,92505
 2.1000e+000 92603 -3.7884e+002 -4.6183e+002  4.0577e+002 45693 92649,92453,92427
 2.1000e+000 92580 -3.7278e+002 -3.4965e+002  1.7656e+002 45693 92721,92505,92479
 2.1000e+000 92557 -6.3170e+002 -6.8138e+002  5.1295e+002 45693 92401,92531,92427
 2.1000e+000 92675 -5.9746e+002 -4.5368e+002  2.3758e+002 45693 92531,92505,92649
 2.1000e+000 92698 -6.4825e+002 -5.8194e+002  5.3787e+002 45693 92531,92649,92427
 2.1000e+000 92747 -3.6877e+002 -3.3207e+002  1.8806e+002 45693 92453,92649,92721
 2.1000e+000 92770 -2.4446e+002 -2.1791e+001  2.4145e+002 45693 92453,92721,92479
 2.1000e+000 93172 -2.8430e+002 -4.8593e+002  4.1734e+002 45331 92898,93028,92924
 2.1000e+000 93149 -1.7567e+002 -4.3658e+002  2.6920e+002 45331 92898,93054,93028
 2.1000e+000 93126 -3.7992e+002 -3.3120e+002  4.7265e+002 45331 92924,93002,92976
 2.1000e+000 93103 -1.5880e+002 -4.3170e+002  4.0790e+002 45331 92924,93028,93002
 2.1000e+000 93080 -4.0974e+002 -5.0359e+002  4.8311e+002 45331 92924,92976,92950
 2.1000e+000 93518 -6.1294e+002 -7.2553e+002  4.7748e+002 44820 93613,93273,93247
 2.1000e+000 93495 -5.6756e+002 -5.6311e+002  2.7832e+002 44820 93685,93541,93247
 2.1000e+000 93472 -5.8625e+002 -3.4356e+002  2.4227e+002 44820 93541,93195,93377
 2.1000e+000 93449 -6.1521e+002 -4.9732e+002  2.2937e+002 44820 93685,93247,93221
 2.1000e+000 93426 -4.9853e+002 -6.7450e+002  3.6489e+002 44820 93299,93377,93351
 2.1000e+000 93403 -3.8411e+002 -4.8016e+002  4.3219e+002 44820 93299,93351,93325
 2.1000e+000 93567 -4.7543e+002 -7.4201e+002  2.0665e+002 44820 93613,93247,93541
 2.1000e+000 93590 -5.0261e+002 -5.8251e+002  1.3172e+002 44820 93299,93541,93377
 2.1000e+000 93639 -4.6295e+002 -9.3169e+002  2.7501e+002 44820 93299,93273,93613
 2.1000e+000 93662 -5.1770e+002 -9.1473e+002  2.1897e+002 44820 93299,93613,93541
 2.1000e+000 93711 -5.7449e+002 -4.2361e+002  1.9418e+002 44820 93195,93541,93685
 2.1000e+000 93734 -5.1540e+002 -1.8345e+002  1.5216e+002 44820 93195,93685,93221
 2.1000e+000 94163 -5.5853e+002 -5.7733e+002  2.3991e+002 44237 94258,94186,93996
 2.1000e+000 94140 -6.2232e+002 -6.5392e+002  1.5472e+002 44237 94330,94022,93996
 2.1000e+000 94117 -6.4090e+002 -6.0446e+002  1.8249e+002 44237 94186,93918,93866
 2.1000e+000 94094 -4.9424e+002 -4.5809e+002  2.6618e+002 44237 94258,93996,93970
 2.1000e+000 94071 -5.9864e+002 -3.5115e+002  2.5527e+002 44237 94402,93944,93918
 2.1000e+000 94048 -2.8548e+002 -4.4060e+002  1.3341e+002 44237 93866,93918,93892
 2.1000e+000 94212 -6.2112e+002 -6.6343e+002  1.9556e+002 44237 94330,93996,94186
 2.1000e+000 94235 -5.9633e+002 -5.5116e+002  2.1174e+002 44237 93840,94186,93866
 2.1000e+000 94284 -5.7701e+002 -4.5799e+002  1.7449e+002 44237 93918,94186,94258
 2.1000e+000 94307 -5.5177e+002 -3.7347e+002  1.9697e+002 44237 94402,93918,94258
 2.1000e+000 94356 -6.5241e+002 -2.8655e+002  4.3491e+001 44237 93840,94022,94330
 2.1000e+000 94379 -5.8998e+002 -5.8508e+002  2.0943e+002 44237 93840,94330,94186
 2.1000e+000 94428 -6.9347e+002 -4.5993e+002  2.9544e+002 44237 93970,93944,94402
 2.1000e+000 94451 -6.2158e+002 -4.6951e+002  2.2933e+002 44237 93970,94402,94258
 2.1000e+000 94908 -5.2921e+002 -5.7483e+002  1.1320e+002 43890 94660,94790,94712
 2.1000e+000 94885 -2.6219e+002 -2.4847e+002  2.3443e+002 43890 94634,94790,94660
 2.1000e+000 94862 -5.4274e+002 -2.7469e+002  1.9152e+002 43890 94712,94764,94738
 2.1000e+000 94839 -4.3881e+002 -4.1521e+002  2.0625e+002 43890 94712,94790,94764
 2.1000e+000 94816 -6.0406e+002 -3.5734e+002 -1.1762e+002 43890 94660,94712,94686
 2.1000e+000 95414 -3.5962e+002 -1.4098e+002  1.5542e+002 43186 95437,95143,95117
 2.1000e+000 95391 -4.4720e+002 -5.1475e+002  1.8559e+002 43186 95437,95117,95091
 2.1000e+000 95368 -8.6465e+001 -1.7455e+002  2.1978e+002 43186 95143,95221,95195
 2.1000e+000 95345 -7.1084e+002 -4.8844e+002  5.8003e+002 43186 95091,95273,95221
 2.1000e+000 95322 -3.9470e+002 -2.5519e+002  3.0352e+002 43186 95221,95273,95247
 2.1000e+000 95299 -1.7056e+002 -1.1170e+001  4.5945e+001 43186 95143,95195,95169
 2.1000e+000 95463 -3.1316e+002 -3.9330e+002  3.3796e+002 43186 95221,95143,95437
 2.1000e+000 95486 -3.6145e+002 -6.9138e+002  3.8340e+002 43186 95221,95437,95091
 2.1000e+000 96041 -7.1165e+002 -6.5286e+002  1.9795e+002 42782 95695,95851,95799
 2.1000e+000 96018 -6.8530e+002 -8.5671e+002  1.7691e+002 42782 95669,95851,95695
 2.1000e+000 95995 -6.1566e+002 -3.4580e+002  2.0364e+002 42782 95695,95747,95721
 2.1000e+000 95972 -4.9357e+002 -5.5684e+002  1.8030e+002 42782 95695,95799,95747
 2.1000e+000 95949 -4.2908e+002 -2.8695e+002  1.2164e+002 42782 95747,95799,95773
 2.1000e+000 95926 -8.0853e+002 -8.1921e+002  2.4060e+002 42782 95799,95851,95825
 2.1000e+000 95903 -1.0227e+003 -1.0632e+003  2.8921e+002 42782 95669,95877,95851
 2.1000e+000 96370 -6.2225e+002 -8.4494e+002  3.4241e+002 42420 96197,96275,96223
 2.1000e+000 96347 -5.6752e+002 -7.8203e+002  3.7484e+002 42420 96145,96275,96197
 2.1000e+000 96324 -6.1077e+002 -5.8026e+002  4.0135e+002 42420 96145,96197,96171
 2.1000e+000 96301 -4.5984e+002 -6.4141e+002  2.1894e+002 42420 96223,96275,96249
 2.1000e+000 96699 -2.7855e+002 -4.3295e+002 -8.1711e+000 41816 96474,96578,96526
 2.1000e+000 96676 -3.5799e+002 -3.8312e+002 -9.3408e+001 41816 96474,96604,96578
 2.1000e+000 96653 -3.3666e+002 -4.5658e+002 -1.9868e+001 41816 96526,96578,96552
 2.1000e+000 96630 -3.0037e+002 -5.3535e+002 -3.7262e+001 41816 96474,96526,96500
 2.1000e+000 96947 -2.5511e+002 -5.9640e+002  6.1928e+001 41212 96722,96800,96748
 2.1000e+000 96924 -3.6906e+002 -5.5982e+002  1.1339e+002 41212 96722,96826,96800
 2.1000e+000 96901 -4.7389e+002 -6.2096e+002  1.4105e+002 41212 96722,96852,96826
 2.1000e+000 96878 -1.9831e+002 -5.6049e+002  1.0380e+002 41212 96748,96800,96774
 2.1000e+000 97097 -3.1267e+002 -6.4011e+001  3.1456e+002 40793 97120,97022,96996
 2.1000e+000 97074 -6.0760e+002 -7.0050e+002  1.9243e+002 40793 97192,97120,96996
 2.1000e+000 97146 -2.3393e+002 -5.7393e+002  2.7552e+002 40793 97324,97120,97048
 2.1000e+000 97169 -2.0137e+002 -9.7583e+002  2.5877e+002 40793 97048,97120,96970
 2.1000e+000 97218 -9.0390e+001 -4.8078e+002  1.9539e+002 40793 96970,97120,97192
 2.1000e+000 97350 -2.3393e+002 -5.7393e+002  2.7552e+002 40793 97022,97120,97324
 2.1000e+000 97878 -3.9891e+002 -7.1239e+002  1.4391e+002 40446 97901,97607,97555
 2.1000e+000 97855 -3.4536e+002 -4.7655e+002  1.2910e+002 40446 97973,97901,97555
 2.1000e+000 97832 -1.6627e+002 -3.7816e+002  9.0887e+001 40446 97973,97555,97737
 2.1000e+000 97809 -6.2705e+002 -8.9357e+002  2.9781e+002 40446 97633,97685,97659
 2.1000e+000 97786 -4.2153e+002 -6.0628e+002  1.5466e+002 40446 97633,97711,97685
 2.1000e+000 97763 -3.6433e+002 -8.0773e+002  1.9263e+002 40446 97555,97607,97581
 2.1000e+000 97927 -3.8073e+002 -8.6433e+002 -5.8108e+001 40446 97633,97607,97901
 2.1000e+000 97950 -3.3294e+002 -7.0596e+002  1.2555e+002 40446 97633,97901,97711
 2.1000e+000 97999 -9.5766e+001 -6.5102e+002  2.0852e+002 40446 97711,97901,97973
 2.1000e+000 98022  3.6666e+001 -5.6174e+002  1.6499e+002 40446 97711,97973,97737
 2.1000e+000 98449 -2.2236e+002 -1.4475e+002  1.5516e+002 39935 98152,98204,98178
 2.1000e+000 98426 -3.6987e+002 -1.8649e+002  9.2791e+001 39935 98152,98230,98204
 2.1000e+000 98403 -5.6117e+002 -3.0498e+002  2.6300e+002 39935 98152,98256,98230
 2.1000e+000 98380 -3.9207e+002 -3.2842e+002  2.5730e+002 39935 98126,98256,98152
 2.1000e+000 98357 -5.3920e+002 -7.0053e+002  2.7124e+002 39935 98126,98282,98256
 2.1000e+000 98334 -2.7732e+002 -8.9339e+002  3.1553e+002 39935 98126,98308,98282
 2.1000e+000 98746 -8.0393e+002 -6.3683e+002  3.2408e+002 39531 98498,98602,98524
 2.1000e+000 98723 -5.4229e+002 -6.4979e+002  2.4942e+002 39531 98472,98602,98498
 2.1000e+000 98700 -9.2389e+002 -3.6657e+002  1.7623e+002 39531 98524,98602,98576
 2.1000e+000 98677 -4.3291e+002 -5.8749e+002  2.2241e+002 39531 98472,98628,98602
 2.1000e+000 98654 -7.6731e+002 -7.6484e+002 -1.6325e+002 39531 98524,98576,98550
 2.1000e+000 99224 -9.5918e+002 -5.0176e+002  6.6614e+002 39027 99247,98956,98930
 2.1000e+000 99201 -8.0896e+002 -3.3566e+002  2.9406e+002 39027 99247,98930,98878
 2.1000e+000 99178 -6.7100e+002 -4.6528e+002  3.6124e+002 39027 99319,98982,98956
 2.1000e+000 99155 -6.9720e+002 -3.6786e+002  1.9210e+002 39027 98852,99060,98878
 2.1000e+000 99132 -9.2528e+002 -3.7456e+002  3.0833e+002 39027 98878,98930,98904
 2.1000e+000 99109 -5.6786e+002 -9.9106e+002  4.9666e+002 39027 98982,99060,99034
 2.1000e+000 99086 -7.1399e+002 -1.1505e+003  7.4454e+002 39027 98982,99034,99008
 2.1000e+000 99273 -5.8042e+002 -3.0812e+002  4.1440e+002 39027 99319,98956,99247
 2.1000e+000 99296 -6.5906e+002 -2.8276e+002  2.1789e+002 39027 99060,99247,98878
 2.1000e+000 99345 -6.7757e+002 -5.3944e+002  2.7937e+002 39027 99060,98982,99319
 2.1000e+000 99368 -6.8698e+002 -5.0273e+002  3.1499e+002 39027 99060,99319,99247
 2.1000e+000 99923 -6.0140e+002 -5.4618e+002  2.9055e+002 38523 99946,99655,99603
 2.1000e+000 99900 -5.0175e+002 -5.0168e+002  2.9907e+002 38523 99946,99603,99759
 2.1000e+000 99877 -3.3121e+002 -7.0465e+002  3.5253e+002 38523 100018,99707,99681
 2.1000e+000 99854 -5.5396e+002 -3.5649e+002  2.7932e+002 38523 99551,99759,99603
 2.1000e+000 99831 -6.3641e+002 -4.2676e+002  3.5227e+002 38523 99551,99603,99577
 2.1000e+000 99808 -5.6867e+002 -7.7633e+002  1.7960e+002 38523 99707,99759,99733
 2.1000e+000 99785 -4.6054e+002 -4.4762e+002  2.4430e+002 38523 99603,99655,99629
 2.1000e+000 99972 -4.8260e+002 -2.8496e+002  3.1722e+002 38523 99681,99655,99946
 2.1000e+000 99995 -3.8023e+002 -4.0733e+002  4.0781e+002 38523 100018,99681,99946
 2.1000e+000 100044 -4.2767e+002 -8.2196e+002  2.1087e+002 38523 99759,99707,100018
 2.1000e+000 100067 -5.8187e+002 -7.1101e+002  2.7320e+002 38523 99759,100018,99946
 2.1000e+000 100467 -1.1218e+002 -1.9084e+002  6.7729e+001 38125 100219,100349,100323
 2.1000e+000 100444 -6.4071e+001 -1.5225e+002  9.4302e+001 38125 100193,100349,100219
 2.1000e+000 100421 -6.9416e+001 -2.2048e+002  6.8984e+001 38125 100245,100323,100297
 2.1000e+000 100398 -7.3768e+001 -1.7390e+002  7.1264e+001 38125 100219,100323,100245
 2.1000e+000 100375 -2.3889e+002 -3.0159e+002  4.2665e+001 38125 100245,100297,100271
 2.1000e+000 100666 -5.7230e+002 -8.6419e+002  2.6438e+002 37607 100689,100568,100542
 2.1000e+000 100643 -4.2692e+002 -4.1642e+002  2.3624e+002 37607 100689,100542,100490
 2.1000e+000 100620 -2.5491e+002 -2.4268e+002  1.5366e+002 37607 100490,100542,100516
 2.1000e+000 100715 -4.2654e+002 -4.3218e+002  1.8930e+002 37607 100594,100568,100689
 2.1000e+000 100738 -5.1693e+002 -3.1136e+002  2.0128e+002 37607 100594,100689,100490
 2.1000e+000 100937 -3.6326e+002 -2.9177e+002  3.4644e+002 37017 100960,100813,100787
 2.1000e+000 100914 -2.6703e+002 -3.1220e+002  1.5739e+002 37017 100960,100787,100761
 2.1000e+000 100891 -6.7903e+002 -2.4894e+002  3.6763e+002 37017 100813,100865,100839
 2.1000e+000 100986 -5.2778e+002 -5.0564e+002  4.5415e+002 37017 100865,100813,100960
 2.1000e+000 101009 -3.3089e+002 -4.3612e+002  2.4906e+002 37017 100865,100960,100761
 2.1000e+000 101519 -3.7498e+002 -2.3584e+002  1.0102e+002 36613 101222,101274,101248
 2.1000e+000 101496 -1.3464e+002 -1.5518e+002  9.0170e+001 36613 101222,101352,101274
 2.1000e+000 101473 -1.3038e+002 -2.8543e+002  4.0374e+001 36613 101274,101352,101326
 2.1000e+000 101450 -2.4492e+002 -1.6668e+002  8.4515e+001 36613 101222,101378,101352
 2.1000e+000 101427 -1.7790e+002 -4.7839e+002  3.1083e+001 36613 101274,101326,101300
 2.1000e+000 101404 -2.5199e+002 -1.8714e+002  9.0995e+001 36613 101196,101378,101222
 2.1000e+000 101718 -5.1156e+002 -4.9858e+002  5.4754e+002 36308 101594,101646,101620
 2.1000e+000 101695 -5.4345e+002 -2.6055e+002  3.1458e+002 36308 101568,101646,101594
 2.1000e+000 101672 -3.3699e+002 -3.4562e+002  3.4127e+002 36308 101542,101646,101568
 2.1000e+000 102098 -4.8382e+002 -3.6706e+002  2.2119e+002 35918 102121,101954,101876
 2.1000e+000 102075 -4.3393e+002 -4.9861e+002  1.5400e+002 35918 102121,101876,101824
 2.1000e+000 102052 -4.6021e+002 -3.5532e+002  1.7243e+002 35918 101876,101954,101928
 2.1000e+000 102029 -6.0017e+002 -1.5795e+002  1.9668e+002 35918 101876,101928,101902
 2.1000e+000 102006 -4.4891e+002 -6.2476e+002  2.7489e+002 35918 101824,101876,101850
 2.1000e+000 102147 -4.2840e+002 -4.9211e+002  2.8175e+002 35918 101980,101954,102121
 2.1000e+000 102170 -4.0482e+002 -6.5488e+002  1.9596e+002 35918 101980,102121,101824
 2.1000e+000 102489 -5.3864e+002 -1.3112e+003  3.7162e+002 35514 102241,102345,102267
 2.1000e+000 102466 -7.6816e+002 -1.4320e+003  4.1599e+002 35514 102215,102345,102241
 2.1000e+000 102443 -6.2250e+002 -1.5223e+003  4.2613e+002 35514 102215,102371,102345
 2.1000e+000 102420 -4.3402e+002 -1.0460e+003  4.4533e+002 35514 102267,102345,102293
 2.1000e+000 102397 -2.5006e+002 -6.8438e+002  5.1965e+002 35514 102293,102345,102319
 2.1000e+000 102820 -8.9837e+002 -4.8734e+002  1.1227e+002 35224 102843,102699,102647
 2.1000e+000 102797 -6.1830e+002 -6.0426e+002  2.2685e+002 35224 102971,102725,102699
 2.1000e+000 102774 -1.1635e+003 -7.3897e+002  6.2014e+002 35224 102595,102725,102621
 2.1000e+000 102751 -2.6091e+002 -2.8985e+002  2.5147e+002 35224 102647,102699,102673
 2.1000e+000 102869 -7.0829e+002 -4.1001e+002  1.6970e+002 35224 102971,102699,102843
 2.1000e+000 102997 -6.4101e+002 -7.3458e+002  1.8502e+002 35224 102621,102725,102971
 2.1000e+000 103020 -8.1335e+002 -6.3309e+002  9.3852e+001 35224 102621,102971,102843
 2.1000e+000 103349 -7.1221e+002 -4.8124e+002  3.1314e+002 34820 103150,103228,103176
 2.1000e+000 103326 -5.5573e+002 -5.9036e+002  2.9058e+002 34820 103124,103228,103150
 2.1000e+000 103303 -5.6866e+002 -5.8337e+002  5.6732e+002 34820 103176,103228,103202
 2.1000e+000 103280 -3.7869e+002 -5.1220e+002  3.6088e+002 34820 103124,103254,103228
 2.1000e+000 103806 -4.3807e+002 -3.9497e+002  1.3819e+002 34530 103558,103662,103636
 2.1000e+000 103783 -5.0016e+002 -4.0984e+002  1.5046e+002 34530 103558,103688,103662
 2.1000e+000 103760 -5.8270e+002 -6.7938e+002  1.7546e+002 34530 103532,103688,103558
 2.1000e+000 103737 -1.7113e+002 -5.0181e+002  1.1378e+002 34530 103584,103636,103610
 2.1000e+000 103714 -8.1956e+002 -4.9705e+002  1.7402e+002 34530 103558,103636,103584
 2.1000e+000 104263 -3.2608e+002 -4.4409e+002  2.6877e+002 34019 103989,104119,104015
 2.1000e+000 104240 -2.6430e+002 -4.0917e+002  3.1610e+002 34019 103989,104145,104119
 2.1000e+000 104217 -3.4382e+002 -4.6445e+002  1.5421e+002 34019 104015,104067,104041
 2.1000e+000 104194 -3.8037e+002 -5.0589e+002  2.4548e+002 34019 104015,104119,104067
 2.1000e+000 104171 -3.3708e+002 -3.2565e+002  2.2169e+002 34019 104067,104119,104093
 2.1000e+000 104641 -3.5394e+002 -2.9003e+002  1.7162e+002 33351 104419,104497,104445
 2.1000e+000 104618 -2.1461e+002 -1.6783e+002  2.3623e+002 33351 104393,104497,104419
 2.1000e+000 104595 -4.1343e+002 -2.7391e+002  5.4906e+001 33351 104367,104497,104393
 2.1000e+000 104572 -4.4074e+002 -5.2479e+002  2.8861e+002 33351 104445,104497,104471
 2.1000e+000 104549 -4.0623e+002 -4.5462e+002  1.0089e+001 33351 104367,104523,104497
 2.1000e+000 105019 -4.6099e+002 -1.0349e+003  5.0236e+002 32861 104823,104901,104875
 2.1000e+000 104996 -6.7585e+002 -1.2903e+003  4.0862e+002 32861 104745,104901,104823
 2.1000e+000 104973 -6.2221e+002 -1.1003e+003  4.1173e+002 32861 104823,104875,104849
 2.1000e+000 104950 -6.8329e+002 -1.3041e+003  6.2165e+002 32861 104745,104823,104797
 2.1000e+000 104927 -8.3799e+002 -5.1506e+002  6.5728e+002 32861 104745,104797,104771
 2.1000e+000 105397 -2.7771e+002 -7.1229e+002  2.6970e+002 32457 105149,105253,105175
 2.1000e+000 105374 -4.0773e+002 -5.9154e+002  2.1647e+002 32457 105149,105279,105253
 2.1000e+000 105351 -4.2385e+002 -4.7664e+002  2.9124e+002 32457 105123,105279,105149
 2.1000e+000 105328 -3.2157e+002 -1.6569e+002  3.0855e+002 32457 105175,105227,105201
 2.1000e+000 105305 -5.3186e+002 -8.2124e+002  2.7217e+002 32457 105175,105253,105227
 2.1000e+000 105726 -2.1739e+002 -7.0364e+002  2.8598e+002 32003 105527,105605,105553
 2.1000e+000 105703 -3.4163e+002 -6.2730e+002  2.7730e+002 32003 105501,105605,105527
 2.1000e+000 105680 -1.7891e+002 -5.7766e+002  2.9309e+002 32003 105501,105631,105605
 2.1000e+000 105657 -9.5314e+001 -4.3516e+002  2.5397e+002 32003 105553,105605,105579
 2.1000e+000 106104 -4.1226e+002 -6.7939e+002  1.0765e+002 31492 106127,105908,105856
 2.1000e+000 106081 -1.8808e+002 -5.7948e+002  7.6437e+001 31492 106127,105856,105830
 2.1000e+000 106058 -3.1096e+002 -8.8044e+002  1.4298e+002 31492 105856,105908,105882
 2.1000e+000 106035 -9.0209e+001 -3.2893e+002  8.4404e+001 31492 105830,105986,105960
 2.1000e+000 106012 -1.5790e+002 -7.6053e+002  3.7532e+002 31492 105908,105960,105934
 2.1000e+000 106153 -4.8554e+002 -6.4024e+002  2.4078e+002 31492 105960,105908,106127
 2.1000e+000 106176 -3.5728e+002 -5.9800e+002  2.1610e+002 31492 105960,106127,105830
 2.1000e+000 106375 -4.7938e+002 -5.6688e+002  3.3690e+002 30788 106398,106277,106251
 2.1000e+000 106352 -5.3749e+002 -7.4404e+002  3.2483e+002 30788 106398,106251,106225
 2.1000e+000 106329 -7.8725e+002 -5.4482e+002  5.0970e+002 30788 106600,106199,106303
 2.1000e+000 106424 -5.8458e+002 -8.1732e+002  2.4033e+002 30788 106470,106398,106303
 2.1000e+000 106447 -4.7282e+002 -6.6466e+002  2.9030e+002 30788 106600,106303,106398
 2.1000e+000 106496 -1.6431e+002 -6.3969e+002  2.6102e+002 30788 106277,106398,106470
 2.1000e+000 106626 -9.8167e+002 -8.0296e+002  6.7228e+002 30788 106225,106199,106600
 2.1000e+000 106649 -7.6053e+002 -9.3224e+002  4.4661e+002 30788 106225,106600,106398
 2.1000e+000 106799 -1.8069e+002 -9.3163e+002 -2.2736e+001 30426 106698,106750,106724
 2.1000e+000 106776 -2.4255e+002 -5.6601e+002 -2.5428e+001 30426 106672,106750,106698
 2.1000e+000 107356 -5.2654e+002 -4.5803e+002  2.4078e+002 29972 107010,107166,107114
 2.1000e+000 107333 -6.4988e+002 -4.3002e+002  3.4218e+002 29972 106984,107166,107010
 2.1000e+000 107310 -5.8535e+002 -2.9480e+002  1.7694e+002 29972 107010,107114,107088
 2.1000e+000 107287 -5.2014e+002 -2.2435e+002  1.5748e+002 29972 107114,107166,107140
 2.1000e+000 107264 -6.6343e+002 -6.1580e+002  4.4862e+002 29972 106984,107192,107166
 2.1000e+000 107241 -7.5457e+002 -6.1120e+002  2.4046e+002 29972 107010,107088,107036
 2.1000e+000 107218 -3.6748e+002 -4.0008e+002  6.7990e+001 29972 107036,107088,107062
 2.1000e+000 107783 -6.7432e+002 -9.5322e+002  4.3496e+002 29724 107878,107806,107590
 2.1000e+000 107760 -7.5084e+002 -9.5457e+002  3.4144e+002 29724 107806,107512,107486
 2.1000e+000 107737 -7.1000e+002 -8.9415e+002  5.3210e+002 29724 107878,107590,107538
 2.1000e+000 107714 -6.2082e+002 -1.0078e+003  4.4105e+002 29724 107950,107460,107616
 2.1000e+000 107691 -5.2165e+002 -9.5500e+002  4.1357e+002 29724 107460,107642,107616
 2.1000e+000 107668 -4.7054e+002 -7.5821e+002  5.9697e+002 29724 107538,107590,107564
 2.1000e+000 107832 -4.3219e+002 -9.1009e+002  4.7868e+002 29724 107616,107590,107806
 2.1000e+000 107855 -6.3490e+002 -1.0166e+003  4.2602e+002 29724 107950,107616,107806
 2.1000e+000 107904 -5.9738e+002 -8.0225e+002  4.0467e+002 29724 107512,107806,107878
 2.1000e+000 107927 -6.5264e+002 -7.2466e+002  5.1559e+002 29724 107512,107878,107538
 2.1000e+000 107976 -3.2010e+002 -1.0081e+003  4.8055e+002 29724 107486,107460,107950
 2.1000e+000 107999 -5.9823e+002 -1.0859e+003  4.0577e+002 29724 107486,107950,107806
 2.1000e+000 108296 -7.1159e+002 -5.6326e+002  3.9420e+002 29206 108319,108100,108048
 2.1000e+000 108273 -4.2364e+002 -4.9435e+002  4.4570e+002 29206 108319,108048,108022
 2.1000e+000 108250 -2.1689e+002 -6.1333e+002  5.3711e+002 29206 108391,108152,108126
 2.1000e+000 108227 -7.8895e+002 -4.1152e+002  4.5888e+002 29206 108048,108100,108074
 2.1000e+000 108204 -3.2796e+002 -8.7202e+002  4.4835e+002 29206 108022,108178,108152
 2.1000e+000 108345 -5.2096e+002 -3.5519e+002  5.6474e+002 29206 108126,108100,108319
 2.1000e+000 108368 -2.9251e+002 -4.8607e+002  6.1388e+002 29206 108391,108126,108319
 2.1000e+000 108417 -4.2513e+002 -7.7276e+002  4.4976e+002 29206 108022,108152,108391
 2.1000e+000 108440 -4.8228e+002 -6.7615e+002  5.3016e+002 29206 108022,108391,108319
 2.1000e+000 108688 -6.0959e+002 -8.0565e+002  4.4484e+002 28595 108711,108541,108515
 2.1000e+000 108665 -9.1050e+002 -8.9121e+002  6.3131e+002 28595 108783,108711,108515
 2.1000e+000 108642 -1.1541e+003 -7.5740e+002  6.4744e+002 28595 108783,108515,108489
 2.1000e+000 108619 -1.2021e+003 -9.1571e+002  3.2762e+002 28595 108463,108593,108489
 2.1000e+000 108737 -5.5274e+002 -6.3408e+002  3.1881e+002 28595 108567,108541,108711
 2.1000e+000 108760 -4.5487e+002 -7.2023e+002  5.3821e+002 28595 108567,108711,108593
 2.1000e+000 108809 -5.6305e+002 -8.6451e+002  4.7150e+002 28595 108593,108711,108783
 2.1000e+000 108832 -9.0279e+002 -7.7342e+002  4.3466e+002 28595 108593,108783,108489
 2.1000e+000 109033 -1.6721e+002 -3.2081e+002  1.4533e+002 28091 108909,108961,108935
 2.1000e+000 109010 -2.1650e+002 -3.1264e+002  1.3582e+002 28091 108857,108961,108909
 2.1000e+000 108987 -4.5177e+002 -5.6252e+002  4.2307e+002 28091 108857,108909,108883
 2.1000e+000 109136 -5.6992e+002 -1.3515e+003  2.3846e+002 27587 109058,109110,109084
 2.1000e+000 109695 -6.0082e+002 -5.9383e+002  2.1392e+002 26969 109718,109375,109323
 2.1000e+000 109672 -5.6545e+002 -5.6810e+002  1.3758e+002 26969 109718,109323,109505
 2.1000e+000 109649 -5.8369e+002 -2.2025e+002  8.8595e+001 26969 109790,109453,109427
 2.1000e+000 109626 -1.9976e+002 -6.2727e+002  2.6895e+002 26969 109323,109375,109349
 2.1000e+000 109603 -5.2164e+002 -6.2672e+002  1.7436e+002 26969 109323,109531,109505
 2.1000e+000 109580 -2.7105e+002 -5.6527e+002  7.6798e+001 26969 109375,109427,109401
 2.1000e+000 109557 -6.1562e+002 -4.7492e+002  2.2068e+002 26969 109453,109505,109479
 2.1000e+000 109744 -5.7481e+002 -6.1180e+002  1.0053e+002 26969 109427,109375,109718
 2.1000e+000 109767 -5.0169e+002 -3.6074e+002  5.6415e+001 26969 109790,109427,109718
 2.1000e+000 109816 -5.7802e+002 -3.8623e+002  1.4978e+002 26969 109505,109453,109790
 2.1000e+000 109839 -5.2500e+002 -5.5184e+002  1.3997e+002 26969 109505,109790,109718
 2.1000e+000 110266 -3.8568e+002 -6.2321e+002  1.9361e+002 26515 110361,110289,110099
 2.1000e+000 110243 -2.5435e+002 -4.5553e+002  1.7260e+002 26515 110289,109995,109943
 2.1000e+000 110220 -5.5347e+002 -6.8203e+002  1.5862e+002 26515 110361,110099,110021
 2.1000e+000 110197 -4.7703e+002 -1.4183e+003  1.2781e+002 26515 110047,110099,110073
 2.1000e+000 110174 -5.3293e+002 -1.2318e+003 -1.5139e+002 26515 110021,110099,110047
 2.1000e+000 110151 -3.8808e+001 -1.1489e+002  2.6462e+002 26515 109943,109995,109969
 2.1000e+000 110315 -5.4044e+002 -4.0472e+002  1.3672e+002 26515 110125,110099,110289
 2.1000e+000 110338 -4.3964e+002 -1.7518e+002  3.4640e+002 26515 110125,110289,109943
 2.1000e+000 110387 -5.4633e+002 -6.3658e+002  2.4314e+001 26515 109995,110289,110361
 2.1000e+000 110410 -6.7673e+002 -6.4608e+002  4.9729e+000 26515 109995,110361,110021
 2.1000e+000 110609 -1.2567e+002 -7.9314e+002  2.5826e+002 25789 110906,110762,110632
 2.1000e+000 110586 -1.5624e+002 -9.5607e+002  2.8309e+002 25789 110762,110433,110537
 2.1000e+000 110563 -4.4919e+002 -8.9679e+002  4.6315e+002 25789 110834,110459,110433
 2.1000e+000 110658 -2.2991e+002 -7.7163e+002  3.4669e+002 25789 110906,110632,110834
 2.1000e+000 110788 -8.5209e+001 -5.5101e+002  1.6240e+002 25789 110511,110632,110762
 2.1000e+000 110811 -1.5314e+002 -7.9892e+002  2.8638e+002 25789 110511,110762,110537
 2.1000e+000 110860 -2.7971e+002 -7.8629e+002  3.9630e+002 25789 110485,110459,110834
 2.1000e+000 110883 -3.3517e+002 -7.7582e+002  3.5615e+002 25789 110485,110834,110632
 2.1000e+000 110932 -3.6098e+002 -8.7019e+002  2.8002e+002 25789 110433,110762,110906
 2.1000e+000 110955 -4.4464e+002 -8.2086e+002  3.5203e+002 25789 110433,110906,110834
 2.1000e+000 111350 -4.3265e+002 -6.8783e+002  3.9807e+002 25228 111445,111373,111186
 2.1000e+000 111327 -4.8465e+002 -6.6374e+002  1.2449e+002 25228 110978,111186,111004
 2.1000e+000 111304 -4.7966e+002 -8.8093e+002  3.5908e+002 25228 111373,111108,111082
 2.1000e+000 111281 -4.4321e+002 -9.2413e+002  3.3990e+002 25228 111134,111186,111160
 2.1000e+000 111258 -4.2845e+002 -6.6682e+002  3.9228e+002 25228 111445,111186,111134
 2.1000e+000 111235 -4.0999e+002 -5.1099e+002  2.3272e+002 25228 111517,111030,111004
 2.1000e+000 111212 -5.7276e+002 -6.5115e+002  3.7615e+002 25228 111030,111082,111056
 2.1000e+000 111399 -4.6551e+002 -7.6516e+002  3.7515e+002 25228 111004,111186,111373
 2.1000e+000 111422 -3.5094e+002 -6.1129e+002  3.0704e+002 25228 111517,111004,111373
 2.1000e+000 111471 -4.3403e+002 -6.7257e+002  3.6980e+002 25228 111108,111373,111445
 2.1000e+000 111494 -4.2810e+002 -6.4726e+002  3.6453e+002 25228 111108,111445,111134
 2.1000e+000 111543 -5.1190e+002 -5.5791e+002  3.4898e+002 25228 111082,111030,111517
 2.1000e+000 111566 -4.6662e+002 -7.0236e+002  4.2247e+002 25228 111082,111517,111373
 2.1000e+000 112074 -2.8590e+002 -4.5760e+002  2.9591e+002 24338 112097,111907,111881
 2.1000e+000 112051 -4.6715e+002 -4.4288e+002  1.8178e+002 24338 112097,111881,111829
 2.1000e+000 112028 -1.4288e+002 -5.1700e+002  1.0074e+002 24338 111829,111881,111855
 2.1000e+000 112005 -6.3087e+002 -7.5630e+002  1.9804e+002 24338 111777,111933,111829
 2.1000e+000 111982 -8.9149e+002 -2.4902e+002  2.3888e+002 24338 111751,111933,111777
 2.1000e+000 111959 -7.2687e+002 -7.1086e+002  1.7264e+002 24338 111777,111829,111803
 2.1000e+000 112123 -4.6359e+002 -7.6219e+002  2.1923e+002 24338 111933,111907,112097
 2.1000e+000 112146 -5.1657e+002 -4.9942e+002  1.5880e+002 24338 111933,112097,111829
 2.1000e+000 112443 -6.6597e+002 -5.2900e+002  3.2691e+002 23998 112466,112299,112247
 2.1000e+000 112420 -7.2121e+002 -8.6051e+002  2.7756e+002 23998 112466,112247,112221
 2.1000e+000 112397 -4.8358e+002 -9.7030e+002  4.3518e+002 23998 112169,112325,112221
 2.1000e+000 112374 -4.8372e+002 -9.1365e+002  4.2727e+002 23998 112169,112221,112195
 2.1000e+000 112351 -2.6368e+002 -4.8880e+002  3.6256e+002 23998 112247,112299,112273
 2.1000e+000 112492 -6.0111e+002 -5.9850e+002  5.1804e+002 23998 112325,112299,112466
 2.1000e+000 112515 -6.7640e+002 -7.8013e+002  4.3987e+002 23998 112325,112466,112221
 2.1000e+000 113200 -7.3741e+002 -9.5048e+002  6.3452e+002 23480 112779,112961,112805
 2.1000e+000 113177 -8.2513e+002 -6.0687e+002  2.5700e+002 23480 112779,112987,112961
 2.1000e+000 113154 -1.7454e+002 -4.8570e+002  3.9396e+002 23480 112805,112961,112883
 2.1000e+000 113131 -4.5625e+002 -8.5668e+002  4.5132e+002 23480 112883,112935,112909
 2.1000e+000 113108 -6.0387e+002 -6.7063e+002  4.6949e+002 23480 112883,112961,112935
 2.1000e+000 113085 -2.1607e+002 -3.7779e+002  1.9617e+002 23480 112831,112883,112857
 2.1000e+000 113062 -3.6857e+002 -4.7866e+002  2.6698e+002 23480 112805,112883,112831
 2.1000e+000 113039 -8.0790e+002 -4.9081e+002  2.4508e+002 23480 112779,113013,112987
 2.1000e+000 113676 -7.4940e+002 -3.6333e+002  5.7686e+002 23018 113699,113434,113356
 2.1000e+000 113653 -6.5064e+002 -3.4608e+002  2.9019e+002 23018 113771,113699,113356
 2.1000e+000 113630 -5.7761e+002 -5.6471e+002  1.8631e+002 23018 113771,113356,113512
 2.1000e+000 113607 -3.6876e+002 -8.3970e+002  3.4264e+002 23018 113330,113512,113356
 2.1000e+000 113584 -1.4004e+003 -8.4647e+002  8.3088e+002 23018 113356,113434,113382
 2.1000e+000 113561 -1.4692e+002 -7.8570e+002  3.4009e+002 23018 113304,113512,113330
 2.1000e+000 113538 -1.5414e+003 -3.1650e+002  3.5148e+002 23018 113382,113434,113408
 2.1000e+000 113725 -8.5394e+002 -6.2247e+002  5.9714e+002 23018 113460,113434,113699
 2.1000e+000 113748 -9.0805e+002 -6.6630e+002  3.5954e+002 23018 113460,113699,113486
 2.1000e+000 113797 -8.5199e+002 -6.7617e+002  3.7585e+002 23018 113486,113699,113771
 2.1000e+000 113820 -6.5729e+002 -7.1153e+002  2.2403e+002 23018 113486,113771,113512
 2.1000e+000 114424 -4.2231e+002 -5.3949e+002  1.1917e+002 22514 114447,114133,114029
 2.1000e+000 114401 -4.2196e+002 -6.7296e+002  1.0872e+002 22514 114447,114029,114237
 2.1000e+000 114378 -2.7539e+002 -3.9630e+002  1.5842e+002 22514 114133,114211,114185
 2.1000e+000 114355 -5.4369e+002 -4.0636e+002  1.1205e+002 22514 114133,114185,114159
 2.1000e+000 114332 -3.2618e+002 -7.2345e+002  2.5633e+002 22514 114003,114237,114029
 2.1000e+000 114309 -4.9440e+002 -4.9918e+002  6.2536e+001 22514 114029,114133,114055
 2.1000e+000 114286 -6.4055e+002 -4.2641e+002  1.4267e+002 22514 114055,114133,114107
 2.1000e+000 114263 -4.7535e+002 -7.8529e+001  2.2463e+002 22514 114055,114107,114081
 2.1000e+000 114473 -4.4295e+002 -4.7066e+002  1.7471e+002 22514 114211,114133,114447
 2.1000e+000 114496 -4.1852e+002 -5.6996e+002  1.6271e+002 22514 114211,114447,114237
 2.1000e+000 114597 -3.3417e+002 -8.4888e+002  4.3062e+002 22316 114620,114571,114545
 2.1000e+000 114646 -3.3417e+002 -8.4888e+002  4.3062e+002 22316 114519,114571,114620
 2.1000e+000 115127 -6.6513e+002 -6.2462e+002  2.5558e+002 21612 115150,114905,114879
 2.1000e+000 115104 -7.9556e+002 -3.9503e+002  2.9932e+002 21612 115150,114879,114853
 2.1000e+000 115081 -4.7119e+002 -2.0599e+002  4.1589e+002 21612 115222,114931,114905
 2.1000e+000 115058 -5.4990e+002 -5.1144e+002  3.2176e+002 21612 115222,114905,115009
 2.1000e+000 115035 -1.7253e+002 -5.7428e+002  1.3708e+002 21612 114957,115009,114983
 2.1000e+000 115176 -5.8827e+002 -4.6407e+002  2.3226e+002 21612 115009,114905,115150
 2.1000e+000 115199 -6.9635e+002 -1.9961e+002  2.6544e+002 21612 115009,115150,114853
 2.1000e+000 115248 -4.5700e+002 -4.8486e+002  3.1684e+002 21612 114957,114931,115222
 2.1000e+000 115271 -5.3126e+002 -7.8002e+002  2.2047e+002 21612 114957,115222,115009
 2.1000e+000 115519 -1.9118e+002  6.8186e+001  1.9683e+002 21208 115542,115372,115320
 2.1000e+000 115496 -7.8422e+000  1.9238e+002  2.1252e+001 21208 115542,115320,115294
 2.1000e+000 115473 -1.2250e+002 -3.1199e+002  2.6807e+002 21208 115320,115372,115346
 2.1000e+000 115450 -4.2722e+002 -1.6411e+002  1.2745e+002 21208 115294,115424,115398
 2.1000e+000 115568 -2.6785e+002 -1.0904e+000  2.7200e+002 21208 115398,115372,115542
 2.1000e+000 115591 -1.9935e+002 -1.0630e+002  1.2801e+002 21208 115398,115542,115294
 2.1000e+000 115839 -5.1906e+002 -4.2308e+002  3.8481e+002 20668 115862,115640,115614
 2.1000e+000 115816 -5.4506e+002 -4.7792e+002  3.9370e+002 20668 115862,115614,115744
 2.1000e+000 115793 -5.5216e+002 -2.8973e+002  3.9495e+002 20668 115640,115718,115692
 2.1000e+000 115770 -8.3501e+002 -2.7022e+002  3.4693e+002 20668 115640,115692,115666
 2.1000e+000 115888 -5.5475e+002 -3.2825e+002  4.3129e+002 20668 115718,115640,115862
 2.1000e+000 115911 -6.0480e+002 -4.3088e+002  4.4656e+002 20668 115718,115862,115744
 2.1000e+000 116134 -4.7323e+002 -7.4321e+002  4.3882e+002 20264 115958,116036,115984
 2.1000e+000 116111 -2.4578e+002 -6.3553e+002  4.0843e+002 20264 115958,116062,116036
 2.1000e+000 116088 -2.6424e+002 -7.0104e+002  4.7589e+002 20264 115984,116036,116010
 2.1000e+000 116384 -6.5281e+002 -4.7330e+002  5.1616e+002 19924 116407,116211,116159
 2.1000e+000 116361 -6.0870e+002 -8.1789e+002  4.1063e+002 19924 116407,116159,116263
 2.1000e+000 116338 -6.2826e+002 -3.3288e+002  5.0212e+002 19924 116159,116211,116185
 2.1000e+000 116315 -4.1935e+002 -8.1797e+002  4.7517e+002 19924 116159,116289,116263
 2.1000e+000 116433 -6.1025e+002 -2.8632e+002  6.0272e+002 19924 116237,116211,116407
 2.1000e+000 116456 -4.2824e+002 -5.1293e+002  5.4102e+002 19924 116237,116407,116263
 2.1000e+000 116608 -3.2273e+002 -4.8761e+001  3.1997e+002 19520 116703,116631,116533
 2.1000e+000 116585 -2.5686e+002 -1.2545e+002  2.2673e+002 19520 116631,116507,116481
 2.1000e+000 116657 -2.1624e+002 -1.4604e+002  3.4674e+002 19520 116559,116533,116631
 2.1000e+000 116680 -2.5913e+002 -3.5237e+002  2.4420e+002 19520 116559,116631,116481
 2.1000e+000 116729 -3.2273e+002 -4.8761e+001  3.1997e+002 19520 116507,116631,116703
 2.1000e+000 116952 -6.0752e+002 -5.7908e+002  7.6158e+002 19208 116975,116802,116776
 2.1000e+000 116929 -7.8550e+002 -1.0310e+003  4.3974e+002 19208 116975,116776,116880
 2.1000e+000 116906 -9.0076e+002 -3.7788e+002  5.2909e+002 19208 116802,116854,116828
 2.1000e+000 117001 -4.7447e+002 -4.9636e+002  7.9768e+002 19208 116854,116802,116975
 2.1000e+000 117024 -1.9872e+002 -6.1142e+002  6.3081e+002 19208 116854,116975,116880
 2.1000e+000 117428 -5.7564e+002 -1.9247e+002  4.0860e+002 18796 117154,117206,117180
 2.1000e+000 117405 -3.9079e+002 -4.7636e+002  3.5705e+002 18796 117154,117284,117206
 2.1000e+000 117382 -2.1912e+002 -4.0427e+002  3.4121e+002 18796 117154,117310,117284
 2.1000e+000 117359 -1.9892e+002 -3.3475e+002  4.6630e+002 18796 117206,117284,117258
 2.1000e+000 117336  4.0447e+001 -3.4665e+001  6.5691e+002 18796 117206,117258,117232
 2.1000e+000 117529 -2.8220e+002 -1.7328e+002  1.9253e+002 18228 117810,117552,117477
 2.1000e+000 117578 -6.5138e+002 -4.3762e+002  3.1153e+002 18228 117682,117552,117503
 2.1000e+000 117708 -2.1982e+002 -1.9188e+002  1.7868e+002 18228 117477,117552,117682
 2.1000e+000 117836 -4.1509e+002 -4.3228e+002  2.6136e+002 18228 117451,117552,117810
 2.1000e+000 118364 -6.8438e+002 -1.8656e+002  3.0060e+002 17722 118067,118223,118093
 2.1000e+000 118341 -6.4963e+002 -1.5351e+002  3.1934e+002 17722 118041,118223,118067
 2.1000e+000 118318 -3.5908e+002 -2.0142e+002  2.0798e+002 17722 118093,118223,118197
 2.1000e+000 118295 -1.0384e+003 -1.1717e+003  7.5642e+002 17722 118119,118197,118171
 2.1000e+000 118272 -1.2289e+002  2.4789e+001  3.3732e+002 17722 118093,118197,118119
 2.1000e+000 118249 -8.3957e+002 -9.0333e+002  8.5574e+002 17722 118119,118171,118145
 2.1000e+000 118514 -1.2253e+003 -4.6756e+002  4.2932e+002 17268 118387,118439,118413
 2.1000e+000 118491 -5.7967e+001 -4.9900e+002  3.9536e+002 17268 118387,118465,118439
 2.1000e+000 118916 -7.0489e+002 -1.8010e+002  2.7072e+002 16828 118668,118772,118694
 2.1000e+000 118893 -9.5644e+002 -2.9474e+002  2.3587e+002 16828 118668,118798,118772
 2.1000e+000 118870 -1.0450e+003 -5.6466e+002  1.5549e+002 16828 118642,118798,118668
 2.1000e+000 118847 -1.1396e+002 -1.4181e+001  4.3495e+002 16828 118694,118746,118720
 2.1000e+000 118824 -7.5103e+002 -3.9648e+002  2.2178e+002 16828 118694,118772,118746
 2.1000e+000 119316 -2.6129e+002 -2.1969e+002  3.8242e+002 16422 119042,119172,119094
 2.1000e+000 119293 -3.9697e+002 -2.7575e+002  3.7372e+002 16422 119042,119198,119172
 2.1000e+000 119270 -5.3880e+002 -8.0551e+001  2.0570e+002 16422 119042,119094,119068
 2.1000e+000 119247 -3.4461e+001 -4.0127e+001  5.8573e+002 16422 119094,119146,119120
 2.1000e+000 119224 -1.9494e+002 -1.1137e+002  4.1190e+002 16422 119094,119172,119146
 2.1000e+000 119466 -5.0421e+002  2.1755e+001  4.4617e+001 16010 119339,119391,119365
 2.1000e+000 119443 -9.0384e+001 -1.2991e+002  3.3598e+002 16010 119339,119417,119391
 2.1000e+000 119616 -1.2145e+002  5.1423e+001  2.8071e+002 15547 119515,119567,119541
 2.1000e+000 119593  2.8751e+002  3.7991e+002  8.9978e+002 15547 119489,119567,119515
 2.1000e+000 119719 -8.4430e+002 -3.1760e+002  4.4497e+002 421 119641,119693,119667
 2.2000e+000 69562 -8.1424e+002 -4.0342e+002  6.7028e+002 69254 69484,69536,69510
 2.2000e+000 70009 -4.6769e+002 -4.1489e+002  3.7281e+002 68942 69686,69842,69816
 2.2000e+000 69986 -4.3709e+002 -1.6187e+002  2.2484e+002 68942 69686,69868,69842
 2.2000e+000 69963 -2.5148e+002 -1.0223e+002  4.8107e+002 68942 69686,69816,69712
 2.2000e+000 69940 -1.3848e+002 -1.2039e+002  6.7058e+002 68942 69712,69790,69738
 2.2000e+000 69917 -6.7255e+002 -1.0915e+003  4.2329e+002 68942 69712,69816,69790
 2.2000e+000 69894 -4.5644e+001 -5.8415e+002  2.5075e+002 68942 69738,69790,69764
 2.2000e+000 70110 -3.9664e+002 -7.9663e+001  2.8331e+002 68766 70032,70084,70058
 2.2000e+000 70746 -4.7691e+002 -2.6184e+002  2.8682e+002 68448 70400,70556,70426
 2.2000e+000 70723 -9.3386e+002 -3.4963e+002  3.9654e+002 68448 70374,70556,70400
 2.2000e+000 70700 -6.2829e+002 -2.4217e+002  1.9304e+002 68448 70426,70556,70478
 2.2000e+000 70677 -7.9536e+002 -2.7350e+002  1.8700e+002 68448 70478,70556,70504
 2.2000e+000 70654 -5.6342e+002 -3.1397e+002  1.2379e+002 68448 70426,70478,70452
 2.2000e+000 70631 -9.1916e+002 -3.3614e+002  5.0286e+002 68448 70374,70582,70556
 2.2000e+000 70608 -7.9966e+002 -4.7052e+002  2.4829e+002 68448 70504,70556,70530
 2.2000e+000 70896 -8.8063e+002 -1.7699e+002  5.5039e+001 68250 70795,70847,70821
 2.2000e+000 70873 -1.6232e+003 -4.9064e+002  1.1488e+002 68250 70769,70847,70795
 2.2000e+000 70997 -2.2544e+003 -1.1042e+003  9.8865e+002 68052 70919,70971,70945
 2.2000e+000 71367 -6.9305e+002 -1.1126e+003  4.1184e+002 67740 71096,71226,71200
 2.2000e+000 71344 -4.3724e+002 -6.3019e+002  5.2129e+002 67740 71044,71226,71096
 2.2000e+000 71321  7.4533e+001 -7.4533e+001  8.2607e+002 67740 71044,71096,71070
 2.2000e+000 71298 -4.9701e+002 -1.2020e+003  8.1140e+002 67740 71096,71200,71174
 2.2000e+000 71275 -3.0248e+002 -7.3387e+002  2.7580e+002 67740 71096,71148,71122
 2.2000e+000 71252 -4.1057e+002 -8.5792e+002  5.2603e+002 67740 71096,71174,71148
 2.2000e+000 71519  2.5002e+002  1.9312e+002  2.6503e+002 67542 71418,71470,71444
 2.2000e+000 71496  4.6204e+002  8.3578e+002  8.3136e+002 67542 71392,71470,71418
 2.2000e+000 71923 -1.2157e+002  5.9937e+001  2.2330e+002 67230 71649,71779,71675
 2.2000e+000 71900 -6.8136e+001 -1.8069e+002  1.1065e+002 67230 71649,71805,71779
 2.2000e+000 71877 -1.1393e+002 -2.5577e+001  4.3130e+002 67230 71675,71727,71701
 2.2000e+000 71854 -1.6965e+002 -6.4949e+002  3.9520e+002 67230 71675,71753,71727
 2.2000e+000 71831 -1.9307e+002 -3.6969e+002  2.7252e+002 67230 71675,71779,71753
 2.2000e+000 72433 -5.5517e+002 -2.4745e+002  3.8025e+002 67032 72038,72246,72220
 2.2000e+000 72410 -2.7319e+002  1.4191e+001  1.8943e+002 67032 72012,72246,72038
 2.2000e+000 72387 -5.1504e+002 -1.9516e+002  4.0498e+002 67032 72064,72194,72168
 2.2000e+000 72364 -5.5443e+002 -2.0625e+002  4.2750e+002 67032 72038,72194,72064
 2.2000e+000 72341 -7.5306e+002 -7.1437e+002  3.7170e+002 67032 72038,72220,72194
 2.2000e+000 72318 -1.2682e+002  1.0856e+002  2.0459e+002 67032 72090,72168,72142
 2.2000e+000 72295 -5.9212e+001  1.4465e+000  4.2033e+002 67032 72064,72168,72090
 2.2000e+000 72272 -1.5753e+002  6.5461e+001  1.8035e+002 67032 72090,72142,72116
 2.2000e+000 72933 -3.7539e+002 -4.4384e+002  4.3134e+002 66628 72956,72665,72613
 2.2000e+000 72910 -3.3692e+002 -4.4368e+002  4.3887e+002 66628 73100,72956,72613
 2.2000e+000 72887 -4.6772e+002 -6.6547e+002  3.4213e+002 66628 73028,72691,72665
 2.2000e+000 72864 -3.0474e+002 -3.9040e+002  4.6317e+002 66628 73100,72613,72587
 2.2000e+000 72841 -3.6146e+002 -4.2600e+002  3.9716e+002 66628 72613,72665,72639
 2.2000e+000 72818  7.0289e+001  1.7562e+000  5.6504e+002 66628 72587,72769,72743
 2.2000e+000 72795 -4.2371e+002 -9.3508e+002  1.0834e+002 66628 72561,72769,72587
 2.2000e+000 72982 -4.5364e+002 -4.7766e+002  4.6043e+002 66628 73028,72665,72956
 2.2000e+000 73005 -3.8471e+002 -1.4071e+002  4.3896e+002 66628 72717,72956,72743
 2.2000e+000 73054 -6.9217e+002 -5.3907e+002  2.0575e+002 66628 72717,72691,73028
 2.2000e+000 73077 -6.7965e+002 -4.7680e+002  3.1110e+002 66628 72717,73028,72956
 2.2000e+000 73126 -3.8427e+002 -4.4333e+002  3.7494e+002 66628 72743,72956,73100
 2.2000e+000 73149 -3.4667e+002 -3.9751e+002  3.9936e+002 66628 72743,73100,72587
 2.2000e+000 73606 -5.0333e+002 -4.2968e+002  3.9642e+002 66281 73332,73384,73358
 2.2000e+000 73583 -6.3562e+002 -4.7719e+002  3.1125e+002 66281 73332,73462,73384
 2.2000e+000 73560 -7.6134e+002 -4.9255e+002  3.2167e+002 66281 73384,73462,73436
 2.2000e+000 73537 -1.1937e+003 -6.8459e+002  5.3875e+002 66281 73332,73488,73462
 2.2000e+000 73514 -8.6412e+002 -4.9809e+002  2.3819e+002 66281 73384,73436,73410
 2.2000e+000 73984 -1.3875e+002 -1.2070e+002  8.7564e+001 65969 73736,73814,73788
 2.2000e+000 73961 -4.7607e+001 -6.7045e+001  6.5264e+001 65969 73736,73866,73814
 2.2000e+000 73938 -1.4997e+002 -1.5337e+002  1.7090e+002 65969 73814,73866,73840
 2.2000e+000 73915 -4.2237e+001 -7.8492e+001  6.1647e+001 65969 73710,73866,73736
 2.2000e+000 73892 -1.3674e+002 -2.7246e+002 -3.1937e+001 65969 73736,73788,73762
 2.2000e+000 74232 -3.4091e+002 -4.3163e+002  4.0702e+002 65572 74255,74085,74033
 2.2000e+000 74209 -3.2269e+002 -4.6615e+002  3.5514e+002 65572 74327,74255,74033
 2.2000e+000 74186 -3.6174e+002 -3.6838e+002  3.5701e+002 65572 74327,74033,74007
 2.2000e+000 74163 -3.9046e+002 -4.9519e+002  4.3266e+002 65572 74033,74085,74059
 2.2000e+000 74281 -4.1278e+002 -5.3017e+002  4.9594e+002 65572 74111,74085,74255
 2.2000e+000 74304 -2.7544e+002 -4.7307e+002  3.9290e+002 65572 74111,74255,74137
 2.2000e+000 74353 -2.8222e+002 -3.5847e+002  3.2176e+002 65572 74137,74255,74327
 2.2000e+000 74376 -3.4299e+002 -2.8580e+002  3.2975e+002 65572 74137,74327,74007
 2.2000e+000 74884 -3.6633e+002 -4.2742e+002  3.4351e+002 65174 74587,74717,74613
 2.2000e+000 74861 -4.5602e+002 -5.0498e+002  2.5704e+002 65174 74561,74717,74587
 2.2000e+000 74838 -3.8135e+002 -5.4457e+002  3.0116e+002 65174 74613,74691,74639
 2.2000e+000 74815 -3.7439e+002 -5.3861e+002  3.1403e+002 65174 74613,74717,74691
 2.2000e+000 74792 -1.9547e+002 -8.4263e+002  2.2970e+002 65174 74639,74691,74665
 2.2000e+000 74769 -7.4873e+002 -1.7179e+002  3.0514e+002 65174 74561,74743,74717
 2.2000e+000 75412 -1.2678e+001 -2.7587e+002  8.1946e+002 64770 75167,75245,75219
 2.2000e+000 75389 -3.6209e+002 -7.6123e+002  5.5802e+002 64770 75115,75245,75167
 2.2000e+000 75366 -3.1053e+002 -9.9684e+002  7.2200e+002 64770 75089,75245,75115
 2.2000e+000 75343 -5.1402e+002 -2.2108e+002  5.9802e+002 64770 75167,75219,75193
 2.2000e+000 75320 -2.8906e+002 -6.1986e+002  5.9808e+002 64770 75115,75167,75141
 2.2000e+000 75297 -5.0502e+002 -1.4097e+003  7.7543e+002 64770 75089,75271,75245
 2.2000e+000 75861 -9.1980e+002 -4.3097e+002  7.0583e+002 64316 75538,75694,75564
 2.2000e+000 75838 -4.8242e+002 -2.0391e+002  4.9632e+002 64316 75538,75720,75694
 2.2000e+000 75815 -8.0476e+002 -5.8480e+002  5.4380e+002 64316 75590,75694,75642
 2.2000e+000 75792 -7.6745e+002 -7.3064e+002  6.0083e+002 64316 75564,75694,75590
 2.2000e+000 75769 -2.1202e+002 -9.1339e+002  2.7366e+002 64316 75590,75642,75616
 2.2000e+000 75746 -7.0160e+002 -2.9637e+002  5.0110e+002 64316 75642,75694,75668
 2.2000e+000 76239 -1.1522e+003 -9.5401e+002  4.9608e+002 64018 76262,76095,76043
 2.2000e+000 76216 -8.9004e+002 -9.1979e+002  3.9962e+002 64018 76262,76043,76017
 2.2000e+000 76193 -4.5305e+002 -5.1797e+002  3.9668e+002 64018 75991,76121,76017
 2.2000e+000 76170 -1.0798e+003 -7.7770e+002  7.3425e+002 64018 76043,76095,76069
 2.2000e+000 76147 -1.0278e+001 -5.0313e+002  7.9689e+001 64018 75965,76121,75991
 2.2000e+000 76288 -8.7030e+002 -1.1029e+003  6.1883e+002 64018 76121,76095,76262
 2.2000e+000 76311 -6.5979e+002 -1.0885e+003  4.8599e+002 64018 76121,76262,76017
 2.2000e+000 76866 -3.7177e+002 -4.7387e+002  4.5208e+002 63728 76520,76676,76546
 2.2000e+000 76843 -3.9427e+002 -4.8557e+002  3.7300e+002 63728 76520,76702,76676
 2.2000e+000 76820 -2.7744e+002 -4.2322e+002  3.8574e+002 63728 76546,76650,76572
 2.2000e+000 76797 -5.3599e+002 -5.1945e+002  3.9258e+002 63728 76546,76676,76650
 2.2000e+000 76774 -4.9708e+002 -7.6517e+001  2.2199e+002 63728 76572,76650,76624
 2.2000e+000 76751 -3.1815e+002 -4.6796e+002  3.8652e+002 63728 76494,76702,76520
 2.2000e+000 76728 -9.2208e+001 -2.3617e+002  1.4746e+002 63728 76572,76624,76598
 2.2000e+000 77065 -1.8170e+002 -4.0583e+002  3.5815e+002 63288 77088,76941,76915
 2.2000e+000 77042 -5.0159e+002 -5.0569e+002  3.4925e+002 63288 77088,76915,76993
 2.2000e+000 77019 -1.1255e+002 -5.6089e+002  2.4987e+002 63288 76889,76993,76915
 2.2000e+000 77114 -3.5573e+002 -4.3687e+002  2.9360e+002 63288 76967,76941,77088
 2.2000e+000 77137 -8.3108e+002 -5.5163e+002  1.5790e+002 63288 77160,77088,76993
 2.2000e+000 77186 -2.0505e+002 -2.7331e+002  2.3008e+002 63288 76967,77088,77160
 2.2000e+000 77417 -2.5945e+002 -3.9161e+002  1.6654e+002 62884 77440,77342,77316
 2.2000e+000 77394 -5.4947e+002 -5.2521e+002  7.3197e+001 62884 77770,77440,77316
 2.2000e+000 77466 -4.2039e+002 -5.5054e+002  4.4453e+001 62884 77512,77440,77368
 2.2000e+000 77489 -3.8187e+002 -5.0310e+002  3.2864e+001 62884 77642,77440,77290
 2.2000e+000 77538 -2.5204e+002 -4.2825e+002 -9.5128e+000 62884 77342,77440,77512
 2.2000e+000 77668 -4.3115e+002 -5.9368e+002  1.2835e+001 62884 77368,77440,77642
 2.2000e+000 77796 -4.1443e+002 -4.5792e+002  5.1078e+001 62884 77290,77440,77770
 2.2000e+000 78479 -8.2826e+002 -8.8467e+002  4.5724e+002 62480 78084,78240,78214
 2.2000e+000 78456 -5.5417e+002 -7.4302e+002  5.1574e+001 62480 78084,78266,78240
 2.2000e+000 78433 -6.1926e+002 -7.0535e+002  2.3896e+002 62480 78110,78214,78136
 2.2000e+000 78410 -6.8445e+002 -7.4984e+002  4.0166e+002 62480 78084,78214,78110
 2.2000e+000 78387 -4.8914e+002 -5.8693e+002  2.8861e+002 62480 78136,78214,78188
 2.2000e+000 78364 -5.0602e+002 -8.7647e+002 -3.3800e-001 62480 78058,78266,78084
 2.2000e+000 78341 -3.3312e+002 -5.0001e+002  2.3630e+002 62480 78136,78188,78162
 2.2000e+000 78318 -5.3806e+002 -6.5400e+002 -2.7537e+002 62480 78058,78292,78266
 2.2000e+000 78678 -5.7013e+002 -9.8261e+002  3.6222e+002 61926 78528,78606,78554
 2.2000e+000 78655 -2.3078e+002 -1.1227e+003  4.8192e+002 61926 78502,78606,78528
 2.2000e+000 78632 -3.8158e+002 -6.0822e+002  1.9838e+002 61926 78554,78606,78580
 2.2000e+000 79058 -5.4981e+002 -5.7526e+002  3.0718e+002 61614 78836,78914,78862
 2.2000e+000 79035 -6.8820e+002 -6.9730e+002  2.4892e+002 61614 78810,78914,78836
 2.2000e+000 79012 -4.5316e+002 -5.9704e+002  2.5932e+002 61614 78784,78914,78810
 2.2000e+000 78989 -4.9025e+002 -6.5109e+002  4.6248e+002 61614 78862,78914,78888
 2.2000e+000 78966 -3.9210e+002 -7.5201e+002  2.9182e+002 61614 78784,78940,78914
 2.2000e+000 79208 -4.2161e+002 -9.8320e+002  1.9596e+001 61366 79081,79133,79107
 2.2000e+000 79185 -4.2244e+002 -7.1573e+002  2.7764e+002 61366 79081,79159,79133
 2.2000e+000 79358  1.3988e+001  1.8484e+001  4.9118e+001 60962 79231,79283,79257
 2.2000e+000 79335 -1.5261e+002 -3.5917e+002  9.2203e+001 60962 79231,79309,79283
 2.2000e+000 79608 -3.5515e+002 -8.1768e+002  2.8437e+002 60508 79631,79435,79409
 2.2000e+000 79585 -2.3329e+002 -8.2873e+002  1.8102e+002 60508 79703,79631,79409
 2.2000e+000 79562 -1.7325e+002 -3.9651e+002  2.6342e+002 60508 79703,79409,79383
 2.2000e+000 79539 -8.2357e+002 -6.3903e+002  5.3722e+002 60508 79435,79487,79461
 2.2000e+000 79657 -4.0977e+002 -1.0078e+003  4.9622e+002 60508 79487,79435,79631
 2.2000e+000 79680 -2.0737e+002 -7.6085e+002  2.3950e+002 60508 79487,79631,79513
 2.2000e+000 79729 -1.4861e+002 -4.3706e+002  8.8781e+001 60508 79513,79631,79703
 2.2000e+000 79752 -2.6327e+002 -3.9562e+002  3.5733e+001 60508 79513,79703,79383
 2.2000e+000 80390 -4.8522e+002 -5.6440e+002  4.4073e+002 59997 80413,80096,80018
 2.2000e+000 80367 -8.0043e+002 -6.8172e+002  5.0047e+002 59997 80413,80018,80226
 2.2000e+000 80344 -4.3271e+002 -4.9102e+002  2.5827e+002 59997 80096,80174,80148
 2.2000e+000 80321 -1.4642e+003 -1.0433e+003  7.1223e+002 59997 80018,80096,80070
 2.2000e+000 80298 -6.6326e+002 -5.3147e+002  2.6633e+002 59997 80096,80148,80122
 2.2000e+000 80275 -4.8104e+002 -5.5891e+002  3.4209e+002 59997 80174,80226,80200
 2.2000e+000 80252 -9.0165e+002 -6.2925e+002  6.3405e+001 59997 80018,80070,80044
 2.2000e+000 80439 -4.1038e+002 -6.2807e+002  3.1879e+002 59997 80174,80096,80413
 2.2000e+000 80462 -5.4333e+002 -5.8831e+002  3.5082e+002 59997 80174,80413,80226
 2.2000e+000 80840 -7.0921e+002 -6.2121e+002  2.9701e+002 59443 80863,80644,80618
 2.2000e+000 80817 -2.4634e+002 -4.6904e+002  3.3238e+002 59443 80863,80618,80566
 2.2000e+000 80794 -2.2735e+002 -4.2404e+002  4.2947e+002 59443 81007,80935,80670
 2.2000e+000 80771 -3.4324e+002 -4.1618e+002  3.6060e+002 59443 80566,80722,80696
 2.2000e+000 80748 -3.0374e+002 -5.9598e+002  3.7014e+002 59443 80566,80618,80592
 2.2000e+000 80889 -7.9000e+002 -5.9838e+002  5.1318e+002 59443 80935,80644,80863
 2.2000e+000 80912 -5.1397e+002 -5.0229e+002  4.0443e+002 59443 80696,80863,80566
 2.2000e+000 80961 -4.2989e+002 -5.0088e+002  5.0408e+002 59443 80696,80670,80935
 2.2000e+000 80984 -4.1698e+002 -4.0438e+002  4.4369e+002 59443 80696,80935,80863
 2.2000e+000 81033 -5.7772e+002 -8.5145e+002  6.0756e+002 59443 80644,80935,81007
 2.2000e+000 81360 -7.4410e+002 -3.6864e+002  2.9596e+002 59031 81383,81187,81161
 2.2000e+000 81337 -6.6534e+002 -4.2801e+002  5.8338e+001 59031 81455,81383,81161
 2.2000e+000 81314 -5.5075e+002 -2.7495e+002  1.1888e+002 59031 81455,81161,81135
 2.2000e+000 81291 -1.2859e+003 -3.0007e+002  5.6406e+002 59031 81187,81239,81213
 2.2000e+000 81409 -8.0329e+002 -7.5696e+002  4.3414e+002 59031 81239,81187,81383
 2.2000e+000 81432 -8.1513e+002 -5.2143e+002  8.7162e+001 59031 81239,81383,81265
 2.2000e+000 81481 -7.5351e+002 -1.5314e+002  1.0093e+002 59031 81265,81383,81455
 2.2000e+000 81504 -7.5030e+002 -1.0327e+002  1.2217e+002 59031 81265,81455,81135
 2.2000e+000 81835 -9.4901e+001 -3.0934e+002  1.1539e+002 58577 81610,81714,81636
 2.2000e+000 81812 -7.5912e+001 -3.8980e+002  1.3423e+002 58577 81610,81740,81714
 2.2000e+000 81789 -2.5119e+002 -3.6316e+002  3.4486e+001 58577 81636,81714,81688
 2.2000e+000 81766 -2.2931e+002 -3.2319e+002 -7.0163e+001 58577 81636,81688,81662
 2.2000e+000 81985 -1.5342e+002 -3.7700e+002  2.2788e+002 58030 81884,81936,81910
 2.2000e+000 81962 -3.2686e+002 -1.0427e+002  1.5065e+002 58030 81858,81936,81884
 2.2000e+000 82414 -1.3065e+002 -5.3146e+001  1.7264e+002 57690 82437,82169,82117
 2.2000e+000 82391 -1.6274e+002 -2.1519e+002  1.9460e+002 57690 82437,82117,82247
 2.2000e+000 82368  8.0129e+001  1.1721e+002  4.3993e+002 57690 82195,82247,82221
 2.2000e+000 82345 -1.3367e+002 -2.0273e+002  1.9927e+002 57690 82091,82247,82117
 2.2000e+000 82322 -2.2531e+002 -6.2385e+001  1.1830e+002 57690 82117,82169,82143
 2.2000e+000 82299 -1.5335e+002 -3.7397e+002  2.7448e+002 57690 82091,82273,82247
 2.2000e+000 82463 -1.8533e+002  1.2614e+001  2.5030e+002 57690 82195,82169,82437
 2.2000e+000 82486 -1.9792e+002 -1.0432e+002  2.4620e+002 57690 82195,82437,82247
 2.2000e+000 83041 -3.7150e+002 -3.7603e+002  2.4994e+002 57172 83064,82721,82695
 2.2000e+000 83018 -4.1510e+002 -4.0587e+002  3.7142e+002 57172 83064,82695,82851
 2.2000e+000 82995 -1.1833e+003 -5.6172e+002  5.2077e+002 57172 82669,82851,82695
 2.2000e+000 82972 -6.9774e+002 -4.6561e+002  3.5127e+002 57172 82773,82851,82825
 2.2000e+000 82949 -6.6721e+002 -5.2807e+002  5.3454e+002 57172 82773,82825,82799
 2.2000e+000 82926 -4.7365e+002 -2.9071e+002  2.0460e+002 57172 82721,82773,82747
 2.2000e+000 82903 -1.1854e+003 -4.3008e+002  6.2575e+002 57172 82669,82877,82851
 2.2000e+000 83090 -5.6780e+002 -4.5366e+002  2.4441e+002 57172 82773,82721,83064
 2.2000e+000 83113 -4.7881e+002 -4.2800e+002  3.5825e+002 57172 82773,83064,82851
 2.2000e+000 83747 -4.3809e+002 -4.1363e+002  2.7414e+002 56554 83770,83427,83401
 2.2000e+000 83724 -4.7668e+002 -5.3029e+002  3.2556e+002 56554 83842,83770,83401
 2.2000e+000 83701 -4.3056e+001 -4.2265e+002  1.0440e+002 56554 83842,83401,83583
 2.2000e+000 83678 -9.2089e+002 -7.7808e+002  6.7524e+002 56554 83914,83531,83505
 2.2000e+000 83655 -5.5690e+002 -3.5727e+002  1.4445e+002 56554 83531,83583,83557
 2.2000e+000 83632 -1.2605e+002 -1.1916e+002  9.5235e+001 56554 83375,83583,83401
 2.2000e+000 83609 -4.9325e+002 -4.3233e+002  3.1119e+002 56554 83427,83479,83453
 2.2000e+000 83796 -4.4404e+002 -3.9639e+002  2.8139e+002 56554 83479,83427,83770
 2.2000e+000 83819 -5.1884e+002 -3.7636e+002  3.1481e+002 56554 83479,83770,83505
 2.2000e+000 83868 -3.2606e+002 -2.6329e+002  3.9441e+002 56554 83505,83770,83842
 2.2000e+000 83891 -6.0067e+002 -4.7744e+002  4.8791e+002 56554 83914,83505,83842
 2.2000e+000 83940 -4.2675e+002 -7.6260e+002  3.6546e+002 56554 83583,83531,83914
 2.2000e+000 83963 -2.0672e+002 -7.2693e+002  2.6802e+002 56554 83583,83914,83842
 2.2000e+000 84341 -2.0306e+002 -8.7871e+002  2.2566e+002 56192 84067,84145,84119
 2.2000e+000 84318 -1.1976e+002 -8.4965e+002  1.6806e+002 56192 84067,84223,84145
 2.2000e+000 84295 -3.1524e+002 -8.2282e+002 -2.5844e+001 56192 84145,84223,84197
 2.2000e+000 84272 -5.1615e+000 -1.3945e+003  3.5359e+002 56192 84067,84119,84093
 2.2000e+000 84249 -6.1723e+002 -2.3806e+002  1.3705e+002 56192 84145,84197,84171
 2.2000e+000 84611 -2.2480e+002 -5.9029e+002  4.2165e+002 55538 84386,84490,84412
 2.2000e+000 84588 -2.1791e+002 -5.1822e+002  4.0703e+002 55538 84386,84516,84490
 2.2000e+000 84565 -5.0288e+002 -7.1062e+002  4.0525e+002 55538 84412,84490,84464
 2.2000e+000 84542 -2.9558e+002 -7.1340e+002  2.5432e+002 55538 84412,84464,84438
 2.2000e+000 84942 -5.1485e+002 -4.5240e+002  3.8019e+002 55084 84769,84847,84795
 2.2000e+000 84919 -5.1450e+002 -5.0422e+002  3.2443e+002 55084 84717,84847,84769
 2.2000e+000 84896 -5.7898e+002 -6.5430e+002  3.1052e+002 55084 84717,84769,84743
 2.2000e+000 84873 -5.9543e+002 -2.3689e+002  3.2747e+002 55084 84795,84847,84821
 2.2000e+000 85271 -8.6037e+000 -1.5115e+002  2.1275e+002 54580 85294,85098,85072
 2.2000e+000 85248 -5.6403e+002 -3.8087e+002  3.4864e+002 54580 85294,85072,85176
 2.2000e+000 85225 -8.5469e+002 -1.6013e+001  1.0425e+002 54580 85124,85176,85150
 2.2000e+000 85202 -9.0385e+001 -3.2078e+002  7.4975e+001 54580 85046,85176,85072
 2.2000e+000 85320 -5.1377e+002 -1.5932e+002  2.9466e+002 54580 85124,85098,85294
 2.2000e+000 85343 -8.0721e+002 -1.6676e+002  3.8159e+002 54580 85124,85294,85176
 2.2000e+000 85542 -3.3222e+002 -5.6446e+002  2.3748e+002 53976 85565,85444,85418
 2.2000e+000 85519 -2.8937e+002 -4.8092e+002  2.5307e+002 53976 85565,85418,85366
 2.2000e+000 85496 -2.5100e+002 -4.3911e+002  2.0858e+002 53976 85366,85418,85392
 2.2000e+000 85591 -4.9896e+002 -5.5584e+002  1.1324e+002 53976 85470,85444,85565
 2.2000e+000 85614 -3.2638e+002 -2.3175e+002  1.7764e+002 53976 85470,85565,85366
 2.2000e+000 85960 -6.0289e+002 -6.1223e+002  3.1541e+002 53572 85663,85715,85689
 2.2000e+000 85937 -5.8041e+002 -6.1192e+002  2.7406e+002 53572 85983,85715,85663
 2.2000e+000 85914 -7.9274e+002 -7.9989e+002  3.5508e+002 53572 86055,85983,85663
 2.2000e+000 85891 -7.4846e+002 -7.9724e+002  4.9880e+002 53572 86055,85663,85637
 2.2000e+000 85868 -1.1087e+003 -1.6125e+003  5.9310e+002 53572 85637,85793,85767
 2.2000e+000 85845 -1.9329e+003 -6.2192e+002  3.8120e+002 53572 85637,85819,85793
 2.2000e+000 86009 -7.7040e+002 -4.8403e+002  2.7596e+002 53572 85741,85715,85983
 2.2000e+000 86032 -8.6133e+002 -5.3163e+002  3.1410e+002 53572 85741,85983,85767
 2.2000e+000 86081 -6.8743e+002 -4.6598e+002  3.1423e+002 53572 85767,85983,86055
 2.2000e+000 86104 -7.2559e+002 -6.1880e+002  4.4909e+002 53572 85767,86055,85637
 2.2000e+000 86693 -9.8752e+002 -1.9908e+002  5.1577e+002 52946 86474,86526,86500
 2.2000e+000 86670 -1.8445e+002 -6.3904e+001  1.3771e+002 52946 86396,86526,86474
 2.2000e+000 86647 -7.3474e+002 -5.5120e+002  3.4426e+002 52946 86370,86526,86396
 2.2000e+000 86624  9.2368e+000  8.7664e+000  6.3760e+000 52946 86422,86474,86448
 2.2000e+000 86601 -2.3254e+002 -5.6127e+001  1.0370e+002 52946 86396,86474,86422
 2.2000e+000 86578 -7.9304e+002 -1.7646e+002  1.8996e+002 52946 86370,86552,86526
 2.2000e+000 87376 -5.1677e+002 -4.4021e+002  2.2038e+002 52420 87007,87085,87033
 2.2000e+000 87353 -4.1402e+002 -4.1674e+002  2.2776e+002 52420 87007,87163,87085
 2.2000e+000 87330 -6.4427e+002 -4.3807e+002  2.6671e+002 52420 87007,87189,87163
 2.2000e+000 87307 -6.0649e+002 -4.0529e+002  2.9978e+002 52420 87033,87085,87059
 2.2000e+000 87284 -5.5850e+002 -4.6584e+002  5.6860e+001 52420 87085,87137,87111
 2.2000e+000 87261 -3.6404e+002 -4.6185e+002  6.1469e+001 52420 87085,87163,87137
 2.2000e+000 87238 -4.4505e+002 -6.2870e+002  5.6393e+002 52420 86955,87189,87007
 2.2000e+000 87215 -2.8360e+002 -3.5497e+002  3.4845e+002 52420 86955,87007,86981
 2.2000e+000 87624 -3.3161e+002 -5.7272e+002  2.0444e+002 51916 87451,87503,87477
 2.2000e+000 87601 -3.5410e+002 -7.5735e+002  1.9321e+002 51916 87425,87503,87451
 2.2000e+000 87578 -3.3490e+002 -7.4774e+002  1.9644e+002 51916 87425,87529,87503
 2.2000e+000 87555 -2.1522e+002 -5.2227e+002  2.4094e+002 51916 87399,87529,87425
 2.2000e+000 88053 -5.1829e+002 -4.4552e+002  1.7834e+002 51568 87782,87834,87808
 2.2000e+000 88030 -6.5634e+002 -4.3120e+002  3.2445e+002 51568 88076,87782,87886
 2.2000e+000 88007 -5.8336e+002 -2.6168e+002  2.7262e+002 51568 88076,87886,87860
 2.2000e+000 87984 -8.1696e+002 -6.3137e+002  2.5505e+002 51568 87756,87886,87782
 2.2000e+000 87961 -6.0184e+002 -4.9310e+002  5.1678e+002 51568 87756,87912,87886
 2.2000e+000 87938 -7.0817e+002 -3.2524e+002  4.7775e+002 51568 87730,87912,87756
 2.2000e+000 88102 -5.5312e+002 -5.1265e+002  2.1017e+002 51568 87834,87782,88076
 2.2000e+000 88125 -4.8885e+002 -4.0031e+002  1.6439e+002 51568 87834,88076,87860
 2.2000e+000 88324 -4.5175e+002 -4.9354e+002  1.2611e+002 51164 88419,88347,88200
 2.2000e+000 88301 -3.2043e+002 -5.0190e+002  2.4539e+002 51164 88347,88148,88252
 2.2000e+000 88278 -5.9869e+002 -9.2518e+002  1.2206e+002 51164 88419,88200,88174
 2.2000e+000 88373 -3.1541e+002 -3.1735e+002  1.9039e+002 51164 88226,88200,88347
 2.2000e+000 88396 -2.5657e+001 -4.9024e+002  2.0694e+002 51164 88226,88347,88252
 2.2000e+000 88445 -5.4085e+002 -5.6516e+002  3.7454e+002 51164 88148,88347,88419
 2.2000e+000 88468 -5.2151e+002 -5.3238e+002  4.0194e+002 51164 88148,88419,88174
 2.2000e+000 88738 -4.3992e+002 -6.0056e+002  1.6146e+002 50560 88513,88617,88539
 2.2000e+000 88715 -3.0468e+002 -7.1540e+002  1.1016e+002 50560 88513,88643,88617
 2.2000e+000 88692 -1.8539e+002 -6.0875e+001  1.9739e+002 50560 88539,88591,88565
 2.2000e+000 88669 -1.5239e+002 -3.8011e+002  2.5790e+002 50560 88539,88617,88591
 2.2000e+000 88939 -5.6944e+002 -2.4146e+002  2.9759e+002 50106 88962,88789,88763
 2.2000e+000 88916 -4.0810e+002 -2.6884e+002  2.3367e+002 50106 88962,88763,88841
 2.2000e+000 88893 -6.0223e+002 -3.9658e+002  3.7984e+002 50106 88763,88867,88841
 2.2000e+000 88988 -4.1681e+002 -3.1122e+002  1.9077e+002 50106 88815,88789,88962
 2.2000e+000 89011 -3.3049e+002 -2.3215e+002  2.5085e+002 50106 89034,88962,88841
 2.2000e+000 89060 -2.3741e+002 -9.0961e+001  7.7836e+001 50106 88815,88962,89034
 2.2000e+000 89472 -3.0220e+002 -7.4351e+002  3.3079e+001 49666 89273,89351,89325
 2.2000e+000 89449 -4.1210e+002 -3.4210e+002  1.8519e+002 49666 89273,89377,89351
 2.2000e+000 89426 -3.5544e+002 -5.6430e+002  3.9832e+002 49666 89273,89325,89299
 2.2000e+000 89403 -4.7636e+002 -3.5832e+002  2.3544e+002 49666 89247,89377,89273
 2.2000e+000 89978 -4.8003e+002 -7.8930e+002 -1.1435e+001 49205 89681,89837,89733
 2.2000e+000 89955 -7.9111e+001 -4.1158e+002  1.8591e+002 49205 89655,89837,89681
 2.2000e+000 89932 -7.0792e+002 -7.8437e+002  3.2739e+002 49205 89785,89837,89811
 2.2000e+000 89909 -2.4280e+002 -5.3619e+002  1.3621e+002 49205 89733,89837,89785
 2.2000e+000 89886 -6.5660e+002 -6.6848e+002  3.0272e+002 49205 89733,89785,89759
 2.2000e+000 89863 -2.0451e+002 -3.2441e+002 -2.1183e+002 49205 89681,89733,89707
 2.2000e+000 90177 -3.9363e+002 -4.8544e+002  2.1725e+002 48865 90530,90200,90053
 2.2000e+000 90154 -2.6032e+002 -4.5779e+002  2.0239e+002 48865 90402,90200,90001
 2.2000e+000 90131 -4.3458e+002 -4.3324e+002  2.2220e+002 48865 90530,90053,90027
 2.2000e+000 90226 -4.7797e+002 -5.2661e+002  3.9280e+002 48865 90079,90053,90200
 2.2000e+000 90249 -3.2577e+002 -3.9379e+002  2.6662e+002 48865 90272,90200,90105
 2.2000e+000 90298 -2.7171e+002 -3.5339e+002  2.8478e+002 48865 90079,90200,90272
 2.2000e+000 90428 -2.4257e+002 -1.3420e+002  1.8234e+002 48865 90105,90200,90402
 2.2000e+000 90556 -4.2926e+002 -5.2799e+002  2.0190e+002 48865 90001,90200,90530
 2.2000e+000 90579 -4.9069e+002 -4.8115e+002  2.0118e+002 48865 90001,90530,90027
 2.2000e+000 90827 -4.3462e+002 -4.6249e+002  2.3858e+002 48404 90850,90654,90628
 2.2000e+000 90804 -4.8541e+002 -5.6706e+002  3.8963e+002 48404 90850,90628,90732
 2.2000e+000 90781 -3.3549e+002 -3.3060e+002  1.8870e+002 48404 90680,90732,90706
 2.2000e+000 90758 -6.8208e+002 -3.2127e+002  4.1088e+002 48404 90602,90732,90628
 2.2000e+000 90876 -4.6007e+002 -2.3020e+002  1.9081e+002 48404 90680,90654,90850
 2.2000e+000 90899 -4.9502e+002 -4.1761e+002  3.0480e+002 48404 90680,90850,90732
 2.2000e+000 91000 -2.7209e+002 -6.6236e+002  2.7499e+002 48156 90922,90974,90948
 2.2000e+000 91250 -1.9728e+002 -4.6846e+002  1.5249e+002 47752 91051,91103,91077
 2.2000e+000 91227 -3.1029e+002 -4.5206e+002  1.6071e+002 47752 91025,91103,91051
 2.2000e+000 91204 -5.6857e+002 -6.3387e+002  3.1223e+002 47752 91025,91155,91103
 2.2000e+000 91181 -5.4614e+002 -5.3472e+002  2.9570e+002 47752 91103,91155,91129
 2.2000e+000 91402 -3.1896e+002 -4.1135e+002  3.1802e+002 47191 91425,91301,91275
 2.2000e+000 91379 -2.5791e+002 -3.8936e+002  3.4642e+002 47191 91497,91425,91275
 2.2000e+000 91451 -3.4800e+002 -1.5591e+002  1.7665e+002 47191 91327,91301,91425
 2.2000e+000 91474 -5.1410e+002 -4.4006e+002  3.5861e+002 47191 91327,91425,91353
 2.2000e+000 91523 -4.1184e+002 -8.3978e+002  3.7881e+002 47191 91353,91425,91497
 2.2000e+000 91854 -4.0161e+002 -3.6485e+002  7.2709e+001 46744 91949,91877,91707
 2.2000e+000 91831 -3.7451e+002 -4.6595e+002  9.9466e+001 46744 91877,91655,91629
 2.2000e+000 91808 -3.5396e+002 -3.9130e+002  9.3889e+001 46744 91949,91707,91681
 2.2000e+000 91785 -7.9811e+002 -4.5740e+002 -8.1413e+001 46744 91629,91759,91733
 2.2000e+000 91903 -5.5694e+002 -4.4348e+002  1.3312e+002 46744 91733,91707,91877
 2.2000e+000 91926 -3.6791e+002 -4.7751e+002  9.5091e+001 46744 91733,91877,91629
 2.2000e+000 91975 -3.0835e+002 -4.2326e+002  1.6257e+002 46744 91655,91877,91949
 2.2000e+000 91998 -1.4766e+002 -3.8673e+002  1.5629e+002 46744 91655,91949,91681
 2.2000e+000 92378 -3.7646e+002 -1.0946e+002  2.3398e+002 46090 92130,92208,92182
 2.2000e+000 92355 -5.0369e+002 -1.6421e+002  2.1647e+002 46090 92104,92208,92130
 2.2000e+000 92332 -2.3499e+002 -3.6858e+002  1.9205e+002 46090 92104,92260,92208
 2.2000e+000 92309 -1.9722e+002 -5.2023e+001  1.4364e+002 46090 92208,92260,92234
 2.2000e+000 92286 -6.1197e+002 -1.7699e+002  2.7800e+002 46090 92130,92182,92156
 2.2000e+000 92626 -3.2173e+002 -4.2893e+002  1.8044e+002 45693 92721,92649,92505
 2.2000e+000 92603 -3.5852e+002 -4.3590e+002  3.9121e+002 45693 92649,92453,92427
 2.2000e+000 92580 -3.5717e+002 -3.2754e+002  1.7620e+002 45693 92721,92505,92479
 2.2000e+000 92557 -6.0157e+002 -6.4255e+002  4.8500e+002 45693 92401,92531,92427
 2.2000e+000 92675 -5.6615e+002 -4.3932e+002  2.2847e+002 45693 92531,92505,92649
 2.2000e+000 92698 -6.0832e+002 -5.4650e+002  5.1011e+002 45693 92531,92649,92427
 2.2000e+000 92747 -3.4696e+002 -3.1146e+002  1.8619e+002 45693 92453,92649,92721
 2.2000e+000 92770 -2.3095e+002 -6.2542e+000  2.3573e+002 45693 92453,92721,92479
 2.2000e+000 93172 -2.6319e+002 -4.5319e+002  3.9248e+002 45331 92898,93028,92924
 2.2000e+000 93149 -1.5967e+002 -3.9715e+002  2.5860e+002 45331 92898,93054,93028
 2.2000e+000 93126 -3.5884e+002 -3.0475e+002  4.4309e+002 45331 92924,93002,92976
 2.2000e+000 93103 -1.4990e+002 -4.0373e+002  3.8332e+002 45331 92924,93028,93002
 2.2000e+000 93080 -3.8666e+002 -4.7215e+002  4.5466e+002 45331 92924,92976,92950
 2.2000e+000 93518 -7.0717e+002 -7.5164e+002  4.8043e+002 44820 93613,93273,93247
 2.2000e+000 93495 -5.5674e+002 -5.5899e+002  2.6746e+002 44820 93685,93541,93247
 2.2000e+000 93472 -5.9245e+002 -3.3730e+002  2.3667e+002 44820 93541,93195,93377
 2.2000e+000 93449 -5.9844e+002 -4.9812e+002  2.2300e+002 44820 93685,93247,93221
 2.2000e+000 93426 -5.1156e+002 -6.8514e+002  3.6948e+002 44820 93299,93377,93351
 2.2000e+000 93403 -3.9180e+002 -4.8205e+002  4.3955e+002 44820 93299,93351,93325
 2.2000e+000 93567 -4.8216e+002 -7.4125e+002  1.9592e+002 44820 93613,93247,93541
 2.2000e+000 93590 -5.1147e+002 -5.8379e+002  1.2449e+002 44820 93299,93541,93377
 2.2000e+000 93639 -4.6497e+002 -9.4488e+002  2.7271e+002 44820 93299,93273,93613
 2.2000e+000 93662 -5.2219e+002 -9.2959e+002  2.1618e+002 44820 93299,93613,93541
 2.2000e+000 93711 -5.7693e+002 -4.2349e+002  1.8281e+002 44820 93195,93541,93685
 2.2000e+000 93734 -5.1248e+002 -1.8663e+002  1.4836e+002 44820 93195,93685,93221
 2.2000e+000 94163 -5.3110e+002 -5.4148e+002  2.2768e+002 44237 94258,94186,93996
 2.2000e+000 94140 -5.8870e+002 -6.1599e+002  1.4637e+002 44237 94330,94022,93996
 2.2000e+000 94117 -6.0457e+002 -5.5830e+002  1.7820e+002 44237 94186,93918,93866
 2.2000e+000 94094 -4.7387e+002 -4.2893e+002  2.4789e+002 44237 94258,93996,93970
 2.2000e+000 94071 -5.6785e+002 -3.2282e+002  2.4109e+002 44237 94402,93944,93918
 2.2000e+000 94048 -2.6711e+002 -4.0638e+002  1.3489e+002 44237 93866,93918,93892
 2.2000e+000 94212 -5.8782e+002 -6.2474e+002  1.8458e+002 44237 94330,93996,94186
 2.2000e+000 94235 -5.7027e+002 -5.1498e+002  2.0219e+002 44237 93840,94186,93866
 2.2000e+000 94284 -5.4587e+002 -4.2768e+002  1.6501e+002 44237 93918,94186,94258
 2.2000e+000 94307 -5.2456e+002 -3.4462e+002  1.8626e+002 44237 94402,93918,94258
 2.2000e+000 94356 -6.1993e+002 -2.7339e+002  4.1659e+001 44237 93840,94022,94330
 2.2000e+000 94379 -5.5862e+002 -5.5098e+002  1.9776e+002 44237 93840,94330,94186
 2.2000e+000 94428 -6.5036e+002 -4.2686e+002  2.7688e+002 44237 93970,93944,94402
 2.2000e+000 94451 -5.8735e+002 -4.3876e+002  2.1406e+002 44237 93970,94402,94258
 2.2000e+000 94908 -5.1834e+002 -6.1393e+002  1.0795e+002 43890 94660,94790,94712
 2.2000e+000 94885 -2.6911e+002 -2.5049e+002  2.3394e+002 43890 94634,94790,94660
 2.2000e+000 94862 -5.2902e+002 -3.3129e+002  1.7238e+002 43890 94712,94764,94738
 2.2000e+000 94839 -4.1660e+002 -4.2078e+002  1.9684e+002 43890 94712,94790,94764
 2.2000e+000 94816 -6.0131e+002 -3.9585e+002 -1.3229e+002 43890 94660,94712,94686
 2.2000e+000 95414 -3.3025e+002 -1.4348e+002  1.5539e+002 43186 95437,95143,95117
 2.2000e+000 95391 -4.1118e+002 -4.7669e+002  1.8011e+002 43186 95437,95117,95091
 2.2000e+000 95368 -7.3406e+001 -1.6545e+002  2.0621e+002 43186 95143,95221,95195
 2.2000e+000 95345 -6.4653e+002 -4.5070e+002  5.3471e+002 43186 95091,95273,95221
 2.2000e+000 95322 -3.7064e+002 -2.3902e+002  2.7683e+002 43186 95221,95273,95247
 2.2000e+000 95299 -1.5381e+002 -1.6883e+001  4.5755e+001 43186 95143,95195,95169
 2.2000e+000 95463 -2.8717e+002 -3.6900e+002  3.1846e+002 43186 95221,95143,95437
 2.2000e+000 95486 -3.3164e+002 -6.3259e+002  3.5657e+002 43186 95221,95437,95091
 2.2000e+000 96041 -6.6573e+002 -5.9835e+002  1.9015e+002 42782 95695,95851,95799
 2.2000e+000 96018 -6.3168e+002 -7.8489e+002  1.7449e+002 42782 95669,95851,95695
 2.2000e+000 95995 -5.7804e+002 -3.1502e+002  1.9630e+002 42782 95695,95747,95721
 2.2000e+000 95972 -4.5634e+002 -5.0624e+002  1.7301e+002 42782 95695,95799,95747
 2.2000e+000 95949 -3.9946e+002 -2.5490e+002  1.1181e+002 42782 95747,95799,95773
 2.2000e+000 95926 -7.6749e+002 -7.6101e+002  2.3930e+002 42782 95799,95851,95825
 2.2000e+000 95903 -9.3961e+002 -9.6890e+002  2.7165e+002 42782 95669,95877,95851
 2.2000e+000 96370 -5.9898e+002 -8.0979e+002  3.3887e+002 42420 96197,96275,96223
 2.2000e+000 96347 -5.5129e+002 -7.4304e+002  3.6362e+002 42420 96145,96275,96197
 2.2000e+000 96324 -5.8205e+002 -5.4286e+002  3.8322e+002 42420 96145,96197,96171
 2.2000e+000 96301 -4.3640e+002 -6.2027e+002  2.0850e+002 42420 96223,96275,96249
 2.2000e+000 96699 -2.6579e+002 -4.8802e+002 -3.7744e+001 41816 96474,96578,96526
 2.2000e+000 96676 -3.4879e+002 -4.4578e+002 -1.1920e+002 41816 96474,96604,96578
 2.2000e+000 96653 -2.4381e+002 -4.5111e+002 -2.3231e+001 41816 96526,96578,96552
 2.2000e+000 96630 -2.8995e+002 -5.2826e+002 -2.4404e+001 41816 96474,96526,96500
 2.2000e+000 96947 -2.5892e+002 -6.0578e+002  7.1990e+001 41212 96722,96800,96748
 2.2000e+000 96924 -3.4621e+002 -5.7926e+002  1.1138e+002 41212 96722,96826,96800
 2.2000e+000 96901 -5.0542e+002 -6.7574e+002  1.5779e+002 41212 96722,96852,96826
 2.2000e+000 96878 -1.8232e+002 -5.6493e+002  1.0245e+002 41212 96748,96800,96774
 2.2000e+000 97097 -2.9058e+002 -3.6164e+001  2.9737e+002 40793 97120,97022,96996
 2.2000e+000 97074 -5.7396e+002 -6.3595e+002  1.8038e+002 40793 97192,97120,96996
 2.2000e+000 97146 -2.1243e+002 -5.2069e+002  2.6023e+002 40793 97324,97120,97048
 2.2000e+000 97169 -1.8669e+002 -8.9440e+002  2.4409e+002 40793 97048,97120,96970
 2.2000e+000 97218 -8.8467e+001 -4.2988e+002  1.8561e+002 40793 96970,97120,97192
 2.2000e+000 97350 -2.1243e+002 -5.2069e+002  2.6023e+002 40793 97022,97120,97324
 2.2000e+000 97878 -3.6557e+002 -6.6517e+002  1.4189e+002 40446 97901,97607,97555
 2.2000e+000 97855 -3.2186e+002 -4.4277e+002  1.3093e+002 40446 97973,97901,97555
 2.2000e+000 97832 -1.6020e+002 -3.5167e+002  9.4747e+001 40446 97973,97555,97737
 2.2000e+000 97809 -5.7835e+002 -8.1404e+002  2.7638e+002 40446 97633,97685,97659
 2.2000e+000 97786 -3.9549e+002 -5.6275e+002  1.5049e+002 40446 97633,97711,97685
 2.2000e+000 97763 -3.3838e+002 -7.4232e+002  1.8140e+002 40446 97555,97607,97581
 2.2000e+000 97927 -3.5732e+002 -8.1417e+002 -4.8768e+001 40446 97633,97607,97901
 2.2000e+000 97950 -3.1099e+002 -6.5615e+002  1.2430e+002 40446 97633,97901,97711
 2.2000e+000 97999 -9.6017e+001 -6.0704e+002  2.0406e+002 40446 97711,97901,97973
 2.2000e+000 98022  2.4985e+001 -5.2197e+002  1.6367e+002 40446 97711,97973,97737
 2.2000e+000 98449 -2.1620e+002 -1.4006e+002  1.5116e+002 39935 98152,98204,98178
 2.2000e+000 98426 -3.4901e+002 -1.8840e+002  9.4353e+001 39935 98152,98230,98204
 2.2000e+000 98403 -5.2635e+002 -2.9256e+002  2.5230e+002 39935 98152,98256,98230
 2.2000e+000 98380 -3.7881e+002 -3.1525e+002  2.4872e+002 39935 98126,98256,98152
 2.2000e+000 98357 -5.1560e+002 -6.6921e+002  2.5871e+002 39935 98126,98282,98256
 2.2000e+000 98334 -2.6906e+002 -8.6946e+002  3.0819e+002 39935 98126,98308,98282
 2.2000e+000 98746 -7.7830e+002 -6.1498e+002  3.0943e+002 39531 98498,98602,98524
 2.2000e+000 98723 -5.1265e+002 -6.2674e+002  2.3663e+002 39531 98472,98602,98498
 2.2000e+000 98700 -8.8778e+002 -3.6144e+002  1.7093e+002 39531 98524,98602,98576
 2.2000e+000 98677 -4.2974e+002 -5.7352e+002  2.1347e+002 39531 98472,98628,98602
 2.2000e+000 98654 -7.6234e+002 -7.6737e+002 -1.6398e+002 39531 98524,98576,98550
 2.2000e+000 99224 -8.7158e+002 -4.6760e+002  5.8045e+002 39027 99247,98956,98930
 2.2000e+000 99201 -7.4464e+002 -3.3739e+002  2.7210e+002 39027 99247,98930,98878
 2.2000e+000 99178 -6.2953e+002 -4.4529e+002  3.2451e+002 39027 99319,98982,98956
 2.2000e+000 99155 -6.8003e+002 -3.5503e+002  1.8445e+002 39027 98852,99060,98878
 2.2000e+000 99132 -9.0007e+002 -3.7226e+002  2.8257e+002 39027 98878,98930,98904
 2.2000e+000 99109 -5.5026e+002 -9.5134e+002  4.7301e+002 39027 98982,99060,99034
 2.2000e+000 99086 -6.1295e+002 -9.5265e+002  6.4630e+002 39027 98982,99034,99008
 2.2000e+000 99273 -5.5240e+002 -3.1188e+002  3.7115e+002 39027 99319,98956,99247
 2.2000e+000 99296 -6.1936e+002 -2.9389e+002  2.0882e+002 39027 99060,99247,98878
 2.2000e+000 99345 -6.3646e+002 -5.0887e+002  2.5637e+002 39027 99060,98982,99319
 2.2000e+000 99368 -6.4601e+002 -4.7794e+002  2.8766e+002 39027 99060,99319,99247
 2.2000e+000 99923 -5.6825e+002 -5.1318e+002  2.7605e+002 38523 99946,99655,99603
 2.2000e+000 99900 -4.8311e+002 -4.7326e+002  2.8857e+002 38523 99946,99603,99759
 2.2000e+000 99877 -3.0969e+002 -6.5899e+002  3.2987e+002 38523 100018,99707,99681
 2.2000e+000 99854 -5.2703e+002 -3.3608e+002  2.7173e+002 38523 99551,99759,99603
 2.2000e+000 99831 -5.9740e+002 -3.9896e+002  3.3203e+002 38523 99551,99603,99577
 2.2000e+000 99808 -5.4226e+002 -7.4032e+002  1.7747e+002 38523 99707,99759,99733
 2.2000e+000 99785 -4.2508e+002 -4.2075e+002  2.3103e+002 38523 99603,99655,99629
 2.2000e+000 99972 -4.5808e+002 -2.6729e+002  2.9747e+002 38523 99681,99655,99946
 2.2000e+000 99995 -3.6118e+002 -3.8325e+002  3.8406e+002 38523 100018,99681,99946
 2.2000e+000 100044 -4.0682e+002 -7.7011e+002  2.0082e+002 38523 99759,99707,100018
 2.2000e+000 100067 -5.5454e+002 -6.6482e+002  2.5979e+002 38523 99759,100018,99946
 2.2000e+000 100467 -1.2195e+002 -2.0492e+002  7.7373e+001 38125 100219,100349,100323
 2.2000e+000 100444 -6.5106e+001 -1.5565e+002  1.0811e+002 38125 100193,100349,100219
 2.2000e+000 100421 -8.4555e+001 -2.2468e+002  7.6979e+001 38125 100245,100323,100297
 2.2000e+000 100398 -7.8554e+001 -1.8566e+002  8.2098e+001 38125 100219,100323,100245
 2.2000e+000 100375 -2.0071e+002 -2.8163e+002  5.5926e+001 38125 100245,100297,100271
 2.2000e+000 100666 -5.4282e+002 -8.5530e+002  2.5401e+002 37607 100689,100568,100542
 2.2000e+000 100643 -3.9337e+002 -3.9804e+002  2.2470e+002 37607 100689,100542,100490
 2.2000e+000 100620 -2.2675e+002 -2.3341e+002  1.4485e+002 37607 100490,100542,100516
 2.2000e+000 100715 -3.9437e+002 -4.1350e+002  1.7641e+002 37607 100594,100568,100689
 2.2000e+000 100738 -4.8587e+002 -2.9027e+002  1.8784e+002 37607 100594,100689,100490
 2.2000e+000 100937 -3.2483e+002 -3.0157e+002  3.1079e+002 37017 100960,100813,100787
 2.2000e+000 100914 -2.3510e+002 -3.1370e+002  1.5907e+002 37017 100960,100787,100761
 2.2000e+000 100891 -6.1199e+002 -2.3548e+002  3.2858e+002 37017 100813,100865,100839
 2.2000e+000 100986 -4.6720e+002 -4.7221e+002  4.1069e+002 37017 100865,100813,100960
 2.2000e+000 101009 -2.8678e+002 -4.0788e+002  2.4656e+002 37017 100865,100960,100761
 2.2000e+000 101519 -3.9674e+002 -2.3559e+002  9.6171e+001 36613 101222,101274,101248
 2.2000e+000 101496 -1.6412e+002 -1.6835e+002  9.4303e+001 36613 101222,101352,101274
 2.2000e+000 101473 -1.3537e+002 -3.0388e+002  1.8560e+001 36613 101274,101352,101326
 2.2000e+000 101450 -2.9012e+002 -1.9670e+002  8.1249e+001 36613 101222,101378,101352
 2.2000e+000 101427 -1.5960e+002 -5.0215e+002  2.3027e+001 36613 101274,101326,101300
 2.2000e+000 101404 -2.8581e+002 -2.1886e+002  1.3150e+002 36613 101196,101378,101222
 2.2000e+000 101718 -4.7465e+002 -4.6983e+002  4.9925e+002 36308 101594,101646,101620
 2.2000e+000 101695 -4.9581e+002 -2.7564e+002  3.1695e+002 36308 101568,101646,101594
 2.2000e+000 101672 -3.3978e+002 -3.3989e+002  3.3713e+002 36308 101542,101646,101568
 2.2000e+000 102098 -4.5789e+002 -3.4945e+002  2.1196e+002 35918 102121,101954,101876
 2.2000e+000 102075 -4.1508e+002 -4.7916e+002  1.4631e+002 35918 102121,101876,101824
 2.2000e+000 102052 -4.3164e+002 -3.3673e+002  1.6325e+002 35918 101876,101954,101928
 2.2000e+000 102029 -5.6819e+002 -1.5310e+002  1.8725e+002 35918 101876,101928,101902
 2.2000e+000 102006 -4.2734e+002 -5.9838e+002  2.6849e+002 35918 101824,101876,101850
 2.2000e+000 102147 -3.9512e+002 -4.7253e+002  2.7209e+002 35918 101980,101954,102121
 2.2000e+000 102170 -3.8016e+002 -6.3447e+002  1.8768e+002 35918 101980,102121,101824
 2.2000e+000 102489 -5.1044e+002 -1.2256e+003  3.5577e+002 35514 102241,102345,102267
 2.2000e+000 102466 -7.2086e+002 -1.3349e+003  3.9524e+002 35514 102215,102345,102241
 2.2000e+000 102443 -5.8305e+002 -1.4237e+003  4.0641e+002 35514 102215,102371,102345
 2.2000e+000 102420 -4.0438e+002 -9.7148e+002  4.2719e+002 35514 102267,102345,102293
 2.2000e+000 102397 -2.2832e+002 -6.2577e+002  4.9919e+002 35514 102293,102345,102319
 2.2000e+000 102820 -8.3647e+002 -4.9891e+002  9.6312e+001 35224 102843,102699,102647
 2.2000e+000 102797 -5.9365e+002 -5.6871e+002  2.1131e+002 35224 102971,102725,102699
 2.2000e+000 102774 -1.0771e+003 -6.6326e+002  5.6097e+002 35224 102595,102725,102621
 2.2000e+000 102751 -2.2426e+002 -2.7935e+002  2.4001e+002 35224 102647,102699,102673
 2.2000e+000 102869 -6.6494e+002 -4.2950e+002  1.7000e+002 35224 102971,102699,102843
 2.2000e+000 102997 -6.1887e+002 -6.5941e+002  1.8143e+002 35224 102621,102725,102971
 2.2000e+000 103020 -7.5136e+002 -5.8979e+002  1.1484e+002 35224 102621,102971,102843
 2.2000e+000 103349 -6.7487e+002 -4.5310e+002  3.0046e+002 34820 103150,103228,103176
 2.2000e+000 103326 -5.3370e+002 -5.5861e+002  2.7801e+002 34820 103124,103228,103150
 2.2000e+000 103303 -5.4288e+002 -5.5181e+002  5.3819e+002 34820 103176,103228,103202
 2.2000e+000 103280 -3.7122e+002 -4.8643e+002  3.4872e+002 34820 103124,103254,103228
 2.2000e+000 103806 -3.9500e+002 -3.8202e+002  1.1380e+002 34530 103558,103662,103636
 2.2000e+000 103783 -4.8611e+002 -3.8758e+002  1.5538e+002 34530 103558,103688,103662
 2.2000e+000 103760 -5.6637e+002 -6.1161e+002  1.6078e+002 34530 103532,103688,103558
 2.2000e+000 103737 -1.6305e+002 -4.5129e+002  1.0058e+002 34530 103584,103636,103610
 2.2000e+000 103714 -7.7445e+002 -4.7236e+002  1.4530e+002 34530 103558,103636,103584
 2.2000e+000 104263 -3.1275e+002 -4.1027e+002  2.5766e+002 34019 103989,104119,104015
 2.2000e+000 104240 -2.4586e+002 -3.7505e+002  2.9225e+002 34019 103989,104145,104119
 2.2000e+000 104217 -3.3433e+002 -4.4132e+002  1.5173e+002 34019 104015,104067,104041
 2.2000e+000 104194 -3.5982e+002 -4.7462e+002  2.3532e+002 34019 104015,104119,104067
 2.2000e+000 104171 -3.2294e+002 -3.0612e+002  2.1386e+002 34019 104067,104119,104093
 2.2000e+000 104641 -3.3769e+002 -2.7566e+002  1.6715e+002 33351 104419,104497,104445
 2.2000e+000 104618 -2.1039e+002 -1.7305e+002  2.1926e+002 33351 104393,104497,104419
 2.2000e+000 104595 -3.9687e+002 -2.7172e+002  5.8784e+001 33351 104367,104497,104393
 2.2000e+000 104572 -4.2257e+002 -5.0254e+002  2.7545e+002 33351 104445,104497,104471
 2.2000e+000 104549 -3.8677e+002 -4.4138e+002  1.4496e+001 33351 104367,104523,104497
 2.2000e+000 105019 -4.2347e+002 -9.5290e+002  4.7991e+002 32861 104823,104901,104875
 2.2000e+000 104996 -6.2483e+002 -1.1919e+003  3.9188e+002 32861 104745,104901,104823
 2.2000e+000 104973 -5.7704e+002 -1.0165e+003  3.9726e+002 32861 104823,104875,104849
 2.2000e+000 104950 -6.3022e+002 -1.1946e+003  5.8325e+002 32861 104745,104823,104797
 2.2000e+000 104927 -7.8201e+002 -4.7808e+002  6.0821e+002 32861 104745,104797,104771
 2.2000e+000 105397 -2.5989e+002 -6.5609e+002  2.5512e+002 32457 105149,105253,105175
 2.2000e+000 105374 -3.8294e+002 -5.5414e+002  2.0920e+002 32457 105149,105279,105253
 2.2000e+000 105351 -3.7803e+002 -4.5122e+002  2.7301e+002 32457 105123,105279,105149
 2.2000e+000 105328 -3.1522e+002 -1.4874e+002  2.9908e+002 32457 105175,105227,105201
 2.2000e+000 105305 -5.0310e+002 -7.6034e+002  2.5649e+002 32457 105175,105253,105227
 2.2000e+000 105726 -2.0360e+002 -6.5730e+002  2.6917e+002 32003 105527,105605,105553
 2.2000e+000 105703 -3.2079e+002 -5.8720e+002  2.5950e+002 32003 105501,105605,105527
 2.2000e+000 105680 -1.7425e+002 -5.4502e+002  2.7809e+002 32003 105501,105631,105605
 2.2000e+000 105657 -9.3540e+001 -4.1661e+002  2.3946e+002 32003 105553,105605,105579
 2.2000e+000 106104 -3.7897e+002 -6.3592e+002  1.1335e+002 31492 106127,105908,105856
 2.2000e+000 106081 -2.0363e+002 -5.5846e+002  9.1353e+001 31492 106127,105856,105830
 2.2000e+000 106058 -3.2943e+002 -8.1521e+002  1.5192e+002 31492 105856,105908,105882
 2.2000e+000 106035 -9.8705e+001 -3.2980e+002  8.0596e+001 31492 105830,105986,105960
 2.2000e+000 106012 -1.5470e+002 -6.9928e+002  3.3813e+002 31492 105908,105960,105934
 2.2000e+000 106153 -4.3723e+002 -6.0239e+002  2.1664e+002 31492 105960,105908,106127
 2.2000e+000 106176 -3.3720e+002 -5.6932e+002  1.9955e+002 31492 105960,106127,105830
 2.2000e+000 106375 -4.5289e+002 -5.3094e+002  3.2115e+002 30788 106398,106277,106251
 2.2000e+000 106352 -5.0039e+002 -7.0110e+002  3.1552e+002 30788 106398,106251,106225
 2.2000e+000 106329 -7.4652e+002 -5.2104e+002  4.8586e+002 30788 106600,106199,106303
 2.2000e+000 106424 -5.6242e+002 -7.7303e+002  2.2916e+002 30788 106470,106398,106303
 2.2000e+000 106447 -4.4797e+002 -6.3138e+002  2.8186e+002 30788 106600,106303,106398
 2.2000e+000 106496 -1.5209e+002 -5.9943e+002  2.4984e+002 30788 106277,106398,106470
 2.2000e+000 106626 -9.2874e+002 -7.6014e+002  6.4011e+002 30788 106225,106199,106600
 2.2000e+000 106649 -7.2073e+002 -8.8106e+002  4.3010e+002 30788 106225,106600,106398
 2.2000e+000 106799 -1.9404e+002 -8.7465e+002 -1.3178e+001 30426 106698,106750,106724
 2.2000e+000 106776 -2.3351e+002 -5.4469e+002 -9.6659e+000 30426 106672,106750,106698
 2.2000e+000 107356 -4.7807e+002 -4.5139e+002  2.1681e+002 29972 107010,107166,107114
 2.2000e+000 107333 -6.2492e+002 -4.1762e+002  3.4211e+002 29972 106984,107166,107010
 2.2000e+000 107310 -5.5739e+002 -3.0366e+002  1.6175e+002 29972 107010,107114,107088
 2.2000e+000 107287 -4.5883e+002 -1.8575e+002  1.3896e+002 29972 107114,107166,107140
 2.2000e+000 107264 -6.3919e+002 -5.9160e+002  4.4007e+002 29972 106984,107192,107166
 2.2000e+000 107241 -7.6010e+002 -6.8818e+002  2.3615e+002 29972 107010,107088,107036
 2.2000e+000 107218 -3.8477e+002 -4.9997e+002  1.3083e+002 29972 107036,107088,107062
 2.2000e+000 107783 -6.3475e+002 -8.8737e+002  4.1286e+002 29724 107878,107806,107590
 2.2000e+000 107760 -7.0594e+002 -8.8618e+002  3.2633e+002 29724 107806,107512,107486
 2.2000e+000 107737 -6.6825e+002 -8.3292e+002  5.0018e+002 29724 107878,107590,107538
 2.2000e+000 107714 -5.8600e+002 -9.3305e+002  4.1447e+002 29724 107950,107460,107616
 2.2000e+000 107691 -4.9459e+002 -8.8552e+002  3.9112e+002 29724 107460,107642,107616
 2.2000e+000 107668 -4.5138e+002 -7.0498e+002  5.6085e+002 29724 107538,107590,107564
 2.2000e+000 107832 -4.1336e+002 -8.4625e+002  4.5281e+002 29724 107616,107590,107806
 2.2000e+000 107855 -6.0126e+002 -9.4156e+002  4.0468e+002 29724 107950,107616,107806
 2.2000e+000 107904 -5.6430e+002 -7.5062e+002  3.8455e+002 29724 107512,107806,107878
 2.2000e+000 107927 -6.1640e+002 -6.7952e+002  4.8419e+002 29724 107512,107878,107538
 2.2000e+000 107976 -2.9268e+002 -9.1868e+002  4.4507e+002 29724 107486,107460,107950
 2.2000e+000 107999 -5.6362e+002 -1.0016e+003  3.8492e+002 29724 107486,107950,107806
 2.2000e+000 108296 -6.7367e+002 -5.2030e+002  3.7341e+002 29206 108319,108100,108048
 2.2000e+000 108273 -3.9709e+002 -4.5652e+002  4.2751e+002 29206 108319,108048,108022
 2.2000e+000 108250 -2.0030e+002 -5.6568e+002  5.1450e+002 29206 108391,108152,108126
 2.2000e+000 108227 -7.4597e+002 -3.8298e+002  4.3209e+002 29206 108048,108100,108074
 2.2000e+000 108204 -2.9935e+002 -8.0002e+002  4.3044e+002 29206 108022,108178,108152
 2.2000e+000 108345 -4.9191e+002 -3.1902e+002  5.3691e+002 29206 108126,108100,108319
 2.2000e+000 108368 -2.7280e+002 -4.4705e+002  5.8652e+002 29206 108391,108126,108319
 2.2000e+000 108417 -3.9649e+002 -7.1448e+002  4.3398e+002 29206 108022,108152,108391
 2.2000e+000 108440 -4.5094e+002 -6.2338e+002  5.0914e+002 29206 108022,108391,108319
 2.2000e+000 108688 -5.6997e+002 -7.4476e+002  4.2546e+002 28595 108711,108541,108515
 2.2000e+000 108665 -8.4921e+002 -8.2318e+002  5.8833e+002 28595 108783,108711,108515
 2.2000e+000 108642 -1.0633e+003 -7.1115e+002  5.9951e+002 28595 108783,108515,108489
 2.2000e+000 108619 -1.1072e+003 -8.7424e+002  2.9924e+002 28595 108463,108593,108489
 2.2000e+000 108737 -5.2097e+002 -5.9995e+002  3.0879e+002 28595 108567,108541,108711
 2.2000e+000 108760 -4.2898e+002 -6.7288e+002  5.0664e+002 28595 108567,108711,108593
 2.2000e+000 108809 -5.3142e+002 -8.1177e+002  4.4382e+002 28595 108593,108711,108783
 2.2000e+000 108832 -8.3917e+002 -7.4518e+002  4.0603e+002 28595 108593,108783,108489
 2.2000e+000 109033 -1.6846e+002 -3.0337e+002  1.3415e+002 28091 108909,108961,108935
 2.2000e+000 109010 -1.9614e+002 -3.0717e+002  1.2724e+002 28091 108857,108961,108909
 2.2000e+000 108987 -4.3522e+002 -5.6439e+002  4.1511e+002 28091 108857,108909,108883
 2.2000e+000 109136 -5.3127e+002 -1.2586e+003  2.2361e+002 27587 109058,109110,109084
 2.2000e+000 109695 -5.2304e+002 -5.8526e+002  2.0804e+002 26969 109718,109375,109323
 2.2000e+000 109672 -4.9576e+002 -5.7536e+002  1.4063e+002 26969 109718,109323,109505
 2.2000e+000 109649 -5.1732e+002 -2.3598e+002  9.6086e+001 26969 109790,109453,109427
 2.2000e+000 109626 -1.8865e+002 -6.0229e+002  2.5989e+002 26969 109323,109375,109349
 2.2000e+000 109603 -4.5986e+002 -6.0384e+002  1.6018e+002 26969 109323,109531,109505
 2.2000e+000 109580 -2.2258e+002 -5.6835e+002  9.0499e+001 26969 109375,109427,109401
 2.2000e+000 109557 -5.9714e+002 -5.8127e+002  2.6354e+002 26969 109453,109505,109479
 2.2000e+000 109744 -5.0314e+002 -6.0492e+002  1.0775e+002 26969 109427,109375,109718
 2.2000e+000 109767 -4.3335e+002 -3.7221e+002  6.7255e+001 26969 109790,109427,109718
 2.2000e+000 109816 -5.1668e+002 -3.9481e+002  1.5641e+002 26969 109505,109453,109790
 2.2000e+000 109839 -4.6216e+002 -5.5566e+002  1.4926e+002 26969 109505,109790,109718
 2.2000e+000 110266 -3.6657e+002 -6.2532e+002  1.6924e+002 26515 110361,110289,110099
 2.2000e+000 110243 -2.6466e+002 -4.4402e+002  1.7052e+002 26515 110289,109995,109943
 2.2000e+000 110220 -5.1038e+002 -6.8048e+002  1.5309e+002 26515 110361,110099,110021
 2.2000e+000 110197 -4.3336e+002 -1.3192e+003  1.0950e+002 26515 110047,110099,110073
 2.2000e+000 110174 -4.7352e+002 -1.1775e+003 -1.2350e+002 26515 110021,110099,110047
 2.2000e+000 110151 -4.7932e+001 -1.3655e+002  2.6679e+002 26515 109943,109995,109969
 2.2000e+000 110315 -4.8733e+002 -3.8881e+002  1.0270e+002 26515 110125,110099,110289
 2.2000e+000 110338 -4.1924e+002 -1.5931e+002  3.2187e+002 26515 110125,110289,109943
 2.2000e+000 110387 -4.9866e+002 -6.0369e+002  1.7054e+001 26515 109995,110289,110361
 2.2000e+000 110410 -6.1477e+002 -6.2933e+002  1.2685e+001 26515 109995,110361,110021
 2.2000e+000 110609 -1.0230e+002 -7.3802e+002  2.4530e+002 25789 110906,110762,110632
 2.2000e+000 110586 -1.3404e+002 -9.0074e+002  2.6824e+002 25789 110762,110433,110537
 2.2000e+000 110563 -4.1339e+002 -8.3899e+002  4.4354e+002 25789 110834,110459,110433
 2.2000e+000 110658 -2.0259e+002 -7.1235e+002  3.2922e+002 25789 110906,110632,110834
 2.2000e+000 110788 -6.4368e+001 -5.0375e+002  1.4534e+002 25789 110511,110632,110762
 2.2000e+000 110811 -1.4008e+002 -7.4302e+002  2.6664e+002 25789 110511,110762,110537
 2.2000e+000 110860 -2.4950e+002 -7.2893e+002  3.7257e+002 25789 110485,110459,110834
 2.2000e+000 110883 -3.0056e+002 -6.9781e+002  3.3100e+002 25789 110485,110834,110632
 2.2000e+000 110932 -3.2577e+002 -8.1312e+002  2.6140e+002 25789 110433,110762,110906
 2.2000e+000 110955 -4.0721e+002 -7.6347e+002  3.3000e+002 25789 110433,110906,110834
 2.2000e+000 111350 -4.0756e+002 -6.5444e+002  3.8356e+002 25228 111445,111373,111186
 2.2000e+000 111327 -4.4845e+002 -6.2957e+002  1.1635e+002 25228 110978,111186,111004
 2.2000e+000 111304 -4.5641e+002 -8.4503e+002  3.5142e+002 25228 111373,111108,111082
 2.2000e+000 111281 -4.2146e+002 -8.7420e+002  3.2792e+002 25228 111134,111186,111160
 2.2000e+000 111258 -4.0526e+002 -6.3154e+002  3.7345e+002 25228 111445,111186,111134
 2.2000e+000 111235 -3.9551e+002 -4.6975e+002  2.1627e+002 25228 111517,111030,111004
 2.2000e+000 111212 -5.3659e+002 -6.0739e+002  3.3606e+002 25228 111030,111082,111056
 2.2000e+000 111399 -4.4517e+002 -7.2955e+002  3.6052e+002 25228 111004,111186,111373
 2.2000e+000 111422 -3.3223e+002 -5.7193e+002  2.9668e+002 25228 111517,111004,111373
 2.2000e+000 111471 -4.0186e+002 -6.3628e+002  3.5420e+002 25228 111108,111373,111445
 2.2000e+000 111494 -3.9804e+002 -6.0914e+002  3.4454e+002 25228 111108,111445,111134
 2.2000e+000 111543 -5.0858e+002 -5.1933e+002  3.3270e+002 25228 111082,111030,111517
 2.2000e+000 111566 -4.5870e+002 -6.6593e+002  4.1282e+002 25228 111082,111517,111373
 2.2000e+000 112074 -2.9728e+002 -4.5943e+002  2.6525e+002 24338 112097,111907,111881
 2.2000e+000 112051 -4.4817e+002 -4.2843e+002  1.4473e+002 24338 112097,111881,111829
 2.2000e+000 112028 -1.2384e+002 -4.5020e+002  9.6000e+001 24338 111829,111881,111855
 2.2000e+000 112005 -5.1918e+002 -6.4842e+002  1.6613e+002 24338 111777,111933,111829
 2.2000e+000 111982 -7.2742e+002 -2.9619e+002  1.9351e+002 24338 111751,111933,111777
 2.2000e+000 111959 -6.1207e+002 -6.8146e+002  1.7884e+002 24338 111777,111829,111803
 2.2000e+000 112123 -4.5919e+002 -8.1630e+002  2.2274e+002 24338 111933,111907,112097
 2.2000e+000 112146 -4.5905e+002 -5.1280e+002  1.4575e+002 24338 111933,112097,111829
 2.2000e+000 112443 -6.4107e+002 -4.9468e+002  3.0619e+002 23998 112466,112299,112247
 2.2000e+000 112420 -6.9867e+002 -7.9926e+002  2.7015e+002 23998 112466,112247,112221
 2.2000e+000 112397 -4.8630e+002 -9.5874e+002  4.0314e+002 23998 112169,112325,112221
 2.2000e+000 112374 -4.1470e+002 -8.3660e+002  4.3322e+002 23998 112169,112221,112195
 2.2000e+000 112351 -2.5011e+002 -4.6210e+002  3.4157e+002 23998 112247,112299,112273
 2.2000e+000 112492 -5.9534e+002 -5.5992e+002  4.8229e+002 23998 112325,112299,112466
 2.2000e+000 112515 -6.6291e+002 -7.2535e+002  4.1804e+002 23998 112325,112466,112221
 2.2000e+000 113200 -6.9953e+002 -8.8875e+002  6.0053e+002 23480 112779,112961,112805
 2.2000e+000 113177 -7.7443e+002 -5.6645e+002  2.4184e+002 23480 112779,112987,112961
 2.2000e+000 113154 -1.6629e+002 -4.5538e+002  3.7522e+002 23480 112805,112961,112883
 2.2000e+000 113131 -4.3542e+002 -8.0538e+002  4.2068e+002 23480 112883,112935,112909
 2.2000e+000 113108 -5.7186e+002 -6.2862e+002  4.3486e+002 23480 112883,112961,112935
 2.2000e+000 113085 -2.0724e+002 -3.6287e+002  1.8687e+002 23480 112831,112883,112857
 2.2000e+000 113062 -3.5104e+002 -4.5934e+002  2.5282e+002 23480 112805,112883,112831
 2.2000e+000 113039 -7.5728e+002 -4.6337e+002  2.2998e+002 23480 112779,113013,112987
 2.2000e+000 113676 -7.0083e+002 -3.3509e+002  5.4902e+002 23018 113699,113434,113356
 2.2000e+000 113653 -6.1042e+002 -3.2188e+002  2.7688e+002 23018 113771,113699,113356
 2.2000e+000 113630 -5.4129e+002 -5.2966e+002  1.7948e+002 23018 113771,113356,113512
 2.2000e+000 113607 -3.5226e+002 -7.7773e+002  3.2435e+002 23018 113330,113512,113356
 2.2000e+000 113584 -1.3335e+003 -7.7450e+002  7.9328e+002 23018 113356,113434,113382
 2.2000e+000 113561 -1.4029e+002 -7.3014e+002  3.2012e+002 23018 113304,113512,113330
 2.2000e+000 113538 -1.4040e+003 -2.5321e+002  3.3430e+002 23018 113382,113434,113408
 2.2000e+000 113725 -8.0035e+002 -5.7846e+002  5.6321e+002 23018 113460,113434,113699
 2.2000e+000 113748 -8.6173e+002 -6.2611e+002  3.3830e+002 23018 113460,113699,113486
 2.2000e+000 113797 -7.9971e+002 -6.3412e+002  3.5691e+002 23018 113486,113699,113771
 2.2000e+000 113820 -6.1667e+002 -6.6960e+002  2.1399e+002 23018 113486,113771,113512
 2.2000e+000 114424 -3.6646e+002 -5.0720e+002  1.0496e+002 22514 114447,114133,114029
 2.2000e+000 114401 -3.6435e+002 -6.1126e+002  9.6784e+001 22514 114447,114029,114237
 2.2000e+000 114378 -2.1900e+002 -4.0885e+002  1.6823e+002 22514 114133,114211,114185
 2.2000e+000 114355 -3.9366e+002 -4.0525e+002  1.2703e+002 22514 114133,114185,114159
 2.2000e+000 114332 -2.9986e+002 -6.5015e+002  2.0763e+002 22514 114003,114237,114029
 2.2000e+000 114309 -4.1050e+002 -4.4786e+002  6.3165e+001 22514 114029,114133,114055
 2.2000e+000 114286 -5.3766e+002 -3.7686e+002  1.3085e+002 22514 114055,114133,114107
 2.2000e+000 114263 -4.7103e+002 -2.3737e+001  1.0681e+002 22514 114055,114107,114081
 2.2000e+000 114473 -3.8110e+002 -4.5273e+002  1.4735e+002 22514 114211,114133,114447
 2.2000e+000 114496 -3.6056e+002 -5.3086e+002  1.3802e+002 22514 114211,114447,114237
 2.2000e+000 114597 -3.2577e+002 -8.2581e+002  4.1990e+002 22316 114620,114571,114545
 2.2000e+000 114646 -3.2577e+002 -8.2581e+002  4.1990e+002 22316 114519,114571,114620
 2.2000e+000 115127 -5.7420e+002 -6.2056e+002  2.1264e+002 21612 115150,114905,114879
 2.2000e+000 115104 -6.6348e+002 -3.9539e+002  2.5893e+002 21612 115150,114879,114853
 2.2000e+000 115081 -4.3990e+002 -2.0723e+002  3.8288e+002 21612 115222,114931,114905
 2.2000e+000 115058 -4.8432e+002 -4.9976e+002  2.9796e+002 21612 115222,114905,115009
 2.2000e+000 115035 -1.7917e+002 -5.7292e+002  1.4887e+002 21612 114957,115009,114983
 2.2000e+000 115176 -5.1778e+002 -4.4919e+002  2.1246e+002 21612 115009,114905,115150
 2.2000e+000 115199 -5.8861e+002 -1.9345e+002  2.5030e+002 21612 115009,115150,114853
 2.2000e+000 115248 -4.4178e+002 -4.6563e+002  3.0689e+002 21612 114957,114931,115222
 2.2000e+000 115271 -4.8068e+002 -7.4594e+002  2.1911e+002 21612 114957,115222,115009
 2.2000e+000 115519 -1.8413e+002  6.3846e+001  1.9596e+002 21208 115542,115372,115320
 2.2000e+000 115496 -1.2145e+001  1.8022e+002  2.8394e+001 21208 115542,115320,115294
 2.2000e+000 115473 -1.1720e+002 -2.9883e+002  2.6410e+002 21208 115320,115372,115346
 2.2000e+000 115450 -4.1991e+002 -1.5392e+002  1.1898e+002 21208 115294,115424,115398
 2.2000e+000 115568 -2.5575e+002 -3.0557e+000  2.6434e+002 21208 115398,115372,115542
 2.2000e+000 115591 -1.9336e+002 -1.0589e+002  1.2695e+002 21208 115398,115542,115294
 2.2000e+000 115839 -4.9126e+002 -4.1116e+002  3.6919e+002 20668 115862,115640,115614
 2.2000e+000 115816 -5.1712e+002 -4.6449e+002  3.7834e+002 20668 115862,115614,115744
 2.2000e+000 115793 -5.1342e+002 -2.7284e+002  3.7347e+002 20668 115640,115718,115692
 2.2000e+000 115770 -8.0667e+002 -2.6881e+002  3.3063e+002 20668 115640,115692,115666
 2.2000e+000 115888 -5.2756e+002 -3.1772e+002  4.1347e+002 20668 115718,115640,115862
 2.2000e+000 115911 -5.7697e+002 -4.1771e+002  4.2913e+002 20668 115718,115862,115744
 2.2000e+000 116134 -4.5005e+002 -6.9666e+002  4.1530e+002 20264 115958,116036,115984
 2.2000e+000 116111 -2.3020e+002 -5.9223e+002  3.8518e+002 20264 115958,116062,116036
 2.2000e+000 116088 -2.5018e+002 -6.5928e+002  4.5034e+002 20264 115984,116036,116010
 2.2000e+000 116384 -6.5121e+002 -4.6540e+002  5.0284e+002 19924 116407,116211,116159
 2.2000e+000 116361 -6.0582e+002 -7.9288e+002  4.0475e+002 19924 116407,116159,116263
 2.2000e+000 116338 -6.2012e+002 -3.1857e+002  4.9143e+002 19924 116159,116211,116185
 2.2000e+000 116315 -4.0846e+002 -7.8934e+002  4.7137e+002 19924 116159,116289,116263
 2.2000e+000 116433 -6.1002e+002 -2.8799e+002  5.8307e+002 19924 116237,116211,116407
 2.2000e+000 116456 -4.3444e+002 -5.0359e+002  5.2680e+002 19924 116237,116407,116263
 2.2000e+000 116608 -3.0245e+002 -4.5674e+001  2.9350e+002 19520 116703,116631,116533
 2.2000e+000 116585 -2.0421e+002 -1.2671e+002  1.8908e+002 19520 116631,116507,116481
 2.2000e+000 116657 -2.1979e+002 -1.4805e+002  3.2511e+002 19520 116559,116533,116631
 2.2000e+000 116680 -2.3140e+002 -3.6606e+002  2.1697e+002 19520 116559,116631,116481
 2.2000e+000 116729 -3.0245e+002 -4.5674e+001  2.9350e+002 19520 116507,116631,116703
 2.2000e+000 116952 -5.8056e+002 -5.4145e+002  7.2246e+002 19208 116975,116802,116776
 2.2000e+000 116929 -7.4683e+002 -9.7347e+002  4.1622e+002 19208 116975,116776,116880
 2.2000e+000 116906 -8.3782e+002 -3.5394e+002  5.0441e+002 19208 116802,116854,116828
 2.2000e+000 117001 -4.5455e+002 -4.6312e+002  7.5652e+002 19208 116854,116802,116975
 2.2000e+000 117024 -1.8905e+002 -5.7383e+002  5.9844e+002 19208 116854,116975,116880
 2.2000e+000 117428 -5.5341e+002 -1.8546e+002  3.7844e+002 18796 117154,117206,117180
 2.2000e+000 117405 -3.7720e+002 -4.5209e+002  3.3221e+002 18796 117154,117284,117206
 2.2000e+000 117382 -2.1501e+002 -3.8344e+002  3.2521e+002 18796 117154,117310,117284
 2.2000e+000 117359 -1.9642e+002 -3.1359e+002  4.3566e+002 18796 117206,117284,117258
 2.2000e+000 117336  3.0611e+001 -3.0340e+001  6.1277e+002 18796 117206,117258,117232
 2.2000e+000 117529 -2.5982e+002 -1.5408e+002  1.7598e+002 18228 117810,117552,117477
 2.2000e+000 117578 -6.1396e+002 -4.0603e+002  2.9526e+002 18228 117682,117552,117503
 2.2000e+000 117708 -2.0377e+002 -1.7169e+002  1.6420e+002 18228 117477,117552,117682
 2.2000e+000 117836 -3.8937e+002 -4.0047e+002  2.4695e+002 18228 117451,117552,117810
 2.2000e+000 118364 -6.4621e+002 -1.8072e+002  2.8136e+002 17722 118067,118223,118093
 2.2000e+000 118341 -6.1630e+002 -1.3935e+002  2.9588e+002 17722 118041,118223,118067
 2.2000e+000 118318 -3.3517e+002 -1.9329e+002  1.9558e+002 17722 118093,118223,118197
 2.2000e+000 118295 -1.0261e+003 -1.1128e+003  7.2601e+002 17722 118119,118197,118171
 2.2000e+000 118272 -1.1414e+002  2.0861e+001  3.1803e+002 17722 118093,118197,118119
 2.2000e+000 118249 -8.7221e+002 -7.5010e+002  7.6690e+002 17722 118119,118171,118145
 2.2000e+000 118514 -1.1222e+003 -4.2985e+002  4.0322e+002 17268 118387,118439,118413
 2.2000e+000 118491 -6.0134e+001 -4.8607e+002  3.9089e+002 17268 118387,118465,118439
 2.2000e+000 118916 -6.1479e+002 -1.5080e+002  2.4469e+002 16828 118668,118772,118694
 2.2000e+000 118893 -8.3570e+002 -2.5408e+002  2.1155e+002 16828 118668,118798,118772
 2.2000e+000 118870 -9.1169e+002 -4.9292e+002  1.3890e+002 16828 118642,118798,118668
 2.2000e+000 118847 -1.5221e+002 -3.4592e+001  4.1420e+002 16828 118694,118746,118720
 2.2000e+000 118824 -6.6974e+002 -3.6788e+002  2.0990e+002 16828 118694,118772,118746
 2.2000e+000 119316 -2.6965e+002 -2.1921e+002  3.6107e+002 16422 119042,119172,119094
 2.2000e+000 119293 -3.6543e+002 -2.5491e+002  3.5902e+002 16422 119042,119198,119172
 2.2000e+000 119270 -5.1421e+002 -8.3591e+001  1.8885e+002 16422 119042,119094,119068
 2.2000e+000 119247 -5.9357e+001 -4.2958e+001  5.4075e+002 16422 119094,119146,119120
 2.2000e+000 119224 -2.0561e+002 -1.1056e+002  3.8847e+002 16422 119094,119172,119146
 2.2000e+000 119466 -3.2760e+002  5.3772e+001  6.8018e+001 16010 119339,119391,119365
 2.2000e+000 119443 -7.9711e+001 -9.1256e+001  3.0712e+002 16010 119339,119417,119391
 2.2000e+000 119616 -1.2599e+002  4.0782e+001  2.6111e+002 15547 119515,119567,119541
 2.2000e+000 119593  2.6957e+002  3.6757e+002  8.5267e+002 15547 119489,119567,119515
 2.2000e+000 119719 -8.4763e+002 -3.2896e+002  4.3454e+002 421 119641,119693,119667
 2.3000e+000 69562 -8.0370e+002 -3.9236e+002  6.3047e+002 69254 69484,69536,69510
 2.3000e+000 70009 -4.4215e+002 -3.8994e+002  3.5518e+002 68942 69686,69842,69816
 2.3000e+000 69986 -4.1161e+002 -1.5111e+002  2.1120e+002 68942 69686,69868,69842
 2.3000e+000 69963 -2.4527e+002 -1.0028e+002  4.5411e+002 68942 69686,69816,69712
 2.3000e+000 69940 -1.3001e+002 -1.1055e+002  6.3440e+002 68942 69712,69790,69738
 2.3000e+000 69917 -6.4293e+002 -1.0381e+003  3.9895e+002 68942 69712,69816,69790
 2.3000e+000 69894 -3.9618e+001 -5.5110e+002  2.4232e+002 68942 69738,69790,69764
 2.3000e+000 70110 -3.8083e+002 -8.1764e+001  2.6419e+002 68766 70032,70084,70058
 2.3000e+000 70746 -4.9248e+002 -2.6563e+002  2.7230e+002 68448 70400,70556,70426
 2.3000e+000 70723 -9.0363e+002 -3.4016e+002  3.6785e+002 68448 70374,70556,70400
 2.3000e+000 70700 -6.2869e+002 -2.4304e+002  1.7894e+002 68448 70426,70556,70478
 2.3000e+000 70677 -7.7080e+002 -2.7744e+002  1.6920e+002 68448 70478,70556,70504
 2.3000e+000 70654 -5.8338e+002 -3.3507e+002  1.2231e+002 68448 70426,70478,70452
 2.3000e+000 70631 -8.8515e+002 -3.1202e+002  4.7231e+002 68448 70374,70582,70556
 2.3000e+000 70608 -7.8011e+002 -4.6730e+002  2.2493e+002 68448 70504,70556,70530
 2.3000e+000 70896 -8.4233e+002 -1.8404e+002  4.8111e+001 68250 70795,70847,70821
 2.3000e+000 70873 -1.5287e+003 -4.6835e+002  9.4663e+001 68250 70769,70847,70795
 2.3000e+000 70997 -2.1450e+003 -1.0410e+003  9.2665e+002 68052 70919,70971,70945
 2.3000e+000 71367 -6.5427e+002 -1.0474e+003  3.9010e+002 67740 71096,71226,71200
 2.3000e+000 71344 -4.1712e+002 -5.9631e+002  4.9108e+002 67740 71044,71226,71096
 2.3000e+000 71321  6.6498e+001 -6.6498e+001  7.8062e+002 67740 71044,71096,71070
 2.3000e+000 71298 -4.6600e+002 -1.1264e+003  7.6498e+002 67740 71096,71200,71174
 2.3000e+000 71275 -2.8266e+002 -6.8945e+002  2.8433e+002 67740 71096,71148,71122
 2.3000e+000 71252 -3.7846e+002 -8.0269e+002  4.9637e+002 67740 71096,71174,71148
 2.3000e+000 71519  2.5595e+002  1.8640e+002  2.4943e+002 67542 71418,71470,71444
 2.3000e+000 71496  4.3226e+002  7.9457e+002  7.8085e+002 67542 71392,71470,71418
 2.3000e+000 71923 -1.2106e+002  4.5742e+001  2.1546e+002 67230 71649,71779,71675
 2.3000e+000 71900 -7.1730e+001 -1.8028e+002  1.1348e+002 67230 71649,71805,71779
 2.3000e+000 71877 -1.1999e+002 -3.2941e+001  4.1340e+002 67230 71675,71727,71701
 2.3000e+000 71854 -1.7064e+002 -6.2541e+002  3.8458e+002 67230 71675,71753,71727
 2.3000e+000 71831 -1.9023e+002 -3.5959e+002  2.6528e+002 67230 71675,71779,71753
 2.3000e+000 72433 -5.2545e+002 -2.3607e+002  3.5783e+002 67032 72038,72246,72220
 2.3000e+000 72410 -2.5807e+002  5.3869e+000  1.7985e+002 67032 72012,72246,72038
 2.3000e+000 72387 -4.9140e+002 -1.8835e+002  3.8106e+002 67032 72064,72194,72168
 2.3000e+000 72364 -5.2854e+002 -1.9834e+002  4.0190e+002 67032 72038,72194,72064
 2.3000e+000 72341 -7.0984e+002 -6.7335e+002  3.5436e+002 67032 72038,72220,72194
 2.3000e+000 72318 -1.2753e+002  9.2616e+001  1.9260e+002 67032 72090,72168,72142
 2.3000e+000 72295 -6.5042e+001 -4.1275e+000  3.9738e+002 67032 72064,72168,72090
 2.3000e+000 72272 -1.5629e+002  5.1445e+001  1.6981e+002 67032 72090,72142,72116
 2.3000e+000 72933 -3.6422e+002 -4.2353e+002  4.1382e+002 66628 72956,72665,72613
 2.3000e+000 72910 -3.3076e+002 -4.2909e+002  4.1947e+002 66628 73100,72956,72613
 2.3000e+000 72887 -4.5174e+002 -6.3856e+002  3.3193e+002 66628 73028,72691,72665
 2.3000e+000 72864 -3.0233e+002 -3.8054e+002  4.4033e+002 66628 73100,72613,72587
 2.3000e+000 72841 -3.4691e+002 -4.0475e+002  3.7908e+002 66628 72613,72665,72639
 2.3000e+000 72818  6.2685e+001 -1.1575e+000  5.4225e+002 66628 72587,72769,72743
 2.3000e+000 72795 -4.0655e+002 -9.0954e+002  1.1149e+002 66628 72561,72769,72587
 2.3000e+000 72982 -4.3921e+002 -4.5920e+002  4.4157e+002 66628 73028,72665,72956
 2.3000e+000 73005 -3.7190e+002 -1.4002e+002  4.1968e+002 66628 72717,72956,72743
 2.3000e+000 73054 -6.5989e+002 -5.2001e+002  2.0057e+002 66628 72717,72691,73028
 2.3000e+000 73077 -6.4972e+002 -4.6016e+002  2.9871e+002 66628 72717,73028,72956
 2.3000e+000 73126 -3.7115e+002 -4.2897e+002  3.6155e+002 66628 72743,72956,73100
 2.3000e+000 73149 -3.3837e+002 -3.8741e+002  3.8262e+002 66628 72743,73100,72587
 2.3000e+000 73606 -4.7765e+002 -4.1387e+002  3.8131e+002 66281 73332,73384,73358
 2.3000e+000 73583 -6.0434e+002 -4.6144e+002  2.9863e+002 66281 73332,73462,73384
 2.3000e+000 73560 -7.2944e+002 -4.6979e+002  3.1287e+002 66281 73384,73462,73436
 2.3000e+000 73537 -1.1395e+003 -6.6041e+002  5.1327e+002 66281 73332,73488,73462
 2.3000e+000 73514 -8.2126e+002 -4.7106e+002  2.2541e+002 66281 73384,73436,73410
 2.3000e+000 73984 -1.6593e+002 -1.1669e+002  8.5807e+001 65969 73736,73814,73788
 2.3000e+000 73961 -6.3271e+001 -7.5984e+001  7.6999e+001 65969 73736,73866,73814
 2.3000e+000 73938 -1.4905e+002 -1.4516e+002  1.6466e+002 65969 73814,73866,73840
 2.3000e+000 73915 -5.4781e+001 -8.8073e+001  7.3507e+001 65969 73710,73866,73736
 2.3000e+000 73892 -1.6088e+002 -2.7528e+002 -4.0759e+001 65969 73736,73788,73762
 2.3000e+000 74232 -3.3021e+002 -4.1294e+002  3.8898e+002 65572 74255,74085,74033
 2.3000e+000 74209 -3.1813e+002 -4.4859e+002  3.3953e+002 65572 74327,74255,74033
 2.3000e+000 74186 -3.5876e+002 -3.5192e+002  3.4017e+002 65572 74327,74033,74007
 2.3000e+000 74163 -3.8188e+002 -4.6748e+002  4.1158e+002 65572 74033,74085,74059
 2.3000e+000 74281 -3.9725e+002 -5.0537e+002  4.6820e+002 65572 74111,74085,74255
 2.3000e+000 74304 -2.7371e+002 -4.5574e+002  3.6988e+002 65572 74111,74255,74137
 2.3000e+000 74353 -2.7471e+002 -3.4290e+002  3.0589e+002 65572 74137,74255,74327
 2.3000e+000 74376 -3.3697e+002 -2.7101e+002  3.1277e+002 65572 74137,74327,74007
 2.3000e+000 74884 -3.5536e+002 -4.0762e+002  3.3297e+002 65174 74587,74717,74613
 2.3000e+000 74861 -4.4205e+002 -4.8500e+002  2.4687e+002 65174 74561,74717,74587
 2.3000e+000 74838 -3.5904e+002 -5.1760e+002  2.8511e+002 65174 74613,74691,74639
 2.3000e+000 74815 -3.6291e+002 -5.1420e+002  3.0529e+002 65174 74613,74717,74691
 2.3000e+000 74792 -1.8413e+002 -7.8839e+002  2.2344e+002 65174 74639,74691,74665
 2.3000e+000 74769 -7.0856e+002 -1.7905e+002  2.8640e+002 65174 74561,74743,74717
 2.3000e+000 75412 -1.2574e+001 -2.4878e+002  7.7407e+002 64770 75167,75245,75219
 2.3000e+000 75389 -3.4755e+002 -7.1185e+002  5.2775e+002 64770 75115,75245,75167
 2.3000e+000 75366 -2.9057e+002 -9.2655e+002  6.8167e+002 64770 75089,75245,75115
 2.3000e+000 75343 -4.9620e+002 -2.0594e+002  5.6387e+002 64770 75167,75219,75193
 2.3000e+000 75320 -2.7774e+002 -5.7277e+002  5.6281e+002 64770 75115,75167,75141
 2.3000e+000 75297 -4.7512e+002 -1.3152e+003  7.3438e+002 64770 75089,75271,75245
 2.3000e+000 75861 -8.9751e+002 -4.1122e+002  6.5646e+002 64316 75538,75694,75564
 2.3000e+000 75838 -4.9616e+002 -2.0238e+002  4.4715e+002 64316 75538,75720,75694
 2.3000e+000 75815 -7.7395e+002 -5.5564e+002  5.0369e+002 64316 75590,75694,75642
 2.3000e+000 75792 -7.3425e+002 -6.9120e+002  5.6212e+002 64316 75564,75694,75590
 2.3000e+000 75769 -2.1799e+002 -8.7314e+002  2.5362e+002 64316 75590,75642,75616
 2.3000e+000 75746 -6.7183e+002 -2.7995e+002  4.6047e+002 64316 75642,75694,75668
 2.3000e+000 76239 -1.0763e+003 -8.9546e+002  4.7642e+002 64018 76262,76095,76043
 2.3000e+000 76216 -8.2985e+002 -8.7092e+002  3.8759e+002 64018 76262,76043,76017
 2.3000e+000 76193 -4.2361e+002 -4.7804e+002  3.6722e+002 64018 75991,76121,76017
 2.3000e+000 76170 -1.0110e+003 -7.2695e+002  6.9229e+002 64018 76043,76095,76069
 2.3000e+000 76147 -1.7099e+001 -4.7266e+002  7.8222e+001 64018 75965,76121,75991
 2.3000e+000 76288 -8.1462e+002 -1.0242e+003  5.9341e+002 64018 76121,76095,76262
 2.3000e+000 76311 -6.1693e+002 -1.0208e+003  4.6995e+002 64018 76121,76262,76017
 2.3000e+000 76866 -3.5756e+002 -4.4400e+002  4.2700e+002 63728 76520,76676,76546
 2.3000e+000 76843 -3.7288e+002 -4.5446e+002  3.4830e+002 63728 76520,76702,76676
 2.3000e+000 76820 -2.6946e+002 -4.0597e+002  3.7137e+002 63728 76546,76650,76572
 2.3000e+000 76797 -5.1163e+002 -5.0092e+002  3.6916e+002 63728 76546,76676,76650
 2.3000e+000 76774 -4.7850e+002 -7.1265e+001  2.0918e+002 63728 76572,76650,76624
 2.3000e+000 76751 -3.0526e+002 -4.3160e+002  3.6281e+002 63728 76494,76702,76520
 2.3000e+000 76728 -8.9991e+001 -2.2465e+002  1.4229e+002 63728 76572,76624,76598
 2.3000e+000 77065 -2.1135e+002 -3.7244e+002  3.4453e+002 63288 77088,76941,76915
 2.3000e+000 77042 -4.9813e+002 -4.5879e+002  3.3159e+002 63288 77088,76915,76993
 2.3000e+000 77019 -1.0826e+002 -5.1695e+002  2.3462e+002 63288 76889,76993,76915
 2.3000e+000 77114 -3.6026e+002 -4.0940e+002  2.8783e+002 63288 76967,76941,77088
 2.3000e+000 77137 -8.0041e+002 -5.1497e+002  1.5443e+002 63288 77160,77088,76993
 2.3000e+000 77186 -2.0970e+002 -2.5081e+002  2.2482e+002 63288 76967,77088,77160
 2.3000e+000 77417 -2.4561e+002 -3.7784e+002  1.7215e+002 62884 77440,77342,77316
 2.3000e+000 77394 -5.5136e+002 -4.9758e+002  7.6118e+001 62884 77770,77440,77316
 2.3000e+000 77466 -3.9563e+002 -5.2405e+002  4.4139e+001 62884 77512,77440,77368
 2.3000e+000 77489 -3.6685e+002 -4.6776e+002  3.5158e+001 62884 77642,77440,77290
 2.3000e+000 77538 -2.3242e+002 -4.0596e+002 -7.9645e+000 62884 77342,77440,77512
 2.3000e+000 77668 -4.1548e+002 -5.6307e+002  1.8035e+001 62884 77368,77440,77642
 2.3000e+000 77796 -4.0003e+002 -4.2376e+002  5.3172e+001 62884 77290,77440,77770
 2.3000e+000 78479 -8.1196e+002 -8.3662e+002  4.3894e+002 62480 78084,78240,78214
 2.3000e+000 78456 -5.6092e+002 -7.0973e+002  6.3904e+001 62480 78084,78266,78240
 2.3000e+000 78433 -6.1080e+002 -6.7784e+002  2.3257e+002 62480 78110,78214,78136
 2.3000e+000 78410 -6.9510e+002 -7.2976e+002  3.9439e+002 62480 78084,78214,78110
 2.3000e+000 78387 -4.7398e+002 -5.6804e+002  2.8009e+002 62480 78136,78214,78188
 2.3000e+000 78364 -5.1933e+002 -8.4542e+002  1.1902e+001 62480 78058,78266,78084
 2.3000e+000 78341 -3.2855e+002 -4.7143e+002  1.9640e+002 62480 78136,78188,78162
 2.3000e+000 78318 -6.7334e+002 -6.4362e+002 -2.9285e+002 62480 78058,78292,78266
 2.3000e+000 78678 -5.5250e+002 -9.4713e+002  3.4680e+002 61926 78528,78606,78554
 2.3000e+000 78655 -2.2911e+002 -1.0695e+003  4.6473e+002 61926 78502,78606,78528
 2.3000e+000 78632 -3.7162e+002 -5.9032e+002  1.9506e+002 61926 78554,78606,78580
 2.3000e+000 79058 -5.3662e+002 -5.5004e+002  2.9107e+002 61614 78836,78914,78862
 2.3000e+000 79035 -6.6949e+002 -6.6595e+002  2.3616e+002 61614 78810,78914,78836
 2.3000e+000 79012 -4.4265e+002 -5.6912e+002  2.4894e+002 61614 78784,78914,78810
 2.3000e+000 78989 -4.7801e+002 -6.2443e+002  4.4744e+002 61614 78862,78914,78888
 2.3000e+000 78966 -3.8418e+002 -7.1978e+002  2.8162e+002 61614 78784,78940,78914
 2.3000e+000 79208 -4.1641e+002 -9.7103e+002  2.0178e+001 61366 79081,79133,79107
 2.3000e+000 79185 -4.1150e+002 -6.8394e+002  2.8473e+002 61366 79081,79159,79133
 2.3000e+000 79358  1.8598e+001  1.6503e+001  4.5993e+001 60962 79231,79283,79257
 2.3000e+000 79335 -1.5587e+002 -3.6695e+002  9.4636e+001 60962 79231,79309,79283
 2.3000e+000 79608 -3.3531e+002 -7.6894e+002  2.7410e+002 60508 79631,79435,79409
 2.3000e+000 79585 -2.3178e+002 -7.8464e+002  1.7642e+002 60508 79703,79631,79409
 2.3000e+000 79562 -2.0160e+002 -3.9209e+002  2.4460e+002 60508 79703,79409,79383
 2.3000e+000 79539 -7.8313e+002 -6.0938e+002  5.0371e+002 60508 79435,79487,79461
 2.3000e+000 79657 -3.8933e+002 -9.4933e+002  4.6924e+002 60508 79487,79435,79631
 2.3000e+000 79680 -1.9393e+002 -7.2112e+002  2.3222e+002 60508 79487,79631,79513
 2.3000e+000 79729 -1.4078e+002 -4.2532e+002  8.8136e+001 60508 79513,79631,79703
 2.3000e+000 79752 -2.4999e+002 -3.7874e+002  3.6635e+001 60508 79513,79703,79383
 2.3000e+000 80390 -4.5973e+002 -5.3665e+002  4.2640e+002 59997 80413,80096,80018
 2.3000e+000 80367 -7.6518e+002 -6.4868e+002  4.8455e+002 59997 80413,80018,80226
 2.3000e+000 80344 -4.0251e+002 -4.5700e+002  2.5148e+002 59997 80096,80174,80148
 2.3000e+000 80321 -1.3904e+003 -9.8744e+002  6.7995e+002 59997 80018,80096,80070
 2.3000e+000 80298 -6.0312e+002 -5.0318e+002  2.5031e+002 59997 80096,80148,80122
 2.3000e+000 80275 -4.4330e+002 -5.2617e+002  3.3700e+002 59997 80174,80226,80200
 2.3000e+000 80252 -8.7767e+002 -6.1288e+002  1.0089e+002 59997 80018,80070,80044
 2.3000e+000 80439 -3.8570e+002 -5.9828e+002  3.1010e+002 59997 80174,80096,80413
 2.3000e+000 80462 -5.1438e+002 -5.5714e+002  3.4119e+002 59997 80174,80413,80226
 2.3000e+000 80840 -6.6534e+002 -5.8745e+002  2.8163e+002 59443 80863,80644,80618
 2.3000e+000 80817 -2.4335e+002 -4.4237e+002  3.1910e+002 59443 80863,80618,80566
 2.3000e+000 80794 -2.2002e+002 -3.9486e+002  4.0045e+002 59443 81007,80935,80670
 2.3000e+000 80771 -3.3627e+002 -3.9983e+002  3.4814e+002 59443 80566,80722,80696
 2.3000e+000 80748 -3.0342e+002 -5.7360e+002  3.5932e+002 59443 80566,80618,80592
 2.3000e+000 80889 -7.3664e+002 -5.5439e+002  4.7709e+002 59443 80935,80644,80863
 2.3000e+000 80912 -4.8742e+002 -4.7434e+002  3.8357e+002 59443 80696,80863,80566
 2.3000e+000 80961 -4.0866e+002 -4.6435e+002  4.7123e+002 59443 80696,80670,80935
 2.3000e+000 80984 -3.9686e+002 -3.8372e+002  4.1997e+002 59443 80696,80935,80863
 2.3000e+000 81033 -5.4521e+002 -7.7856e+002  5.6609e+002 59443 80644,80935,81007
 2.3000e+000 81360 -7.0476e+002 -3.4154e+002  2.7804e+002 59031 81383,81187,81161
 2.3000e+000 81337 -6.0965e+002 -3.9160e+002  5.6352e+001 59031 81455,81383,81161
 2.3000e+000 81314 -4.8970e+002 -2.5142e+002  1.1263e+002 59031 81455,81161,81135
 2.3000e+000 81291 -1.2088e+003 -2.8304e+002  5.3015e+002 59031 81187,81239,81213
 2.3000e+000 81409 -7.5488e+002 -6.9875e+002  4.1595e+002 59031 81239,81187,81383
 2.3000e+000 81432 -7.6737e+002 -4.8374e+002  8.8665e+001 59031 81239,81383,81265
 2.3000e+000 81481 -7.0754e+002 -1.3672e+002  1.0061e+002 59031 81265,81383,81455
 2.3000e+000 81504 -6.9537e+002 -9.4773e+001  1.1830e+002 59031 81265,81455,81135
 2.3000e+000 81835 -9.2314e+001 -2.9369e+002  1.1740e+002 58577 81610,81714,81636
 2.3000e+000 81812 -6.4239e+001 -3.7486e+002  1.3552e+002 58577 81610,81740,81714
 2.3000e+000 81789 -2.5165e+002 -3.4758e+002  2.5162e+001 58577 81636,81714,81688
 2.3000e+000 81766 -2.2822e+002 -3.0372e+002 -7.1534e+001 58577 81636,81688,81662
 2.3000e+000 81985 -1.4482e+002 -3.5490e+002  2.1547e+002 58030 81884,81936,81910
 2.3000e+000 81962 -3.0552e+002 -9.8864e+001  1.4364e+002 58030 81858,81936,81884
 2.3000e+000 82414 -1.2347e+002 -4.8892e+001  1.6256e+002 57690 82437,82169,82117
 2.3000e+000 82391 -1.5537e+002 -2.0241e+002  1.8414e+002 57690 82437,82117,82247
 2.3000e+000 82368  7.4719e+001  1.1115e+002  4.1870e+002 57690 82195,82247,82221
 2.3000e+000 82345 -1.2709e+002 -1.9026e+002  1.8830e+002 57690 82091,82247,82117
 2.3000e+000 82322 -2.1265e+002 -5.7525e+001  1.1100e+002 57690 82117,82169,82143
 2.3000e+000 82299 -1.4552e+002 -3.5206e+002  2.5973e+002 57690 82091,82273,82247
 2.3000e+000 82463 -1.7688e+002  1.3432e+001  2.3596e+002 57690 82195,82169,82437
 2.3000e+000 82486 -1.8966e+002 -9.7183e+001  2.3278e+002 57690 82195,82437,82247
 2.3000e+000 83041 -3.6093e+002 -3.6131e+002  2.4460e+002 57172 83064,82721,82695
 2.3000e+000 83018 -4.0024e+002 -3.8813e+002  3.5531e+002 57172 83064,82695,82851
 2.3000e+000 82995 -1.1308e+003 -5.4660e+002  4.9954e+002 57172 82669,82851,82695
 2.3000e+000 82972 -6.6604e+002 -4.4102e+002  3.3768e+002 57172 82773,82851,82825
 2.3000e+000 82949 -6.1687e+002 -4.8798e+002  5.0012e+002 57172 82773,82825,82799
 2.3000e+000 82926 -4.4520e+002 -2.7708e+002  1.9878e+002 57172 82721,82773,82747
 2.3000e+000 82903 -1.1493e+003 -4.3306e+002  6.2044e+002 57172 82669,82877,82851
 2.3000e+000 83090 -5.3976e+002 -4.3175e+002  2.3915e+002 57172 82773,82721,83064
 2.3000e+000 83113 -4.5840e+002 -4.0816e+002  3.4281e+002 57172 82773,83064,82851
 2.3000e+000 83747 -4.1885e+002 -3.8482e+002  2.6233e+002 56554 83770,83427,83401
 2.3000e+000 83724 -4.4645e+002 -4.9486e+002  3.1081e+002 56554 83842,83770,83401
 2.3000e+000 83701 -3.4435e+001 -3.9147e+002  1.0488e+002 56554 83842,83401,83583
 2.3000e+000 83678 -8.5404e+002 -7.2521e+002  6.4064e+002 56554 83914,83531,83505
 2.3000e+000 83655 -5.1867e+002 -3.5273e+002  1.4959e+002 56554 83531,83583,83557
 2.3000e+000 83632 -1.2180e+002 -1.2048e+002  9.1836e+001 56554 83375,83583,83401
 2.3000e+000 83609 -4.6518e+002 -4.0399e+002  2.9540e+002 56554 83427,83479,83453
 2.3000e+000 83796 -4.1479e+002 -3.6932e+002  2.6895e+002 56554 83479,83427,83770
 2.3000e+000 83819 -4.8177e+002 -3.4812e+002  2.9900e+002 56554 83479,83770,83505
 2.3000e+000 83868 -3.0092e+002 -2.3998e+002  3.7887e+002 56554 83505,83770,83842
 2.3000e+000 83891 -5.5615e+002 -4.4226e+002  4.6719e+002 56554 83914,83505,83842
 2.3000e+000 83940 -3.9457e+002 -7.1418e+002  3.5078e+002 56554 83583,83531,83914
 2.3000e+000 83963 -1.8983e+002 -6.7846e+002  2.6077e+002 56554 83583,83914,83842
 2.3000e+000 84341 -2.3269e+002 -8.8663e+002  2.4311e+002 56192 84067,84145,84119
 2.3000e+000 84318 -1.3381e+002 -8.1536e+002  1.8465e+002 56192 84067,84223,84145
 2.3000e+000 84295 -3.1395e+002 -8.0143e+002 -9.4444e-001 56192 84145,84223,84197
 2.3000e+000 84272 -4.7235e+001 -1.2753e+003  3.7277e+002 56192 84067,84119,84093
 2.3000e+000 84249 -5.6526e+002 -2.5454e+002  1.4373e+002 56192 84145,84197,84171
 2.3000e+000 84611 -2.1438e+002 -5.5937e+002  4.0022e+002 55538 84386,84490,84412
 2.3000e+000 84588 -1.8656e+002 -4.9020e+002  3.8126e+002 55538 84386,84516,84490
 2.3000e+000 84565 -4.7822e+002 -6.7359e+002  3.8532e+002 55538 84412,84490,84464
 2.3000e+000 84542 -2.7762e+002 -6.6912e+002  2.4151e+002 55538 84412,84464,84438
 2.3000e+000 84942 -4.9740e+002 -4.3449e+002  3.6389e+002 55084 84769,84847,84795
 2.3000e+000 84919 -5.0387e+002 -4.8710e+002  3.1070e+002 55084 84717,84847,84769
 2.3000e+000 84896 -5.6457e+002 -6.3418e+002  2.9990e+002 55084 84717,84769,84743
 2.3000e+000 84873 -5.7820e+002 -2.1927e+002  3.0956e+002 55084 84795,84847,84821
 2.3000e+000 85271 -9.5945e+000 -1.3988e+002  2.0452e+002 54580 85294,85098,85072
 2.3000e+000 85248 -5.2190e+002 -3.4081e+002  3.2691e+002 54580 85294,85072,85176
 2.3000e+000 85225 -7.9005e+002 -1.3301e+001  9.6723e+001 54580 85124,85176,85150
 2.3000e+000 85202 -8.9690e+001 -2.8926e+002  7.3231e+001 54580 85046,85176,85072
 2.3000e+000 85320 -4.7171e+002 -1.5435e+002  2.7547e+002 54580 85124,85098,85294
 2.3000e+000 85343 -7.4251e+002 -1.5244e+002  3.5551e+002 54580 85124,85294,85176
 2.3000e+000 85542 -3.1794e+002 -5.3527e+002  2.2651e+002 53976 85565,85444,85418
 2.3000e+000 85519 -2.7891e+002 -4.5514e+002  2.3990e+002 53976 85565,85418,85366
 2.3000e+000 85496 -2.4192e+002 -4.1562e+002  1.9694e+002 53976 85366,85418,85392
 2.3000e+000 85591 -4.7336e+002 -5.2700e+002  1.0827e+002 53976 85470,85444,85565
 2.3000e+000 85614 -3.1161e+002 -2.1850e+002  1.6711e+002 53976 85470,85565,85366
 2.3000e+000 85960 -5.6781e+002 -6.1465e+002  2.4909e+002 53572 85663,85715,85689
 2.3000e+000 85937 -5.5999e+002 -5.9802e+002  2.7222e+002 53572 85983,85715,85663
 2.3000e+000 85914 -7.8096e+002 -7.7482e+002  3.4889e+002 53572 86055,85983,85663
 2.3000e+000 85891 -7.4026e+002 -7.7395e+002  4.8497e+002 53572 86055,85663,85637
 2.3000e+000 85868 -1.0915e+003 -1.5676e+003  5.7301e+002 53572 85637,85793,85767
 2.3000e+000 85845 -1.7875e+003 -5.7179e+002  3.4719e+002 53572 85637,85819,85793
 2.3000e+000 86009 -7.5925e+002 -4.8495e+002  2.6942e+002 53572 85741,85715,85983
 2.3000e+000 86032 -8.5365e+002 -5.2026e+002  3.0894e+002 53572 85741,85983,85767
 2.3000e+000 86081 -6.8268e+002 -4.5660e+002  3.0760e+002 53572 85767,85983,86055
 2.3000e+000 86104 -7.2096e+002 -6.0353e+002  4.3549e+002 53572 85767,86055,85637
 2.3000e+000 86693 -9.6078e+002 -1.8713e+002  4.8734e+002 52946 86474,86526,86500
 2.3000e+000 86670 -1.7264e+002 -5.7615e+001  1.2438e+002 52946 86396,86526,86474
 2.3000e+000 86647 -7.1200e+002 -5.3407e+002  3.2628e+002 52946 86370,86526,86396
 2.3000e+000 86624  8.6266e+000  4.1732e+000  6.0520e+000 52946 86422,86474,86448
 2.3000e+000 86601 -2.1419e+002 -5.0892e+001  9.4422e+001 52946 86396,86474,86422
 2.3000e+000 86578 -7.2891e+002 -1.7279e+002  2.0990e+002 52946 86370,86552,86526
 2.3000e+000 87376 -4.9681e+002 -4.3347e+002  2.1406e+002 52420 87007,87085,87033
 2.3000e+000 87353 -4.1413e+002 -4.0914e+002  2.1555e+002 52420 87007,87163,87085
 2.3000e+000 87330 -6.1419e+002 -4.2002e+002  2.5432e+002 52420 87007,87189,87163
 2.3000e+000 87307 -5.6144e+002 -4.0192e+002  2.7709e+002 52420 87033,87085,87059
 2.3000e+000 87284 -5.4133e+002 -4.5193e+002  5.5176e+001 52420 87085,87137,87111
 2.3000e+000 87261 -3.6306e+002 -4.4534e+002  6.1244e+001 52420 87085,87163,87137
 2.3000e+000 87238 -4.3137e+002 -5.8688e+002  5.3153e+002 52420 86955,87189,87007
 2.3000e+000 87215 -2.7629e+002 -3.3491e+002  3.2287e+002 52420 86955,87007,86981
 2.3000e+000 87624 -3.2133e+002 -5.6815e+002  1.9154e+002 51916 87451,87503,87477
 2.3000e+000 87601 -3.5371e+002 -7.3301e+002  1.7643e+002 51916 87425,87503,87451
 2.3000e+000 87578 -3.2852e+002 -7.1891e+002  1.8201e+002 51916 87425,87529,87503
 2.3000e+000 87555 -2.0806e+002 -5.0350e+002  2.2980e+002 51916 87399,87529,87425
 2.3000e+000 88053 -4.9835e+002 -4.2243e+002  1.7029e+002 51568 87782,87834,87808
 2.3000e+000 88030 -6.2933e+002 -4.1494e+002  3.0703e+002 51568 88076,87782,87886
 2.3000e+000 88007 -5.6236e+002 -2.5916e+002  2.6016e+002 51568 88076,87886,87860
 2.3000e+000 87984 -7.7159e+002 -5.9961e+002  2.4501e+002 51568 87756,87886,87782
 2.3000e+000 87961 -5.8274e+002 -4.7658e+002  4.9046e+002 51568 87756,87912,87886
 2.3000e+000 87938 -6.6441e+002 -3.1636e+002  4.6217e+002 51568 87730,87912,87756
 2.3000e+000 88102 -5.3521e+002 -4.8989e+002  2.0226e+002 51568 87834,87782,88076
 2.3000e+000 88125 -4.7625e+002 -3.8653e+002  1.6075e+002 51568 87834,88076,87860
 2.3000e+000 88324 -4.4133e+002 -4.5740e+002  1.4605e+002 51164 88419,88347,88200
 2.3000e+000 88301 -3.1131e+002 -4.6749e+002  2.3648e+002 51164 88347,88148,88252
 2.3000e+000 88278 -5.7578e+002 -8.1024e+002  1.3031e+002 51164 88419,88200,88174
 2.3000e+000 88373 -3.0471e+002 -3.3155e+002  1.9828e+002 51164 88226,88200,88347
 2.3000e+000 88396 -2.0758e+001 -4.5209e+002  2.0173e+002 51164 88226,88347,88252
 2.3000e+000 88445 -4.9644e+002 -5.0489e+002  3.4624e+002 51164 88148,88347,88419
 2.3000e+000 88468 -4.8177e+002 -4.7554e+002  3.5780e+002 51164 88148,88419,88174
 2.3000e+000 88738 -4.1748e+002 -5.6793e+002  1.5601e+002 50560 88513,88617,88539
 2.3000e+000 88715 -2.8423e+002 -6.6729e+002  1.0538e+002 50560 88513,88643,88617
 2.3000e+000 88692 -1.7230e+002 -5.2875e+001  1.8538e+002 50560 88539,88591,88565
 2.3000e+000 88669 -1.4614e+002 -3.6331e+002  2.4595e+002 50560 88539,88617,88591
 2.3000e+000 88939 -5.4020e+002 -2.2952e+002  2.7985e+002 50106 88962,88789,88763
 2.3000e+000 88916 -3.9329e+002 -2.5821e+002  2.2178e+002 50106 88962,88763,88841
 2.3000e+000 88893 -5.6345e+002 -3.7282e+002  3.5730e+002 50106 88763,88867,88841
 2.3000e+000 88988 -4.0157e+002 -2.9817e+002  1.7852e+002 50106 88815,88789,88962
 2.3000e+000 89011 -3.2191e+002 -2.2050e+002  2.3910e+002 50106 89034,88962,88841
 2.3000e+000 89060 -2.3089e+002 -8.4495e+001  7.2980e+001 50106 88815,88962,89034
 2.3000e+000 89472 -2.7148e+002 -6.8822e+002  4.2450e+001 49666 89273,89351,89325
 2.3000e+000 89449 -3.8532e+002 -3.2380e+002  1.8067e+002 49666 89273,89377,89351
 2.3000e+000 89426 -3.5046e+002 -5.3585e+002  3.8017e+002 49666 89273,89325,89299
 2.3000e+000 89403 -4.3262e+002 -3.2531e+002  2.2051e+002 49666 89247,89377,89273
 2.3000e+000 89978 -4.6369e+002 -7.7819e+002 -1.6175e+001 49205 89681,89837,89733
 2.3000e+000 89955 -7.5294e+001 -3.9409e+002  1.8612e+002 49205 89655,89837,89681
 2.3000e+000 89932 -6.7742e+002 -7.6892e+002  3.1543e+002 49205 89785,89837,89811
 2.3000e+000 89909 -2.2787e+002 -5.2667e+002  1.3223e+002 49205 89733,89837,89785
 2.3000e+000 89886 -6.2633e+002 -6.5444e+002  2.8389e+002 49205 89733,89785,89759
 2.3000e+000 89863 -1.7283e+002 -3.3162e+002 -2.1062e+002 49205 89681,89733,89707
 2.3000e+000 90177 -3.7669e+002 -4.7506e+002  2.0835e+002 48865 90530,90200,90053
 2.3000e+000 90154 -2.5095e+002 -4.5027e+002  1.9970e+002 48865 90402,90200,90001
 2.3000e+000 90131 -4.1883e+002 -4.2105e+002  2.1289e+002 48865 90530,90053,90027
 2.3000e+000 90226 -4.5552e+002 -5.0429e+002  3.7497e+002 48865 90079,90053,90200
 2.3000e+000 90249 -3.1626e+002 -3.8461e+002  2.5602e+002 48865 90272,90200,90105
 2.3000e+000 90298 -2.6266e+002 -3.4413e+002  2.7420e+002 48865 90079,90200,90272
 2.3000e+000 90428 -2.2985e+002 -1.2511e+002  1.7656e+002 48865 90105,90200,90402
 2.3000e+000 90556 -4.1280e+002 -5.1994e+002  1.9270e+002 48865 90001,90200,90530
 2.3000e+000 90579 -4.7532e+002 -4.7088e+002  1.9106e+002 48865 90001,90530,90027
 2.3000e+000 90827 -4.1318e+002 -4.3658e+002  2.3402e+002 48404 90850,90654,90628
 2.3000e+000 90804 -4.6173e+002 -5.2976e+002  3.7076e+002 48404 90850,90628,90732
 2.3000e+000 90781 -3.2412e+002 -3.1999e+002  1.8635e+002 48404 90680,90732,90706
 2.3000e+000 90758 -6.4835e+002 -3.0336e+002  3.8747e+002 48404 90602,90732,90628
 2.3000e+000 90876 -4.3646e+002 -2.2657e+002  1.8873e+002 48404 90680,90654,90850
 2.3000e+000 90899 -4.7028e+002 -3.9547e+002  2.9264e+002 48404 90680,90850,90732
 2.3000e+000 91000 -2.6978e+002 -6.5152e+002  2.4753e+002 48156 90922,90974,90948
 2.3000e+000 91250 -1.9133e+002 -4.5171e+002  1.2480e+002 47752 91051,91103,91077
 2.3000e+000 91227 -3.2861e+002 -4.6446e+002  1.4388e+002 47752 91025,91103,91051
 2.3000e+000 91204 -5.4429e+002 -6.2420e+002  2.6756e+002 47752 91025,91155,91103
 2.3000e+000 91181 -5.2628e+002 -5.4058e+002  2.5276e+002 47752 91103,91155,91129
 2.3000e+000 91402 -3.2420e+002 -3.8943e+002  2.9854e+002 47191 91425,91301,91275
 2.3000e+000 91379 -2.6441e+002 -3.6745e+002  3.2453e+002 47191 91497,91425,91275
 2.3000e+000 91451 -3.5040e+002 -1.6450e+002  1.7252e+002 47191 91327,91301,91425
 2.3000e+000 91474 -4.7686e+002 -4.2387e+002  3.4376e+002 47191 91327,91425,91353
 2.3000e+000 91523 -4.0891e+002 -8.1035e+002  3.5224e+002 47191 91353,91425,91497
 2.3000e+000 91854 -3.5633e+002 -3.4217e+002  7.9516e+001 46744 91949,91877,91707
 2.3000e+000 91831 -3.0533e+002 -4.6844e+002  9.4380e+001 46744 91877,91655,91629
 2.3000e+000 91808 -3.2132e+002 -3.5619e+002  9.2035e+001 46744 91949,91707,91681
 2.3000e+000 91785 -7.6409e+002 -4.6609e+002 -8.7964e+001 46744 91629,91759,91733
 2.3000e+000 91903 -5.3874e+002 -4.4297e+002  1.5051e+002 46744 91733,91707,91877
 2.3000e+000 91926 -3.2034e+002 -4.9344e+002  1.0076e+002 46744 91733,91877,91629
 2.3000e+000 91975 -2.7589e+002 -4.3816e+002  1.6901e+002 46744 91655,91877,91949
 2.3000e+000 91998 -1.1999e+002 -3.8029e+002  1.5026e+002 46744 91655,91949,91681
 2.3000e+000 92378 -3.5320e+002 -1.0135e+002  2.1762e+002 46090 92130,92208,92182
 2.3000e+000 92355 -4.7122e+002 -1.5235e+002  2.0126e+002 46090 92104,92208,92130
 2.3000e+000 92332 -2.2124e+002 -3.4632e+002  1.8097e+002 46090 92104,92260,92208
 2.3000e+000 92309 -1.7966e+002 -4.2225e+001  1.3805e+002 46090 92208,92260,92234
 2.3000e+000 92286 -5.7666e+002 -1.6710e+002  2.5922e+002 46090 92130,92182,92156
 2.3000e+000 92626 -3.0698e+002 -4.0892e+002  1.7168e+002 45693 92721,92649,92505
 2.3000e+000 92603 -3.3898e+002 -4.1471e+002  3.6601e+002 45693 92649,92453,92427
 2.3000e+000 92580 -3.4225e+002 -3.1149e+002  1.6689e+002 45693 92721,92505,92479
 2.3000e+000 92557 -5.8780e+002 -6.0546e+002  4.5205e+002 45693 92401,92531,92427
 2.3000e+000 92675 -5.3032e+002 -4.1479e+002  2.1784e+002 45693 92531,92505,92649
 2.3000e+000 92698 -5.7267e+002 -5.1679e+002  4.7768e+002 45693 92531,92649,92427
 2.3000e+000 92747 -3.2550e+002 -2.9745e+002  1.7466e+002 45693 92453,92649,92721
 2.3000e+000 92770 -2.2361e+002 -1.0544e+001  2.1756e+002 45693 92453,92721,92479
 2.3000e+000 93172 -2.4505e+002 -4.2422e+002  3.7002e+002 45331 92898,93028,92924
 2.3000e+000 93149 -1.4643e+002 -3.6426e+002  2.4789e+002 45331 92898,93054,93028
 2.3000e+000 93126 -3.4075e+002 -2.8286e+002  4.1701e+002 45331 92924,93002,92976
 2.3000e+000 93103 -1.4182e+002 -3.7875e+002  3.6118e+002 45331 92924,93028,93002
 2.3000e+000 93080 -3.6676e+002 -4.4389e+002  4.2923e+002 45331 92924,92976,92950
 2.3000e+000 93518 -6.2109e+002 -6.9229e+002  4.5946e+002 44820 93613,93273,93247
 2.3000e+000 93495 -5.2558e+002 -5.2985e+002  2.5495e+002 44820 93685,93541,93247
 2.3000e+000 93472 -5.5133e+002 -3.2256e+002  2.2034e+002 44820 93541,93195,93377
 2.3000e+000 93449 -5.6728e+002 -4.7109e+002  2.1025e+002 44820 93685,93247,93221
 2.3000e+000 93426 -4.7229e+002 -6.4150e+002  3.3383e+002 44820 93299,93377,93351
 2.3000e+000 93403 -3.7905e+002 -4.3696e+002  3.9912e+002 44820 93299,93351,93325
 2.3000e+000 93567 -4.4411e+002 -7.0054e+002  1.8944e+002 44820 93613,93247,93541
 2.3000e+000 93590 -4.6764e+002 -5.5353e+002  1.1762e+002 44820 93299,93541,93377
 2.3000e+000 93639 -4.3165e+002 -8.9116e+002  2.6195e+002 44820 93299,93273,93613
 2.3000e+000 93662 -4.8460e+002 -8.7553e+002  2.0589e+002 44820 93299,93613,93541
 2.3000e+000 93711 -5.3810e+002 -4.0042e+002  1.7380e+002 44820 93195,93541,93685
 2.3000e+000 93734 -4.7864e+002 -1.7476e+002  1.3690e+002 44820 93195,93685,93221
 2.3000e+000 94163 -5.0412e+002 -5.1316e+002  2.1798e+002 44237 94258,94186,93996
 2.3000e+000 94140 -5.6068e+002 -5.8643e+002  1.3790e+002 44237 94330,94022,93996
 2.3000e+000 94117 -5.7630e+002 -5.3082e+002  1.6897e+002 44237 94186,93918,93866
 2.3000e+000 94094 -4.5243e+002 -4.0817e+002  2.3456e+002 44237 94258,93996,93970
 2.3000e+000 94071 -5.3813e+002 -3.0345e+002  2.3055e+002 44237 94402,93944,93918
 2.3000e+000 94048 -2.5792e+002 -4.0200e+002  1.4085e+002 44237 93866,93918,93892
 2.3000e+000 94212 -5.6021e+002 -5.9508e+002  1.7574e+002 44237 94330,93996,94186
 2.3000e+000 94235 -5.3882e+002 -4.8799e+002  1.9204e+002 44237 93840,94186,93866
 2.3000e+000 94284 -5.2077e+002 -4.0600e+002  1.5841e+002 44237 93918,94186,94258
 2.3000e+000 94307 -4.9863e+002 -3.2443e+002  1.7939e+002 44237 94402,93918,94258
 2.3000e+000 94356 -5.9989e+002 -2.5030e+002  3.5261e+001 44237 93840,94022,94330
 2.3000e+000 94379 -5.3133e+002 -5.2167e+002  1.8941e+002 44237 93840,94330,94186
 2.3000e+000 94428 -6.0832e+002 -4.0222e+002  2.6195e+002 44237 93970,93944,94402
 2.3000e+000 94451 -5.5421e+002 -4.1599e+002  2.0269e+002 44237 93970,94402,94258
 2.3000e+000 94908 -4.9168e+002 -6.2545e+002  9.9053e+001 43890 94660,94790,94712
 2.3000e+000 94885 -2.3898e+002 -2.3978e+002  2.2995e+002 43890 94634,94790,94660
 2.3000e+000 94862 -5.0197e+002 -3.5511e+002  1.6168e+002 43890 94712,94764,94738
 2.3000e+000 94839 -3.8361e+002 -4.1671e+002  1.9163e+002 43890 94712,94790,94764
 2.3000e+000 94816 -5.6732e+002 -4.0900e+002 -1.4174e+002 43890 94660,94712,94686
 2.3000e+000 95414 -3.1632e+002 -1.5046e+002  1.4893e+002 43186 95437,95143,95117
 2.3000e+000 95391 -3.8488e+002 -4.5492e+002  1.7702e+002 43186 95437,95117,95091
 2.3000e+000 95368 -9.6823e+001 -1.6902e+002  2.0018e+002 43186 95143,95221,95195
 2.3000e+000 95345 -6.1032e+002 -4.2853e+002  5.0361e+002 43186 95091,95273,95221
 2.3000e+000 95322 -3.5247e+002 -2.2848e+002  2.6061e+002 43186 95221,95273,95247
 2.3000e+000 95299 -1.7365e+002 -1.1635e+001  4.2209e+001 43186 95143,95195,95169
 2.3000e+000 95463 -2.8370e+002 -3.5686e+002  2.9710e+002 43186 95221,95143,95437
 2.3000e+000 95486 -3.1891e+002 -5.9779e+002  3.3675e+002 43186 95221,95437,95091
 2.3000e+000 96041 -6.2557e+002 -5.6236e+002  1.8100e+002 42782 95695,95851,95799
 2.3000e+000 96018 -5.8728e+002 -7.3158e+002  1.6978e+002 42782 95669,95851,95695
 2.3000e+000 95995 -5.4591e+002 -3.0014e+002  1.8701e+002 42782 95695,95747,95721
 2.3000e+000 95972 -4.2937e+002 -4.7629e+002  1.6566e+002 42782 95695,95799,95747
 2.3000e+000 95949 -3.7749e+002 -2.4187e+002  1.0488e+002 42782 95747,95799,95773
 2.3000e+000 95926 -7.2961e+002 -7.1560e+002  2.3574e+002 42782 95799,95851,95825
 2.3000e+000 95903 -8.6383e+002 -8.9153e+002  2.5014e+002 42782 95669,95877,95851
 2.3000e+000 96370 -5.5747e+002 -7.5517e+002  3.2807e+002 42420 96197,96275,96223
 2.3000e+000 96347 -5.1764e+002 -6.8771e+002  3.4523e+002 42420 96145,96275,96197
 2.3000e+000 96324 -5.3621e+002 -4.9165e+002  3.5759e+002 42420 96145,96197,96171
 2.3000e+000 96301 -3.9805e+002 -5.7845e+002  1.9743e+002 42420 96223,96275,96249
 2.3000e+000 96699 -2.4783e+002 -5.1859e+002 -3.4621e+001 41816 96474,96578,96526
 2.3000e+000 96676 -2.9129e+002 -4.5255e+002 -1.2801e+002 41816 96474,96604,96578
 2.3000e+000 96653 -2.0720e+002 -4.3339e+002 -1.9486e+000 41816 96526,96578,96552
 2.3000e+000 96630 -2.6099e+002 -5.2722e+002 -1.9447e+001 41816 96474,96526,96500
 2.3000e+000 96947 -2.5228e+002 -5.8979e+002  6.1986e+001 41212 96722,96800,96748
 2.3000e+000 96924 -3.2068e+002 -5.7288e+002  9.2577e+001 41212 96722,96826,96800
 2.3000e+000 96901 -4.7091e+002 -6.5937e+002  1.3116e+002 41212 96722,96852,96826
 2.3000e+000 96878 -1.2912e+002 -5.3228e+002  8.1870e+001 41212 96748,96800,96774
 2.3000e+000 97097 -2.7485e+002 -3.6152e+001  2.8104e+002 40793 97120,97022,96996
 2.3000e+000 97074 -5.4278e+002 -5.9530e+002  1.7085e+002 40793 97192,97120,96996
 2.3000e+000 97146 -1.9971e+002 -4.8847e+002  2.4679e+002 40793 97324,97120,97048
 2.3000e+000 97169 -1.7691e+002 -8.3385e+002  2.3233e+002 40793 97048,97120,96970
 2.3000e+000 97218 -8.4828e+001 -4.0080e+002  1.7651e+002 40793 96970,97120,97192
 2.3000e+000 97350 -1.9971e+002 -4.8847e+002  2.4679e+002 40793 97022,97120,97324
 2.3000e+000 97878 -3.3516e+002 -6.2331e+002  1.3749e+002 40446 97901,97607,97555
 2.3000e+000 97855 -2.9927e+002 -4.1845e+002  1.2916e+002 40446 97973,97901,97555
 2.3000e+000 97832 -1.5588e+002 -3.3599e+002  9.5821e+001 40446 97973,97555,97737
 2.3000e+000 97809 -5.3414e+002 -7.4704e+002  2.5730e+002 40446 97633,97685,97659
 2.3000e+000 97786 -3.6272e+002 -5.2280e+002  1.4478e+002 40446 97633,97711,97685
 2.3000e+000 97763 -3.1757e+002 -7.0220e+002  1.7021e+002 40446 97555,97607,97581
 2.3000e+000 97927 -3.3301e+002 -7.6480e+002 -3.8259e+001 40446 97633,97607,97901
 2.3000e+000 97950 -2.8963e+002 -6.1212e+002  1.2018e+002 40446 97633,97901,97711
 2.3000e+000 97999 -9.8861e+001 -5.6908e+002  1.9541e+002 40446 97711,97901,97973
 2.3000e+000 98022  9.6400e+000 -4.9033e+002  1.5877e+002 40446 97711,97973,97737
 2.3000e+000 98449 -2.1182e+002 -1.3405e+002  1.3994e+002 39935 98152,98204,98178
 2.3000e+000 98426 -3.1955e+002 -1.8336e+002  9.3242e+001 39935 98152,98230,98204
 2.3000e+000 98403 -4.8244e+002 -2.7234e+002  2.3832e+002 39935 98152,98256,98230
 2.3000e+000 98380 -3.6253e+002 -3.0074e+002  2.3953e+002 39935 98126,98256,98152
 2.3000e+000 98357 -4.9012e+002 -6.3368e+002  2.4843e+002 39935 98126,98282,98256
 2.3000e+000 98334 -2.6190e+002 -8.2758e+002  2.9882e+002 39935 98126,98308,98282
 2.3000e+000 98746 -7.3740e+002 -5.8938e+002  2.8014e+002 39531 98498,98602,98524
 2.3000e+000 98723 -4.7961e+002 -5.8301e+002  2.2566e+002 39531 98472,98602,98498
 2.3000e+000 98700 -8.2900e+002 -3.4873e+002  1.5705e+002 39531 98524,98602,98576
 2.3000e+000 98677 -3.8602e+002 -5.3665e+002  2.0593e+002 39531 98472,98628,98602
 2.3000e+000 98654 -7.6400e+002 -7.6065e+002 -1.6706e+002 39531 98524,98576,98550
 2.3000e+000 99224 -8.3429e+002 -4.5308e+002  5.4677e+002 39027 99247,98956,98930
 2.3000e+000 99201 -7.1887e+002 -3.5092e+002  2.4945e+002 39027 99247,98930,98878
 2.3000e+000 99178 -6.0296e+002 -4.4588e+002  3.0598e+002 39027 99319,98982,98956
 2.3000e+000 99155 -6.5188e+002 -3.4372e+002  1.7593e+002 39027 98852,99060,98878
 2.3000e+000 99132 -8.7147e+002 -3.6251e+002  2.4816e+002 39027 98878,98930,98904
 2.3000e+000 99109 -5.1623e+002 -9.0026e+002  4.4021e+002 39027 98982,99060,99034
 2.3000e+000 99086 -5.8416e+002 -9.1230e+002  6.1305e+002 39027 98982,99034,99008
 2.3000e+000 99273 -5.3329e+002 -3.2425e+002  3.4782e+002 39027 99319,98956,99247
 2.3000e+000 99296 -5.9485e+002 -3.0725e+002  1.9434e+002 39027 99060,99247,98878
 2.3000e+000 99345 -6.0845e+002 -5.0403e+002  2.4415e+002 39027 99060,98982,99319
 2.3000e+000 99368 -6.1719e+002 -4.7574e+002  2.7215e+002 39027 99060,99319,99247
 2.3000e+000 99923 -5.3638e+002 -4.8592e+002  2.6126e+002 38523 99946,99655,99603
 2.3000e+000 99900 -4.5345e+002 -4.4596e+002  2.7624e+002 38523 99946,99603,99759
 2.3000e+000 99877 -2.9204e+002 -6.1861e+002  3.1566e+002 38523 100018,99707,99681
 2.3000e+000 99854 -4.9423e+002 -3.1281e+002  2.6027e+002 38523 99551,99759,99603
 2.3000e+000 99831 -5.5124e+002 -3.6726e+002  3.0699e+002 38523 99551,99603,99577
 2.3000e+000 99808 -5.1071e+002 -7.0450e+002  1.7948e+002 38523 99707,99759,99733
 2.3000e+000 99785 -3.9442e+002 -4.0418e+002  2.1919e+002 38523 99603,99655,99629
 2.3000e+000 99972 -4.3053e+002 -2.5068e+002  2.8282e+002 38523 99681,99655,99946
 2.3000e+000 99995 -3.4009e+002 -3.6176e+002  3.6597e+002 38523 100018,99681,99946
 2.3000e+000 100044 -3.8215e+002 -7.2170e+002  1.9614e+002 38523 99759,99707,100018
 2.3000e+000 100067 -5.1982e+002 -6.2359e+002  2.5071e+002 38523 99759,100018,99946
 2.3000e+000 100467 -1.1739e+002 -2.1418e+002  7.7684e+001 38125 100219,100349,100323
 2.3000e+000 100444 -7.5172e+001 -1.7856e+002  1.0070e+002 38125 100193,100349,100219
 2.3000e+000 100421 -9.0879e+001 -2.3230e+002  7.6347e+001 38125 100245,100323,100297
 2.3000e+000 100398 -8.4582e+001 -1.9966e+002  8.1036e+001 38125 100219,100323,100245
 2.3000e+000 100375 -1.9118e+002 -2.8143e+002  5.8303e+001 38125 100245,100297,100271
 2.3000e+000 100666 -5.4199e+002 -8.4878e+002  2.3559e+002 37607 100689,100568,100542
 2.3000e+000 100643 -3.9496e+002 -4.0983e+002  2.1021e+002 37607 100689,100542,100490
 2.3000e+000 100620 -2.4186e+002 -2.8884e+002  1.3490e+002 37607 100490,100542,100516
 2.3000e+000 100715 -4.0596e+002 -4.2312e+002  1.6200e+002 37607 100594,100568,100689
 2.3000e+000 100738 -4.8794e+002 -3.0418e+002  1.7309e+002 37607 100594,100689,100490
 2.3000e+000 100937 -3.2413e+002 -3.0861e+002  2.8313e+002 37017 100960,100813,100787
 2.3000e+000 100914 -2.3011e+002 -3.1539e+002  1.4672e+002 37017 100960,100787,100761
 2.3000e+000 100891 -5.7955e+002 -2.3770e+002  3.2114e+002 37017 100813,100865,100839
 2.3000e+000 100986 -4.6463e+002 -4.6184e+002  3.8797e+002 37017 100865,100813,100960
 2.3000e+000 101009 -2.7710e+002 -3.9428e+002  2.4062e+002 37017 100865,100960,100761
 2.3000e+000 101519 -3.8323e+002 -2.3004e+002  9.2625e+001 36613 101222,101274,101248
 2.3000e+000 101496 -1.5435e+002 -1.6871e+002  9.4785e+001 36613 101222,101352,101274
 2.3000e+000 101473 -1.2415e+002 -3.2406e+002  1.1611e+001 36613 101274,101352,101326
 2.3000e+000 101450 -2.7862e+002 -2.0410e+002  7.8672e+001 36613 101222,101378,101352
 2.3000e+000 101427 -1.5136e+002 -5.4373e+002  1.6569e+001 36613 101274,101326,101300
 2.3000e+000 101404 -2.8068e+002 -2.3827e+002  1.2472e+002 36613 101196,101378,101222
 2.3000e+000 101718 -4.4574e+002 -4.3619e+002  4.7016e+002 36308 101594,101646,101620
 2.3000e+000 101695 -4.6886e+002 -2.6869e+002  3.0273e+002 36308 101568,101646,101594
 2.3000e+000 101672 -3.2682e+002 -3.2170e+002  3.2233e+002 36308 101542,101646,101568
 2.3000e+000 102098 -4.3317e+002 -3.3354e+002  1.9964e+002 35918 102121,101954,101876
 2.3000e+000 102075 -3.9364e+002 -4.5812e+002  1.3736e+002 35918 102121,101876,101824
 2.3000e+000 102052 -4.0096e+002 -3.1873e+002  1.5367e+002 35918 101876,101954,101928
 2.3000e+000 102029 -5.3567e+002 -1.5171e+002  1.7762e+002 35918 101876,101928,101902
 2.3000e+000 102006 -4.0539e+002 -5.6788e+002  2.5279e+002 35918 101824,101876,101850
 2.3000e+000 102147 -3.7106e+002 -4.5147e+002  2.5793e+002 35918 101980,101954,102121
 2.3000e+000 102170 -3.5859e+002 -6.0724e+002  1.7754e+002 35918 101980,102121,101824
 2.3000e+000 102489 -4.8385e+002 -1.1515e+003  3.4107e+002 35514 102241,102345,102267
 2.3000e+000 102466 -6.7501e+002 -1.2454e+003  3.7262e+002 35514 102215,102345,102241
 2.3000e+000 102443 -5.4773e+002 -1.3348e+003  3.8572e+002 35514 102215,102371,102345
 2.3000e+000 102420 -3.8384e+002 -9.2019e+002  4.0641e+002 35514 102267,102345,102293
 2.3000e+000 102397 -2.1760e+002 -5.9113e+002  4.7291e+002 35514 102293,102345,102319
 2.3000e+000 102820 -7.9541e+002 -4.9077e+002  9.4205e+001 35224 102843,102699,102647
 2.3000e+000 102797 -5.9179e+002 -5.3412e+002  1.9905e+002 35224 102971,102725,102699
 2.3000e+000 102774 -9.8792e+002 -6.0377e+002  5.1534e+002 35224 102595,102725,102621
 2.3000e+000 102751 -2.3462e+002 -2.6444e+002  2.3584e+002 35224 102647,102699,102673
 2.3000e+000 102869 -6.3361e+002 -4.2335e+002  1.6372e+002 35224 102971,102699,102843
 2.3000e+000 102997 -5.9494e+002 -6.1082e+002  1.7622e+002 35224 102621,102725,102971
 2.3000e+000 103020 -6.8132e+002 -5.5310e+002  1.2282e+002 35224 102621,102971,102843
 2.3000e+000 103349 -6.3678e+002 -4.3305e+002  2.8459e+002 34820 103150,103228,103176
 2.3000e+000 103326 -5.0934e+002 -5.2921e+002  2.6440e+002 34820 103124,103228,103150
 2.3000e+000 103303 -5.1082e+002 -5.2294e+002  5.1101e+002 34820 103176,103228,103202
 2.3000e+000 103280 -3.4953e+002 -4.5781e+002  3.3372e+002 34820 103124,103254,103228
 2.3000e+000 103806 -3.7284e+002 -3.7151e+002  1.0349e+002 34530 103558,103662,103636
 2.3000e+000 103783 -4.5602e+002 -3.6538e+002  1.5646e+002 34530 103558,103688,103662
 2.3000e+000 103760 -5.3306e+002 -5.5330e+002  1.4853e+002 34530 103532,103688,103558
 2.3000e+000 103737 -1.4353e+002 -4.1666e+002  9.8290e+001 34530 103584,103636,103610
 2.3000e+000 103714 -7.2307e+002 -4.5074e+002  1.2983e+002 34530 103558,103636,103584
 2.3000e+000 104263 -2.9442e+002 -3.8128e+002  2.4346e+002 34019 103989,104119,104015
 2.3000e+000 104240 -2.3197e+002 -3.4828e+002  2.7445e+002 34019 103989,104145,104119
 2.3000e+000 104217 -3.0522e+002 -4.1337e+002  1.4448e+002 34019 104015,104067,104041
 2.3000e+000 104194 -3.4387e+002 -4.4893e+002  2.2006e+002 34019 104015,104119,104067
 2.3000e+000 104171 -3.1111e+002 -2.9528e+002  2.0027e+002 34019 104067,104119,104093
 2.3000e+000 104641 -3.3769e+002 -2.7109e+002  1.5952e+002 33351 104419,104497,104445
 2.3000e+000 104618 -2.1167e+002 -1.6858e+002  2.1165e+002 33351 104393,104497,104419
 2.3000e+000 104595 -3.8700e+002 -2.6260e+002  6.0195e+001 33351 104367,104497,104393
 2.3000e+000 104572 -4.1076e+002 -4.6473e+002  2.5482e+002 33351 104445,104497,104471
 2.3000e+000 104549 -3.7527e+002 -4.3481e+002  1.5039e+001 33351 104367,104523,104497
 2.3000e+000 105019 -3.9937e+002 -8.9280e+002  4.5859e+002 32861 104823,104901,104875
 2.3000e+000 104996 -5.8690e+002 -1.1064e+003  3.7625e+002 32861 104745,104901,104823
 2.3000e+000 104973 -5.5344e+002 -9.5793e+002  3.8674e+002 32861 104823,104875,104849
 2.3000e+000 104950 -5.9148e+002 -1.1014e+003  5.4605e+002 32861 104745,104823,104797
 2.3000e+000 104927 -7.2971e+002 -4.3755e+002  5.6549e+002 32861 104745,104797,104771
 2.3000e+000 105397 -2.4330e+002 -6.1992e+002  2.4236e+002 32457 105149,105253,105175
 2.3000e+000 105374 -3.6597e+002 -5.2582e+002  1.9882e+002 32457 105149,105279,105253
 2.3000e+000 105351 -3.2614e+002 -4.3421e+002  2.5076e+002 32457 105123,105279,105149
 2.3000e+000 105328 -2.9706e+002 -1.4093e+002  2.8284e+002 32457 105175,105227,105201
 2.3000e+000 105305 -4.7278e+002 -7.1825e+002  2.4310e+002 32457 105175,105253,105227
 2.3000e+000 105726 -1.9471e+002 -6.2222e+002  2.5292e+002 32003 105527,105605,105553
 2.3000e+000 105703 -3.0221e+002 -5.5020e+002  2.4465e+002 32003 105501,105605,105527
 2.3000e+000 105680 -1.5899e+002 -5.0660e+002  2.6026e+002 32003 105501,105631,105605
 2.3000e+000 105657 -9.4688e+001 -3.9050e+002  2.3010e+002 32003 105553,105605,105579
 2.3000e+000 106104 -3.7416e+002 -6.1706e+002  1.1476e+002 31492 106127,105908,105856
 2.3000e+000 106081 -2.3410e+002 -5.5587e+002  1.0109e+002 31492 106127,105856,105830
 2.3000e+000 106058 -3.5142e+002 -7.7306e+002  1.5207e+002 31492 105856,105908,105882
 2.3000e+000 106035 -8.9351e+001 -3.3147e+002  7.5769e+001 31492 105830,105986,105960
 2.3000e+000 106012 -1.5021e+002 -6.4609e+002  3.1768e+002 31492 105908,105960,105934
 2.3000e+000 106153 -4.2105e+002 -5.8646e+002  1.9724e+002 31492 105960,105908,106127
 2.3000e+000 106176 -3.4106e+002 -5.5892e+002  1.8703e+002 31492 105960,106127,105830
 2.3000e+000 106375 -4.3275e+002 -5.0150e+002  3.0458e+002 30788 106398,106277,106251
 2.3000e+000 106352 -4.7489e+002 -6.6409e+002  3.0196e+002 30788 106398,106251,106225
 2.3000e+000 106329 -7.0300e+002 -4.9520e+002  4.6143e+002 30788 106600,106199,106303
 2.3000e+000 106424 -5.5188e+002 -7.3403e+002  2.1794e+002 30788 106470,106398,106303
 2.3000e+000 106447 -4.3233e+002 -5.9875e+002  2.7448e+002 30788 106600,106303,106398
 2.3000e+000 106496 -1.5054e+002 -5.6403e+002  2.3899e+002 30788 106277,106398,106470
 2.3000e+000 106626 -8.6930e+002 -7.1661e+002  5.9922e+002 30788 106225,106199,106600
 2.3000e+000 106649 -6.8030e+002 -8.2970e+002  4.0768e+002 30788 106225,106600,106398
 2.3000e+000 106799 -1.8475e+002 -8.2321e+002 -7.1560e+000 30426 106698,106750,106724
 2.3000e+000 106776 -2.2908e+002 -5.3432e+002 -7.8969e+000 30426 106672,106750,106698
 2.3000e+000 107356 -4.4583e+002 -4.3813e+002  2.1312e+002 29972 107010,107166,107114
 2.3000e+000 107333 -5.7148e+002 -4.0045e+002  3.3143e+002 29972 106984,107166,107010
 2.3000e+000 107310 -5.1818e+002 -3.0023e+002  1.6093e+002 29972 107010,107114,107088
 2.3000e+000 107287 -4.2904e+002 -1.7785e+002  1.3347e+002 29972 107114,107166,107140
 2.3000e+000 107264 -5.9624e+002 -5.5129e+002  4.1523e+002 29972 106984,107192,107166
 2.3000e+000 107241 -7.2338e+002 -6.8746e+002  2.3686e+002 29972 107010,107088,107036
 2.3000e+000 107218 -3.5724e+002 -5.0943e+002  1.5026e+002 29972 107036,107088,107062
 2.3000e+000 107783 -5.9625e+002 -8.2531e+002  3.8907e+002 29724 107878,107806,107590
 2.3000e+000 107760 -6.8402e+002 -8.3251e+002  3.1238e+002 29724 107806,107512,107486
 2.3000e+000 107737 -6.2488e+002 -7.7570e+002  4.6561e+002 29724 107878,107590,107538
 2.3000e+000 107714 -5.5911e+002 -8.7600e+002  3.9741e+002 29724 107950,107460,107616
 2.3000e+000 107691 -4.7342e+002 -8.3083e+002  3.7330e+002 29724 107460,107642,107616
 2.3000e+000 107668 -4.2264e+002 -6.4920e+002  5.2475e+002 29724 107538,107590,107564
 2.3000e+000 107832 -3.9292e+002 -7.9270e+002  4.3336e+002 29724 107616,107590,107806
 2.3000e+000 107855 -5.7199e+002 -8.8382e+002  3.8696e+002 29724 107950,107616,107806
 2.3000e+000 107904 -5.3851e+002 -7.0502e+002  3.7164e+002 29724 107512,107806,107878
 2.3000e+000 107927 -5.7183e+002 -6.3552e+002  4.6040e+002 29724 107512,107878,107538
 2.3000e+000 107976 -2.9338e+002 -8.6768e+002  4.2994e+002 29724 107486,107460,107950
 2.3000e+000 107999 -5.3823e+002 -9.4134e+002  3.6979e+002 29724 107486,107950,107806
 2.3000e+000 108296 -6.3549e+002 -4.8855e+002  3.5006e+002 29206 108319,108100,108048
 2.3000e+000 108273 -3.7220e+002 -4.2986e+002  4.0585e+002 29206 108319,108048,108022
 2.3000e+000 108250 -1.8900e+002 -5.2947e+002  4.8842e+002 29206 108391,108152,108126
 2.3000e+000 108227 -7.0791e+002 -3.5727e+002  4.0694e+002 29206 108048,108100,108074
 2.3000e+000 108204 -2.7902e+002 -7.4264e+002  4.1062e+002 29206 108022,108178,108152
 2.3000e+000 108345 -4.6391e+002 -2.9418e+002  5.0456e+002 29206 108126,108100,108319
 2.3000e+000 108368 -2.5717e+002 -4.1946e+002  5.5484e+002 29206 108391,108126,108319
 2.3000e+000 108417 -3.7043e+002 -6.6706e+002  4.1442e+002 29206 108022,108152,108391
 2.3000e+000 108440 -4.2161e+002 -5.8215e+002  4.8369e+002 29206 108022,108391,108319
 2.3000e+000 108688 -5.5328e+002 -7.0315e+002  4.0920e+002 28595 108711,108541,108515
 2.3000e+000 108665 -8.1595e+002 -7.7462e+002  5.5895e+002 28595 108783,108711,108515
 2.3000e+000 108642 -1.0133e+003 -6.7089e+002  5.6777e+002 28595 108783,108515,108489
 2.3000e+000 108619 -1.0429e+003 -8.2322e+002  2.8125e+002 28595 108463,108593,108489
 2.3000e+000 108737 -5.0654e+002 -5.7051e+002  2.9946e+002 28595 108567,108541,108711
 2.3000e+000 108760 -4.2329e+002 -6.3618e+002  4.8382e+002 28595 108567,108711,108593
 2.3000e+000 108809 -5.1790e+002 -7.6545e+002  4.2551e+002 28595 108593,108711,108783
 2.3000e+000 108832 -8.0390e+002 -7.0569e+002  3.8869e+002 28595 108593,108783,108489
 2.3000e+000 109033 -1.7813e+002 -2.9034e+002  1.3222e+002 28091 108909,108961,108935
 2.3000e+000 109010 -1.9128e+002 -2.9910e+002  1.2766e+002 28091 108857,108961,108909
 2.3000e+000 108987 -4.1535e+002 -5.3648e+002  3.9401e+002 28091 108857,108909,108883
 2.3000e+000 109136 -4.9782e+002 -1.1783e+003  2.1059e+002 27587 109058,109110,109084
 2.3000e+000 109695 -5.2342e+002 -5.7632e+002  1.9597e+002 26969 109718,109375,109323
 2.3000e+000 109672 -5.0308e+002 -5.7700e+002  1.3953e+002 26969 109718,109323,109505
 2.3000e+000 109649 -5.2062e+002 -2.5590e+002  1.0004e+002 26969 109790,109453,109427
 2.3000e+000 109626 -1.8441e+002 -5.6777e+002  2.5732e+002 26969 109323,109375,109349
 2.3000e+000 109603 -4.4800e+002 -5.8010e+002  1.4673e+002 26969 109323,109531,109505
 2.3000e+000 109580 -2.9029e+002 -5.8639e+002  1.0031e+002 26969 109375,109427,109401
 2.3000e+000 109557 -6.0592e+002 -6.0397e+002  2.8659e+002 26969 109453,109505,109479
 2.3000e+000 109744 -5.1512e+002 -6.0028e+002  1.0581e+002 26969 109427,109375,109718
 2.3000e+000 109767 -4.4551e+002 -3.8395e+002  7.4024e+001 26969 109790,109427,109718
 2.3000e+000 109816 -5.1800e+002 -4.0425e+002  1.5754e+002 26969 109505,109453,109790
 2.3000e+000 109839 -4.6947e+002 -5.5387e+002  1.5163e+002 26969 109505,109790,109718
 2.3000e+000 110266 -3.6091e+002 -6.1443e+002  1.4255e+002 26515 110361,110289,110099
 2.3000e+000 110243 -2.7192e+002 -4.3967e+002  1.5412e+002 26515 110289,109995,109943
 2.3000e+000 110220 -4.9040e+002 -6.6537e+002  1.3118e+002 26515 110361,110099,110021
 2.3000e+000 110197 -4.4702e+002 -1.2737e+003  1.3059e+002 26515 110047,110099,110073
 2.3000e+000 110174 -4.9243e+002 -1.1370e+003 -1.2273e+002 26515 110021,110099,110047
 2.3000e+000 110151 -5.8355e+001 -1.5793e+002  2.5139e+002 26515 109943,109995,109969
 2.3000e+000 110315 -4.8638e+002 -3.8456e+002  7.6880e+001 26515 110125,110099,110289
 2.3000e+000 110338 -4.1186e+002 -1.5198e+002  2.9368e+002 26515 110125,110289,109943
 2.3000e+000 110387 -4.7743e+002 -5.8760e+002  3.3756e+000 26515 109995,110289,110361
 2.3000e+000 110410 -5.8301e+002 -6.1501e+002  2.2684e+000 26515 109995,110361,110021
 2.3000e+000 110609 -9.5777e+001 -6.9293e+002  2.3505e+002 25789 110906,110762,110632
 2.3000e+000 110586 -1.2540e+002 -8.4976e+002  2.5919e+002 25789 110762,110433,110537
 2.3000e+000 110563 -4.0149e+002 -7.9098e+002  4.2714e+002 25789 110834,110459,110433
 2.3000e+000 110658 -1.9461e+002 -6.6827e+002  3.1573e+002 25789 110906,110632,110834
 2.3000e+000 110788 -5.6330e+001 -4.6486e+002  1.3808e+002 25789 110511,110632,110762
 2.3000e+000 110811 -1.2939e+002 -6.9693e+002  2.5751e+002 25789 110511,110762,110537
 2.3000e+000 110860 -2.4367e+002 -6.8415e+002  3.5571e+002 25789 110485,110459,110834
 2.3000e+000 110883 -2.9062e+002 -6.5099e+002  3.1565e+002 25789 110485,110834,110632
 2.3000e+000 110932 -3.1271e+002 -7.6473e+002  2.5096e+002 25789 110433,110762,110906
 2.3000e+000 110955 -3.9261e+002 -7.1616e+002  3.1658e+002 25789 110433,110906,110834
 2.3000e+000 111350 -3.8755e+002 -6.1245e+002  3.6934e+002 25228 111445,111373,111186
 2.3000e+000 111327 -4.1678e+002 -5.9460e+002  1.1011e+002 25228 110978,111186,111004
 2.3000e+000 111304 -4.2900e+002 -7.9595e+002  3.3829e+002 25228 111373,111108,111082
 2.3000e+000 111281 -4.0200e+002 -8.1189e+002  3.1411e+002 25228 111134,111186,111160
 2.3000e+000 111258 -3.8715e+002 -5.8729e+002  3.5428e+002 25228 111445,111186,111134
 2.3000e+000 111235 -3.6637e+002 -4.3713e+002  2.0912e+002 25228 111517,111030,111004
 2.3000e+000 111212 -4.9823e+002 -5.6111e+002  3.2564e+002 25228 111030,111082,111056
 2.3000e+000 111399 -4.2060e+002 -6.8940e+002  3.4707e+002 25228 111004,111186,111373
 2.3000e+000 111422 -3.0914e+002 -5.3399e+002  2.8495e+002 25228 111517,111004,111373
 2.3000e+000 111471 -3.7374e+002 -5.9094e+002  3.3865e+002 25228 111108,111373,111445
 2.3000e+000 111494 -3.7204e+002 -5.6159e+002  3.2396e+002 25228 111108,111445,111134
 2.3000e+000 111543 -4.7196e+002 -4.8168e+002  3.2162e+002 25228 111082,111030,111517
 2.3000e+000 111566 -4.2782e+002 -6.2135e+002  3.9708e+002 25228 111082,111517,111373
 2.3000e+000 112074 -3.0413e+002 -4.4852e+002  2.4535e+002 24338 112097,111907,111881
 2.3000e+000 112051 -4.3190e+002 -4.1815e+002  1.3456e+002 24338 112097,111881,111829
 2.3000e+000 112028 -1.0858e+002 -4.2517e+002  9.7402e+001 24338 111829,111881,111855
 2.3000e+000 112005 -4.8843e+002 -6.2187e+002  1.6766e+002 24338 111777,111933,111829
 2.3000e+000 111982 -6.8743e+002 -2.8819e+002  1.9106e+002 24338 111751,111933,111777
 2.3000e+000 111959 -5.6805e+002 -6.5258e+002  1.7950e+002 24338 111777,111829,111803
 2.3000e+000 112123 -4.4564e+002 -7.8084e+002  2.1559e+002 24338 111933,111907,112097
 2.3000e+000 112146 -4.3323e+002 -5.0002e+002  1.4123e+002 24338 111933,112097,111829
 2.3000e+000 112443 -5.9742e+002 -4.6295e+002  2.8399e+002 23998 112466,112299,112247
 2.3000e+000 112420 -6.5519e+002 -7.5125e+002  2.5571e+002 23998 112466,112247,112221
 2.3000e+000 112397 -4.5995e+002 -9.0681e+002  3.8262e+002 23998 112169,112325,112221
 2.3000e+000 112374 -3.9509e+002 -7.8910e+002  4.0879e+002 23998 112169,112221,112195
 2.3000e+000 112351 -2.5226e+002 -4.3112e+002  3.1955e+002 23998 112247,112299,112273
 2.3000e+000 112492 -5.6298e+002 -5.2387e+002  4.5150e+002 23998 112325,112299,112466
 2.3000e+000 112515 -6.2548e+002 -6.7984e+002  3.9501e+002 23998 112325,112466,112221
 2.3000e+000 113200 -6.6510e+002 -8.3661e+002  5.6872e+002 23480 112779,112961,112805
 2.3000e+000 113177 -7.3043e+002 -5.4211e+002  2.3178e+002 23480 112779,112987,112961
 2.3000e+000 113154 -1.6032e+002 -4.2809e+002  3.5754e+002 23480 112805,112961,112883
 2.3000e+000 113131 -4.1041e+002 -7.5363e+002  3.9804e+002 23480 112883,112935,112909
 2.3000e+000 113108 -5.4472e+002 -5.9111e+002  4.1148e+002 23480 112883,112961,112935
 2.3000e+000 113085 -1.9605e+002 -3.4164e+002  1.7816e+002 23480 112831,112883,112857
 2.3000e+000 113062 -3.3408e+002 -4.3732e+002  2.4073e+002 23480 112805,112883,112831
 2.3000e+000 113039 -7.2994e+002 -4.3772e+002  2.2541e+002 23480 112779,113013,112987
 2.3000e+000 113676 -6.5631e+002 -3.1591e+002  5.1830e+002 23018 113699,113434,113356
 2.3000e+000 113653 -5.7568e+002 -3.0601e+002  2.6567e+002 23018 113771,113699,113356
 2.3000e+000 113630 -5.1171e+002 -5.0103e+002  1.7531e+002 23018 113771,113356,113512
 2.3000e+000 113607 -3.3984e+002 -7.2772e+002  3.0999e+002 23018 113330,113512,113356
 2.3000e+000 113584 -1.2713e+003 -7.1218e+002  7.5346e+002 23018 113356,113434,113382
 2.3000e+000 113561 -1.3602e+002 -6.8428e+002  3.0525e+002 23018 113304,113512,113330
 2.3000e+000 113538 -1.3012e+003 -2.1173e+002  3.2035e+002 23018 113382,113434,113408
 2.3000e+000 113725 -7.4921e+002 -5.4041e+002  5.2702e+002 23018 113460,113434,113699
 2.3000e+000 113748 -8.1145e+002 -5.8782e+002  3.1997e+002 23018 113460,113699,113486
 2.3000e+000 113797 -7.5000e+002 -5.9787e+002  3.3842e+002 23018 113486,113699,113771
 2.3000e+000 113820 -5.8173e+002 -6.3344e+002  2.0541e+002 23018 113486,113771,113512
 2.3000e+000 114424 -2.9942e+002 -4.7220e+002  1.0256e+002 22514 114447,114133,114029
 2.3000e+000 114401 -3.0405e+002 -5.7131e+002  9.8926e+001 22514 114447,114029,114237
 2.3000e+000 114378 -1.6116e+002 -3.7738e+002  1.6761e+002 22514 114133,114211,114185
 2.3000e+000 114355 -2.5145e+002 -3.6578e+002  1.3725e+002 22514 114133,114185,114159
 2.3000e+000 114332 -2.1632e+002 -5.9911e+002  2.1030e+002 22514 114003,114237,114029
 2.3000e+000 114309 -3.3096e+002 -3.9549e+002  6.5462e+001 22514 114029,114133,114055
 2.3000e+000 114286 -4.0927e+002 -3.2401e+002  1.0651e+002 22514 114055,114133,114107
 2.3000e+000 114263 -3.2692e+002 -3.2297e+001  1.2337e+002 22514 114055,114107,114081
 2.3000e+000 114473 -3.2078e+002 -4.1931e+002  1.4406e+002 22514 114211,114133,114447
 2.3000e+000 114496 -3.0786e+002 -4.9317e+002  1.3867e+002 22514 114211,114447,114237
 2.3000e+000 114597 -3.0848e+002 -7.7969e+002  4.0144e+002 22316 114620,114571,114545
 2.3000e+000 114646 -3.0848e+002 -7.7969e+002  4.0144e+002 22316 114519,114571,114620
 2.3000e+000 115127 -5.2710e+002 -5.9520e+002  1.9855e+002 21612 115150,114905,114879
 2.3000e+000 115104 -6.0018e+002 -3.7371e+002  2.4404e+002 21612 115150,114879,114853
 2.3000e+000 115081 -4.1903e+002 -1.9742e+002  3.5993e+002 21612 115222,114931,114905
 2.3000e+000 115058 -4.5198e+002 -4.7276e+002  2.8306e+002 21612 115222,114905,115009
 2.3000e+000 115035 -1.7063e+002 -5.5895e+002  1.6537e+002 21612 114957,115009,114983
 2.3000e+000 115176 -4.7855e+002 -4.2205e+002  2.0558e+002 21612 115009,114905,115150
 2.3000e+000 115199 -5.3454e+002 -1.7181e+002  2.4341e+002 21612 115009,115150,114853
 2.3000e+000 115248 -4.2451e+002 -4.3864e+002  2.9493e+002 21612 114957,114931,115222
 2.3000e+000 115271 -4.5139e+002 -7.0130e+002  2.1519e+002 21612 114957,115222,115009
 2.3000e+000 115519 -1.7115e+002  5.8921e+001  1.7160e+002 21208 115542,115372,115320
 2.3000e+000 115496 -1.7888e+001  1.6126e+002  1.8413e+001 21208 115542,115320,115294
 2.3000e+000 115473 -1.0980e+002 -2.7644e+002  2.3632e+002 21208 115320,115372,115346
 2.3000e+000 115450 -3.5342e+002 -1.5583e+002  1.0930e+002 21208 115294,115424,115398
 2.3000e+000 115568 -2.3444e+002 -3.4223e+000  2.2883e+002 21208 115398,115372,115542
 2.3000e+000 115591 -1.8147e+002 -1.0184e+002  1.0351e+002 21208 115398,115542,115294
 2.3000e+000 115839 -4.6818e+002 -3.8885e+002  3.5103e+002 20668 115862,115640,115614
 2.3000e+000 115816 -4.8978e+002 -4.3823e+002  3.5807e+002 20668 115862,115614,115744
 2.3000e+000 115793 -4.8215e+002 -2.5399e+002  3.4673e+002 20668 115640,115718,115692
 2.3000e+000 115770 -7.6597e+002 -2.5900e+002  3.0831e+002 20668 115640,115692,115666
 2.3000e+000 115888 -4.9890e+002 -3.0251e+002  3.9060e+002 20668 115718,115640,115862
 2.3000e+000 115911 -5.4281e+002 -3.9452e+002  4.0327e+002 20668 115718,115862,115744
 2.3000e+000 116134 -4.2474e+002 -6.5713e+002  3.9235e+002 20264 115958,116036,115984
 2.3000e+000 116111 -2.1863e+002 -5.5934e+002  3.6422e+002 20264 115958,116062,116036
 2.3000e+000 116088 -2.3795e+002 -6.2249e+002  4.2538e+002 20264 115984,116036,116010
 2.3000e+000 116384 -6.2328e+002 -4.4857e+002  4.7740e+002 19924 116407,116211,116159
 2.3000e+000 116361 -5.7984e+002 -7.6384e+002  3.8696e+002 19924 116407,116159,116263
 2.3000e+000 116338 -5.9099e+002 -2.9894e+002  4.6519e+002 19924 116159,116211,116185
 2.3000e+000 116315 -3.8988e+002 -7.5085e+002  4.4298e+002 19924 116159,116289,116263
 2.3000e+000 116433 -5.8760e+002 -2.7670e+002  5.5361e+002 19924 116237,116211,116407
 2.3000e+000 116456 -4.2080e+002 -4.8498e+002  5.0315e+002 19924 116237,116407,116263
 2.3000e+000 116608 -2.8547e+002 -4.6825e+001  2.7437e+002 19520 116703,116631,116533
 2.3000e+000 116585 -1.7884e+002 -1.2635e+002  1.7256e+002 19520 116631,116507,116481
 2.3000e+000 116657 -2.1714e+002 -1.4539e+002  3.0698e+002 19520 116559,116533,116631
 2.3000e+000 116680 -2.1450e+002 -3.5667e+002  2.0400e+002 19520 116559,116631,116481
 2.3000e+000 116729 -2.8547e+002 -4.6825e+001  2.7437e+002 19520 116507,116631,116703
 2.3000e+000 116952 -5.5156e+002 -5.0541e+002  6.8241e+002 19208 116975,116802,116776
 2.3000e+000 116929 -7.0647e+002 -9.1709e+002  3.9298e+002 19208 116975,116776,116880
 2.3000e+000 116906 -7.8334e+002 -3.3258e+002  4.7829e+002 19208 116802,116854,116828
 2.3000e+000 117001 -4.3348e+002 -4.3132e+002  7.1478e+002 19208 116854,116802,116975
 2.3000e+000 117024 -1.7954e+002 -5.3747e+002  5.6603e+002 19208 116854,116975,116880
 2.3000e+000 117428 -5.2310e+002 -1.7687e+002  3.5280e+002 18796 117154,117206,117180
 2.3000e+000 117405 -3.6201e+002 -4.2948e+002  3.1419e+002 18796 117154,117284,117206
 2.3000e+000 117382 -2.0443e+002 -3.6253e+002  3.1088e+002 18796 117154,117310,117284
 2.3000e+000 117359 -1.9187e+002 -2.9254e+002  4.1174e+002 18796 117206,117284,117258
 2.3000e+000 117336  1.0851e+001 -3.2304e+001  5.7338e+002 18796 117206,117258,117232
 2.3000e+000 117529 -2.4892e+002 -1.4630e+002  1.6338e+002 18228 117810,117552,117477
 2.3000e+000 117578 -5.8661e+002 -3.8072e+002  2.7636e+002 18228 117682,117552,117503
 2.3000e+000 117708 -1.9365e+002 -1.5841e+002  1.5151e+002 18228 117477,117552,117682
 2.3000e+000 117836 -3.7511e+002 -3.7986e+002  2.3630e+002 18228 117451,117552,117810
 2.3000e+000 118364 -6.1280e+002 -1.7658e+002  2.6314e+002 17722 118067,118223,118093
 2.3000e+000 118341 -5.9176e+002 -1.2541e+002  2.7000e+002 17722 118041,118223,118067
 2.3000e+000 118318 -3.1923e+002 -1.8563e+002  1.8453e+002 17722 118093,118223,118197
 2.3000e+000 118295 -1.0090e+003 -1.0583e+003  6.9195e+002 17722 118119,118197,118171
 2.3000e+000 118272 -1.1575e+002  1.3132e+001  2.9867e+002 17722 118093,118197,118119
 2.3000e+000 118249 -8.8357e+002 -6.2203e+002  6.8863e+002 17722 118119,118171,118145
 2.3000e+000 118514 -1.0403e+003 -4.0113e+002  3.7929e+002 17268 118387,118439,118413
 2.3000e+000 118491 -6.3770e+001 -4.6601e+002  3.8048e+002 17268 118387,118465,118439
 2.3000e+000 118916 -5.6585e+002 -1.4041e+002  2.2461e+002 16828 118668,118772,118694
 2.3000e+000 118893 -7.6223e+002 -2.3240e+002  1.9458e+002 16828 118668,118798,118772
 2.3000e+000 118870 -8.2594e+002 -4.3571e+002  1.3462e+002 16828 118642,118798,118668
 2.3000e+000 118847 -1.5563e+002 -3.8851e+001  3.8957e+002 16828 118694,118746,118720
 2.3000e+000 118824 -6.2000e+002 -3.4814e+002  1.9565e+002 16828 118694,118772,118746
 2.3000e+000 119316 -2.3418e+002 -1.9293e+002  3.2938e+002 16422 119042,119172,119094
 2.3000e+000 119293 -3.3374e+002 -2.3096e+002  3.2585e+002 16422 119042,119198,119172
 2.3000e+000 119270 -4.8068e+002 -8.2111e+001  1.7175e+002 16422 119042,119094,119068
 2.3000e+000 119247 -5.2150e+001 -3.1557e+001  4.9157e+002 16422 119094,119146,119120
 2.3000e+000 119224 -1.7246e+002 -8.9792e+001  3.5647e+002 16422 119094,119172,119146
 2.3000e+000 119466 -1.9472e+002  6.9309e+001  9.9105e+001 16010 119339,119391,119365
 2.3000e+000 119443 -3.0147e+001 -4.9948e+001  2.9088e+002 16010 119339,119417,119391
 2.3000e+000 119616 -1.1565e+002  3.6415e+001  2.4209e+002 15547 119515,119567,119541
 2.3000e+000 119593  2.5154e+002  3.5396e+002  8.0463e+002 15547 119489,119567,119515
 2.3000e+000 119719 -8.2507e+002 -3.2424e+002  4.1268e+002 421 119641,119693,119667
 2.4000e+000 69562 -8.2299e+002 -3.9121e+002  5.7993e+002 69254 69484,69536,69510
 2.4000e+000 70009 -4.2897e+002 -3.6653e+002  3.3703e+002 68942 69686,69842,69816
 2.4000e+000 69986 -3.9770e+002 -1.4076e+002  1.9896e+002 68942 69686,69868,69842
 2.4000e+000 69963 -2.5488e+002 -1.0426e+002  4.2518e+002 68942 69686,69816,69712
 2.4000e+000 69940 -1.4468e+002 -1.0996e+002  5.9497e+002 68942 69712,69790,69738
 2.4000e+000 69917 -6.2641e+002 -9.8324e+002  3.7519e+002 68942 69712,69816,69790
 2.4000e+000 69894 -5.2329e+001 -5.1817e+002  2.2707e+002 68942 69738,69790,69764
 2.4000e+000 70110 -3.6110e+002 -8.1453e+001  2.4440e+002 68766 70032,70084,70058
 2.4000e+000 70746 -5.1732e+002 -2.7881e+002  2.5902e+002 68448 70400,70556,70426
 2.4000e+000 70723 -8.7212e+002 -3.2902e+002  3.3661e+002 68448 70374,70556,70400
 2.4000e+000 70700 -6.1643e+002 -2.4226e+002  1.6260e+002 68448 70426,70556,70478
 2.4000e+000 70677 -7.3940e+002 -2.8998e+002  1.4461e+002 68448 70478,70556,70504
 2.4000e+000 70654 -5.9561e+002 -3.5446e+002  1.2203e+002 68448 70426,70478,70452
 2.4000e+000 70631 -8.4916e+002 -2.8505e+002  4.3914e+002 68448 70374,70582,70556
 2.4000e+000 70608 -7.5122e+002 -4.7895e+002  1.9889e+002 68448 70504,70556,70530
 2.4000e+000 70896 -8.3908e+002 -1.9901e+002  3.7799e+001 68250 70795,70847,70821
 2.4000e+000 70873 -1.4788e+003 -4.6654e+002  8.1866e+001 68250 70769,70847,70795
 2.4000e+000 70997 -2.0140e+003 -9.6926e+002  8.6360e+002 68052 70919,70971,70945
 2.4000e+000 71367 -6.1653e+002 -9.8714e+002  3.6874e+002 67740 71096,71226,71200
 2.4000e+000 71344 -3.9782e+002 -5.6757e+002  4.6140e+002 67740 71044,71226,71096
 2.4000e+000 71321  5.8918e+001 -5.8918e+001  7.3509e+002 67740 71044,71096,71070
 2.4000e+000 71298 -4.5392e+002 -1.0670e+003  7.2775e+002 67740 71096,71200,71174
 2.4000e+000 71275 -2.7381e+002 -6.5890e+002  2.3383e+002 67740 71096,71148,71122
 2.4000e+000 71252 -3.7196e+002 -7.5849e+002  4.6934e+002 67740 71096,71174,71148
 2.4000e+000 71519  2.4965e+002  1.7520e+002  2.3381e+002 67542 71418,71470,71444
 2.4000e+000 71496  4.0375e+002  7.5365e+002  7.3221e+002 67542 71392,71470,71418
 2.4000e+000 71923 -1.2071e+002  3.2408e+001  2.0789e+002 67230 71649,71779,71675
 2.4000e+000 71900 -7.4428e+001 -1.7960e+002  1.1571e+002 67230 71649,71805,71779
 2.4000e+000 71877 -1.2068e+002 -3.7560e+001  3.9532e+002 67230 71675,71727,71701
 2.4000e+000 71854 -1.6921e+002 -5.9724e+002  3.7217e+002 67230 71675,71753,71727
 2.4000e+000 71831 -1.8554e+002 -3.4846e+002  2.5727e+002 67230 71675,71779,71753
 2.4000e+000 72433 -5.0809e+002 -2.3138e+002  3.3988e+002 67032 72038,72246,72220
 2.4000e+000 72410 -2.4700e+002 -5.2367e+000  1.7311e+002 67032 72012,72246,72038
 2.4000e+000 72387 -4.8098e+002 -1.9070e+002  3.6182e+002 67032 72064,72194,72168
 2.4000e+000 72364 -5.1475e+002 -1.9679e+002  3.8065e+002 67032 72038,72194,72064
 2.4000e+000 72341 -6.7988e+002 -6.4045e+002  3.4087e+002 67032 72038,72220,72194
 2.4000e+000 72318 -1.2014e+002  8.5680e+001  1.7488e+002 67032 72090,72168,72142
 2.4000e+000 72295 -8.1979e+001 -1.7346e+001  3.8368e+002 67032 72064,72168,72090
 2.4000e+000 72272 -1.4663e+002  4.4730e+001  1.5234e+002 67032 72090,72142,72116
 2.4000e+000 72933 -3.5074e+002 -4.0093e+002  3.9446e+002 66628 72956,72665,72613
 2.4000e+000 72910 -3.2227e+002 -4.1207e+002  3.9827e+002 66628 73100,72956,72613
 2.4000e+000 72887 -4.3264e+002 -6.0713e+002  3.1916e+002 66628 73028,72691,72665
 2.4000e+000 72864 -2.9766e+002 -3.6816e+002  4.1506e+002 66628 73100,72613,72587
 2.4000e+000 72841 -3.3486e+002 -3.8329e+002  3.5934e+002 66628 72613,72665,72639
 2.4000e+000 72818  6.1346e+001 -7.3324e-001  5.1770e+002 66628 72587,72769,72743
 2.4000e+000 72795 -3.8461e+002 -8.8062e+002  1.0861e+002 66628 72561,72769,72587
 2.4000e+000 72982 -4.2212e+002 -4.3758e+002  4.2076e+002 66628 73028,72665,72956
 2.4000e+000 73005 -3.5661e+002 -1.3750e+002  3.9947e+002 66628 72717,72956,72743
 2.4000e+000 73054 -6.2546e+002 -4.9748e+002  1.9394e+002 66628 72717,72691,73028
 2.4000e+000 73077 -6.1761e+002 -4.4057e+002  2.8534e+002 66628 72717,73028,72956
 2.4000e+000 73126 -3.5484e+002 -4.1158e+002  3.4651e+002 66628 72743,72956,73100
 2.4000e+000 73149 -3.2724e+002 -3.7431e+002  3.6362e+002 66628 72743,73100,72587
 2.4000e+000 73606 -4.5714e+002 -4.0043e+002  3.6585e+002 66281 73332,73384,73358
 2.4000e+000 73583 -5.7688e+002 -4.4973e+002  2.8707e+002 66281 73332,73462,73384
 2.4000e+000 73560 -6.9998e+002 -4.4845e+002  3.0648e+002 66281 73384,73462,73436
 2.4000e+000 73537 -1.0852e+003 -6.2938e+002  4.8731e+002 66281 73332,73488,73462
 2.4000e+000 73514 -7.7815e+002 -4.4453e+002  2.1512e+002 66281 73384,73436,73410
 2.4000e+000 73984 -1.8951e+002 -1.1176e+002  7.9434e+001 65969 73736,73814,73788
 2.4000e+000 73961 -7.7041e+001 -8.7756e+001  8.7288e+001 65969 73736,73866,73814
 2.4000e+000 73938 -1.3833e+002 -1.3179e+002  1.5123e+002 65969 73814,73866,73840
 2.4000e+000 73915 -5.8165e+001 -1.0108e+002  8.4302e+001 65969 73710,73866,73736
 2.4000e+000 73892 -1.9047e+002 -2.9851e+002 -5.3866e+001 65969 73736,73788,73762
 2.4000e+000 74232 -3.2198e+002 -3.9552e+002  3.7717e+002 65572 74255,74085,74033
 2.4000e+000 74209 -3.1041e+002 -4.2907e+002  3.3163e+002 65572 74327,74255,74033
 2.4000e+000 74186 -3.4910e+002 -3.3647e+002  3.3159e+002 65572 74327,74033,74007
 2.4000e+000 74163 -3.7002e+002 -4.4121e+002  3.9639e+002 65572 74033,74085,74059
 2.4000e+000 74281 -3.8486e+002 -4.8003e+002  4.5098e+002 65572 74111,74085,74255
 2.4000e+000 74304 -2.7011e+002 -4.3558e+002  3.5889e+002 65572 74111,74255,74137
 2.4000e+000 74353 -2.6880e+002 -3.2794e+002  2.9905e+002 65572 74137,74255,74327
 2.4000e+000 74376 -3.2825e+002 -2.5895e+002  3.0498e+002 65572 74137,74327,74007
 2.4000e+000 74884 -3.4097e+002 -3.8867e+002  3.1968e+002 65174 74587,74717,74613
 2.4000e+000 74861 -4.2729e+002 -4.6376e+002  2.4016e+002 65174 74561,74717,74587
 2.4000e+000 74838 -3.3980e+002 -4.8551e+002  2.6803e+002 65174 74613,74691,74639
 2.4000e+000 74815 -3.5339e+002 -4.8426e+002  2.9443e+002 65174 74613,74717,74691
 2.4000e+000 74792 -1.8384e+002 -7.3915e+002  2.1188e+002 65174 74639,74691,74665
 2.4000e+000 74769 -6.8614e+002 -1.7587e+002  2.7622e+002 65174 74561,74743,74717
 2.4000e+000 75412 -1.1798e+001 -2.2389e+002  7.3267e+002 64770 75167,75245,75219
 2.4000e+000 75389 -3.3396e+002 -6.6635e+002  5.0001e+002 64770 75115,75245,75167
 2.4000e+000 75366 -2.7451e+002 -8.6325e+002  6.4488e+002 64770 75089,75245,75115
 2.4000e+000 75343 -4.8370e+002 -1.9590e+002  5.3581e+002 64770 75167,75219,75193
 2.4000e+000 75320 -2.6694e+002 -5.2931e+002  5.3045e+002 64770 75115,75167,75141
 2.4000e+000 75297 -4.4870e+002 -1.2308e+003  6.9404e+002 64770 75089,75271,75245
 2.4000e+000 75861 -8.8418e+002 -3.9630e+002  6.0892e+002 64316 75538,75694,75564
 2.4000e+000 75838 -5.1635e+002 -2.0442e+002  3.9838e+002 64316 75538,75720,75694
 2.4000e+000 75815 -7.5390e+002 -5.3517e+002  4.6633e+002 64316 75590,75694,75642
 2.4000e+000 75792 -7.1255e+002 -6.5710e+002  5.2479e+002 64316 75564,75694,75590
 2.4000e+000 75769 -2.1414e+002 -8.4135e+002  2.3262e+002 64316 75590,75642,75616
 2.4000e+000 75746 -6.4783e+002 -2.6657e+002  4.2053e+002 64316 75642,75694,75668
 2.4000e+000 76239 -1.0250e+003 -8.4719e+002  4.5557e+002 64018 76262,76095,76043
 2.4000e+000 76216 -7.9214e+002 -8.2503e+002  3.7313e+002 64018 76262,76043,76017
 2.4000e+000 76193 -4.0494e+002 -4.3971e+002  3.5032e+002 64018 75991,76121,76017
 2.4000e+000 76170 -9.6782e+002 -6.8928e+002  6.5860e+002 64018 76043,76095,76069
 2.4000e+000 76147 -1.8780e+001 -4.4219e+002  7.3991e+001 64018 75965,76121,75991
 2.4000e+000 76288 -7.8184e+002 -9.6703e+002  5.6740e+002 64018 76121,76095,76262
 2.4000e+000 76311 -5.9361e+002 -9.6488e+002  4.5221e+002 64018 76121,76262,76017
 2.4000e+000 76866 -3.4221e+002 -4.1384e+002  4.0438e+002 63728 76520,76676,76546
 2.4000e+000 76843 -3.4969e+002 -4.2287e+002  3.2270e+002 63728 76520,76702,76676
 2.4000e+000 76820 -2.6126e+002 -3.8905e+002  3.5926e+002 63728 76546,76650,76572
 2.4000e+000 76797 -4.8721e+002 -4.8323e+002  3.4814e+002 63728 76546,76676,76650
 2.4000e+000 76774 -4.6136e+002 -6.5286e+001  1.9806e+002 63728 76572,76650,76624
 2.4000e+000 76751 -2.8771e+002 -3.9610e+002  3.3792e+002 63728 76494,76702,76520
 2.4000e+000 76728 -8.8613e+001 -2.1479e+002  1.3720e+002 63728 76572,76624,76598
 2.4000e+000 77065 -1.8907e+002 -3.3836e+002  3.3307e+002 63288 77088,76941,76915
 2.4000e+000 77042 -4.8428e+002 -4.2358e+002  3.1388e+002 63288 77088,76915,76993
 2.4000e+000 77019 -9.8694e+001 -4.8167e+002  2.2194e+002 63288 76889,76993,76915
 2.4000e+000 77114 -3.4587e+002 -3.9207e+002  2.7149e+002 63288 76967,76941,77088
 2.4000e+000 77137 -7.7942e+002 -4.8084e+002  1.3776e+002 63288 77160,77088,76993
 2.4000e+000 77186 -1.9741e+002 -2.2035e+002  2.0835e+002 63288 76967,77088,77160
 2.4000e+000 77417 -2.4349e+002 -3.6843e+002  1.6789e+002 62884 77440,77342,77316
 2.4000e+000 77394 -5.3076e+002 -4.6215e+002  7.9462e+001 62884 77770,77440,77316
 2.4000e+000 77466 -3.8464e+002 -4.9355e+002  4.7073e+001 62884 77512,77440,77368
 2.4000e+000 77489 -3.5565e+002 -4.2830e+002  4.3243e+001 62884 77642,77440,77290
 2.4000e+000 77538 -2.2043e+002 -3.7540e+002 -5.0625e+000 62884 77342,77440,77512
 2.4000e+000 77668 -4.0581e+002 -5.2706e+002  2.5736e+001 62884 77368,77440,77642
 2.4000e+000 77796 -3.8450e+002 -3.9180e+002  5.8485e+001 62884 77290,77440,77770
 2.4000e+000 78479 -7.8790e+002 -7.8586e+002  4.2013e+002 62480 78084,78240,78214
 2.4000e+000 78456 -5.7226e+002 -6.7797e+002  7.6003e+001 62480 78084,78266,78240
 2.4000e+000 78433 -6.0198e+002 -6.5459e+002  2.2845e+002 62480 78110,78214,78136
 2.4000e+000 78410 -6.7737e+002 -7.0096e+002  3.8172e+002 62480 78084,78214,78110
 2.4000e+000 78387 -4.5912e+002 -5.3652e+002  2.7916e+002 62480 78136,78214,78188
 2.4000e+000 78364 -5.2339e+002 -8.1547e+002  2.4341e+001 62480 78058,78266,78084
 2.4000e+000 78341 -3.1697e+002 -4.2779e+002  1.6442e+002 62480 78136,78188,78162
 2.4000e+000 78318 -8.1108e+002 -6.0115e+002 -3.4929e+002 62480 78058,78292,78266
 2.4000e+000 78678 -5.3194e+002 -9.0433e+002  3.3582e+002 61926 78528,78606,78554
 2.4000e+000 78655 -2.2597e+002 -1.0241e+003  4.5037e+002 61926 78502,78606,78528
 2.4000e+000 78632 -3.5783e+002 -5.6427e+002  1.9244e+002 61926 78554,78606,78580
 2.4000e+000 79058 -5.0757e+002 -5.2059e+002  2.7737e+002 61614 78836,78914,78862
 2.4000e+000 79035 -6.3597e+002 -6.3057e+002  2.2574e+002 61614 78810,78914,78836
 2.4000e+000 79012 -4.1817e+002 -5.3753e+002  2.4237e+002 61614 78784,78914,78810
 2.4000e+000 78989 -4.5369e+002 -5.8566e+002  4.2254e+002 61614 78862,78914,78888
 2.4000e+000 78966 -3.6385e+002 -6.8206e+002  2.7482e+002 61614 78784,78940,78914
 2.4000e+000 79208 -3.7748e+002 -8.8000e+002  5.2679e+000 61366 79081,79133,79107
 2.4000e+000 79185 -3.8722e+002 -6.5772e+002  2.3456e+002 61366 79081,79159,79133
 2.4000e+000 79358  2.2796e+001  1.4761e+001  4.3097e+001 60962 79231,79283,79257
 2.4000e+000 79335 -1.5665e+002 -3.6887e+002  9.6276e+001 60962 79231,79309,79283
 2.4000e+000 79608 -3.3213e+002 -7.3557e+002  2.4158e+002 60508 79631,79435,79409
 2.4000e+000 79585 -2.0815e+002 -7.3829e+002  1.5495e+002 60508 79703,79631,79409
 2.4000e+000 79562 -1.6465e+002 -3.6878e+002  2.2158e+002 60508 79703,79409,79383
 2.4000e+000 79539 -7.6372e+002 -5.7139e+002  4.7312e+002 60508 79435,79487,79461
 2.4000e+000 79657 -3.8064e+002 -8.9929e+002  4.4258e+002 60508 79487,79435,79631
 2.4000e+000 79680 -1.7754e+002 -6.8090e+002  2.2096e+002 60508 79487,79631,79513
 2.4000e+000 79729 -1.3086e+002 -4.0353e+002  7.2860e+001 60508 79513,79631,79703
 2.4000e+000 79752 -2.2944e+002 -3.6657e+002  2.5551e+001 60508 79513,79703,79383
 2.4000e+000 80390 -4.3141e+002 -5.0569e+002  4.1024e+002 59997 80413,80096,80018
 2.4000e+000 80367 -7.2352e+002 -6.1096e+002  4.6656e+002 59997 80413,80018,80226
 2.4000e+000 80344 -3.7319e+002 -4.2552e+002  2.4391e+002 59997 80096,80174,80148
 2.4000e+000 80321 -1.3184e+003 -9.2909e+002  6.4690e+002 59997 80018,80096,80070
 2.4000e+000 80298 -5.4513e+002 -4.7371e+002  2.3662e+002 59997 80096,80148,80122
 2.4000e+000 80275 -3.9416e+002 -4.8530e+002  3.3112e+002 59997 80174,80226,80200
 2.4000e+000 80252 -8.4811e+002 -5.8743e+002  1.2836e+002 59997 80018,80070,80044
 2.4000e+000 80439 -3.5915e+002 -5.6405e+002  3.0105e+002 59997 80174,80096,80413
 2.4000e+000 80462 -4.8199e+002 -5.2149e+002  3.3114e+002 59997 80174,80413,80226
 2.4000e+000 80840 -6.3105e+002 -5.5615e+002  2.6707e+002 59443 80863,80644,80618
 2.4000e+000 80817 -2.3579e+002 -4.1822e+002  3.0471e+002 59443 80863,80618,80566
 2.4000e+000 80794 -2.1303e+002 -3.7098e+002  3.7837e+002 59443 81007,80935,80670
 2.4000e+000 80771 -3.2549e+002 -3.8103e+002  3.3407e+002 59443 80566,80722,80696
 2.4000e+000 80748 -2.9972e+002 -5.5576e+002  3.4909e+002 59443 80566,80618,80592
 2.4000e+000 80889 -6.9889e+002 -5.1989e+002  4.4904e+002 59443 80935,80644,80863
 2.4000e+000 80912 -4.6541e+002 -4.4859e+002  3.6394e+002 59443 80696,80863,80566
 2.4000e+000 80961 -3.9247e+002 -4.3553e+002  4.4452e+002 59443 80696,80670,80935
 2.4000e+000 80984 -3.8050e+002 -3.6252e+002  3.9829e+002 59443 80696,80935,80863
 2.4000e+000 81033 -5.2164e+002 -7.2617e+002  5.3517e+002 59443 80644,80935,81007
 2.4000e+000 81360 -6.5514e+002 -3.0932e+002  2.6739e+002 59031 81383,81187,81161
 2.4000e+000 81337 -5.7166e+002 -3.6434e+002  5.2219e+001 59031 81455,81383,81161
 2.4000e+000 81314 -4.5811e+002 -2.3556e+002  1.0401e+002 59031 81455,81161,81135
 2.4000e+000 81291 -1.1421e+003 -2.5634e+002  4.9036e+002 59031 81187,81239,81213
 2.4000e+000 81409 -7.1080e+002 -6.4574e+002  3.8801e+002 59031 81239,81187,81383
 2.4000e+000 81432 -7.3642e+002 -4.5319e+002  7.6238e+001 59031 81239,81383,81265
 2.4000e+000 81481 -6.6642e+002 -1.2977e+002  9.3108e+001 59031 81265,81383,81455
 2.4000e+000 81504 -6.5296e+002 -9.2132e+001  1.0881e+002 59031 81265,81455,81135
 2.4000e+000 81835 -9.4955e+001 -2.8171e+002  1.1129e+002 58577 81610,81714,81636
 2.4000e+000 81812 -6.8049e+001 -3.5931e+002  1.2901e+002 58577 81610,81740,81714
 2.4000e+000 81789 -2.4362e+002 -3.3195e+002  1.7948e+001 58577 81636,81714,81688
 2.4000e+000 81766 -2.1279e+002 -2.7137e+002 -6.8008e+001 58577 81636,81688,81662
 2.4000e+000 81985 -1.3641e+002 -3.3338e+002  2.0310e+002 58030 81884,81936,81910
 2.4000e+000 81962 -2.8491e+002 -9.3446e+001  1.3645e+002 58030 81858,81936,81884
 2.4000e+000 82414 -1.1669e+002 -4.5167e+001  1.5292e+002 57690 82437,82169,82117
 2.4000e+000 82391 -1.4726e+002 -1.8994e+002  1.7368e+002 57690 82437,82117,82247
 2.4000e+000 82368  6.9482e+001  1.0561e+002  3.9591e+002 57690 82195,82247,82221
 2.4000e+000 82345 -1.2028e+002 -1.7833e+002  1.7738e+002 57690 82091,82247,82117
 2.4000e+000 82322 -2.0048e+002 -5.4028e+001  1.0423e+002 57690 82117,82169,82143
 2.4000e+000 82299 -1.3751e+002 -3.3056e+002  2.4493e+002 57690 82091,82273,82247
 2.4000e+000 82463 -1.6773e+002  1.3845e+001  2.2194e+002 57690 82195,82169,82437
 2.4000e+000 82486 -1.8008e+002 -9.0604e+001  2.1927e+002 57690 82195,82437,82247
 2.4000e+000 83041 -3.3782e+002 -3.4380e+002  2.3303e+002 57172 83064,82721,82695
 2.4000e+000 83018 -3.7508e+002 -3.6779e+002  3.3997e+002 57172 83064,82695,82851
 2.4000e+000 82995 -1.0612e+003 -5.1590e+002  4.7448e+002 57172 82669,82851,82695
 2.4000e+000 82972 -6.2067e+002 -4.0989e+002  3.2516e+002 57172 82773,82851,82825
 2.4000e+000 82949 -5.7922e+002 -4.5369e+002  4.7140e+002 57172 82773,82825,82799
 2.4000e+000 82926 -4.3082e+002 -2.6743e+002  1.9245e+002 57172 82721,82773,82747
 2.4000e+000 82903 -1.0935e+003 -4.2915e+002  5.9918e+002 57172 82669,82877,82851
 2.4000e+000 83090 -5.1098e+002 -4.1124e+002  2.2608e+002 57172 82773,82721,83064
 2.4000e+000 83113 -4.3175e+002 -3.8684e+002  3.2634e+002 57172 82773,83064,82851
 2.4000e+000 83747 -4.0192e+002 -3.6220e+002  2.4621e+002 56554 83770,83427,83401
 2.4000e+000 83724 -4.1919e+002 -4.6537e+002  2.9176e+002 56554 83842,83770,83401
 2.4000e+000 83701 -2.6486e+001 -3.6662e+002  9.8696e+001 56554 83842,83401,83583
 2.4000e+000 83678 -8.0570e+002 -6.7920e+002  6.0565e+002 56554 83914,83531,83505
 2.4000e+000 83655 -4.8538e+002 -3.5169e+002  1.5412e+002 56554 83531,83583,83557
 2.4000e+000 83632 -1.1518e+002 -1.2343e+002  8.2895e+001 56554 83375,83583,83401
 2.4000e+000 83609 -4.3386e+002 -3.7660e+002  2.7320e+002 56554 83427,83479,83453
 2.4000e+000 83796 -3.8894e+002 -3.4734e+002  2.5264e+002 56554 83479,83427,83770
 2.4000e+000 83819 -4.4763e+002 -3.2662e+002  2.7894e+002 56554 83479,83770,83505
 2.4000e+000 83868 -2.8075e+002 -2.2464e+002  3.5753e+002 56554 83505,83770,83842
 2.4000e+000 83891 -5.2392e+002 -4.1562e+002  4.4092e+002 56554 83914,83505,83842
 2.4000e+000 83940 -3.7061e+002 -6.6901e+002  3.3440e+002 56554 83583,83531,83914
 2.4000e+000 83963 -1.7401e+002 -6.3583e+002  2.4868e+002 56554 83583,83914,83842
 2.4000e+000 84341 -2.3841e+002 -8.5673e+002  2.5546e+002 56192 84067,84145,84119
 2.4000e+000 84318 -1.3623e+002 -7.7077e+002  1.9933e+002 56192 84067,84223,84145
 2.4000e+000 84295 -2.9648e+002 -7.5642e+002  2.2957e+001 56192 84145,84223,84197
 2.4000e+000 84272 -7.4832e+001 -1.1495e+003  3.7869e+002 56192 84067,84119,84093
 2.4000e+000 84249 -5.2090e+002 -2.2202e+002  1.5471e+002 56192 84145,84197,84171
 2.4000e+000 84611 -2.0457e+002 -5.2441e+002  3.5777e+002 55538 84386,84490,84412
 2.4000e+000 84588 -2.2399e+002 -4.6966e+002  3.5144e+002 55538 84386,84516,84490
 2.4000e+000 84565 -4.6459e+002 -6.3716e+002  3.4280e+002 55538 84412,84490,84464
 2.4000e+000 84542 -2.6412e+002 -6.3098e+002  2.0150e+002 55538 84412,84464,84438
 2.4000e+000 84942 -4.7263e+002 -4.0732e+002  3.4640e+002 55084 84769,84847,84795
 2.4000e+000 84919 -4.7811e+002 -4.5840e+002  2.9514e+002 55084 84717,84847,84769
 2.4000e+000 84896 -5.4090e+002 -6.0316e+002  2.8144e+002 55084 84717,84769,84743
 2.4000e+000 84873 -5.4220e+002 -2.0529e+002  2.9780e+002 55084 84795,84847,84821
 2.4000e+000 85271 -2.1621e+001 -1.3114e+002  1.9620e+002 54580 85294,85098,85072
 2.4000e+000 85248 -4.9527e+002 -3.1036e+002  3.0713e+002 54580 85294,85072,85176
 2.4000e+000 85225 -7.3989e+002 -1.0259e+001  9.3192e+001 54580 85124,85176,85150
 2.4000e+000 85202 -9.6318e+001 -2.6547e+002  7.3108e+001 54580 85046,85176,85072
 2.4000e+000 85320 -4.4631e+002 -1.4847e+002  2.5843e+002 54580 85124,85098,85294
 2.4000e+000 85343 -6.9652e+002 -1.4153e+002  3.3191e+002 54580 85124,85294,85176
 2.4000e+000 85542 -2.9491e+002 -5.0926e+002  2.1115e+002 53976 85565,85444,85418
 2.4000e+000 85519 -2.6129e+002 -4.3129e+002  2.2089e+002 53976 85565,85418,85366
 2.4000e+000 85496 -2.2333e+002 -3.9348e+002  1.7528e+002 53976 85366,85418,85392
 2.4000e+000 85591 -4.3773e+002 -5.0043e+002  9.8471e+001 53976 85470,85444,85565
 2.4000e+000 85614 -2.8772e+002 -2.0543e+002  1.5006e+002 53976 85470,85565,85366
 2.4000e+000 85960 -5.1614e+002 -5.9659e+002  2.7967e+002 53572 85663,85715,85689
 2.4000e+000 85937 -4.8393e+002 -5.6708e+002  2.5097e+002 53572 85983,85715,85663
 2.4000e+000 85914 -7.2359e+002 -7.3641e+002  3.2505e+002 53572 86055,85983,85663
 2.4000e+000 85891 -6.9129e+002 -7.3751e+002  4.5378e+002 53572 86055,85663,85637
 2.4000e+000 85868 -1.0616e+003 -1.4762e+003  5.4764e+002 53572 85637,85793,85767
 2.4000e+000 85845 -1.6229e+003 -5.2395e+002  3.1681e+002 53572 85637,85819,85793
 2.4000e+000 86009 -7.0337e+002 -4.5696e+002  2.4293e+002 53572 85741,85715,85983
 2.4000e+000 86032 -8.1091e+002 -4.9261e+002  2.8742e+002 53572 85741,85983,85767
 2.4000e+000 86081 -6.3404e+002 -4.3299e+002  2.7797e+002 53572 85767,85983,86055
 2.4000e+000 86104 -6.7789e+002 -5.7452e+002  3.9994e+002 53572 85767,86055,85637
 2.4000e+000 86693 -9.2399e+002 -1.6148e+002  4.6319e+002 52946 86474,86526,86500
 2.4000e+000 86670 -1.7230e+002 -4.6135e+001  1.1961e+002 52946 86396,86526,86474
 2.4000e+000 86647 -6.7626e+002 -5.1599e+002  3.1362e+002 52946 86370,86526,86396
 2.4000e+000 86624  1.5415e+001  3.3810e+000  1.3304e+001 52946 86422,86474,86448
 2.4000e+000 86601 -2.0206e+002 -4.0927e+001  9.7516e+001 52946 86396,86474,86422
 2.4000e+000 86578 -6.6186e+002 -1.2963e+002  2.1255e+002 52946 86370,86552,86526
 2.4000e+000 87376 -4.7764e+002 -4.2353e+002  2.1330e+002 52420 87007,87085,87033
 2.4000e+000 87353 -4.0565e+002 -3.9142e+002  2.0481e+002 52420 87007,87163,87085
 2.4000e+000 87330 -5.7519e+002 -3.9200e+002  2.4330e+002 52420 87007,87189,87163
 2.4000e+000 87307 -5.2182e+002 -3.9850e+002  2.5907e+002 52420 87033,87085,87059
 2.4000e+000 87284 -5.1227e+002 -4.3435e+002  6.1502e+001 52420 87085,87137,87111
 2.4000e+000 87261 -3.5881e+002 -4.2344e+002  6.9282e+001 52420 87085,87163,87137
 2.4000e+000 87238 -4.1140e+002 -5.2935e+002  4.9441e+002 52420 86955,87189,87007
 2.4000e+000 87215 -2.6273e+002 -2.9628e+002  2.9815e+002 52420 86955,87007,86981
 2.4000e+000 87624 -3.0941e+002 -5.3779e+002  1.6781e+002 51916 87451,87503,87477
 2.4000e+000 87601 -3.2832e+002 -6.8728e+002  1.5900e+002 51916 87425,87503,87451
 2.4000e+000 87578 -2.9618e+002 -6.7777e+002  1.5862e+002 51916 87425,87529,87503
 2.4000e+000 87555 -1.9842e+002 -4.7471e+002  1.9005e+002 51916 87399,87529,87425
 2.4000e+000 88053 -4.7227e+002 -4.0189e+002  1.6557e+002 51568 87782,87834,87808
 2.4000e+000 88030 -5.9450e+002 -3.9916e+002  2.9017e+002 51568 88076,87782,87886
 2.4000e+000 88007 -5.3478e+002 -2.6036e+002  2.4323e+002 51568 88076,87886,87860
 2.4000e+000 87984 -7.2763e+002 -5.6883e+002  2.3237e+002 51568 87756,87886,87782
 2.4000e+000 87961 -5.4889e+002 -4.5309e+002  4.6228e+002 51568 87756,87912,87886
 2.4000e+000 87938 -6.2611e+002 -2.9854e+002  4.3602e+002 51568 87730,87912,87756
 2.4000e+000 88102 -5.0565e+002 -4.6558e+002  1.9592e+002 51568 87834,87782,88076
 2.4000e+000 88125 -4.5105e+002 -3.7329e+002  1.5429e+002 51568 87834,88076,87860
 2.4000e+000 88324 -4.2011e+002 -4.3358e+002  1.4538e+002 51164 88419,88347,88200
 2.4000e+000 88301 -2.9582e+002 -4.4010e+002  2.2567e+002 51164 88347,88148,88252
 2.4000e+000 88278 -5.4665e+002 -7.5148e+002  1.2643e+002 51164 88419,88200,88174
 2.4000e+000 88373 -2.8889e+002 -3.2811e+002  1.9203e+002 51164 88226,88200,88347
 2.4000e+000 88396 -1.9958e+001 -4.2729e+002  1.9197e+002 51164 88226,88347,88252
 2.4000e+000 88445 -4.6330e+002 -4.7156e+002  3.2468e+002 51164 88148,88347,88419
 2.4000e+000 88468 -4.5048e+002 -4.4412e+002  3.3074e+002 51164 88148,88419,88174
 2.4000e+000 88738 -3.9336e+002 -5.3750e+002  1.4704e+002 50560 88513,88617,88539
 2.4000e+000 88715 -2.6799e+002 -6.2894e+002  9.9624e+001 50560 88513,88643,88617
 2.4000e+000 88692 -1.6442e+002 -4.9166e+001  1.7211e+002 50560 88539,88591,88565
 2.4000e+000 88669 -1.4014e+002 -3.4666e+002  2.3097e+002 50560 88539,88617,88591
 2.4000e+000 88939 -5.0246e+002 -2.1744e+002  2.5786e+002 50106 88962,88789,88763
 2.4000e+000 88916 -3.7021e+002 -2.5412e+002  2.0623e+002 50106 88962,88763,88841
 2.4000e+000 88893 -5.2034e+002 -3.5595e+002  3.2884e+002 50106 88763,88867,88841
 2.4000e+000 88988 -3.7897e+002 -2.8213e+002  1.6550e+002 50106 88815,88789,88962
 2.4000e+000 89011 -3.0378e+002 -2.0983e+002  2.2587e+002 50106 89034,88962,88841
 2.4000e+000 89060 -2.1856e+002 -8.1606e+001  6.6978e+001 50106 88815,88962,89034
 2.4000e+000 89472 -2.7086e+002 -6.4559e+002  5.4227e+001 49666 89273,89351,89325
 2.4000e+000 89449 -3.6484e+002 -3.1931e+002  1.7716e+002 49666 89273,89377,89351
 2.4000e+000 89426 -3.2523e+002 -5.0053e+002  3.5713e+002 49666 89273,89325,89299
 2.4000e+000 89403 -4.0122e+002 -3.0144e+002  2.1259e+002 49666 89247,89377,89273
 2.4000e+000 89978 -4.4395e+002 -7.6385e+002 -1.6723e+001 49205 89681,89837,89733
 2.4000e+000 89955 -6.9587e+001 -3.8498e+002  1.8283e+002 49205 89655,89837,89681
 2.4000e+000 89932 -6.4036e+002 -7.3723e+002  2.9529e+002 49205 89785,89837,89811
 2.4000e+000 89909 -2.1808e+002 -5.1726e+002  1.2517e+002 49205 89733,89837,89785
 2.4000e+000 89886 -5.8022e+002 -6.3057e+002  2.6607e+002 49205 89733,89785,89759
 2.4000e+000 89863 -1.6032e+002 -3.1963e+002 -2.1145e+002 49205 89681,89733,89707
 2.4000e+000 90177 -3.4836e+002 -4.6113e+002  2.0073e+002 48865 90530,90200,90053
 2.4000e+000 90154 -2.4377e+002 -4.3623e+002  2.0022e+002 48865 90402,90200,90001
 2.4000e+000 90131 -3.9917e+002 -3.9892e+002  2.0608e+002 48865 90530,90053,90027
 2.4000e+000 90226 -4.1548e+002 -4.7146e+002  3.5102e+002 48865 90079,90053,90200
 2.4000e+000 90249 -2.7952e+002 -3.6587e+002  2.5393e+002 48865 90272,90200,90105
 2.4000e+000 90298 -2.3885e+002 -3.3470e+002  2.6789e+002 48865 90079,90200,90272
 2.4000e+000 90428 -1.9819e+002 -1.1890e+002  1.6629e+002 48865 90105,90200,90402
 2.4000e+000 90556 -3.9368e+002 -5.0578e+002  1.8147e+002 48865 90001,90200,90530
 2.4000e+000 90579 -4.7431e+002 -4.5503e+002  1.8168e+002 48865 90001,90530,90027
 2.4000e+000 90827 -4.0797e+002 -4.2465e+002  2.2326e+002 48404 90850,90654,90628
 2.4000e+000 90804 -4.4512e+002 -5.0587e+002  3.5063e+002 48404 90850,90628,90732
 2.4000e+000 90781 -3.0670e+002 -3.1433e+002  1.7785e+002 48404 90680,90732,90706
 2.4000e+000 90758 -6.1865e+002 -2.9170e+002  3.6501e+002 48404 90602,90732,90628
 2.4000e+000 90876 -4.2220e+002 -2.2989e+002  1.8448e+002 48404 90680,90654,90850
 2.4000e+000 90899 -4.5036e+002 -3.8532e+002  2.8184e+002 48404 90680,90850,90732
 2.4000e+000 91000 -2.5830e+002 -6.1789e+002  2.0771e+002 48156 90922,90974,90948
 2.4000e+000 91250 -1.8572e+002 -4.3718e+002  1.0787e+002 47752 91051,91103,91077
 2.4000e+000 91227 -3.1530e+002 -4.7361e+002  1.3279e+002 47752 91025,91103,91051
 2.4000e+000 91204 -5.2834e+002 -6.2116e+002  2.5570e+002 47752 91025,91155,91103
 2.4000e+000 91181 -4.9116e+002 -5.5504e+002  2.7840e+002 47752 91103,91155,91129
 2.4000e+000 91402 -3.2295e+002 -3.7103e+002  2.8626e+002 47191 91425,91301,91275
 2.4000e+000 91379 -2.6973e+002 -3.5092e+002  3.0649e+002 47191 91497,91425,91275
 2.4000e+000 91451 -3.5106e+002 -1.7116e+002  1.6726e+002 47191 91327,91301,91425
 2.4000e+000 91474 -4.6134e+002 -4.1025e+002  3.2685e+002 47191 91327,91425,91353
 2.4000e+000 91523 -4.0647e+002 -7.7960e+002  3.3171e+002 47191 91353,91425,91497
 2.4000e+000 91854 -3.6314e+002 -2.8743e+002  7.9918e+001 46744 91949,91877,91707
 2.4000e+000 91831 -3.2131e+002 -4.6229e+002  8.9664e+001 46744 91877,91655,91629
 2.4000e+000 91808 -3.4175e+002 -2.8804e+002  8.2896e+001 46744 91949,91707,91681
 2.4000e+000 91785 -7.6784e+002 -4.8838e+002 -9.8724e+001 46744 91629,91759,91733
 2.4000e+000 91903 -5.5036e+002 -4.2977e+002  1.5451e+002 46744 91733,91707,91877
 2.4000e+000 91926 -3.2708e+002 -5.1063e+002  8.9585e+001 46744 91733,91877,91629
 2.4000e+000 91975 -2.9461e+002 -4.3002e+002  1.7312e+002 46744 91655,91877,91949
 2.4000e+000 91998 -1.3830e+002 -3.4562e+002  1.3925e+002 46744 91655,91949,91681
 2.4000e+000 92378 -3.3461e+002 -9.2912e+001  2.0275e+002 46090 92130,92208,92182
 2.4000e+000 92355 -4.4717e+002 -1.4173e+002  1.8758e+002 46090 92104,92208,92130
 2.4000e+000 92332 -2.0856e+002 -3.2435e+002  1.6949e+002 46090 92104,92260,92208
 2.4000e+000 92309 -1.6705e+002 -3.8113e+001  1.3013e+002 46090 92208,92260,92234
 2.4000e+000 92286 -5.4575e+002 -1.5630e+002  2.4183e+002 46090 92130,92182,92156
 2.4000e+000 92626 -2.9595e+002 -3.8930e+002  1.6967e+002 45693 92721,92649,92505
 2.4000e+000 92603 -3.2365e+002 -3.9291e+002  3.4993e+002 45693 92649,92453,92427
 2.4000e+000 92580 -3.3079e+002 -2.9564e+002  1.6441e+002 45693 92721,92505,92479
 2.4000e+000 92557 -5.4613e+002 -5.6659e+002  4.3148e+002 45693 92401,92531,92427
 2.4000e+000 92675 -5.0186e+002 -3.9442e+002  2.1182e+002 45693 92531,92505,92649
 2.4000e+000 92698 -5.4222e+002 -4.8712e+002  4.5282e+002 45693 92531,92649,92427
 2.4000e+000 92747 -3.0911e+002 -2.8338e+002  1.7042e+002 45693 92453,92649,92721
 2.4000e+000 92770 -2.1894e+002 -1.2786e+001  2.0773e+002 45693 92453,92721,92479
 2.4000e+000 93172 -2.3092e+002 -3.9765e+002  3.4859e+002 45331 92898,93028,92924
 2.4000e+000 93149 -1.3677e+002 -3.3923e+002  2.3385e+002 45331 92898,93054,93028
 2.4000e+000 93126 -3.2272e+002 -2.6192e+002  3.9221e+002 45331 92924,93002,92976
 2.4000e+000 93103 -1.3392e+002 -3.5487e+002  3.4023e+002 45331 92924,93028,93002
 2.4000e+000 93080 -3.4720e+002 -4.1506e+002  4.0451e+002 45331 92924,92976,92950
 2.4000e+000 93518 -7.1713e+002 -7.1619e+002  4.0759e+002 44820 93613,93273,93247
 2.4000e+000 93495 -5.0500e+002 -5.1386e+002  2.3722e+002 44820 93685,93541,93247
 2.4000e+000 93472 -5.4576e+002 -3.2627e+002  2.0690e+002 44820 93541,93195,93377
 2.4000e+000 93449 -5.3790e+002 -4.6440e+002  2.0090e+002 44820 93685,93247,93221
 2.4000e+000 93426 -4.6870e+002 -6.1645e+002  3.3225e+002 44820 93299,93377,93351
 2.4000e+000 93403 -3.7178e+002 -4.2846e+002  3.9355e+002 44820 93299,93351,93325
 2.4000e+000 93567 -4.5083e+002 -6.7803e+002  1.7464e+002 44820 93613,93247,93541
 2.4000e+000 93590 -4.6475e+002 -5.3776e+002  1.1461e+002 44820 93299,93541,93377
 2.4000e+000 93639 -4.3372e+002 -8.4945e+002  2.4279e+002 44820 93299,93273,93613
 2.4000e+000 93662 -4.7992e+002 -8.3964e+002  1.9883e+002 44820 93299,93613,93541
 2.4000e+000 93711 -5.3070e+002 -3.9767e+002  1.6174e+002 44820 93195,93541,93685
 2.4000e+000 93734 -4.7026e+002 -1.9152e+002  1.3597e+002 44820 93195,93685,93221
 2.4000e+000 94163 -4.7646e+002 -4.8806e+002  2.0608e+002 44237 94258,94186,93996
 2.4000e+000 94140 -5.3159e+002 -5.5916e+002  1.2994e+002 44237 94330,94022,93996
 2.4000e+000 94117 -5.4633e+002 -5.0077e+002  1.6237e+002 44237 94186,93918,93866
 2.4000e+000 94094 -4.2740e+002 -3.8460e+002  2.1983e+002 44237 94258,93996,93970
 2.4000e+000 94071 -5.0760e+002 -2.8513e+002  2.1342e+002 44237 94402,93944,93918
 2.4000e+000 94048 -2.5287e+002 -3.9276e+002  1.4617e+002 44237 93866,93918,93892
 2.4000e+000 94212 -5.3130e+002 -5.6703e+002  1.6570e+002 44237 94330,93996,94186
 2.4000e+000 94235 -5.1978e+002 -4.6307e+002  1.8354e+002 44237 93840,94186,93866
 2.4000e+000 94284 -4.9261e+002 -3.8354e+002  1.4734e+002 44237 93918,94186,94258
 2.4000e+000 94307 -4.7216e+002 -3.0465e+002  1.6725e+002 44237 94402,93918,94258
 2.4000e+000 94356 -5.5927e+002 -2.4083e+002  3.0118e+001 44237 93840,94022,94330
 2.4000e+000 94379 -5.0426e+002 -4.9827e+002  1.7776e+002 44237 93840,94330,94186
 2.4000e+000 94428 -5.6768e+002 -3.7524e+002  2.4086e+002 44237 93970,93944,94402
 2.4000e+000 94451 -5.2095e+002 -3.8930e+002  1.8705e+002 44237 93970,94402,94258
 2.4000e+000 94908 -4.6733e+002 -6.1107e+002  9.4865e+001 43890 94660,94790,94712
 2.4000e+000 94885 -2.3200e+002 -2.3166e+002  2.2080e+002 43890 94634,94790,94660
 2.4000e+000 94862 -4.6844e+002 -3.5725e+002  1.5179e+002 43890 94712,94764,94738
 2.4000e+000 94839 -3.6081e+002 -4.0095e+002  1.8074e+002 43890 94712,94790,94764
 2.4000e+000 94816 -5.3694e+002 -3.9837e+002 -1.4309e+002 43890 94660,94712,94686
 2.4000e+000 95414 -3.0028e+002 -1.4660e+002  1.4213e+002 43186 95437,95143,95117
 2.4000e+000 95391 -3.6512e+002 -4.2850e+002  1.6750e+002 43186 95437,95117,95091
 2.4000e+000 95368 -9.5007e+001 -1.6285e+002  1.8916e+002 43186 95143,95221,95195
 2.4000e+000 95345 -5.7887e+002 -4.0491e+002  4.6981e+002 43186 95091,95273,95221
 2.4000e+000 95322 -3.3979e+002 -2.1674e+002  2.3783e+002 43186 95221,95273,95247
 2.4000e+000 95299 -1.6779e+002 -1.1209e+001  3.8777e+001 43186 95143,95195,95169
 2.4000e+000 95463 -2.6980e+002 -3.3772e+002  2.7991e+002 43186 95221,95143,95437
 2.4000e+000 95486 -3.0313e+002 -5.5974e+002  3.1585e+002 43186 95221,95437,95091
 2.4000e+000 96041 -5.9040e+002 -5.3131e+002  1.7118e+002 42782 95695,95851,95799
 2.4000e+000 96018 -5.4702e+002 -6.8142e+002  1.6472e+002 42782 95669,95851,95695
 2.4000e+000 95995 -5.1982e+002 -2.9045e+002  1.7872e+002 42782 95695,95747,95721
 2.4000e+000 95972 -4.0537e+002 -4.5045e+002  1.5800e+002 42782 95695,95799,95747
 2.4000e+000 95949 -3.5802e+002 -2.3589e+002  1.0045e+002 42782 95747,95799,95773
 2.4000e+000 95926 -6.9506e+002 -6.7361e+002  2.3010e+002 42782 95799,95851,95825
 2.4000e+000 95903 -7.9731e+002 -8.2243e+002  2.3256e+002 42782 95669,95877,95851
 2.4000e+000 96370 -5.3261e+002 -7.1850e+002  3.2659e+002 42420 96197,96275,96223
 2.4000e+000 96347 -5.0338e+002 -6.5051e+002  3.3327e+002 42420 96145,96275,96197
 2.4000e+000 96324 -4.8263e+002 -4.6565e+002  3.2591e+002 42420 96145,96197,96171
 2.4000e+000 96301 -3.7128e+002 -5.4889e+002  1.9174e+002 42420 96223,96275,96249
 2.4000e+000 96699 -2.6513e+002 -5.5242e+002 -3.3303e+001 41816 96474,96578,96526
 2.4000e+000 96676 -2.4463e+002 -4.6121e+002 -1.3151e+002 41816 96474,96604,96578
 2.4000e+000 96653 -2.1211e+002 -4.1698e+002  1.7201e+001 41816 96526,96578,96552
 2.4000e+000 96630 -2.6922e+002 -5.1327e+002 -4.1868e+000 41816 96474,96526,96500
 2.4000e+000 96947 -2.3738e+002 -5.5408e+002  3.6718e+001 41212 96722,96800,96748
 2.4000e+000 96924 -3.2316e+002 -5.6868e+002  7.4524e+001 41212 96722,96826,96800
 2.4000e+000 96901 -5.2719e+002 -6.8308e+002  1.2346e+002 41212 96722,96852,96826
 2.4000e+000 96878 -1.3222e+002 -4.9842e+002  7.5680e+001 41212 96748,96800,96774
 2.4000e+000 97097 -2.6100e+002 -4.1243e+001  2.6572e+002 40793 97120,97022,96996
 2.4000e+000 97074 -5.1381e+002 -5.6206e+002  1.6208e+002 40793 97192,97120,96996
 2.4000e+000 97146 -1.8939e+002 -4.6216e+002  2.3434e+002 40793 97324,97120,97048
 2.4000e+000 97169 -1.6819e+002 -7.8103e+002  2.2172e+002 40793 97048,97120,96970
 2.4000e+000 97218 -8.0113e+001 -3.7773e+002  1.6794e+002 40793 96970,97120,97192
 2.4000e+000 97350 -1.8939e+002 -4.6216e+002  2.3434e+002 40793 97022,97120,97324
 2.4000e+000 97878 -3.0905e+002 -5.9015e+002  1.3080e+002 40446 97901,97607,97555
 2.4000e+000 97855 -2.8459e+002 -3.9670e+002  1.2707e+002 40446 97973,97901,97555
 2.4000e+000 97832 -1.5781e+002 -3.2036e+002  9.4960e+001 40446 97973,97555,97737
 2.4000e+000 97809 -4.9669e+002 -6.9415e+002  2.3861e+002 40446 97633,97685,97659
 2.4000e+000 97786 -3.4144e+002 -4.9568e+002  1.3852e+002 40446 97633,97711,97685
 2.4000e+000 97763 -2.9616e+002 -6.6323e+002  1.5898e+002 40446 97555,97607,97581
 2.4000e+000 97927 -3.1921e+002 -7.2999e+002 -3.4228e+001 40446 97633,97607,97901
 2.4000e+000 97950 -2.7774e+002 -5.7838e+002  1.1633e+002 40446 97633,97901,97711
 2.4000e+000 97999 -1.0650e+002 -5.3975e+002  1.8708e+002 40446 97711,97901,97973
 2.4000e+000 98022 -8.7054e+000 -4.6346e+002  1.5293e+002 40446 97711,97973,97737
 2.4000e+000 98449 -2.0462e+002 -1.2334e+002  1.3427e+002 39935 98152,98204,98178
 2.4000e+000 98426 -2.9807e+002 -1.8433e+002  9.3290e+001 39935 98152,98230,98204
 2.4000e+000 98403 -4.5113e+002 -2.5917e+002  2.3034e+002 39935 98152,98256,98230
 2.4000e+000 98380 -3.4579e+002 -2.8168e+002  2.3124e+002 39935 98126,98256,98152
 2.4000e+000 98357 -4.6455e+002 -6.0624e+002  2.3420e+002 39935 98126,98282,98256
 2.4000e+000 98334 -2.5185e+002 -7.9803e+002  2.8705e+002 39935 98126,98308,98282
 2.4000e+000 98746 -7.0325e+002 -5.6923e+002  2.5701e+002 39531 98498,98602,98524
 2.4000e+000 98723 -4.7666e+002 -5.5239e+002  2.1934e+002 39531 98472,98602,98498
 2.4000e+000 98700 -7.7393e+002 -3.4167e+002  1.5246e+002 39531 98524,98602,98576
 2.4000e+000 98677 -3.7272e+002 -5.0520e+002  1.9963e+002 39531 98472,98628,98602
 2.4000e+000 98654 -7.5299e+002 -7.5388e+002 -1.6156e+002 39531 98524,98576,98550
 2.4000e+000 99224 -7.8156e+002 -4.2186e+002  5.0034e+002 39027 99247,98956,98930
 2.4000e+000 99201 -6.8016e+002 -3.4431e+002  2.2788e+002 39027 99247,98930,98878
 2.4000e+000 99178 -5.7082e+002 -4.2645e+002  2.8256e+002 39027 99319,98982,98956
 2.4000e+000 99155 -6.0816e+002 -3.3123e+002  1.6667e+002 39027 98852,99060,98878
 2.4000e+000 99132 -8.1436e+002 -3.6008e+002  2.2920e+002 39027 98878,98930,98904
 2.4000e+000 99109 -5.1006e+002 -8.4697e+002  4.1066e+002 39027 98982,99060,99034
 2.4000e+000 99086 -5.8189e+002 -9.1428e+002  5.1788e+002 39027 98982,99034,99008
 2.4000e+000 99273 -5.0918e+002 -3.1834e+002  3.1960e+002 39027 99319,98956,99247
 2.4000e+000 99296 -5.6435e+002 -3.0313e+002  1.8087e+002 39027 99060,99247,98878
 2.4000e+000 99345 -5.7568e+002 -4.7829e+002  2.2801e+002 39027 99060,98982,99319
 2.4000e+000 99368 -5.8363e+002 -4.5308e+002  2.5274e+002 39027 99060,99319,99247
 2.4000e+000 99923 -5.1357e+002 -4.6244e+002  2.4809e+002 38523 99946,99655,99603
 2.4000e+000 99900 -4.3861e+002 -4.2499e+002  2.6499e+002 38523 99946,99603,99759
 2.4000e+000 99877 -2.7220e+002 -5.8578e+002  2.9718e+002 38523 100018,99707,99681
 2.4000e+000 99854 -4.7307e+002 -2.9609e+002  2.5117e+002 38523 99551,99759,99603
 2.4000e+000 99831 -5.1611e+002 -3.4216e+002  2.8376e+002 38523 99551,99603,99577
 2.4000e+000 99808 -4.7891e+002 -6.7683e+002  1.7511e+002 38523 99707,99759,99733
 2.4000e+000 99785 -3.7430e+002 -3.8598e+002  2.0790e+002 38523 99603,99655,99629
 2.4000e+000 99972 -4.1383e+002 -2.4100e+002  2.6866e+002 38523 99681,99655,99946
 2.4000e+000 99995 -3.2380e+002 -3.4424e+002  3.4749e+002 38523 100018,99681,99946
 2.4000e+000 100044 -3.6523e+002 -6.8549e+002  1.8686e+002 38523 99759,99707,100018
 2.4000e+000 100067 -4.9968e+002 -5.9074e+002  2.3944e+002 38523 99759,100018,99946
 2.4000e+000 100467 -7.6708e+001 -1.9276e+002  7.0423e+001 38125 100219,100349,100323
 2.4000e+000 100444 -7.5364e+001 -1.7703e+002  6.8931e+001 38125 100193,100349,100219
 2.4000e+000 100421 -7.1813e+001 -1.9984e+002  7.6026e+001 38125 100245,100323,100297
 2.4000e+000 100398 -8.2769e+001 -1.9496e+002  7.2730e+001 38125 100219,100323,100245
 2.4000e+000 100375 -1.7495e+002 -2.5342e+002  5.0814e+001 38125 100245,100297,100271
 2.4000e+000 100666 -5.0892e+002 -8.0657e+002  2.2760e+002 37607 100689,100568,100542
 2.4000e+000 100643 -3.7206e+002 -3.8864e+002  1.9782e+002 37607 100689,100542,100490
 2.4000e+000 100620 -1.9571e+002 -2.5500e+002  1.1127e+002 37607 100490,100542,100516
 2.4000e+000 100715 -3.7138e+002 -4.0312e+002  1.5386e+002 37607 100594,100568,100689
 2.4000e+000 100738 -4.5609e+002 -2.9009e+002  1.6227e+002 37607 100594,100689,100490
 2.4000e+000 100937 -3.0521e+002 -2.9671e+002  2.6732e+002 37017 100960,100813,100787
 2.4000e+000 100914 -2.1804e+002 -3.0370e+002  1.4150e+002 37017 100960,100787,100761
 2.4000e+000 100891 -5.4778e+002 -2.2575e+002  2.9745e+002 37017 100813,100865,100839
 2.4000e+000 100986 -4.3480e+002 -4.3748e+002  3.6361e+002 37017 100865,100813,100960
 2.4000e+000 101009 -2.6220e+002 -3.7657e+002  2.2786e+002 37017 100865,100960,100761
 2.4000e+000 101519 -3.4365e+002 -2.0556e+002  7.2611e+001 36613 101222,101274,101248
 2.4000e+000 101496 -1.5168e+002 -1.6695e+002  8.5265e+001 36613 101222,101352,101274
 2.4000e+000 101473 -1.0618e+002 -3.2029e+002 -1.0444e+001 36613 101274,101352,101326
 2.4000e+000 101450 -2.5567e+002 -2.1422e+002  6.4170e+001 36613 101222,101378,101352
 2.4000e+000 101427 -1.2304e+002 -5.3302e+002  8.5222e-001 36613 101274,101326,101300
 2.4000e+000 101404 -2.4646e+002 -2.3258e+002  1.2812e+002 36613 101196,101378,101222
 2.4000e+000 101718 -4.1963e+002 -4.1029e+002  4.5013e+002 36308 101594,101646,101620
 2.4000e+000 101695 -4.4463e+002 -2.5785e+002  2.8902e+002 36308 101568,101646,101594
 2.4000e+000 101672 -3.1307e+002 -3.1548e+002  3.0576e+002 36308 101542,101646,101568
 2.4000e+000 102098 -3.9909e+002 -3.1654e+002  1.8678e+002 35918 102121,101954,101876
 2.4000e+000 102075 -3.6237e+002 -4.3524e+002  1.2828e+002 35918 102121,101876,101824
 2.4000e+000 102052 -3.6428e+002 -3.0109e+002  1.4182e+002 35918 101876,101954,101928
 2.4000e+000 102029 -5.1229e+002 -1.4513e+002  1.6988e+002 35918 101876,101928,101902
 2.4000e+000 102006 -3.7838e+002 -5.4252e+002  2.3115e+002 35918 101824,101876,101850
 2.4000e+000 102147 -3.3916e+002 -4.2848e+002  2.4287e+002 35918 101980,101954,102121
 2.4000e+000 102170 -3.2827e+002 -5.7694e+002  1.6710e+002 35918 101980,102121,101824
 2.4000e+000 102489 -4.5690e+002 -1.0824e+003  3.2637e+002 35514 102241,102345,102267
 2.4000e+000 102466 -6.3541e+002 -1.1664e+003  3.5274e+002 35514 102215,102345,102241
 2.4000e+000 102443 -5.1448e+002 -1.2513e+003  3.6572e+002 35514 102215,102371,102345
 2.4000e+000 102420 -3.6485e+002 -8.7295e+002  3.8552e+002 35514 102267,102345,102293
 2.4000e+000 102397 -2.0841e+002 -5.6053e+002  4.4641e+002 35514 102293,102345,102319
 2.4000e+000 102820 -7.1687e+002 -4.7138e+002  9.3108e+001 35224 102843,102699,102647
 2.4000e+000 102797 -5.5649e+002 -5.0185e+002  1.8367e+002 35224 102971,102725,102699
 2.4000e+000 102774 -8.8835e+002 -5.5402e+002  4.6360e+002 35224 102595,102725,102621
 2.4000e+000 102751 -2.1141e+002 -2.5968e+002  2.2520e+002 35224 102647,102699,102673
 2.4000e+000 102869 -5.8163e+002 -4.1374e+002  1.5420e+002 35224 102971,102699,102843
 2.4000e+000 102997 -5.4914e+002 -5.6515e+002  1.6635e+002 35224 102621,102725,102971
 2.4000e+000 103020 -6.0772e+002 -5.1821e+002  1.2363e+002 35224 102621,102971,102843
 2.4000e+000 103349 -6.0298e+002 -4.1488e+002  2.6968e+002 34820 103150,103228,103176
 2.4000e+000 103326 -4.9180e+002 -5.0248e+002  2.5123e+002 34820 103124,103228,103150
 2.4000e+000 103303 -4.8409e+002 -4.9221e+002  4.8142e+002 34820 103176,103228,103202
 2.4000e+000 103280 -3.3911e+002 -4.3366e+002  3.2067e+002 34820 103124,103254,103228
 2.4000e+000 103806 -3.6507e+002 -3.6480e+002  9.9821e+001 34530 103558,103662,103636
 2.4000e+000 103783 -4.2889e+002 -3.4522e+002  1.6064e+002 34530 103558,103688,103662
 2.4000e+000 103760 -4.9974e+002 -5.0633e+002  1.4752e+002 34530 103532,103688,103558
 2.4000e+000 103737 -1.8461e+002 -3.9891e+002  8.8764e+001 34530 103584,103636,103610
 2.4000e+000 103714 -6.9882e+002 -4.2554e+002  1.1732e+002 34530 103558,103636,103584
 2.4000e+000 104263 -2.8507e+002 -3.5716e+002  2.3110e+002 34019 103989,104119,104015
 2.4000e+000 104240 -2.2369e+002 -3.2462e+002  2.6011e+002 34019 103989,104145,104119
 2.4000e+000 104217 -3.0466e+002 -3.9930e+002  1.3910e+002 34019 104015,104067,104041
 2.4000e+000 104194 -3.2857e+002 -4.2609e+002  2.0877e+002 34019 104015,104119,104067
 2.4000e+000 104171 -3.0143e+002 -2.7864e+002  1.9083e+002 34019 104067,104119,104093
 2.4000e+000 104641 -3.1503e+002 -2.6192e+002  1.5702e+002 33351 104419,104497,104445
 2.4000e+000 104618 -2.0459e+002 -1.6604e+002  2.0711e+002 33351 104393,104497,104419
 2.4000e+000 104595 -3.7327e+002 -2.5685e+002  6.7708e+001 33351 104367,104497,104393
 2.4000e+000 104572 -3.8044e+002 -4.3078e+002  2.3195e+002 33351 104445,104497,104471
 2.4000e+000 104549 -3.5784e+002 -4.3317e+002  1.9944e+001 33351 104367,104523,104497
 2.4000e+000 105019 -3.7950e+002 -8.4005e+002  4.3696e+002 32861 104823,104901,104875
 2.4000e+000 104996 -5.5400e+002 -1.0304e+003  3.5995e+002 32861 104745,104901,104823
 2.4000e+000 104973 -5.3127e+002 -9.0515e+002  3.7470e+002 32861 104823,104875,104849
 2.4000e+000 104950 -5.5737e+002 -1.0185e+003  5.1267e+002 32861 104745,104823,104797
 2.4000e+000 104927 -6.8747e+002 -4.0948e+002  5.2592e+002 32861 104745,104797,104771
 2.4000e+000 105397 -2.3372e+002 -5.7849e+002  2.2983e+002 32457 105149,105253,105175
 2.4000e+000 105374 -3.4577e+002 -4.9709e+002  1.9111e+002 32457 105149,105279,105253
 2.4000e+000 105351 -2.8994e+002 -4.1275e+002  2.3619e+002 32457 105123,105279,105149
 2.4000e+000 105328 -2.9992e+002 -1.3273e+002  2.7850e+002 32457 105175,105227,105201
 2.4000e+000 105305 -4.5284e+002 -6.7238e+002  2.2960e+002 32457 105175,105253,105227
 2.4000e+000 105726 -1.8980e+002 -5.8810e+002  2.4395e+002 32003 105527,105605,105553
 2.4000e+000 105703 -2.9088e+002 -5.1578e+002  2.3618e+002 32003 105501,105605,105527
 2.4000e+000 105680 -1.6353e+002 -4.7606e+002  2.4931e+002 32003 105501,105631,105605
 2.4000e+000 105657 -9.4055e+001 -3.6674e+002  2.2156e+002 32003 105553,105605,105579
 2.4000e+000 106104 -3.2670e+002 -5.8043e+002  1.0940e+002 31492 106127,105908,105856
 2.4000e+000 106081 -2.1613e+002 -5.3303e+002  1.0651e+002 31492 106127,105856,105830
 2.4000e+000 106058 -3.1502e+002 -7.1459e+002  1.4322e+002 31492 105856,105908,105882
 2.4000e+000 106035 -1.0729e+002 -3.2162e+002  6.9783e+001 31492 105830,105986,105960
 2.4000e+000 106012 -1.3784e+002 -6.0366e+002  2.7901e+002 31492 105908,105960,105934
 2.4000e+000 106153 -3.6332e+002 -5.4970e+002  1.7564e+002 31492 105960,105908,106127
 2.4000e+000 106176 -2.9953e+002 -5.2459e+002  1.7450e+002 31492 105960,106127,105830
 2.4000e+000 106375 -4.1107e+002 -4.6065e+002  2.8835e+002 30788 106398,106277,106251
 2.4000e+000 106352 -4.4890e+002 -6.2260e+002  2.8911e+002 30788 106398,106251,106225
 2.4000e+000 106329 -6.6474e+002 -4.7542e+002  4.3430e+002 30788 106600,106199,106303
 2.4000e+000 106424 -5.3346e+002 -6.8997e+002  2.0715e+002 30788 106470,106398,106303
 2.4000e+000 106447 -4.1383e+002 -5.6821e+002  2.6539e+002 30788 106600,106303,106398
 2.4000e+000 106496 -1.4388e+002 -5.2473e+002  2.2828e+002 30788 106277,106398,106470
 2.4000e+000 106626 -8.1665e+002 -6.7472e+002  5.6181e+002 30788 106225,106199,106600
 2.4000e+000 106649 -6.4328e+002 -7.7792e+002  3.8857e+002 30788 106225,106600,106398
 2.4000e+000 106799 -1.5899e+002 -7.5337e+002 -1.9951e+000 30426 106698,106750,106724
 2.4000e+000 106776 -2.1981e+002 -5.1271e+002 -1.1700e+001 30426 106672,106750,106698
 2.4000e+000 107356 -4.2077e+002 -4.2212e+002  2.1279e+002 29972 107010,107166,107114
 2.4000e+000 107333 -5.4612e+002 -3.8923e+002  3.2320e+002 29972 106984,107166,107010
 2.4000e+000 107310 -5.0742e+002 -2.8582e+002  1.6116e+002 29972 107010,107114,107088
 2.4000e+000 107287 -4.1508e+002 -1.8071e+002  1.2701e+002 29972 107114,107166,107140
 2.4000e+000 107264 -5.6155e+002 -5.1441e+002  3.9332e+002 29972 106984,107192,107166
 2.4000e+000 107241 -6.9649e+002 -6.4549e+002  2.3014e+002 29972 107010,107088,107036
 2.4000e+000 107218 -3.9187e+002 -4.9969e+002  1.6469e+002 29972 107036,107088,107062
 2.4000e+000 107783 -5.5780e+002 -7.6642e+002  3.6844e+002 29724 107878,107806,107590
 2.4000e+000 107760 -6.5543e+002 -7.8076e+002  3.0024e+002 29724 107806,107512,107486
 2.4000e+000 107737 -5.8157e+002 -7.2344e+002  4.3276e+002 29724 107878,107590,107538
 2.4000e+000 107714 -5.2934e+002 -8.2153e+002  3.7875e+002 29724 107950,107460,107616
 2.4000e+000 107691 -4.5885e+002 -7.8424e+002  3.5797e+002 29724 107460,107642,107616
 2.4000e+000 107668 -3.9813e+002 -5.9898e+002  4.8960e+002 29724 107538,107590,107564
 2.4000e+000 107832 -3.7224e+002 -7.4131e+002  4.1584e+002 29724 107616,107590,107806
 2.4000e+000 107855 -5.4234e+002 -8.2889e+002  3.7108e+002 29724 107950,107616,107806
 2.4000e+000 107904 -5.1188e+002 -6.6493e+002  3.5838e+002 29724 107512,107806,107878
 2.4000e+000 107927 -5.3220e+002 -6.0175e+002  4.3392e+002 29724 107512,107878,107538
 2.4000e+000 107976 -2.7574e+002 -8.0670e+002  4.0658e+002 29724 107486,107460,107950
 2.4000e+000 107999 -5.0919e+002 -8.8042e+002  3.5488e+002 29724 107486,107950,107806
 2.4000e+000 108296 -5.9806e+002 -4.5721e+002  3.2690e+002 29206 108319,108100,108048
 2.4000e+000 108273 -3.4737e+002 -4.0238e+002  3.8303e+002 29206 108319,108048,108022
 2.4000e+000 108250 -1.7792e+002 -4.9430e+002  4.6218e+002 29206 108391,108152,108126
 2.4000e+000 108227 -6.6970e+002 -3.3383e+002  3.8131e+002 29206 108048,108100,108074
 2.4000e+000 108204 -2.6094e+002 -6.9043e+002  3.9052e+002 29206 108022,108178,108152
 2.4000e+000 108345 -4.3636e+002 -2.7029e+002  4.7293e+002 29206 108126,108100,108319
 2.4000e+000 108368 -2.4172e+002 -3.9181e+002  5.2331e+002 29206 108391,108126,108319
 2.4000e+000 108417 -3.4511e+002 -6.2176e+002  3.9376e+002 29206 108022,108152,108391
 2.4000e+000 108440 -3.9316e+002 -5.4255e+002  4.5761e+002 29206 108022,108391,108319
 2.4000e+000 108688 -5.2449e+002 -6.5697e+002  3.8789e+002 28595 108711,108541,108515
 2.4000e+000 108665 -7.7354e+002 -7.2396e+002  5.2286e+002 28595 108783,108711,108515
 2.4000e+000 108642 -9.5080e+002 -6.3449e+002  5.2850e+002 28595 108783,108515,108489
 2.4000e+000 108619 -9.5580e+002 -7.7963e+002  2.5675e+002 28595 108463,108593,108489
 2.4000e+000 108737 -4.8166e+002 -5.3881e+002  2.8101e+002 28595 108567,108541,108711
 2.4000e+000 108760 -4.0942e+002 -5.9881e+002  4.5224e+002 28595 108567,108711,108593
 2.4000e+000 108809 -4.9672e+002 -7.2436e+002  4.0064e+002 28595 108593,108711,108783
 2.4000e+000 108832 -7.5970e+002 -6.7992e+002  3.6350e+002 28595 108593,108783,108489
 2.4000e+000 109033 -1.6821e+002 -2.7174e+002  1.3549e+002 28091 108909,108961,108935
 2.4000e+000 109010 -1.9248e+002 -2.9699e+002  1.2554e+002 28091 108857,108961,108909
 2.4000e+000 108987 -3.9913e+002 -5.0512e+002  3.7685e+002 28091 108857,108909,108883
 2.4000e+000 109136 -4.6685e+002 -1.1041e+003  1.9828e+002 27587 109058,109110,109084
 2.4000e+000 109695 -4.7552e+002 -5.2373e+002  1.7893e+002 26969 109718,109375,109323
 2.4000e+000 109672 -4.5952e+002 -5.2792e+002  1.3332e+002 26969 109718,109323,109505
 2.4000e+000 109649 -4.7643e+002 -2.3749e+002  9.6466e+001 26969 109790,109453,109427
 2.4000e+000 109626 -1.9333e+002 -5.1060e+002  2.3400e+002 26969 109323,109375,109349
 2.4000e+000 109603 -4.4217e+002 -5.3982e+002  1.4215e+002 26969 109323,109531,109505
 2.4000e+000 109580 -2.9794e+002 -5.5386e+002  1.0292e+002 26969 109375,109427,109401
 2.4000e+000 109557 -5.5805e+002 -5.5413e+002  2.5838e+002 26969 109453,109505,109479
 2.4000e+000 109744 -4.7442e+002 -5.4972e+002  9.8990e+001 26969 109427,109375,109718
 2.4000e+000 109767 -4.0795e+002 -3.5389e+002  7.4359e+001 26969 109790,109427,109718
 2.4000e+000 109816 -4.7499e+002 -3.7097e+002  1.4942e+002 26969 109505,109453,109790
 2.4000e+000 109839 -4.3062e+002 -5.0617e+002  1.4545e+002 26969 109505,109790,109718
 2.4000e+000 110266 -3.3932e+002 -5.8615e+002  1.2848e+002 26515 110361,110289,110099
 2.4000e+000 110243 -2.6755e+002 -4.1545e+002  1.4926e+002 26515 110289,109995,109943
 2.4000e+000 110220 -4.5353e+002 -6.3298e+002  1.2431e+002 26515 110361,110099,110021
 2.4000e+000 110197 -4.2053e+002 -1.1784e+003  9.2606e+001 26515 110047,110099,110073
 2.4000e+000 110174 -4.3860e+002 -1.0598e+003 -1.0291e+002 26515 110021,110099,110047
 2.4000e+000 110151 -5.9765e+001 -1.6023e+002  2.4606e+002 26515 109943,109995,109969
 2.4000e+000 110315 -4.4777e+002 -3.6077e+002  6.1617e+001 26515 110125,110099,110289
 2.4000e+000 110338 -3.8828e+002 -1.3566e+002  2.7305e+002 26515 110125,110289,109943
 2.4000e+000 110387 -4.3939e+002 -5.4861e+002  2.1729e+000 26515 109995,110289,110361
 2.4000e+000 110410 -5.3445e+002 -5.8022e+002  6.3938e+000 26515 109995,110361,110021
 2.4000e+000 110609 -8.9311e+001 -6.4905e+002  2.2850e+002 25789 110906,110762,110632
 2.4000e+000 110586 -1.2079e+002 -7.9924e+002  2.4952e+002 25789 110762,110433,110537
 2.4000e+000 110563 -3.7894e+002 -7.3239e+002  4.0209e+002 25789 110834,110459,110433
 2.4000e+000 110658 -1.8373e+002 -6.2148e+002  3.0452e+002 25789 110906,110632,110834
 2.4000e+000 110788 -5.3636e+001 -4.3633e+002  1.3144e+002 25789 110511,110632,110762
 2.4000e+000 110811 -1.3117e+002 -6.5354e+002  2.4423e+002 25789 110511,110762,110537
 2.4000e+000 110860 -2.4177e+002 -6.3814e+002  3.3578e+002 25789 110485,110459,110834
 2.4000e+000 110883 -2.7703e+002 -6.0156e+002  3.0251e+002 25789 110485,110834,110632
 2.4000e+000 110932 -2.9410e+002 -7.1856e+002  2.3983e+002 25789 110433,110762,110906
 2.4000e+000 110955 -3.7119e+002 -6.7036e+002  3.0187e+002 25789 110433,110906,110834
 2.4000e+000 111350 -3.7384e+002 -5.7293e+002  3.5083e+002 25228 111445,111373,111186
 2.4000e+000 111327 -4.0428e+002 -5.6624e+002  1.0743e+002 25228 110978,111186,111004
 2.4000e+000 111304 -4.0886e+002 -7.4517e+002  3.2177e+002 25228 111373,111108,111082
 2.4000e+000 111281 -3.7408e+002 -7.5492e+002  2.8434e+002 25228 111134,111186,111160
 2.4000e+000 111258 -3.7500e+002 -5.4560e+002  3.3094e+002 25228 111445,111186,111134
 2.4000e+000 111235 -3.4920e+002 -4.0902e+002  1.9828e+002 25228 111517,111030,111004
 2.4000e+000 111212 -4.7451e+002 -5.3055e+002  3.0384e+002 25228 111030,111082,111056
 2.4000e+000 111399 -4.0235e+002 -6.4720e+002  3.3036e+002 25228 111004,111186,111373
 2.4000e+000 111422 -2.9550e+002 -4.9904e+002  2.7154e+002 25228 111517,111004,111373
 2.4000e+000 111471 -3.5256e+002 -5.4834e+002  3.1856e+002 25228 111108,111373,111445
 2.4000e+000 111494 -3.5260e+002 -5.1681e+002  2.9898e+002 25228 111108,111445,111134
 2.4000e+000 111543 -4.5238e+002 -4.5055e+002  3.0263e+002 25228 111082,111030,111517
 2.4000e+000 111566 -4.1042e+002 -5.8005e+002  3.7575e+002 25228 111082,111517,111373
 2.4000e+000 112074 -2.7999e+002 -4.1366e+002  2.3293e+002 24338 112097,111907,111881
 2.4000e+000 112051 -3.8893e+002 -3.8100e+002  1.2701e+002 24338 112097,111881,111829
 2.4000e+000 112028 -1.1605e+002 -3.8482e+002  9.8597e+001 24338 111829,111881,111855
 2.4000e+000 112005 -4.2327e+002 -5.6869e+002  1.5735e+002 24338 111777,111933,111829
 2.4000e+000 111982 -5.6824e+002 -2.7175e+002  1.8413e+002 24338 111751,111933,111777
 2.4000e+000 111959 -4.7560e+002 -6.3735e+002  1.8921e+002 24338 111777,111829,111803
 2.4000e+000 112123 -4.0633e+002 -7.4041e+002  2.1722e+002 24338 111933,111907,112097
 2.4000e+000 112146 -3.7751e+002 -4.6631e+002  1.4166e+002 24338 111933,112097,111829
 2.4000e+000 112443 -5.7575e+002 -4.3546e+002  2.7077e+002 23998 112466,112299,112247
 2.4000e+000 112420 -6.3469e+002 -7.0701e+002  2.5009e+002 23998 112466,112247,112221
 2.4000e+000 112397 -4.4570e+002 -8.4430e+002  3.7464e+002 23998 112169,112325,112221
 2.4000e+000 112374 -3.8299e+002 -7.4126e+002  4.0184e+002 23998 112169,112221,112195
 2.4000e+000 112351 -2.4188e+002 -4.0089e+002  3.0875e+002 23998 112247,112299,112273
 2.4000e+000 112492 -5.5245e+002 -4.9326e+002  4.2887e+002 23998 112325,112299,112466
 2.4000e+000 112515 -6.1037e+002 -6.3920e+002  3.8048e+002 23998 112325,112466,112221
 2.4000e+000 113200 -6.2294e+002 -7.7678e+002  5.3857e+002 23480 112779,112961,112805
 2.4000e+000 113177 -6.8297e+002 -5.1552e+002  2.2258e+002 23480 112779,112987,112961
 2.4000e+000 113154 -1.4283e+002 -3.9364e+002  3.3976e+002 23480 112805,112961,112883
 2.4000e+000 113131 -3.7731e+002 -6.9293e+002  3.7696e+002 23480 112883,112935,112909
 2.4000e+000 113108 -5.0144e+002 -5.4471e+002  3.8794e+002 23480 112883,112961,112935
 2.4000e+000 113085 -1.6517e+002 -3.0980e+002  1.6431e+002 23480 112831,112883,112857
 2.4000e+000 113062 -3.0679e+002 -4.0661e+002  2.2781e+002 23480 112805,112883,112831
 2.4000e+000 113039 -6.9894e+002 -4.1730e+002  2.2188e+002 23480 112779,113013,112987
 2.4000e+000 113676 -6.1287e+002 -2.9373e+002  4.8816e+002 23018 113699,113434,113356
 2.4000e+000 113653 -5.3936e+002 -2.8649e+002  2.5240e+002 23018 113771,113699,113356
 2.4000e+000 113630 -4.7950e+002 -4.7027e+002  1.6833e+002 23018 113771,113356,113512
 2.4000e+000 113607 -3.2422e+002 -6.7519e+002  2.9273e+002 23018 113330,113512,113356
 2.4000e+000 113584 -1.2037e+003 -6.5089e+002  7.1201e+002 23018 113356,113434,113382
 2.4000e+000 113561 -1.3113e+002 -6.3611e+002  2.8779e+002 23018 113304,113512,113330
 2.4000e+000 113538 -1.2049e+003 -1.7525e+002  3.0382e+002 23018 113382,113434,113408
 2.4000e+000 113725 -6.9983e+002 -5.0182e+002  4.9294e+002 23018 113460,113434,113699
 2.4000e+000 113748 -7.6278e+002 -5.4923e+002  3.0102e+002 23018 113460,113699,113486
 2.4000e+000 113797 -7.0154e+002 -5.6042e+002  3.1954e+002 23018 113486,113699,113771
 2.4000e+000 113820 -5.4506e+002 -5.9562e+002  1.9532e+002 23018 113486,113771,113512
 2.4000e+000 114424 -2.8780e+002 -4.5363e+002  1.0427e+002 22514 114447,114133,114029
 2.4000e+000 114401 -2.8806e+002 -5.3895e+002  9.9915e+001 22514 114447,114029,114237
 2.4000e+000 114378 -1.5024e+002 -3.7308e+002  1.7022e+002 22514 114133,114211,114185
 2.4000e+000 114355 -2.3030e+002 -3.6568e+002  1.4447e+002 22514 114133,114185,114159
 2.4000e+000 114332 -1.8476e+002 -5.5180e+002  2.0015e+002 22514 114003,114237,114029
 2.4000e+000 114309 -3.1711e+002 -3.7665e+002  6.7332e+001 22514 114029,114133,114055
 2.4000e+000 114286 -4.0420e+002 -3.0571e+002  1.1108e+002 22514 114055,114133,114107
 2.4000e+000 114263 -3.3141e+002 -4.0374e+001  1.2852e+002 22514 114055,114107,114081
 2.4000e+000 114473 -3.0268e+002 -4.0767e+002  1.3873e+002 22514 114211,114133,114447
 2.4000e+000 114496 -2.8798e+002 -4.7184e+002  1.3314e+002 22514 114211,114447,114237
 2.4000e+000 114597 -2.9274e+002 -7.3714e+002  3.8183e+002 22316 114620,114571,114545
 2.4000e+000 114646 -2.9274e+002 -7.3714e+002  3.8183e+002 22316 114519,114571,114620
 2.4000e+000 115127 -4.7507e+002 -5.8216e+002  1.7180e+002 21612 115150,114905,114879
 2.4000e+000 115104 -5.2684e+002 -3.6084e+002  2.1823e+002 21612 115150,114879,114853
 2.4000e+000 115081 -3.9356e+002 -1.9015e+002  3.3306e+002 21612 115222,114931,114905
 2.4000e+000 115058 -4.1441e+002 -4.5013e+002  2.6367e+002 21612 115222,114905,115009
 2.4000e+000 115035 -1.8084e+002 -5.5222e+002  1.7292e+002 21612 114957,115009,114983
 2.4000e+000 115176 -4.3763e+002 -4.0138e+002  1.9027e+002 21612 115009,114905,115150
 2.4000e+000 115199 -4.7387e+002 -1.5327e+002  2.3000e+002 21612 115009,115150,114853
 2.4000e+000 115248 -4.0333e+002 -4.1544e+002  2.7869e+002 21612 114957,114931,115222
 2.4000e+000 115271 -4.1763e+002 -6.6234e+002  2.0634e+002 21612 114957,115222,115009
 2.4000e+000 115519 -1.5275e+002  6.8306e+001  1.5949e+002 21208 115542,115372,115320
 2.4000e+000 115496 -2.2808e-001  1.6766e+002  1.2660e+001 21208 115542,115320,115294
 2.4000e+000 115473 -1.0276e+002 -2.5807e+002  2.2487e+002 21208 115320,115372,115346
 2.4000e+000 115450 -3.8031e+002 -1.4068e+002  9.7058e+001 21208 115294,115424,115398
 2.4000e+000 115568 -2.1570e+002  1.0107e+001  2.1796e+002 21208 115398,115372,115542
 2.4000e+000 115591 -1.6038e+002 -8.3113e+001  9.8581e+001 21208 115398,115542,115294
 2.4000e+000 115839 -4.2408e+002 -3.6358e+002  3.2886e+002 20668 115862,115640,115614
 2.4000e+000 115816 -4.5014e+002 -4.1000e+002  3.3927e+002 20668 115862,115614,115744
 2.4000e+000 115793 -4.3007e+002 -2.3026e+002  3.2495e+002 20668 115640,115718,115692
 2.4000e+000 115770 -7.1230e+002 -2.4504e+002  2.9040e+002 20668 115640,115692,115666
 2.4000e+000 115888 -4.6117e+002 -2.7991e+002  3.6612e+002 20668 115718,115640,115862
 2.4000e+000 115911 -5.0743e+002 -3.6746e+002  3.8315e+002 20668 115718,115862,115744
 2.4000e+000 116134 -4.0093e+002 -6.1526e+002  3.6869e+002 20264 115958,116036,115984
 2.4000e+000 116111 -2.0537e+002 -5.2253e+002  3.4197e+002 20264 115958,116062,116036
 2.4000e+000 116088 -2.2451e+002 -5.8326e+002  4.0005e+002 20264 115984,116036,116010
 2.4000e+000 116384 -6.0043e+002 -4.2826e+002  4.5109e+002 19924 116407,116211,116159
 2.4000e+000 116361 -5.6171e+002 -7.1963e+002  3.7166e+002 19924 116407,116159,116263
 2.4000e+000 116338 -5.6536e+002 -2.7742e+002  4.3997e+002 19924 116159,116211,116185
 2.4000e+000 116315 -3.8270e+002 -7.1082e+002  4.2990e+002 19924 116159,116289,116263
 2.4000e+000 116433 -5.7256e+002 -2.6753e+002  5.2097e+002 19924 116237,116211,116407
 2.4000e+000 116456 -4.2222e+002 -4.6132e+002  4.7806e+002 19924 116237,116407,116263
 2.4000e+000 116608 -2.6983e+002 -4.6382e+001  2.5107e+002 19520 116703,116631,116533
 2.4000e+000 116585 -1.6655e+002 -1.2470e+002  1.5467e+002 19520 116631,116507,116481
 2.4000e+000 116657 -2.0244e+002 -1.4161e+002  2.8394e+002 19520 116559,116533,116631
 2.4000e+000 116680 -2.0002e+002 -3.4725e+002  1.8620e+002 19520 116559,116631,116481
 2.4000e+000 116729 -2.6983e+002 -4.6382e+001  2.5107e+002 19520 116507,116631,116703
 2.4000e+000 116952 -5.2324e+002 -4.7003e+002  6.4261e+002 19208 116975,116802,116776
 2.4000e+000 116929 -6.6697e+002 -8.6102e+002  3.6945e+002 19208 116975,116776,116880
 2.4000e+000 116906 -7.2769e+002 -3.1046e+002  4.5229e+002 19208 116802,116854,116828
 2.4000e+000 117001 -4.1251e+002 -4.0027e+002  6.7309e+002 19208 116854,116802,116975
 2.4000e+000 117024 -1.7000e+002 -5.0171e+002  5.3335e+002 19208 116854,116975,116880
 2.4000e+000 117428 -4.9588e+002 -1.6905e+002  3.2647e+002 18796 117154,117206,117180
 2.4000e+000 117405 -3.3969e+002 -4.0162e+002  2.9109e+002 18796 117154,117284,117206
 2.4000e+000 117382 -1.9309e+002 -3.3917e+002  2.9004e+002 18796 117154,117310,117284
 2.4000e+000 117359 -1.7948e+002 -2.7000e+002  3.8377e+002 18796 117206,117284,117258
 2.4000e+000 117336  9.2514e+000 -2.6730e+001  5.3280e+002 18796 117206,117258,117232
 2.4000e+000 117529 -2.2349e+002 -1.3119e+002  1.5047e+002 18228 117810,117552,117477
 2.4000e+000 117578 -5.5347e+002 -3.5044e+002  2.6056e+002 18228 117682,117552,117503
 2.4000e+000 117708 -1.7798e+002 -1.3944e+002  1.4083e+002 18228 117477,117552,117682
 2.4000e+000 117836 -3.4661e+002 -3.5171e+002  2.2597e+002 18228 117451,117552,117810
 2.4000e+000 118364 -5.6312e+002 -1.6446e+002  2.4344e+002 17722 118067,118223,118093
 2.4000e+000 118341 -5.4083e+002 -1.1402e+002  2.5119e+002 17722 118041,118223,118067
 2.4000e+000 118318 -2.9343e+002 -1.7640e+002  1.7417e+002 17722 118093,118223,118197
 2.4000e+000 118295 -9.7944e+002 -9.9899e+002  6.5695e+002 17722 118119,118197,118171
 2.4000e+000 118272 -1.0714e+002  1.0028e+001  2.7937e+002 17722 118093,118197,118119
 2.4000e+000 118249 -8.8020e+002 -5.1925e+002  6.1622e+002 17722 118119,118171,118145
 2.4000e+000 118514 -9.5965e+002 -3.7230e+002  3.5526e+002 17268 118387,118439,118413
 2.4000e+000 118491 -6.2037e+001 -4.4554e+002  3.6875e+002 17268 118387,118465,118439
 2.4000e+000 118916 -5.1822e+002 -1.2929e+002  2.0311e+002 16828 118668,118772,118694
 2.4000e+000 118893 -7.1708e+002 -2.2140e+002  1.7302e+002 16828 118668,118798,118772
 2.4000e+000 118870 -7.6999e+002 -4.1373e+002  1.0230e+002 16828 118642,118798,118668
 2.4000e+000 118847 -1.6317e+002 -4.5279e+001  3.6661e+002 16828 118694,118746,118720
 2.4000e+000 118824 -5.7389e+002 -3.3210e+002  1.8034e+002 16828 118694,118772,118746
 2.4000e+000 119316 -2.1635e+002 -1.8207e+002  3.1654e+002 16422 119042,119172,119094
 2.4000e+000 119293 -3.2289e+002 -2.2082e+002  3.1436e+002 16422 119042,119198,119172
 2.4000e+000 119270 -4.4979e+002 -8.7424e+001  1.6974e+002 16422 119042,119094,119068
 2.4000e+000 119247 -6.5983e+000 -1.1217e+001  4.6250e+002 16422 119094,119146,119120
 2.4000e+000 119224 -1.6096e+002 -8.6388e+001  3.4004e+002 16422 119094,119172,119146
 2.4000e+000 119466 -1.0583e+002  8.8257e+001  9.2366e+001 16010 119339,119391,119365
 2.4000e+000 119443 -6.1795e+001 -5.9573e+001  2.7577e+002 16010 119339,119417,119391
 2.4000e+000 119616 -1.1680e+002  2.2488e+001  2.3640e+002 15547 119515,119567,119541
 2.4000e+000 119593  2.2991e+002  3.3001e+002  7.5710e+002 15547 119489,119567,119515
 2.4000e+000 119719 -7.9236e+002 -3.1385e+002  3.8799e+002 421 119641,119693,119667
 2.5000e+000 69562 -7.4895e+002 -3.5815e+002  5.5422e+002 69254 69484,69536,69510
 2.5000e+000 70009 -3.9087e+002 -3.4340e+002  3.1697e+002 68942 69686,69842,69816
 2.5000e+000 69986 -3.5891e+002 -1.2872e+002  1.8293e+002 68942 69686,69868,69842
 2.5000e+000 69963 -2.2946e+002 -9.4485e+001  3.9921e+002 68942 69686,69816,69712
 2.5000e+000 69940 -1.3354e+002 -9.9792e+001  5.5907e+002 68942 69712,69790,69738
 2.5000e+000 69917 -5.7627e+002 -9.1666e+002  3.5801e+002 68942 69712,69816,69790
 2.5000e+000 69894 -4.5315e+001 -4.9118e+002  2.1593e+002 68942 69738,69790,69764
 2.5000e+000 70110 -3.9564e+002 -1.1344e+002  2.5237e+002 68766 70032,70084,70058
 2.5000e+000 70746 -4.8556e+002 -2.4348e+002  2.6374e+002 68448 70400,70556,70426
 2.5000e+000 70723 -8.7083e+002 -3.4787e+002  3.5518e+002 68448 70374,70556,70400
 2.5000e+000 70700 -5.8099e+002 -2.2491e+002  1.8789e+002 68448 70426,70556,70478
 2.5000e+000 70677 -6.9255e+002 -1.9586e+002  2.0572e+002 68448 70478,70556,70504
 2.5000e+000 70654 -5.8700e+002 -2.9642e+002  1.7802e+002 68448 70426,70478,70452
 2.5000e+000 70631 -8.4687e+002 -2.9274e+002  4.5772e+002 68448 70374,70582,70556
 2.5000e+000 70608 -7.2651e+002 -2.6320e+002  1.9534e+002 68448 70504,70556,70530
 2.5000e+000 70896 -7.7636e+002 -1.9321e+002  3.1704e+001 68250 70795,70847,70821
 2.5000e+000 70873 -1.3955e+003 -4.4986e+002  6.9159e+001 68250 70769,70847,70795
 2.5000e+000 70997 -1.8852e+003 -8.9952e+002  8.0087e+002 68052 70919,70971,70945
 2.5000e+000 71367 -5.7870e+002 -9.2152e+002  3.4679e+002 67740 71096,71226,71200
 2.5000e+000 71344 -3.7195e+002 -5.2714e+002  4.3407e+002 67740 71044,71226,71096
 2.5000e+000 71321  5.1795e+001 -5.1795e+001  6.8948e+002 67740 71044,71096,71070
 2.5000e+000 71298 -4.2346e+002 -9.9186e+002  6.8176e+002 67740 71096,71200,71174
 2.5000e+000 71275 -2.5897e+002 -6.2344e+002  2.2880e+002 67740 71096,71148,71122
 2.5000e+000 71252 -3.4454e+002 -7.0432e+002  4.3990e+002 67740 71096,71174,71148
 2.5000e+000 71519  2.4019e+002  1.6310e+002  2.1848e+002 67542 71418,71470,71444
 2.5000e+000 71496  3.7571e+002  7.1194e+002  6.8415e+002 67542 71392,71470,71418
 2.5000e+000 71923 -1.1971e+002  2.0327e+001  2.0045e+002 67230 71649,71779,71675
 2.5000e+000 71900 -7.7332e+001 -1.7808e+002  1.1735e+002 67230 71649,71805,71779
 2.5000e+000 71877 -1.2742e+002 -4.4334e+001  3.7741e+002 67230 71675,71727,71701
 2.5000e+000 71854 -1.6925e+002 -5.7206e+002  3.6136e+002 67230 71675,71753,71727
 2.5000e+000 71831 -1.8242e+002 -3.3596e+002  2.4975e+002 67230 71675,71779,71753
 2.5000e+000 72433 -4.8318e+002 -2.1614e+002  3.0983e+002 67032 72038,72246,72220
 2.5000e+000 72410 -2.3168e+002 -1.1142e+001  1.6179e+002 67032 72012,72246,72038
 2.5000e+000 72387 -4.5534e+002 -1.8300e+002  3.2871e+002 67032 72064,72194,72168
 2.5000e+000 72364 -4.8442e+002 -1.8316e+002  3.4507e+002 67032 72038,72194,72064
 2.5000e+000 72341 -6.3797e+002 -5.8144e+002  3.0686e+002 67032 72038,72220,72194
 2.5000e+000 72318 -1.8642e+002  1.3240e+001  2.1876e+002 67032 72090,72168,72142
 2.5000e+000 72295 -8.7283e+001 -2.1462e+001  3.5869e+002 67032 72064,72168,72090
 2.5000e+000 72272 -2.1155e+002 -1.8474e+001  2.0238e+002 67032 72090,72142,72116
 2.5000e+000 72933 -3.3892e+002 -3.7744e+002  3.7554e+002 66628 72956,72665,72613
 2.5000e+000 72910 -3.1613e+002 -3.9572e+002  3.7707e+002 66628 73100,72956,72613
 2.5000e+000 72887 -4.1337e+002 -5.7752e+002  3.0442e+002 66628 73028,72691,72665
 2.5000e+000 72864 -2.9517e+002 -3.5602e+002  3.8937e+002 66628 73100,72613,72587
 2.5000e+000 72841 -3.2606e+002 -3.6179e+002  3.4060e+002 66628 72613,72665,72639
 2.5000e+000 72818  6.0106e+001 -4.3941e-002  4.9271e+002 66628 72587,72769,72743
 2.5000e+000 72795 -3.5670e+002 -8.3500e+002  1.0162e+002 66628 72561,72769,72587
 2.5000e+000 72982 -4.0543e+002 -4.1652e+002  4.0021e+002 66628 73028,72665,72956
 2.5000e+000 73005 -3.4341e+002 -1.3545e+002  3.7930e+002 66628 72717,72956,72743
 2.5000e+000 73054 -5.9514e+002 -4.7662e+002  1.8460e+002 66628 72717,72691,73028
 2.5000e+000 73077 -5.8947e+002 -4.2205e+002  2.7123e+002 66628 72717,73028,72956
 2.5000e+000 73126 -3.4047e+002 -3.9431e+002  3.3113e+002 66628 72743,72956,73100
 2.5000e+000 73149 -3.1811e+002 -3.6105e+002  3.4386e+002 66628 72743,73100,72587
 2.5000e+000 73606 -4.3757e+002 -3.7064e+002  3.4781e+002 66281 73332,73384,73358
 2.5000e+000 73583 -5.4666e+002 -4.2987e+002  2.7753e+002 66281 73332,73462,73384
 2.5000e+000 73560 -6.7036e+002 -4.2633e+002  2.9752e+002 66281 73384,73462,73436
 2.5000e+000 73537 -1.0178e+003 -5.8775e+002  4.5971e+002 66281 73332,73488,73462
 2.5000e+000 73514 -7.4706e+002 -4.2247e+002  2.0309e+002 66281 73384,73436,73410
 2.5000e+000 73984 -1.9036e+002 -1.5332e+002  1.2486e+002 65969 73736,73814,73788
 2.5000e+000 73961 -7.6500e+001 -7.0342e+001  8.1934e+001 65969 73736,73866,73814
 2.5000e+000 73938 -2.1304e+002 -1.8100e+002  2.0847e+002 65969 73814,73866,73840
 2.5000e+000 73915 -5.4155e+001 -9.5731e+001  7.6179e+001 65969 73710,73866,73736
 2.5000e+000 73892 -1.2110e+002 -1.3341e+002  2.6430e+001 65969 73736,73788,73762
 2.5000e+000 74232 -3.2358e+002 -3.5933e+002  3.4023e+002 65572 74255,74085,74033
 2.5000e+000 74209 -2.9188e+002 -3.7708e+002  3.0531e+002 65572 74327,74255,74033
 2.5000e+000 74186 -3.1225e+002 -3.0832e+002  3.0756e+002 65572 74327,74033,74007
 2.5000e+000 74163 -3.6958e+002 -4.3629e+002  3.7106e+002 65572 74033,74085,74059
 2.5000e+000 74281 -3.8238e+002 -4.2711e+002  4.2096e+002 65572 74111,74085,74255
 2.5000e+000 74304 -2.6279e+002 -3.8008e+002  3.4557e+002 65572 74111,74255,74137
 2.5000e+000 74353 -2.7360e+002 -2.9849e+002  2.8175e+002 65572 74137,74255,74327
 2.5000e+000 74376 -3.0873e+002 -2.4688e+002  2.8762e+002 65572 74137,74327,74007
 2.5000e+000 74884 -3.3468e+002 -3.8920e+002  3.0011e+002 65174 74587,74717,74613
 2.5000e+000 74861 -4.0074e+002 -4.4742e+002  2.3993e+002 65174 74561,74717,74587
 2.5000e+000 74838 -3.1177e+002 -4.6630e+002  2.4413e+002 65174 74613,74691,74639
 2.5000e+000 74815 -3.2914e+002 -4.6255e+002  2.8359e+002 65174 74613,74717,74691
 2.5000e+000 74792 -1.7109e+002 -6.8640e+002  1.9821e+002 65174 74639,74691,74665
 2.5000e+000 74769 -6.4968e+002 -1.4515e+002  2.6719e+002 65174 74561,74743,74717
 2.5000e+000 75412 -1.2121e+001 -2.0256e+002  6.9066e+002 64770 75167,75245,75219
 2.5000e+000 75389 -3.1946e+002 -6.2259e+002  4.7225e+002 64770 75115,75245,75167
 2.5000e+000 75366 -2.5876e+002 -8.0209e+002  6.0784e+002 64770 75089,75245,75115
 2.5000e+000 75343 -4.6806e+002 -1.8615e+002  5.0595e+002 64770 75167,75219,75193
 2.5000e+000 75320 -2.5666e+002 -4.9089e+002  4.9740e+002 64770 75115,75167,75141
 2.5000e+000 75297 -4.2239e+002 -1.1479e+003  6.5356e+002 64770 75089,75271,75245
 2.5000e+000 75861 -8.1706e+002 -3.6638e+002  5.7996e+002 64316 75538,75694,75564
 2.5000e+000 75838 -4.5258e+002 -1.8264e+002  3.8183e+002 64316 75538,75720,75694
 2.5000e+000 75815 -6.8652e+002 -4.6786e+002  4.4685e+002 64316 75590,75694,75642
 2.5000e+000 75792 -6.5770e+002 -6.1455e+002  5.0366e+002 64316 75564,75694,75590
 2.5000e+000 75769 -2.1617e+002 -7.6683e+002  2.3700e+002 64316 75590,75642,75616
 2.5000e+000 75746 -6.1745e+002 -2.6223e+002  4.1601e+002 64316 75642,75694,75668
 2.5000e+000 76239 -9.7294e+002 -7.8092e+002  4.2643e+002 64018 76262,76095,76043
 2.5000e+000 76216 -7.4753e+002 -7.6481e+002  3.4847e+002 64018 76262,76043,76017
 2.5000e+000 76193 -3.8753e+002 -4.0907e+002  3.1543e+002 64018 75991,76121,76017
 2.5000e+000 76170 -9.1863e+002 -6.2308e+002  6.1191e+002 64018 76043,76095,76069
 2.5000e+000 76147 -1.5327e+001 -4.0681e+002  7.1566e+001 64018 75965,76121,75991
 2.5000e+000 76288 -7.4149e+002 -8.8864e+002  5.3566e+002 64018 76121,76095,76262
 2.5000e+000 76311 -5.5941e+002 -8.9377e+002  4.2581e+002 64018 76121,76262,76017
 2.5000e+000 76866 -3.2760e+002 -3.8533e+002  3.8130e+002 63728 76520,76676,76546
 2.5000e+000 76843 -3.2865e+002 -3.9324e+002  3.0057e+002 63728 76520,76702,76676
 2.5000e+000 76820 -2.5335e+002 -3.7034e+002  3.4516e+002 63728 76546,76650,76572
 2.5000e+000 76797 -4.6237e+002 -4.6217e+002  3.2769e+002 63728 76546,76676,76650
 2.5000e+000 76774 -4.4319e+002 -5.9955e+001  1.8694e+002 63728 76572,76650,76624
 2.5000e+000 76751 -2.7312e+002 -3.6376e+002  3.1591e+002 63728 76494,76702,76520
 2.5000e+000 76728 -8.6426e+001 -2.0316e+002  1.3234e+002 63728 76572,76624,76598
 2.5000e+000 77065 -2.0178e+002 -3.4059e+002  3.2058e+002 63288 77088,76941,76915
 2.5000e+000 77042 -4.6931e+002 -4.2407e+002  3.0646e+002 63288 77088,76915,76993
 2.5000e+000 77019 -1.2123e+002 -4.6915e+002  2.3769e+002 63288 76889,76993,76915
 2.5000e+000 77114 -3.3786e+002 -3.6831e+002  2.6569e+002 63288 76967,76941,77088
 2.5000e+000 77137 -7.4674e+002 -4.8391e+002  1.3370e+002 63288 77160,77088,76993
 2.5000e+000 77186 -1.9642e+002 -2.3146e+002  2.0814e+002 63288 76967,77088,77160
 2.5000e+000 77417 -2.1297e+002 -3.2204e+002  1.7170e+002 62884 77440,77342,77316
 2.5000e+000 77394 -4.8650e+002 -4.7970e+002  7.5134e+001 62884 77770,77440,77316
 2.5000e+000 77466 -3.9139e+002 -5.0747e+002  6.5294e+001 62884 77512,77440,77368
 2.5000e+000 77489 -3.1367e+002 -4.3868e+002  4.3422e+001 62884 77642,77440,77290
 2.5000e+000 77538 -2.0018e+002 -3.7370e+002  6.3438e+000 62884 77342,77440,77512
 2.5000e+000 77668 -3.7620e+002 -5.6327e+002  2.2042e+001 62884 77368,77440,77642
 2.5000e+000 77796 -3.3342e+002 -4.0590e+002  5.3079e+001 62884 77290,77440,77770
 2.5000e+000 78479 -7.2931e+002 -7.3554e+002  4.0382e+002 62480 78084,78240,78214
 2.5000e+000 78456 -5.0983e+002 -6.4197e+002  7.9719e+001 62480 78084,78266,78240
 2.5000e+000 78433 -5.3833e+002 -6.1179e+002  1.9892e+002 62480 78110,78214,78136
 2.5000e+000 78410 -6.8817e+002 -6.8690e+002  3.8544e+002 62480 78084,78214,78110
 2.5000e+000 78387 -4.0365e+002 -5.0932e+002  2.4408e+002 62480 78136,78214,78188
 2.5000e+000 78364 -5.9740e+002 -7.1562e+002  4.8127e+001 62480 78058,78266,78084
 2.5000e+000 78341 -2.5317e+002 -4.0950e+002  1.5147e+002 62480 78136,78188,78162
 2.5000e+000 78318 -6.8196e+002 -8.0384e+002  1.3046e+002 62480 78058,78292,78266
 2.5000e+000 78678 -4.8163e+002 -8.2882e+002  3.2131e+002 61926 78528,78606,78554
 2.5000e+000 78655 -2.3272e+002 -8.7628e+002  4.2014e+002 61926 78502,78606,78528
 2.5000e+000 78632 -3.2867e+002 -5.2544e+002  2.1231e+002 61926 78554,78606,78580
 2.5000e+000 79058 -4.8100e+002 -4.8815e+002  2.6909e+002 61614 78836,78914,78862
 2.5000e+000 79035 -6.0324e+002 -5.8440e+002  2.2505e+002 61614 78810,78914,78836
 2.5000e+000 79012 -3.8998e+002 -4.9311e+002  2.4246e+002 61614 78784,78914,78810
 2.5000e+000 78989 -4.2070e+002 -5.3988e+002  4.1884e+002 61614 78862,78914,78888
 2.5000e+000 78966 -3.4773e+002 -6.2567e+002  2.7380e+002 61614 78784,78940,78914
 2.5000e+000 79208 -3.6488e+002 -8.5057e+002  1.3119e+001 61366 79081,79133,79107
 2.5000e+000 79185 -3.5262e+002 -5.8855e+002  2.2974e+002 61366 79081,79159,79133
 2.5000e+000 79358  2.5502e+001  1.3315e+001  4.0448e+001 60962 79231,79283,79257
 2.5000e+000 79335 -1.5512e+002 -3.6529e+002  9.6191e+001 60962 79231,79309,79283
 2.5000e+000 79608 -3.0009e+002 -6.7129e+002  2.3464e+002 60508 79631,79435,79409
 2.5000e+000 79585 -1.9798e+002 -6.8051e+002  1.5205e+002 60508 79703,79631,79409
 2.5000e+000 79562 -1.6720e+002 -3.3626e+002  2.1140e+002 60508 79703,79409,79383
 2.5000e+000 79539 -7.0235e+002 -5.2709e+002  4.3733e+002 60508 79435,79487,79461
 2.5000e+000 79657 -3.4725e+002 -8.2344e+002  4.1219e+002 60508 79487,79435,79631
 2.5000e+000 79680 -1.6862e+002 -6.2640e+002  2.0558e+002 60508 79487,79631,79513
 2.5000e+000 79729 -1.2045e+002 -3.6736e+002  7.3761e+001 60508 79513,79631,79703
 2.5000e+000 79752 -2.1424e+002 -3.2924e+002  2.8268e+001 60508 79513,79703,79383
 2.5000e+000 80390 -4.1914e+002 -4.7488e+002  3.9194e+002 59997 80413,80096,80018
 2.5000e+000 80367 -6.9736e+002 -5.7481e+002  4.4178e+002 59997 80413,80018,80226
 2.5000e+000 80344 -3.5761e+002 -4.0288e+002  2.3572e+002 59997 80096,80174,80148
 2.5000e+000 80321 -1.2535e+003 -8.7906e+002  6.1269e+002 59997 80018,80096,80070
 2.5000e+000 80298 -5.1634e+002 -4.5607e+002  2.2284e+002 59997 80096,80148,80122
 2.5000e+000 80275 -3.6558e+002 -4.5564e+002  3.1615e+002 59997 80174,80226,80200
 2.5000e+000 80252 -8.3760e+002 -5.7112e+002  1.6989e+002 59997 80018,80070,80044
 2.5000e+000 80439 -3.4836e+002 -5.3387e+002  2.8777e+002 59997 80174,80096,80413
 2.5000e+000 80462 -4.6602e+002 -4.9620e+002  3.1364e+002 59997 80174,80413,80226
 2.5000e+000 80840 -5.9296e+002 -5.2348e+002  2.5280e+002 59443 80863,80644,80618
 2.5000e+000 80817 -2.3001e+002 -3.9265e+002  2.9094e+002 59443 80863,80618,80566
 2.5000e+000 80794 -2.0565e+002 -3.4667e+002  3.5562e+002 59443 81007,80935,80670
 2.5000e+000 80771 -3.1003e+002 -3.5853e+002  3.1845e+002 59443 80566,80722,80696
 2.5000e+000 80748 -2.9087e+002 -5.2212e+002  3.3259e+002 59443 80566,80618,80592
 2.5000e+000 80889 -6.5519e+002 -4.8313e+002  4.1931e+002 59443 80935,80644,80863
 2.5000e+000 80912 -4.4122e+002 -4.2081e+002  3.4419e+002 59443 80696,80863,80566
 2.5000e+000 80961 -3.7237e+002 -4.0505e+002  4.1728e+002 59443 80696,80670,80935
 2.5000e+000 80984 -3.6114e+002 -3.4115e+002  3.7619e+002 59443 80696,80935,80863
 2.5000e+000 81033 -4.9295e+002 -6.6827e+002  5.0134e+002 59443 80644,80935,81007
 2.5000e+000 81360 -6.4315e+002 -2.9989e+002  2.6284e+002 59031 81383,81187,81161
 2.5000e+000 81337 -5.4361e+002 -3.4583e+002  6.5717e+001 59031 81455,81383,81161
 2.5000e+000 81314 -4.2358e+002 -2.4696e+002  1.0824e+002 59031 81455,81161,81135
 2.5000e+000 81291 -1.0617e+003 -2.5566e+002  4.6578e+002 59031 81187,81239,81213
 2.5000e+000 81409 -6.9289e+002 -6.0272e+002  3.7796e+002 59031 81239,81187,81383
 2.5000e+000 81432 -7.1423e+002 -4.3760e+002  9.6628e+001 59031 81239,81383,81265
 2.5000e+000 81481 -6.5258e+002 -1.5858e+002  1.0955e+002 59031 81265,81383,81455
 2.5000e+000 81504 -6.2217e+002 -1.3775e+002  1.1875e+002 59031 81265,81455,81135
 2.5000e+000 81835 -8.9422e+001 -2.6781e+002  1.0617e+002 58577 81610,81714,81636
 2.5000e+000 81812 -8.9698e+001 -3.3848e+002  1.2590e+002 58577 81610,81740,81714
 2.5000e+000 81789 -2.3339e+002 -3.1941e+002  2.5448e+001 58577 81636,81714,81688
 2.5000e+000 81766 -2.0959e+002 -2.8229e+002 -7.3507e+001 58577 81636,81688,81662
 2.5000e+000 81985 -1.2816e+002 -3.1240e+002  1.9134e+002 58030 81884,81936,81910
 2.5000e+000 81962 -2.6586e+002 -8.8142e+001  1.2929e+002 58030 81858,81936,81884
 2.5000e+000 82414 -1.1000e+002 -4.1633e+001  1.4314e+002 57690 82437,82169,82117
 2.5000e+000 82391 -1.3979e+002 -1.7826e+002  1.6327e+002 57690 82437,82117,82247
 2.5000e+000 82368  6.4381e+001  9.9689e+001  3.7431e+002 57690 82195,82247,82221
 2.5000e+000 82345 -1.1363e+002 -1.6698e+002  1.6663e+002 57690 82091,82247,82117
 2.5000e+000 82322 -1.8864e+002 -5.0306e+001  9.7187e+001 57690 82117,82169,82143
 2.5000e+000 82299 -1.2987e+002 -3.0991e+002  2.3038e+002 57690 82091,82273,82247
 2.5000e+000 82463 -1.5923e+002  1.4153e+001  2.0811e+002 57690 82195,82169,82437
 2.5000e+000 82486 -1.7143e+002 -8.4379e+001  2.0606e+002 57690 82195,82437,82247
 2.5000e+000 83041 -3.2119e+002 -3.3540e+002  2.2829e+002 57172 83064,82721,82695
 2.5000e+000 83018 -3.5505e+002 -3.5105e+002  3.3373e+002 57172 83064,82695,82851
 2.5000e+000 82995 -1.0137e+003 -4.8402e+002  4.5943e+002 57172 82669,82851,82695
 2.5000e+000 82972 -5.9046e+002 -3.8458e+002  3.1574e+002 57172 82773,82851,82825
 2.5000e+000 82949 -5.5445e+002 -4.2443e+002  4.4720e+002 57172 82773,82825,82799
 2.5000e+000 82926 -4.2373e+002 -2.6404e+002  1.8571e+002 57172 82721,82773,82747
 2.5000e+000 82903 -1.0643e+003 -4.2125e+002  5.9850e+002 57172 82669,82877,82851
 2.5000e+000 83090 -4.9353e+002 -3.9951e+002  2.1455e+002 57172 82773,82721,83064
 2.5000e+000 83113 -4.1259e+002 -3.6853e+002  3.1410e+002 57172 82773,83064,82851
 2.5000e+000 83747 -3.8651e+002 -3.3833e+002  2.3330e+002 56554 83770,83427,83401
 2.5000e+000 83724 -3.9720e+002 -4.3365e+002  2.7556e+002 56554 83842,83770,83401
 2.5000e+000 83701 -2.6786e+001 -3.4083e+002  9.5962e+001 56554 83842,83401,83583
 2.5000e+000 83678 -7.5565e+002 -6.3202e+002  5.6948e+002 56554 83914,83531,83505
 2.5000e+000 83655 -4.6589e+002 -3.3913e+002  1.5044e+002 56554 83531,83583,83557
 2.5000e+000 83632 -1.0608e+002 -1.2002e+002  8.1486e+001 56554 83375,83583,83401
 2.5000e+000 83609 -4.0385e+002 -3.5198e+002  2.5803e+002 56554 83427,83479,83453
 2.5000e+000 83796 -3.6803e+002 -3.2688e+002  2.3833e+002 56554 83479,83427,83770
 2.5000e+000 83819 -4.1934e+002 -3.0356e+002  2.6126e+002 56554 83479,83770,83505
 2.5000e+000 83868 -2.6633e+002 -2.0753e+002  3.3868e+002 56554 83505,83770,83842
 2.5000e+000 83891 -4.9309e+002 -3.8598e+002  4.1663e+002 56554 83914,83505,83842
 2.5000e+000 83940 -3.5044e+002 -6.2545e+002  3.1735e+002 56554 83583,83531,83914
 2.5000e+000 83963 -1.6660e+002 -5.9321e+002  2.3807e+002 56554 83583,83914,83842
 2.5000e+000 84341 -2.3376e+002 -8.4974e+002  2.5560e+002 56192 84067,84145,84119
 2.5000e+000 84318 -1.1895e+002 -7.2454e+002  1.9806e+002 56192 84067,84223,84145
 2.5000e+000 84295 -2.8094e+002 -7.5365e+002  3.0185e+001 56192 84145,84223,84197
 2.5000e+000 84272 -9.9228e+001 -1.0089e+003  3.5564e+002 56192 84067,84119,84093
 2.5000e+000 84249 -5.3272e+002 -2.1567e+002  1.5254e+002 56192 84145,84197,84171
 2.5000e+000 84611 -1.9430e+002 -4.9540e+002  3.3835e+002 55538 84386,84490,84412
 2.5000e+000 84588 -1.4586e+002 -4.1414e+002  3.1234e+002 55538 84386,84516,84490
 2.5000e+000 84565 -4.3791e+002 -6.0096e+002  3.2605e+002 55538 84412,84490,84464
 2.5000e+000 84542 -2.4315e+002 -5.8066e+002  1.9202e+002 55538 84412,84464,84438
 2.5000e+000 84942 -4.4946e+002 -3.8870e+002  3.3166e+002 55084 84769,84847,84795
 2.5000e+000 84919 -4.3952e+002 -4.3481e+002  2.8089e+002 55084 84717,84847,84769
 2.5000e+000 84896 -5.1018e+002 -5.7843e+002  2.5836e+002 55084 84717,84769,84743
 2.5000e+000 84873 -5.1878e+002 -1.9021e+002  2.8206e+002 55084 84795,84847,84821
 2.5000e+000 85271 -2.4853e+001 -1.2371e+002  1.8808e+002 54580 85294,85098,85072
 2.5000e+000 85248 -4.6477e+002 -2.8274e+002  2.8866e+002 54580 85294,85072,85176
 2.5000e+000 85225 -6.9025e+002 -1.2426e+001  9.0424e+001 54580 85124,85176,85150
 2.5000e+000 85202 -9.7282e+001 -2.4436e+002  7.1830e+001 54580 85046,85176,85072
 2.5000e+000 85320 -4.1668e+002 -1.4405e+002  2.4224e+002 54580 85124,85098,85294
 2.5000e+000 85343 -6.4917e+002 -1.3175e+002  3.0994e+002 54580 85124,85294,85176
 2.5000e+000 85542 -2.9256e+002 -4.7557e+002  1.9076e+002 53976 85565,85444,85418
 2.5000e+000 85519 -2.5043e+002 -4.1120e+002  2.0960e+002 53976 85565,85418,85366
 2.5000e+000 85496 -2.1259e+002 -3.6601e+002  1.7084e+002 53976 85366,85418,85392
 2.5000e+000 85591 -4.3803e+002 -4.7411e+002  8.5595e+001 53976 85470,85444,85565
 2.5000e+000 85614 -2.8899e+002 -2.0756e+002  1.4605e+002 53976 85470,85565,85366
 2.5000e+000 85960 -4.6354e+002 -5.5309e+002  2.8150e+002 53572 85663,85715,85689
 2.5000e+000 85937 -4.2922e+002 -5.3653e+002  2.3399e+002 53572 85983,85715,85663
 2.5000e+000 85914 -6.9659e+002 -6.9087e+002  3.0253e+002 53572 86055,85983,85663
 2.5000e+000 85891 -6.6072e+002 -6.9031e+002  4.2816e+002 53572 86055,85663,85637
 2.5000e+000 85868 -1.0261e+003 -1.3934e+003  5.2989e+002 53572 85637,85793,85767
 2.5000e+000 85845 -1.4869e+003 -4.6662e+002  2.9693e+002 53572 85637,85819,85793
 2.5000e+000 86009 -6.7323e+002 -4.3635e+002  2.1883e+002 53572 85741,85715,85983
 2.5000e+000 86032 -8.1898e+002 -4.6569e+002  2.7855e+002 53572 85741,85983,85767
 2.5000e+000 86081 -6.0631e+002 -3.9699e+002  2.6298e+002 53572 85767,85983,86055
 2.5000e+000 86104 -6.4383e+002 -5.3341e+002  3.8142e+002 53572 85767,86055,85637
 2.5000e+000 86693 -8.6900e+002 -1.4877e+002  4.3651e+002 52946 86474,86526,86500
 2.5000e+000 86670 -1.5749e+002 -4.9856e+001  1.1033e+002 52946 86396,86526,86474
 2.5000e+000 86647 -6.5303e+002 -4.8516e+002  2.9462e+002 52946 86370,86526,86396
 2.5000e+000 86624  8.4747e+000  1.9382e+000  5.7172e+000 52946 86422,86474,86448
 2.5000e+000 86601 -1.9372e+002 -4.1742e+001  8.2247e+001 52946 86396,86474,86422
 2.5000e+000 86578 -6.5227e+002 -1.5156e+002  1.9256e+002 52946 86370,86552,86526
 2.5000e+000 87376 -4.5293e+002 -4.1033e+002  2.0509e+002 52420 87007,87085,87033
 2.5000e+000 87353 -3.8054e+002 -3.7213e+002  1.9104e+002 52420 87007,87163,87085
 2.5000e+000 87330 -5.4040e+002 -3.6991e+002  2.2810e+002 52420 87007,87189,87163
 2.5000e+000 87307 -4.6417e+002 -3.8388e+002  2.3857e+002 52420 87033,87085,87059
 2.5000e+000 87284 -4.8530e+002 -4.1775e+002  6.1785e+001 52420 87085,87137,87111
 2.5000e+000 87261 -3.3815e+002 -4.0225e+002  7.1789e+001 52420 87085,87163,87137
 2.5000e+000 87238 -3.9205e+002 -4.9138e+002  4.6154e+002 52420 86955,87189,87007
 2.5000e+000 87215 -2.5286e+002 -2.8295e+002  2.7694e+002 52420 86955,87007,86981
 2.5000e+000 87624 -2.9278e+002 -5.1227e+002  1.6477e+002 51916 87451,87503,87477
 2.5000e+000 87601 -3.4005e+002 -6.6941e+002  1.4385e+002 51916 87425,87503,87451
 2.5000e+000 87578 -2.9348e+002 -6.5161e+002  1.4691e+002 51916 87425,87529,87503
 2.5000e+000 87555 -1.9498e+002 -4.6572e+002  1.8353e+002 51916 87399,87529,87425
 2.5000e+000 88053 -4.6205e+002 -3.8617e+002  1.5159e+002 51568 87782,87834,87808
 2.5000e+000 88030 -5.6858e+002 -3.8379e+002  2.6772e+002 51568 88076,87782,87886
 2.5000e+000 88007 -5.1240e+002 -2.5347e+002  2.3116e+002 51568 88076,87886,87860
 2.5000e+000 87984 -6.8392e+002 -5.3863e+002  2.1708e+002 51568 87756,87886,87782
 2.5000e+000 87961 -5.0394e+002 -4.2429e+002  4.3264e+002 51568 87756,87912,87886
 2.5000e+000 87938 -5.8964e+002 -2.7744e+002  4.0273e+002 51568 87730,87912,87756
 2.5000e+000 88102 -4.9182e+002 -4.4742e+002  1.8109e+002 51568 87834,87782,88076
 2.5000e+000 88125 -4.4304e+002 -3.6090e+002  1.4863e+002 51568 87834,88076,87860
 2.5000e+000 88324 -3.9958e+002 -4.1269e+002  1.4321e+002 51164 88419,88347,88200
 2.5000e+000 88301 -2.8103e+002 -4.1521e+002  2.1483e+002 51164 88347,88148,88252
 2.5000e+000 88278 -5.1860e+002 -6.9911e+002  1.2149e+002 51164 88419,88200,88174
 2.5000e+000 88373 -2.7396e+002 -3.2520e+002  1.8493e+002 51164 88226,88200,88347
 2.5000e+000 88396 -2.0697e+001 -4.0549e+002  1.8196e+002 51164 88226,88347,88252
 2.5000e+000 88445 -4.3215e+002 -4.4242e+002  3.0379e+002 51164 88148,88347,88419
 2.5000e+000 88468 -4.2094e+002 -4.1680e+002  3.0515e+002 51164 88148,88419,88174
 2.5000e+000 88738 -3.7047e+002 -5.0968e+002  1.3853e+002 50560 88513,88617,88539
 2.5000e+000 88715 -2.5242e+002 -5.9221e+002  9.4041e+001 50560 88513,88643,88617
 2.5000e+000 88692 -1.5868e+002 -5.2325e+001  1.6015e+002 50560 88539,88591,88565
 2.5000e+000 88669 -1.3538e+002 -3.3313e+002  2.1628e+002 50560 88539,88617,88591
 2.5000e+000 88939 -4.8156e+002 -2.0547e+002  2.4679e+002 50106 88962,88789,88763
 2.5000e+000 88916 -3.4963e+002 -2.4648e+002  1.9584e+002 50106 88962,88763,88841
 2.5000e+000 88893 -4.8945e+002 -3.4040e+002  3.0867e+002 50106 88763,88867,88841
 2.5000e+000 88988 -3.5764e+002 -2.6451e+002  1.6024e+002 50106 88815,88789,88962
 2.5000e+000 89011 -2.8777e+002 -2.0088e+002  2.1579e+002 50106 89034,88962,88841
 2.5000e+000 89060 -1.9964e+002 -7.5063e+001  6.0861e+001 50106 88815,88962,89034
 2.5000e+000 89472 -2.5852e+002 -6.0057e+002  6.6168e+001 49666 89273,89351,89325
 2.5000e+000 89449 -3.4000e+002 -3.1401e+002  1.7326e+002 49666 89273,89377,89351
 2.5000e+000 89426 -3.0697e+002 -4.7079e+002  3.3429e+002 49666 89273,89325,89299
 2.5000e+000 89403 -3.6254e+002 -2.8395e+002  1.9993e+002 49666 89247,89377,89273
 2.5000e+000 89978 -4.2399e+002 -7.1872e+002 -2.0321e+001 49205 89681,89837,89733
 2.5000e+000 89955 -7.3117e+001 -3.5148e+002  1.7211e+002 49205 89655,89837,89681
 2.5000e+000 89932 -6.1477e+002 -7.0071e+002  2.9485e+002 49205 89785,89837,89811
 2.5000e+000 89909 -2.0349e+002 -5.1141e+002  1.3228e+002 49205 89733,89837,89785
 2.5000e+000 89886 -5.5321e+002 -6.2200e+002  2.5550e+002 49205 89733,89785,89759
 2.5000e+000 89863 -1.5743e+002 -3.1915e+002 -1.9832e+002 49205 89681,89733,89707
 2.5000e+000 90177 -3.3380e+002 -4.4925e+002  1.9624e+002 48865 90530,90200,90053
 2.5000e+000 90154 -2.3636e+002 -4.1502e+002  1.9330e+002 48865 90402,90200,90001
 2.5000e+000 90131 -3.8106e+002 -3.9494e+002  2.0118e+002 48865 90530,90053,90027
 2.5000e+000 90226 -3.9224e+002 -4.4824e+002  3.3167e+002 48865 90079,90053,90200
 2.5000e+000 90249 -2.6921e+002 -3.5258e+002  2.4418e+002 48865 90272,90200,90105
 2.5000e+000 90298 -2.3521e+002 -3.2617e+002  2.5597e+002 48865 90079,90200,90272
 2.5000e+000 90428 -1.9163e+002 -1.2054e+002  1.5967e+002 48865 90105,90200,90402
 2.5000e+000 90556 -3.7803e+002 -4.7990e+002  1.7775e+002 48865 90001,90200,90530
 2.5000e+000 90579 -4.5897e+002 -4.4250e+002  1.8062e+002 48865 90001,90530,90027
 2.5000e+000 90827 -3.7988e+002 -4.0017e+002  2.1522e+002 48404 90850,90654,90628
 2.5000e+000 90804 -4.0704e+002 -4.6820e+002  3.2931e+002 48404 90850,90628,90732
 2.5000e+000 90781 -2.7561e+002 -2.9598e+002  1.7491e+002 48404 90680,90732,90706
 2.5000e+000 90758 -5.6479e+002 -2.6815e+002  3.4169e+002 48404 90602,90732,90628
 2.5000e+000 90876 -3.8709e+002 -2.2650e+002  1.8278e+002 48404 90680,90654,90850
 2.5000e+000 90899 -4.0983e+002 -3.6401e+002  2.7052e+002 48404 90680,90850,90732
 2.5000e+000 91000 -2.4950e+002 -5.9348e+002  1.8150e+002 48156 90922,90974,90948
 2.5000e+000 91250 -1.7622e+002 -4.1369e+002  8.9991e+001 47752 91051,91103,91077
 2.5000e+000 91227 -2.9309e+002 -4.4957e+002  1.1317e+002 47752 91025,91103,91051
 2.5000e+000 91204 -5.0339e+002 -6.0085e+002  2.3279e+002 47752 91025,91155,91103
 2.5000e+000 91181 -4.5884e+002 -5.5101e+002  2.7579e+002 47752 91103,91155,91129
 2.5000e+000 91402 -2.9990e+002 -3.4880e+002  2.7309e+002 47191 91425,91301,91275
 2.5000e+000 91379 -2.6533e+002 -3.3625e+002  2.9141e+002 47191 91497,91425,91275
 2.5000e+000 91451 -3.3331e+002 -1.6427e+002  1.5243e+002 47191 91327,91301,91425
 2.5000e+000 91474 -4.3706e+002 -3.8928e+002  3.0372e+002 47191 91327,91425,91353
 2.5000e+000 91523 -3.8471e+002 -7.4032e+002  3.0951e+002 47191 91353,91425,91497
 2.5000e+000 91854 -2.9683e+002 -2.4868e+002  8.8319e+001 46744 91949,91877,91707
 2.5000e+000 91831 -2.8091e+002 -4.2925e+002  9.0506e+001 46744 91877,91655,91629
 2.5000e+000 91808 -2.8599e+002 -2.4209e+002  8.5581e+001 46744 91949,91707,91681
 2.5000e+000 91785 -6.7064e+002 -4.6707e+002 -1.0933e+002 46744 91629,91759,91733
 2.5000e+000 91903 -4.3685e+002 -4.0035e+002  1.4715e+002 46744 91733,91707,91877
 2.5000e+000 91926 -2.6647e+002 -4.9776e+002  7.8562e+001 46744 91733,91877,91629
 2.5000e+000 91975 -2.4521e+002 -3.9449e+002  1.6798e+002 46744 91655,91877,91949
 2.5000e+000 91998 -1.1346e+002 -3.0909e+002  1.3111e+002 46744 91655,91949,91681
 2.5000e+000 92378 -3.1370e+002 -8.7533e+001  1.8775e+002 46090 92130,92208,92182
 2.5000e+000 92355 -4.1975e+002 -1.3364e+002  1.7494e+002 46090 92104,92208,92130
 2.5000e+000 92332 -1.9583e+002 -3.0448e+002  1.5961e+002 46090 92104,92260,92208
 2.5000e+000 92309 -1.5527e+002 -3.9608e+001  1.2411e+002 46090 92208,92260,92234
 2.5000e+000 92286 -5.1407e+002 -1.4687e+002  2.2394e+002 46090 92130,92182,92156
 2.5000e+000 92626 -2.8289e+002 -3.6835e+002  1.5467e+002 45693 92721,92649,92505
 2.5000e+000 92603 -3.1084e+002 -3.7100e+002  3.2269e+002 45693 92649,92453,92427
 2.5000e+000 92580 -3.1523e+002 -2.8157e+002  1.4930e+002 45693 92721,92505,92479
 2.5000e+000 92557 -5.2434e+002 -5.3000e+002  3.9880e+002 45693 92401,92531,92427
 2.5000e+000 92675 -4.7556e+002 -3.7222e+002  1.9381e+002 45693 92531,92505,92649
 2.5000e+000 92698 -5.1560e+002 -4.5771e+002  4.1856e+002 45693 92531,92649,92427
 2.5000e+000 92747 -2.9521e+002 -2.6993e+002  1.5492e+002 45693 92453,92649,92721
 2.5000e+000 92770 -2.1146e+002 -1.8047e+001  1.8898e+002 45693 92453,92721,92479
 2.5000e+000 93172 -2.1670e+002 -3.7144e+002  3.2725e+002 45331 92898,93028,92924
 2.5000e+000 93149 -1.2852e+002 -3.1769e+002  2.2019e+002 45331 92898,93054,93028
 2.5000e+000 93126 -3.0464e+002 -2.4239e+002  3.6783e+002 45331 92924,93002,92976
 2.5000e+000 93103 -1.2608e+002 -3.3155e+002  3.1959e+002 45331 92924,93028,93002
 2.5000e+000 93080 -3.2830e+002 -3.8795e+002  3.7971e+002 45331 92924,92976,92950
 2.5000e+000 93518 -6.5542e+002 -6.7296e+002  3.8076e+002 44820 93613,93273,93247
 2.5000e+000 93495 -4.8374e+002 -4.8612e+002  2.2960e+002 44820 93685,93541,93247
 2.5000e+000 93472 -5.1742e+002 -3.0482e+002  1.9493e+002 44820 93541,93195,93377
 2.5000e+000 93449 -5.2203e+002 -4.3128e+002  1.8708e+002 44820 93685,93247,93221
 2.5000e+000 93426 -4.5091e+002 -5.7595e+002  3.1110e+002 44820 93299,93377,93351
 2.5000e+000 93403 -3.5887e+002 -3.9847e+002  3.6841e+002 44820 93299,93351,93325
 2.5000e+000 93567 -4.2726e+002 -6.4586e+002  1.6995e+002 44820 93613,93247,93541
 2.5000e+000 93590 -4.4370e+002 -5.0391e+002  1.0982e+002 44820 93299,93541,93377
 2.5000e+000 93639 -4.1346e+002 -7.9993e+002  2.3194e+002 44820 93299,93273,93613
 2.5000e+000 93662 -4.5477e+002 -7.9091e+002  1.9108e+002 44820 93299,93613,93541
 2.5000e+000 93711 -4.9741e+002 -3.6314e+002  1.5031e+002 44820 93195,93541,93685
 2.5000e+000 93734 -4.3841e+002 -1.4680e+002  1.1556e+002 44820 93195,93685,93221
 2.5000e+000 94163 -4.5115e+002 -4.6142e+002  1.9815e+002 44237 94258,94186,93996
 2.5000e+000 94140 -4.9950e+002 -5.2963e+002  1.2483e+002 44237 94330,94022,93996
 2.5000e+000 94117 -5.1328e+002 -4.7379e+002  1.5521e+002 44237 94186,93918,93866
 2.5000e+000 94094 -4.0505e+002 -3.6172e+002  2.0974e+002 44237 94258,93996,93970
 2.5000e+000 94071 -4.8024e+002 -2.6806e+002  2.0307e+002 44237 94402,93944,93918
 2.5000e+000 94048 -2.4917e+002 -3.8364e+002  1.4727e+002 44237 93866,93918,93892
 2.5000e+000 94212 -4.9940e+002 -5.3704e+002  1.5926e+002 44237 94330,93996,94186
 2.5000e+000 94235 -4.8344e+002 -4.3736e+002  1.7491e+002 44237 93840,94186,93866
 2.5000e+000 94284 -4.6187e+002 -3.6111e+002  1.4167e+002 44237 93918,94186,94258
 2.5000e+000 94307 -4.4632e+002 -2.8672e+002  1.5953e+002 44237 94402,93918,94258
 2.5000e+000 94356 -5.3471e+002 -2.2634e+002  2.9476e+001 44237 93840,94022,94330
 2.5000e+000 94379 -4.7337e+002 -4.7037e+002  1.7146e+002 44237 93840,94330,94186
 2.5000e+000 94428 -5.3811e+002 -3.5308e+002  2.2937e+002 44237 93970,93944,94402
 2.5000e+000 94451 -4.9303e+002 -3.6637e+002  1.7870e+002 44237 93970,94402,94258
 2.5000e+000 94908 -4.4748e+002 -6.2762e+002  9.2621e+001 43890 94660,94790,94712
 2.5000e+000 94885 -2.3853e+002 -2.1020e+002  2.2054e+002 43890 94634,94790,94660
 2.5000e+000 94862 -4.6476e+002 -3.8229e+002  1.3662e+002 43890 94712,94764,94738
 2.5000e+000 94839 -3.2402e+002 -3.7595e+002  1.8161e+002 43890 94712,94790,94764
 2.5000e+000 94816 -5.4887e+002 -4.1907e+002 -1.5678e+002 43890 94660,94712,94686
 2.5000e+000 95414 -2.8401e+002 -1.4414e+002  1.3719e+002 43186 95437,95143,95117
 2.5000e+000 95391 -3.4220e+002 -4.0594e+002  1.6324e+002 43186 95437,95117,95091
 2.5000e+000 95368 -9.3794e+001 -1.5947e+002  1.7891e+002 43186 95143,95221,95195
 2.5000e+000 95345 -5.4405e+002 -3.8044e+002  4.4595e+002 43186 95091,95273,95221
 2.5000e+000 95322 -3.2784e+002 -2.0554e+002  2.2444e+002 43186 95221,95273,95247
 2.5000e+000 95299 -1.5870e+002 -2.2958e+001  4.4899e+001 43186 95143,95195,95169
 2.5000e+000 95463 -2.5892e+002 -3.2162e+002  2.6508e+002 43186 95221,95143,95437
 2.5000e+000 95486 -2.8766e+002 -5.2756e+002  3.0059e+002 43186 95221,95437,95091
 2.5000e+000 96041 -5.5450e+002 -4.9969e+002  1.6068e+002 42782 95695,95851,95799
 2.5000e+000 96018 -5.1001e+002 -6.3410e+002  1.5728e+002 42782 95669,95851,95695
 2.5000e+000 95995 -4.9151e+002 -2.7793e+002  1.6872e+002 42782 95695,95747,95721
 2.5000e+000 95972 -3.8198e+002 -4.2454e+002  1.4955e+002 42782 95695,95799,95747
 2.5000e+000 95949 -3.3901e+002 -2.2888e+002  9.5185e+001 42782 95747,95799,95773
 2.5000e+000 95926 -6.5764e+002 -6.3205e+002  2.2103e+002 42782 95799,95851,95825
 2.5000e+000 95903 -7.3717e+002 -7.5870e+002  2.1426e+002 42782 95669,95877,95851
 2.5000e+000 96370 -5.0969e+002 -6.7926e+002  3.1309e+002 42420 96197,96275,96223
 2.5000e+000 96347 -4.7714e+002 -6.0457e+002  3.2072e+002 42420 96145,96275,96197
 2.5000e+000 96324 -4.7025e+002 -4.2637e+002  3.1860e+002 42420 96145,96197,96171
 2.5000e+000 96301 -3.5238e+002 -5.2047e+002  1.8112e+002 42420 96223,96275,96249
 2.5000e+000 96699 -2.5790e+002 -5.7036e+002 -2.3843e+001 41816 96474,96578,96526
 2.5000e+000 96676 -3.2560e+002 -4.9799e+002 -1.3615e+002 41816 96474,96604,96578
 2.5000e+000 96653 -2.2167e+002 -3.8771e+002  4.1481e+001 41816 96526,96578,96552
 2.5000e+000 96630 -2.5096e+002 -5.1665e+002 -2.9645e+000 41816 96474,96526,96500
 2.5000e+000 96947 -2.3170e+002 -5.4087e+002  3.7878e+001 41212 96722,96800,96748
 2.5000e+000 96924 -2.8703e+002 -5.4714e+002  6.2207e+001 41212 96722,96826,96800
 2.5000e+000 96901 -4.8319e+002 -6.5287e+002  1.0417e+002 41212 96722,96852,96826
 2.5000e+000 96878 -8.8594e+001 -4.7335e+002  6.3031e+001 41212 96748,96800,96774
 2.5000e+000 97097 -2.4684e+002 -4.5076e+001  2.4948e+002 40793 97120,97022,96996
 2.5000e+000 97074 -4.8354e+002 -5.2976e+002  1.5284e+002 40793 97192,97120,96996
 2.5000e+000 97146 -1.7946e+002 -4.3675e+002  2.2112e+002 40793 97324,97120,97048
 2.5000e+000 97169 -1.5946e+002 -7.3158e+002  2.1022e+002 40793 97048,97120,96970
 2.5000e+000 97218 -7.5959e+001 -3.5640e+002  1.5877e+002 40793 96970,97120,97192
 2.5000e+000 97350 -1.7946e+002 -4.3675e+002  2.2112e+002 40793 97022,97120,97324
 2.5000e+000 97878 -2.8579e+002 -5.5850e+002  1.2705e+002 40446 97901,97607,97555
 2.5000e+000 97855 -2.6722e+002 -3.7817e+002  1.2522e+002 40446 97973,97901,97555
 2.5000e+000 97832 -1.5313e+002 -3.0809e+002  9.5221e+001 40446 97973,97555,97737
 2.5000e+000 97809 -4.6042e+002 -6.3370e+002  2.1852e+002 40446 97633,97685,97659
 2.5000e+000 97786 -3.1631e+002 -4.6531e+002  1.3429e+002 40446 97633,97711,97685
 2.5000e+000 97763 -2.7643e+002 -6.3400e+002  1.5331e+002 40446 97555,97607,97581
 2.5000e+000 97927 -3.0053e+002 -6.9281e+002 -2.7074e+001 40446 97633,97607,97901
 2.5000e+000 97950 -2.6115e+002 -5.4534e+002  1.1301e+002 40446 97633,97901,97711
 2.5000e+000 97999 -1.0694e+002 -5.1094e+002  1.8030e+002 40446 97711,97901,97973
 2.5000e+000 98022 -1.8050e+001 -4.3950e+002  1.4883e+002 40446 97711,97973,97737
 2.5000e+000 98449 -1.8892e+002 -1.1857e+002  1.3097e+002 39935 98152,98204,98178
 2.5000e+000 98426 -2.7549e+002 -1.8445e+002  9.2747e+001 39935 98152,98230,98204
 2.5000e+000 98403 -4.1332e+002 -2.4450e+002  2.1658e+002 39935 98152,98256,98230
 2.5000e+000 98380 -3.2130e+002 -2.6766e+002  2.1924e+002 39935 98126,98256,98152
 2.5000e+000 98357 -4.3261e+002 -5.7173e+002  2.2300e+002 39935 98126,98282,98256
 2.5000e+000 98334 -2.3962e+002 -7.5167e+002  2.7461e+002 39935 98126,98308,98282
 2.5000e+000 98746 -6.8704e+002 -5.4980e+002  2.3360e+002 39531 98498,98602,98524
 2.5000e+000 98723 -4.5789e+002 -5.2117e+002  2.0612e+002 39531 98472,98602,98498
 2.5000e+000 98700 -7.4276e+002 -3.2625e+002  1.3974e+002 39531 98524,98602,98576
 2.5000e+000 98677 -3.7249e+002 -4.8504e+002  1.9136e+002 39531 98472,98628,98602
 2.5000e+000 98654 -7.9536e+002 -7.7438e+002 -1.8273e+002 39531 98524,98576,98550
 2.5000e+000 99224 -7.1492e+002 -3.9932e+002  4.4212e+002 39027 99247,98956,98930
 2.5000e+000 99201 -6.2479e+002 -3.3214e+002  2.1314e+002 39027 99247,98930,98878
 2.5000e+000 99178 -5.3710e+002 -4.0800e+002  2.6065e+002 39027 99319,98982,98956
 2.5000e+000 99155 -5.5985e+002 -3.0379e+002  1.5987e+002 39027 98852,99060,98878
 2.5000e+000 99132 -7.6811e+002 -3.3732e+002  2.0820e+002 39027 98878,98930,98904
 2.5000e+000 99109 -4.4824e+002 -7.6819e+002  3.6838e+002 39027 98982,99060,99034
 2.5000e+000 99086 -5.3447e+002 -8.5313e+002  4.9406e+002 39027 98982,99034,99008
 2.5000e+000 99273 -4.8263e+002 -3.0922e+002  2.9124e+002 39027 99319,98956,99247
 2.5000e+000 99296 -5.2406e+002 -2.9762e+002  1.6807e+002 39027 99060,99247,98878
 2.5000e+000 99345 -5.3766e+002 -4.5539e+002  2.1022e+002 39027 99060,98982,99319
 2.5000e+000 99368 -5.4357e+002 -4.3205e+002  2.3053e+002 39027 99060,99319,99247
 2.5000e+000 99923 -4.7698e+002 -4.3435e+002  2.3801e+002 38523 99946,99655,99603
 2.5000e+000 99900 -4.1262e+002 -4.0186e+002  2.5322e+002 38523 99946,99603,99759
 2.5000e+000 99877 -2.6297e+002 -5.5521e+002  2.8251e+002 38523 100018,99707,99681
 2.5000e+000 99854 -4.4582e+002 -2.7742e+002  2.3949e+002 38523 99551,99759,99603
 2.5000e+000 99831 -4.7721e+002 -3.1279e+002  2.6222e+002 38523 99551,99603,99577
 2.5000e+000 99808 -4.5513e+002 -6.5066e+002  1.7065e+002 38523 99707,99759,99733
 2.5000e+000 99785 -3.4578e+002 -3.6186e+002  2.0016e+002 38523 99603,99655,99629
 2.5000e+000 99972 -3.8481e+002 -2.2285e+002  2.5030e+002 38523 99681,99655,99946
 2.5000e+000 99995 -3.0778e+002 -3.2455e+002  3.2730e+002 38523 100018,99681,99946
 2.5000e+000 100044 -3.4403e+002 -6.4816e+002  1.7663e+002 38523 99759,99707,100018
 2.5000e+000 100067 -4.6896e+002 -5.5924e+002  2.2487e+002 38523 99759,100018,99946
 2.5000e+000 100467 -9.9434e+001 -2.0101e+002  6.2377e+001 38125 100219,100349,100323
 2.5000e+000 100444 -8.0730e+001 -1.8977e+002  7.3385e+001 38125 100193,100349,100219
 2.5000e+000 100421 -7.7366e+001 -1.9353e+002  6.4906e+001 38125 100245,100323,100297
 2.5000e+000 100398 -8.2406e+001 -1.9363e+002  6.3165e+001 38125 100219,100323,100245
 2.5000e+000 100375 -1.7866e+002 -2.4744e+002  3.7528e+001 38125 100245,100297,100271
 2.5000e+000 100666 -4.7689e+002 -7.7364e+002  2.1319e+002 37607 100689,100568,100542
 2.5000e+000 100643 -3.4572e+002 -3.7466e+002  1.8371e+002 37607 100689,100542,100490
 2.5000e+000 100620 -1.8824e+002 -2.8286e+002  1.0507e+002 37607 100490,100542,100516
 2.5000e+000 100715 -3.4528e+002 -3.8829e+002  1.4159e+002 37607 100594,100568,100689
 2.5000e+000 100738 -4.2603e+002 -2.8022e+002  1.4871e+002 37607 100594,100689,100490
 2.5000e+000 100937 -2.6857e+002 -2.8058e+002  2.4366e+002 37017 100960,100813,100787
 2.5000e+000 100914 -1.7932e+002 -2.8481e+002  1.2733e+002 37017 100960,100787,100761
 2.5000e+000 100891 -5.1187e+002 -2.0364e+002  2.7309e+002 37017 100813,100865,100839
 2.5000e+000 100986 -3.9619e+002 -4.1026e+002  3.4150e+002 37017 100865,100813,100960
 2.5000e+000 101009 -2.2097e+002 -3.4851e+002  2.1616e+002 37017 100865,100960,100761
 2.5000e+000 101519 -3.5268e+002 -1.9195e+002  7.3344e+001 36613 101222,101274,101248
 2.5000e+000 101496 -1.8218e+002 -1.7202e+002  9.6213e+001 36613 101222,101352,101274
 2.5000e+000 101473 -1.2165e+002 -3.2345e+002 -1.2863e+001 36613 101274,101352,101326
 2.5000e+000 101450 -2.8060e+002 -2.2915e+002  7.1040e+001 36613 101222,101378,101352
 2.5000e+000 101427 -1.5357e+002 -5.2363e+002 -1.0449e+001 36613 101274,101326,101300
 2.5000e+000 101404 -2.7522e+002 -2.5110e+002  1.2673e+002 36613 101196,101378,101222
 2.5000e+000 101718 -3.9734e+002 -3.8600e+002  4.1608e+002 36308 101594,101646,101620
 2.5000e+000 101695 -4.1638e+002 -2.4410e+002  2.7042e+002 36308 101568,101646,101594
 2.5000e+000 101672 -2.9641e+002 -2.8983e+002  2.8758e+002 36308 101542,101646,101568
 2.5000e+000 102098 -3.7933e+002 -3.0656e+002  1.7664e+002 35918 102121,101954,101876
 2.5000e+000 102075 -3.5088e+002 -4.1964e+002  1.2173e+002 35918 102121,101876,101824
 2.5000e+000 102052 -3.4622e+002 -2.9220e+002  1.3431e+002 35918 101876,101954,101928
 2.5000e+000 102029 -4.9087e+002 -1.4164e+002  1.6096e+002 35918 101876,101928,101902
 2.5000e+000 102006 -3.6578e+002 -5.2008e+002  2.2237e+002 35918 101824,101876,101850
 2.5000e+000 102147 -3.1415e+002 -4.1271e+002  2.3068e+002 35918 101980,101954,102121
 2.5000e+000 102170 -3.1207e+002 -5.5543e+002  1.5891e+002 35918 101980,102121,101824
 2.5000e+000 102489 -4.3221e+002 -1.0126e+003  3.1145e+002 35514 102241,102345,102267
 2.5000e+000 102466 -5.9178e+002 -1.0825e+003  3.3074e+002 35514 102215,102345,102241
 2.5000e+000 102443 -4.8054e+002 -1.1663e+003  3.4495e+002 35514 102215,102371,102345
 2.5000e+000 102420 -3.4560e+002 -8.2535e+002  3.6495e+002 35514 102267,102345,102293
 2.5000e+000 102397 -1.9881e+002 -5.2972e+002  4.2052e+002 35514 102293,102345,102319
 2.5000e+000 102820 -6.7736e+002 -4.3552e+002  8.6186e+001 35224 102843,102699,102647
 2.5000e+000 102797 -5.4139e+002 -4.5514e+002  1.7252e+002 35224 102971,102725,102699
 2.5000e+000 102774 -8.2648e+002 -5.0103e+002  4.2449e+002 35224 102595,102725,102621
 2.5000e+000 102751 -2.0460e+002 -2.6449e+002  2.0496e+002 35224 102647,102699,102673
 2.5000e+000 102869 -5.5030e+002 -3.8030e+002  1.4617e+002 35224 102971,102699,102843
 2.5000e+000 102997 -5.2137e+002 -5.1236e+002  1.5881e+002 35224 102621,102725,102971
 2.5000e+000 103020 -5.5556e+002 -4.7029e+002  1.2289e+002 35224 102621,102971,102843
 2.5000e+000 103349 -5.6298e+002 -4.0058e+002  2.5518e+002 34820 103150,103228,103176
 2.5000e+000 103326 -4.7170e+002 -4.7808e+002  2.3851e+002 34820 103124,103228,103150
 2.5000e+000 103303 -4.5470e+002 -4.6775e+002  4.4800e+002 34820 103176,103228,103202
 2.5000e+000 103280 -3.2749e+002 -4.1256e+002  3.0630e+002 34820 103124,103254,103228
 2.5000e+000 103806 -3.4381e+002 -3.4436e+002  9.2318e+001 34530 103558,103662,103636
 2.5000e+000 103783 -3.9270e+002 -3.1758e+002  1.5421e+002 34530 103558,103688,103662
 2.5000e+000 103760 -4.5670e+002 -4.4449e+002  1.3261e+002 34530 103532,103688,103558
 2.5000e+000 103737 -1.7556e+002 -3.7265e+002  8.5336e+001 34530 103584,103636,103610
 2.5000e+000 103714 -6.5061e+002 -4.0016e+002  1.0744e+002 34530 103558,103636,103584
 2.5000e+000 104263 -2.6361e+002 -3.2647e+002  2.1750e+002 34019 103989,104119,104015
 2.5000e+000 104240 -2.0563e+002 -2.9693e+002  2.3864e+002 34019 103989,104145,104119
 2.5000e+000 104217 -2.7184e+002 -3.7078e+002  1.3342e+002 34019 104015,104067,104041
 2.5000e+000 104194 -3.0681e+002 -3.9937e+002  1.9460e+002 34019 104015,104119,104067
 2.5000e+000 104171 -2.8789e+002 -2.6519e+002  1.7991e+002 34019 104067,104119,104093
 2.5000e+000 104641 -3.0639e+002 -2.5979e+002  1.4592e+002 33351 104419,104497,104445
 2.5000e+000 104618 -2.0203e+002 -1.6105e+002  1.9910e+002 33351 104393,104497,104419
 2.5000e+000 104595 -3.7163e+002 -2.5288e+002  6.5071e+001 33351 104367,104497,104393
 2.5000e+000 104572 -3.6178e+002 -4.0176e+002  2.1252e+002 33351 104445,104497,104471
 2.5000e+000 104549 -3.5537e+002 -4.3716e+002  1.6292e+001 33351 104367,104523,104497
 2.5000e+000 105019 -3.5761e+002 -7.8178e+002  4.1390e+002 32861 104823,104901,104875
 2.5000e+000 104996 -5.1736e+002 -9.4961e+002  3.4299e+002 32861 104745,104901,104823
 2.5000e+000 104973 -5.0732e+002 -8.4674e+002  3.6061e+002 32861 104823,104875,104849
 2.5000e+000 104950 -5.1988e+002 -9.3344e+002  4.7443e+002 32861 104745,104823,104797
 2.5000e+000 104927 -6.3561e+002 -3.6789e+002  4.8469e+002 32861 104745,104797,104771
 2.5000e+000 105397 -2.1399e+002 -5.3653e+002  2.1445e+002 32457 105149,105253,105175
 2.5000e+000 105374 -3.2378e+002 -4.6470e+002  1.7926e+002 32457 105149,105279,105253
 2.5000e+000 105351 -2.5634e+002 -3.8116e+002  2.2219e+002 32457 105123,105279,105149
 2.5000e+000 105328 -2.7885e+002 -1.2355e+002  2.6094e+002 32457 105175,105227,105201
 2.5000e+000 105305 -4.1705e+002 -6.2354e+002  2.1363e+002 32457 105175,105253,105227
 2.5000e+000 105726 -1.7477e+002 -5.4922e+002  2.2981e+002 32003 105527,105605,105553
 2.5000e+000 105703 -2.7594e+002 -4.7955e+002  2.2072e+002 32003 105501,105605,105527
 2.5000e+000 105680 -1.4974e+002 -4.3795e+002  2.3103e+002 32003 105501,105631,105605
 2.5000e+000 105657 -7.8755e+001 -3.4071e+002  2.0264e+002 32003 105553,105605,105579
 2.5000e+000 106104 -3.0373e+002 -5.5155e+002  1.0166e+002 31492 106127,105908,105856
 2.5000e+000 106081 -2.1083e+002 -5.1235e+002  1.0637e+002 31492 106127,105856,105830
 2.5000e+000 106058 -2.9858e+002 -6.7221e+002  1.3325e+002 31492 105856,105908,105882
 2.5000e+000 106035 -1.0151e+002 -3.0929e+002  6.7265e+001 31492 105830,105986,105960
 2.5000e+000 106012 -1.2440e+002 -5.4765e+002  2.5636e+002 31492 105908,105960,105934
 2.5000e+000 106153 -3.3403e+002 -5.1975e+002  1.5864e+002 31492 105960,105908,106127
 2.5000e+000 106176 -2.7982e+002 -4.9534e+002  1.6387e+002 31492 105960,106127,105830
 2.5000e+000 106375 -3.8862e+002 -4.2517e+002  2.7296e+002 30788 106398,106277,106251
 2.5000e+000 106352 -4.2254e+002 -5.8211e+002  2.7610e+002 30788 106398,106251,106225
 2.5000e+000 106329 -6.2165e+002 -4.5571e+002  4.0654e+002 30788 106600,106199,106303
 2.5000e+000 106424 -5.1316e+002 -6.4677e+002  1.9758e+002 30788 106470,106398,106303
 2.5000e+000 106447 -3.9484e+002 -5.3749e+002  2.5663e+002 30788 106600,106303,106398
 2.5000e+000 106496 -1.3898e+002 -4.8790e+002  2.1833e+002 30788 106277,106398,106470
 2.5000e+000 106626 -7.5736e+002 -6.3216e+002  5.2147e+002 30788 106225,106199,106600
 2.5000e+000 106649 -6.0219e+002 -7.2463e+002  3.6774e+002 30788 106225,106600,106398
 2.5000e+000 106799 -1.5003e+002 -7.0216e+002 -1.1038e+001 30426 106698,106750,106724
 2.5000e+000 106776 -2.1022e+002 -4.9049e+002 -2.2627e+001 30426 106672,106750,106698
 2.5000e+000 107356 -3.9812e+002 -4.0057e+002  2.0141e+002 29972 107010,107166,107114
 2.5000e+000 107333 -5.0842e+002 -3.6858e+002  3.0074e+002 29972 106984,107166,107010
 2.5000e+000 107310 -4.7243e+002 -2.7245e+002  1.5143e+002 29972 107010,107114,107088
 2.5000e+000 107287 -3.9390e+002 -1.8129e+002  1.2065e+002 29972 107114,107166,107140
 2.5000e+000 107264 -5.2113e+002 -4.7088e+002  3.5838e+002 29972 106984,107192,107166
 2.5000e+000 107241 -6.5315e+002 -6.1178e+002  2.1872e+002 29972 107010,107088,107036
 2.5000e+000 107218 -3.5509e+002 -4.7337e+002  1.6789e+002 29972 107036,107088,107062
 2.5000e+000 107783 -5.2206e+002 -7.0781e+002  3.4409e+002 29724 107878,107806,107590
 2.5000e+000 107760 -6.2791e+002 -7.2838e+002  2.8451e+002 29724 107806,107512,107486
 2.5000e+000 107737 -5.4153e+002 -6.7001e+002  3.9861e+002 29724 107878,107590,107538
 2.5000e+000 107714 -5.0166e+002 -7.6601e+002  3.5798e+002 29724 107950,107460,107616
 2.5000e+000 107691 -4.3787e+002 -7.3271e+002  3.3973e+002 29724 107460,107642,107616
 2.5000e+000 107668 -3.7452e+002 -5.5021e+002  4.5249e+002 29724 107538,107590,107564
 2.5000e+000 107832 -3.5559e+002 -6.8985e+002  3.9372e+002 29724 107616,107590,107806
 2.5000e+000 107855 -5.1358e+002 -7.7277e+002  3.5133e+002 29724 107950,107616,107806
 2.5000e+000 107904 -4.8685e+002 -6.2142e+002  3.4162e+002 29724 107512,107806,107878
 2.5000e+000 107927 -4.9373e+002 -5.6201e+002  4.0686e+002 29724 107512,107878,107538
 2.5000e+000 107976 -2.6747e+002 -7.5078e+002  3.8395e+002 29724 107486,107460,107950
 2.5000e+000 107999 -4.8260e+002 -8.1983e+002  3.3671e+002 29724 107486,107950,107806
 2.5000e+000 108296 -5.5987e+002 -4.2631e+002  3.0418e+002 29206 108319,108100,108048
 2.5000e+000 108273 -3.2200e+002 -3.7506e+002  3.6004e+002 29206 108319,108048,108022
 2.5000e+000 108250 -1.6694e+002 -4.5986e+002  4.3594e+002 29206 108391,108152,108126
 2.5000e+000 108227 -6.3099e+002 -3.1023e+002  3.5644e+002 29206 108048,108100,108074
 2.5000e+000 108204 -2.4374e+002 -6.4100e+002  3.7050e+002 29206 108022,108178,108152
 2.5000e+000 108345 -4.0801e+002 -2.4693e+002  4.4148e+002 29206 108126,108100,108319
 2.5000e+000 108368 -2.2606e+002 -3.6457e+002  4.9177e+002 29206 108391,108126,108319
 2.5000e+000 108417 -3.1965e+002 -5.7747e+002  3.7272e+002 29206 108022,108152,108391
 2.5000e+000 108440 -3.6447e+002 -5.0399e+002  4.3122e+002 29206 108022,108391,108319
 2.5000e+000 108688 -4.8622e+002 -6.0405e+002  3.6909e+002 28595 108711,108541,108515
 2.5000e+000 108665 -7.1830e+002 -6.6607e+002  4.8729e+002 28595 108783,108711,108515
 2.5000e+000 108642 -8.7773e+002 -5.8503e+002  4.9132e+002 28595 108783,108515,108489
 2.5000e+000 108619 -8.6757e+002 -7.1494e+002  2.3654e+002 28595 108463,108593,108489
 2.5000e+000 108737 -4.4766e+002 -5.0150e+002  2.6731e+002 28595 108567,108541,108711
 2.5000e+000 108760 -3.8923e+002 -5.5494e+002  4.2043e+002 28595 108567,108711,108593
 2.5000e+000 108809 -4.6473e+002 -6.6718e+002  3.7698e+002 28595 108593,108711,108783
 2.5000e+000 108832 -7.0340e+002 -6.2839e+002  3.4213e+002 28595 108593,108783,108489
 2.5000e+000 109033 -1.6751e+002 -2.6015e+002  1.2611e+002 28091 108909,108961,108935
 2.5000e+000 109010 -1.7329e+002 -2.7614e+002  1.2201e+002 28091 108857,108961,108909
 2.5000e+000 108987 -3.6231e+002 -4.6043e+002  3.5110e+002 28091 108857,108909,108883
 2.5000e+000 109136 -4.3673e+002 -1.0321e+003  1.8634e+002 27587 109058,109110,109084
 2.5000e+000 109695 -4.3031e+002 -4.7932e+002  1.7259e+002 26969 109718,109375,109323
 2.5000e+000 109672 -4.1524e+002 -4.9048e+002  1.2506e+002 26969 109718,109323,109505
 2.5000e+000 109649 -4.2085e+002 -2.1295e+002  9.2743e+001 26969 109790,109453,109427
 2.5000e+000 109626 -1.7715e+002 -4.6024e+002  2.2568e+002 26969 109323,109375,109349
 2.5000e+000 109603 -3.6868e+002 -4.8743e+002  1.2852e+002 26969 109323,109531,109505
 2.5000e+000 109580 -2.7976e+002 -5.2402e+002  1.0771e+002 26969 109375,109427,109401
 2.5000e+000 109557 -4.7926e+002 -4.8883e+002  2.4237e+002 26969 109453,109505,109479
 2.5000e+000 109744 -4.3063e+002 -5.0651e+002  9.6530e+001 26969 109427,109375,109718
 2.5000e+000 109767 -3.6782e+002 -3.2231e+002  7.1749e+001 26969 109790,109427,109718
 2.5000e+000 109816 -4.0841e+002 -3.3872e+002  1.4358e+002 26969 109505,109453,109790
 2.5000e+000 109839 -3.7459e+002 -4.6254e+002  1.3924e+002 26969 109505,109790,109718
 2.5000e+000 110266 -3.1429e+002 -5.5150e+002  1.1644e+002 26515 110361,110289,110099
 2.5000e+000 110243 -2.4380e+002 -3.8480e+002  1.3140e+002 26515 110289,109995,109943
 2.5000e+000 110220 -4.2176e+002 -5.9642e+002  1.1509e+002 26515 110361,110099,110021
 2.5000e+000 110197 -3.7484e+002 -1.0753e+003  9.1910e+001 26515 110047,110099,110073
 2.5000e+000 110174 -3.8697e+002 -9.7614e+002 -8.4679e+001 26515 110021,110099,110047
 2.5000e+000 110151 -5.4341e+001 -1.4295e+002  2.1886e+002 26515 109943,109995,109969
 2.5000e+000 110315 -4.1293e+002 -3.3608e+002  5.0537e+001 26515 110125,110099,110289
 2.5000e+000 110338 -3.6096e+002 -1.2383e+002  2.4824e+002 26515 110125,110289,109943
 2.5000e+000 110387 -4.0633e+002 -5.1029e+002 -4.2055e+000 26515 109995,110289,110361
 2.5000e+000 110410 -4.9677e+002 -5.4347e+002  2.0532e+000 26515 109995,110361,110021
 2.5000e+000 110609 -9.0977e+001 -6.0666e+002  2.1685e+002 25789 110906,110762,110632
 2.5000e+000 110586 -1.1646e+002 -7.5045e+002  2.3974e+002 25789 110762,110433,110537
 2.5000e+000 110563 -3.6055e+002 -6.8883e+002  3.8012e+002 25789 110834,110459,110433
 2.5000e+000 110658 -1.7864e+002 -5.8174e+002  2.8571e+002 25789 110906,110632,110834
 2.5000e+000 110788 -5.3359e+001 -3.9955e+002  1.2411e+002 25789 110511,110632,110762
 2.5000e+000 110811 -1.2663e+002 -6.0780e+002  2.3375e+002 25789 110511,110762,110537
 2.5000e+000 110860 -2.3209e+002 -5.9791e+002  3.1173e+002 25789 110485,110459,110834
 2.5000e+000 110883 -2.6312e+002 -5.5204e+002  2.7886e+002 25789 110485,110834,110632
 2.5000e+000 110932 -2.7826e+002 -6.6933e+002  2.2749e+002 25789 110433,110762,110906
 2.5000e+000 110955 -3.4937e+002 -6.2492e+002  2.8338e+002 25789 110433,110906,110834
 2.5000e+000 111350 -3.4775e+002 -5.3310e+002  3.3479e+002 25228 111445,111373,111186
 2.5000e+000 111327 -3.6705e+002 -5.2671e+002  9.9498e+001 25228 110978,111186,111004
 2.5000e+000 111304 -3.7845e+002 -6.9367e+002  3.1037e+002 25228 111373,111108,111082
 2.5000e+000 111281 -3.5736e+002 -6.9963e+002  2.7544e+002 25228 111134,111186,111160
 2.5000e+000 111258 -3.5040e+002 -5.0513e+002  3.1102e+002 25228 111445,111186,111134
 2.5000e+000 111235 -3.2455e+002 -3.7247e+002  1.8443e+002 25228 111517,111030,111004
 2.5000e+000 111212 -4.4490e+002 -4.8516e+002  2.7836e+002 25228 111030,111082,111056
 2.5000e+000 111399 -3.7285e+002 -6.0402e+002  3.1598e+002 25228 111004,111186,111373
 2.5000e+000 111422 -2.6937e+002 -4.5937e+002  2.6016e+002 25228 111517,111004,111373
 2.5000e+000 111471 -3.1980e+002 -5.0652e+002  3.0276e+002 25228 111108,111373,111445
 2.5000e+000 111494 -3.2158e+002 -4.7456e+002  2.7922e+002 25228 111108,111445,111134
 2.5000e+000 111543 -4.3389e+002 -4.1508e+002  2.8296e+002 25228 111082,111030,111517
 2.5000e+000 111566 -3.8914e+002 -5.3913e+002  3.5903e+002 25228 111082,111517,111373
 2.5000e+000 112074 -2.5532e+002 -3.8747e+002  2.1312e+002 24338 112097,111907,111881
 2.5000e+000 112051 -3.5003e+002 -3.5819e+002  1.1663e+002 24338 112097,111881,111829
 2.5000e+000 112028 -1.1201e+002 -3.5156e+002  9.9713e+001 24338 111829,111881,111855
 2.5000e+000 112005 -3.7801e+002 -5.2603e+002  1.4773e+002 24338 111777,111933,111829
 2.5000e+000 111982 -5.0559e+002 -2.4840e+002  1.7194e+002 24338 111751,111933,111777
 2.5000e+000 111959 -4.2733e+002 -6.0538e+002  1.8563e+002 24338 111777,111829,111803
 2.5000e+000 112123 -3.6722e+002 -6.8368e+002  2.0245e+002 24338 111933,111907,112097
 2.5000e+000 112146 -3.3727e+002 -4.3602e+002  1.3212e+002 24338 111933,112097,111829
 2.5000e+000 112443 -5.2419e+002 -3.9785e+002  2.4757e+002 23998 112466,112299,112247
 2.5000e+000 112420 -5.8018e+002 -6.5830e+002  2.2953e+002 23998 112466,112247,112221
 2.5000e+000 112397 -4.0339e+002 -7.7579e+002  3.5371e+002 23998 112169,112325,112221
 2.5000e+000 112374 -3.5991e+002 -6.9955e+002  3.7204e+002 23998 112169,112221,112195
 2.5000e+000 112351 -2.3467e+002 -3.6153e+002  2.8509e+002 23998 112247,112299,112273
 2.5000e+000 112492 -5.0458e+002 -4.5062e+002  4.0003e+002 23998 112325,112299,112466
 2.5000e+000 112515 -5.5924e+002 -5.9116e+002  3.5428e+002 23998 112325,112466,112221
 2.5000e+000 113200 -5.8692e+002 -7.2395e+002  5.0520e+002 23480 112779,112961,112805
 2.5000e+000 113177 -6.3837e+002 -4.8585e+002  2.0986e+002 23480 112779,112987,112961
 2.5000e+000 113154 -1.4001e+002 -3.7013e+002  3.2199e+002 23480 112805,112961,112883
 2.5000e+000 113131 -3.5988e+002 -6.4362e+002  3.5420e+002 23480 112883,112935,112909
 2.5000e+000 113108 -4.7304e+002 -5.0969e+002  3.6287e+002 23480 112883,112961,112935
 2.5000e+000 113085 -1.7582e+002 -3.1336e+002  1.5731e+002 23480 112831,112883,112857
 2.5000e+000 113062 -2.9800e+002 -3.8250e+002  2.1161e+002 23480 112805,112883,112831
 2.5000e+000 113039 -6.6738e+002 -3.9631e+002  2.1361e+002 23480 112779,113013,112987
 2.5000e+000 113676 -5.7078e+002 -2.7466e+002  4.5667e+002 23018 113699,113434,113356
 2.5000e+000 113653 -5.0341e+002 -2.6934e+002  2.3882e+002 23018 113771,113699,113356
 2.5000e+000 113630 -4.4761e+002 -4.4147e+002  1.6109e+002 23018 113771,113356,113512
 2.5000e+000 113607 -3.0769e+002 -6.2510e+002  2.7552e+002 23018 113330,113512,113356
 2.5000e+000 113584 -1.1341e+003 -5.9605e+002  6.6827e+002 23018 113356,113434,113382
 2.5000e+000 113561 -1.2509e+002 -5.8765e+002  2.7214e+002 23018 113304,113512,113330
 2.5000e+000 113538 -1.0979e+003 -1.3888e+002  2.8201e+002 23018 113382,113434,113408
 2.5000e+000 113725 -6.5125e+002 -4.6580e+002  4.5868e+002 23018 113460,113434,113699
 2.5000e+000 113748 -7.1251e+002 -5.1180e+002  2.8279e+002 23018 113460,113699,113486
 2.5000e+000 113797 -6.5363e+002 -5.2488e+002  3.0063e+002 23018 113486,113699,113771
 2.5000e+000 113820 -5.0866e+002 -5.5926e+002  1.8532e+002 23018 113486,113771,113512
 2.5000e+000 114424 -2.8011e+002 -4.3369e+002  9.7463e+001 22514 114447,114133,114029
 2.5000e+000 114401 -2.7758e+002 -5.1101e+002  9.2797e+001 22514 114447,114029,114237
 2.5000e+000 114378 -1.2983e+002 -3.5532e+002  1.6279e+002 22514 114133,114211,114185
 2.5000e+000 114355 -2.0351e+002 -3.4460e+002  1.3468e+002 22514 114133,114185,114159
 2.5000e+000 114332 -2.1507e+002 -5.3478e+002  1.8726e+002 22514 114003,114237,114029
 2.5000e+000 114309 -3.0377e+002 -3.6090e+002  6.4319e+001 22514 114029,114133,114055
 2.5000e+000 114286 -3.6839e+002 -2.7753e+002  9.6037e+001 22514 114055,114133,114107
 2.5000e+000 114263 -3.0378e+002 -3.3548e+000  1.0090e+002 22514 114055,114107,114081
 2.5000e+000 114473 -2.9066e+002 -3.9180e+002  1.2755e+002 22514 114211,114133,114447
 2.5000e+000 114496 -2.7478e+002 -4.5045e+002  1.2198e+002 22514 114211,114447,114237
 2.5000e+000 114597 -2.7264e+002 -6.7975e+002  3.4363e+002 22316 114620,114571,114545
 2.5000e+000 114646 -2.7264e+002 -6.7975e+002  3.4363e+002 22316 114519,114571,114620
 2.5000e+000 115127 -4.3858e+002 -5.5966e+002  1.6236e+002 21612 115150,114905,114879
 2.5000e+000 115104 -4.9463e+002 -3.4366e+002  2.0491e+002 21612 115150,114879,114853
 2.5000e+000 115081 -3.6899e+002 -1.8334e+002  3.0824e+002 21612 115222,114931,114905
 2.5000e+000 115058 -3.7599e+002 -4.2513e+002  2.4743e+002 21612 115222,114905,115009
 2.5000e+000 115035 -1.8581e+002 -5.4541e+002  1.9229e+002 21612 114957,115009,114983
 2.5000e+000 115176 -3.9948e+002 -3.8498e+002  1.7629e+002 21612 115009,114905,115150
 2.5000e+000 115199 -4.3983e+002 -1.4242e+002  2.1204e+002 21612 115009,115150,114853
 2.5000e+000 115248 -3.8454e+002 -3.8938e+002  2.6639e+002 21612 114957,114931,115222
 2.5000e+000 115271 -3.8448e+002 -6.1771e+002  2.0249e+002 21612 114957,115222,115009
 2.5000e+000 115519 -1.3910e+002  5.8436e+001  1.4406e+002 21208 115542,115372,115320
 2.5000e+000 115496  9.3973e+000  1.5256e+002  5.0753e+000 21208 115542,115320,115294
 2.5000e+000 115473 -9.7318e+001 -2.4241e+002  2.0613e+002 21208 115320,115372,115346
 2.5000e+000 115450 -3.3702e+002 -1.2981e+002  8.3648e+001 21208 115294,115424,115398
 2.5000e+000 115568 -2.0014e+002  4.7174e+000  2.0131e+002 21208 115398,115372,115542
 2.5000e+000 115591 -1.4464e+002 -8.3685e+001  8.9026e+001 21208 115398,115542,115294
 2.5000e+000 115839 -4.0275e+002 -3.4095e+002  3.1000e+002 20668 115862,115640,115614
 2.5000e+000 115816 -4.2393e+002 -3.8439e+002  3.1779e+002 20668 115862,115614,115744
 2.5000e+000 115793 -3.9379e+002 -2.0723e+002  2.9704e+002 20668 115640,115718,115692
 2.5000e+000 115770 -6.7588e+002 -2.3659e+002  2.7006e+002 20668 115640,115692,115666
 2.5000e+000 115888 -4.3297e+002 -2.6347e+002  3.4334e+002 20668 115718,115640,115862
 2.5000e+000 115911 -4.7357e+002 -3.4451e+002  3.5668e+002 20668 115718,115862,115744
 2.5000e+000 116134 -3.7532e+002 -5.7531e+002  3.4568e+002 20264 115958,116036,115984
 2.5000e+000 116111 -1.9323e+002 -4.8892e+002  3.2062e+002 20264 115958,116062,116036
 2.5000e+000 116088 -2.1205e+002 -5.4684e+002  3.7472e+002 20264 115984,116036,116010
 2.5000e+000 116384 -5.7612e+002 -4.0430e+002  4.2599e+002 19924 116407,116211,116159
 2.5000e+000 116361 -5.3381e+002 -6.8146e+002  3.5011e+002 19924 116407,116159,116263
 2.5000e+000 116338 -5.3962e+002 -2.5846e+002  4.1657e+002 19924 116159,116211,116185
 2.5000e+000 116315 -3.5291e+002 -6.6253e+002  4.0018e+002 19924 116159,116289,116263
 2.5000e+000 116433 -5.4517e+002 -2.5378e+002  4.9007e+002 19924 116237,116211,116407
 2.5000e+000 116456 -3.9600e+002 -4.3761e+002  4.4948e+002 19924 116237,116407,116263
 2.5000e+000 116608 -2.4726e+002 -4.4672e+001  2.3294e+002 19520 116703,116631,116533
 2.5000e+000 116585 -1.2611e+002 -1.2228e+002  1.3583e+002 19520 116631,116507,116481
 2.5000e+000 116657 -2.0255e+002 -1.3733e+002  2.6712e+002 19520 116559,116533,116631
 2.5000e+000 116680 -1.7625e+002 -3.3843e+002  1.7311e+002 19520 116559,116631,116481
 2.5000e+000 116729 -2.4726e+002 -4.4672e+001  2.3294e+002 19520 116507,116631,116703
 2.5000e+000 116952 -4.9368e+002 -4.3562e+002  6.0234e+002 19208 116975,116802,116776
 2.5000e+000 116929 -6.2629e+002 -8.0496e+002  3.4615e+002 19208 116975,116776,116880
 2.5000e+000 116906 -6.7968e+002 -2.9103e+002  4.2556e+002 19208 116802,116854,116828
 2.5000e+000 117001 -3.9060e+002 -3.7026e+002  6.3095e+002 19208 116854,116802,116975
 2.5000e+000 117024 -1.6041e+002 -4.6664e+002  5.0050e+002 19208 116854,116975,116880
 2.5000e+000 117428 -4.6631e+002 -1.6036e+002  3.0102e+002 18796 117154,117206,117180
 2.5000e+000 117405 -3.2153e+002 -3.7708e+002  2.7100e+002 18796 117154,117284,117206
 2.5000e+000 117382 -1.8879e+002 -3.1948e+002  2.7708e+002 18796 117154,117310,117284
 2.5000e+000 117359 -1.7371e+002 -2.5480e+002  3.5756e+002 18796 117206,117284,117258
 2.5000e+000 117336 -3.9357e+000 -2.7613e+001  4.9603e+002 18796 117206,117258,117232
 2.5000e+000 117529 -2.0913e+002 -1.1935e+002  1.4049e+002 18228 117810,117552,117477
 2.5000e+000 117578 -5.1981e+002 -3.2538e+002  2.4683e+002 18228 117682,117552,117503
 2.5000e+000 117708 -1.6694e+002 -1.2752e+002  1.3197e+002 18228 117477,117552,117682
 2.5000e+000 117836 -3.2674e+002 -3.2727e+002  2.1264e+002 18228 117451,117552,117810
 2.5000e+000 118364 -5.3209e+002 -1.6052e+002  2.2668e+002 17722 118067,118223,118093
 2.5000e+000 118341 -5.1632e+002 -1.0136e+002  2.2785e+002 17722 118041,118223,118067
 2.5000e+000 118318 -2.8251e+002 -1.7115e+002  1.6480e+002 17722 118093,118223,118197
 2.5000e+000 118295 -9.4531e+002 -9.4106e+002  6.1834e+002 17722 118119,118197,118171
 2.5000e+000 118272 -1.1309e+002  7.9004e-001  2.6147e+002 17722 118093,118197,118119
 2.5000e+000 118249 -8.6264e+002 -4.3563e+002  5.5119e+002 17722 118119,118171,118145
 2.5000e+000 118514 -8.9787e+002 -3.5124e+002  3.3252e+002 17268 118387,118439,118413
 2.5000e+000 118491 -6.4333e+001 -4.2237e+002  3.5274e+002 17268 118387,118465,118439
 2.5000e+000 118916 -4.8650e+002 -1.2547e+002  1.8484e+002 16828 118668,118772,118694
 2.5000e+000 118893 -6.3996e+002 -1.9554e+002  1.6196e+002 16828 118668,118798,118772
 2.5000e+000 118870 -6.7851e+002 -3.6430e+002  8.5438e+001 16828 118642,118798,118668
 2.5000e+000 118847 -1.6412e+002 -4.8826e+001  3.4391e+002 16828 118694,118746,118720
 2.5000e+000 118824 -5.4080e+002 -3.2029e+002  1.6577e+002 16828 118694,118772,118746
 2.5000e+000 119316 -2.2849e+002 -1.8127e+002  2.9718e+002 16422 119042,119172,119094
 2.5000e+000 119293 -3.2267e+002 -2.0968e+002  3.0087e+002 16422 119042,119198,119172
 2.5000e+000 119270 -4.3288e+002 -9.3546e+001  1.5923e+002 16422 119042,119094,119068
 2.5000e+000 119247 -6.2120e+001 -3.0973e+001  4.2516e+002 16422 119094,119146,119120
 2.5000e+000 119224 -1.7596e+002 -8.9602e+001  3.1929e+002 16422 119094,119172,119146
 2.5000e+000 119466 -1.2832e+002  5.7825e+001  9.8074e+001 16010 119339,119391,119365
 2.5000e+000 119443 -6.3970e+001 -5.2554e+001  2.5316e+002 16010 119339,119417,119391
 2.5000e+000 119616 -1.2942e+002  8.1255e+000  2.2200e+002 15547 119515,119567,119541
 2.5000e+000 119593  2.1201e+002  3.1265e+002  7.1051e+002 15547 119489,119567,119515
 2.5000e+000 119719 -7.6732e+002 -3.0788e+002  3.6788e+002 421 119641,119693,119667
 2.6000e+000 69562 -7.6496e+002 -3.5642e+002  5.0233e+002 69254 69484,69536,69510
 2.6000e+000 70009 -3.6956e+002 -3.1875e+002  3.0066e+002 68942 69686,69842,69816
 2.6000e+000 69986 -3.3898e+002 -1.1890e+002  1.7046e+002 68942 69686,69868,69842
 2.6000e+000 69963 -2.3305e+002 -9.6426e+001  3.7198e+002 68942 69686,69816,69712
 2.6000e+000 69940 -1.3309e+002 -9.3862e+001  5.2056e+002 68942 69712,69790,69738
 2.6000e+000 69917 -5.5280e+002 -8.5807e+002  3.3165e+002 68942 69712,69816,69790
 2.6000e+000 69894 -4.7143e+001 -4.5949e+002  2.0236e+002 68942 69738,69790,69764
 2.6000e+000 70110 -3.8902e+002 -1.2048e+002  2.4272e+002 68766 70032,70084,70058
 2.6000e+000 70746 -5.0169e+002 -2.4325e+002  2.5513e+002 68448 70400,70556,70426
 2.6000e+000 70723 -8.5332e+002 -3.4609e+002  3.3836e+002 68448 70374,70556,70400
 2.6000e+000 70700 -5.6488e+002 -2.1487e+002  1.7983e+002 68448 70426,70556,70478
 2.6000e+000 70677 -6.5751e+002 -1.7775e+002  1.9980e+002 68448 70478,70556,70504
 2.6000e+000 70654 -5.9513e+002 -2.9454e+002  1.8681e+002 68448 70426,70478,70452
 2.6000e+000 70631 -8.2503e+002 -2.7480e+002  4.3995e+002 68448 70374,70582,70556
 2.6000e+000 70608 -7.0317e+002 -2.1059e+002  1.6156e+002 68448 70504,70556,70530
 2.6000e+000 70896 -7.2053e+002 -1.8483e+002  2.0303e+001 68250 70795,70847,70821
 2.6000e+000 70873 -1.3219e+003 -4.3570e+002  5.6415e+001 68250 70769,70847,70795
 2.6000e+000 70997 -1.7613e+003 -8.3311e+002  7.3930e+002 68052 70919,70971,70945
 2.6000e+000 71367 -5.3668e+002 -8.5780e+002  3.2667e+002 67740 71096,71226,71200
 2.6000e+000 71344 -3.5028e+002 -4.9427e+002  4.0480e+002 67740 71044,71226,71096
 2.6000e+000 71321  4.5127e+001 -4.5127e+001  6.4381e+002 67740 71044,71096,71070
 2.6000e+000 71298 -4.0110e+002 -9.2445e+002  6.3768e+002 67740 71096,71200,71174
 2.6000e+000 71275 -2.3810e+002 -5.7428e+002  2.2621e+002 67740 71096,71148,71122
 2.6000e+000 71252 -3.1898e+002 -6.5600e+002  4.1293e+002 67740 71096,71174,71148
 2.6000e+000 71519  2.3130e+002  1.5173e+002  2.0324e+002 67542 71418,71470,71444
 2.6000e+000 71496  3.4808e+002  6.6954e+002  6.3619e+002 67542 71392,71470,71418
 2.6000e+000 71923 -1.1679e+002  1.0989e+001  1.9040e+002 67230 71649,71779,71675
 2.6000e+000 71900 -7.8514e+001 -1.7258e+002  1.1628e+002 67230 71649,71805,71779
 2.6000e+000 71877 -1.2198e+002 -4.4463e+001  3.5579e+002 67230 71675,71727,71701
 2.6000e+000 71854 -1.6546e+002 -5.3844e+002  3.4264e+002 67230 71675,71753,71727
 2.6000e+000 71831 -1.7434e+002 -3.1957e+002  2.3811e+002 67230 71675,71779,71753
 2.6000e+000 72433 -4.5751e+002 -2.0245e+002  2.8364e+002 67032 72038,72246,72220
 2.6000e+000 72410 -1.9262e+002 -6.3357e+000  1.5061e+002 67032 72012,72246,72038
 2.6000e+000 72387 -4.3360e+002 -1.7809e+002  2.9969e+002 67032 72064,72194,72168
 2.6000e+000 72364 -4.5797e+002 -1.7266e+002  3.1355e+002 67032 72038,72194,72064
 2.6000e+000 72341 -5.9721e+002 -5.3069e+002  2.7947e+002 67032 72038,72220,72194
 2.6000e+000 72318 -1.9338e+002 -4.7666e+000  2.1340e+002 67032 72090,72168,72142
 2.6000e+000 72295 -9.7789e+001 -2.8682e+001  3.3708e+002 67032 72064,72168,72090
 2.6000e+000 72272 -2.1624e+002 -3.3404e+001  1.9889e+002 67032 72090,72142,72116
 2.6000e+000 72933 -3.2681e+002 -3.5386e+002  3.5509e+002 66628 72956,72665,72613
 2.6000e+000 72910 -3.0669e+002 -3.7146e+002  3.5640e+002 66628 73100,72956,72613
 2.6000e+000 72887 -3.9312e+002 -5.4156e+002  2.8904e+002 66628 73028,72691,72665
 2.6000e+000 72864 -2.8717e+002 -3.3444e+002  3.6826e+002 66628 73100,72613,72587
 2.6000e+000 72841 -3.1189e+002 -3.3839e+002  3.2175e+002 66628 72613,72665,72639
 2.6000e+000 72818  3.2540e+001 -8.7929e+000  4.6129e+002 66628 72587,72769,72743
 2.6000e+000 72795 -3.5077e+002 -7.8741e+002  1.0042e+002 66628 72561,72769,72587
 2.6000e+000 72982 -3.8685e+002 -3.9089e+002  3.7732e+002 66628 73028,72665,72956
 2.6000e+000 73005 -3.3208e+002 -1.3267e+002  3.5535e+002 66628 72717,72956,72743
 2.6000e+000 73054 -5.6046e+002 -4.4921e+002  1.7620e+002 66628 72717,72691,73028
 2.6000e+000 73077 -5.5656e+002 -3.9785e+002  2.5640e+002 66628 72717,73028,72956
 2.6000e+000 73126 -3.2954e+002 -3.7098e+002  3.1339e+002 66628 72743,72956,73100
 2.6000e+000 73149 -3.0850e+002 -3.3987e+002  3.2567e+002 66628 72743,73100,72587
 2.6000e+000 73606 -4.1792e+002 -3.4808e+002  3.2971e+002 66281 73332,73384,73358
 2.6000e+000 73583 -5.2676e+002 -4.0238e+002  2.5763e+002 66281 73332,73462,73384
 2.6000e+000 73560 -6.3588e+002 -3.9628e+002  2.7648e+002 66281 73384,73462,73436
 2.6000e+000 73537 -9.6926e+002 -5.5003e+002  4.2620e+002 66281 73332,73488,73462
 2.6000e+000 73514 -7.0156e+002 -3.9121e+002  1.8717e+002 66281 73384,73436,73410
 2.6000e+000 73984 -1.9149e+002 -1.4515e+002  1.2066e+002 65969 73736,73814,73788
 2.6000e+000 73961 -7.6735e+001 -6.9294e+001  8.4043e+001 65969 73736,73866,73814
 2.6000e+000 73938 -2.1504e+002 -1.7634e+002  2.1029e+002 65969 73814,73866,73840
 2.6000e+000 73915 -6.4140e+001 -9.5384e+001  7.7510e+001 65969 73710,73866,73736
 2.6000e+000 73892 -1.2281e+002 -1.2542e+002  2.6796e+001 65969 73736,73788,73762
 2.6000e+000 74232 -3.0483e+002 -3.3293e+002  3.1806e+002 65572 74255,74085,74033
 2.6000e+000 74209 -2.7940e+002 -3.4910e+002  2.8812e+002 65572 74327,74255,74033
 2.6000e+000 74186 -2.9835e+002 -2.8851e+002  2.8960e+002 65572 74327,74033,74007
 2.6000e+000 74163 -3.4670e+002 -3.9681e+002  3.4390e+002 65572 74033,74085,74059
 2.6000e+000 74281 -3.5491e+002 -3.9042e+002  3.8557e+002 65572 74111,74085,74255
 2.6000e+000 74304 -2.5462e+002 -3.5191e+002  3.2077e+002 65572 74111,74255,74137
 2.6000e+000 74353 -2.6171e+002 -2.8015e+002  2.6704e+002 65572 74137,74255,74327
 2.6000e+000 74376 -2.9370e+002 -2.3459e+002  2.7180e+002 65572 74137,74327,74007
 2.6000e+000 74884 -3.2483e+002 -3.6093e+002  2.8449e+002 65174 74587,74717,74613
 2.6000e+000 74861 -3.8050e+002 -4.1626e+002  2.2325e+002 65174 74561,74717,74587
 2.6000e+000 74838 -2.9591e+002 -4.3509e+002  2.2841e+002 65174 74613,74691,74639
 2.6000e+000 74815 -3.1130e+002 -4.2915e+002  2.7084e+002 65174 74613,74717,74691
 2.6000e+000 74792 -1.6098e+002 -6.2789e+002  1.9119e+002 65174 74639,74691,74665
 2.6000e+000 74769 -6.2061e+002 -1.3970e+002  2.4886e+002 65174 74561,74743,74717
 2.6000e+000 75412 -1.1518e+001 -1.7997e+002  6.4768e+002 64770 75167,75245,75219
 2.6000e+000 75389 -3.0302e+002 -5.7798e+002  4.4288e+002 64770 75115,75245,75167
 2.6000e+000 75366 -2.4316e+002 -7.4246e+002  5.7020e+002 64770 75089,75245,75115
 2.6000e+000 75343 -4.4957e+002 -1.7370e+002  4.7494e+002 64770 75167,75219,75193
 2.6000e+000 75320 -2.4387e+002 -4.5250e+002  4.6549e+002 64770 75115,75167,75141
 2.6000e+000 75297 -3.9583e+002 -1.0657e+003  6.1250e+002 64770 75089,75271,75245
 2.6000e+000 75861 -8.0605e+002 -3.5405e+002  5.3596e+002 64316 75538,75694,75564
 2.6000e+000 75838 -4.7463e+002 -1.8690e+002  3.3460e+002 64316 75538,75720,75694
 2.6000e+000 75815 -6.5776e+002 -4.3747e+002  4.1595e+002 64316 75590,75694,75642
 2.6000e+000 75792 -6.2658e+002 -5.7284e+002  4.7385e+002 64316 75564,75694,75590
 2.6000e+000 75769 -2.1484e+002 -7.2084e+002  2.2473e+002 64316 75590,75642,75616
 2.6000e+000 75746 -5.8736e+002 -2.4873e+002  3.8404e+002 64316 75642,75694,75668
 2.6000e+000 76239 -8.9982e+002 -7.2418e+002  3.9980e+002 64018 76262,76095,76043
 2.6000e+000 76216 -6.9710e+002 -7.0976e+002  3.3095e+002 64018 76262,76043,76017
 2.6000e+000 76193 -3.6421e+002 -3.6534e+002  2.9801e+002 64018 75991,76121,76017
 2.6000e+000 76170 -8.5563e+002 -5.8514e+002  5.6346e+002 64018 76043,76095,76069
 2.6000e+000 76147 -4.1503e+000 -3.6223e+002  7.3096e+001 64018 75965,76121,75991
 2.6000e+000 76288 -6.9542e+002 -8.2076e+002  4.9918e+002 64018 76121,76095,76262
 2.6000e+000 76311 -5.2981e+002 -8.2498e+002  4.0164e+002 64018 76121,76262,76017
 2.6000e+000 76866 -3.1174e+002 -3.5511e+002  3.5742e+002 63728 76520,76676,76546
 2.6000e+000 76843 -3.0727e+002 -3.6209e+002  2.7814e+002 63728 76520,76702,76676
 2.6000e+000 76820 -2.4363e+002 -3.4565e+002  3.2682e+002 63728 76546,76650,76572
 2.6000e+000 76797 -4.3638e+002 -4.3285e+002  3.0697e+002 63728 76546,76676,76650
 2.6000e+000 76774 -4.2133e+002 -5.3586e+001  1.7448e+002 63728 76572,76650,76624
 2.6000e+000 76751 -2.5689e+002 -3.3260e+002  2.9292e+002 63728 76494,76702,76520
 2.6000e+000 76728 -8.4221e+001 -1.8930e+002  1.2566e+002 63728 76572,76624,76598
 2.6000e+000 77065 -1.9937e+002 -3.1723e+002  3.0123e+002 63288 77088,76941,76915
 2.6000e+000 77042 -4.4902e+002 -3.9431e+002  2.8469e+002 63288 77088,76915,76993
 2.6000e+000 77019 -1.0960e+002 -4.4198e+002  2.2080e+002 63288 76889,76993,76915
 2.6000e+000 77114 -3.2575e+002 -3.5023e+002  2.4869e+002 63288 76967,76941,77088
 2.6000e+000 77137 -7.0100e+002 -4.5249e+002  1.2370e+002 63288 77160,77088,76993
 2.6000e+000 77186 -1.9234e+002 -2.1834e+002  1.9438e+002 63288 76967,77088,77160
 2.6000e+000 77417 -2.0826e+002 -3.2040e+002  1.6620e+002 62884 77440,77342,77316
 2.6000e+000 77394 -4.5265e+002 -4.5165e+002  8.0000e+001 62884 77770,77440,77316
 2.6000e+000 77466 -3.9011e+002 -4.9289e+002  7.1171e+001 62884 77512,77440,77368
 2.6000e+000 77489 -2.9758e+002 -3.9649e+002  5.1667e+001 62884 77642,77440,77290
 2.6000e+000 77538 -1.8446e+002 -3.5042e+002  8.4439e+000 62884 77342,77440,77512
 2.6000e+000 77668 -3.7456e+002 -5.5214e+002  2.6406e+001 62884 77368,77440,77642
 2.6000e+000 77796 -3.1969e+002 -3.8820e+002  6.1691e+001 62884 77290,77440,77770
 2.6000e+000 78479 -7.2019e+002 -6.9473e+002  3.9665e+002 62480 78084,78240,78214
 2.6000e+000 78456 -5.0355e+002 -6.0943e+002  7.3119e+001 62480 78084,78266,78240
 2.6000e+000 78433 -5.3888e+002 -5.8870e+002  1.8684e+002 62480 78110,78214,78136
 2.6000e+000 78410 -6.5369e+002 -6.4412e+002  3.7392e+002 62480 78084,78214,78110
 2.6000e+000 78387 -3.8440e+002 -4.9947e+002  2.3043e+002 62480 78136,78214,78188
 2.6000e+000 78364 -5.6939e+002 -6.6645e+002  4.8815e+001 62480 78058,78266,78084
 2.6000e+000 78341 -2.3243e+002 -4.0069e+002  1.3778e+002 62480 78136,78188,78162
 2.6000e+000 78318 -6.8334e+002 -7.5700e+002  1.1942e+002 62480 78058,78292,78266
 2.6000e+000 78678 -4.4537e+002 -7.8693e+002  3.0610e+002 61926 78528,78606,78554
 2.6000e+000 78655 -2.3341e+002 -7.9455e+002  3.9259e+002 61926 78502,78606,78528
 2.6000e+000 78632 -3.0129e+002 -5.0465e+002  2.0069e+002 61926 78554,78606,78580
 2.6000e+000 79058 -4.5956e+002 -4.5176e+002  2.4791e+002 61614 78836,78914,78862
 2.6000e+000 79035 -5.6893e+002 -5.3492e+002  2.1037e+002 61614 78810,78914,78836
 2.6000e+000 79012 -3.6736e+002 -4.4845e+002  2.1793e+002 61614 78784,78914,78810
 2.6000e+000 78989 -4.0091e+002 -5.1243e+002  4.0577e+002 61614 78862,78914,78888
 2.6000e+000 78966 -3.2170e+002 -5.7202e+002  2.4713e+002 61614 78784,78940,78914
 2.6000e+000 79208 -3.4852e+002 -8.1222e+002  6.6304e+000 61366 79081,79133,79107
 2.6000e+000 79185 -3.4355e+002 -5.6359e+002  2.2616e+002 61366 79081,79159,79133
 2.6000e+000 79358  2.5735e+001  1.2325e+001  3.7890e+001 60962 79231,79283,79257
 2.6000e+000 79335 -1.4704e+002 -3.4617e+002  9.2312e+001 60962 79231,79309,79283
 2.6000e+000 79608 -2.8057e+002 -6.2251e+002  2.1681e+002 60508 79631,79435,79409
 2.6000e+000 79585 -1.8408e+002 -6.3072e+002  1.4086e+002 60508 79703,79631,79409
 2.6000e+000 79562 -1.7176e+002 -3.1830e+002  1.9001e+002 60508 79703,79409,79383
 2.6000e+000 79539 -6.4926e+002 -5.0574e+002  4.0689e+002 60508 79435,79487,79461
 2.6000e+000 79657 -3.2586e+002 -7.6542e+002  3.8748e+002 60508 79487,79435,79631
 2.6000e+000 79680 -1.4572e+002 -5.8036e+002  1.9768e+002 60508 79487,79631,79513
 2.6000e+000 79729 -1.0442e+002 -3.4435e+002  6.6724e+001 60508 79513,79631,79703
 2.6000e+000 79752 -1.9257e+002 -3.0416e+002  2.3081e+001 60508 79513,79703,79383
 2.6000e+000 80390 -3.9913e+002 -4.4465e+002  3.7300e+002 59997 80413,80096,80018
 2.6000e+000 80367 -6.6448e+002 -5.3858e+002  4.2078e+002 59997 80413,80018,80226
 2.6000e+000 80344 -3.3974e+002 -3.7472e+002  2.2295e+002 59997 80096,80174,80148
 2.6000e+000 80321 -1.1887e+003 -8.2307e+002  5.7821e+002 59997 80018,80096,80070
 2.6000e+000 80298 -4.8625e+002 -4.2653e+002  2.0893e+002 59997 80096,80148,80122
 2.6000e+000 80275 -3.5714e+002 -4.2824e+002  3.0262e+002 59997 80174,80226,80200
 2.6000e+000 80252 -8.1977e+002 -5.4968e+002  1.9369e+002 59997 80018,80070,80044
 2.6000e+000 80439 -3.3039e+002 -5.0067e+002  2.7505e+002 59997 80174,80096,80413
 2.6000e+000 80462 -4.4247e+002 -4.6257e+002  2.9979e+002 59997 80174,80413,80226
 2.6000e+000 80840 -5.5592e+002 -4.8783e+002  2.3768e+002 59443 80863,80644,80618
 2.6000e+000 80817 -2.2087e+002 -3.6477e+002  2.7518e+002 59443 80863,80618,80566
 2.6000e+000 80794 -1.9776e+002 -3.2032e+002  3.3341e+002 59443 81007,80935,80670
 2.6000e+000 80771 -2.9560e+002 -3.3192e+002  2.9897e+002 59443 80566,80722,80696
 2.6000e+000 80748 -2.7722e+002 -4.8355e+002  3.1264e+002 59443 80566,80618,80592
 2.6000e+000 80889 -6.1468e+002 -4.4700e+002  3.9119e+002 59443 80935,80644,80863
 2.6000e+000 80912 -4.1698e+002 -3.8931e+002  3.2323e+002 59443 80696,80863,80566
 2.6000e+000 80961 -3.5296e+002 -3.7335e+002  3.9064e+002 59443 80696,80670,80935
 2.6000e+000 80984 -3.4278e+002 -3.1672e+002  3.5258e+002 59443 80696,80935,80863
 2.6000e+000 81033 -4.6695e+002 -6.1850e+002  4.6889e+002 59443 80644,80935,81007
 2.6000e+000 81360 -5.7602e+002 -2.8868e+002  2.5898e+002 59031 81383,81187,81161
 2.6000e+000 81337 -4.9083e+002 -3.3963e+002  7.1408e+001 59031 81455,81383,81161
 2.6000e+000 81314 -3.7084e+002 -2.4933e+002  1.1127e+002 59031 81455,81161,81135
 2.6000e+000 81291 -9.4623e+002 -2.3519e+002  4.2193e+002 59031 81187,81239,81213
 2.6000e+000 81409 -6.3018e+002 -5.5165e+002  3.4490e+002 59031 81239,81187,81383
 2.6000e+000 81432 -6.9879e+002 -4.2482e+002  8.2311e+001 59031 81239,81383,81265
 2.6000e+000 81481 -6.0263e+002 -1.6668e+002  1.1450e+002 59031 81265,81383,81455
 2.6000e+000 81504 -5.6827e+002 -1.5037e+002  1.2210e+002 59031 81265,81455,81135
 2.6000e+000 81835 -8.3925e+001 -2.5278e+002  1.0595e+002 58577 81610,81714,81636
 2.6000e+000 81812 -6.5647e+001 -3.0600e+002  1.1887e+002 58577 81610,81740,81714
 2.6000e+000 81789 -2.2388e+002 -3.0446e+002  2.9670e+001 58577 81636,81714,81688
 2.6000e+000 81766 -2.0640e+002 -2.8849e+002 -7.9068e+001 58577 81636,81688,81662
 2.6000e+000 81985 -1.1969e+002 -2.9093e+002  1.7872e+002 58030 81884,81936,81910
 2.6000e+000 81962 -2.4728e+002 -8.2358e+001  1.2097e+002 58030 81858,81936,81884
 2.6000e+000 82414 -1.0296e+002 -3.8070e+001  1.3332e+002 57690 82437,82169,82117
 2.6000e+000 82391 -1.3166e+002 -1.6595e+002  1.5265e+002 57690 82437,82117,82247
 2.6000e+000 82368  5.9243e+001  9.3666e+001  3.5146e+002 57690 82195,82247,82221
 2.6000e+000 82345 -1.0670e+002 -1.5518e+002  1.5566e+002 57690 82091,82247,82117
 2.6000e+000 82322 -1.7610e+002 -4.6357e+001  9.0315e+001 57690 82117,82169,82143
 2.6000e+000 82299 -1.2190e+002 -2.8867e+002  2.1550e+002 57690 82091,82273,82247
 2.6000e+000 82463 -1.4997e+002  1.4269e+001  1.9397e+002 57690 82195,82169,82437
 2.6000e+000 82486 -1.6186e+002 -7.7956e+001  1.9247e+002 57690 82195,82437,82247
 2.6000e+000 83041 -3.0005e+002 -3.1397e+002  2.1864e+002 57172 83064,82721,82695
 2.6000e+000 83018 -3.3181e+002 -3.2796e+002  3.1664e+002 57172 83064,82695,82851
 2.6000e+000 82995 -9.6330e+002 -4.5460e+002  4.3555e+002 57172 82669,82851,82695
 2.6000e+000 82972 -5.5742e+002 -3.6022e+002  2.9906e+002 57172 82773,82851,82825
 2.6000e+000 82949 -5.0524e+002 -3.8799e+002  4.1886e+002 57172 82773,82825,82799
 2.6000e+000 82926 -3.9277e+002 -2.4934e+002  1.7727e+002 57172 82721,82773,82747
 2.6000e+000 82903 -1.0342e+003 -4.1289e+002  5.9402e+002 57172 82669,82877,82851
 2.6000e+000 83090 -4.6014e+002 -3.7346e+002  2.0546e+002 57172 82773,82721,83064
 2.6000e+000 83113 -3.8527e+002 -3.4423e+002  2.9806e+002 57172 82773,83064,82851
 2.6000e+000 83747 -3.6383e+002 -3.1308e+002  2.2095e+002 56554 83770,83427,83401
 2.6000e+000 83724 -3.7236e+002 -3.9953e+002  2.5944e+002 56554 83842,83770,83401
 2.6000e+000 83701 -2.3907e+001 -3.1272e+002  9.2116e+001 56554 83842,83401,83583
 2.6000e+000 83678 -7.0871e+002 -5.8262e+002  5.3473e+002 56554 83914,83531,83505
 2.6000e+000 83655 -4.3524e+002 -3.2018e+002  1.4850e+002 56554 83531,83583,83557
 2.6000e+000 83632 -1.0789e+002 -1.1327e+002  7.4004e+001 56554 83375,83583,83401
 2.6000e+000 83609 -3.7626e+002 -3.2524e+002  2.4098e+002 56554 83427,83479,83453
 2.6000e+000 83796 -3.4480e+002 -3.0397e+002  2.2501e+002 56554 83479,83427,83770
 2.6000e+000 83819 -3.9355e+002 -2.8089e+002  2.4665e+002 56554 83479,83770,83505
 2.6000e+000 83868 -2.5033e+002 -1.9058e+002  3.1950e+002 56554 83505,83770,83842
 2.6000e+000 83891 -4.6333e+002 -3.5570e+002  3.9163e+002 56554 83914,83505,83842
 2.6000e+000 83940 -3.2975e+002 -5.7744e+002  3.0153e+002 56554 83583,83531,83914
 2.6000e+000 83963 -1.5573e+002 -5.4756e+002  2.2725e+002 56554 83583,83914,83842
 2.6000e+000 84341 -2.3901e+002 -8.2761e+002  2.7424e+002 56192 84067,84145,84119
 2.6000e+000 84318 -1.0504e+002 -6.7232e+002  2.0997e+002 56192 84067,84223,84145
 2.6000e+000 84295 -2.5590e+002 -7.1193e+002  4.7428e+001 56192 84145,84223,84197
 2.6000e+000 84272 -1.3361e+002 -8.7803e+002  3.5009e+002 56192 84067,84119,84093
 2.6000e+000 84249 -4.7554e+002 -2.0275e+002  1.5322e+002 56192 84145,84197,84171
 2.6000e+000 84611 -1.9006e+002 -4.7802e+002  3.0724e+002 55538 84386,84490,84412
 2.6000e+000 84588 -1.8267e+002 -4.1005e+002  2.9222e+002 55538 84386,84516,84490
 2.6000e+000 84565 -4.0141e+002 -5.6951e+002  2.9841e+002 55538 84412,84490,84464
 2.6000e+000 84542 -2.2464e+002 -5.3585e+002  1.8029e+002 55538 84412,84464,84438
 2.6000e+000 84942 -4.3876e+002 -3.6965e+002  3.1559e+002 55084 84769,84847,84795
 2.6000e+000 84919 -4.2091e+002 -4.1200e+002  2.6712e+002 55084 84717,84847,84769
 2.6000e+000 84896 -4.9112e+002 -5.4894e+002  2.4251e+002 55084 84717,84769,84743
 2.6000e+000 84873 -5.0372e+002 -1.8288e+002  2.6730e+002 55084 84795,84847,84821
 2.6000e+000 85271 -2.8909e+001 -1.1561e+002  1.7847e+002 54580 85294,85098,85072
 2.6000e+000 85248 -4.3822e+002 -2.5683e+002  2.6963e+002 54580 85294,85072,85176
 2.6000e+000 85225 -6.4612e+002 -1.1570e+001  8.3198e+001 54580 85124,85176,85150
 2.6000e+000 85202 -9.4711e+001 -2.2300e+002  6.8049e+001 54580 85046,85176,85072
 2.6000e+000 85320 -3.9101e+002 -1.3815e+002  2.2535e+002 54580 85124,85098,85294
 2.6000e+000 85343 -6.0750e+002 -1.2148e+002  2.8765e+002 54580 85124,85294,85176
 2.6000e+000 85542 -2.7854e+002 -4.5808e+002  1.9605e+002 53976 85565,85444,85418
 2.6000e+000 85519 -2.4589e+002 -3.9658e+002  2.0828e+002 53976 85565,85418,85366
 2.6000e+000 85496 -2.0703e+002 -3.6563e+002  1.5680e+002 53976 85366,85418,85392
 2.6000e+000 85591 -4.0197e+002 -4.5443e+002  1.0150e+002 53976 85470,85444,85565
 2.6000e+000 85614 -2.7332e+002 -2.1145e+002  1.4925e+002 53976 85470,85565,85366
 2.6000e+000 85960 -4.7274e+002 -5.3998e+002  2.7770e+002 53572 85663,85715,85689
 2.6000e+000 85937 -4.3445e+002 -5.2302e+002  2.2225e+002 53572 85983,85715,85663
 2.6000e+000 85914 -6.7403e+002 -6.6207e+002  2.8393e+002 53572 86055,85983,85663
 2.6000e+000 85891 -6.3141e+002 -6.5764e+002  4.0384e+002 53572 86055,85663,85637
 2.6000e+000 85868 -9.6410e+002 -1.3307e+003  5.0850e+002 53572 85637,85793,85767
 2.6000e+000 85845 -1.2617e+003 -3.9342e+002  2.5182e+002 53572 85637,85819,85793
 2.6000e+000 86009 -6.4857e+002 -4.3172e+002  2.0982e+002 53572 85741,85715,85983
 2.6000e+000 86032 -7.9333e+002 -4.5860e+002  2.6927e+002 53572 85741,85983,85767
 2.6000e+000 86081 -5.8154e+002 -3.8615e+002  2.5909e+002 53572 85767,85983,86055
 2.6000e+000 86104 -6.0688e+002 -5.1216e+002  3.7104e+002 53572 85767,86055,85637
 2.6000e+000 86693 -8.0598e+002 -1.2484e+002  3.9937e+002 52946 86474,86526,86500
 2.6000e+000 86670 -1.5469e+002 -4.1691e+001  1.0400e+002 52946 86396,86526,86474
 2.6000e+000 86647 -5.9863e+002 -4.5474e+002  2.7464e+002 52946 86370,86526,86396
 2.6000e+000 86624  7.0008e+000  1.0091e+001  1.2931e+001 52946 86422,86474,86448
 2.6000e+000 86601 -1.8125e+002 -3.6970e+001  8.2995e+001 52946 86396,86474,86422
 2.6000e+000 86578 -5.6998e+002 -1.0766e+002  1.8927e+002 52946 86370,86552,86526
 2.6000e+000 87376 -4.3965e+002 -3.9900e+002  2.0322e+002 52420 87007,87085,87033
 2.6000e+000 87353 -3.7187e+002 -3.5260e+002  1.7959e+002 52420 87007,87163,87085
 2.6000e+000 87330 -5.0406e+002 -3.4219e+002  2.1523e+002 52420 87007,87189,87163
 2.6000e+000 87307 -4.0803e+002 -3.7017e+002  2.2244e+002 52420 87033,87085,87059
 2.6000e+000 87284 -4.6487e+002 -3.9873e+002  6.5121e+001 52420 87085,87137,87111
 2.6000e+000 87261 -3.3366e+002 -3.8124e+002  7.6159e+001 52420 87085,87163,87137
 2.6000e+000 87238 -3.7543e+002 -4.3635e+002  4.2136e+002 52420 86955,87189,87007
 2.6000e+000 87215 -2.4275e+002 -2.5043e+002  2.4522e+002 52420 86955,87007,86981
 2.6000e+000 87624 -2.6368e+002 -4.9244e+002  1.5512e+002 51916 87451,87503,87477
 2.6000e+000 87601 -3.0330e+002 -6.2456e+002  1.3767e+002 51916 87425,87503,87451
 2.6000e+000 87578 -2.8421e+002 -6.1795e+002  1.3831e+002 51916 87425,87529,87503
 2.6000e+000 87555 -1.9631e+002 -4.6762e+002  1.7523e+002 51916 87399,87529,87425
 2.6000e+000 88053 -4.2732e+002 -3.6347e+002  1.4504e+002 51568 87782,87834,87808
 2.6000e+000 88030 -5.3424e+002 -3.6582e+002  2.5341e+002 51568 88076,87782,87886
 2.6000e+000 88007 -4.8304e+002 -2.4765e+002  2.1465e+002 51568 88076,87886,87860
 2.6000e+000 87984 -6.4199e+002 -5.0799e+002  2.0631e+002 51568 87756,87886,87782
 2.6000e+000 87961 -4.8243e+002 -4.0390e+002  4.0867e+002 51568 87756,87912,87886
 2.6000e+000 87938 -5.5042e+002 -2.6209e+002  3.8570e+002 51568 87730,87912,87756
 2.6000e+000 88102 -4.5906e+002 -4.2341e+002  1.7396e+002 51568 87834,87782,88076
 2.6000e+000 88125 -4.1251e+002 -3.4479e+002  1.3957e+002 51568 87834,88076,87860
 2.6000e+000 88324 -3.7768e+002 -3.8812e+002  1.4032e+002 51164 88419,88347,88200
 2.6000e+000 88301 -2.6516e+002 -3.8803e+002  2.0305e+002 51164 88347,88148,88252
 2.6000e+000 88278 -4.8848e+002 -6.4290e+002  1.1613e+002 51164 88419,88200,88174
 2.6000e+000 88373 -2.5823e+002 -3.1752e+002  1.7735e+002 51164 88226,88200,88347
 2.6000e+000 88396 -2.0781e+001 -3.8036e+002  1.7171e+002 51164 88226,88347,88252
 2.6000e+000 88445 -4.0000e+002 -4.1021e+002  2.8223e+002 51164 88148,88347,88419
 2.6000e+000 88468 -3.9034e+002 -3.8661e+002  2.7930e+002 51164 88148,88419,88174
 2.6000e+000 88738 -3.4736e+002 -4.8004e+002  1.3028e+002 50560 88513,88617,88539
 2.6000e+000 88715 -2.3593e+002 -5.5337e+002  8.8397e+001 50560 88513,88643,88617
 2.6000e+000 88692 -1.5179e+002 -5.6152e+001  1.4924e+002 50560 88539,88591,88565
 2.6000e+000 88669 -1.2963e+002 -3.1752e+002  2.0202e+002 50560 88539,88617,88591
 2.6000e+000 88939 -4.4613e+002 -1.9438e+002  2.2863e+002 50106 88962,88789,88763
 2.6000e+000 88916 -3.2209e+002 -2.3916e+002  1.8150e+002 50106 88962,88763,88841
 2.6000e+000 88893 -4.5199e+002 -3.2538e+002  2.8501e+002 50106 88763,88867,88841
 2.6000e+000 88988 -3.2986e+002 -2.5121e+002  1.4740e+002 50106 88815,88789,88962
 2.6000e+000 89011 -2.6391e+002 -1.9093e+002  2.0227e+002 50106 89034,88962,88841
 2.6000e+000 89060 -1.7736e+002 -6.9825e+001  5.1843e+001 50106 88815,88962,89034
 2.6000e+000 89472 -2.4738e+002 -5.5679e+002  7.4754e+001 49666 89273,89351,89325
 2.6000e+000 89449 -3.2148e+002 -3.0645e+002  1.6721e+002 49666 89273,89377,89351
 2.6000e+000 89426 -2.8958e+002 -4.3913e+002  3.1349e+002 49666 89273,89325,89299
 2.6000e+000 89403 -3.3561e+002 -2.6373e+002  1.8983e+002 49666 89247,89377,89273
 2.6000e+000 89978 -3.9006e+002 -7.0294e+002 -2.4233e+001 49205 89681,89837,89733
 2.6000e+000 89955 -7.6279e+001 -3.4752e+002  1.6434e+002 49205 89655,89837,89681
 2.6000e+000 89932 -5.7895e+002 -6.8526e+002  2.7585e+002 49205 89785,89837,89811
 2.6000e+000 89909 -1.8002e+002 -4.9578e+002  1.1966e+002 49205 89733,89837,89785
 2.6000e+000 89886 -5.1308e+002 -6.0171e+002  2.2909e+002 49205 89733,89785,89759
 2.6000e+000 89863 -1.4614e+002 -3.1850e+002 -1.9687e+002 49205 89681,89733,89707
 2.6000e+000 90177 -2.9428e+002 -4.2804e+002  1.8084e+002 48865 90530,90200,90053
 2.6000e+000 90154 -2.2351e+002 -4.0767e+002  1.9415e+002 48865 90402,90200,90001
 2.6000e+000 90131 -3.4968e+002 -3.6163e+002  1.8534e+002 48865 90530,90053,90027
 2.6000e+000 90226 -3.4262e+002 -4.1119e+002  3.0054e+002 48865 90079,90053,90200
 2.6000e+000 90249 -2.2656e+002 -3.3286e+002  2.3584e+002 48865 90272,90200,90105
 2.6000e+000 90298 -2.0210e+002 -3.1344e+002  2.4447e+002 48865 90079,90200,90272
 2.6000e+000 90428 -1.5110e+002 -1.1183e+002  1.4844e+002 48865 90105,90200,90402
 2.6000e+000 90556 -3.4359e+002 -4.7248e+002  1.5978e+002 48865 90001,90200,90530
 2.6000e+000 90579 -4.3362e+002 -4.2110e+002  1.5951e+002 48865 90001,90530,90027
 2.6000e+000 90827 -3.5715e+002 -3.6899e+002  2.0856e+002 48404 90850,90654,90628
 2.6000e+000 90804 -3.8390e+002 -4.2888e+002  3.1095e+002 48404 90850,90628,90732
 2.6000e+000 90781 -2.6251e+002 -2.7633e+002  1.6979e+002 48404 90680,90732,90706
 2.6000e+000 90758 -5.4086e+002 -2.4412e+002  3.1823e+002 48404 90602,90732,90628
 2.6000e+000 90876 -3.6374e+002 -2.1349e+002  1.7788e+002 48404 90680,90654,90850
 2.6000e+000 90899 -3.8610e+002 -3.3612e+002  2.5723e+002 48404 90680,90850,90732
 2.6000e+000 91000 -2.4082e+002 -5.7151e+002  1.6858e+002 48156 90922,90974,90948
 2.6000e+000 91250 -1.6669e+002 -3.9099e+002  8.2748e+001 47752 91051,91103,91077
 2.6000e+000 91227 -3.0553e+002 -4.6050e+002  1.1828e+002 47752 91025,91103,91051
 2.6000e+000 91204 -4.6816e+002 -5.7831e+002  2.0999e+002 47752 91025,91155,91103
 2.6000e+000 91181 -4.3074e+002 -5.5827e+002  2.6070e+002 47752 91103,91155,91129
 2.6000e+000 91402 -2.9865e+002 -3.3212e+002  2.5690e+002 47191 91425,91301,91275
 2.6000e+000 91379 -2.6803e+002 -3.2116e+002  2.7665e+002 47191 91497,91425,91275
 2.6000e+000 91451 -3.2763e+002 -1.6972e+002  1.4921e+002 47191 91327,91301,91425
 2.6000e+000 91474 -3.9903e+002 -3.7280e+002  2.9149e+002 47191 91327,91425,91353
 2.6000e+000 91523 -3.7291e+002 -7.0512e+002  2.8935e+002 47191 91353,91425,91497
 2.6000e+000 91854 -2.8488e+002 -2.2476e+002  8.6971e+001 46744 91949,91877,91707
 2.6000e+000 91831 -2.4568e+002 -4.3666e+002  8.6835e+001 46744 91877,91655,91629
 2.6000e+000 91808 -2.8097e+002 -2.0956e+002  7.8027e+001 46744 91949,91707,91681
 2.6000e+000 91785 -6.5258e+002 -4.6526e+002 -1.1354e+002 46744 91629,91759,91733
 2.6000e+000 91903 -4.6869e+002 -3.9921e+002  1.6231e+002 46744 91733,91707,91877
 2.6000e+000 91926 -2.5048e+002 -5.0655e+002  8.5064e+001 46744 91733,91877,91629
 2.6000e+000 91975 -2.3717e+002 -4.1004e+002  1.7493e+002 46744 91655,91877,91949
 2.6000e+000 91998 -9.4860e+001 -3.0209e+002  1.2591e+002 46744 91655,91949,91681
 2.6000e+000 92378 -2.9249e+002 -8.3350e+001  1.7327e+002 46090 92130,92208,92182
 2.6000e+000 92355 -3.9288e+002 -1.2702e+002  1.6333e+002 46090 92104,92208,92130
 2.6000e+000 92332 -1.8267e+002 -2.8577e+002  1.5028e+002 46090 92104,92260,92208
 2.6000e+000 92309 -1.4397e+002 -4.2817e+001  1.1813e+002 46090 92208,92260,92234
 2.6000e+000 92286 -4.8700e+002 -1.4105e+002  2.0785e+002 46090 92130,92182,92156
 2.6000e+000 92626 -2.7499e+002 -3.4940e+002  1.5214e+002 45693 92721,92649,92505
 2.6000e+000 92603 -2.9834e+002 -3.5087e+002  3.0338e+002 45693 92649,92453,92427
 2.6000e+000 92580 -3.0776e+002 -2.6480e+002  1.4608e+002 45693 92721,92505,92479
 2.6000e+000 92557 -4.9902e+002 -4.8957e+002  3.7550e+002 45693 92401,92531,92427
 2.6000e+000 92675 -4.4665e+002 -3.4886e+002  1.8940e+002 45693 92531,92505,92649
 2.6000e+000 92698 -4.8631e+002 -4.2908e+002  3.9254e+002 45693 92531,92649,92427
 2.6000e+000 92747 -2.8055e+002 -2.5521e+002  1.4966e+002 45693 92453,92649,92721
 2.6000e+000 92770 -2.0954e+002 -1.7216e+001  1.7751e+002 45693 92453,92721,92479
 2.6000e+000 93172 -2.0229e+002 -3.4526e+002  3.0566e+002 45331 92898,93028,92924
 2.6000e+000 93149 -1.2087e+002 -2.9769e+002  2.0645e+002 45331 92898,93054,93028
 2.6000e+000 93126 -2.8611e+002 -2.2284e+002  3.4325e+002 45331 92924,93002,92976
 2.6000e+000 93103 -1.1818e+002 -3.0837e+002  2.9879e+002 45331 92924,93028,93002
 2.6000e+000 93080 -3.0788e+002 -3.6179e+002  3.5567e+002 45331 92924,92976,92950
 2.6000e+000 93518 -5.9244e+002 -6.2739e+002  3.3635e+002 44820 93613,93273,93247
 2.6000e+000 93495 -4.3409e+002 -4.5599e+002  2.0581e+002 44820 93685,93541,93247
 2.6000e+000 93472 -4.6820e+002 -2.9480e+002  1.7057e+002 44820 93541,93195,93377
 2.6000e+000 93449 -4.6481e+002 -4.1088e+002  1.7075e+002 44820 93685,93247,93221
 2.6000e+000 93426 -4.0903e+002 -5.4770e+002  2.9556e+002 44820 93299,93377,93351
 2.6000e+000 93403 -3.5100e+002 -3.5964e+002  3.4822e+002 44820 93299,93351,93325
 2.6000e+000 93567 -3.8450e+002 -6.0313e+002  1.5222e+002 44820 93613,93247,93541
 2.6000e+000 93590 -3.9551e+002 -4.7406e+002  9.6603e+001 44820 93299,93541,93377
 2.6000e+000 93639 -3.7276e+002 -7.3793e+002  2.0791e+002 44820 93299,93273,93613
 2.6000e+000 93662 -4.0868e+002 -7.3070e+002  1.7188e+002 44820 93299,93613,93541
 2.6000e+000 93711 -4.5380e+002 -3.4954e+002  1.3475e+002 44820 93195,93541,93685
 2.6000e+000 93734 -3.9828e+002 -1.5955e+002  1.0825e+002 44820 93195,93685,93221
 2.6000e+000 94163 -4.2479e+002 -4.4015e+002  1.8795e+002 44237 94258,94186,93996
 2.6000e+000 94140 -4.7462e+002 -5.0640e+002  1.1740e+002 44237 94330,94022,93996
 2.6000e+000 94117 -4.8795e+002 -4.5094e+002  1.4857e+002 44237 94186,93918,93866
 2.6000e+000 94094 -3.8120e+002 -3.4129e+002  1.9639e+002 44237 94258,93996,93970
 2.6000e+000 94071 -4.5052e+002 -2.5214e+002  1.8699e+002 44237 94402,93944,93918
 2.6000e+000 94048 -2.4204e+002 -3.7260e+002  1.4662e+002 44237 93866,93918,93892
 2.6000e+000 94212 -4.7475e+002 -5.1333e+002  1.5089e+002 44237 94330,93996,94186
 2.6000e+000 94235 -4.6717e+002 -4.1643e+002  1.6819e+002 44237 93840,94186,93866
 2.6000e+000 94284 -4.3692e+002 -3.4179e+002  1.3180e+002 44237 93918,94186,94258
 2.6000e+000 94307 -4.2160e+002 -2.6904e+002  1.4909e+002 44237 94402,93918,94258
 2.6000e+000 94356 -4.9926e+002 -2.1051e+002  2.1947e+001 44237 93840,94022,94330
 2.6000e+000 94379 -4.4968e+002 -4.4907e+002  1.6190e+002 44237 93840,94330,94186
 2.6000e+000 94428 -4.9521e+002 -3.2777e+002  2.0834e+002 44237 93970,93944,94402
 2.6000e+000 94451 -4.5973e+002 -3.4169e+002  1.6366e+002 44237 93970,94402,94258
 2.6000e+000 94908 -4.1693e+002 -5.9471e+002  8.2568e+001 43890 94660,94790,94712
 2.6000e+000 94885 -2.1096e+002 -2.0325e+002  2.0373e+002 43890 94634,94790,94660
 2.6000e+000 94862 -4.0893e+002 -3.6316e+002  1.3497e+002 43890 94712,94764,94738
 2.6000e+000 94839 -3.0456e+002 -3.6533e+002  1.6813e+002 43890 94712,94790,94764
 2.6000e+000 94816 -5.0105e+002 -4.0453e+002 -1.4707e+002 43890 94660,94712,94686
 2.6000e+000 95414 -2.7057e+002 -1.4066e+002  1.2893e+002 43186 95437,95143,95117
 2.6000e+000 95391 -3.2501e+002 -3.8345e+002  1.5333e+002 43186 95437,95117,95091
 2.6000e+000 95368 -8.7224e+001 -1.4895e+002  1.6410e+002 43186 95143,95221,95195
 2.6000e+000 95345 -5.1555e+002 -3.5833e+002  4.1620e+002 43186 95091,95273,95221
 2.6000e+000 95322 -3.1273e+002 -1.9358e+002  2.0552e+002 43186 95221,95273,95247
 2.6000e+000 95299 -1.6073e+002 -4.0116e+001  3.1209e+001 43186 95143,95195,95169
 2.6000e+000 95463 -2.4793e+002 -3.0512e+002  2.4805e+002 43186 95221,95143,95437
 2.6000e+000 95486 -2.7467e+002 -4.9542e+002  2.8107e+002 43186 95221,95437,95091
 2.6000e+000 96041 -5.1790e+002 -4.6924e+002  1.5083e+002 42782 95695,95851,95799
 2.6000e+000 96018 -4.7372e+002 -5.8916e+002  1.4980e+002 42782 95669,95851,95695
 2.6000e+000 95995 -4.6175e+002 -2.6565e+002  1.5948e+002 42782 95695,95747,95721
 2.6000e+000 95972 -3.5694e+002 -3.9934e+002  1.4162e+002 42782 95695,95799,95747
 2.6000e+000 95949 -3.1800e+002 -2.1942e+002  8.9238e+001 42782 95747,95799,95773
 2.6000e+000 95926 -6.1925e+002 -5.9424e+002  2.1136e+002 42782 95799,95851,95825
 2.6000e+000 95903 -6.8197e+002 -6.9915e+002  1.9579e+002 42782 95669,95877,95851
 2.6000e+000 96370 -4.7826e+002 -6.2871e+002  2.9692e+002 42420 96197,96275,96223
 2.6000e+000 96347 -4.5327e+002 -5.6444e+002  3.0029e+002 42420 96145,96275,96197
 2.6000e+000 96324 -4.5130e+002 -3.9524e+002  2.9927e+002 42420 96145,96197,96171
 2.6000e+000 96301 -3.2847e+002 -4.8459e+002  1.7030e+002 42420 96223,96275,96249
 2.6000e+000 96699 -2.3353e+002 -5.6453e+002 -3.1385e+001 41816 96474,96578,96526
 2.6000e+000 96676 -2.5493e+002 -4.8410e+002 -1.3565e+002 41816 96474,96604,96578
 2.6000e+000 96653 -1.5579e+002 -3.5474e+002  4.5684e+001 41816 96526,96578,96552
 2.6000e+000 96630 -2.2246e+002 -4.7698e+002  2.5044e+000 41816 96474,96526,96500
 2.6000e+000 96947 -2.1840e+002 -5.0985e+002  3.8769e+001 41212 96722,96800,96748
 2.6000e+000 96924 -2.6702e+002 -5.2787e+002  6.0081e+001 41212 96722,96826,96800
 2.6000e+000 96901 -4.6990e+002 -6.3692e+002  1.0315e+002 41212 96722,96852,96826
 2.6000e+000 96878 -9.8413e+001 -4.5486e+002  5.4261e+001 41212 96748,96800,96774
 2.6000e+000 97097 -2.3240e+002 -4.8094e+001  2.3289e+002 40793 97120,97022,96996
 2.6000e+000 97074 -4.5251e+002 -4.9737e+002  1.4344e+002 40793 97192,97120,96996
 2.6000e+000 97146 -1.6946e+002 -4.1126e+002  2.0749e+002 40793 97324,97120,97048
 2.6000e+000 97169 -1.5063e+002 -6.8334e+002  1.9815e+002 40793 97048,97120,96970
 2.6000e+000 97218 -7.1964e+001 -3.3539e+002  1.4923e+002 40793 96970,97120,97192
 2.6000e+000 97350 -1.6946e+002 -4.1126e+002  2.0749e+002 40793 97022,97120,97324
 2.6000e+000 97878 -2.6695e+002 -5.2730e+002  1.1984e+002 40446 97901,97607,97555
 2.6000e+000 97855 -2.5345e+002 -3.5843e+002  1.1954e+002 40446 97973,97901,97555
 2.6000e+000 97832 -1.4725e+002 -2.9327e+002  9.1624e+001 40446 97973,97555,97737
 2.6000e+000 97809 -4.2115e+002 -5.7801e+002  2.0055e+002 40446 97633,97685,97659
 2.6000e+000 97786 -2.9127e+002 -4.3613e+002  1.3004e+002 40446 97633,97711,97685
 2.6000e+000 97763 -2.5674e+002 -5.9081e+002  1.4433e+002 40446 97555,97607,97581
 2.6000e+000 97927 -2.8468e+002 -6.5598e+002 -2.4092e+001 40446 97633,97607,97901
 2.6000e+000 97950 -2.4874e+002 -5.1501e+002  1.0868e+002 40446 97633,97901,97711
 2.6000e+000 97999 -1.0497e+002 -4.8200e+002  1.7176e+002 40446 97711,97901,97973
 2.6000e+000 98022 -2.1988e+001 -4.1543e+002  1.4246e+002 40446 97711,97973,97737
 2.6000e+000 98449 -1.8659e+002 -1.3395e+002  1.2314e+002 39935 98152,98204,98178
 2.6000e+000 98426 -2.5453e+002 -1.7507e+002  9.2917e+001 39935 98152,98230,98204
 2.6000e+000 98403 -3.7606e+002 -2.3234e+002  1.9924e+002 39935 98152,98256,98230
 2.6000e+000 98380 -3.0491e+002 -2.7047e+002  2.0901e+002 39935 98126,98256,98152
 2.6000e+000 98357 -4.0751e+002 -5.4619e+002  2.1498e+002 39935 98126,98282,98256
 2.6000e+000 98334 -2.2628e+002 -7.3451e+002  2.7178e+002 39935 98126,98308,98282
 2.6000e+000 98746 -6.5919e+002 -5.4231e+002  2.0480e+002 39531 98498,98602,98524
 2.6000e+000 98723 -4.2486e+002 -4.9318e+002  1.9347e+002 39531 98472,98602,98498
 2.6000e+000 98700 -6.9159e+002 -3.1374e+002  1.2667e+002 39531 98524,98602,98576
 2.6000e+000 98677 -3.5242e+002 -4.6431e+002  1.8199e+002 39531 98472,98628,98602
 2.6000e+000 98654 -7.8880e+002 -7.6999e+002 -1.8911e+002 39531 98524,98576,98550
 2.6000e+000 99224 -6.5622e+002 -3.7813e+002  3.9598e+002 39027 99247,98956,98930
 2.6000e+000 99201 -5.8088e+002 -3.3732e+002  1.8963e+002 39027 99247,98930,98878
 2.6000e+000 99178 -4.9761e+002 -3.9571e+002  2.4497e+002 39027 99319,98982,98956
 2.6000e+000 99155 -5.1448e+002 -2.8572e+002  1.5154e+002 39027 98852,99060,98878
 2.6000e+000 99132 -7.2139e+002 -3.2478e+002  1.7539e+002 39027 98878,98930,98904
 2.6000e+000 99109 -4.1835e+002 -7.1853e+002  3.4775e+002 39027 98982,99060,99034
 2.6000e+000 99086 -5.0570e+002 -8.0699e+002  4.7033e+002 39027 98982,99034,99008
 2.6000e+000 99273 -4.5596e+002 -3.1584e+002  2.6477e+002 39027 99319,98956,99247
 2.6000e+000 99296 -4.8391e+002 -3.0302e+002  1.5411e+002 39027 99060,99247,98878
 2.6000e+000 99345 -4.9339e+002 -4.3391e+002  2.0306e+002 39027 99060,98982,99319
 2.6000e+000 99368 -4.9555e+002 -4.1442e+002  2.1592e+002 39027 99060,99319,99247
 2.6000e+000 99923 -4.4760e+002 -4.0885e+002  2.2472e+002 38523 99946,99655,99603
 2.6000e+000 99900 -3.9092e+002 -3.7947e+002  2.3986e+002 38523 99946,99603,99759
 2.6000e+000 99877 -2.5276e+002 -5.2371e+002  2.6599e+002 38523 100018,99707,99681
 2.6000e+000 99854 -4.2078e+002 -2.6370e+002  2.2709e+002 38523 99551,99759,99603
 2.6000e+000 99831 -4.3849e+002 -2.8873e+002  2.3751e+002 38523 99551,99603,99577
 2.6000e+000 99808 -4.2678e+002 -6.2123e+002  1.6506e+002 38523 99707,99759,99733
 2.6000e+000 99785 -3.3077e+002 -3.3842e+002  1.8962e+002 38523 99603,99655,99629
 2.6000e+000 99972 -3.6158e+002 -2.0759e+002  2.3218e+002 38523 99681,99655,99946
 2.6000e+000 99995 -2.9351e+002 -3.0605e+002  3.0669e+002 38523 100018,99681,99946
 2.6000e+000 100044 -3.2581e+002 -6.1052e+002  1.6628e+002 38523 99759,99707,100018
 2.6000e+000 100067 -4.4254e+002 -5.2706e+002  2.1070e+002 38523 99759,100018,99946
 2.6000e+000 100467 -8.6329e+001 -2.0164e+002  6.8966e+001 38125 100219,100349,100323
 2.6000e+000 100444 -8.1678e+001 -1.9182e+002  7.0650e+001 38125 100193,100349,100219
 2.6000e+000 100421 -8.0407e+001 -2.0109e+002  7.1936e+001 38125 100245,100323,100297
 2.6000e+000 100398 -8.5444e+001 -2.0106e+002  7.0211e+001 38125 100219,100323,100245
 2.6000e+000 100375 -1.8348e+002 -2.5237e+002  5.1819e+001 38125 100245,100297,100271
 2.6000e+000 100666 -4.5833e+002 -7.6037e+002  1.9627e+002 37607 100689,100568,100542
 2.6000e+000 100643 -3.2868e+002 -3.6255e+002  1.6246e+002 37607 100689,100542,100490
 2.6000e+000 100620 -1.8842e+002 -2.7689e+002  9.3538e+001 37607 100490,100542,100516
 2.6000e+000 100715 -3.2164e+002 -3.7694e+002  1.2157e+002 37607 100594,100568,100689
 2.6000e+000 100738 -4.0595e+002 -2.6945e+002  1.2648e+002 37607 100594,100689,100490
 2.6000e+000 100937 -2.8441e+002 -2.8117e+002  2.2462e+002 37017 100960,100813,100787
 2.6000e+000 100914 -1.9506e+002 -2.7972e+002  1.2754e+002 37017 100960,100787,100761
 2.6000e+000 100891 -5.1537e+002 -2.1532e+002  2.5877e+002 37017 100813,100865,100839
 2.6000e+000 100986 -4.0528e+002 -3.8872e+002  3.2318e+002 37017 100865,100813,100960
 2.6000e+000 101009 -2.3101e+002 -3.2624e+002  2.1890e+002 37017 100865,100960,100761
 2.6000e+000 101519 -3.6287e+002 -2.0030e+002  6.7208e+001 36613 101222,101274,101248
 2.6000e+000 101496 -1.6725e+002 -1.6860e+002  8.6370e+001 36613 101222,101352,101274
 2.6000e+000 101473 -1.0302e+002 -3.2183e+002 -2.6715e+001 36613 101274,101352,101326
 2.6000e+000 101450 -2.7318e+002 -2.2500e+002  6.1392e+001 36613 101222,101378,101352
 2.6000e+000 101427 -1.1600e+002 -5.4705e+002 -1.1446e+001 36613 101274,101326,101300
 2.6000e+000 101404 -2.6587e+002 -2.5060e+002  1.2998e+002 36613 101196,101378,101222
 2.6000e+000 101718 -3.6296e+002 -3.5844e+002  3.8470e+002 36308 101594,101646,101620
 2.6000e+000 101695 -3.8191e+002 -2.3358e+002  2.4923e+002 36308 101568,101646,101594
 2.6000e+000 101672 -2.6954e+002 -2.6695e+002  2.6757e+002 36308 101542,101646,101568
 2.6000e+000 102098 -3.5180e+002 -2.9001e+002  1.6865e+002 35918 102121,101954,101876
 2.6000e+000 102075 -3.1800e+002 -3.9880e+002  1.1610e+002 35918 102121,101876,101824
 2.6000e+000 102052 -3.0836e+002 -2.7150e+002  1.2503e+002 35918 101876,101954,101928
 2.6000e+000 102029 -4.5502e+002 -1.4110e+002  1.5371e+002 35918 101876,101928,101902
 2.6000e+000 102006 -3.3039e+002 -4.8565e+002  2.0815e+002 35918 101824,101876,101850
 2.6000e+000 102147 -2.9716e+002 -3.9208e+002  2.2073e+002 35918 101980,101954,102121
 2.6000e+000 102170 -2.8675e+002 -5.2790e+002  1.5240e+002 35918 101980,102121,101824
 2.6000e+000 102489 -4.0313e+002 -9.4030e+002  2.9411e+002 35514 102241,102345,102267
 2.6000e+000 102466 -5.4975e+002 -1.0020e+003  3.0955e+002 35514 102215,102345,102241
 2.6000e+000 102443 -4.4637e+002 -1.0811e+003  3.2365e+002 35514 102215,102371,102345
 2.6000e+000 102420 -3.2398e+002 -7.7146e+002  3.4231e+002 35514 102267,102345,102293
 2.6000e+000 102397 -1.8720e+002 -4.9430e+002  3.9318e+002 35514 102293,102345,102319
 2.6000e+000 102820 -6.6949e+002 -4.2353e+002  7.6681e+001 35224 102843,102699,102647
 2.6000e+000 102797 -5.2539e+002 -4.1461e+002  1.6059e+002 35224 102971,102725,102699
 2.6000e+000 102774 -7.5267e+002 -4.5236e+002  3.7970e+002 35224 102595,102725,102621
 2.6000e+000 102751 -2.0687e+002 -2.7626e+002  1.9017e+002 35224 102647,102699,102673
 2.6000e+000 102869 -5.1582e+002 -3.5564e+002  1.3847e+002 35224 102971,102699,102843
 2.6000e+000 102997 -4.9072e+002 -4.6433e+002  1.5123e+002 35224 102621,102725,102971
 2.6000e+000 103020 -4.9713e+002 -4.2819e+002  1.2386e+002 35224 102621,102971,102843
 2.6000e+000 103349 -5.1906e+002 -3.7380e+002  2.3948e+002 34820 103150,103228,103176
 2.6000e+000 103326 -4.4357e+002 -4.4456e+002  2.2377e+002 34820 103124,103228,103150
 2.6000e+000 103303 -4.1914e+002 -4.2788e+002  4.1463e+002 34820 103176,103228,103202
 2.6000e+000 103280 -3.0901e+002 -3.8268e+002  2.9322e+002 34820 103124,103254,103228
 2.6000e+000 103806 -3.2726e+002 -3.2539e+002  9.1381e+001 34530 103558,103662,103636
 2.6000e+000 103783 -3.7842e+002 -3.0144e+002  1.4931e+002 34530 103558,103688,103662
 2.6000e+000 103760 -4.3694e+002 -4.0969e+002  1.2528e+002 34530 103532,103688,103558
 2.6000e+000 103737 -1.9752e+002 -3.6309e+002  7.9955e+001 34530 103584,103636,103610
 2.6000e+000 103714 -6.1849e+002 -3.7586e+002  1.0343e+002 34530 103558,103636,103584
 2.6000e+000 104263 -2.4853e+002 -3.0091e+002  2.0238e+002 34019 103989,104119,104015
 2.6000e+000 104240 -1.9456e+002 -2.7355e+002  2.2064e+002 34019 103989,104145,104119
 2.6000e+000 104217 -2.5430e+002 -3.4865e+002  1.2394e+002 34019 104015,104067,104041
 2.6000e+000 104194 -2.8557e+002 -3.7402e+002  1.8089e+002 34019 104015,104119,104067
 2.6000e+000 104171 -2.7352e+002 -2.4949e+002  1.6879e+002 34019 104067,104119,104093
 2.6000e+000 104641 -2.9850e+002 -2.5376e+002  1.3504e+002 33351 104419,104497,104445
 2.6000e+000 104618 -1.9599e+002 -1.4979e+002  1.9222e+002 33351 104393,104497,104419
 2.6000e+000 104595 -3.5976e+002 -2.3988e+002  6.0216e+001 33351 104367,104497,104393
 2.6000e+000 104572 -3.4521e+002 -3.7322e+002  1.9627e+002 33351 104445,104497,104471
 2.6000e+000 104549 -3.3974e+002 -4.1879e+002  1.0544e+001 33351 104367,104523,104497
 2.6000e+000 105019 -3.3697e+002 -7.2602e+002  3.8983e+002 32861 104823,104901,104875
 2.6000e+000 104996 -4.8291e+002 -8.7627e+002  3.2472e+002 32861 104745,104901,104823
 2.6000e+000 104973 -4.7839e+002 -7.8790e+002  3.4327e+002 32861 104823,104875,104849
 2.6000e+000 104950 -4.8400e+002 -8.5527e+002  4.4174e+002 32861 104745,104823,104797
 2.6000e+000 104927 -5.9241e+002 -3.3899e+002  4.4753e+002 32861 104745,104797,104771
 2.6000e+000 105397 -1.9747e+002 -4.9491e+002  2.0041e+002 32457 105149,105253,105175
 2.6000e+000 105374 -2.9660e+002 -4.2659e+002  1.6632e+002 32457 105149,105279,105253
 2.6000e+000 105351 -2.2698e+002 -3.5212e+002  2.0333e+002 32457 105123,105279,105149
 2.6000e+000 105328 -2.7951e+002 -1.1492e+002  2.5989e+002 32457 105175,105227,105201
 2.6000e+000 105305 -3.9165e+002 -5.7814e+002  1.9902e+002 32457 105175,105253,105227
 2.6000e+000 105726 -1.6595e+002 -5.1171e+002  2.1897e+002 32003 105527,105605,105553
 2.6000e+000 105703 -2.6614e+002 -4.4385e+002  2.0913e+002 32003 105501,105605,105527
 2.6000e+000 105680 -1.4281e+002 -4.0268e+002  2.1886e+002 32003 105501,105631,105605
 2.6000e+000 105657 -7.9066e+001 -3.1530e+002  1.9663e+002 32003 105553,105605,105579
 2.6000e+000 106104 -2.9198e+002 -5.1397e+002  1.0757e+002 31492 106127,105908,105856
 2.6000e+000 106081 -2.3464e+002 -4.9004e+002  1.1388e+002 31492 106127,105856,105830
 2.6000e+000 106058 -3.2092e+002 -6.1983e+002  1.4012e+002 31492 105856,105908,105882
 2.6000e+000 106035 -1.0512e+002 -2.9654e+002  5.6134e+001 31492 105830,105986,105960
 2.6000e+000 106012 -1.2052e+002 -5.1602e+002  2.3421e+002 31492 105908,105960,105934
 2.6000e+000 106153 -3.1069e+002 -4.9136e+002  1.4334e+002 31492 105960,105908,106127
 2.6000e+000 106176 -2.7696e+002 -4.7465e+002  1.4955e+002 31492 105960,106127,105830
 2.6000e+000 106375 -3.6479e+002 -3.8748e+002  2.5316e+002 30788 106398,106277,106251
 2.6000e+000 106352 -3.8566e+002 -5.3938e+002  2.6521e+002 30788 106398,106251,106225
 2.6000e+000 106329 -5.8354e+002 -4.3436e+002  3.8069e+002 30788 106600,106199,106303
 2.6000e+000 106424 -4.9513e+002 -6.0182e+002  1.8264e+002 30788 106470,106398,106303
 2.6000e+000 106447 -3.7264e+002 -5.0622e+002  2.4603e+002 30788 106600,106303,106398
 2.6000e+000 106496 -1.3235e+002 -4.4761e+002  2.0368e+002 30788 106277,106398,106470
 2.6000e+000 106626 -7.0724e+002 -5.9141e+002  4.8792e+002 30788 106225,106199,106600
 2.6000e+000 106649 -5.6498e+002 -6.7487e+002  3.4940e+002 30788 106225,106600,106398
 2.6000e+000 106799 -1.4446e+002 -6.5226e+002 -5.2843e+000 30426 106698,106750,106724
 2.6000e+000 106776 -1.9981e+002 -4.6609e+002 -1.6434e+001 30426 106672,106750,106698
 2.6000e+000 107356 -3.6244e+002 -3.8384e+002  1.8987e+002 29972 107010,107166,107114
 2.6000e+000 107333 -4.6198e+002 -3.5177e+002  2.8192e+002 29972 106984,107166,107010
 2.6000e+000 107310 -4.5204e+002 -2.6844e+002  1.4432e+002 29972 107010,107114,107088
 2.6000e+000 107287 -3.6207e+002 -1.8834e+002  1.1241e+002 29972 107114,107166,107140
 2.6000e+000 107264 -4.6465e+002 -4.2652e+002  3.2497e+002 29972 106984,107192,107166
 2.6000e+000 107241 -6.1665e+002 -5.8212e+002  2.0412e+002 29972 107010,107088,107036
 2.6000e+000 107218 -3.9381e+002 -4.7957e+002  1.6778e+002 29972 107036,107088,107062
 2.6000e+000 107783 -4.8261e+002 -6.4759e+002  3.2065e+002 29724 107878,107806,107590
 2.6000e+000 107760 -5.9053e+002 -6.7463e+002  2.6790e+002 29724 107806,107512,107486
 2.6000e+000 107737 -4.9884e+002 -6.1441e+002  3.6711e+002 29724 107878,107590,107538
 2.6000e+000 107714 -4.6753e+002 -7.0854e+002  3.3927e+002 29724 107950,107460,107616
 2.6000e+000 107691 -4.1442e+002 -6.8040e+002  3.2245e+002 29724 107460,107642,107616
 2.6000e+000 107668 -3.4958e+002 -5.0132e+002  4.1715e+002 29724 107538,107590,107564
 2.6000e+000 107832 -3.3359e+002 -6.3580e+002  3.7173e+002 29724 107616,107590,107806
 2.6000e+000 107855 -4.7774e+002 -7.1488e+002  3.3180e+002 29724 107950,107616,107806
 2.6000e+000 107904 -4.5539e+002 -5.7357e+002  3.2289e+002 29724 107512,107806,107878
 2.6000e+000 107927 -4.5383e+002 -5.1861e+002  3.7941e+002 29724 107512,107878,107538
 2.6000e+000 107976 -2.5045e+002 -6.9834e+002  3.6714e+002 29724 107486,107460,107950
 2.6000e+000 107999 -4.4936e+002 -7.6109e+002  3.1878e+002 29724 107486,107950,107806
 2.6000e+000 108296 -5.2183e+002 -3.9576e+002  2.8216e+002 29206 108319,108100,108048
 2.6000e+000 108273 -2.9963e+002 -3.4915e+002  3.3759e+002 29206 108319,108048,108022
 2.6000e+000 108250 -1.5627e+002 -4.2620e+002  4.0806e+002 29206 108391,108152,108126
 2.6000e+000 108227 -5.9118e+002 -2.8661e+002  3.3168e+002 29206 108048,108100,108074
 2.6000e+000 108204 -2.2636e+002 -5.9196e+002  3.4789e+002 29206 108022,108178,108152
 2.6000e+000 108345 -3.8061e+002 -2.2464e+002  4.0950e+002 29206 108126,108100,108319
 2.6000e+000 108368 -2.1157e+002 -3.3784e+002  4.5934e+002 29206 108391,108126,108319
 2.6000e+000 108417 -2.9681e+002 -5.3478e+002  3.4991e+002 29206 108022,108152,108391
 2.6000e+000 108440 -3.3879e+002 -4.6642e+002  4.0370e+002 29206 108022,108391,108319
 2.6000e+000 108688 -4.5501e+002 -5.5436e+002  3.4666e+002 28595 108711,108541,108515
 2.6000e+000 108665 -6.5848e+002 -6.0703e+002  4.4838e+002 28595 108783,108711,108515
 2.6000e+000 108642 -7.9487e+002 -5.4012e+002  4.5014e+002 28595 108783,108515,108489
 2.6000e+000 108619 -7.7456e+002 -6.6064e+002  2.1480e+002 28595 108463,108593,108489
 2.6000e+000 108737 -4.2154e+002 -4.6944e+002  2.6058e+002 28595 108567,108541,108711
 2.6000e+000 108760 -3.6284e+002 -5.1148e+002  3.9528e+002 28595 108567,108711,108593
 2.6000e+000 108809 -4.3410e+002 -6.1417e+002  3.5228e+002 28595 108593,108711,108783
 2.6000e+000 108832 -6.4323e+002 -5.8777e+002  3.1946e+002 28595 108593,108783,108489
 2.6000e+000 109033 -1.5930e+002 -2.2749e+002  1.2176e+002 28091 108909,108961,108935
 2.6000e+000 109010 -1.6039e+002 -2.6073e+002  1.1594e+002 28091 108857,108961,108909
 2.6000e+000 108987 -3.2886e+002 -4.2328e+002  3.1696e+002 28091 108857,108909,108883
 2.6000e+000 109136 -4.0584e+002 -9.5828e+002  1.7394e+002 27587 109058,109110,109084
 2.6000e+000 109695 -4.2935e+002 -4.5495e+002  1.6957e+002 26969 109718,109375,109323
 2.6000e+000 109672 -4.1402e+002 -4.6604e+002  1.2386e+002 26969 109718,109323,109505
 2.6000e+000 109649 -4.1496e+002 -2.0879e+002  9.2709e+001 26969 109790,109453,109427
 2.6000e+000 109626 -1.7759e+002 -4.2317e+002  2.2664e+002 26969 109323,109375,109349
 2.6000e+000 109603 -3.7569e+002 -4.6506e+002  1.2792e+002 26969 109323,109531,109505
 2.6000e+000 109580 -2.9181e+002 -5.0387e+002  1.1301e+002 26969 109375,109427,109401
 2.6000e+000 109557 -4.6454e+002 -4.5494e+002  2.2202e+002 26969 109453,109505,109479
 2.6000e+000 109744 -4.2747e+002 -4.8104e+002  9.8389e+001 26969 109427,109375,109718
 2.6000e+000 109767 -3.6902e+002 -3.1015e+002  7.3855e+001 26969 109790,109427,109718
 2.6000e+000 109816 -4.0164e+002 -3.2513e+002  1.4074e+002 26969 109505,109453,109790
 2.6000e+000 109839 -3.7249e+002 -4.3861e+002  1.3713e+002 26969 109505,109790,109718
 2.6000e+000 110266 -2.9512e+002 -5.1774e+002  1.0117e+002 26515 110361,110289,110099
 2.6000e+000 110243 -2.3510e+002 -3.7068e+002  1.2323e+002 26515 110289,109995,109943
 2.6000e+000 110220 -3.9011e+002 -5.5713e+002  9.8449e+001 26515 110361,110099,110021
 2.6000e+000 110197 -3.8779e+002 -1.0010e+003  8.6172e+001 26515 110047,110099,110073
 2.6000e+000 110174 -3.9917e+002 -9.1840e+002 -8.5377e+001 26515 110021,110099,110047
 2.6000e+000 110151 -6.8918e+001 -1.7432e+002  2.0192e+002 26515 109943,109995,109969
 2.6000e+000 110315 -4.0679e+002 -3.2426e+002  4.1983e+001 26515 110125,110099,110289
 2.6000e+000 110338 -3.3887e+002 -1.1437e+002  2.2888e+002 26515 110125,110289,109943
 2.6000e+000 110387 -3.7618e+002 -4.8519e+002 -5.2663e+000 26515 109995,110289,110361
 2.6000e+000 110410 -4.5559e+002 -5.1289e+002 -1.0236e+000 26515 109995,110361,110021
 2.6000e+000 110609 -9.3754e+001 -5.6041e+002  2.0580e+002 25789 110906,110762,110632
 2.6000e+000 110586 -1.1532e+002 -6.9538e+002  2.2914e+002 25789 110762,110433,110537
 2.6000e+000 110563 -3.4201e+002 -6.3282e+002  3.5433e+002 25789 110834,110459,110433
 2.6000e+000 110658 -1.7509e+002 -5.3778e+002  2.6842e+002 25789 110906,110632,110834
 2.6000e+000 110788 -5.5957e+001 -3.6212e+002  1.1756e+002 25789 110511,110632,110762
 2.6000e+000 110811 -1.2631e+002 -5.5920e+002  2.2227e+002 25789 110511,110762,110537
 2.6000e+000 110860 -2.2160e+002 -5.5114e+002  2.9453e+002 25789 110485,110459,110834
 2.6000e+000 110883 -2.5193e+002 -5.1603e+002  2.6350e+002 25789 110485,110834,110632
 2.6000e+000 110932 -2.6523e+002 -6.1707e+002  2.1577e+002 25789 110433,110762,110906
 2.6000e+000 110955 -3.3087e+002 -5.7611e+002  2.6637e+002 25789 110433,110906,110834
 2.6000e+000 111350 -3.2945e+002 -4.9680e+002  3.1223e+002 25228 111445,111373,111186
 2.6000e+000 111327 -3.5020e+002 -4.9987e+002  9.8323e+001 25228 110978,111186,111004
 2.6000e+000 111304 -3.5772e+002 -6.4629e+002  2.9434e+002 25228 111373,111108,111082
 2.6000e+000 111281 -3.4027e+002 -6.5744e+002  2.5511e+002 25228 111134,111186,111160
 2.6000e+000 111258 -3.3297e+002 -4.7057e+002  2.8684e+002 25228 111445,111186,111134
 2.6000e+000 111235 -3.0836e+002 -3.4828e+002  1.8047e+002 25228 111517,111030,111004
 2.6000e+000 111212 -4.0657e+002 -4.5600e+002  2.6674e+002 25228 111030,111082,111056
 2.6000e+000 111399 -3.5773e+002 -5.6478e+002  2.9364e+002 25228 111004,111186,111373
 2.6000e+000 111422 -2.6410e+002 -4.2765e+002  2.4601e+002 25228 111517,111004,111373
 2.6000e+000 111471 -2.9780e+002 -4.7065e+002  2.8281e+002 25228 111108,111373,111445
 2.6000e+000 111494 -3.0069e+002 -4.4085e+002  2.5755e+002 25228 111108,111445,111134
 2.6000e+000 111543 -4.0012e+002 -3.8184e+002  2.7476e+002 25228 111082,111030,111517
 2.6000e+000 111566 -3.6643e+002 -4.9669e+002  3.4020e+002 25228 111082,111517,111373
 2.6000e+000 112074 -2.4230e+002 -3.6032e+002  1.9618e+002 24338 112097,111907,111881
 2.6000e+000 112051 -3.2486e+002 -3.3381e+002  1.0833e+002 24338 112097,111881,111829
 2.6000e+000 112028 -9.9775e+001 -3.2567e+002  9.4759e+001 24338 111829,111881,111855
 2.6000e+000 112005 -3.5120e+002 -4.8941e+002  1.4299e+002 24338 111777,111933,111829
 2.6000e+000 111982 -4.7827e+002 -2.3031e+002  1.6199e+002 24338 111751,111933,111777
 2.6000e+000 111959 -3.8819e+002 -5.6253e+002  1.7877e+002 24338 111777,111829,111803
 2.6000e+000 112123 -3.4220e+002 -6.2912e+002  1.8887e+002 24338 111933,111907,112097
 2.6000e+000 112146 -3.1208e+002 -4.0504e+002  1.2375e+002 24338 111933,112097,111829
 2.6000e+000 112443 -4.8858e+002 -3.6304e+002  2.2759e+002 23998 112466,112299,112247
 2.6000e+000 112420 -5.4356e+002 -6.0696e+002  2.1474e+002 23998 112466,112247,112221
 2.6000e+000 112397 -3.9543e+002 -7.2938e+002  3.2733e+002 23998 112169,112325,112221
 2.6000e+000 112374 -3.2648e+002 -6.4644e+002  3.6346e+002 23998 112169,112221,112195
 2.6000e+000 112351 -2.1966e+002 -3.3091e+002  2.6402e+002 23998 112247,112299,112273
 2.6000e+000 112492 -4.7663e+002 -4.1159e+002  3.7077e+002 23998 112325,112299,112466
 2.6000e+000 112515 -5.2709e+002 -5.4294e+002  3.3089e+002 23998 112325,112466,112221
 2.6000e+000 113200 -5.5269e+002 -6.8027e+002  4.6968e+002 23480 112779,112961,112805
 2.6000e+000 113177 -5.9376e+002 -4.5733e+002  1.9501e+002 23480 112779,112987,112961
 2.6000e+000 113154 -1.4264e+002 -3.4183e+002  3.0216e+002 23480 112805,112961,112883
 2.6000e+000 113131 -3.3128e+002 -5.9451e+002  3.3635e+002 23480 112883,112935,112909
 2.6000e+000 113108 -4.3853e+002 -4.6467e+002  3.4274e+002 23480 112883,112961,112935
 2.6000e+000 113085 -1.4442e+002 -2.5615e+002  1.5419e+002 23480 112831,112883,112857
 2.6000e+000 113062 -2.7342e+002 -3.6100e+002  2.1109e+002 23480 112805,112883,112831
 2.6000e+000 113039 -6.2633e+002 -3.7121e+002  1.9955e+002 23480 112779,113013,112987
 2.6000e+000 113676 -5.3052e+002 -2.5517e+002  4.2546e+002 23018 113699,113434,113356
 2.6000e+000 113653 -4.6934e+002 -2.5169e+002  2.2465e+002 23018 113771,113699,113356
 2.6000e+000 113630 -4.1762e+002 -4.1264e+002  1.5287e+002 23018 113771,113356,113512
 2.6000e+000 113607 -2.9135e+002 -5.7862e+002  2.5832e+002 23018 113330,113512,113356
 2.6000e+000 113584 -1.0655e+003 -5.4503e+002  6.2483e+002 23018 113356,113434,113382
 2.6000e+000 113561 -1.1788e+002 -5.4343e+002  2.5568e+002 23018 113304,113512,113330
 2.6000e+000 113538 -1.0081e+003 -1.1248e+002  2.6192e+002 23018 113382,113434,113408
 2.6000e+000 113725 -6.0500e+002 -4.3078e+002  4.2509e+002 23018 113460,113434,113699
 2.6000e+000 113748 -6.6306e+002 -4.7461e+002  2.6440e+002 23018 113460,113699,113486
 2.6000e+000 113797 -6.0781e+002 -4.8979e+002  2.8111e+002 23018 113486,113699,113771
 2.6000e+000 113820 -4.7426e+002 -5.2345e+002  1.7422e+002 23018 113486,113771,113512
 2.6000e+000 114424 -2.4783e+002 -4.0054e+002  9.0251e+001 22514 114447,114133,114029
 2.6000e+000 114401 -2.5212e+002 -4.6973e+002  8.9776e+001 22514 114447,114029,114237
 2.6000e+000 114378 -1.1398e+002 -3.2439e+002  1.4800e+002 22514 114133,114211,114185
 2.6000e+000 114355 -1.6972e+002 -3.1210e+002  1.2236e+002 22514 114133,114185,114159
 2.6000e+000 114332 -1.7315e+002 -4.8245e+002  1.7895e+002 22514 114003,114237,114029
 2.6000e+000 114309 -2.6131e+002 -3.2246e+002  6.2851e+001 22514 114029,114133,114055
 2.6000e+000 114286 -3.2901e+002 -2.5825e+002  9.4353e+001 22514 114055,114133,114107
 2.6000e+000 114263 -2.7946e+002 -2.2218e+001  9.8592e+001 22514 114055,114107,114081
 2.6000e+000 114473 -2.6565e+002 -3.6229e+002  1.1830e+002 22514 114211,114133,114447
 2.6000e+000 114496 -2.5779e+002 -4.1412e+002  1.1632e+002 22514 114211,114447,114237
 2.6000e+000 114597 -2.5172e+002 -6.2688e+002  3.2756e+002 22316 114620,114571,114545
 2.6000e+000 114646 -2.5172e+002 -6.2688e+002  3.2756e+002 22316 114519,114571,114620
 2.6000e+000 115127 -3.8826e+002 -5.1954e+002  1.4334e+002 21612 115150,114905,114879
 2.6000e+000 115104 -4.3283e+002 -3.1261e+002  1.8383e+002 21612 115150,114879,114853
 2.6000e+000 115081 -3.4047e+002 -1.6392e+002  2.8734e+002 21612 115222,114931,114905
 2.6000e+000 115058 -3.3590e+002 -3.9368e+002  2.3293e+002 21612 115222,114905,115009
 2.6000e+000 115035 -1.8317e+002 -5.1899e+002  1.9450e+002 21612 114957,115009,114983
 2.6000e+000 115176 -3.5619e+002 -3.4874e+002  1.6121e+002 21612 115009,114905,115150
 2.6000e+000 115199 -3.8615e+002 -1.1698e+002  1.9559e+002 21612 115009,115150,114853
 2.6000e+000 115248 -3.6050e+002 -3.5667e+002  2.5451e+002 21612 114957,114931,115222
 2.6000e+000 115271 -3.4847e+002 -5.7272e+002  1.9685e+002 21612 114957,115222,115009
 2.6000e+000 115519 -1.2111e+002  5.9003e+001  1.2396e+002 21208 115542,115372,115320
 2.6000e+000 115496  1.5799e+001  1.4285e+002  1.9297e-001 21208 115542,115320,115294
 2.6000e+000 115473 -8.4615e+001 -2.0915e+002  1.8062e+002 21208 115320,115372,115346
 2.6000e+000 115450 -3.0084e+002 -1.1041e+002  7.3021e+001 21208 115294,115424,115398
 2.6000e+000 115568 -1.7715e+002  1.2536e+001  1.7691e+002 21208 115398,115372,115542
 2.6000e+000 115591 -1.2436e+002 -6.6565e+001  7.7808e+001 21208 115398,115542,115294
 2.6000e+000 115839 -3.7533e+002 -3.1498e+002  2.9229e+002 20668 115862,115640,115614
 2.6000e+000 115816 -3.9226e+002 -3.5426e+002  2.9807e+002 20668 115862,115614,115744
 2.6000e+000 115793 -3.5845e+002 -1.9160e+002  2.7761e+002 20668 115640,115718,115692
 2.6000e+000 115770 -6.2241e+002 -2.2106e+002  2.5138e+002 20668 115640,115692,115666
 2.6000e+000 115888 -4.0014e+002 -2.4529e+002  3.2132e+002 20668 115718,115640,115862
 2.6000e+000 115911 -4.3508e+002 -3.1812e+002  3.3172e+002 20668 115718,115862,115744
 2.6000e+000 116134 -3.5094e+002 -5.3721e+002  3.2251e+002 20264 115958,116036,115984
 2.6000e+000 116111 -1.8168e+002 -4.5706e+002  2.9943e+002 20264 115958,116062,116036
 2.6000e+000 116088 -1.9944e+002 -5.1066e+002  3.4979e+002 20264 115984,116036,116010
 2.6000e+000 116384 -5.4354e+002 -3.8197e+002  4.0091e+002 19924 116407,116211,116159
 2.6000e+000 116361 -5.0517e+002 -6.3950e+002  3.3393e+002 19924 116407,116159,116263
 2.6000e+000 116338 -5.0794e+002 -2.3894e+002  3.9046e+002 19924 116159,116211,116185
 2.6000e+000 116315 -3.3704e+002 -6.1770e+002  3.7724e+002 19924 116159,116289,116263
 2.6000e+000 116433 -5.1878e+002 -2.4067e+002  4.5979e+002 19924 116237,116211,116407
 2.6000e+000 116456 -3.8302e+002 -4.1237e+002  4.2527e+002 19924 116237,116407,116263
 2.6000e+000 116608 -2.1992e+002 -3.8734e+001  2.0991e+002 19520 116703,116631,116533
 2.6000e+000 116585 -1.0574e+002 -1.1329e+002  1.2046e+002 19520 116631,116507,116481
 2.6000e+000 116657 -1.7628e+002 -1.2601e+002  2.4326e+002 19520 116559,116533,116631
 2.6000e+000 116680 -1.5193e+002 -3.1679e+002  1.5650e+002 19520 116559,116631,116481
 2.6000e+000 116729 -2.1992e+002 -3.8734e+001  2.0991e+002 19520 116507,116631,116703
 2.6000e+000 116952 -4.6349e+002 -4.0232e+002  5.6198e+002 19208 116975,116802,116776
 2.6000e+000 116929 -5.8531e+002 -7.4970e+002  3.2300e+002 19208 116975,116776,116880
 2.6000e+000 116906 -6.3128e+002 -2.7098e+002  3.9799e+002 19208 116802,116854,116828
 2.6000e+000 117001 -3.6814e+002 -3.4129e+002  5.8879e+002 19208 116854,116802,116975
 2.6000e+000 117024 -1.5084e+002 -4.3246e+002  4.6769e+002 19208 116854,116975,116880
 2.6000e+000 117428 -4.2477e+002 -1.4589e+002  2.7392e+002 18796 117154,117206,117180
 2.6000e+000 117405 -2.9624e+002 -3.4915e+002  2.5052e+002 18796 117154,117284,117206
 2.6000e+000 117382 -1.5957e+002 -2.9204e+002  2.4444e+002 18796 117154,117310,117284
 2.6000e+000 117359 -1.6194e+002 -2.3586e+002  3.2981e+002 18796 117206,117284,117258
 2.6000e+000 117336 -1.1811e+001 -2.6084e+001  4.5715e+002 18796 117206,117258,117232
 2.6000e+000 117529 -1.9887e+002 -1.0806e+002  1.2785e+002 18228 117810,117552,117477
 2.6000e+000 117578 -4.9150e+002 -3.0308e+002  2.3019e+002 18228 117682,117552,117503
 2.6000e+000 117708 -1.6066e+002 -1.1831e+002  1.2092e+002 18228 117477,117552,117682
 2.6000e+000 117836 -3.1007e+002 -2.9840e+002  1.9940e+002 18228 117451,117552,117810
 2.6000e+000 118364 -4.8681e+002 -1.4964e+002  2.0902e+002 17722 118067,118223,118093
 2.6000e+000 118341 -4.7820e+002 -8.9105e+001  2.0411e+002 17722 118041,118223,118067
 2.6000e+000 118318 -2.6455e+002 -1.6368e+002  1.5661e+002 17722 118093,118223,118197
 2.6000e+000 118295 -9.0199e+002 -8.8154e+002  5.7897e+002 17722 118119,118197,118171
 2.6000e+000 118272 -1.1304e+002 -5.4390e+000  2.4340e+002 17722 118093,118197,118119
 2.6000e+000 118249 -8.3298e+002 -3.6515e+002  4.9085e+002 17722 118119,118171,118145
 2.6000e+000 118514 -8.3372e+002 -3.2853e+002  3.0942e+002 17268 118387,118439,118413
 2.6000e+000 118491 -6.3407e+001 -3.9711e+002  3.3520e+002 17268 118387,118465,118439
 2.6000e+000 118916 -4.1994e+002 -1.0636e+002  1.6607e+002 16828 118668,118772,118694
 2.6000e+000 118893 -5.6759e+002 -1.7127e+002  1.4538e+002 16828 118668,118798,118772
 2.6000e+000 118870 -6.1340e+002 -3.3017e+002  9.9227e+001 16828 118642,118798,118668
 2.6000e+000 118847 -1.5334e+002 -4.7377e+001  3.2172e+002 16828 118694,118746,118720
 2.6000e+000 118824 -4.7563e+002 -2.9476e+002  1.5296e+002 16828 118694,118772,118746
 2.6000e+000 119316 -1.9403e+002 -1.6224e+002  2.7599e+002 16422 119042,119172,119094
 2.6000e+000 119293 -2.7599e+002 -1.8564e+002  2.8003e+002 16422 119042,119198,119172
 2.6000e+000 119270 -3.8792e+002 -8.6300e+001  1.4673e+002 16422 119042,119094,119068
 2.6000e+000 119247 -3.5697e+001 -1.5043e+001  3.8232e+002 16422 119094,119146,119120
 2.6000e+000 119224 -1.4273e+002 -7.0688e+001  2.9704e+002 16422 119094,119172,119146
 2.6000e+000 119466 -1.1824e+002  4.8694e+001  8.7857e+001 16010 119339,119391,119365
 2.6000e+000 119443 -5.9803e+001 -4.7852e+001  2.2921e+002 16010 119339,119417,119391
 2.6000e+000 119616 -1.1832e+002  5.3900e+000  2.0429e+002 15547 119515,119567,119541
 2.6000e+000 119593  1.9515e+002  2.9685e+002  6.6252e+002 15547 119489,119567,119515
 2.6000e+000 119719 -7.3795e+002 -2.9885e+002  3.4536e+002 421 119641,119693,119667
 2.7000e+000 69562 -7.3680e+002 -3.4087e+002  4.6752e+002 69254 69484,69536,69510
 2.7000e+000 70009 -3.3744e+002 -2.7876e+002  2.7699e+002 68942 69686,69842,69816
 2.7000e+000 69986 -3.1168e+002 -1.0730e+002  1.5631e+002 68942 69686,69868,69842
 2.7000e+000 69963 -2.0442e+002 -8.3936e+001  3.4177e+002 68942 69686,69816,69712
 2.7000e+000 69940 -1.4550e+002 -9.4406e+001  4.8466e+002 68942 69712,69790,69738
 2.7000e+000 69917 -5.1049e+002 -8.0917e+002  3.2019e+002 68942 69712,69816,69790
 2.7000e+000 69894 -5.5440e+001 -4.2466e+002  1.8707e+002 68942 69738,69790,69764
 2.7000e+000 70110 -3.5952e+002 -1.1280e+002  2.1964e+002 68766 70032,70084,70058
 2.7000e+000 70746 -4.6679e+002 -2.2424e+002  2.3751e+002 68448 70400,70556,70426
 2.7000e+000 70723 -7.7523e+002 -3.1454e+002  3.0905e+002 68448 70374,70556,70400
 2.7000e+000 70700 -5.1815e+002 -1.9564e+002  1.6600e+002 68448 70426,70556,70478
 2.7000e+000 70677 -6.1614e+002 -1.6387e+002  1.8257e+002 68448 70478,70556,70504
 2.7000e+000 70654 -5.5688e+002 -2.7866e+002  1.7871e+002 68448 70426,70478,70452
 2.7000e+000 70631 -7.5085e+002 -2.4769e+002  4.0111e+002 68448 70374,70582,70556
 2.7000e+000 70608 -6.4369e+002 -2.0322e+002  1.6808e+002 68448 70504,70556,70530
 2.7000e+000 70896 -7.4275e+002 -2.0695e+002  1.1897e+001 68250 70795,70847,70821
 2.7000e+000 70873 -1.2731e+003 -4.3151e+002  4.6363e+001 68250 70769,70847,70795
 2.7000e+000 70997 -1.6485e+003 -7.7434e+002  6.8800e+002 68052 70919,70971,70945
 2.7000e+000 71367 -5.1595e+002 -8.0400e+002  2.9571e+002 67740 71096,71226,71200
 2.7000e+000 71344 -3.3411e+002 -4.6893e+002  3.7224e+002 67740 71044,71226,71096
 2.7000e+000 71321  3.8917e+001 -3.8917e+001  5.9807e+002 67740 71044,71096,71070
 2.7000e+000 71298 -3.8186e+002 -8.6122e+002  5.9065e+002 67740 71096,71200,71174
 2.7000e+000 71275 -2.0265e+002 -4.9055e+002  2.2028e+002 67740 71096,71148,71122
 2.7000e+000 71252 -2.8917e+002 -6.0184e+002  3.7480e+002 67740 71096,71174,71148
 2.7000e+000 71519  2.1273e+002  1.3672e+002  1.8832e+002 67542 71418,71470,71444
 2.7000e+000 71496  3.2111e+002  6.2652e+002  5.8972e+002 67542 71392,71470,71418
 2.7000e+000 71923 -1.1409e+002  2.0699e+000  1.8147e+002 67230 71649,71779,71675
 2.7000e+000 71900 -8.0060e+001 -1.6746e+002  1.1551e+002 67230 71649,71805,71779
 2.7000e+000 71877 -1.1989e+002 -4.6160e+001  3.3576e+002 67230 71675,71727,71701
 2.7000e+000 71854 -1.6028e+002 -5.0501e+002  3.2708e+002 67230 71675,71753,71727
 2.7000e+000 71831 -1.6740e+002 -3.0428e+002  2.2773e+002 67230 71675,71779,71753
 2.7000e+000 72433 -4.3520e+002 -1.9201e+002  2.6227e+002 67032 72038,72246,72220
 2.7000e+000 72410 -1.9511e+002 -2.0337e+001  1.4672e+002 67032 72012,72246,72038
 2.7000e+000 72387 -4.1382e+002 -1.7551e+002  2.7779e+002 67032 72064,72194,72168
 2.7000e+000 72364 -4.3311e+002 -1.6489e+002  2.8893e+002 67032 72038,72194,72064
 2.7000e+000 72341 -5.6287e+002 -4.9071e+002  2.5673e+002 67032 72038,72220,72194
 2.7000e+000 72318 -1.8623e+002 -1.0556e+001  1.9923e+002 67032 72090,72168,72142
 2.7000e+000 72295 -1.1646e+002 -4.0731e+001  3.2134e+002 67032 72064,72168,72090
 2.7000e+000 72272 -2.0615e+002 -3.7741e+001  1.8550e+002 67032 72090,72142,72116
 2.7000e+000 72933 -3.0799e+002 -3.2983e+002  3.3397e+002 66628 72956,72665,72613
 2.7000e+000 72910 -2.9052e+002 -3.4951e+002  3.3457e+002 66628 73100,72956,72613
 2.7000e+000 72887 -3.6975e+002 -5.0748e+002  2.7373e+002 66628 73028,72691,72665
 2.7000e+000 72864 -2.7320e+002 -3.1463e+002  3.4296e+002 66628 73100,72613,72587
 2.7000e+000 72841 -2.9364e+002 -3.1487e+002  2.9919e+002 66628 72613,72665,72639
 2.7000e+000 72818  3.9270e+001 -3.9603e+000  4.3312e+002 66628 72587,72769,72743
 2.7000e+000 72795 -3.1734e+002 -7.4042e+002  9.5417e+001 66628 72561,72769,72587
 2.7000e+000 72982 -3.6466e+002 -3.6563e+002  3.5483e+002 66628 73028,72665,72956
 2.7000e+000 73005 -3.1213e+002 -1.2657e+002  3.3332e+002 66628 72717,72956,72743
 2.7000e+000 73054 -5.2352e+002 -4.2229e+002  1.6669e+002 66628 72717,72691,73028
 2.7000e+000 73077 -5.2113e+002 -3.7367e+002  2.4077e+002 66628 72717,73028,72956
 2.7000e+000 73126 -3.0724e+002 -3.4802e+002  2.9482e+002 66628 72743,72956,73100
 2.7000e+000 73149 -2.8973e+002 -3.1912e+002  3.0373e+002 66628 72743,73100,72587
 2.7000e+000 73606 -3.8970e+002 -3.2204e+002  3.1015e+002 66281 73332,73384,73358
 2.7000e+000 73583 -4.8844e+002 -3.7897e+002  2.4531e+002 66281 73332,73462,73384
 2.7000e+000 73560 -5.9648e+002 -3.6981e+002  2.6512e+002 66281 73384,73462,73436
 2.7000e+000 73537 -9.0115e+002 -5.1293e+002  3.9993e+002 66281 73332,73488,73462
 2.7000e+000 73514 -6.5464e+002 -3.6387e+002  1.7760e+002 66281 73384,73436,73410
 2.7000e+000 73984 -1.8612e+002 -1.3526e+002  1.1018e+002 65969 73736,73814,73788
 2.7000e+000 73961 -7.1260e+001 -6.5693e+001  7.9278e+001 65969 73736,73866,73814
 2.7000e+000 73938 -2.0322e+002 -1.6275e+002  1.9866e+002 65969 73814,73866,73840
 2.7000e+000 73915 -6.1329e+001 -8.7968e+001  7.3874e+001 65969 73710,73866,73736
 2.7000e+000 73892 -1.2901e+002 -1.2289e+002  3.1947e+001 65969 73736,73788,73762
 2.7000e+000 74232 -2.9342e+002 -3.0798e+002  3.0202e+002 65572 74255,74085,74033
 2.7000e+000 74209 -2.7180e+002 -3.2318e+002  2.7539e+002 65572 74327,74255,74033
 2.7000e+000 74186 -2.9002e+002 -2.7045e+002  2.7587e+002 65572 74327,74033,74007
 2.7000e+000 74163 -3.3410e+002 -3.7404e+002  3.2880e+002 65572 74033,74085,74059
 2.7000e+000 74281 -3.3955e+002 -3.5995e+002  3.6335e+002 65572 74111,74085,74255
 2.7000e+000 74304 -2.4521e+002 -3.2424e+002  3.0720e+002 65572 74111,74255,74137
 2.7000e+000 74353 -2.5366e+002 -2.6383e+002  2.5664e+002 65572 74137,74255,74327
 2.7000e+000 74376 -2.8334e+002 -2.2411e+002  2.6013e+002 65572 74137,74327,74007
 2.7000e+000 74884 -3.0625e+002 -3.3784e+002  2.6987e+002 65174 74587,74717,74613
 2.7000e+000 74861 -3.6860e+002 -3.9386e+002  2.1367e+002 65174 74561,74717,74587
 2.7000e+000 74838 -2.7586e+002 -4.0572e+002  2.1270e+002 65174 74613,74691,74639
 2.7000e+000 74815 -2.9947e+002 -4.0225e+002  2.5633e+002 65174 74613,74717,74691
 2.7000e+000 74792 -1.5381e+002 -5.8442e+002  1.7955e+002 65174 74639,74691,74665
 2.7000e+000 74769 -6.0448e+002 -1.3089e+002  2.3719e+002 65174 74561,74743,74717
 2.7000e+000 75412 -1.1093e+001 -1.6010e+002  6.0672e+002 64770 75167,75245,75219
 2.7000e+000 75389 -2.8754e+002 -5.3616e+002  4.1518e+002 64770 75115,75245,75167
 2.7000e+000 75366 -2.2899e+002 -6.8625e+002  5.3416e+002 64770 75089,75245,75115
 2.7000e+000 75343 -4.3452e+002 -1.6542e+002  4.4723e+002 64770 75167,75219,75193
 2.7000e+000 75320 -2.3145e+002 -4.1524e+002  4.3449e+002 64770 75115,75167,75141
 2.7000e+000 75297 -3.7080e+002 -9.8867e+002  5.7208e+002 64770 75089,75271,75245
 2.7000e+000 75861 -7.4700e+002 -3.2330e+002  4.8717e+002 64316 75538,75694,75564
 2.7000e+000 75838 -4.4165e+002 -1.7214e+002  2.9913e+002 64316 75538,75720,75694
 2.7000e+000 75815 -5.9668e+002 -3.8815e+002  3.7574e+002 64316 75590,75694,75642
 2.7000e+000 75792 -5.7073e+002 -5.2777e+002  4.3219e+002 64316 75564,75694,75590
 2.7000e+000 75769 -1.9484e+002 -6.4846e+002  2.0774e+002 64316 75590,75642,75616
 2.7000e+000 75746 -5.3819e+002 -2.2631e+002  3.4862e+002 64316 75642,75694,75668
 2.7000e+000 76239 -8.3050e+002 -6.6845e+002  3.7618e+002 64018 76262,76095,76043
 2.7000e+000 76216 -6.4162e+002 -6.6674e+002  3.1421e+002 64018 76262,76043,76017
 2.7000e+000 76193 -3.3405e+002 -3.2933e+002  2.7197e+002 64018 75991,76121,76017
 2.7000e+000 76170 -7.8925e+002 -5.3150e+002  5.3072e+002 64018 76043,76095,76069
 2.7000e+000 76147 -2.0714e+001 -3.3799e+002  6.8925e+001 64018 75965,76121,75991
 2.7000e+000 76288 -6.4225e+002 -7.4169e+002  4.6969e+002 64018 76121,76095,76262
 2.7000e+000 76311 -4.8963e+002 -7.6154e+002  3.8044e+002 64018 76121,76262,76017
 2.7000e+000 76866 -2.9679e+002 -3.2711e+002  3.3502e+002 63728 76520,76676,76546
 2.7000e+000 76843 -2.8533e+002 -3.3259e+002  2.5635e+002 63728 76520,76702,76676
 2.7000e+000 76820 -2.3574e+002 -3.2482e+002  3.1093e+002 63728 76546,76650,76572
 2.7000e+000 76797 -4.1168e+002 -4.0815e+002  2.8767e+002 63728 76546,76676,76650
 2.7000e+000 76774 -4.0268e+002 -4.9097e+001  1.6363e+002 63728 76572,76650,76624
 2.7000e+000 76751 -2.3944e+002 -3.0268e+002  2.7071e+002 63728 76494,76702,76520
 2.7000e+000 76728 -8.1374e+001 -1.7831e+002  1.2002e+002 63728 76572,76624,76598
 2.7000e+000 77065 -2.0880e+002 -2.9115e+002  2.8074e+002 63288 77088,76941,76915
 2.7000e+000 77042 -4.2410e+002 -3.5372e+002  2.5973e+002 63288 77088,76915,76993
 2.7000e+000 77019 -1.0563e+002 -3.9842e+002  2.0427e+002 63288 76889,76993,76915
 2.7000e+000 77114 -3.0870e+002 -3.2454e+002  2.3827e+002 63288 76967,76941,77088
 2.7000e+000 77137 -6.5437e+002 -4.2735e+002  1.1250e+002 63288 77160,77088,76993
 2.7000e+000 77186 -1.7501e+002 -2.0057e+002  1.8493e+002 63288 76967,77088,77160
 2.7000e+000 77417 -2.1097e+002 -3.0540e+002  1.7219e+002 62884 77440,77342,77316
 2.7000e+000 77394 -4.7965e+002 -4.3541e+002  7.8053e+001 62884 77770,77440,77316
 2.7000e+000 77466 -3.7587e+002 -4.6668e+002  6.9304e+001 62884 77512,77440,77368
 2.7000e+000 77489 -2.9222e+002 -3.6889e+002  5.1861e+001 62884 77642,77440,77290
 2.7000e+000 77538 -1.8340e+002 -3.3424e+002  1.1052e+001 62884 77342,77440,77512
 2.7000e+000 77668 -3.6948e+002 -5.2603e+002  2.6892e+001 62884 77368,77440,77642
 2.7000e+000 77796 -2.9669e+002 -3.4883e+002  5.3879e+001 62884 77290,77440,77770
 2.7000e+000 78479 -6.8506e+002 -6.4595e+002  3.7079e+002 62480 78084,78240,78214
 2.7000e+000 78456 -4.8819e+002 -5.7232e+002  7.5106e+001 62480 78084,78266,78240
 2.7000e+000 78433 -5.2153e+002 -5.6398e+002  1.7935e+002 62480 78110,78214,78136
 2.7000e+000 78410 -6.3176e+002 -6.1500e+002  3.5507e+002 62480 78084,78214,78110
 2.7000e+000 78387 -3.7227e+002 -4.7021e+002  2.2389e+002 62480 78136,78214,78188
 2.7000e+000 78364 -5.4412e+002 -6.3561e+002  4.9369e+001 62480 78058,78266,78084
 2.7000e+000 78341 -2.5249e+002 -3.7796e+002  1.1059e+002 62480 78136,78188,78162
 2.7000e+000 78318 -6.4814e+002 -7.1280e+002  1.0618e+002 62480 78058,78292,78266
 2.7000e+000 78678 -4.1921e+002 -7.3570e+002  2.8973e+002 61926 78528,78606,78554
 2.7000e+000 78655 -2.2621e+002 -7.3688e+002  3.7026e+002 61926 78502,78606,78528
 2.7000e+000 78632 -2.8803e+002 -4.7768e+002  2.0032e+002 61926 78554,78606,78580
 2.7000e+000 79058 -4.3891e+002 -4.2740e+002  2.3525e+002 61614 78836,78914,78862
 2.7000e+000 79035 -5.3096e+002 -4.9492e+002  2.0514e+002 61614 78810,78914,78836
 2.7000e+000 79012 -3.4726e+002 -4.1609e+002  2.0959e+002 61614 78784,78914,78810
 2.7000e+000 78989 -3.8134e+002 -4.7753e+002  3.8705e+002 61614 78862,78914,78888
 2.7000e+000 78966 -3.0546e+002 -5.3733e+002  2.3927e+002 61614 78784,78940,78914
 2.7000e+000 79208 -2.9348e+002 -6.8393e+002  2.4403e+001 61366 79081,79133,79107
 2.7000e+000 79185 -3.2038e+002 -5.3973e+002  2.1900e+002 61366 79081,79159,79133
 2.7000e+000 79358  2.6458e+001  1.1268e+001  3.5410e+001 60962 79231,79283,79257
 2.7000e+000 79335 -1.4043e+002 -3.3056e+002  8.9300e+001 60962 79231,79309,79283
 2.7000e+000 79608 -2.7337e+002 -5.9136e+002  2.0670e+002 60508 79631,79435,79409
 2.7000e+000 79585 -1.7966e+002 -5.9476e+002  1.4141e+002 60508 79703,79631,79409
 2.7000e+000 79562 -1.6200e+002 -3.0484e+002  1.8809e+002 60508 79703,79409,79383
 2.7000e+000 79539 -6.1518e+002 -4.7541e+002  3.7923e+002 60508 79435,79487,79461
 2.7000e+000 79657 -3.1213e+002 -7.1333e+002  3.6362e+002 60508 79487,79435,79631
 2.7000e+000 79680 -1.5005e+002 -5.4871e+002  1.9256e+002 60508 79487,79631,79513
 2.7000e+000 79729 -1.0955e+002 -3.3085e+002  7.3114e+001 60508 79513,79631,79703
 2.7000e+000 79752 -1.8956e+002 -2.9613e+002  3.3090e+001 60508 79513,79703,79383
 2.7000e+000 80390 -3.7889e+002 -4.1967e+002  3.5114e+002 59997 80413,80096,80018
 2.7000e+000 80367 -6.3386e+002 -5.0748e+002  3.9983e+002 59997 80413,80018,80226
 2.7000e+000 80344 -3.1713e+002 -3.4430e+002  2.0985e+002 59997 80096,80174,80148
 2.7000e+000 80321 -1.1202e+003 -7.6336e+002  5.3799e+002 59997 80018,80096,80070
 2.7000e+000 80298 -4.4772e+002 -3.9314e+002  1.9535e+002 59997 80096,80148,80122
 2.7000e+000 80275 -3.2579e+002 -3.9151e+002  2.9032e+002 59997 80174,80226,80200
 2.7000e+000 80252 -7.9451e+002 -5.1855e+002  2.0771e+002 59997 80018,80070,80044
 2.7000e+000 80439 -3.1188e+002 -4.7083e+002  2.5968e+002 59997 80174,80096,80413
 2.7000e+000 80462 -4.1888e+002 -4.2843e+002  2.8520e+002 59997 80174,80413,80226
 2.7000e+000 80840 -5.2292e+002 -4.5639e+002  2.2319e+002 59443 80863,80644,80618
 2.7000e+000 80817 -2.1240e+002 -3.4076e+002  2.5977e+002 59443 80863,80618,80566
 2.7000e+000 80794 -1.9530e+002 -3.0077e+002  3.1523e+002 59443 81007,80935,80670
 2.7000e+000 80771 -2.7955e+002 -3.0704e+002  2.7913e+002 59443 80566,80722,80696
 2.7000e+000 80748 -2.6326e+002 -4.4711e+002  2.9237e+002 59443 80566,80618,80592
 2.7000e+000 80889 -5.7924e+002 -4.1616e+002  3.6533e+002 59443 80935,80644,80863
 2.7000e+000 80912 -3.9543e+002 -3.6167e+002  3.0314e+002 59443 80696,80863,80566
 2.7000e+000 80961 -3.3664e+002 -3.4796e+002  3.6666e+002 59443 80696,80670,80935
 2.7000e+000 80984 -3.2690e+002 -2.9561e+002  3.3003e+002 59443 80696,80935,80863
 2.7000e+000 81033 -4.4385e+002 -5.7270e+002  4.3938e+002 59443 80644,80935,81007
 2.7000e+000 81360 -5.4026e+002 -2.6864e+002  2.4283e+002 59031 81383,81187,81161
 2.7000e+000 81337 -4.4539e+002 -3.0851e+002  7.7356e+001 59031 81455,81383,81161
 2.7000e+000 81314 -3.2943e+002 -2.2900e+002  1.1359e+002 59031 81455,81161,81135
 2.7000e+000 81291 -8.7921e+002 -2.1349e+002  3.9675e+002 59031 81187,81239,81213
 2.7000e+000 81409 -5.8304e+002 -5.0042e+002  3.2990e+002 59031 81239,81187,81383
 2.7000e+000 81432 -6.3721e+002 -3.8784e+002  9.3055e+001 59031 81239,81383,81265
 2.7000e+000 81481 -5.5587e+002 -1.5401e+002  1.1803e+002 59031 81265,81383,81455
 2.7000e+000 81504 -5.1904e+002 -1.4243e+002  1.2406e+002 59031 81265,81455,81135
 2.7000e+000 81835 -7.8783e+001 -2.3908e+002  1.0025e+002 58577 81610,81714,81636
 2.7000e+000 81812 -6.3334e+001 -2.8385e+002  1.1141e+002 58577 81610,81740,81714
 2.7000e+000 81789 -2.1941e+002 -2.9242e+002  2.5869e+001 58577 81636,81714,81688
 2.7000e+000 81766 -1.9594e+002 -2.6433e+002 -7.6370e+001 58577 81636,81688,81662
 2.7000e+000 81985 -1.1148e+002 -2.7023e+002  1.6665e+002 58030 81884,81936,81910
 2.7000e+000 81962 -2.2919e+002 -7.6807e+001  1.1314e+002 58030 81858,81936,81884
 2.7000e+000 82414 -9.5055e+001 -3.4212e+001  1.2341e+002 57690 82437,82169,82117
 2.7000e+000 82391 -1.2314e+002 -1.5376e+002  1.4209e+002 57690 82437,82117,82247
 2.7000e+000 82368  5.4286e+001  8.7642e+001  3.2883e+002 57690 82195,82247,82221
 2.7000e+000 82345 -9.9322e+001 -1.4348e+002  1.4484e+002 57690 82091,82247,82117
 2.7000e+000 82322 -1.6208e+002 -4.2878e+001  8.3872e+001 57690 82117,82169,82143
 2.7000e+000 82299 -1.1365e+002 -2.6771e+002  2.0081e+002 57690 82091,82273,82247
 2.7000e+000 82463 -1.4031e+002  1.4713e+001  1.7997e+002 57690 82195,82169,82437
 2.7000e+000 82486 -1.5214e+002 -7.1342e+001  1.7913e+002 57690 82195,82437,82247
 2.7000e+000 83041 -2.8454e+002 -3.0123e+002  2.0804e+002 57172 83064,82721,82695
 2.7000e+000 83018 -3.1526e+002 -3.1380e+002  3.0236e+002 57172 83064,82695,82851
 2.7000e+000 82995 -9.0268e+002 -4.2822e+002  4.1073e+002 57172 82669,82851,82695
 2.7000e+000 82972 -5.2602e+002 -3.4302e+002  2.8522e+002 57172 82773,82851,82825
 2.7000e+000 82949 -4.8309e+002 -3.7044e+002  3.9580e+002 57172 82773,82825,82799
 2.7000e+000 82926 -3.8389e+002 -2.3192e+002  1.7273e+002 57172 82721,82773,82747
 2.7000e+000 82903 -9.8642e+002 -4.0075e+002  5.7874e+002 57172 82669,82877,82851
 2.7000e+000 83090 -4.3884e+002 -3.5841e+002  1.9467e+002 57172 82773,82721,83064
 2.7000e+000 83113 -3.6694e+002 -3.2951e+002  2.8394e+002 57172 82773,83064,82851
 2.7000e+000 83747 -3.4261e+002 -2.9525e+002  2.0586e+002 56554 83770,83427,83401
 2.7000e+000 83724 -3.5006e+002 -3.7251e+002  2.4042e+002 56554 83842,83770,83401
 2.7000e+000 83701 -2.5880e+001 -2.9193e+002  8.7346e+001 56554 83842,83401,83583
 2.7000e+000 83678 -6.6317e+002 -5.3731e+002  4.9600e+002 56554 83914,83531,83505
 2.7000e+000 83655 -4.1511e+002 -3.0790e+002  1.4645e+002 56554 83531,83583,83557
 2.7000e+000 83632 -1.0108e+002 -1.0859e+002  7.0817e+001 56554 83375,83583,83401
 2.7000e+000 83609 -3.5078e+002 -3.0894e+002  2.2206e+002 56554 83427,83479,83453
 2.7000e+000 83796 -3.2388e+002 -2.9061e+002  2.0806e+002 56554 83479,83427,83770
 2.7000e+000 83819 -3.6850e+002 -2.6504e+002  2.2774e+002 56554 83479,83770,83505
 2.7000e+000 83868 -2.3738e+002 -1.8104e+002  2.9686e+002 56554 83505,83770,83842
 2.7000e+000 83891 -4.3626e+002 -3.3244e+002  3.6298e+002 56554 83914,83505,83842
 2.7000e+000 83940 -3.1220e+002 -5.3263e+002  2.8384e+002 56554 83583,83531,83914
 2.7000e+000 83963 -1.4817e+002 -5.0604e+002  2.1461e+002 56554 83583,83914,83842
 2.7000e+000 84341 -2.4899e+002 -7.9768e+002  2.6665e+002 56192 84067,84145,84119
 2.7000e+000 84318 -1.2017e+002 -6.3372e+002  2.0751e+002 56192 84067,84223,84145
 2.7000e+000 84295 -2.5611e+002 -6.7976e+002  5.6500e+001 56192 84145,84223,84197
 2.7000e+000 84272 -1.5073e+002 -7.5985e+002  3.2839e+002 56192 84067,84119,84093
 2.7000e+000 84249 -4.3291e+002 -1.9169e+002  1.5368e+002 56192 84145,84197,84171
 2.7000e+000 84611 -1.7848e+002 -4.4698e+002  2.8920e+002 55538 84386,84490,84412
 2.7000e+000 84588 -1.9212e+002 -3.9640e+002  2.8171e+002 55538 84386,84516,84490
 2.7000e+000 84565 -3.6759e+002 -5.2916e+002  2.7861e+002 55538 84412,84490,84464
 2.7000e+000 84542 -2.1694e+002 -5.1727e+002  1.7546e+002 55538 84412,84464,84438
 2.7000e+000 84942 -4.2079e+002 -3.5029e+002  3.0158e+002 55084 84769,84847,84795
 2.7000e+000 84919 -3.9612e+002 -3.9218e+002  2.5218e+002 55084 84717,84847,84769
 2.7000e+000 84896 -4.6510e+002 -5.2179e+002  2.2596e+002 55084 84717,84769,84743
 2.7000e+000 84873 -4.8349e+002 -1.5864e+002  2.5270e+002 55084 84795,84847,84821
 2.7000e+000 85271 -3.8511e+001 -1.1187e+002  1.6953e+002 54580 85294,85098,85072
 2.7000e+000 85248 -4.1331e+002 -2.3742e+002  2.5141e+002 54580 85294,85072,85176
 2.7000e+000 85225 -5.9993e+002 -1.1367e+001  7.9017e+001 54580 85124,85176,85150
 2.7000e+000 85202 -9.4040e+001 -2.0526e+002  7.0744e+001 54580 85046,85176,85072
 2.7000e+000 85320 -3.6838e+002 -1.3467e+002  2.1021e+002 54580 85124,85098,85294
 2.7000e+000 85343 -5.6647e+002 -1.1645e+002  2.6668e+002 54580 85124,85294,85176
 2.7000e+000 85542 -2.6236e+002 -4.3482e+002  1.8654e+002 53976 85565,85444,85418
 2.7000e+000 85519 -2.3128e+002 -3.7794e+002  1.9851e+002 53976 85565,85418,85366
 2.7000e+000 85496 -1.8996e+002 -3.3220e+002  1.5434e+002 53976 85366,85418,85392
 2.7000e+000 85591 -3.7841e+002 -4.3241e+002  9.7736e+001 53976 85470,85444,85565
 2.7000e+000 85614 -2.5774e+002 -2.0538e+002  1.4290e+002 53976 85470,85565,85366
 2.7000e+000 85960 -4.5019e+002 -5.3129e+002  2.4539e+002 53572 85663,85715,85689
 2.7000e+000 85937 -4.0780e+002 -4.8922e+002  2.1124e+002 53572 85983,85715,85663
 2.7000e+000 85914 -6.3606e+002 -6.1361e+002  2.6657e+002 53572 86055,85983,85663
 2.7000e+000 85891 -5.9386e+002 -6.0790e+002  3.7760e+002 53572 86055,85663,85637
 2.7000e+000 85868 -9.1675e+002 -1.2249e+003  4.8845e+002 53572 85637,85793,85767
 2.7000e+000 85845 -1.1403e+003 -3.5169e+002  2.4302e+002 53572 85637,85819,85793
 2.7000e+000 86009 -6.1188e+002 -4.0236e+002  1.9880e+002 53572 85741,85715,85983
 2.7000e+000 86032 -7.6376e+002 -4.3223e+002  2.6098e+002 53572 85741,85983,85767
 2.7000e+000 86081 -5.4810e+002 -3.6029e+002  2.4830e+002 53572 85767,85983,86055
 2.7000e+000 86104 -5.6811e+002 -4.7543e+002  3.5168e+002 53572 85767,86055,85637
 2.7000e+000 86693 -7.5703e+002 -1.0669e+002  3.7673e+002 52946 86474,86526,86500
 2.7000e+000 86670 -1.5235e+002 -4.2521e+001  9.5917e+001 52946 86396,86526,86474
 2.7000e+000 86647 -5.8433e+002 -4.4470e+002  2.6209e+002 52946 86370,86526,86396
 2.7000e+000 86624  4.6123e+000  1.0111e+001  5.9506e+000 52946 86422,86474,86448
 2.7000e+000 86601 -1.8027e+002 -3.8414e+001  7.3312e+001 52946 86396,86474,86422
 2.7000e+000 86578 -5.6334e+002 -1.1320e+002  1.6895e+002 52946 86370,86552,86526
 2.7000e+000 87376 -4.2010e+002 -3.8669e+002  1.9295e+002 52420 87007,87085,87033
 2.7000e+000 87353 -3.5564e+002 -3.3913e+002  1.6676e+002 52420 87007,87163,87085
 2.7000e+000 87330 -4.6832e+002 -3.2320e+002  2.0138e+002 52420 87007,87189,87163
 2.7000e+000 87307 -3.7416e+002 -3.7245e+002  1.9166e+002 52420 87033,87085,87059
 2.7000e+000 87284 -4.5870e+002 -3.8865e+002  5.7383e+001 52420 87085,87137,87111
 2.7000e+000 87261 -3.1721e+002 -3.5806e+002  7.4361e+001 52420 87085,87163,87137
 2.7000e+000 87238 -3.5970e+002 -4.1024e+002  3.8475e+002 52420 86955,87189,87007
 2.7000e+000 87215 -2.3743e+002 -2.5274e+002  2.1593e+002 52420 86955,87007,86981
 2.7000e+000 87624 -2.6632e+002 -4.5783e+002  1.4306e+002 51916 87451,87503,87477
 2.7000e+000 87601 -2.9532e+002 -5.9234e+002  1.3036e+002 51916 87425,87503,87451
 2.7000e+000 87578 -2.7673e+002 -5.8969e+002  1.2772e+002 51916 87425,87529,87503
 2.7000e+000 87555 -1.8159e+002 -4.3245e+002  1.6916e+002 51916 87399,87529,87425
 2.7000e+000 88053 -4.0276e+002 -3.4739e+002  1.3144e+002 51568 87782,87834,87808
 2.7000e+000 88030 -5.0696e+002 -3.5402e+002  2.3698e+002 51568 88076,87782,87886
 2.7000e+000 88007 -4.5758e+002 -2.4035e+002  2.0503e+002 51568 88076,87886,87860
 2.7000e+000 87984 -6.0208e+002 -4.8718e+002  1.9489e+002 51568 87756,87886,87782
 2.7000e+000 87961 -4.5281e+002 -3.8853e+002  3.8620e+002 51568 87756,87912,87886
 2.7000e+000 87938 -5.2330e+002 -2.4928e+002  3.6191e+002 51568 87730,87912,87756
 2.7000e+000 88102 -4.3909e+002 -4.1043e+002  1.6191e+002 51568 87834,87782,88076
 2.7000e+000 88125 -3.9616e+002 -3.3499e+002  1.3359e+002 51568 87834,88076,87860
 2.7000e+000 88324 -3.5476e+002 -3.6599e+002  1.3591e+002 51164 88419,88347,88200
 2.7000e+000 88301 -2.4810e+002 -3.6154e+002  1.9136e+002 51164 88347,88148,88252
 2.7000e+000 88278 -4.5834e+002 -5.9178e+002  1.0885e+002 51164 88419,88200,88174
 2.7000e+000 88373 -2.4161e+002 -3.1043e+002  1.6873e+002 51164 88226,88200,88347
 2.7000e+000 88396 -2.2330e+001 -3.5736e+002  1.6095e+002 51164 88226,88347,88252
 2.7000e+000 88445 -3.6681e+002 -3.8090e+002  2.6067e+002 51164 88148,88347,88419
 2.7000e+000 88468 -3.5853e+002 -3.5910e+002  2.5350e+002 51164 88148,88419,88174
 2.7000e+000 88738 -3.2406e+002 -4.5116e+002  1.2199e+002 50560 88513,88617,88539
 2.7000e+000 88715 -2.1969e+002 -5.1512e+002  8.2835e+001 50560 88513,88643,88617
 2.7000e+000 88692 -1.4753e+002 -6.3745e+001  1.3905e+002 50560 88539,88591,88565
 2.7000e+000 88669 -1.2439e+002 -3.0321e+002  1.8747e+002 50560 88539,88617,88591
 2.7000e+000 88939 -4.2782e+002 -1.8489e+002  2.1898e+002 50106 88962,88789,88763
 2.7000e+000 88916 -3.0252e+002 -2.3315e+002  1.7205e+002 50106 88962,88763,88841
 2.7000e+000 88893 -4.1602e+002 -3.0814e+002  2.6322e+002 50106 88763,88867,88841
 2.7000e+000 88988 -3.0998e+002 -2.3716e+002  1.4233e+002 50106 88815,88789,88962
 2.7000e+000 89011 -2.4677e+002 -1.8383e+002  1.9309e+002 50106 89034,88962,88841
 2.7000e+000 89060 -1.5906e+002 -6.5451e+001  4.5769e+001 50106 88815,88962,89034
 2.7000e+000 89472 -2.3514e+002 -5.1209e+002  8.1470e+001 49666 89273,89351,89325
 2.7000e+000 89449 -2.9898e+002 -2.9766e+002  1.5986e+002 49666 89273,89377,89351
 2.7000e+000 89426 -2.6854e+002 -4.0503e+002  2.9252e+002 49666 89273,89325,89299
 2.7000e+000 89403 -3.0551e+002 -2.4950e+002  1.7731e+002 49666 89247,89377,89273
 2.7000e+000 89978 -3.7672e+002 -6.8080e+002 -2.2566e+001 49205 89681,89837,89733
 2.7000e+000 89955 -8.8053e+001 -3.3389e+002  1.6265e+002 49205 89655,89837,89681
 2.7000e+000 89932 -5.3773e+002 -6.6660e+002  2.5811e+002 49205 89785,89837,89811
 2.7000e+000 89909 -1.7429e+002 -4.7760e+002  1.1642e+002 49205 89733,89837,89785
 2.7000e+000 89886 -4.8953e+002 -5.7534e+002  2.2317e+002 49205 89733,89785,89759
 2.7000e+000 89863 -1.4302e+002 -2.9562e+002 -1.9680e+002 49205 89681,89733,89707
 2.7000e+000 90177 -2.7990e+002 -4.2034e+002  1.7968e+002 48865 90530,90200,90053
 2.7000e+000 90154 -2.1721e+002 -3.9275e+002  1.8997e+002 48865 90402,90200,90001
 2.7000e+000 90131 -3.3962e+002 -3.5249e+002  1.8453e+002 48865 90530,90053,90027
 2.7000e+000 90226 -3.1857e+002 -3.9045e+002  2.8617e+002 48865 90079,90053,90200
 2.7000e+000 90249 -2.2474e+002 -3.3002e+002  2.2531e+002 48865 90272,90200,90105
 2.7000e+000 90298 -1.9212e+002 -3.0409e+002  2.3687e+002 48865 90079,90200,90272
 2.7000e+000 90428 -1.4530e+002 -1.0631e+002  1.4405e+002 48865 90105,90200,90402
 2.7000e+000 90556 -3.3521e+002 -4.5682e+002  1.5615e+002 48865 90001,90200,90530
 2.7000e+000 90579 -4.3876e+002 -4.1172e+002  1.5871e+002 48865 90001,90530,90027
 2.7000e+000 90827 -3.4135e+002 -3.5473e+002  1.9758e+002 48404 90850,90654,90628
 2.7000e+000 90804 -3.5923e+002 -4.0567e+002  2.9292e+002 48404 90850,90628,90732
 2.7000e+000 90781 -2.4406e+002 -2.6857e+002  1.6589e+002 48404 90680,90732,90706
 2.7000e+000 90758 -5.0012e+002 -2.3583e+002  2.9847e+002 48404 90602,90732,90628
 2.7000e+000 90876 -3.4149e+002 -2.1087e+002  1.7207e+002 48404 90680,90654,90850
 2.7000e+000 90899 -3.5914e+002 -3.2305e+002  2.4638e+002 48404 90680,90850,90732
 2.7000e+000 91000 -2.2928e+002 -5.4207e+002  1.4772e+002 48156 90922,90974,90948
 2.7000e+000 91250 -1.5770e+002 -3.6908e+002  6.5858e+001 47752 91051,91103,91077
 2.7000e+000 91227 -3.0826e+002 -4.5571e+002  1.0768e+002 47752 91025,91103,91051
 2.7000e+000 91204 -4.6494e+002 -5.9323e+002  1.9171e+002 47752 91025,91155,91103
 2.7000e+000 91181 -4.1954e+002 -5.4931e+002  2.4217e+002 47752 91103,91155,91129
 2.7000e+000 91402 -2.9424e+002 -3.3254e+002  2.3739e+002 47191 91425,91301,91275
 2.7000e+000 91379 -2.6122e+002 -3.2034e+002  2.5812e+002 47191 91497,91425,91275
 2.7000e+000 91451 -3.1678e+002 -1.7909e+002  1.3936e+002 47191 91327,91301,91425
 2.7000e+000 91474 -3.8281e+002 -3.6868e+002  2.7359e+002 47191 91327,91425,91353
 2.7000e+000 91523 -3.6024e+002 -6.7675e+002  2.7212e+002 47191 91353,91425,91497
 2.7000e+000 91854 -2.7759e+002 -1.8941e+002  8.5026e+001 46744 91949,91877,91707
 2.7000e+000 91831 -2.3923e+002 -4.4392e+002  9.0374e+001 46744 91877,91655,91629
 2.7000e+000 91808 -2.7884e+002 -1.6758e+002  7.1096e+001 46744 91949,91707,91681
 2.7000e+000 91785 -6.2328e+002 -4.6075e+002 -1.2239e+002 46744 91629,91759,91733
 2.7000e+000 91903 -4.9088e+002 -3.9508e+002  1.7241e+002 46744 91733,91707,91877
 2.7000e+000 91926 -2.4045e+002 -5.1625e+002  8.6748e+001 46744 91733,91877,91629
 2.7000e+000 91975 -2.2967e+002 -4.1437e+002  1.8533e+002 46744 91655,91877,91949
 2.7000e+000 91998 -7.0591e+001 -2.8362e+002  1.2450e+002 46744 91655,91949,91681
 2.7000e+000 92378 -2.7122e+002 -7.8905e+001  1.5999e+002 46090 92130,92208,92182
 2.7000e+000 92355 -3.6664e+002 -1.2039e+002  1.5225e+002 46090 92104,92208,92130
 2.7000e+000 92332 -1.6985e+002 -2.6711e+002  1.4129e+002 46090 92104,92260,92208
 2.7000e+000 92309 -1.3311e+002 -4.8921e+001  1.1333e+002 46090 92208,92260,92234
 2.7000e+000 92286 -4.5930e+002 -1.3606e+002  1.9327e+002 46090 92130,92182,92156
 2.7000e+000 92626 -2.4325e+002 -3.2546e+002  1.3895e+002 45693 92721,92649,92505
 2.7000e+000 92603 -2.7470e+002 -3.2735e+002  2.8149e+002 45693 92649,92453,92427
 2.7000e+000 92580 -2.7152e+002 -2.4873e+002  1.3358e+002 45693 92721,92505,92479
 2.7000e+000 92557 -4.7984e+002 -4.6230e+002  3.4567e+002 45693 92401,92531,92427
 2.7000e+000 92675 -4.1179e+002 -3.2716e+002  1.7294e+002 45693 92531,92505,92649
 2.7000e+000 92698 -4.4975e+002 -3.9899e+002  3.6587e+002 45693 92531,92649,92427
 2.7000e+000 92747 -2.5596e+002 -2.3764e+002  1.3907e+002 45693 92453,92649,92721
 2.7000e+000 92770 -1.7900e+002 -1.1326e+001  1.6959e+002 45693 92453,92721,92479
 2.7000e+000 93172 -1.8815e+002 -3.1979e+002  2.8428e+002 45331 92898,93028,92924
 2.7000e+000 93149 -1.1358e+002 -2.7865e+002  1.9277e+002 45331 92898,93054,93028
 2.7000e+000 93126 -2.6742e+002 -2.0410e+002  3.1890e+002 45331 92924,93002,92976
 2.7000e+000 93103 -1.1041e+002 -2.8586e+002  2.7821e+002 45331 92924,93028,93002
 2.7000e+000 93080 -2.8779e+002 -3.3505e+002  3.3116e+002 45331 92924,92976,92950
 2.7000e+000 93518 -6.1494e+002 -6.2651e+002  2.8999e+002 44820 93613,93273,93247
 2.7000e+000 93495 -4.2340e+002 -4.4004e+002  1.9516e+002 44820 93685,93541,93247
 2.7000e+000 93472 -4.6230e+002 -2.9314e+002  1.6037e+002 44820 93541,93195,93377
 2.7000e+000 93449 -4.5100e+002 -3.9857e+002  1.6313e+002 44820 93685,93247,93221
 2.7000e+000 93426 -4.0680e+002 -5.1313e+002  2.8368e+002 44820 93299,93377,93351
 2.7000e+000 93403 -3.2438e+002 -3.4807e+002  3.3515e+002 44820 93299,93351,93325
 2.7000e+000 93567 -3.8770e+002 -5.8217e+002  1.4355e+002 44820 93613,93247,93541
 2.7000e+000 93590 -3.9573e+002 -4.5451e+002  9.4986e+001 44820 93299,93541,93377
 2.7000e+000 93639 -3.7599e+002 -6.9362e+002  1.9115e+002 44820 93299,93273,93613
 2.7000e+000 93662 -4.0418e+002 -6.8931e+002  1.6457e+002 44820 93299,93613,93541
 2.7000e+000 93711 -4.4696e+002 -3.3995e+002  1.2699e+002 44820 93195,93541,93685
 2.7000e+000 93734 -3.9221e+002 -1.5926e+002  1.0412e+002 44820 93195,93685,93221
 2.7000e+000 94163 -3.9462e+002 -4.1088e+002  1.7974e+002 44237 94258,94186,93996
 2.7000e+000 94140 -4.4041e+002 -4.7556e+002  1.1132e+002 44237 94330,94022,93996
 2.7000e+000 94117 -4.5476e+002 -4.2357e+002  1.3783e+002 44237 94186,93918,93866
 2.7000e+000 94094 -3.5527e+002 -3.1585e+002  1.8408e+002 44237 94258,93996,93970
 2.7000e+000 94071 -4.1695e+002 -2.3024e+002  1.7497e+002 44237 94402,93944,93918
 2.7000e+000 94048 -2.3419e+002 -3.5952e+002  1.4221e+002 44237 93866,93918,93892
 2.7000e+000 94212 -4.4018e+002 -4.8186e+002  1.4374e+002 44237 94330,93996,94186
 2.7000e+000 94235 -4.2913e+002 -3.8864e+002  1.5689e+002 44237 93840,94186,93866
 2.7000e+000 94284 -4.0586e+002 -3.1640e+002  1.2531e+002 44237 93918,94186,94258
 2.7000e+000 94307 -3.9247e+002 -2.4581e+002  1.4160e+002 44237 94402,93918,94258
 2.7000e+000 94356 -4.4192e+002 -1.8424e+002  1.4226e+001 44237 93840,94022,94330
 2.7000e+000 94379 -4.1614e+002 -4.2082e+002  1.5257e+002 44237 93840,94330,94186
 2.7000e+000 94428 -4.4961e+002 -2.9848e+002  1.9195e+002 44237 93970,93944,94402
 2.7000e+000 94451 -4.2293e+002 -3.1336e+002  1.5196e+002 44237 93970,94402,94258
 2.7000e+000 94908 -4.0274e+002 -5.8774e+002  7.0368e+001 43890 94660,94790,94712
 2.7000e+000 94885 -1.8110e+002 -1.9786e+002  1.9343e+002 43890 94634,94790,94660
 2.7000e+000 94862 -4.1123e+002 -3.8760e+002  1.1772e+002 43890 94712,94764,94738
 2.7000e+000 94839 -2.8459e+002 -3.4482e+002  1.6246e+002 43890 94712,94790,94764
 2.7000e+000 94816 -4.5478e+002 -3.9954e+002 -1.5070e+002 43890 94660,94712,94686
 2.7000e+000 95414 -2.5386e+002 -1.3571e+002  1.1882e+002 43186 95437,95143,95117
 2.7000e+000 95391 -3.0119e+002 -3.5968e+002  1.4484e+002 43186 95437,95117,95091
 2.7000e+000 95368 -8.7311e+001 -1.3985e+002  1.5068e+002 43186 95143,95221,95195
 2.7000e+000 95345 -4.8074e+002 -3.3508e+002  3.8735e+002 43186 95091,95273,95221
 2.7000e+000 95322 -3.0041e+002 -1.8405e+002  1.8776e+002 43186 95221,95273,95247
 2.7000e+000 95299 -1.5963e+002 -6.0888e+001  3.2115e+001 43186 95143,95195,95169
 2.7000e+000 95463 -2.3733e+002 -2.8737e+002  2.2865e+002 43186 95221,95143,95437
 2.7000e+000 95486 -2.5906e+002 -4.6290e+002  2.6223e+002 43186 95221,95437,95091
 2.7000e+000 96041 -4.8292e+002 -4.3967e+002  1.4059e+002 42782 95695,95851,95799
 2.7000e+000 96018 -4.3966e+002 -5.4566e+002  1.4157e+002 42782 95669,95851,95695
 2.7000e+000 95995 -4.3634e+002 -2.5476e+002  1.5047e+002 42782 95695,95747,95721
 2.7000e+000 95972 -3.3453e+002 -3.7542e+002  1.3324e+002 42782 95695,95799,95747
 2.7000e+000 95949 -2.9968e+002 -2.1374e+002  8.4561e+001 42782 95747,95799,95773
 2.7000e+000 95926 -5.8263e+002 -5.5545e+002  2.0203e+002 42782 95799,95851,95825
 2.7000e+000 95903 -6.2509e+002 -6.4148e+002  1.7947e+002 42782 95669,95877,95851
 2.7000e+000 96370 -4.4165e+002 -5.8483e+002  2.8316e+002 42420 96197,96275,96223
 2.7000e+000 96347 -4.2189e+002 -5.1891e+002  2.8031e+002 42420 96145,96275,96197
 2.7000e+000 96324 -4.1044e+002 -3.6714e+002  2.7419e+002 42420 96145,96197,96171
 2.7000e+000 96301 -2.9538e+002 -4.4595e+002  1.6079e+002 42420 96223,96275,96249
 2.7000e+000 96699 -2.3977e+002 -5.8461e+002 -3.0730e+001 41816 96474,96578,96526
 2.7000e+000 96676 -2.9339e+002 -5.1515e+002 -1.3819e+002 41816 96474,96604,96578
 2.7000e+000 96653 -1.3031e+002 -3.1189e+002  6.8617e+001 41816 96526,96578,96552
 2.7000e+000 96630 -2.2718e+002 -4.4612e+002  2.8752e+001 41816 96474,96526,96500
 2.7000e+000 96947 -2.0478e+002 -4.7793e+002  3.3032e+001 41212 96722,96800,96748
 2.7000e+000 96924 -2.4814e+002 -5.0749e+002  5.1963e+001 41212 96722,96826,96800
 2.7000e+000 96901 -4.4049e+002 -6.1546e+002  9.8548e+001 41212 96722,96852,96826
 2.7000e+000 96878 -5.1982e+001 -4.0751e+002  5.4122e+001 41212 96748,96800,96774
 2.7000e+000 97097 -2.1878e+002 -5.3245e+001  2.1768e+002 40793 97120,97022,96996
 2.7000e+000 97074 -4.2349e+002 -4.6672e+002  1.3468e+002 40793 97192,97120,96996
 2.7000e+000 97146 -1.5984e+002 -3.8693e+002  1.9482e+002 40793 97324,97120,97048
 2.7000e+000 97169 -1.4221e+002 -6.3532e+002  1.8697e+002 40793 97048,97120,96970
 2.7000e+000 97218 -6.7484e+001 -3.1507e+002  1.4042e+002 40793 96970,97120,97192
 2.7000e+000 97350 -1.5984e+002 -3.8693e+002  1.9482e+002 40793 97022,97120,97324
 2.7000e+000 97878 -2.4981e+002 -4.9716e+002  1.1307e+002 40446 97901,97607,97555
 2.7000e+000 97855 -2.3804e+002 -3.3723e+002  1.1272e+002 40446 97973,97901,97555
 2.7000e+000 97832 -1.4165e+002 -2.7635e+002  8.5967e+001 40446 97973,97555,97737
 2.7000e+000 97809 -3.9441e+002 -5.3359e+002  1.8202e+002 40446 97633,97685,97659
 2.7000e+000 97786 -2.7111e+002 -4.0933e+002  1.2090e+002 40446 97633,97711,97685
 2.7000e+000 97763 -2.4458e+002 -5.6187e+002  1.3411e+002 40446 97555,97607,97581
 2.7000e+000 97927 -2.6723e+002 -6.2027e+002 -2.2270e+001 40446 97633,97607,97901
 2.7000e+000 97950 -2.3351e+002 -4.8418e+002  1.0102e+002 40446 97633,97901,97711
 2.7000e+000 97999 -1.0330e+002 -4.5442e+002  1.6120e+002 40446 97711,97901,97973
 2.7000e+000 98022 -2.6963e+001 -3.9049e+002  1.3363e+002 40446 97711,97973,97737
 2.7000e+000 98449 -1.8702e+002 -1.2779e+002  1.1172e+002 39935 98152,98204,98178
 2.7000e+000 98426 -2.4254e+002 -1.7093e+002  8.6957e+001 39935 98152,98230,98204
 2.7000e+000 98403 -3.5834e+002 -2.1821e+002  1.8940e+002 39935 98152,98256,98230
 2.7000e+000 98380 -2.8407e+002 -2.5616e+002  1.9944e+002 39935 98126,98256,98152
 2.7000e+000 98357 -3.8286e+002 -5.0834e+002  2.1091e+002 39935 98126,98282,98256
 2.7000e+000 98334 -2.2884e+002 -7.0053e+002  2.7172e+002 39935 98126,98308,98282
 2.7000e+000 98746 -6.2444e+002 -5.1022e+002  1.8891e+002 39531 98498,98602,98524
 2.7000e+000 98723 -4.0934e+002 -4.6631e+002  1.7867e+002 39531 98472,98602,98498
 2.7000e+000 98700 -6.4423e+002 -2.7838e+002  1.1825e+002 39531 98524,98602,98576
 2.7000e+000 98677 -3.3946e+002 -4.3586e+002  1.6647e+002 39531 98472,98628,98602
 2.7000e+000 98654 -8.2153e+002 -7.7503e+002 -2.0747e+002 39531 98524,98576,98550
 2.7000e+000 99224 -6.1205e+002 -3.5139e+002  3.6295e+002 39027 99247,98956,98930
 2.7000e+000 99201 -5.4114e+002 -3.1904e+002  1.6655e+002 39027 99247,98930,98878
 2.7000e+000 99178 -4.6141e+002 -3.7451e+002  2.1756e+002 39027 99319,98982,98956
 2.7000e+000 99155 -4.9353e+002 -2.4819e+002  1.3200e+002 39027 98852,99060,98878
 2.7000e+000 99132 -6.7611e+002 -3.1143e+002  1.5464e+002 39027 98878,98930,98904
 2.7000e+000 99109 -3.7418e+002 -6.1902e+002  2.8493e+002 39027 98982,99060,99034
 2.7000e+000 99086 -4.5230e+002 -6.8329e+002  4.1049e+002 39027 98982,99034,99008
 2.7000e+000 99273 -4.2078e+002 -2.9746e+002  2.3796e+002 39027 99319,98956,99247
 2.7000e+000 99296 -4.4868e+002 -2.8650e+002  1.3351e+002 39027 99060,99247,98878
 2.7000e+000 99345 -4.5821e+002 -4.1154e+002  1.7782e+002 39027 99060,98982,99319
 2.7000e+000 99368 -4.6125e+002 -3.9289e+002  1.9118e+002 39027 99060,99319,99247
 2.7000e+000 99923 -4.1727e+002 -3.8659e+002  2.1212e+002 38523 99946,99655,99603
 2.7000e+000 99900 -3.6239e+002 -3.5791e+002  2.2709e+002 38523 99946,99603,99759
 2.7000e+000 99877 -2.3707e+002 -4.9440e+002  2.5378e+002 38523 100018,99707,99681
 2.7000e+000 99854 -3.9233e+002 -2.4683e+002  2.1378e+002 38523 99551,99759,99603
 2.7000e+000 99831 -4.0479e+002 -2.6689e+002  2.1996e+002 38523 99551,99603,99577
 2.7000e+000 99808 -4.0149e+002 -5.9620e+002  1.6351e+002 38523 99707,99759,99733
 2.7000e+000 99785 -3.0606e+002 -3.1963e+002  1.7886e+002 38523 99603,99655,99629
 2.7000e+000 99972 -3.3518e+002 -1.9409e+002  2.1859e+002 38523 99681,99655,99946
 2.7000e+000 99995 -2.7356e+002 -2.8866e+002  2.9046e+002 38523 100018,99681,99946
 2.7000e+000 100044 -3.0227e+002 -5.7551e+002  1.5946e+002 38523 99759,99707,100018
 2.7000e+000 100067 -4.1105e+002 -4.9735e+002  2.0026e+002 38523 99759,100018,99946
 2.7000e+000 100467 -8.2303e+001 -1.9013e+002  6.5626e+001 38125 100219,100349,100323
 2.7000e+000 100444 -8.7850e+001 -2.0590e+002  6.4425e+001 38125 100193,100349,100219
 2.7000e+000 100421 -7.5927e+001 -1.7538e+002  6.6294e+001 38125 100245,100323,100297
 2.7000e+000 100398 -8.0792e+001 -1.8987e+002  6.3475e+001 38125 100219,100323,100245
 2.7000e+000 100375 -1.7254e+002 -2.2753e+002  3.8680e+001 38125 100245,100297,100271
 2.7000e+000 100666 -4.2137e+002 -7.1264e+002  1.8382e+002 37607 100689,100568,100542
 2.7000e+000 100643 -3.0366e+002 -3.4915e+002  1.5060e+002 37607 100689,100542,100490
 2.7000e+000 100620 -1.4785e+002 -2.8685e+002  7.2755e+001 37607 100490,100542,100516
 2.7000e+000 100715 -2.9360e+002 -3.6290e+002  1.1387e+002 37607 100594,100568,100689
 2.7000e+000 100738 -3.7269e+002 -2.6447e+002  1.1723e+002 37607 100594,100689,100490
 2.7000e+000 100937 -2.5243e+002 -2.6320e+002  1.9409e+002 37017 100960,100813,100787
 2.7000e+000 100914 -1.6043e+002 -2.6043e+002  1.0041e+002 37017 100960,100787,100761
 2.7000e+000 100891 -4.7539e+002 -1.9847e+002  2.3507e+002 37017 100813,100865,100839
 2.7000e+000 100986 -3.7485e+002 -3.6678e+002  2.9519e+002 37017 100865,100813,100960
 2.7000e+000 101009 -1.9606e+002 -3.0286e+002  1.9466e+002 37017 100865,100960,100761
 2.7000e+000 101519 -3.4798e+002 -1.7655e+002  5.1486e+001 36613 101222,101274,101248
 2.7000e+000 101496 -1.8096e+002 -1.7249e+002  8.7075e+001 36613 101222,101352,101274
 2.7000e+000 101473 -9.7961e+001 -3.2079e+002 -4.0194e+001 36613 101274,101352,101326
 2.7000e+000 101450 -2.5110e+002 -2.2991e+002  6.2171e+001 36613 101222,101378,101352
 2.7000e+000 101427 -8.5147e+001 -5.0974e+002 -1.2197e+001 36613 101274,101326,101300
 2.7000e+000 101404 -2.4191e+002 -2.5028e+002  1.3121e+002 36613 101196,101378,101222
 2.7000e+000 101718 -3.3958e+002 -3.2606e+002  3.5438e+002 36308 101594,101646,101620
 2.7000e+000 101695 -3.5663e+002 -2.1456e+002  2.3010e+002 36308 101568,101646,101594
 2.7000e+000 101672 -2.5486e+002 -2.3986e+002  2.4808e+002 36308 101542,101646,101568
 2.7000e+000 102098 -3.2181e+002 -2.7472e+002  1.5727e+002 35918 102121,101954,101876
 2.7000e+000 102075 -2.9224e+002 -3.7711e+002  1.0848e+002 35918 102121,101876,101824
 2.7000e+000 102052 -2.7078e+002 -2.5332e+002  1.1639e+002 35918 101876,101954,101928
 2.7000e+000 102029 -4.2686e+002 -1.3901e+002  1.4864e+002 35918 101876,101928,101902
 2.7000e+000 102006 -3.0633e+002 -4.5636e+002  1.8629e+002 35918 101824,101876,101850
 2.7000e+000 102147 -2.6760e+002 -3.7044e+002  2.0679e+002 35918 101980,101954,102121
 2.7000e+000 102170 -2.6058e+002 -4.9865e+002  1.4302e+002 35918 101980,102121,101824
 2.7000e+000 102489 -3.7603e+002 -8.7160e+002  2.7781e+002 35514 102241,102345,102267
 2.7000e+000 102466 -5.0792e+002 -9.2323e+002  2.8835e+002 35514 102215,102345,102241
 2.7000e+000 102443 -4.1374e+002 -9.9996e+002  3.0311e+002 35514 102215,102371,102345
 2.7000e+000 102420 -3.0391e+002 -7.2184e+002  3.2075e+002 35514 102267,102345,102293
 2.7000e+000 102397 -1.7661e+002 -4.6220e+002  3.6705e+002 35514 102293,102345,102319
 2.7000e+000 102820 -6.0869e+002 -3.8346e+002  7.1418e+001 35224 102843,102699,102647
 2.7000e+000 102797 -5.0055e+002 -3.6913e+002  1.4838e+002 35224 102971,102725,102699
 2.7000e+000 102774 -6.8422e+002 -4.0257e+002  3.3721e+002 35224 102595,102725,102621
 2.7000e+000 102751 -1.8348e+002 -2.8020e+002  1.7066e+002 35224 102647,102699,102673
 2.7000e+000 102869 -4.7621e+002 -3.2355e+002  1.3019e+002 35224 102971,102699,102843
 2.7000e+000 102997 -4.5446e+002 -4.1214e+002  1.4282e+002 35224 102621,102725,102971
 2.7000e+000 103020 -4.3862e+002 -3.8110e+002  1.2289e+002 35224 102621,102971,102843
 2.7000e+000 103349 -4.8234e+002 -3.5567e+002  2.2539e+002 34820 103150,103228,103176
 2.7000e+000 103326 -4.1550e+002 -4.1631e+002  2.1234e+002 34820 103124,103228,103150
 2.7000e+000 103303 -3.8813e+002 -3.9415e+002  3.8521e+002 34820 103176,103228,103202
 2.7000e+000 103280 -2.9591e+002 -3.6031e+002  2.8331e+002 34820 103124,103254,103228
 2.7000e+000 103806 -3.0959e+002 -3.0349e+002  8.8041e+001 34530 103558,103662,103636
 2.7000e+000 103783 -3.4037e+002 -2.7166e+002  1.4509e+002 34530 103558,103688,103662
 2.7000e+000 103760 -3.8697e+002 -3.5181e+002  1.2257e+002 34530 103532,103688,103558
 2.7000e+000 103737 -1.7345e+002 -3.4337e+002  6.2081e+001 34530 103584,103636,103610
 2.7000e+000 103714 -5.4352e+002 -3.3357e+002  9.1421e+001 34530 103558,103636,103584
 2.7000e+000 104263 -2.3177e+002 -2.7324e+002  1.9088e+002 34019 103989,104119,104015
 2.7000e+000 104240 -1.8320e+002 -2.4908e+002  2.0481e+002 34019 103989,104145,104119
 2.7000e+000 104217 -2.3644e+002 -3.2333e+002  1.2170e+002 34019 104015,104067,104041
 2.7000e+000 104194 -2.6743e+002 -3.4602e+002  1.6992e+002 34019 104015,104119,104067
 2.7000e+000 104171 -2.5631e+002 -2.3131e+002  1.5828e+002 34019 104067,104119,104093
 2.7000e+000 104641 -2.7440e+002 -2.4338e+002  1.2641e+002 33351 104419,104497,104445
 2.7000e+000 104618 -1.7076e+002 -1.3073e+002  1.8937e+002 33351 104393,104497,104419
 2.7000e+000 104595 -3.5594e+002 -2.3129e+002  5.7751e+001 33351 104367,104497,104393
 2.7000e+000 104572 -3.1710e+002 -3.4782e+002  1.6450e+002 33351 104445,104497,104471
 2.7000e+000 104549 -3.3716e+002 -4.1240e+002  9.6886e+000 33351 104367,104523,104497
 2.7000e+000 105019 -3.1631e+002 -6.7230e+002  3.6572e+002 32861 104823,104901,104875
 2.7000e+000 104996 -4.4906e+002 -8.0509e+002  3.0612e+002 32861 104745,104901,104823
 2.7000e+000 104973 -4.5119e+002 -7.3168e+002  3.2618e+002 32861 104823,104875,104849
 2.7000e+000 104950 -4.4798e+002 -7.7881e+002  4.0706e+002 32861 104745,104823,104797
 2.7000e+000 104927 -5.4391e+002 -3.0720e+002  4.1084e+002 32861 104745,104797,104771
 2.7000e+000 105397 -1.8112e+002 -4.5321e+002  1.8393e+002 32457 105149,105253,105175
 2.7000e+000 105374 -2.8002e+002 -4.0090e+002  1.5653e+002 32457 105149,105279,105253
 2.7000e+000 105351 -1.9894e+002 -3.3302e+002  1.8825e+002 32457 105123,105279,105149
 2.7000e+000 105328 -2.6336e+002 -1.1157e+002  2.4635e+002 32457 105175,105227,105201
 2.7000e+000 105305 -3.5387e+002 -5.2726e+002  1.8226e+002 32457 105175,105253,105227
 2.7000e+000 105726 -1.4838e+002 -4.7274e+002  2.0403e+002 32003 105527,105605,105553
 2.7000e+000 105703 -2.4497e+002 -4.0998e+002  1.9314e+002 32003 105501,105605,105527
 2.7000e+000 105680 -1.3242e+002 -3.6947e+002  1.9804e+002 32003 105501,105631,105605
 2.7000e+000 105657 -6.5847e+001 -2.9374e+002  1.8014e+002 32003 105553,105605,105579
 2.7000e+000 106104 -2.6055e+002 -4.7614e+002  1.0046e+002 31492 106127,105908,105856
 2.7000e+000 106081 -2.3477e+002 -4.6593e+002  1.1172e+002 31492 106127,105856,105830
 2.7000e+000 106058 -3.0073e+002 -5.6717e+002  1.3076e+002 31492 105856,105908,105882
 2.7000e+000 106035 -1.2191e+002 -2.9324e+002  4.3863e+001 31492 105830,105986,105960
 2.7000e+000 106012 -1.2175e+002 -4.8374e+002  1.9072e+002 31492 105908,105960,105934
 2.7000e+000 106153 -2.6826e+002 -4.5908e+002  1.1851e+002 31492 105960,105908,106127
 2.7000e+000 106176 -2.5219e+002 -4.4719e+002  1.2860e+002 31492 105960,106127,105830
 2.7000e+000 106375 -3.3735e+002 -3.5418e+002  2.3398e+002 30788 106398,106277,106251
 2.7000e+000 106352 -3.5492e+002 -5.0166e+002  2.4834e+002 30788 106398,106251,106225
 2.7000e+000 106329 -5.3197e+002 -4.0713e+002  3.5502e+002 30788 106600,106199,106303
 2.7000e+000 106424 -4.7094e+002 -5.5823e+002  1.7079e+002 30788 106470,106398,106303
 2.7000e+000 106447 -3.4830e+002 -4.7275e+002  2.3583e+002 30788 106600,106303,106398
 2.7000e+000 106496 -1.2843e+002 -4.1245e+002  1.9127e+002 30788 106277,106398,106470
 2.7000e+000 106626 -6.4082e+002 -5.4815e+002  4.4685e+002 30788 106225,106199,106600
 2.7000e+000 106649 -5.1624e+002 -6.2348e+002  3.2496e+002 30788 106225,106600,106398
 2.7000e+000 106799 -1.4611e+002 -5.8835e+002 -1.2288e+001 30426 106698,106750,106724
 2.7000e+000 106776 -1.8992e+002 -4.4309e+002 -2.1705e+001 30426 106672,106750,106698
 2.7000e+000 107356 -3.2213e+002 -3.5148e+002  1.8048e+002 29972 107010,107166,107114
 2.7000e+000 107333 -4.1254e+002 -3.2170e+002  2.6302e+002 29972 106984,107166,107010
 2.7000e+000 107310 -4.0274e+002 -2.4546e+002  1.3735e+002 29972 107010,107114,107088
 2.7000e+000 107287 -3.3244e+002 -1.8053e+002  9.8556e+001 29972 107114,107166,107140
 2.7000e+000 107264 -4.1013e+002 -3.7516e+002  2.9451e+002 29972 106984,107192,107166
 2.7000e+000 107241 -5.5762e+002 -5.3649e+002  1.9484e+002 29972 107010,107088,107036
 2.7000e+000 107218 -3.3211e+002 -4.3268e+002  1.5578e+002 29972 107036,107088,107062
 2.7000e+000 107783 -4.4461e+002 -5.9175e+002  2.9895e+002 29724 107878,107806,107590
 2.7000e+000 107760 -5.5149e+002 -6.2029e+002  2.5393e+002 29724 107806,107512,107486
 2.7000e+000 107737 -4.5720e+002 -5.6407e+002  3.3646e+002 29724 107878,107590,107538
 2.7000e+000 107714 -4.3522e+002 -6.5510e+002  3.1613e+002 29724 107950,107460,107616
 2.7000e+000 107691 -3.8848e+002 -6.3159e+002  3.0449e+002 29724 107460,107642,107616
 2.7000e+000 107668 -3.2238e+002 -4.5509e+002  3.8371e+002 29724 107538,107590,107564
 2.7000e+000 107832 -3.0987e+002 -5.8384e+002  3.5008e+002 29724 107616,107590,107806
 2.7000e+000 107855 -4.4480e+002 -6.6040e+002  3.1175e+002 29724 107950,107616,107806
 2.7000e+000 107904 -4.2568e+002 -5.3168e+002  3.0524e+002 29724 107512,107806,107878
 2.7000e+000 107927 -4.1662e+002 -4.8295e+002  3.5183e+002 29724 107512,107878,107538
 2.7000e+000 107976 -2.4873e+002 -6.4013e+002  3.3654e+002 29724 107486,107460,107950
 2.7000e+000 107999 -4.1959e+002 -6.9675e+002  3.0056e+002 29724 107486,107950,107806
 2.7000e+000 108296 -4.8494e+002 -3.6535e+002  2.5963e+002 29206 108319,108100,108048
 2.7000e+000 108273 -2.7561e+002 -3.2197e+002  3.1406e+002 29206 108319,108048,108022
 2.7000e+000 108250 -1.4524e+002 -3.9257e+002  3.8114e+002 29206 108391,108152,108126
 2.7000e+000 108227 -5.5249e+002 -2.6332e+002  3.0646e+002 29206 108048,108100,108074
 2.7000e+000 108204 -2.0945e+002 -5.4458e+002  3.2650e+002 29206 108022,108178,108152
 2.7000e+000 108345 -3.5321e+002 -2.0251e+002  3.7861e+002 29206 108126,108100,108319
 2.7000e+000 108368 -1.9619e+002 -3.1098e+002  4.2768e+002 29206 108391,108126,108319
 2.7000e+000 108417 -2.7283e+002 -4.9213e+002  3.2778e+002 29206 108022,108152,108391
 2.7000e+000 108440 -3.1173e+002 -4.2910e+002  3.7675e+002 29206 108022,108391,108319
 2.7000e+000 108688 -4.1635e+002 -5.0289e+002  3.2633e+002 28595 108711,108541,108515
 2.7000e+000 108665 -6.0351e+002 -5.5127e+002  4.1426e+002 28595 108783,108711,108515
 2.7000e+000 108642 -7.2221e+002 -4.9403e+002  4.1466e+002 28595 108783,108515,108489
 2.7000e+000 108619 -6.8885e+002 -6.0260e+002  1.9051e+002 28595 108463,108593,108489
 2.7000e+000 108737 -3.8582e+002 -4.2881e+002  2.4263e+002 28595 108567,108541,108711
 2.7000e+000 108760 -3.4389e+002 -4.6825e+002  3.6250e+002 28595 108567,108711,108593
 2.7000e+000 108809 -4.0316e+002 -5.6087e+002  3.2979e+002 28595 108593,108711,108783
 2.7000e+000 108832 -5.8816e+002 -5.4156e+002  2.9928e+002 28595 108593,108783,108489
 2.7000e+000 109033 -1.5057e+002 -2.0617e+002  1.1815e+002 28091 108909,108961,108935
 2.7000e+000 109010 -1.4749e+002 -2.4022e+002  1.1329e+002 28091 108857,108961,108909
 2.7000e+000 108987 -3.0014e+002 -3.8190e+002  2.9574e+002 28091 108857,108909,108883
 2.7000e+000 109136 -3.7629e+002 -8.8778e+002  1.6201e+002 27587 109058,109110,109084
 2.7000e+000 109695 -3.8219e+002 -4.0732e+002  1.5764e+002 26969 109718,109375,109323
 2.7000e+000 109672 -3.6733e+002 -4.1774e+002  1.1575e+002 26969 109718,109323,109505
 2.7000e+000 109649 -3.6192e+002 -1.8592e+002  8.6931e+001 26969 109790,109453,109427
 2.7000e+000 109626 -1.5402e+002 -3.7173e+002  2.1226e+002 26969 109323,109375,109349
 2.7000e+000 109603 -3.2973e+002 -4.1148e+002  1.1662e+002 26969 109323,109531,109505
 2.7000e+000 109580 -2.8651e+002 -4.7451e+002  1.1328e+002 26969 109375,109427,109401
 2.7000e+000 109557 -4.0940e+002 -4.2779e+002  1.9617e+002 26969 109453,109505,109479
 2.7000e+000 109744 -3.8300e+002 -4.3452e+002  9.0432e+001 26969 109427,109375,109718
 2.7000e+000 109767 -3.2753e+002 -2.7716e+002  6.9755e+001 26969 109790,109427,109718
 2.7000e+000 109816 -3.4335e+002 -2.9078e+002  1.3101e+002 26969 109505,109453,109790
 2.7000e+000 109839 -3.2183e+002 -3.9077e+002  1.2729e+002 26969 109505,109790,109718
 2.7000e+000 110266 -2.6219e+002 -4.8068e+002  8.7495e+001 26515 110361,110289,110099
 2.7000e+000 110243 -2.1403e+002 -3.3589e+002  1.0971e+002 26515 110289,109995,109943
 2.7000e+000 110220 -3.4810e+002 -5.1773e+002  9.0272e+001 26515 110361,110099,110021
 2.7000e+000 110197 -3.1444e+002 -9.0789e+002  7.6211e+001 26515 110047,110099,110073
 2.7000e+000 110174 -3.1558e+002 -8.3439e+002 -7.0443e+001 26515 110021,110099,110047
 2.7000e+000 110151 -6.5320e+001 -1.6292e+002  1.8063e+002 26515 109943,109995,109969
 2.7000e+000 110315 -3.4253e+002 -2.9167e+002  2.6374e+001 26515 110125,110099,110289
 2.7000e+000 110338 -3.0432e+002 -1.0001e+002  2.0196e+002 26515 110125,110289,109943
 2.7000e+000 110387 -3.3277e+002 -4.3902e+002 -1.1903e+001 26515 109995,110289,110361
 2.7000e+000 110410 -4.0650e+002 -4.7059e+002 -3.4073e+000 26515 109995,110361,110021
 2.7000e+000 110609 -8.5372e+001 -5.1627e+002  1.9122e+002 25789 110906,110762,110632
 2.7000e+000 110586 -1.0525e+002 -6.3929e+002  2.1221e+002 25789 110762,110433,110537
 2.7000e+000 110563 -3.1140e+002 -5.8438e+002  3.3025e+002 25789 110834,110459,110433
 2.7000e+000 110658 -1.5932e+002 -4.9385e+002  2.4688e+002 25789 110906,110632,110834
 2.7000e+000 110788 -5.0737e+001 -3.3963e+002  1.1021e+002 25789 110511,110632,110762
 2.7000e+000 110811 -1.1580e+002 -5.1559e+002  2.0492e+002 25789 110511,110762,110537
 2.7000e+000 110860 -1.9092e+002 -5.0575e+002  2.7391e+002 25789 110485,110459,110834
 2.7000e+000 110883 -2.2386e+002 -4.6816e+002  2.3910e+002 25789 110485,110834,110632
 2.7000e+000 110932 -2.3901e+002 -5.6768e+002  1.9831e+002 25789 110433,110762,110906
 2.7000e+000 110955 -2.9890e+002 -5.2963e+002  2.4326e+002 25789 110433,110906,110834
 2.7000e+000 111350 -3.0655e+002 -4.5830e+002  2.9620e+002 25228 111445,111373,111186
 2.7000e+000 111327 -3.2121e+002 -4.6434e+002  8.7929e+001 25228 110978,111186,111004
 2.7000e+000 111304 -3.3022e+002 -5.9856e+002  2.7949e+002 25228 111373,111108,111082
 2.7000e+000 111281 -3.1594e+002 -6.0097e+002  2.3985e+002 25228 111134,111186,111160
 2.7000e+000 111258 -3.1053e+002 -4.3117e+002  2.6792e+002 25228 111445,111186,111134
 2.7000e+000 111235 -2.8270e+002 -3.1851e+002  1.6908e+002 25228 111517,111030,111004
 2.7000e+000 111212 -3.8176e+002 -4.2528e+002  2.4983e+002 25228 111030,111082,111056
 2.7000e+000 111399 -3.3070e+002 -5.2429e+002  2.7919e+002 25228 111004,111186,111373
 2.7000e+000 111422 -2.4022e+002 -3.9271e+002  2.3345e+002 25228 111517,111004,111373
 2.7000e+000 111471 -2.7030e+002 -4.3053e+002  2.6595e+002 25228 111108,111373,111445
 2.7000e+000 111494 -2.7374e+002 -3.9981e+002  2.3775e+002 25228 111108,111445,111134
 2.7000e+000 111543 -3.7422e+002 -3.5062e+002  2.5667e+002 25228 111082,111030,111517
 2.7000e+000 111566 -3.4118e+002 -4.5767e+002  3.2120e+002 25228 111082,111517,111373
 2.7000e+000 112074 -2.0651e+002 -3.1940e+002  1.8101e+002 24338 112097,111907,111881
 2.7000e+000 112051 -2.8589e+002 -2.9705e+002  9.8840e+001 24338 112097,111881,111829
 2.7000e+000 112028 -9.6143e+001 -2.8818e+002  8.9822e+001 24338 111829,111881,111855
 2.7000e+000 112005 -3.1707e+002 -4.4731e+002  1.3019e+002 24338 111777,111933,111829
 2.7000e+000 111982 -4.4395e+002 -2.2548e+002  1.4053e+002 24338 111751,111933,111777
 2.7000e+000 111959 -3.5337e+002 -5.0863e+002  1.6022e+002 24338 111777,111829,111803
 2.7000e+000 112123 -3.0089e+002 -5.6619e+002  1.7211e+002 24338 111933,111907,112097
 2.7000e+000 112146 -2.7695e+002 -3.6100e+002  1.1173e+002 24338 111933,112097,111829
 2.7000e+000 112443 -4.7303e+002 -3.4096e+002  2.1300e+002 23998 112466,112299,112247
 2.7000e+000 112420 -5.1798e+002 -5.6441e+002  1.9853e+002 23998 112466,112247,112221
 2.7000e+000 112397 -3.7572e+002 -6.7089e+002  3.0589e+002 23998 112169,112325,112221
 2.7000e+000 112374 -3.2366e+002 -6.1703e+002  3.3564e+002 23998 112169,112221,112195
 2.7000e+000 112351 -2.0094e+002 -3.1045e+002  2.5109e+002 23998 112247,112299,112273
 2.7000e+000 112492 -4.5735e+002 -3.8066e+002  3.4476e+002 23998 112325,112299,112466
 2.7000e+000 112515 -5.0330e+002 -5.0360e+002  3.0470e+002 23998 112325,112466,112221
 2.7000e+000 113200 -5.1375e+002 -6.2409e+002  4.3142e+002 23480 112779,112961,112805
 2.7000e+000 113177 -5.4646e+002 -4.2612e+002  1.8284e+002 23480 112779,112987,112961
 2.7000e+000 113154 -1.3645e+002 -3.1371e+002  2.7869e+002 23480 112805,112961,112883
 2.7000e+000 113131 -3.0526e+002 -5.4628e+002  3.0497e+002 23480 112883,112935,112909
 2.7000e+000 113108 -4.1388e+002 -4.2846e+002  3.1197e+002 23480 112883,112961,112935
 2.7000e+000 113085 -1.2836e+002 -2.4716e+002  1.3876e+002 23480 112831,112883,112857
 2.7000e+000 113062 -2.5571e+002 -3.3463e+002  1.9437e+002 23480 112805,112883,112831
 2.7000e+000 113039 -5.8826e+002 -3.4770e+002  1.9038e+002 23480 112779,113013,112987
 2.7000e+000 113676 -4.9140e+002 -2.3594e+002  3.9458e+002 23018 113699,113434,113356
 2.7000e+000 113653 -4.3421e+002 -2.3353e+002  2.0982e+002 23018 113771,113699,113356
 2.7000e+000 113630 -3.8583e+002 -3.8310e+002  1.4404e+002 23018 113771,113356,113512
 2.7000e+000 113607 -2.7462e+002 -5.3203e+002  2.3939e+002 23018 113330,113512,113356
 2.7000e+000 113584 -9.9146e+002 -4.9332e+002  5.7927e+002 23018 113356,113434,113382
 2.7000e+000 113561 -1.1324e+002 -4.9933e+002  2.3774e+002 23018 113304,113512,113330
 2.7000e+000 113538 -9.2849e+002 -9.0524e+001  2.3986e+002 23018 113382,113434,113408
 2.7000e+000 113725 -5.5975e+002 -3.9642e+002  3.9313e+002 23018 113460,113434,113699
 2.7000e+000 113748 -6.1596e+002 -4.3879e+002  2.4601e+002 23018 113460,113699,113486
 2.7000e+000 113797 -5.6271e+002 -4.5391e+002  2.6231e+002 23018 113486,113699,113771
 2.7000e+000 113820 -4.3849e+002 -4.8583e+002  1.6392e+002 23018 113486,113771,113512
 2.7000e+000 114424 -2.3317e+002 -3.7517e+002  8.5582e+001 22514 114447,114133,114029
 2.7000e+000 114401 -2.3726e+002 -4.3431e+002  8.5757e+001 22514 114447,114029,114237
 2.7000e+000 114378 -1.2340e+002 -3.1682e+002  1.4457e+002 22514 114133,114211,114185
 2.7000e+000 114355 -1.9618e+002 -3.1031e+002  1.1855e+002 22514 114133,114185,114159
 2.7000e+000 114332 -1.4535e+002 -4.3540e+002  1.6528e+002 22514 114003,114237,114029
 2.7000e+000 114309 -2.4023e+002 -2.9073e+002  6.0862e+001 22514 114029,114133,114055
 2.7000e+000 114286 -2.4636e+002 -2.4508e+002  6.2737e+001 22514 114055,114133,114107
 2.7000e+000 114263 -1.9500e+002 -1.0914e+002  1.1615e+002 22514 114055,114107,114081
 2.7000e+000 114473 -2.4960e+002 -3.4223e+002  1.0930e+002 22514 114211,114133,114447
 2.7000e+000 114496 -2.4332e+002 -3.8658e+002  1.0811e+002 22514 114211,114447,114237
 2.7000e+000 114597 -2.3024e+002 -5.7053e+002  3.0112e+002 22316 114620,114571,114545
 2.7000e+000 114646 -2.3024e+002 -5.7053e+002  3.0112e+002 22316 114519,114571,114620
 2.7000e+000 115127 -3.4910e+002 -4.7917e+002  1.2876e+002 21612 115150,114905,114879
 2.7000e+000 115104 -3.9295e+002 -2.8719e+002  1.6430e+002 21612 115150,114879,114853
 2.7000e+000 115081 -3.1146e+002 -1.4940e+002  2.6068e+002 21612 115222,114931,114905
 2.7000e+000 115058 -2.9990e+002 -3.6206e+002  2.1328e+002 21612 115222,114905,115009
 2.7000e+000 115035 -1.6177e+002 -4.8526e+002  1.9239e+002 21612 114957,115009,114983
 2.7000e+000 115176 -3.1888e+002 -3.2110e+002  1.4364e+002 21612 115009,114905,115150
 2.7000e+000 115199 -3.4872e+002 -1.0564e+002  1.7339e+002 21612 115009,115150,114853
 2.7000e+000 115248 -3.3371e+002 -3.2586e+002  2.3544e+002 21612 114957,114931,115222
 2.7000e+000 115271 -3.1456e+002 -5.2503e+002  1.8484e+002 21612 114957,115222,115009
 2.7000e+000 115519 -1.2406e+002  5.5896e+001  1.1332e+002 21208 115542,115372,115320
 2.7000e+000 115496  1.0811e+001  1.3644e+002 -3.0200e+000 21208 115542,115320,115294
 2.7000e+000 115473 -7.8403e+001 -1.9262e+002  1.6448e+002 21208 115320,115372,115346
 2.7000e+000 115450 -3.0010e+002 -1.0056e+002  6.8261e+001 21208 115294,115424,115398
 2.7000e+000 115568 -1.7939e+002  1.4176e+001  1.6726e+002 21208 115398,115372,115542
 2.7000e+000 115591 -1.2489e+002 -5.8770e+001  7.4825e+001 21208 115398,115542,115294
 2.7000e+000 115839 -3.5183e+002 -2.9110e+002  2.6987e+002 20668 115862,115640,115614
 2.7000e+000 115816 -3.6444e+002 -3.2972e+002  2.7327e+002 20668 115862,115614,115744
 2.7000e+000 115793 -3.2201e+002 -1.6180e+002  2.4583e+002 20668 115640,115718,115692
 2.7000e+000 115770 -5.8387e+002 -2.1099e+002  2.3229e+002 20668 115640,115692,115666
 2.7000e+000 115888 -3.7137e+002 -2.2389e+002  2.9706e+002 20668 115718,115640,115862
 2.7000e+000 115911 -4.0233e+002 -2.9463e+002  3.0424e+002 20668 115718,115862,115744
 2.7000e+000 116134 -3.2722e+002 -4.9785e+002  2.9984e+002 20264 115958,116036,115984
 2.7000e+000 116111 -1.6897e+002 -4.2281e+002  2.7796e+002 20264 115958,116062,116036
 2.7000e+000 116088 -1.8667e+002 -4.7462e+002  3.2506e+002 20264 115984,116036,116010
 2.7000e+000 116384 -5.0790e+002 -3.5595e+002  3.7327e+002 19924 116407,116211,116159
 2.7000e+000 116361 -4.7431e+002 -5.9081e+002  3.1555e+002 19924 116407,116159,116263
 2.7000e+000 116338 -4.7368e+002 -2.1823e+002  3.6222e+002 19924 116159,116211,116185
 2.7000e+000 116315 -3.1460e+002 -5.7394e+002  3.6269e+002 19924 116159,116289,116263
 2.7000e+000 116433 -4.8939e+002 -2.2555e+002  4.2643e+002 19924 116237,116211,116407
 2.7000e+000 116456 -3.6892e+002 -3.8316e+002  3.9795e+002 19924 116237,116407,116263
 2.7000e+000 116608 -2.0355e+002 -3.9359e+001  1.9402e+002 19520 116703,116631,116533
 2.7000e+000 116585 -8.9426e+001 -1.0884e+002  1.1203e+002 19520 116631,116507,116481
 2.7000e+000 116657 -1.7357e+002 -1.1887e+002  2.2576e+002 19520 116559,116533,116631
 2.7000e+000 116680 -1.3982e+002 -2.9364e+002  1.4835e+002 19520 116559,116631,116481
 2.7000e+000 116729 -2.0355e+002 -3.9359e+001  1.9402e+002 19520 116507,116631,116703
 2.7000e+000 116952 -4.3283e+002 -3.6990e+002  5.2167e+002 19208 116975,116802,116776
 2.7000e+000 116929 -5.4413e+002 -6.9484e+002  3.0001e+002 19208 116975,116776,116880
 2.7000e+000 116906 -5.8213e+002 -2.5029e+002  3.6988e+002 19208 116802,116854,116828
 2.7000e+000 117001 -3.4515e+002 -3.1321e+002  5.4668e+002 19208 116854,116802,116975
 2.7000e+000 117024 -1.4120e+002 -3.9896e+002  4.3490e+002 19208 116854,116975,116880
 2.7000e+000 117428 -3.9444e+002 -1.3689e+002  2.4991e+002 18796 117154,117206,117180
 2.7000e+000 117405 -2.8157e+002 -3.2421e+002  2.3232e+002 18796 117154,117284,117206
 2.7000e+000 117382 -1.5764e+002 -2.7199e+002  2.2993e+002 18796 117154,117310,117284
 2.7000e+000 117359 -1.6233e+002 -2.1971e+002  3.0289e+002 18796 117206,117284,117258
 2.7000e+000 117336 -2.2884e+001 -2.6371e+001  4.1830e+002 18796 117206,117258,117232
 2.7000e+000 117529 -1.8357e+002 -9.8057e+001  1.1621e+002 18228 117810,117552,117477
 2.7000e+000 117578 -4.5927e+002 -2.7729e+002  2.1383e+002 18228 117682,117552,117503
 2.7000e+000 117708 -1.4803e+002 -1.0426e+002  1.0948e+002 18228 117477,117552,117682
 2.7000e+000 117836 -2.9020e+002 -2.7513e+002  1.8708e+002 18228 117451,117552,117810
 2.7000e+000 118364 -4.4035e+002 -1.3766e+002  1.9160e+002 17722 118067,118223,118093
 2.7000e+000 118341 -4.3872e+002 -7.4697e+001  1.8015e+002 17722 118041,118223,118067
 2.7000e+000 118318 -2.4103e+002 -1.5344e+002  1.4694e+002 17722 118093,118223,118197
 2.7000e+000 118295 -8.4852e+002 -8.1885e+002  5.3887e+002 17722 118119,118197,118171
 2.7000e+000 118272 -1.0517e+002 -7.8821e+000  2.2513e+002 17722 118093,118197,118119
 2.7000e+000 118249 -7.9006e+002 -3.1341e+002  4.3873e+002 17722 118119,118171,118145
 2.7000e+000 118514 -7.6466e+002 -3.0305e+002  2.8552e+002 17268 118387,118439,118413
 2.7000e+000 118491 -6.1945e+001 -3.7220e+002  3.1724e+002 17268 118387,118465,118439
 2.7000e+000 118916 -3.9510e+002 -1.0507e+002  1.5061e+002 16828 118668,118772,118694
 2.7000e+000 118893 -5.2888e+002 -1.6610e+002  1.3000e+002 16828 118668,118798,118772
 2.7000e+000 118870 -5.6523e+002 -3.0940e+002  8.0499e+001 16828 118642,118798,118668
 2.7000e+000 118847 -1.5374e+002 -5.0259e+001  2.9917e+002 16828 118694,118746,118720
 2.7000e+000 118824 -4.4813e+002 -2.8305e+002  1.4009e+002 16828 118694,118772,118746
 2.7000e+000 119316 -2.0501e+002 -1.6471e+002  2.6032e+002 16422 119042,119172,119094
 2.7000e+000 119293 -2.8352e+002 -1.8586e+002  2.6490e+002 16422 119042,119198,119172
 2.7000e+000 119270 -3.7630e+002 -9.2936e+001  1.3699e+002 16422 119042,119094,119068
 2.7000e+000 119247 -7.8050e+001 -3.7543e+001  3.7296e+002 16422 119094,119146,119120
 2.7000e+000 119224 -1.6017e+002 -8.5637e+001  2.7924e+002 16422 119094,119172,119146
 2.7000e+000 119466 -1.0558e+002  4.1009e+001  7.9177e+001 16010 119339,119391,119365
 2.7000e+000 119443 -5.5787e+001 -4.7174e+001  2.1159e+002 16010 119339,119417,119391
 2.7000e+000 119616 -1.2078e+002 -4.6546e+000  1.9330e+002 15547 119515,119567,119541
 2.7000e+000 119593  1.7689e+002  2.7580e+002  6.1534e+002 15547 119489,119567,119515
 2.7000e+000 119719 -6.9976e+002 -2.8491e+002  3.1997e+002 421 119641,119693,119667
 2.8000e+000 69562 -6.9951e+002 -3.1683e+002  4.1104e+002 69254 69484,69536,69510
 2.8000e+000 70009 -3.0057e+002 -2.6655e+002  2.5256e+002 68942 69686,69842,69816
 2.8000e+000 69986 -2.7021e+002 -9.6967e+001  1.3951e+002 68942 69686,69868,69842
 2.8000e+000 69963 -1.7535e+002 -7.2187e+001  3.1512e+002 68942 69686,69816,69712
 2.8000e+000 69940 -1.1204e+002 -7.5245e+001  4.4637e+002 68942 69712,69790,69738
 2.8000e+000 69917 -4.5435e+002 -7.3619e+002  2.9367e+002 68942 69712,69816,69790
 2.8000e+000 69894 -3.3934e+001 -3.9354e+002  1.7792e+002 68942 69738,69790,69764
 2.8000e+000 70110 -3.4271e+002 -1.1277e+002  2.0567e+002 68766 70032,70084,70058
 2.8000e+000 70746 -4.7878e+002 -2.2401e+002  2.2407e+002 68448 70400,70556,70426
 2.8000e+000 70723 -7.4822e+002 -3.0605e+002  2.8603e+002 68448 70374,70556,70400
 2.8000e+000 70700 -5.1320e+002 -1.9212e+002  1.5500e+002 68448 70426,70556,70478
 2.8000e+000 70677 -5.8419e+002 -1.5974e+002  1.7058e+002 68448 70478,70556,70504
 2.8000e+000 70654 -5.7751e+002 -2.8972e+002  1.8338e+002 68448 70426,70478,70452
 2.8000e+000 70631 -7.2063e+002 -2.2698e+002  3.7588e+002 68448 70374,70582,70556
 2.8000e+000 70608 -6.1324e+002 -1.7514e+002  1.4348e+002 68448 70504,70556,70530
 2.8000e+000 70896 -6.4795e+002 -1.8943e+002  1.4493e+001 68250 70795,70847,70821
 2.8000e+000 70873 -1.1682e+003 -4.0280e+002  3.6497e+001 68250 70769,70847,70795
 2.8000e+000 70997 -1.5088e+003 -7.0214e+002  6.2073e+002 68052 70919,70971,70945
 2.8000e+000 71367 -4.5905e+002 -7.3219e+002  2.8284e+002 67740 71096,71226,71200
 2.8000e+000 71344 -3.0300e+002 -4.2304e+002  3.4748e+002 67740 71044,71226,71096
 2.8000e+000 71321  3.3164e+001 -3.3164e+001  5.5228e+002 67740 71044,71096,71070
 2.8000e+000 71298 -3.4675e+002 -7.8631e+002  5.4834e+002 67740 71096,71200,71174
 2.8000e+000 71275 -1.9611e+002 -4.7164e+002  1.9697e+002 67740 71096,71148,71122
 2.8000e+000 71252 -2.7551e+002 -5.6039e+002  3.5707e+002 67740 71096,71174,71148
 2.8000e+000 71519  1.9645e+002  1.2310e+002  1.7366e+002 67542 71418,71470,71444
 2.8000e+000 71496  2.9428e+002  5.8239e+002  5.4312e+002 67542 71392,71470,71418
 2.8000e+000 71923 -1.1017e+002 -4.9255e+000  1.7091e+002 67230 71649,71779,71675
 2.8000e+000 71900 -7.9400e+001 -1.5982e+002  1.1284e+002 67230 71649,71805,71779
 2.8000e+000 71877 -1.1916e+002 -4.7761e+001  3.1437e+002 67230 71675,71727,71701
 2.8000e+000 71854 -1.5560e+002 -4.7473e+002  3.1007e+002 67230 71675,71753,71727
 2.8000e+000 71831 -1.6007e+002 -2.8730e+002  2.1563e+002 67230 71675,71779,71753
 2.8000e+000 72433 -4.1131e+002 -1.8341e+002  2.4174e+002 67032 72038,72246,72220
 2.8000e+000 72410 -1.8337e+002 -2.4878e+001  1.3537e+002 67032 72012,72246,72038
 2.8000e+000 72387 -3.9621e+002 -1.7071e+002  2.5595e+002 67032 72064,72194,72168
 2.8000e+000 72364 -4.1344e+002 -1.5947e+002  2.6571e+002 67032 72038,72194,72064
 2.8000e+000 72341 -5.2659e+002 -4.5470e+002  2.4093e+002 67032 72038,72220,72194
 2.8000e+000 72318 -1.8612e+002 -2.1844e+001  1.9006e+002 67032 72090,72168,72142
 2.8000e+000 72295 -1.2416e+002 -4.6034e+001  2.9923e+002 67032 72064,72168,72090
 2.8000e+000 72272 -2.0377e+002 -4.6303e+001  1.7790e+002 67032 72090,72142,72116
 2.8000e+000 72933 -2.9254e+002 -3.0717e+002  3.1221e+002 66628 72956,72665,72613
 2.8000e+000 72910 -2.7708e+002 -3.2887e+002  3.1224e+002 66628 73100,72956,72613
 2.8000e+000 72887 -3.4915e+002 -4.7433e+002  2.5760e+002 66628 73028,72691,72665
 2.8000e+000 72864 -2.6197e+002 -2.9855e+002  3.2006e+002 66628 73100,72613,72587
 2.8000e+000 72841 -2.7915e+002 -2.9315e+002  2.7702e+002 66628 72613,72665,72639
 2.8000e+000 72818  2.5372e+001 -8.1518e+000  4.0591e+002 66628 72587,72769,72743
 2.8000e+000 72795 -3.0665e+002 -7.0584e+002  9.3480e+001 66628 72561,72769,72587
 2.8000e+000 72982 -3.4540e+002 -3.4246e+002  3.3171e+002 66628 73028,72665,72956
 2.8000e+000 73005 -2.9614e+002 -1.2177e+002  3.1104e+002 66628 72717,72956,72743
 2.8000e+000 73054 -4.8958e+002 -3.9699e+002  1.5746e+002 66628 72717,72691,73028
 2.8000e+000 73077 -4.8857e+002 -3.5153e+002  2.2550e+002 66628 72717,73028,72956
 2.8000e+000 73126 -2.9208e+002 -3.2840e+002  2.7746e+002 66628 72743,72956,73100
 2.8000e+000 73149 -2.7653e+002 -3.0318e+002  2.8575e+002 66628 72743,73100,72587
 2.8000e+000 73606 -3.6644e+002 -3.0549e+002  2.9528e+002 66281 73332,73384,73358
 2.8000e+000 73583 -4.6410e+002 -3.5560e+002  2.2883e+002 66281 73332,73462,73384
 2.8000e+000 73560 -5.6645e+002 -3.4219e+002  2.4976e+002 66281 73384,73462,73436
 2.8000e+000 73537 -8.4576e+002 -4.8549e+002  3.6997e+002 66281 73332,73488,73462
 2.8000e+000 73514 -6.1582e+002 -3.3370e+002  1.6103e+002 66281 73384,73436,73410
 2.8000e+000 73984 -1.9262e+002 -1.2719e+002  1.0595e+002 65969 73736,73814,73788
 2.8000e+000 73961 -8.4043e+001 -6.9599e+001  8.4576e+001 65969 73736,73866,73814
 2.8000e+000 73938 -2.0355e+002 -1.5473e+002  1.9092e+002 65969 73814,73866,73840
 2.8000e+000 73915 -5.9797e+001 -9.1122e+001  8.1329e+001 65969 73710,73866,73736
 2.8000e+000 73892 -1.3538e+002 -1.0932e+002  3.2670e+001 65969 73736,73788,73762
 2.8000e+000 74232 -2.8079e+002 -2.9274e+002  2.8394e+002 65572 74255,74085,74033
 2.8000e+000 74209 -2.6067e+002 -3.0558e+002  2.6124e+002 65572 74327,74255,74033
 2.8000e+000 74186 -2.7684e+002 -2.5470e+002  2.6177e+002 65572 74327,74033,74007
 2.8000e+000 74163 -3.1694e+002 -3.4311e+002  3.0469e+002 65572 74033,74085,74059
 2.8000e+000 74281 -3.2069e+002 -3.3573e+002  3.3703e+002 65572 74111,74085,74255
 2.8000e+000 74304 -2.4221e+002 -3.0734e+002  2.8566e+002 65572 74111,74255,74137
 2.8000e+000 74353 -2.4512e+002 -2.4782e+002  2.4300e+002 65572 74137,74255,74327
 2.8000e+000 74376 -2.7226e+002 -2.0943e+002  2.4630e+002 65572 74137,74327,74007
 2.8000e+000 74884 -2.9319e+002 -3.1684e+002  2.5284e+002 65174 74587,74717,74613
 2.8000e+000 74861 -3.4320e+002 -3.6755e+002  1.9860e+002 65174 74561,74717,74587
 2.8000e+000 74838 -2.6140e+002 -3.7944e+002  1.9927e+002 65174 74613,74691,74639
 2.8000e+000 74815 -2.8684e+002 -3.7684e+002  2.4055e+002 65174 74613,74717,74691
 2.8000e+000 74792 -1.4656e+002 -5.4619e+002  1.7005e+002 65174 74639,74691,74665
 2.8000e+000 74769 -5.6075e+002 -1.2219e+002  2.1725e+002 65174 74561,74743,74717
 2.8000e+000 75412 -1.0428e+001 -1.4068e+002  5.6513e+002 64770 75167,75245,75219
 2.8000e+000 75389 -2.7182e+002 -4.9393e+002  3.8711e+002 64770 75115,75245,75167
 2.8000e+000 75366 -2.1408e+002 -6.2929e+002  4.9733e+002 64770 75089,75245,75115
 2.8000e+000 75343 -4.1598e+002 -1.5508e+002  4.1808e+002 64770 75167,75219,75193
 2.8000e+000 75320 -2.1929e+002 -3.7861e+002  4.0252e+002 64770 75115,75167,75141
 2.8000e+000 75297 -3.4491e+002 -9.1075e+002  5.3092e+002 64770 75089,75271,75245
 2.8000e+000 75861 -7.1102e+002 -3.0287e+002  4.4256e+002 64316 75538,75694,75564
 2.8000e+000 75838 -4.3399e+002 -1.6753e+002  2.6086e+002 64316 75538,75720,75694
 2.8000e+000 75815 -5.6892e+002 -3.6741e+002  3.4251e+002 64316 75590,75694,75642
 2.8000e+000 75792 -5.4445e+002 -4.8972e+002  3.9515e+002 64316 75564,75694,75590
 2.8000e+000 75769 -1.9837e+002 -6.2078e+002  1.8644e+002 64316 75590,75642,75616
 2.8000e+000 75746 -5.0748e+002 -2.1204e+002  3.1385e+002 64316 75642,75694,75668
 2.8000e+000 76239 -7.8175e+002 -6.1743e+002  3.4836e+002 64018 76262,76095,76043
 2.8000e+000 76216 -6.0274e+002 -6.1216e+002  2.9055e+002 64018 76262,76043,76017
 2.8000e+000 76193 -3.1559e+002 -3.0512e+002  2.4719e+002 64018 75991,76121,76017
 2.8000e+000 76170 -7.4574e+002 -4.8941e+002  4.8824e+002 64018 76043,76095,76069
 2.8000e+000 76147 -1.2568e+001 -3.1044e+002  6.3153e+001 64018 75965,76121,75991
 2.8000e+000 76288 -6.0666e+002 -6.9145e+002  4.3788e+002 64018 76121,76095,76262
 2.8000e+000 76311 -4.6002e+002 -7.0506e+002  3.5445e+002 64018 76121,76262,76017
 2.8000e+000 76866 -2.8120e+002 -3.0076e+002  3.1212e+002 63728 76520,76676,76546
 2.8000e+000 76843 -2.6465e+002 -3.0541e+002  2.3515e+002 63728 76520,76702,76676
 2.8000e+000 76820 -2.2488e+002 -3.0442e+002  2.9550e+002 63728 76546,76650,76572
 2.8000e+000 76797 -3.8682e+002 -3.8593e+002  2.6784e+002 63728 76546,76676,76650
 2.8000e+000 76774 -3.8316e+002 -4.4388e+001  1.5199e+002 63728 76572,76650,76624
 2.8000e+000 76751 -2.2347e+002 -2.7501e+002  2.4901e+002 63728 76494,76702,76520
 2.8000e+000 76728 -7.7937e+001 -1.6619e+002  1.1383e+002 63728 76572,76624,76598
 2.8000e+000 77065 -2.0680e+002 -2.6572e+002  2.7075e+002 63288 77088,76941,76915
 2.8000e+000 77042 -4.1525e+002 -3.2461e+002  2.4663e+002 63288 77088,76915,76993
 2.8000e+000 77019 -9.3856e+001 -3.6901e+002  1.9412e+002 63288 76889,76993,76915
 2.8000e+000 77114 -3.0129e+002 -3.0481e+002  2.2990e+002 63288 76967,76941,77088
 2.8000e+000 77137 -6.3828e+002 -4.0342e+002  1.0264e+002 63288 77160,77088,76993
 2.8000e+000 77186 -1.6598e+002 -1.7831e+002  1.7598e+002 63288 76967,77088,77160
 2.8000e+000 77417 -1.8867e+002 -2.9062e+002  1.7682e+002 62884 77440,77342,77316
 2.8000e+000 77394 -4.4972e+002 -4.0100e+002  8.6314e+001 62884 77770,77440,77316
 2.8000e+000 77466 -3.4558e+002 -4.4395e+002  6.8244e+001 62884 77512,77440,77368
 2.8000e+000 77489 -2.7522e+002 -3.3785e+002  5.3280e+001 62884 77642,77440,77290
 2.8000e+000 77538 -1.5548e+002 -3.1378e+002  1.1039e+001 62884 77342,77440,77512
 2.8000e+000 77668 -3.5808e+002 -5.0722e+002  2.6863e+001 62884 77368,77440,77642
 2.8000e+000 77796 -3.0094e+002 -3.2895e+002  6.4424e+001 62884 77290,77440,77770
 2.8000e+000 78479 -6.7161e+002 -6.1046e+002  3.5457e+002 62480 78084,78240,78214
 2.8000e+000 78456 -4.8108e+002 -5.4324e+002  7.1057e+001 62480 78084,78266,78240
 2.8000e+000 78433 -5.3972e+002 -5.3618e+002  1.7965e+002 62480 78110,78214,78136
 2.8000e+000 78410 -6.1072e+002 -5.6765e+002  3.3475e+002 62480 78084,78214,78110
 2.8000e+000 78387 -3.7410e+002 -4.6303e+002  2.2057e+002 62480 78136,78214,78188
 2.8000e+000 78364 -5.2843e+002 -5.9944e+002  4.8484e+001 62480 78058,78266,78084
 2.8000e+000 78341 -2.3132e+002 -3.6107e+002  1.0334e+002 62480 78136,78188,78162
 2.8000e+000 78318 -6.0487e+002 -6.6287e+002  1.0179e+002 62480 78058,78292,78266
 2.8000e+000 78678 -4.0242e+002 -7.0012e+002  2.7604e+002 61926 78528,78606,78554
 2.8000e+000 78655 -2.2080e+002 -6.8637e+002  3.5326e+002 61926 78502,78606,78528
 2.8000e+000 78632 -2.7600e+002 -4.5268e+002  1.9167e+002 61926 78554,78606,78580
 2.8000e+000 79058 -4.1472e+002 -3.9822e+002  2.2100e+002 61614 78836,78914,78862
 2.8000e+000 79035 -5.0581e+002 -4.6241e+002  1.9273e+002 61614 78810,78914,78836
 2.8000e+000 79012 -3.3366e+002 -3.8852e+002  1.9635e+002 61614 78784,78914,78810
 2.8000e+000 78989 -3.6524e+002 -4.4861e+002  3.6143e+002 61614 78862,78914,78888
 2.8000e+000 78966 -2.8972e+002 -4.9816e+002  2.2311e+002 61614 78784,78940,78914
 2.8000e+000 79208 -2.7631e+002 -6.4371e+002  1.8311e+001 61366 79081,79133,79107
 2.8000e+000 79185 -2.8813e+002 -4.7737e+002  1.9726e+002 61366 79081,79159,79133
 2.8000e+000 79358  2.8150e+001  9.8730e+000  3.2541e+001 60962 79231,79283,79257
 2.8000e+000 79335 -1.3605e+002 -3.2022e+002  8.7383e+001 60962 79231,79309,79283
 2.8000e+000 79608 -2.4111e+002 -5.3356e+002  1.8698e+002 60508 79631,79435,79409
 2.8000e+000 79585 -1.5052e+002 -5.3724e+002  1.2428e+002 60508 79703,79631,79409
 2.8000e+000 79562 -1.3318e+002 -2.6784e+002  1.6735e+002 60508 79703,79409,79383
 2.8000e+000 79539 -5.5866e+002 -4.2922e+002  3.4978e+002 60508 79435,79487,79461
 2.8000e+000 79657 -2.7950e+002 -6.5000e+002  3.3624e+002 60508 79487,79435,79631
 2.8000e+000 79680 -1.2383e+002 -4.9518e+002  1.7444e+002 60508 79487,79631,79513
 2.8000e+000 79729 -8.5746e+001 -2.9237e+002  6.0371e+001 60508 79513,79631,79703
 2.8000e+000 79752 -1.5964e+002 -2.6110e+002  2.2959e+001 60508 79513,79703,79383
 2.8000e+000 80390 -3.5233e+002 -3.8176e+002  3.3393e+002 59997 80413,80096,80018
 2.8000e+000 80367 -5.9393e+002 -4.6473e+002  3.7746e+002 59997 80413,80018,80226
 2.8000e+000 80344 -2.9434e+002 -3.1551e+002  1.9740e+002 59997 80096,80174,80148
 2.8000e+000 80321 -1.0488e+003 -7.0571e+002  5.0742e+002 59997 80018,80096,80070
 2.8000e+000 80298 -4.0483e+002 -3.6799e+002  1.7814e+002 59997 80096,80148,80122
 2.8000e+000 80275 -3.0172e+002 -3.6040e+002  2.7766e+002 59997 80174,80226,80200
 2.8000e+000 80252 -7.5772e+002 -4.8936e+002  2.1834e+002 59997 80018,80070,80044
 2.8000e+000 80439 -2.8734e+002 -4.3242e+002  2.4727e+002 59997 80174,80096,80413
 2.8000e+000 80462 -3.8920e+002 -3.9415e+002  2.6953e+002 59997 80174,80413,80226
 2.8000e+000 80840 -4.8736e+002 -4.2784e+002  2.0797e+002 59443 80863,80644,80618
 2.8000e+000 80817 -2.0262e+002 -3.1804e+002  2.4445e+002 59443 80863,80618,80566
 2.8000e+000 80794 -1.8409e+002 -2.7938e+002  2.9287e+002 59443 81007,80935,80670
 2.8000e+000 80771 -2.6409e+002 -2.8706e+002  2.6182e+002 59443 80566,80722,80696
 2.8000e+000 80748 -2.5290e+002 -4.2287e+002  2.7458e+002 59443 80566,80618,80592
 2.8000e+000 80889 -5.3904e+002 -3.8524e+002  3.3797e+002 59443 80935,80644,80863
 2.8000e+000 80912 -3.7088e+002 -3.3690e+002  2.8327e+002 59443 80696,80863,80566
 2.8000e+000 80961 -3.1551e+002 -3.2203e+002  3.4075e+002 59443 80696,80670,80935
 2.8000e+000 80984 -3.0647e+002 -2.7637e+002  3.0822e+002 59443 80696,80935,80863
 2.8000e+000 81033 -4.1541e+002 -5.2600e+002  4.0802e+002 59443 80644,80935,81007
 2.8000e+000 81360 -5.0765e+002 -2.3817e+002  2.2674e+002 59031 81383,81187,81161
 2.8000e+000 81337 -4.1339e+002 -2.7926e+002  6.5605e+001 59031 81455,81383,81161
 2.8000e+000 81314 -2.9747e+002 -2.1124e+002  9.8542e+001 59031 81455,81161,81135
 2.8000e+000 81291 -8.2627e+002 -2.0531e+002  3.6244e+002 59031 81187,81239,81213
 2.8000e+000 81409 -5.5240e+002 -4.6014e+002  3.0694e+002 59031 81239,81187,81383
 2.8000e+000 81432 -6.0850e+002 -3.5916e+002  8.0010e+001 59031 81239,81383,81265
 2.8000e+000 81481 -5.2680e+002 -1.4293e+002  1.0609e+002 59031 81265,81383,81455
 2.8000e+000 81504 -4.8506e+002 -1.3750e+002  1.1022e+002 59031 81265,81455,81135
 2.8000e+000 81835 -7.2381e+001 -2.2089e+002  9.9179e+001 58577 81610,81714,81636
 2.8000e+000 81812 -7.0138e+001 -2.6907e+002  1.1303e+002 58577 81610,81740,81714
 2.8000e+000 81789 -2.0416e+002 -2.7142e+002  2.7372e+001 58577 81636,81714,81688
 2.8000e+000 81766 -1.9037e+002 -2.6752e+002 -7.1949e+001 58577 81636,81688,81662
 2.8000e+000 81985 -1.0268e+002 -2.4817e+002  1.5365e+002 58030 81884,81936,81910
 2.8000e+000 81962 -2.0913e+002 -7.0949e+001  1.0502e+002 58030 81858,81936,81884
 2.8000e+000 82414 -8.8163e+001 -3.1110e+001  1.1350e+002 57690 82437,82169,82117
 2.8000e+000 82391 -1.1551e+002 -1.4122e+002  1.3138e+002 57690 82437,82117,82247
 2.8000e+000 82368  4.8790e+001  8.0003e+001  3.0614e+002 57690 82195,82247,82221
 2.8000e+000 82345 -9.2466e+001 -1.3128e+002  1.3345e+002 57690 82091,82247,82117
 2.8000e+000 82322 -1.5061e+002 -3.8663e+001  7.6335e+001 57690 82117,82169,82143
 2.8000e+000 82299 -1.0549e+002 -2.4573e+002  1.8529e+002 57690 82091,82273,82247
 2.8000e+000 82463 -1.3133e+002  1.3902e+001  1.6547e+002 57690 82195,82169,82437
 2.8000e+000 82486 -1.4307e+002 -6.5130e+001  1.6532e+002 57690 82195,82437,82247
 2.8000e+000 83041 -2.6885e+002 -2.8318e+002  1.9719e+002 57172 83064,82721,82695
 2.8000e+000 83018 -2.9770e+002 -2.9563e+002  2.8392e+002 57172 83064,82695,82851
 2.8000e+000 82995 -8.4675e+002 -4.0665e+002  3.8537e+002 57172 82669,82851,82695
 2.8000e+000 82972 -4.9671e+002 -3.2093e+002  2.6988e+002 57172 82773,82851,82825
 2.8000e+000 82949 -4.6034e+002 -3.4471e+002  3.6524e+002 57172 82773,82825,82799
 2.8000e+000 82926 -3.4966e+002 -2.2275e+002  1.6028e+002 57172 82721,82773,82747
 2.8000e+000 82903 -9.3444e+002 -3.8953e+002  5.4974e+002 57172 82669,82877,82851
 2.8000e+000 83090 -4.1045e+002 -3.3605e+002  1.8572e+002 57172 82773,82721,83064
 2.8000e+000 83113 -3.4501e+002 -3.1031e+002  2.6773e+002 57172 82773,83064,82851
 2.8000e+000 83747 -3.2516e+002 -2.7486e+002  1.9087e+002 56554 83770,83427,83401
 2.8000e+000 83724 -3.2473e+002 -3.4468e+002  2.2229e+002 56554 83842,83770,83401
 2.8000e+000 83701 -1.9196e+001 -2.6821e+002  8.2238e+001 56554 83842,83401,83583
 2.8000e+000 83678 -6.1156e+002 -4.9316e+002  4.6176e+002 56554 83914,83531,83505
 2.8000e+000 83655 -3.8677e+002 -2.9631e+002  1.4581e+002 56554 83531,83583,83557
 2.8000e+000 83632 -9.6242e+001 -1.1423e+002  6.2840e+001 56554 83375,83583,83401
 2.8000e+000 83609 -3.1964e+002 -2.8445e+002  2.0190e+002 56554 83427,83479,83453
 2.8000e+000 83796 -2.9972e+002 -2.7150e+002  1.9266e+002 56554 83479,83427,83770
 2.8000e+000 83819 -3.3996e+002 -2.4616e+002  2.1032e+002 56554 83479,83770,83505
 2.8000e+000 83868 -2.1787e+002 -1.6638e+002  2.7776e+002 56554 83505,83770,83842
 2.8000e+000 83891 -4.0190e+002 -3.0605e+002  3.3877e+002 56554 83914,83505,83842
 2.8000e+000 83940 -2.8705e+002 -4.8985e+002  2.6755e+002 56554 83583,83531,83914
 2.8000e+000 83963 -1.3383e+002 -4.6538e+002  2.0356e+002 56554 83583,83914,83842
 2.8000e+000 84341 -2.6753e+002 -7.6187e+002  2.7007e+002 56192 84067,84145,84119
 2.8000e+000 84318 -1.4408e+002 -5.8425e+002  2.1589e+002 56192 84067,84223,84145
 2.8000e+000 84295 -2.5604e+002 -6.1296e+002  7.7273e+001 56192 84145,84223,84197
 2.8000e+000 84272 -1.7430e+002 -6.4705e+002  3.1672e+002 56192 84067,84119,84093
 2.8000e+000 84249 -3.9827e+002 -1.9236e+002  1.5444e+002 56192 84145,84197,84171
 2.8000e+000 84611 -1.6393e+002 -4.0788e+002  2.6416e+002 55538 84386,84490,84412
 2.8000e+000 84588 -1.8873e+002 -3.6493e+002  2.6023e+002 55538 84386,84516,84490
 2.8000e+000 84565 -3.3200e+002 -4.8073e+002  2.5711e+002 55538 84412,84490,84464
 2.8000e+000 84542 -1.8936e+002 -4.5136e+002  1.6312e+002 55538 84412,84464,84438
 2.8000e+000 84942 -4.0161e+002 -3.2464e+002  2.8220e+002 55084 84769,84847,84795
 2.8000e+000 84919 -3.7081e+002 -3.6021e+002  2.3776e+002 55084 84717,84847,84769
 2.8000e+000 84896 -4.3866e+002 -4.8931e+002  2.1256e+002 55084 84717,84769,84743
 2.8000e+000 84873 -4.5456e+002 -1.5507e+002  2.3959e+002 55084 84795,84847,84821
 2.8000e+000 85271 -3.9927e+001 -1.0416e+002  1.5845e+002 54580 85294,85098,85072
 2.8000e+000 85248 -3.8365e+002 -2.1247e+002  2.3120e+002 54580 85294,85072,85176
 2.8000e+000 85225 -5.5284e+002 -1.0858e+001  7.1894e+001 54580 85124,85176,85150
 2.8000e+000 85202 -9.3109e+001 -1.8472e+002  6.7779e+001 54580 85046,85176,85072
 2.8000e+000 85320 -3.4009e+002 -1.2880e+002  1.9244e+002 54580 85124,85098,85294
 2.8000e+000 85343 -5.2201e+002 -1.0668e+002  2.4362e+002 54580 85124,85294,85176
 2.8000e+000 85542 -2.3561e+002 -3.9297e+002  1.6270e+002 53976 85565,85444,85418
 2.8000e+000 85519 -1.9735e+002 -3.4447e+002  1.8203e+002 53976 85565,85418,85366
 2.8000e+000 85496 -1.5739e+002 -2.9410e+002  1.4458e+002 53976 85366,85418,85392
 2.8000e+000 85591 -3.5699e+002 -3.9568e+002  7.6867e+001 53976 85470,85444,85565
 2.8000e+000 85614 -2.3373e+002 -1.8332e+002  1.3027e+002 53976 85470,85565,85366
 2.8000e+000 85960 -3.8763e+002 -4.7508e+002  2.3387e+002 53572 85663,85715,85689
 2.8000e+000 85937 -3.4941e+002 -4.5303e+002  1.9105e+002 53572 85983,85715,85663
 2.8000e+000 85914 -5.8177e+002 -5.6914e+002  2.4292e+002 53572 86055,85983,85663
 2.8000e+000 85891 -5.4868e+002 -5.6606e+002  3.4462e+002 53572 86055,85663,85637
 2.8000e+000 85868 -8.7337e+002 -1.1329e+003  4.5051e+002 53572 85637,85793,85767
 2.8000e+000 85845 -1.0246e+003 -3.1932e+002  2.1427e+002 53572 85637,85819,85793
 2.8000e+000 86009 -5.5900e+002 -3.8065e+002  1.7375e+002 53572 85741,85715,85983
 2.8000e+000 86032 -7.0012e+002 -3.9747e+002  2.3099e+002 53572 85741,85983,85767
 2.8000e+000 86081 -5.0500e+002 -3.3399e+002  2.1766e+002 53572 85767,85983,86055
 2.8000e+000 86104 -5.3062e+002 -4.4236e+002  3.1327e+002 53572 85767,86055,85637
 2.8000e+000 86693 -7.2139e+002 -9.6515e+001  3.4506e+002 52946 86474,86526,86500
 2.8000e+000 86670 -1.4428e+002 -3.3966e+001  8.9680e+001 52946 86396,86526,86474
 2.8000e+000 86647 -5.3652e+002 -4.2003e+002  2.4631e+002 52946 86370,86526,86396
 2.8000e+000 86624  1.0902e+001  3.5862e+000  8.3811e+000 52946 86422,86474,86448
 2.8000e+000 86601 -1.6647e+002 -2.7984e+001  7.0630e+001 52946 86396,86474,86422
 2.8000e+000 86578 -4.8981e+002 -8.4829e+001  1.7446e+002 52946 86370,86552,86526
 2.8000e+000 87376 -4.1487e+002 -3.7105e+002  1.9532e+002 52420 87007,87085,87033
 2.8000e+000 87353 -3.4568e+002 -3.1557e+002  1.6226e+002 52420 87007,87163,87085
 2.8000e+000 87330 -4.3677e+002 -2.9799e+002  1.9287e+002 52420 87007,87189,87163
 2.8000e+000 87307 -3.5357e+002 -3.7135e+002  1.7415e+002 52420 87033,87085,87059
 2.8000e+000 87284 -4.2531e+002 -3.6711e+002  6.5155e+001 52420 87085,87137,87111
 2.8000e+000 87261 -3.1362e+002 -3.4258e+002  7.9019e+001 52420 87085,87163,87137
 2.8000e+000 87238 -3.4781e+002 -3.6618e+002  3.4630e+002 52420 86955,87189,87007
 2.8000e+000 87215 -2.3485e+002 -2.5015e+002  1.6771e+002 52420 86955,87007,86981
 2.8000e+000 87624 -2.4697e+002 -4.3968e+002  1.3930e+002 51916 87451,87503,87477
 2.8000e+000 87601 -2.8667e+002 -5.5423e+002  1.2203e+002 51916 87425,87503,87451
 2.8000e+000 87578 -2.6286e+002 -5.5257e+002  1.1720e+002 51916 87425,87529,87503
 2.8000e+000 87555 -1.6882e+002 -4.0138e+002  1.5938e+002 51916 87399,87529,87425
 2.8000e+000 88053 -3.8858e+002 -3.3002e+002  1.2113e+002 51568 87782,87834,87808
 2.8000e+000 88030 -4.7053e+002 -3.3244e+002  2.1716e+002 51568 88076,87782,87886
 2.8000e+000 88007 -4.2454e+002 -2.2663e+002  1.9326e+002 51568 88076,87886,87860
 2.8000e+000 87984 -5.5266e+002 -4.5813e+002  1.8015e+002 51568 87756,87886,87782
 2.8000e+000 87961 -4.1910e+002 -3.6819e+002  3.5669e+002 51568 87756,87912,87886
 2.8000e+000 87938 -4.8442e+002 -2.3016e+002  3.3435e+002 51568 87730,87912,87756
 2.8000e+000 88102 -4.1255e+002 -3.8595e+002  1.4883e+002 51568 87834,87782,88076
 2.8000e+000 88125 -3.7467e+002 -3.1588e+002  1.2762e+002 51568 87834,88076,87860
 2.8000e+000 88324 -3.3358e+002 -3.4302e+002  1.3098e+002 51164 88419,88347,88200
 2.8000e+000 88301 -2.3230e+002 -3.3463e+002  1.7968e+002 51164 88347,88148,88252
 2.8000e+000 88278 -4.3014e+002 -5.4228e+002  1.0148e+002 51164 88419,88200,88174
 2.8000e+000 88373 -2.2605e+002 -3.0163e+002  1.5996e+002 51164 88226,88200,88347
 2.8000e+000 88396 -2.3080e+001 -3.3377e+002  1.4997e+002 51164 88226,88347,88252
 2.8000e+000 88445 -3.3643e+002 -3.5170e+002  2.4012e+002 51164 88148,88347,88419
 2.8000e+000 88468 -3.2936e+002 -3.3169e+002  2.2933e+002 51164 88148,88419,88174
 2.8000e+000 88738 -3.0103e+002 -4.2225e+002  1.1356e+002 50560 88513,88617,88539
 2.8000e+000 88715 -2.0348e+002 -4.7695e+002  7.7001e+001 50560 88513,88643,88617
 2.8000e+000 88692 -1.4170e+002 -6.9315e+001  1.2832e+002 50560 88539,88591,88565
 2.8000e+000 88669 -1.1895e+002 -2.8859e+002  1.7290e+002 50560 88539,88617,88591
 2.8000e+000 88939 -3.9219e+002 -1.7147e+002  2.0320e+002 50106 88962,88789,88763
 2.8000e+000 88916 -2.7603e+002 -2.2131e+002  1.6033e+002 50106 88962,88763,88841
 2.8000e+000 88893 -3.8158e+002 -2.8904e+002  2.3938e+002 50106 88763,88867,88841
 2.8000e+000 88988 -2.8250e+002 -2.2113e+002  1.3194e+002 50106 88815,88789,88962
 2.8000e+000 89011 -2.2661e+002 -1.7176e+002  1.8111e+002 50106 89034,88962,88841
 2.8000e+000 89060 -1.3768e+002 -5.7344e+001  3.9689e+001 50106 88815,88962,89034
 2.8000e+000 89472 -2.2657e+002 -4.7086e+002  8.6591e+001 49666 89273,89351,89325
 2.8000e+000 89449 -2.7719e+002 -2.9059e+002  1.5202e+002 49666 89273,89377,89351
 2.8000e+000 89426 -2.4893e+002 -3.7322e+002  2.7123e+002 49666 89273,89325,89299
 2.8000e+000 89403 -2.7991e+002 -2.2941e+002  1.6944e+002 49666 89247,89377,89273
 2.8000e+000 89978 -3.5753e+002 -6.6505e+002 -2.4742e+001 49205 89681,89837,89733
 2.8000e+000 89955 -6.8793e+001 -3.2161e+002  1.5739e+002 49205 89655,89837,89681
 2.8000e+000 89932 -5.0908e+002 -6.4507e+002  2.3865e+002 49205 89785,89837,89811
 2.8000e+000 89909 -1.6508e+002 -4.6310e+002  1.0535e+002 49205 89733,89837,89785
 2.8000e+000 89886 -4.6008e+002 -5.5293e+002  2.0665e+002 49205 89733,89785,89759
 2.8000e+000 89863 -1.3879e+002 -3.0396e+002 -1.8901e+002 49205 89681,89733,89707
 2.8000e+000 90177 -2.4429e+002 -3.9811e+002  1.6977e+002 48865 90530,90200,90053
 2.8000e+000 90154 -2.0793e+002 -3.8962e+002  1.9698e+002 48865 90402,90200,90001
 2.8000e+000 90131 -3.0884e+002 -3.2021e+002  1.7355e+002 48865 90530,90053,90027
 2.8000e+000 90226 -2.7843e+002 -3.6313e+002  2.6696e+002 48865 90079,90053,90200
 2.8000e+000 90249 -1.7920e+002 -3.1243e+002  2.2699e+002 48865 90272,90200,90105
 2.8000e+000 90298 -1.5492e+002 -2.9298e+002  2.3567e+002 48865 90079,90200,90272
 2.8000e+000 90428 -1.0603e+002 -1.0664e+002  1.3992e+002 48865 90105,90200,90402
 2.8000e+000 90556 -3.0046e+002 -4.5255e+002  1.4548e+002 48865 90001,90200,90530
 2.8000e+000 90579 -4.0386e+002 -3.9084e+002  1.4287e+002 48865 90001,90530,90027
 2.8000e+000 90827 -3.2822e+002 -3.3906e+002  1.8669e+002 48404 90850,90654,90628
 2.8000e+000 90804 -3.3722e+002 -3.8258e+002  2.7767e+002 48404 90850,90628,90732
 2.8000e+000 90781 -2.2272e+002 -2.5417e+002  1.6044e+002 48404 90680,90732,90706
 2.8000e+000 90758 -4.5820e+002 -2.2352e+002  2.8351e+002 48404 90602,90732,90628
 2.8000e+000 90876 -3.2162e+002 -2.0280e+002  1.6627e+002 48404 90680,90654,90850
 2.8000e+000 90899 -3.3480e+002 -3.0776e+002  2.3755e+002 48404 90680,90850,90732
 2.8000e+000 91000 -2.2036e+002 -5.1827e+002  1.1812e+002 48156 90922,90974,90948
 2.8000e+000 91250 -1.4945e+002 -3.4922e+002  5.2055e+001 47752 91051,91103,91077
 2.8000e+000 91227 -3.0328e+002 -4.6332e+002  1.0248e+002 47752 91025,91103,91051
 2.8000e+000 91204 -4.4363e+002 -5.6796e+002  1.8011e+002 47752 91025,91155,91103
 2.8000e+000 91181 -4.1177e+002 -5.6326e+002  2.3411e+002 47752 91103,91155,91129
 2.8000e+000 91402 -2.9474e+002 -3.2493e+002  2.1823e+002 47191 91425,91301,91275
 2.8000e+000 91379 -2.5369e+002 -3.0929e+002  2.4271e+002 47191 91497,91425,91275
 2.8000e+000 91451 -3.0584e+002 -1.8326e+002  1.3831e+002 47191 91327,91301,91425
 2.8000e+000 91474 -3.5206e+002 -3.5403e+002  2.6287e+002 47191 91327,91425,91353
 2.8000e+000 91523 -3.4481e+002 -6.3306e+002  2.5717e+002 47191 91353,91425,91497
 2.8000e+000 91854 -2.4888e+002 -1.4881e+002  8.6640e+001 46744 91949,91877,91707
 2.8000e+000 91831 -2.2315e+002 -4.3388e+002  8.8995e+001 46744 91877,91655,91629
 2.8000e+000 91808 -2.5770e+002 -1.1959e+002  6.6880e+001 46744 91949,91707,91681
 2.8000e+000 91785 -6.3843e+002 -4.8855e+002 -1.3183e+002 46744 91629,91759,91733
 2.8000e+000 91903 -4.5469e+002 -3.8143e+002  1.7355e+002 46744 91733,91707,91877
 2.8000e+000 91926 -2.1181e+002 -5.2590e+002  7.7965e+001 46744 91733,91877,91629
 2.8000e+000 91975 -2.0828e+002 -4.0013e+002  1.8898e+002 46744 91655,91877,91949
 2.8000e+000 91998 -4.8963e+001 -2.5443e+002  1.1921e+002 46744 91655,91949,91681
 2.8000e+000 92378 -2.4989e+002 -7.5588e+001  1.4652e+002 46090 92130,92208,92182
 2.8000e+000 92355 -3.3939e+002 -1.1440e+002  1.4117e+002 46090 92104,92208,92130
 2.8000e+000 92332 -1.5737e+002 -2.4791e+002  1.3205e+002 46090 92104,92260,92208
 2.8000e+000 92309 -1.2271e+002 -5.3382e+001  1.0813e+002 46090 92208,92260,92234
 2.8000e+000 92286 -4.2790e+002 -1.3060e+002  1.7777e+002 46090 92130,92182,92156
 2.8000e+000 92626 -2.2709e+002 -3.0242e+002  1.2699e+002 45693 92721,92649,92505
 2.8000e+000 92603 -2.5756e+002 -3.0297e+002  2.6136e+002 45693 92649,92453,92427
 2.8000e+000 92580 -2.5243e+002 -2.3308e+002  1.2182e+002 45693 92721,92505,92479
 2.8000e+000 92557 -4.4905e+002 -4.2330e+002  3.2118e+002 45693 92401,92531,92427
 2.8000e+000 92675 -3.8605e+002 -3.0523e+002  1.5726e+002 45693 92531,92505,92649
 2.8000e+000 92698 -4.2248e+002 -3.6938e+002  3.3837e+002 45693 92531,92649,92427
 2.8000e+000 92747 -2.3969e+002 -2.2266e+002  1.2706e+002 45693 92453,92649,92721
 2.8000e+000 92770 -1.6840e+002 -1.6043e+001  1.5495e+002 45693 92453,92721,92479
 2.8000e+000 93172 -1.7410e+002 -2.9444e+002  2.6302e+002 45331 92898,93028,92924
 2.8000e+000 93149 -1.0603e+002 -2.5915e+002  1.7888e+002 45331 92898,93054,93028
 2.8000e+000 93126 -2.4932e+002 -1.8624e+002  2.9501e+002 45331 92924,93002,92976
 2.8000e+000 93103 -1.0248e+002 -2.6332e+002  2.5767e+002 45331 92924,93028,93002
 2.8000e+000 93080 -2.6868e+002 -3.0878e+002  3.0666e+002 45331 92924,92976,92950
 2.8000e+000 93518 -4.8249e+002 -5.4843e+002  2.7267e+002 44820 93613,93273,93247
 2.8000e+000 93495 -3.8584e+002 -4.1036e+002  1.8019e+002 44820 93685,93541,93247
 2.8000e+000 93472 -4.1154e+002 -2.8214e+002  1.4178e+002 44820 93541,93195,93377
 2.8000e+000 93449 -4.1155e+002 -3.7323e+002  1.5035e+002 44820 93685,93247,93221
 2.8000e+000 93426 -3.5233e+002 -4.7360e+002  2.5436e+002 44820 93299,93377,93351
 2.8000e+000 93403 -3.0914e+002 -3.0943e+002  2.9724e+002 44820 93299,93351,93325
 2.8000e+000 93567 -3.3915e+002 -5.3705e+002  1.3556e+002 44820 93613,93247,93541
 2.8000e+000 93590 -3.4005e+002 -4.2471e+002  8.5880e+001 44820 93299,93541,93377
 2.8000e+000 93639 -3.3182e+002 -6.3630e+002  1.7732e+002 44820 93299,93273,93613
 2.8000e+000 93662 -3.5833e+002 -6.3105e+002  1.4950e+002 44820 93299,93613,93541
 2.8000e+000 93711 -4.0324e+002 -3.2124e+002  1.1923e+002 44820 93195,93541,93685
 2.8000e+000 93734 -3.5544e+002 -1.6036e+002  9.6572e+001 44820 93195,93685,93221
 2.8000e+000 94163 -3.6475e+002 -3.8703e+002  1.6949e+002 44237 94258,94186,93996
 2.8000e+000 94140 -4.0582e+002 -4.4841e+002  1.0433e+002 44237 94330,94022,93996
 2.8000e+000 94117 -4.1847e+002 -3.9693e+002  1.3198e+002 44237 94186,93918,93866
 2.8000e+000 94094 -3.2792e+002 -2.9205e+002  1.7005e+002 44237 94258,93996,93970
 2.8000e+000 94071 -3.8380e+002 -2.1238e+002  1.5909e+002 44237 94402,93944,93918
 2.8000e+000 94048 -2.1792e+002 -3.4272e+002  1.4011e+002 44237 93866,93918,93892
 2.8000e+000 94212 -4.0622e+002 -4.5440e+002  1.3540e+002 44237 94330,93996,94186
 2.8000e+000 94235 -3.9832e+002 -3.6466e+002  1.4994e+002 44237 93840,94186,93866
 2.8000e+000 94284 -3.6987e+002 -2.9369e+002  1.1567e+002 44237 93918,94186,94258
 2.8000e+000 94307 -3.6255e+002 -2.2650e+002  1.2983e+002 44237 94402,93918,94258
 2.8000e+000 94356 -4.2150e+002 -1.7445e+002  1.2920e+001 44237 93840,94022,94330
 2.8000e+000 94379 -3.8323e+002 -3.9526e+002  1.4490e+002 44237 93840,94330,94186
 2.8000e+000 94428 -4.0980e+002 -2.7313e+002  1.7336e+002 44237 93970,93944,94402
 2.8000e+000 94451 -3.8810e+002 -2.8745e+002  1.3799e+002 44237 93970,94402,94258
 2.8000e+000 94908 -3.7256e+002 -5.6926e+002  6.5856e+001 43890 94660,94790,94712
 2.8000e+000 94885 -1.7499e+002 -1.8112e+002  1.8332e+002 43890 94634,94790,94660
 2.8000e+000 94862 -3.8300e+002 -3.7371e+002  1.0280e+002 43890 94712,94764,94738
 2.8000e+000 94839 -2.5547e+002 -3.2403e+002  1.4874e+002 43890 94712,94790,94764
 2.8000e+000 94816 -3.9877e+002 -3.8210e+002 -1.4704e+002 43890 94660,94712,94686
 2.8000e+000 95414 -2.4061e+002 -1.3131e+002  1.1208e+002 43186 95437,95143,95117
 2.8000e+000 95391 -2.8420e+002 -3.3695e+002  1.3641e+002 43186 95437,95117,95091
 2.8000e+000 95368 -8.0300e+001 -1.3058e+002  1.3698e+002 43186 95143,95221,95195
 2.8000e+000 95345 -4.4666e+002 -3.1372e+002  3.5842e+002 43186 95091,95273,95221
 2.8000e+000 95322 -2.9091e+002 -1.7621e+002  1.6745e+002 43186 95221,95273,95247
 2.8000e+000 95299 -1.5462e+002 -7.3811e+001  2.5291e+001 43186 95143,95195,95169
 2.8000e+000 95463 -2.2622e+002 -2.7044e+002  2.1324e+002 43186 95221,95143,95437
 2.8000e+000 95486 -2.4600e+002 -4.3110e+002  2.4436e+002 43186 95221,95437,95091
 2.8000e+000 96041 -4.4750e+002 -4.0991e+002  1.2952e+002 42782 95695,95851,95799
 2.8000e+000 96018 -4.0412e+002 -5.0115e+002  1.3280e+002 42782 95669,95851,95695
 2.8000e+000 95995 -4.0901e+002 -2.4302e+002  1.4050e+002 42782 95695,95747,95721
 2.8000e+000 95972 -3.1125e+002 -3.5110e+002  1.2412e+002 42782 95695,95799,95747
 2.8000e+000 95949 -2.7998e+002 -2.0646e+002  7.9451e+001 42782 95747,95799,95773
 2.8000e+000 95926 -5.4424e+002 -5.1513e+002  1.9090e+002 42782 95799,95851,95825
 2.8000e+000 95903 -5.7178e+002 -5.8561e+002  1.6371e+002 42782 95669,95877,95851
 2.8000e+000 96370 -4.0882e+002 -5.3234e+002  2.7012e+002 42420 96197,96275,96223
 2.8000e+000 96347 -3.9479e+002 -4.7953e+002  2.6567e+002 42420 96145,96275,96197
 2.8000e+000 96324 -3.8756e+002 -3.2901e+002  2.6057e+002 42420 96145,96197,96171
 2.8000e+000 96301 -2.7097e+002 -4.1078e+002  1.5278e+002 42420 96223,96275,96249
 2.8000e+000 96699 -2.2548e+002 -5.8894e+002 -2.6807e+001 41816 96474,96578,96526
 2.8000e+000 96676 -2.7779e+002 -5.1043e+002 -1.4589e+002 41816 96474,96604,96578
 2.8000e+000 96653 -1.2886e+002 -2.6531e+002  8.7025e+001 41816 96526,96578,96552
 2.8000e+000 96630 -2.0273e+002 -4.0963e+002  3.9732e+001 41816 96474,96526,96500
 2.8000e+000 96947 -1.9257e+002 -4.4944e+002  3.3239e+001 41212 96722,96800,96748
 2.8000e+000 96924 -2.1882e+002 -4.8402e+002  4.4653e+001 41212 96722,96826,96800
 2.8000e+000 96901 -4.1439e+002 -5.9530e+002  9.4002e+001 41212 96722,96852,96826
 2.8000e+000 96878 -4.9346e+001 -3.8773e+002  3.8163e+001 41212 96748,96800,96774
 2.8000e+000 97097 -2.0483e+002 -5.9046e+001  2.0182e+002 40793 97120,97022,96996
 2.8000e+000 97074 -3.9275e+002 -4.3671e+002  1.2590e+002 40793 97192,97120,96996
 2.8000e+000 97146 -1.5048e+002 -3.6324e+002  1.8162e+002 40793 97324,97120,97048
 2.8000e+000 97169 -1.3370e+002 -5.8928e+002  1.7522e+002 40793 97048,97120,96970
 2.8000e+000 97218 -6.2883e+001 -2.9607e+002  1.3113e+002 40793 96970,97120,97192
 2.8000e+000 97350 -1.5048e+002 -3.6324e+002  1.8162e+002 40793 97022,97120,97324
 2.8000e+000 97878 -2.2790e+002 -4.6477e+002  1.0695e+002 40446 97901,97607,97555
 2.8000e+000 97855 -2.2208e+002 -3.1601e+002  1.0864e+002 40446 97973,97901,97555
 2.8000e+000 97832 -1.3636e+002 -2.6025e+002  8.3495e+001 40446 97973,97555,97737
 2.8000e+000 97809 -3.5604e+002 -4.8091e+002  1.6459e+002 40446 97633,97685,97659
 2.8000e+000 97786 -2.4723e+002 -3.8019e+002  1.1580e+002 40446 97633,97711,97685
 2.8000e+000 97763 -2.2283e+002 -5.2542e+002  1.2717e+002 40446 97555,97607,97581
 2.8000e+000 97927 -2.5035e+002 -5.8284e+002 -1.8634e+001 40446 97633,97607,97901
 2.8000e+000 97950 -2.1886e+002 -4.5176e+002  9.6595e+001 40446 97633,97901,97711
 2.8000e+000 97999 -1.0207e+002 -4.2496e+002  1.5269e+002 40446 97711,97901,97973
 2.8000e+000 98022 -3.3278e+001 -3.6486e+002  1.2724e+002 40446 97711,97973,97737
 2.8000e+000 98449 -1.7333e+002 -1.3289e+002  9.7854e+001 39935 98152,98204,98178
 2.8000e+000 98426 -2.0668e+002 -1.5429e+002  8.2792e+001 39935 98152,98230,98204
 2.8000e+000 98403 -3.1295e+002 -1.9982e+002  1.7472e+002 39935 98152,98256,98230
 2.8000e+000 98380 -2.5659e+002 -2.4476e+002  1.8877e+002 39935 98126,98256,98152
 2.8000e+000 98357 -3.4386e+002 -4.7392e+002  1.9695e+002 39935 98126,98282,98256
 2.8000e+000 98334 -2.1441e+002 -6.6032e+002  2.5833e+002 39935 98126,98308,98282
 2.8000e+000 98746 -5.8523e+002 -4.8824e+002  1.6461e+002 39531 98498,98602,98524
 2.8000e+000 98723 -3.7780e+002 -4.3829e+002  1.6143e+002 39531 98472,98602,98498
 2.8000e+000 98700 -5.8973e+002 -2.5423e+002  1.0422e+002 39531 98524,98602,98576
 2.8000e+000 98677 -3.1099e+002 -4.1338e+002  1.5206e+002 39531 98472,98628,98602
 2.8000e+000 98654 -7.7866e+002 -7.4481e+002 -2.1060e+002 39531 98524,98576,98550
 2.8000e+000 99224 -5.3490e+002 -3.1734e+002  3.0746e+002 39027 99247,98956,98930
 2.8000e+000 99201 -4.8240e+002 -3.0752e+002  1.4845e+002 39027 99247,98930,98878
 2.8000e+000 99178 -4.1719e+002 -3.5007e+002  1.9730e+002 39027 99319,98982,98956
 2.8000e+000 99155 -4.3547e+002 -2.4208e+002  1.2283e+002 39027 98852,99060,98878
 2.8000e+000 99132 -6.0556e+002 -2.8017e+002  1.2663e+002 39027 98878,98930,98904
 2.8000e+000 99109 -3.3292e+002 -5.8399e+002  2.7164e+002 39027 98982,99060,99034
 2.8000e+000 99086 -4.5550e+002 -7.1964e+002  4.3890e+002 39027 98982,99034,99008
 2.8000e+000 99273 -3.8661e+002 -2.8882e+002  2.0972e+002 39027 99319,98956,99247
 2.8000e+000 99296 -4.0221e+002 -2.7898e+002  1.2247e+002 39027 99060,99247,98878
 2.8000e+000 99345 -4.1026e+002 -3.7917e+002  1.6485e+002 39027 99060,98982,99319
 2.8000e+000 99368 -4.1065e+002 -3.6392e+002  1.7283e+002 39027 99060,99319,99247
 2.8000e+000 99923 -3.8535e+002 -3.5733e+002  1.9775e+002 38523 99946,99655,99603
 2.8000e+000 99900 -3.3785e+002 -3.3193e+002  2.1189e+002 38523 99946,99603,99759
 2.8000e+000 99877 -2.1901e+002 -4.6064e+002  2.3515e+002 38523 100018,99707,99681
 2.8000e+000 99854 -3.6066e+002 -2.3008e+002  2.0134e+002 38523 99551,99759,99603
 2.8000e+000 99831 -3.5912e+002 -2.3943e+002  1.9543e+002 38523 99551,99603,99577
 2.8000e+000 99808 -3.6740e+002 -5.6385e+002  1.5429e+002 38523 99707,99759,99733
 2.8000e+000 99785 -2.7934e+002 -2.9477e+002  1.6649e+002 38523 99603,99655,99629
 2.8000e+000 99972 -3.0936e+002 -1.7633e+002  2.0056e+002 38523 99681,99655,99946
 2.8000e+000 99995 -2.5354e+002 -2.6604e+002  2.6918e+002 38523 100018,99681,99946
 2.8000e+000 100044 -2.7960e+002 -5.3727e+002  1.4640e+002 38523 99759,99707,100018
 2.8000e+000 100067 -3.8252e+002 -4.6320e+002  1.8440e+002 38523 99759,100018,99946
 2.8000e+000 100467 -7.6715e+001 -1.9905e+002  6.9370e+001 38125 100219,100349,100323
 2.8000e+000 100444 -8.5942e+001 -2.0138e+002  6.3544e+001 38125 100193,100349,100219
 2.8000e+000 100421 -8.6582e+001 -1.7243e+002  7.1838e+001 38125 100245,100323,100297
 2.8000e+000 100398 -8.6363e+001 -2.0315e+002  6.9438e+001 38125 100219,100323,100245
 2.8000e+000 100375 -1.5381e+002 -2.1208e+002  4.5427e+001 38125 100245,100297,100271
 2.8000e+000 100666 -4.1782e+002 -6.8551e+002  1.6971e+002 37607 100689,100568,100542
 2.8000e+000 100643 -3.0344e+002 -3.3907e+002  1.3936e+002 37607 100689,100542,100490
 2.8000e+000 100620 -1.6309e+002 -2.6284e+002  7.0946e+001 37607 100490,100542,100516
 2.8000e+000 100715 -2.9981e+002 -3.5134e+002  1.0315e+002 37607 100594,100568,100689
 2.8000e+000 100738 -3.7173e+002 -2.5714e+002  1.0618e+002 37607 100594,100689,100490
 2.8000e+000 100937 -2.4502e+002 -2.4586e+002  1.9001e+002 37017 100960,100813,100787
 2.8000e+000 100914 -1.5815e+002 -2.4535e+002  9.9057e+001 37017 100960,100787,100761
 2.8000e+000 100891 -4.5967e+002 -1.7523e+002  2.2363e+002 37017 100813,100865,100839
 2.8000e+000 100986 -3.6156e+002 -3.4615e+002  2.8418e+002 37017 100865,100813,100960
 2.8000e+000 101009 -1.9373e+002 -2.8793e+002  1.8664e+002 37017 100865,100960,100761
 2.8000e+000 101519 -3.2165e+002 -1.4631e+002  4.1014e+001 36613 101222,101274,101248
 2.8000e+000 101496 -1.7702e+002 -1.6494e+002  9.0451e+001 36613 101222,101352,101274
 2.8000e+000 101473 -7.4692e+001 -3.3103e+002 -5.8148e+001 36613 101274,101352,101326
 2.8000e+000 101450 -2.4720e+002 -2.4906e+002  5.4576e+001 36613 101222,101378,101352
 2.8000e+000 101427 -7.2691e+001 -4.8800e+002 -3.7986e+001 36613 101274,101326,101300
 2.8000e+000 101404 -2.2211e+002 -2.5187e+002  1.5566e+002 36613 101196,101378,101222
 2.8000e+000 101718 -3.0877e+002 -2.9356e+002  3.2411e+002 36308 101594,101646,101620
 2.8000e+000 101695 -3.2170e+002 -1.8813e+002  2.1019e+002 36308 101568,101646,101594
 2.8000e+000 101672 -2.2921e+002 -2.1152e+002  2.2685e+002 36308 101542,101646,101568
 2.8000e+000 102098 -2.9546e+002 -2.6033e+002  1.4699e+002 35918 102121,101954,101876
 2.8000e+000 102075 -2.5937e+002 -3.5610e+002  1.0184e+002 35918 102121,101876,101824
 2.8000e+000 102052 -2.4427e+002 -2.3921e+002  1.1177e+002 35918 101876,101954,101928
 2.8000e+000 102029 -3.9367e+002 -1.2985e+002  1.4138e+002 35918 101876,101928,101902
 2.8000e+000 102006 -2.6592e+002 -4.1660e+002  1.8183e+002 35918 101824,101876,101850
 2.8000e+000 102147 -2.5538e+002 -3.4978e+002  1.9341e+002 35918 101980,101954,102121
 2.8000e+000 102170 -2.3776e+002 -4.6776e+002  1.3481e+002 35918 101980,102121,101824
 2.8000e+000 102489 -3.4854e+002 -8.0314e+002  2.6023e+002 35514 102241,102345,102267
 2.8000e+000 102466 -4.6804e+002 -8.4724e+002  2.6736e+002 35514 102215,102345,102241
 2.8000e+000 102443 -3.8093e+002 -9.1857e+002  2.8157e+002 35514 102215,102371,102345
 2.8000e+000 102420 -2.8330e+002 -6.7138e+002  2.9821e+002 35514 102267,102345,102293
 2.8000e+000 102397 -1.6586e+002 -4.2989e+002  3.3961e+002 35514 102293,102345,102319
 2.8000e+000 102820 -5.7273e+002 -3.6178e+002  6.0682e+001 35224 102843,102699,102647
 2.8000e+000 102797 -4.6406e+002 -3.2676e+002  1.3326e+002 35224 102971,102725,102699
 2.8000e+000 102774 -5.8209e+002 -3.5003e+002  2.8704e+002 35224 102595,102725,102621
 2.8000e+000 102751 -1.7254e+002 -2.7754e+002  1.5329e+002 35224 102647,102699,102673
 2.8000e+000 102869 -4.2567e+002 -2.9456e+002  1.1941e+002 35224 102971,102699,102843
 2.8000e+000 102997 -4.0770e+002 -3.6276e+002  1.3142e+002 35224 102621,102725,102971
 2.8000e+000 103020 -3.7057e+002 -3.3680e+002  1.1925e+002 35224 102621,102971,102843
 2.8000e+000 103349 -4.4457e+002 -3.3639e+002  2.0978e+002 34820 103150,103228,103176
 2.8000e+000 103326 -3.9556e+002 -3.9102e+002  1.9723e+002 34820 103124,103228,103150
 2.8000e+000 103303 -3.5918e+002 -3.6641e+002  3.5367e+002 34820 103176,103228,103202
 2.8000e+000 103280 -2.7262e+002 -3.3339e+002  2.6398e+002 34820 103124,103254,103228
 2.8000e+000 103806 -2.8385e+002 -2.7405e+002  8.3658e+001 34530 103558,103662,103636
 2.8000e+000 103783 -3.1187e+002 -2.4362e+002  1.3642e+002 34530 103558,103688,103662
 2.8000e+000 103760 -3.5757e+002 -3.1404e+002  1.0940e+002 34530 103532,103688,103558
 2.8000e+000 103737 -1.6584e+002 -3.2139e+002  6.2395e+001 34530 103584,103636,103610
 2.8000e+000 103714 -5.1735e+002 -3.1006e+002  8.9158e+001 34530 103558,103636,103584
 2.8000e+000 104263 -2.1935e+002 -2.4934e+002  1.7438e+002 34019 103989,104119,104015
 2.8000e+000 104240 -1.6202e+002 -2.2207e+002  1.8564e+002 34019 103989,104145,104119
 2.8000e+000 104217 -2.2210e+002 -3.0207e+002  1.1445e+002 34019 104015,104067,104041
 2.8000e+000 104194 -2.4784e+002 -3.2055e+002  1.5547e+002 34019 104015,104119,104067
 2.8000e+000 104171 -2.5092e+002 -2.1974e+002  1.4927e+002 34019 104067,104119,104093
 2.8000e+000 104641 -2.6297e+002 -2.3116e+002  1.1991e+002 33351 104419,104497,104445
 2.8000e+000 104618 -1.9075e+002 -1.3356e+002  1.7729e+002 33351 104393,104497,104419
 2.8000e+000 104595 -3.2218e+002 -2.1160e+002  5.1914e+001 33351 104367,104497,104393
 2.8000e+000 104572 -2.9911e+002 -3.1509e+002  1.2860e+002 33351 104445,104497,104471
 2.8000e+000 104549 -2.9709e+002 -3.9037e+002  1.0086e+000 33351 104367,104523,104497
 2.8000e+000 105019 -2.9466e+002 -6.1787e+002  3.4048e+002 32861 104823,104901,104875
 2.8000e+000 104996 -4.1451e+002 -7.3208e+002  2.8623e+002 32861 104745,104901,104823
 2.8000e+000 104973 -4.2382e+002 -6.7494e+002  3.0760e+002 32861 104823,104875,104849
 2.8000e+000 104950 -4.1291e+002 -7.0481e+002  3.7345e+002 32861 104745,104823,104797
 2.8000e+000 104927 -5.0119e+002 -2.7951e+002  3.7401e+002 32861 104745,104797,104771
 2.8000e+000 105397 -1.7036e+002 -4.1547e+002  1.7109e+002 32457 105149,105253,105175
 2.8000e+000 105374 -2.5862e+002 -3.7130e+002  1.4724e+002 32457 105149,105279,105253
 2.8000e+000 105351 -1.7180e+002 -3.0909e+002  1.7498e+002 32457 105123,105279,105149
 2.8000e+000 105328 -2.6166e+002 -9.9859e+001  2.3622e+002 32457 105175,105227,105201
 2.8000e+000 105305 -3.3761e+002 -4.8722e+002  1.6866e+002 32457 105175,105253,105227
 2.8000e+000 105726 -1.4103e+002 -4.3980e+002  1.8800e+002 32003 105527,105605,105553
 2.8000e+000 105703 -2.2308e+002 -3.7237e+002  1.8049e+002 32003 105501,105605,105527
 2.8000e+000 105680 -1.2552e+002 -3.3569e+002  1.8257e+002 32003 105501,105631,105605
 2.8000e+000 105657 -7.0240e+001 -2.7370e+002  1.7101e+002 32003 105553,105605,105579
 2.8000e+000 106104 -2.3362e+002 -4.2944e+002  9.0560e+001 31492 106127,105908,105856
 2.8000e+000 106081 -2.3424e+002 -4.3054e+002  1.0508e+002 31492 106127,105856,105830
 2.8000e+000 106058 -2.8461e+002 -5.0740e+002  1.1883e+002 31492 105856,105908,105882
 2.8000e+000 106035 -1.2046e+002 -2.6686e+002  2.4597e+001 31492 105830,105986,105960
 2.8000e+000 106012 -9.9977e+001 -4.3503e+002  1.6021e+002 31492 105908,105960,105934
 2.8000e+000 106153 -2.3197e+002 -4.1785e+002  9.3831e+001 31492 105960,105908,106127
 2.8000e+000 106176 -2.3066e+002 -4.1023e+002  1.0640e+002 31492 105960,106127,105830
 2.8000e+000 106375 -3.1648e+002 -3.2134e+002  2.1975e+002 30788 106398,106277,106251
 2.8000e+000 106352 -3.3235e+002 -4.6154e+002  2.3459e+002 30788 106398,106251,106225
 2.8000e+000 106329 -4.9739e+002 -3.8941e+002  3.2542e+002 30788 106600,106199,106303
 2.8000e+000 106424 -4.5339e+002 -5.2071e+002  1.5831e+002 30788 106470,106398,106303
 2.8000e+000 106447 -3.3253e+002 -4.4366e+002  2.2369e+002 30788 106600,106303,106398
 2.8000e+000 106496 -1.1437e+002 -3.7622e+002  1.7913e+002 30788 106277,106398,106470
 2.8000e+000 106626 -5.9243e+002 -5.0797e+002  4.0845e+002 30788 106225,106199,106600
 2.8000e+000 106649 -4.8283e+002 -5.7275e+002  3.0384e+002 30788 106225,106600,106398
 2.8000e+000 106799 -1.3841e+002 -5.2487e+002 -4.9759e+000 30426 106698,106750,106724
 2.8000e+000 106776 -1.7539e+002 -4.0905e+002 -1.3334e+001 30426 106672,106750,106698
 2.8000e+000 107356 -2.9164e+002 -3.2584e+002  1.7309e+002 29972 107010,107166,107114
 2.8000e+000 107333 -3.7001e+002 -2.9407e+002  2.5075e+002 29972 106984,107166,107010
 2.8000e+000 107310 -3.8023e+002 -2.3342e+002  1.3472e+002 29972 107010,107114,107088
 2.8000e+000 107287 -3.0125e+002 -1.7726e+002  9.9675e+001 29972 107114,107166,107140
 2.8000e+000 107264 -3.5949e+002 -3.2481e+002  2.6993e+002 29972 106984,107192,107166
 2.8000e+000 107241 -5.2451e+002 -5.0671e+002  1.8760e+002 29972 107010,107088,107036
 2.8000e+000 107218 -3.3047e+002 -4.1823e+002  1.5576e+002 29972 107036,107088,107062
 2.8000e+000 107783 -4.0668e+002 -5.3867e+002  2.7489e+002 29724 107878,107806,107590
 2.8000e+000 107760 -5.1888e+002 -5.7203e+002  2.3603e+002 29724 107806,107512,107486
 2.8000e+000 107737 -4.1563e+002 -5.1590e+002  3.0450e+002 29724 107878,107590,107538
 2.8000e+000 107714 -4.0359e+002 -6.0070e+002  2.9617e+002 29724 107950,107460,107616
 2.8000e+000 107691 -3.6650e+002 -5.8105e+002  2.8358e+002 29724 107460,107642,107616
 2.8000e+000 107668 -2.9757e+002 -4.1019e+002  3.4884e+002 29724 107538,107590,107564
 2.8000e+000 107832 -2.8945e+002 -5.3610e+002  3.2632e+002 29724 107616,107590,107806
 2.8000e+000 107855 -4.1222e+002 -6.0584e+002  2.9119e+002 29724 107950,107616,107806
 2.8000e+000 107904 -3.9623e+002 -4.9110e+002  2.8622e+002 29724 107512,107806,107878
 2.8000e+000 107927 -3.7793e+002 -4.4700e+002  3.2431e+002 29724 107512,107878,107538
 2.8000e+000 107976 -2.2423e+002 -5.8861e+002  3.1848e+002 29724 107486,107460,107950
 2.8000e+000 107999 -3.8815e+002 -6.4249e+002  2.8086e+002 29724 107486,107950,107806
 2.8000e+000 108296 -4.4721e+002 -3.3438e+002  2.3752e+002 29206 108319,108100,108048
 2.8000e+000 108273 -2.5180e+002 -2.9394e+002  2.8984e+002 29206 108319,108048,108022
 2.8000e+000 108250 -1.3395e+002 -3.5866e+002  3.5332e+002 29206 108391,108152,108126
 2.8000e+000 108227 -5.1091e+002 -2.4029e+002  2.8050e+002 29206 108048,108100,108074
 2.8000e+000 108204 -1.9293e+002 -4.9781e+002  3.0403e+002 29206 108022,108178,108152
 2.8000e+000 108345 -3.2559e+002 -1.8146e+002  3.4791e+002 29206 108126,108100,108319
 2.8000e+000 108368 -1.8068e+002 -2.8356e+002  3.9537e+002 29206 108391,108126,108319
 2.8000e+000 108417 -2.4925e+002 -4.4959e+002  3.0452e+002 29206 108022,108152,108391
 2.8000e+000 108440 -2.8514e+002 -3.9169e+002  3.4893e+002 29206 108022,108391,108319
 2.8000e+000 108688 -3.8592e+002 -4.5770e+002  3.0565e+002 28595 108711,108541,108515
 2.8000e+000 108665 -5.5947e+002 -5.0250e+002  3.8248e+002 28595 108783,108711,108515
 2.8000e+000 108642 -6.6447e+002 -4.5453e+002  3.8133e+002 28595 108783,108515,108489
 2.8000e+000 108619 -6.3884e+002 -5.6571e+002  1.7126e+002 28595 108463,108593,108489
 2.8000e+000 108737 -3.5886e+002 -3.9523e+002  2.2752e+002 28595 108567,108541,108711
 2.8000e+000 108760 -3.2137e+002 -4.2930e+002  3.3609e+002 28595 108567,108711,108593
 2.8000e+000 108809 -3.7621e+002 -5.1727e+002  3.0658e+002 28595 108593,108711,108783
 2.8000e+000 108832 -5.4369e+002 -5.0659e+002  2.7684e+002 28595 108593,108783,108489
 2.8000e+000 109033 -1.5861e+002 -1.9091e+002  1.1115e+002 28091 108909,108961,108935
 2.8000e+000 109010 -1.4697e+002 -2.3079e+002  1.0758e+002 28091 108857,108961,108909
 2.8000e+000 108987 -2.8214e+002 -3.4646e+002  2.7282e+002 28091 108857,108909,108883
 2.8000e+000 109136 -3.4666e+002 -8.1722e+002  1.4983e+002 27587 109058,109110,109084
 2.8000e+000 109695 -3.4104e+002 -3.6531e+002  1.4514e+002 26969 109718,109375,109323
 2.8000e+000 109672 -3.3058e+002 -3.8105e+002  1.0986e+002 26969 109718,109323,109505
 2.8000e+000 109649 -3.2452e+002 -1.7244e+002  8.5826e+001 26969 109790,109453,109427
 2.8000e+000 109626 -1.6231e+002 -3.3398e+002  1.8989e+002 26969 109323,109375,109349
 2.8000e+000 109603 -3.0425e+002 -3.7486e+002  1.0938e+002 26969 109323,109531,109505
 2.8000e+000 109580 -2.6822e+002 -4.2863e+002  1.1075e+002 26969 109375,109427,109401
 2.8000e+000 109557 -3.6469e+002 -3.8018e+002  1.8292e+002 26969 109453,109505,109479
 2.8000e+000 109744 -3.4442e+002 -3.9068e+002  8.8529e+001 26969 109427,109375,109718
 2.8000e+000 109767 -2.9506e+002 -2.5358e+002  7.1225e+001 26969 109790,109427,109718
 2.8000e+000 109816 -3.0774e+002 -2.6536e+002  1.2583e+002 26969 109505,109453,109790
 2.8000e+000 109839 -2.8930e+002 -3.5349e+002  1.2308e+002 26969 109505,109790,109718
 2.8000e+000 110266 -2.4880e+002 -4.4146e+002  6.8404e+001 26515 110361,110289,110099
 2.8000e+000 110243 -2.1708e+002 -3.1380e+002  9.9991e+001 26515 110289,109995,109943
 2.8000e+000 110220 -3.1877e+002 -4.7228e+002  7.3176e+001 26515 110361,110099,110021
 2.8000e+000 110197 -2.7134e+002 -8.0521e+002  8.0916e+001 26515 110047,110099,110073
 2.8000e+000 110174 -2.7843e+002 -7.5439e+002 -6.7666e+001 26515 110021,110099,110047
 2.8000e+000 110151 -6.5778e+001 -1.6327e+002  1.7529e+002 26515 109943,109995,109969
 2.8000e+000 110315 -3.2809e+002 -2.7115e+002  1.2342e+001 26515 110125,110099,110289
 2.8000e+000 110338 -2.8731e+002 -8.7378e+001  1.7655e+002 26515 110125,110289,109943
 2.8000e+000 110387 -3.0458e+002 -4.0159e+002 -1.4306e+001 26515 109995,110289,110361
 2.8000e+000 110410 -3.6558e+002 -4.3050e+002 -5.0959e+000 26515 109995,110361,110021
 2.8000e+000 110609 -8.2625e+001 -4.7729e+002  1.7838e+002 25789 110906,110762,110632
 2.8000e+000 110586 -1.0072e+002 -5.9168e+002  1.9951e+002 25789 110762,110433,110537
 2.8000e+000 110563 -3.0303e+002 -5.4195e+002  3.1111e+002 25789 110834,110459,110433
 2.8000e+000 110658 -1.5507e+002 -4.5661e+002  2.3155e+002 25789 110906,110632,110834
 2.8000e+000 110788 -4.7984e+001 -3.1159e+002  1.0383e+002 25789 110511,110632,110762
 2.8000e+000 110811 -1.0599e+002 -4.7691e+002  1.9421e+002 25789 110511,110762,110537
 2.8000e+000 110860 -1.8907e+002 -4.6757e+002  2.5611e+002 25789 110485,110459,110834
 2.8000e+000 110883 -2.1854e+002 -4.3255e+002  2.2378e+002 25789 110485,110834,110632
 2.8000e+000 110932 -2.3090e+002 -5.2567e+002  1.8606e+002 25789 110433,110762,110906
 2.8000e+000 110955 -2.8915e+002 -4.8903e+002  2.2872e+002 25789 110433,110906,110834
 2.8000e+000 111350 -2.8680e+002 -4.1864e+002  2.7462e+002 25228 111445,111373,111186
 2.8000e+000 111327 -2.9724e+002 -4.3288e+002  8.4505e+001 25228 110978,111186,111004
 2.8000e+000 111304 -3.0600e+002 -5.4759e+002  2.6114e+002 25228 111373,111108,111082
 2.8000e+000 111281 -2.9135e+002 -5.5428e+002  2.1470e+002 25228 111134,111186,111160
 2.8000e+000 111258 -2.9148e+002 -3.9182e+002  2.4373e+002 25228 111445,111186,111134
 2.8000e+000 111235 -2.6084e+002 -2.8777e+002  1.5683e+002 25228 111517,111030,111004
 2.8000e+000 111212 -3.5050e+002 -3.9126e+002  2.3106e+002 25228 111030,111082,111056
 2.8000e+000 111399 -3.0886e+002 -4.8427e+002  2.5846e+002 25228 111004,111186,111373
 2.8000e+000 111422 -2.2316e+002 -3.5653e+002  2.1659e+002 25228 111517,111004,111373
 2.8000e+000 111471 -2.4595e+002 -3.8994e+002  2.4522e+002 25228 111108,111373,111445
 2.8000e+000 111494 -2.5025e+002 -3.5974e+002  2.1434e+002 25228 111108,111445,111134
 2.8000e+000 111543 -3.4549e+002 -3.1589e+002  2.3923e+002 25228 111082,111030,111517
 2.8000e+000 111566 -3.1672e+002 -4.1546e+002  2.9912e+002 25228 111082,111517,111373
 2.8000e+000 112074 -2.0248e+002 -3.0364e+002  1.6250e+002 24338 112097,111907,111881
 2.8000e+000 112051 -2.6185e+002 -2.8039e+002  8.8628e+001 24338 112097,111881,111829
 2.8000e+000 112028 -9.6108e+001 -2.7099e+002  8.2802e+001 24338 111829,111881,111855
 2.8000e+000 112005 -2.7461e+002 -4.0545e+002  1.2385e+002 24338 111777,111933,111829
 2.8000e+000 111982 -3.8828e+002 -1.9244e+002  1.3393e+002 24338 111751,111933,111777
 2.8000e+000 111959 -3.3469e+002 -5.0288e+002  1.7214e+002 24338 111777,111829,111803
 2.8000e+000 112123 -2.8057e+002 -5.3161e+002  1.6501e+002 24338 111933,111907,112097
 2.8000e+000 112146 -2.4477e+002 -3.4318e+002  1.0699e+002 24338 111933,112097,111829
 2.8000e+000 112443 -4.2097e+002 -3.0822e+002  1.9407e+002 23998 112466,112299,112247
 2.8000e+000 112420 -4.6902e+002 -5.1618e+002  1.8706e+002 23998 112466,112247,112221
 2.8000e+000 112397 -3.3924e+002 -6.1349e+002  2.8896e+002 23998 112169,112325,112221
 2.8000e+000 112374 -2.8202e+002 -5.5704e+002  3.2269e+002 23998 112169,112221,112195
 2.8000e+000 112351 -1.9212e+002 -2.7052e+002  2.3159e+002 23998 112247,112299,112273
 2.8000e+000 112492 -4.1690e+002 -3.4654e+002  3.1703e+002 23998 112325,112299,112466
 2.8000e+000 112515 -4.5897e+002 -4.5908e+002  2.8530e+002 23998 112325,112466,112221
 2.8000e+000 113200 -4.7144e+002 -5.6813e+002  3.9733e+002 23480 112779,112961,112805
 2.8000e+000 113177 -4.9959e+002 -3.9669e+002  1.7105e+002 23480 112779,112987,112961
 2.8000e+000 113154 -1.2748e+002 -2.8549e+002  2.5923e+002 23480 112805,112961,112883
 2.8000e+000 113131 -2.7806e+002 -4.9547e+002  2.8323e+002 23480 112883,112935,112909
 2.8000e+000 113108 -3.7809e+002 -3.8847e+002  2.8855e+002 23480 112883,112961,112935
 2.8000e+000 113085 -1.0804e+002 -2.2195e+002  1.2712e+002 23480 112831,112883,112857
 2.8000e+000 113062 -2.3518e+002 -3.0747e+002  1.8206e+002 23480 112805,112883,112831
 2.8000e+000 113039 -5.4528e+002 -3.2196e+002  1.7944e+002 23480 112779,113013,112987
 2.8000e+000 113676 -4.5248e+002 -2.1478e+002  3.6326e+002 23018 113699,113434,113356
 2.8000e+000 113653 -3.9841e+002 -2.1313e+002  1.9355e+002 23018 113771,113699,113356
 2.8000e+000 113630 -3.5309e+002 -3.5174e+002  1.3350e+002 23018 113771,113356,113512
 2.8000e+000 113607 -2.5369e+002 -4.8346e+002  2.2043e+002 23018 113330,113512,113356
 2.8000e+000 113584 -9.2117e+002 -4.5025e+002  5.3517e+002 23018 113356,113434,113382
 2.8000e+000 113561 -1.0597e+002 -4.5374e+002  2.1954e+002 23018 113304,113512,113330
 2.8000e+000 113538 -8.5157e+002 -7.6945e+001  2.1917e+002 23018 113382,113434,113408
 2.8000e+000 113725 -5.1502e+002 -3.6135e+002  3.6152e+002 23018 113460,113434,113699
 2.8000e+000 113748 -5.6828e+002 -4.0185e+002  2.2687e+002 23018 113460,113699,113486
 2.8000e+000 113797 -5.1776e+002 -4.1655e+002  2.4253e+002 23018 113486,113699,113771
 2.8000e+000 113820 -4.0206e+002 -4.4659e+002  1.5226e+002 23018 113486,113771,113512
 2.8000e+000 114424 -2.1981e+002 -3.4168e+002  7.9826e+001 22514 114447,114133,114029
 2.8000e+000 114401 -2.1641e+002 -3.9902e+002  7.6931e+001 22514 114447,114029,114237
 2.8000e+000 114378 -1.0166e+002 -2.7918e+002  1.2956e+002 22514 114133,114211,114185
 2.8000e+000 114355 -1.4376e+002 -2.6698e+002  1.0629e+002 22514 114133,114185,114159
 2.8000e+000 114332 -1.7269e+002 -4.1791e+002  1.5659e+002 22514 114003,114237,114029
 2.8000e+000 114309 -2.3177e+002 -2.7279e+002  5.3779e+001 22514 114029,114133,114055
 2.8000e+000 114286 -2.9790e+002 -2.3466e+002  8.1970e+001 22514 114055,114133,114107
 2.8000e+000 114263 -2.5623e+002 -1.8030e+001  8.6872e+001 22514 114055,114107,114081
 2.8000e+000 114473 -2.2791e+002 -3.0994e+002  1.0108e+002 22514 114211,114133,114447
 2.8000e+000 114496 -2.1467e+002 -3.5374e+002  9.7515e+001 22514 114211,114447,114237
 2.8000e+000 114597 -2.1139e+002 -5.2080e+002  2.7450e+002 22316 114620,114571,114545
 2.8000e+000 114646 -2.1139e+002 -5.2080e+002  2.7450e+002 22316 114519,114571,114620
 2.8000e+000 115127 -3.0639e+002 -4.4795e+002  1.1254e+002 21612 115150,114905,114879
 2.8000e+000 115104 -3.3525e+002 -2.6473e+002  1.4715e+002 21612 115150,114879,114853
 2.8000e+000 115081 -2.8372e+002 -1.3869e+002  2.3653e+002 21612 115222,114931,114905
 2.8000e+000 115058 -2.7109e+002 -3.3166e+002  1.9547e+002 21612 115222,114905,115009
 2.8000e+000 115035 -1.5218e+002 -4.4674e+002  1.8174e+002 21612 114957,115009,114983
 2.8000e+000 115176 -2.8531e+002 -2.9213e+002  1.3327e+002 21612 115009,114905,115150
 2.8000e+000 115199 -3.0143e+002 -8.7344e+001  1.6296e+002 21612 115009,115150,114853
 2.8000e+000 115248 -3.0513e+002 -2.9850e+002  2.1595e+002 21612 114957,114931,115222
 2.8000e+000 115271 -2.8513e+002 -4.7869e+002  1.7192e+002 21612 114957,115222,115009
 2.8000e+000 115519 -1.0361e+002  5.6280e+001  9.9545e+001 21208 115542,115372,115320
 2.8000e+000 115496  1.6825e+001  1.2748e+002 -6.5912e+000 21208 115542,115320,115294
 2.8000e+000 115473 -7.0694e+001 -1.7284e+002  1.4893e+002 21208 115320,115372,115346
 2.8000e+000 115450 -2.5606e+002 -7.8828e+001  4.7882e+001 21208 115294,115424,115398
 2.8000e+000 115568 -1.5268e+002  1.7303e+001  1.4561e+002 21208 115398,115372,115542
 2.8000e+000 115591 -1.0549e+002 -5.1653e+001  6.1372e+001 21208 115398,115542,115294
 2.8000e+000 115839 -3.2261e+002 -2.6872e+002  2.4890e+002 20668 115862,115640,115614
 2.8000e+000 115816 -3.3433e+002 -3.0500e+002  2.5217e+002 20668 115862,115614,115744
 2.8000e+000 115793 -2.9791e+002 -1.5459e+002  2.3182e+002 20668 115640,115718,115692
 2.8000e+000 115770 -5.1742e+002 -1.8867e+002  2.1337e+002 20668 115640,115692,115666
 2.8000e+000 115888 -3.4064e+002 -2.0532e+002  2.7383e+002 20668 115718,115640,115862
 2.8000e+000 115911 -3.6962e+002 -2.7162e+002  2.8065e+002 20668 115718,115862,115744
 2.8000e+000 116134 -3.0281e+002 -4.5650e+002  2.7642e+002 20264 115958,116036,115984
 2.8000e+000 116111 -1.5525e+002 -3.8636e+002  2.5560e+002 20264 115958,116062,116036
 2.8000e+000 116088 -1.7301e+002 -4.3682e+002  2.9951e+002 20264 115984,116036,116010
 2.8000e+000 116384 -4.8041e+002 -3.3337e+002  3.4435e+002 19924 116407,116211,116159
 2.8000e+000 116361 -4.4812e+002 -5.5190e+002  2.9225e+002 19924 116407,116159,116263
 2.8000e+000 116338 -4.4411e+002 -1.9800e+002  3.3523e+002 19924 116159,116211,116185
 2.8000e+000 116315 -2.9397e+002 -5.3092e+002  3.3378e+002 19924 116159,116289,116263
 2.8000e+000 116433 -4.6400e+002 -2.1221e+002  3.9271e+002 19924 116237,116211,116407
 2.8000e+000 116456 -3.5158e+002 -3.5912e+002  3.6782e+002 19924 116237,116407,116263
 2.8000e+000 116608 -1.8306e+002 -3.7548e+001  1.7781e+002 19520 116703,116631,116533
 2.8000e+000 116585 -7.0782e+001 -1.0308e+002  1.0241e+002 19520 116631,116507,116481
 2.8000e+000 116657 -1.6183e+002 -1.1085e+002  2.0818e+002 19520 116559,116533,116631
 2.8000e+000 116680 -1.2288e+002 -2.7310e+002  1.3843e+002 19520 116559,116631,116481
 2.8000e+000 116729 -1.8306e+002 -3.7548e+001  1.7781e+002 19520 116507,116631,116703
 2.8000e+000 116952 -4.0289e+002 -3.3804e+002  4.8161e+002 19208 116975,116802,116776
 2.8000e+000 116929 -5.0352e+002 -6.3947e+002  2.7681e+002 19208 116975,116776,116880
 2.8000e+000 116906 -5.3585e+002 -2.3069e+002  3.4170e+002 19208 116802,116854,116828
 2.8000e+000 117001 -3.2219e+002 -2.8600e+002  5.0445e+002 19208 116854,116802,116975
 2.8000e+000 117024 -1.3148e+002 -3.6598e+002  4.0170e+002 19208 116854,116975,116880
 2.8000e+000 117428 -3.5502e+002 -1.2419e+002  2.2737e+002 18796 117154,117206,117180
 2.8000e+000 117405 -2.5509e+002 -2.9645e+002  2.1445e+002 18796 117154,117284,117206
 2.8000e+000 117382 -1.4054e+002 -2.4791e+002  2.1410e+002 18796 117154,117310,117284
 2.8000e+000 117359 -1.4683e+002 -1.9797e+002  2.7870e+002 18796 117206,117284,117258
 2.8000e+000 117336 -2.4947e+001 -2.3800e+001  3.8177e+002 18796 117206,117258,117232
 2.8000e+000 117529 -1.6498e+002 -8.6756e+001  1.0390e+002 18228 117810,117552,117477
 2.8000e+000 117578 -4.2681e+002 -2.5232e+002  1.9703e+002 18228 117682,117552,117503
 2.8000e+000 117708 -1.3481e+002 -9.1065e+001  9.8257e+001 18228 117477,117552,117682
 2.8000e+000 117836 -2.6692e+002 -2.5106e+002  1.7338e+002 18228 117451,117552,117810
 2.8000e+000 118364 -3.9763e+002 -1.2653e+002  1.7401e+002 17722 118067,118223,118093
 2.8000e+000 118341 -3.9690e+002 -6.5288e+001  1.6152e+002 17722 118041,118223,118067
 2.8000e+000 118318 -2.1670e+002 -1.4288e+002  1.3547e+002 17722 118093,118223,118197
 2.8000e+000 118295 -7.9520e+002 -7.5738e+002  4.9949e+002 17722 118119,118197,118171
 2.8000e+000 118272 -9.3932e+001 -8.3584e+000  2.0654e+002 17722 118093,118197,118119
 2.8000e+000 118249 -7.4410e+002 -2.6573e+002  3.9122e+002 17722 118119,118171,118145
 2.8000e+000 118514 -7.0391e+002 -2.8085e+002  2.6237e+002 17268 118387,118439,118413
 2.8000e+000 118491 -6.1650e+001 -3.4629e+002  2.9727e+002 17268 118387,118465,118439
 2.8000e+000 118916 -3.3967e+002 -8.8894e+001  1.3076e+002 16828 118668,118772,118694
 2.8000e+000 118893 -4.7167e+002 -1.4501e+002  1.1273e+002 16828 118668,118798,118772
 2.8000e+000 118870 -5.0606e+002 -2.8510e+002  6.5270e+001 16828 118642,118798,118668
 2.8000e+000 118847 -1.3509e+002 -4.4431e+001  2.7494e+002 16828 118694,118746,118720
 2.8000e+000 118824 -3.9275e+002 -2.6018e+002  1.2409e+002 16828 118694,118772,118746
 2.8000e+000 119316 -1.6822e+002 -1.3933e+002  2.3337e+002 16422 119042,119172,119094
 2.8000e+000 119293 -2.4299e+002 -1.5509e+002  2.4141e+002 16422 119042,119198,119172
 2.8000e+000 119270 -3.3381e+002 -8.4756e+001  1.2432e+002 16422 119042,119094,119068
 2.8000e+000 119247 -1.1472e+001 -3.7006e+000  3.2417e+002 16422 119094,119146,119120
 2.8000e+000 119224 -1.2783e+002 -6.5370e+001  2.4946e+002 16422 119094,119172,119146
 2.8000e+000 119466 -1.0219e+002  2.8403e+001  7.6762e+001 16010 119339,119391,119365
 2.8000e+000 119443 -7.3404e+001 -4.8798e+001  1.8983e+002 16010 119339,119417,119391
 2.8000e+000 119616 -1.1355e+002 -7.4778e+000  1.7427e+002 15547 119515,119567,119541
 2.8000e+000 119593  1.6162e+002  2.6030e+002  5.6772e+002 15547 119489,119567,119515
 2.8000e+000 119719 -6.5482e+002 -2.6782e+002  2.9441e+002 421 119641,119693,119667
 2.9000e+000 69562 -6.8132e+002 -3.0465e+002  3.6802e+002 69254 69484,69536,69510
 2.9000e+000 70009 -2.8064e+002 -2.3892e+002  2.3309e+002 68942 69686,69842,69816
 2.9000e+000 69986 -2.5261e+002 -8.8073e+001  1.2862e+002 68942 69686,69868,69842
 2.9000e+000 69963 -1.7094e+002 -7.0509e+001  2.8716e+002 68942 69686,69816,69712
 2.9000e+000 69940 -1.2347e+002 -7.5679e+001  4.0838e+002 68942 69712,69790,69738
 2.9000e+000 69917 -4.2755e+002 -6.8027e+002  2.7358e+002 68942 69712,69816,69790
 2.9000e+000 69894 -4.6671e+001 -3.6462e+002  1.6229e+002 68942 69738,69790,69764
 2.9000e+000 70110 -3.3034e+002 -1.1407e+002  1.9238e+002 68766 70032,70084,70058
 2.9000e+000 70746 -4.6281e+002 -2.1452e+002  2.1029e+002 68448 70400,70556,70426
 2.9000e+000 70723 -7.1116e+002 -2.9397e+002  2.6706e+002 68448 70374,70556,70400
 2.9000e+000 70700 -4.7547e+002 -1.8122e+002  1.4947e+002 68448 70426,70556,70478
 2.9000e+000 70677 -5.4746e+002 -1.6598e+002  1.5651e+002 68448 70478,70556,70504
 2.9000e+000 70654 -5.4777e+002 -2.5748e+002  1.8670e+002 68448 70426,70478,70452
 2.9000e+000 70631 -6.8269e+002 -2.0842e+002  3.5256e+002 68448 70374,70582,70556
 2.9000e+000 70608 -5.7803e+002 -1.6233e+002  1.1780e+002 68448 70504,70556,70530
 2.9000e+000 70896 -6.1941e+002 -1.9314e+002  1.3636e+001 68250 70795,70847,70821
 2.9000e+000 70873 -1.0456e+003 -3.6452e+002  2.4785e+001 68250 70769,70847,70795
 2.9000e+000 70997 -1.3927e+003 -6.4286e+002  5.6483e+002 68052 70919,70971,70945
 2.9000e+000 71367 -4.2615e+002 -6.7300e+002  2.5750e+002 67740 71096,71226,71200
 2.9000e+000 71344 -2.8258e+002 -3.9253e+002  3.1684e+002 67740 71044,71226,71096
 2.9000e+000 71321  2.7870e+001 -2.7870e+001  5.0643e+002 67740 71044,71096,71070
 2.9000e+000 71298 -3.2574e+002 -7.2244e+002  5.0398e+002 67740 71096,71200,71174
 2.9000e+000 71275 -1.8574e+002 -4.4399e+002  1.7219e+002 67740 71096,71148,71122
 2.9000e+000 71252 -2.5521e+002 -5.1095e+002  3.2446e+002 67740 71096,71174,71148
 2.9000e+000 71519  1.8298e+002  1.1120e+002  1.5898e+002 67542 71418,71470,71444
 2.9000e+000 71496  2.6778e+002  5.3761e+002  4.9630e+002 67542 71392,71470,71418
 2.9000e+000 71923 -1.0653e+002 -1.1427e+001  1.6114e+002 67230 71649,71779,71675
 2.9000e+000 71900 -7.9248e+001 -1.5270e+002  1.1012e+002 67230 71649,71805,71779
 2.9000e+000 71877 -1.1675e+002 -4.8474e+001  2.9343e+002 67230 71675,71727,71701
 2.9000e+000 71854 -1.5079e+002 -4.4194e+002  2.9228e+002 67230 71675,71753,71727
 2.9000e+000 71831 -1.5291e+002 -2.7003e+002  2.0400e+002 67230 71675,71779,71753
 2.9000e+000 72433 -3.8388e+002 -1.7228e+002  2.2016e+002 67032 72038,72246,72220
 2.9000e+000 72410 -1.8759e+002 -3.5754e+001  1.2561e+002 67032 72012,72246,72038
 2.9000e+000 72387 -3.7920e+002 -1.6765e+002  2.3444e+002 67032 72064,72194,72168
 2.9000e+000 72364 -3.9327e+002 -1.5356e+002  2.4242e+002 67032 72038,72194,72064
 2.9000e+000 72341 -4.8770e+002 -4.1914e+002  2.2693e+002 67032 72038,72220,72194
 2.9000e+000 72318 -1.8620e+002 -3.2238e+001  1.8232e+002 67032 72090,72168,72142
 2.9000e+000 72295 -1.3311e+002 -5.2515e+001  2.8086e+002 67032 72064,72168,72090
 2.9000e+000 72272 -2.0175e+002 -5.4337e+001  1.7149e+002 67032 72090,72142,72116
 2.9000e+000 72933 -2.7708e+002 -2.8536e+002  2.9265e+002 66628 72956,72665,72613
 2.9000e+000 72910 -2.6830e+002 -3.0788e+002  2.9117e+002 66628 73100,72956,72613
 2.9000e+000 72887 -3.2412e+002 -4.3797e+002  2.4165e+002 66628 73028,72691,72665
 2.9000e+000 72864 -2.5600e+002 -2.8122e+002  2.9493e+002 66628 73100,72613,72587
 2.9000e+000 72841 -2.6282e+002 -2.7176e+002  2.5825e+002 66628 72613,72665,72639
 2.9000e+000 72818  1.9633e+001 -8.7860e+000  3.7817e+002 66628 72587,72769,72743
 2.9000e+000 72795 -2.8602e+002 -6.6140e+002  8.7989e+001 66628 72561,72769,72587
 2.9000e+000 72982 -3.2280e+002 -3.1828e+002  3.0967e+002 66628 73028,72665,72956
 2.9000e+000 73005 -2.8002e+002 -1.1699e+002  2.9028e+002 66628 72717,72956,72743
 2.9000e+000 73054 -4.5285e+002 -3.7068e+002  1.5037e+002 66628 72717,72691,73028
 2.9000e+000 73077 -4.5340e+002 -3.2898e+002  2.1304e+002 66628 72717,73028,72956
 2.9000e+000 73126 -2.7639e+002 -3.0604e+002  2.6144e+002 66628 72743,72956,73100
 2.9000e+000 73149 -2.6510e+002 -2.8433e+002  2.6574e+002 66628 72743,73100,72587
 2.9000e+000 73606 -3.3699e+002 -2.8781e+002  2.7303e+002 66281 73332,73384,73358
 2.9000e+000 73583 -4.2314e+002 -3.3162e+002  2.1328e+002 66281 73332,73462,73384
 2.9000e+000 73560 -5.2714e+002 -3.1716e+002  2.3416e+002 66281 73384,73462,73436
 2.9000e+000 73537 -7.8370e+002 -4.5508e+002  3.4462e+002 66281 73332,73488,73462
 2.9000e+000 73514 -5.6271e+002 -3.0607e+002  1.5017e+002 66281 73384,73436,73410
 2.9000e+000 73984 -1.9912e+002 -1.2452e+002  1.0359e+002 65969 73736,73814,73788
 2.9000e+000 73961 -8.8911e+001 -7.1265e+001  8.7137e+001 65969 73736,73866,73814
 2.9000e+000 73938 -2.0221e+002 -1.4816e+002  1.8657e+002 65969 73814,73866,73840
 2.9000e+000 73915 -5.9664e+001 -9.2302e+001  8.5035e+001 65969 73710,73866,73736
 2.9000e+000 73892 -1.4606e+002 -1.1162e+002  3.5861e+001 65969 73736,73788,73762
 2.9000e+000 74232 -2.6616e+002 -2.6856e+002  2.6710e+002 65572 74255,74085,74033
 2.9000e+000 74209 -2.5051e+002 -2.8089e+002  2.4717e+002 65572 74327,74255,74033
 2.9000e+000 74186 -2.6499e+002 -2.3729e+002  2.4719e+002 65572 74327,74033,74007
 2.9000e+000 74163 -2.9777e+002 -3.1211e+002  2.8514e+002 65572 74033,74085,74059
 2.9000e+000 74281 -3.0002e+002 -3.0553e+002  3.1034e+002 65572 74111,74085,74255
 2.9000e+000 74304 -2.3552e+002 -2.8314e+002  2.6622e+002 65572 74111,74255,74137
 2.9000e+000 74353 -2.3614e+002 -2.3166e+002  2.3130e+002 65572 74137,74255,74327
 2.9000e+000 74376 -2.6006e+002 -1.9870e+002  2.3375e+002 65572 74137,74327,74007
 2.9000e+000 74884 -2.6839e+002 -2.9261e+002  2.3764e+002 65174 74587,74717,74613
 2.9000e+000 74861 -3.1581e+002 -3.4094e+002  1.8696e+002 65174 74561,74717,74587
 2.9000e+000 74838 -2.3320e+002 -3.4460e+002  1.8104e+002 65174 74613,74691,74639
 2.9000e+000 74815 -2.6543e+002 -3.4253e+002  2.2727e+002 65174 74613,74717,74691
 2.9000e+000 74792 -1.3434e+002 -4.8631e+002  1.5780e+002 65174 74639,74691,74665
 2.9000e+000 74769 -5.2042e+002 -1.2017e+002  2.0338e+002 65174 74561,74743,74717
 2.9000e+000 75412 -9.9089e+000 -1.2248e+002  5.2245e+002 64770 75167,75245,75219
 2.9000e+000 75389 -2.5463e+002 -4.5160e+002  3.5830e+002 64770 75115,75245,75167
 2.9000e+000 75366 -1.9905e+002 -5.7294e+002  4.5973e+002 64770 75089,75245,75115
 2.9000e+000 75343 -3.9660e+002 -1.4580e+002  3.8871e+002 64770 75167,75219,75193
 2.9000e+000 75320 -2.0621e+002 -3.4345e+002  3.6977e+002 64770 75115,75167,75141
 2.9000e+000 75297 -3.1863e+002 -8.3300e+002  4.8894e+002 64770 75089,75271,75245
 2.9000e+000 75861 -6.8231e+002 -2.8705e+002  4.0549e+002 64316 75538,75694,75564
 2.9000e+000 75838 -4.2818e+002 -1.6500e+002  2.2633e+002 64316 75538,75720,75694
 2.9000e+000 75815 -5.3420e+002 -3.3412e+002  3.1386e+002 64316 75590,75694,75642
 2.9000e+000 75792 -5.0981e+002 -4.5370e+002  3.6767e+002 64316 75564,75694,75590
 2.9000e+000 75769 -1.7583e+002 -5.6772e+002  1.7536e+002 64316 75590,75642,75616
 2.9000e+000 75746 -4.8393e+002 -2.0353e+002  2.8985e+002 64316 75642,75694,75668
 2.9000e+000 76239 -7.2163e+002 -5.6340e+002  3.1955e+002 64018 76262,76095,76043
 2.9000e+000 76216 -5.5994e+002 -5.6703e+002  2.6927e+002 64018 76262,76043,76017
 2.9000e+000 76193 -3.0045e+002 -2.7143e+002  2.1808e+002 64018 75991,76121,76017
 2.9000e+000 76170 -6.9106e+002 -4.4603e+002  4.4527e+002 64018 76043,76095,76069
 2.9000e+000 76147 -1.2315e+001 -2.7163e+002  5.9081e+001 64018 75965,76121,75991
 2.9000e+000 76288 -5.6637e+002 -6.1819e+002  4.0072e+002 64018 76121,76095,76262
 2.9000e+000 76311 -4.3479e+002 -6.4180e+002  3.2696e+002 64018 76121,76262,76017
 2.9000e+000 76866 -2.6407e+002 -2.7397e+002  2.8859e+002 63728 76520,76676,76546
 2.9000e+000 76843 -2.4388e+002 -2.7820e+002  2.1418e+002 63728 76520,76702,76676
 2.9000e+000 76820 -2.1346e+002 -2.8203e+002  2.7815e+002 63728 76546,76650,76572
 2.9000e+000 76797 -3.5978e+002 -3.5992e+002  2.4792e+002 63728 76546,76676,76650
 2.9000e+000 76774 -3.5995e+002 -3.9445e+001  1.4141e+002 63728 76572,76650,76624
 2.9000e+000 76751 -2.0961e+002 -2.4701e+002  2.2719e+002 63728 76494,76702,76520
 2.9000e+000 76728 -7.5213e+001 -1.5487e+002  1.0760e+002 63728 76572,76624,76598
 2.9000e+000 77065 -2.1094e+002 -2.5324e+002  2.5222e+002 63288 77088,76941,76915
 2.9000e+000 77042 -3.9659e+002 -3.0756e+002  2.3114e+002 63288 77088,76915,76993
 2.9000e+000 77019 -9.1891e+001 -3.5037e+002  1.8553e+002 63288 76889,76993,76915
 2.9000e+000 77114 -2.9338e+002 -2.9649e+002  2.1592e+002 63288 76967,76941,77088
 2.9000e+000 77137 -5.9000e+002 -3.7498e+002  1.0266e+002 63288 77160,77088,76993
 2.9000e+000 77186 -1.6606e+002 -1.7792e+002  1.6545e+002 63288 76967,77088,77160
 2.9000e+000 77417 -1.8744e+002 -2.8324e+002  1.7803e+002 62884 77440,77342,77316
 2.9000e+000 77394 -4.5122e+002 -3.8531e+002  8.6181e+001 62884 77770,77440,77316
 2.9000e+000 77466 -3.3005e+002 -4.1636e+002  6.8880e+001 62884 77512,77440,77368
 2.9000e+000 77489 -2.6528e+002 -3.1759e+002  7.1418e+001 62884 77642,77440,77290
 2.9000e+000 77538 -1.4477e+002 -2.9049e+002  1.3638e+001 62884 77342,77440,77512
 2.9000e+000 77668 -3.4270e+002 -4.6356e+002  3.9159e+001 62884 77368,77440,77642
 2.9000e+000 77796 -2.6188e+002 -3.0172e+002  6.9795e+001 62884 77290,77440,77770
 2.9000e+000 78479 -6.2845e+002 -5.6150e+002  3.3567e+002 62480 78084,78240,78214
 2.9000e+000 78456 -4.6149e+002 -5.0693e+002  7.4386e+001 62480 78084,78266,78240
 2.9000e+000 78433 -5.0679e+002 -4.8700e+002  1.6737e+002 62480 78110,78214,78136
 2.9000e+000 78410 -5.8157e+002 -5.1870e+002  3.1783e+002 62480 78084,78214,78110
 2.9000e+000 78387 -3.6403e+002 -4.1109e+002  2.0651e+002 62480 78136,78214,78188
 2.9000e+000 78364 -5.0305e+002 -5.5281e+002  5.5825e+001 62480 78058,78266,78084
 2.9000e+000 78341 -2.8282e+002 -3.3233e+002  7.8889e+001 62480 78136,78188,78162
 2.9000e+000 78318 -6.1129e+002 -6.2642e+002  1.0661e+002 62480 78058,78292,78266
 2.9000e+000 78678 -3.6873e+002 -6.5026e+002  2.6020e+002 61926 78528,78606,78554
 2.9000e+000 78655 -2.1019e+002 -6.2351e+002  3.2884e+002 61926 78502,78606,78528
 2.9000e+000 78632 -2.5003e+002 -4.1862e+002  1.8318e+002 61926 78554,78606,78580
 2.9000e+000 79058 -3.8648e+002 -3.5829e+002  1.9958e+002 61614 78836,78914,78862
 2.9000e+000 79035 -4.7009e+002 -4.2210e+002  1.7097e+002 61614 78810,78914,78836
 2.9000e+000 79012 -3.0598e+002 -3.5156e+002  1.7629e+002 61614 78784,78914,78810
 2.9000e+000 78989 -3.4052e+002 -4.1063e+002  3.3858e+002 61614 78862,78914,78888
 2.9000e+000 78966 -2.7273e+002 -4.5572e+002  2.0326e+002 61614 78784,78940,78914
 2.9000e+000 79208 -2.7236e+002 -6.3431e+002  4.3905e+000 61366 79081,79133,79107
 2.9000e+000 79185 -2.7715e+002 -4.6145e+002  1.7062e+002 61366 79081,79159,79133
 2.9000e+000 79358  2.8290e+001  8.8495e+000  3.0027e+001 60962 79231,79283,79257
 2.9000e+000 79335 -1.2867e+002 -3.0275e+002  8.3601e+001 60962 79231,79309,79283
 2.9000e+000 79608 -2.2182e+002 -4.8818e+002  1.7153e+002 60508 79631,79435,79409
 2.9000e+000 79585 -1.4618e+002 -4.9358e+002  1.1632e+002 60508 79703,79631,79409
 2.9000e+000 79562 -1.4298e+002 -2.6076e+002  1.4996e+002 60508 79703,79409,79383
 2.9000e+000 79539 -5.1880e+002 -3.8983e+002  3.1168e+002 60508 79435,79487,79461
 2.9000e+000 79657 -2.5694e+002 -5.9073e+002  3.0206e+002 60508 79487,79435,79631
 2.9000e+000 79680 -1.1659e+002 -4.5615e+002  1.6116e+002 60508 79487,79631,79513
 2.9000e+000 79729 -8.3028e+001 -2.8019e+002  5.8760e+001 60508 79513,79631,79703
 2.9000e+000 79752 -1.4909e+002 -2.4884e+002  2.4597e+001 60508 79513,79703,79383
 2.9000e+000 80390 -3.2830e+002 -3.5917e+002  3.1151e+002 59997 80413,80096,80018
 2.9000e+000 80367 -5.5606e+002 -4.3457e+002  3.5593e+002 59997 80413,80018,80226
 2.9000e+000 80344 -2.6653e+002 -2.8686e+002  1.8856e+002 59997 80096,80174,80148
 2.9000e+000 80321 -9.7310e+002 -6.4664e+002  4.6598e+002 59997 80018,80096,80070
 2.9000e+000 80298 -3.6971e+002 -3.4146e+002  1.6710e+002 59997 80096,80148,80122
 2.9000e+000 80275 -2.7229e+002 -3.2627e+002  2.6461e+002 59997 80174,80226,80200
 2.9000e+000 80252 -7.2316e+002 -4.5427e+002  2.2690e+002 59997 80018,80070,80044
 2.9000e+000 80439 -2.6636e+002 -4.0364e+002  2.3272e+002 59997 80174,80096,80413
 2.9000e+000 80462 -3.6166e+002 -3.6089e+002  2.5582e+002 59997 80174,80413,80226
 2.9000e+000 80840 -4.5295e+002 -3.9602e+002  1.9293e+002 59443 80863,80644,80618
 2.9000e+000 80817 -1.9044e+002 -2.9286e+002  2.2836e+002 59443 80863,80618,80566
 2.9000e+000 80794 -1.7593e+002 -2.5754e+002  2.7338e+002 59443 81007,80935,80670
 2.9000e+000 80771 -2.4748e+002 -2.6329e+002  2.4243e+002 59443 80566,80722,80696
 2.9000e+000 80748 -2.3780e+002 -3.9011e+002  2.5764e+002 59443 80566,80618,80592
 2.9000e+000 80889 -5.0162e+002 -3.5364e+002  3.1243e+002 59443 80935,80644,80863
 2.9000e+000 80912 -3.4650e+002 -3.0935e+002  2.6323e+002 59443 80696,80863,80566
 2.9000e+000 80961 -2.9558e+002 -2.9536e+002  3.1668e+002 59443 80696,80670,80935
 2.9000e+000 80984 -2.8704e+002 -2.5403e+002  2.8616e+002 59443 80696,80935,80863
 2.9000e+000 81033 -3.8880e+002 -4.8060e+002  3.7867e+002 59443 80644,80935,81007
 2.9000e+000 81360 -4.7722e+002 -2.3000e+002  2.1139e+002 59031 81383,81187,81161
 2.9000e+000 81337 -3.7926e+002 -2.6818e+002  5.9979e+001 59031 81455,81383,81161
 2.9000e+000 81314 -2.5889e+002 -2.1219e+002  9.0171e+001 59031 81455,81161,81135
 2.9000e+000 81291 -7.5819e+002 -1.9269e+002  3.3180e+002 59031 81187,81239,81213
 2.9000e+000 81409 -5.1977e+002 -4.2866e+002  2.8222e+002 59031 81239,81187,81383
 2.9000e+000 81432 -5.8955e+002 -3.4715e+002  7.0425e+001 59031 81239,81383,81265
 2.9000e+000 81481 -5.0061e+002 -1.4994e+002  1.0211e+002 59031 81265,81383,81455
 2.9000e+000 81504 -4.5090e+002 -1.5208e+002  1.0420e+002 59031 81265,81455,81135
 2.9000e+000 81835 -6.0816e+001 -1.9858e+002  8.8437e+001 58577 81610,81714,81636
 2.9000e+000 81812 -5.8931e+001 -2.3769e+002  9.9825e+001 58577 81610,81740,81714
 2.9000e+000 81789 -1.7671e+002 -2.4323e+002  1.8262e+001 58577 81636,81714,81688
 2.9000e+000 81766 -1.5811e+002 -2.2387e+002 -6.1445e+001 58577 81636,81688,81662
 2.9000e+000 81985 -9.4380e+001 -2.2750e+002  1.4148e+002 58030 81884,81936,81910
 2.9000e+000 81962 -1.9122e+002 -6.5383e+001  9.7043e+001 58030 81858,81936,81884
 2.9000e+000 82414 -8.0982e+001 -2.7888e+001  1.0394e+002 57690 82437,82169,82117
 2.9000e+000 82391 -1.0737e+002 -1.2948e+002  1.2097e+002 57690 82437,82117,82247
 2.9000e+000 82368  4.4011e+001  7.3623e+001  2.8366e+002 57690 82195,82247,82221
 2.9000e+000 82345 -8.5461e+001 -1.2002e+002  1.2274e+002 57690 82091,82247,82117
 2.9000e+000 82322 -1.3804e+002 -3.5137e+001  6.9786e+001 57690 82117,82169,82143
 2.9000e+000 82299 -9.7286e+001 -2.2535e+002  1.7069e+002 57690 82091,82273,82247
 2.9000e+000 82463 -1.2200e+002  1.3614e+001  1.5176e+002 57690 82195,82169,82437
 2.9000e+000 82486 -1.3349e+002 -5.9129e+001  1.5211e+002 57690 82195,82437,82247
 2.9000e+000 83041 -2.5146e+002 -2.5730e+002  1.8533e+002 57172 83064,82721,82695
 2.9000e+000 83018 -2.7900e+002 -2.7080e+002  2.6426e+002 57172 83064,82695,82851
 2.9000e+000 82995 -7.8618e+002 -3.7177e+002  3.5644e+002 57172 82669,82851,82695
 2.9000e+000 82972 -4.5808e+002 -2.9404e+002  2.5309e+002 57172 82773,82851,82825
 2.9000e+000 82949 -4.2420e+002 -3.1475e+002  3.3916e+002 57172 82773,82825,82799
 2.9000e+000 82926 -3.2961e+002 -2.1561e+002  1.5568e+002 57172 82721,82773,82747
 2.9000e+000 82903 -8.8657e+002 -3.7295e+002  5.2689e+002 57172 82669,82877,82851
 2.9000e+000 83090 -3.7984e+002 -3.0617e+002  1.7687e+002 57172 82773,82721,83064
 2.9000e+000 83113 -3.2158e+002 -2.8464e+002  2.5136e+002 57172 82773,83064,82851
 2.9000e+000 83747 -2.9834e+002 -2.5045e+002  1.7419e+002 56554 83770,83427,83401
 2.9000e+000 83724 -3.0123e+002 -3.1372e+002  2.0275e+002 56554 83842,83770,83401
 2.9000e+000 83701 -1.8520e+001 -2.4291e+002  7.5617e+001 56554 83842,83401,83583
 2.9000e+000 83678 -5.6731e+002 -4.4607e+002  4.2423e+002 56554 83914,83531,83505
 2.9000e+000 83655 -3.6452e+002 -2.7857e+002  1.4186e+002 56554 83531,83583,83557
 2.9000e+000 83632 -8.9439e+001 -1.0666e+002  5.7013e+001 56554 83375,83583,83401
 2.9000e+000 83609 -2.9761e+002 -2.5971e+002  1.8456e+002 56554 83427,83479,83453
 2.9000e+000 83796 -2.7813e+002 -2.4726e+002  1.7585e+002 56554 83479,83427,83770
 2.9000e+000 83819 -3.1969e+002 -2.2509e+002  1.9392e+002 56554 83479,83770,83505
 2.9000e+000 83868 -2.0284e+002 -1.5027e+002  2.5440e+002 56554 83505,83770,83842
 2.9000e+000 83891 -3.7418e+002 -2.7829e+002  3.1030e+002 56554 83914,83505,83842
 2.9000e+000 83940 -2.6805e+002 -4.4286e+002  2.4845e+002 56554 83583,83531,83914
 2.9000e+000 83963 -1.2415e+002 -4.2141e+002  1.8901e+002 56554 83583,83914,83842
 2.9000e+000 84341 -2.6945e+002 -7.2570e+002  2.6345e+002 56192 84067,84145,84119
 2.9000e+000 84318 -1.4498e+002 -5.4198e+002  2.0933e+002 56192 84067,84223,84145
 2.9000e+000 84295 -2.4326e+002 -5.6689e+002  7.8640e+001 56192 84145,84223,84197
 2.9000e+000 84272 -1.8860e+002 -5.5739e+002  2.8971e+002 56192 84067,84119,84093
 2.9000e+000 84249 -3.5766e+002 -1.7110e+002  1.4735e+002 56192 84145,84197,84171
 2.9000e+000 84611 -1.5507e+002 -3.8198e+002  2.3592e+002 55538 84386,84490,84412
 2.9000e+000 84588 -1.4424e+002 -3.3353e+002  2.2339e+002 55538 84386,84516,84490
 2.9000e+000 84565 -3.2697e+002 -4.5659e+002  2.2812e+002 55538 84412,84490,84464
 2.9000e+000 84542 -1.8128e+002 -4.2915e+002  1.3261e+002 55538 84412,84464,84438
 2.9000e+000 84942 -3.7667e+002 -2.9417e+002  2.6150e+002 55084 84769,84847,84795
 2.9000e+000 84919 -3.5057e+002 -3.2879e+002  2.2023e+002 55084 84717,84847,84769
 2.9000e+000 84896 -4.1301e+002 -4.3262e+002  1.9056e+002 55084 84717,84769,84743
 2.9000e+000 84873 -4.3052e+002 -1.4613e+002  2.1912e+002 55084 84795,84847,84821
 2.9000e+000 85271 -4.0316e+001 -9.5481e+001  1.4838e+002 54580 85294,85098,85072
 2.9000e+000 85248 -3.5307e+002 -1.9121e+002  2.1329e+002 54580 85294,85072,85176
 2.9000e+000 85225 -5.0663e+002 -8.0419e+000  6.1821e+001 54580 85124,85176,85150
 2.9000e+000 85202 -9.5698e+001 -1.6898e+002  6.8293e+001 54580 85046,85176,85072
 2.9000e+000 85320 -3.1221e+002 -1.1949e+002  1.7758e+002 54580 85124,85098,85294
 2.9000e+000 85343 -4.7762e+002 -9.7136e+001  2.2363e+002 54580 85124,85294,85176
 2.9000e+000 85542 -2.4005e+002 -3.6668e+002  1.4449e+002 53976 85565,85444,85418
 2.9000e+000 85519 -2.0885e+002 -3.2465e+002  1.5976e+002 53976 85565,85418,85366
 2.9000e+000 85496 -1.7689e+002 -2.9184e+002  1.2463e+002 53976 85366,85418,85392
 2.9000e+000 85591 -3.4107e+002 -3.6890e+002  7.1277e+001 53976 85470,85444,85565
 2.9000e+000 85614 -2.3789e+002 -1.8745e+002  1.1483e+002 53976 85470,85565,85366
 2.9000e+000 85960 -4.1167e+002 -4.8038e+002  1.9846e+002 53572 85663,85715,85689
 2.9000e+000 85937 -3.6882e+002 -4.3712e+002  1.7073e+002 53572 85983,85715,85663
 2.9000e+000 85914 -5.9438e+002 -5.4041e+002  2.1695e+002 53572 86055,85983,85663
 2.9000e+000 85891 -5.5246e+002 -5.3263e+002  3.1666e+002 53572 86055,85663,85637
 2.9000e+000 85868 -8.5044e+002 -1.0698e+003  4.2930e+002 53572 85637,85793,85767
 2.9000e+000 85845 -9.2890e+002 -2.8846e+002  1.9296e+002 53572 85637,85819,85793
 2.9000e+000 86009 -5.6884e+002 -3.6194e+002  1.5487e+002 53572 85741,85715,85983
 2.9000e+000 86032 -7.3566e+002 -3.8759e+002  2.2228e+002 53572 85741,85983,85767
 2.9000e+000 86081 -5.1234e+002 -3.1552e+002  2.0648e+002 53572 85767,85983,86055
 2.9000e+000 86104 -5.2531e+002 -4.1623e+002  2.9894e+002 53572 85767,86055,85637
 2.9000e+000 86693 -6.6865e+002 -7.9621e+001  3.1680e+002 52946 86474,86526,86500
 2.9000e+000 86670 -1.3013e+002 -3.0112e+001  7.8985e+001 52946 86396,86526,86474
 2.9000e+000 86647 -5.0050e+002 -3.9634e+002  2.2776e+002 52946 86370,86526,86396
 2.9000e+000 86624  3.3671e+000  5.7505e+000  5.3229e+000 52946 86422,86474,86448
 2.9000e+000 86601 -1.5336e+002 -2.8186e+001  5.9344e+001 52946 86396,86474,86422
 2.9000e+000 86578 -4.6051e+002 -9.4355e+001  1.5610e+002 52946 86370,86552,86526
 2.9000e+000 87376 -4.4339e+002 -3.7788e+002  1.6664e+002 52420 87007,87085,87033
 2.9000e+000 87353 -3.2666e+002 -3.1249e+002  1.3978e+002 52420 87007,87163,87085
 2.9000e+000 87330 -3.9746e+002 -2.9257e+002  1.6700e+002 52420 87007,87189,87163
 2.9000e+000 87307 -3.5891e+002 -3.7635e+002  1.4040e+002 52420 87033,87085,87059
 2.9000e+000 87284 -3.8938e+002 -3.6919e+002  6.8629e+001 52420 87085,87137,87111
 2.9000e+000 87261 -3.0662e+002 -3.3692e+002  8.4396e+001 52420 87085,87163,87137
 2.9000e+000 87238 -3.1524e+002 -3.3392e+002  3.0367e+002 52420 86955,87189,87007
 2.9000e+000 87215 -2.1218e+002 -2.3149e+002  1.4789e+002 52420 86955,87007,86981
 2.9000e+000 87624 -2.6119e+002 -4.1422e+002  1.0890e+002 51916 87451,87503,87477
 2.9000e+000 87601 -2.8050e+002 -5.1888e+002  1.0081e+002 51916 87425,87503,87451
 2.9000e+000 87578 -2.4085e+002 -5.1237e+002  9.6149e+001 51916 87425,87529,87503
 2.9000e+000 87555 -1.6610e+002 -3.9179e+002  1.2977e+002 51916 87399,87529,87425
 2.9000e+000 88053 -3.5835e+002 -3.0866e+002  1.0508e+002 51568 87782,87834,87808
 2.9000e+000 88030 -4.3648e+002 -3.2213e+002  1.9894e+002 51568 88076,87782,87886
 2.9000e+000 88007 -3.9427e+002 -2.2543e+002  1.7584e+002 51568 88076,87886,87860
 2.9000e+000 87984 -5.1078e+002 -4.3272e+002  1.6571e+002 51568 87756,87886,87782
 2.9000e+000 87961 -3.8021e+002 -3.4571e+002  3.2875e+002 51568 87756,87912,87886
 2.9000e+000 87938 -4.5529e+002 -2.4444e+002  3.0143e+002 51568 87730,87912,87756
 2.9000e+000 88102 -3.8192e+002 -3.7129e+002  1.3649e+002 51568 87834,87782,88076
 2.9000e+000 88125 -3.4669e+002 -3.0723e+002  1.1602e+002 51568 87834,88076,87860
 2.9000e+000 88324 -3.1178e+002 -3.2118e+002  1.2573e+002 51164 88419,88347,88200
 2.9000e+000 88301 -2.1606e+002 -3.0933e+002  1.6804e+002 51164 88347,88148,88252
 2.9000e+000 88278 -4.0116e+002 -4.9503e+002  9.4175e+001 51164 88419,88200,88174
 2.9000e+000 88373 -2.1011e+002 -2.9278e+002  1.5114e+002 51164 88226,88200,88347
 2.9000e+000 88396 -2.3535e+001 -3.1150e+002  1.3916e+002 51164 88226,88347,88252
 2.9000e+000 88445 -3.0616e+002 -3.2435e+002  2.2004e+002 51164 88148,88347,88419
 2.9000e+000 88468 -3.0019e+002 -3.0612e+002  2.0612e+002 51164 88148,88419,88174
 2.9000e+000 88738 -2.7810e+002 -3.9375e+002  1.0501e+002 50560 88513,88617,88539
 2.9000e+000 88715 -1.8799e+002 -4.4048e+002  7.1290e+001 50560 88513,88643,88617
 2.9000e+000 88692 -1.3532e+002 -7.5633e+001  1.1792e+002 50560 88539,88591,88565
 2.9000e+000 88669 -1.1335e+002 -2.7375e+002  1.5845e+002 50560 88539,88617,88591
 2.9000e+000 88939 -3.7014e+002 -1.6593e+002  1.8565e+002 50106 88962,88789,88763
 2.9000e+000 88916 -2.5630e+002 -2.1954e+002  1.4450e+002 50106 88962,88763,88841
 2.9000e+000 88893 -3.4940e+002 -2.7878e+002  2.1451e+002 50106 88763,88867,88841
 2.9000e+000 88988 -2.6230e+002 -2.0849e+002  1.2215e+002 50106 88815,88789,88962
 2.9000e+000 89011 -2.1150e+002 -1.6922e+002  1.6526e+002 50106 89034,88962,88841
 2.9000e+000 89060 -1.2325e+002 -6.0854e+001  3.1289e+001 50106 88815,88962,89034
 2.9000e+000 89472 -2.2349e+002 -4.3455e+002  8.8560e+001 49666 89273,89351,89325
 2.9000e+000 89449 -2.6025e+002 -2.8317e+002  1.4324e+002 49666 89273,89377,89351
 2.9000e+000 89426 -2.2830e+002 -3.4242e+002  2.4969e+002 49666 89273,89325,89299
 2.9000e+000 89403 -2.5925e+002 -2.1861e+002  1.5827e+002 49666 89247,89377,89273
 2.9000e+000 89978 -3.2236e+002 -6.3738e+002 -2.9664e+001 49205 89681,89837,89733
 2.9000e+000 89955 -7.8094e+001 -3.0368e+002  1.4922e+002 49205 89655,89837,89681
 2.9000e+000 89932 -4.8306e+002 -6.2439e+002  2.2711e+002 49205 89785,89837,89811
 2.9000e+000 89909 -1.4114e+002 -4.5099e+002  9.7017e+001 49205 89733,89837,89785
 2.9000e+000 89886 -4.2374e+002 -5.3515e+002  1.9195e+002 49205 89733,89785,89759
 2.9000e+000 89863 -1.2308e+002 -3.0366e+002 -1.8394e+002 49205 89681,89733,89707
 2.9000e+000 90177 -2.1386e+002 -3.8373e+002  1.5940e+002 48865 90530,90200,90053
 2.9000e+000 90154 -1.9550e+002 -3.7574e+002  1.7914e+002 48865 90402,90200,90001
 2.9000e+000 90131 -2.8075e+002 -3.0597e+002  1.6275e+002 48865 90530,90053,90027
 2.9000e+000 90226 -2.3644e+002 -3.3875e+002  2.3726e+002 48865 90079,90053,90200
 2.9000e+000 90249 -1.8625e+002 -3.1968e+002  1.8682e+002 48865 90272,90200,90105
 2.9000e+000 90298 -1.3305e+002 -2.7652e+002  2.0602e+002 48865 90079,90200,90272
 2.9000e+000 90428 -9.5893e+001 -8.5785e+001  1.2112e+002 48865 90105,90200,90402
 2.9000e+000 90556 -2.7343e+002 -4.3074e+002  1.3351e+002 48865 90001,90200,90530
 2.9000e+000 90579 -3.8590e+002 -3.7521e+002  1.3248e+002 48865 90001,90530,90027
 2.9000e+000 90827 -3.1557e+002 -3.1068e+002  1.7466e+002 48404 90850,90654,90628
 2.9000e+000 90804 -3.0927e+002 -3.4333e+002  2.5939e+002 48404 90850,90628,90732
 2.9000e+000 90781 -2.0090e+002 -2.3649e+002  1.5802e+002 48404 90680,90732,90706
 2.9000e+000 90758 -4.4124e+002 -1.9710e+002  2.5856e+002 48404 90602,90732,90628
 2.9000e+000 90876 -2.9902e+002 -1.8495e+002  1.6253e+002 48404 90680,90654,90850
 2.9000e+000 90899 -3.0381e+002 -2.7944e+002  2.2911e+002 48404 90680,90850,90732
 2.9000e+000 91000 -2.0753e+002 -4.8534e+002  7.7351e+001 48156 90922,90974,90948
 2.9000e+000 91250 -1.4263e+002 -3.3248e+002  2.1385e+001 47752 91051,91103,91077
 2.9000e+000 91227 -3.0178e+002 -4.6336e+002  7.7455e+001 47752 91025,91103,91051
 2.9000e+000 91204 -3.9333e+002 -5.5429e+002  1.2411e+002 47752 91025,91155,91103
 2.9000e+000 91181 -3.5137e+002 -5.3199e+002  1.8601e+002 47752 91103,91155,91129
 2.9000e+000 91402 -2.9813e+002 -3.2836e+002  1.8950e+002 47191 91425,91301,91275
 2.9000e+000 91379 -2.4230e+002 -3.0643e+002  2.2192e+002 47191 91497,91425,91275
 2.9000e+000 91451 -2.9285e+002 -1.8741e+002  1.2907e+002 47191 91327,91301,91425
 2.9000e+000 91474 -3.2628e+002 -3.4516e+002  2.4728e+002 47191 91327,91425,91353
 2.9000e+000 91523 -3.2901e+002 -5.9385e+002  2.3950e+002 47191 91353,91425,91497
 2.9000e+000 91854 -2.1320e+002 -1.0999e+002  7.6918e+001 46744 91949,91877,91707
 2.9000e+000 91831 -1.6822e+002 -4.0980e+002  7.0071e+001 46744 91877,91655,91629
 2.9000e+000 91808 -2.3284e+002 -7.1534e+001  4.9319e+001 46744 91949,91707,91681
 2.9000e+000 91785 -6.1154e+002 -4.9137e+002 -1.3300e+002 46744 91629,91759,91733
 2.9000e+000 91903 -4.3414e+002 -3.5533e+002  1.6974e+002 46744 91733,91707,91877
 2.9000e+000 91926 -1.7513e+002 -5.1337e+002  6.8282e+001 46744 91733,91877,91629
 2.9000e+000 91975 -1.8672e+002 -3.8662e+002  1.7674e+002 46744 91655,91877,91949
 2.9000e+000 91998 -3.6226e+001 -2.2738e+002  9.7414e+001 46744 91655,91949,91681
 2.9000e+000 92378 -2.2865e+002 -7.3486e+001  1.3337e+002 46090 92130,92208,92182
 2.9000e+000 92355 -3.1052e+002 -1.0887e+002  1.2999e+002 46090 92104,92208,92130
 2.9000e+000 92332 -1.4568e+002 -2.3059e+002  1.2319e+002 46090 92104,92260,92208
 2.9000e+000 92309 -1.1391e+002 -5.9014e+001  1.0256e+002 46090 92208,92260,92234
 2.9000e+000 92286 -3.9931e+002 -1.2806e+002  1.6344e+002 46090 92130,92182,92156
 2.9000e+000 92626 -2.1430e+002 -2.8925e+002  1.1548e+002 45693 92721,92649,92505
 2.9000e+000 92603 -2.4452e+002 -2.9012e+002  2.3139e+002 45693 92649,92453,92427
 2.9000e+000 92580 -2.3873e+002 -2.2331e+002  1.1011e+002 45693 92721,92505,92479
 2.9000e+000 92557 -4.3929e+002 -3.9891e+002  2.8177e+002 45693 92401,92531,92427
 2.9000e+000 92675 -3.5429e+002 -2.8873e+002  1.4376e+002 45693 92531,92505,92649
 2.9000e+000 92698 -3.8894e+002 -3.4687e+002  3.0232e+002 45693 92531,92649,92427
 2.9000e+000 92747 -2.2444e+002 -2.1369e+002  1.1457e+002 45693 92453,92649,92721
 2.9000e+000 92770 -1.5951e+002 -1.8813e+001  1.3935e+002 45693 92453,92721,92479
 2.9000e+000 93172 -1.6015e+002 -2.6930e+002  2.4156e+002 45331 92898,93028,92924
 2.9000e+000 93149 -9.9364e+001 -2.4181e+002  1.6472e+002 45331 92898,93054,93028
 2.9000e+000 93126 -2.2997e+002 -1.6779e+002  2.7066e+002 45331 92924,93002,92976
 2.9000e+000 93103 -9.4542e+001 -2.4105e+002  2.3706e+002 45331 92924,93028,93002
 2.9000e+000 93080 -2.4755e+002 -2.8267e+002  2.8244e+002 45331 92924,92976,92950
 2.9000e+000 93518 -4.7162e+002 -5.2872e+002  2.2696e+002 44820 93613,93273,93247
 2.9000e+000 93495 -3.2820e+002 -3.6922e+002  1.6395e+002 44820 93685,93541,93247
 2.9000e+000 93472 -3.6209e+002 -2.5048e+002  1.2661e+002 44820 93541,93195,93377
 2.9000e+000 93449 -3.4778e+002 -3.3792e+002  1.3994e+002 44820 93685,93247,93221
 2.9000e+000 93426 -3.1210e+002 -4.3357e+002  2.3541e+002 44820 93299,93377,93351
 2.9000e+000 93403 -2.7913e+002 -2.6465e+002  2.7607e+002 44820 93299,93351,93325
 2.9000e+000 93567 -2.9637e+002 -4.9528e+002  1.2008e+002 44820 93613,93247,93541
 2.9000e+000 93590 -2.9472e+002 -3.8274e+002  7.6493e+001 44820 93299,93541,93377
 2.9000e+000 93639 -2.8730e+002 -5.7678e+002  1.5654e+002 44820 93299,93273,93613
 2.9000e+000 93662 -3.0861e+002 -5.7455e+002  1.3680e+002 44820 93299,93613,93541
 2.9000e+000 93711 -3.5499e+002 -2.8900e+002  1.0618e+002 44820 93195,93541,93685
 2.9000e+000 93734 -3.0631e+002 -1.4028e+002  9.1278e+001 44820 93195,93685,93221
 2.9000e+000 94163 -3.4472e+002 -3.6244e+002  1.5585e+002 44237 94258,94186,93996
 2.9000e+000 94140 -3.8048e+002 -4.2215e+002  9.5324e+001 44237 94330,94022,93996
 2.9000e+000 94117 -3.9333e+002 -3.6799e+002  1.2126e+002 44237 94186,93918,93866
 2.9000e+000 94094 -3.0944e+002 -2.7281e+002  1.5693e+002 44237 94258,93996,93970
 2.9000e+000 94071 -3.6412e+002 -1.9484e+002  1.4751e+002 44237 94402,93944,93918
 2.9000e+000 94048 -2.1197e+002 -3.1689e+002  1.2724e+002 44237 93866,93918,93892
 2.9000e+000 94212 -3.8104e+002 -4.2725e+002  1.2303e+002 44237 94330,93996,94186
 2.9000e+000 94235 -3.7603e+002 -3.4113e+002  1.3601e+002 44237 93840,94186,93866
 2.9000e+000 94284 -3.4827e+002 -2.7405e+002  1.0434e+002 44237 93918,94186,94258
 2.9000e+000 94307 -3.4150e+002 -2.0935e+002  1.1766e+002 44237 94402,93918,94258
 2.9000e+000 94356 -3.9124e+002 -1.7852e+002  1.2237e+001 44237 93840,94022,94330
 2.9000e+000 94379 -3.6067e+002 -3.7473e+002  1.3116e+002 44237 93840,94330,94186
 2.9000e+000 94428 -3.9368e+002 -2.5643e+002  1.6305e+002 44237 93970,93944,94402
 2.9000e+000 94451 -3.6911e+002 -2.7046e+002  1.2721e+002 44237 93970,94402,94258
 2.9000e+000 94908 -3.5292e+002 -5.5826e+002  5.9588e+001 43890 94660,94790,94712
 2.9000e+000 94885 -1.5952e+002 -1.6746e+002  1.7541e+002 43890 94634,94790,94660
 2.9000e+000 94862 -3.5211e+002 -3.8130e+002  9.2768e+001 43890 94712,94764,94738
 2.9000e+000 94839 -2.3567e+002 -3.0755e+002  1.3750e+002 43890 94712,94790,94764
 2.9000e+000 94816 -3.2978e+002 -3.5368e+002 -1.5936e+002 43890 94660,94712,94686
 2.9000e+000 95414 -2.2327e+002 -1.2748e+002  1.0523e+002 43186 95437,95143,95117
 2.9000e+000 95391 -2.6137e+002 -3.1124e+002  1.2844e+002 43186 95437,95117,95091
 2.9000e+000 95368 -7.1692e+001 -1.2491e+002  1.2123e+002 43186 95143,95221,95195
 2.9000e+000 95345 -4.1488e+002 -2.9206e+002  3.2608e+002 43186 95091,95273,95221
 2.9000e+000 95322 -2.7832e+002 -1.6748e+002  1.4761e+002 43186 95221,95273,95247
 2.9000e+000 95299 -1.5449e+002 -1.0410e+002  1.4510e+001 43186 95143,95195,95169
 2.9000e+000 95463 -2.1241e+002 -2.5172e+002  1.9580e+002 43186 95221,95143,95437
 2.9000e+000 95486 -2.2899e+002 -3.9493e+002  2.2485e+002 43186 95221,95437,95091
 2.9000e+000 96041 -4.0979e+002 -3.7844e+002  1.1847e+002 42782 95695,95851,95799
 2.9000e+000 96018 -3.6804e+002 -4.5738e+002  1.2310e+002 42782 95669,95851,95695
 2.9000e+000 95995 -3.7867e+002 -2.2775e+002  1.2937e+002 42782 95695,95747,95721
 2.9000e+000 95972 -2.8772e+002 -3.2588e+002  1.1476e+002 42782 95695,95799,95747
 2.9000e+000 95949 -2.5916e+002 -1.9610e+002  7.4426e+001 42782 95747,95799,95773
 2.9000e+000 95926 -5.0479e+002 -4.7687e+002  1.7974e+002 42782 95799,95851,95825
 2.9000e+000 95903 -5.1533e+002 -5.2850e+002  1.4518e+002 42782 95669,95877,95851
 2.9000e+000 96370 -3.8259e+002 -4.8490e+002  2.5513e+002 42420 96197,96275,96223
 2.9000e+000 96347 -3.7407e+002 -4.4176e+002  2.4807e+002 42420 96145,96275,96197
 2.9000e+000 96324 -3.7091e+002 -2.8998e+002  2.4389e+002 42420 96145,96197,96171
 2.9000e+000 96301 -2.4720e+002 -3.7248e+002  1.3891e+002 42420 96223,96275,96249
 2.9000e+000 96699 -2.4117e+002 -6.0042e+002 -3.2436e+001 41816 96474,96578,96526
 2.9000e+000 96676 -3.3679e+002 -5.5109e+002 -1.3837e+002 41816 96474,96604,96578
 2.9000e+000 96653 -1.4400e+002 -2.5341e+002  8.7023e+001 41816 96526,96578,96552
 2.9000e+000 96630 -2.1804e+002 -3.9335e+002  4.6376e+001 41816 96474,96526,96500
 2.9000e+000 96947 -1.7424e+002 -4.0627e+002  6.1519e+000 41212 96722,96800,96748
 2.9000e+000 96924 -2.0125e+002 -4.6350e+002  1.7943e+001 41212 96722,96826,96800
 2.9000e+000 96901 -4.1899e+002 -5.8524e+002  7.0554e+001 41212 96722,96852,96826
 2.9000e+000 96878 -7.0910e+001 -3.5255e+002  4.0319e+001 41212 96748,96800,96774
 2.9000e+000 97097 -1.8956e+002 -6.1478e+001  1.8495e+002 40793 97120,97022,96996
 2.9000e+000 97074 -3.6042e+002 -4.0446e+002  1.1624e+002 40793 97192,97120,96996
 2.9000e+000 97146 -1.4016e+002 -3.3735e+002  1.6743e+002 40793 97324,97120,97048
 2.9000e+000 97169 -1.2412e+002 -5.4192e+002  1.6240e+002 40793 97048,97120,96970
 2.9000e+000 97218 -5.7772e+001 -2.7532e+002  1.2106e+002 40793 96970,97120,97192
 2.9000e+000 97350 -1.4016e+002 -3.3735e+002  1.6743e+002 40793 97022,97120,97324
 2.9000e+000 97878 -2.0949e+002 -4.3651e+002  1.0051e+002 40446 97901,97607,97555
 2.9000e+000 97855 -2.0624e+002 -2.9537e+002  1.0271e+002 40446 97973,97901,97555
 2.9000e+000 97832 -1.2871e+002 -2.4319e+002  7.8484e+001 40446 97973,97555,97737
 2.9000e+000 97809 -3.1813e+002 -4.3182e+002  1.4769e+002 40446 97633,97685,97659
 2.9000e+000 97786 -2.2031e+002 -3.5170e+002  1.1004e+002 40446 97633,97711,97685
 2.9000e+000 97763 -2.0636e+002 -4.9219e+002  1.1814e+002 40446 97555,97607,97581
 2.9000e+000 97927 -2.3320e+002 -5.5027e+002 -1.7893e+001 40446 97633,97607,97901
 2.9000e+000 97950 -2.0344e+002 -4.2322e+002  9.0160e+001 40446 97633,97901,97711
 2.9000e+000 97999 -9.7520e+001 -3.9897e+002  1.4346e+002 40446 97711,97901,97973
 2.9000e+000 98022 -3.4355e+001 -3.4109e+002  1.1942e+002 40446 97711,97973,97737
 2.9000e+000 98449 -1.4977e+002 -1.2301e+002  9.0653e+001 39935 98152,98204,98178
 2.9000e+000 98426 -1.9007e+002 -1.3975e+002  7.2163e+001 39935 98152,98230,98204
 2.9000e+000 98403 -2.8703e+002 -1.8153e+002  1.5483e+002 39935 98152,98256,98230
 2.9000e+000 98380 -2.3140e+002 -2.2300e+002  1.6809e+002 39935 98126,98256,98152
 2.9000e+000 98357 -3.1275e+002 -4.2045e+002  1.8211e+002 39935 98126,98282,98256
 2.9000e+000 98334 -2.0210e+002 -6.1991e+002  2.5028e+002 39935 98126,98308,98282
 2.9000e+000 98746 -5.4424e+002 -4.5783e+002  1.4180e+002 39531 98498,98602,98524
 2.9000e+000 98723 -3.3177e+002 -3.9054e+002  1.5115e+002 39531 98472,98602,98498
 2.9000e+000 98700 -5.3224e+002 -2.1701e+002  9.2169e+001 39531 98524,98602,98576
 2.9000e+000 98677 -2.9470e+002 -3.7392e+002  1.4457e+002 39531 98472,98628,98602
 2.9000e+000 98654 -6.8025e+002 -7.6672e+002 -2.7350e+002 39531 98524,98576,98550
 2.9000e+000 99224 -4.8351e+002 -2.8958e+002  2.6499e+002 39027 99247,98956,98930
 2.9000e+000 99201 -4.3333e+002 -2.7786e+002  1.2641e+002 39027 99247,98930,98878
 2.9000e+000 99178 -3.8011e+002 -3.1756e+002  1.7548e+002 39027 99319,98982,98956
 2.9000e+000 99155 -3.8520e+002 -2.0738e+002  1.0328e+002 39027 98852,99060,98878
 2.9000e+000 99132 -5.2900e+002 -2.4159e+002  1.0045e+002 39027 98878,98930,98904
 2.9000e+000 99109 -2.9745e+002 -4.7672e+002  2.1585e+002 39027 98982,99060,99034
 2.9000e+000 99086 -4.1550e+002 -6.0689e+002  3.7283e+002 39027 98982,99034,99008
 2.9000e+000 99273 -3.5420e+002 -2.6156e+002  1.8219e+002 39027 99319,98956,99247
 2.9000e+000 99296 -3.5897e+002 -2.5236e+002  1.0037e+002 39027 99060,99247,98878
 2.9000e+000 99345 -3.6855e+002 -3.4411e+002  1.4482e+002 39027 99060,98982,99319
 2.9000e+000 99368 -3.6640e+002 -3.2962e+002  1.4891e+002 39027 99060,99319,99247
 2.9000e+000 99923 -3.5786e+002 -3.3243e+002  1.8608e+002 38523 99946,99655,99603
 2.9000e+000 99900 -3.1588e+002 -3.0941e+002  1.9965e+002 38523 99946,99603,99759
 2.9000e+000 99877 -1.9920e+002 -4.3179e+002  2.2021e+002 38523 100018,99707,99681
 2.9000e+000 99854 -3.3776e+002 -2.1465e+002  1.8902e+002 38523 99551,99759,99603
 2.9000e+000 99831 -3.3397e+002 -2.2071e+002  1.8198e+002 38523 99551,99603,99577
 2.9000e+000 99808 -3.4468e+002 -5.3251e+002  1.4410e+002 38523 99707,99759,99733
 2.9000e+000 99785 -2.5817e+002 -2.7645e+002  1.5759e+002 38523 99603,99655,99629
 2.9000e+000 99972 -2.8667e+002 -1.6149e+002  1.8683e+002 38523 99681,99655,99946
 2.9000e+000 99995 -2.3373e+002 -2.4601e+002  2.5257e+002 38523 100018,99681,99946
 2.9000e+000 100044 -2.5796e+002 -5.0577e+002  1.3625e+002 38523 99759,99707,100018
 2.9000e+000 100067 -3.5743e+002 -4.3433e+002  1.7214e+002 38523 99759,100018,99946
 2.9000e+000 100467 -7.4420e+001 -2.0082e+002  3.8460e+001 38125 100219,100349,100323
 2.9000e+000 100444 -9.8042e+001 -2.2839e+002  2.6773e+001 38125 100193,100349,100219
 2.9000e+000 100421 -1.0633e+002 -1.6869e+002  3.2372e+001 38125 100245,100323,100297
 2.9000e+000 100398 -8.8789e+001 -2.0750e+002  3.5379e+001 38125 100219,100323,100245
 2.9000e+000 100375 -8.8030e+001 -1.7355e+002  6.7074e+000 38125 100245,100297,100271
 2.9000e+000 100666 -3.9219e+002 -6.4529e+002  1.4794e+002 37607 100689,100568,100542
 2.9000e+000 100643 -2.8180e+002 -3.1335e+002  1.1787e+002 37607 100689,100542,100490
 2.9000e+000 100620 -1.7037e+002 -2.8765e+002  6.2492e+001 37607 100490,100542,100516
 2.9000e+000 100715 -2.7892e+002 -3.2489e+002  8.2900e+001 37607 100594,100568,100689
 2.9000e+000 100738 -3.4740e+002 -2.3452e+002  8.4864e+001 37607 100594,100689,100490
 2.9000e+000 100937 -2.1890e+002 -2.3562e+002  1.6162e+002 37017 100960,100813,100787
 2.9000e+000 100914 -1.3204e+002 -2.2938e+002  8.8514e+001 37017 100960,100787,100761
 2.9000e+000 100891 -4.1538e+002 -1.7505e+002  2.0348e+002 37017 100813,100865,100839
 2.9000e+000 100986 -3.2958e+002 -3.1492e+002  2.5648e+002 37017 100865,100813,100960
 2.9000e+000 101009 -1.6256e+002 -2.5545e+002  1.7853e+002 37017 100865,100960,100761
 2.9000e+000 101519 -2.8140e+002 -1.1085e+002  7.6091e+000 36613 101222,101274,101248
 2.9000e+000 101496 -1.9816e+002 -1.6685e+002  7.4786e+001 36613 101222,101352,101274
 2.9000e+000 101473 -8.7931e+001 -3.1227e+002 -7.1222e+001 36613 101274,101352,101326
 2.9000e+000 101450 -2.3103e+002 -2.5603e+002  3.7962e+001 36613 101222,101378,101352
 2.9000e+000 101427 -8.5158e+001 -4.3168e+002 -5.3462e+001 36613 101274,101326,101300
 2.9000e+000 101404 -2.0914e+002 -2.6579e+002  1.4269e+002 36613 101196,101378,101222
 2.9000e+000 101718 -2.8473e+002 -2.8182e+002  2.9870e+002 36308 101594,101646,101620
 2.9000e+000 101695 -2.9775e+002 -1.7662e+002  1.8103e+002 36308 101568,101646,101594
 2.9000e+000 101672 -2.1101e+002 -1.9219e+002  1.9833e+002 36308 101542,101646,101568
 2.9000e+000 102098 -2.7984e+002 -2.4230e+002  1.3257e+002 35918 102121,101954,101876
 2.9000e+000 102075 -2.4485e+002 -3.3949e+002  8.7283e+001 35918 102121,101876,101824
 2.9000e+000 102052 -2.3431e+002 -2.2381e+002  1.0077e+002 35918 101876,101954,101928
 2.9000e+000 102029 -3.7623e+002 -1.1818e+002  1.2778e+002 35918 101876,101928,101902
 2.9000e+000 102006 -2.5986e+002 -4.1760e+002  1.6606e+002 35918 101824,101876,101850
 2.9000e+000 102147 -2.3699e+002 -3.3280e+002  1.8019e+002 35918 101980,101954,102121
 2.9000e+000 102170 -2.2128e+002 -4.5310e+002  1.2113e+002 35918 101980,102121,101824
 2.9000e+000 102489 -3.1934e+002 -7.3367e+002  2.4101e+002 35514 102241,102345,102267
 2.9000e+000 102466 -4.2926e+002 -7.7229e+002  2.4572e+002 35514 102215,102345,102241
 2.9000e+000 102443 -3.4813e+002 -8.3738e+002  2.5898e+002 35514 102215,102371,102345
 2.9000e+000 102420 -2.6149e+002 -6.1833e+002  2.7424e+002 35514 102267,102345,102293
 2.9000e+000 102397 -1.5455e+002 -3.9647e+002  3.1053e+002 35514 102293,102345,102319
 2.9000e+000 102820 -5.6482e+002 -3.4883e+002  3.9590e+001 35224 102843,102699,102647
 2.9000e+000 102797 -4.0670e+002 -2.9461e+002  1.0849e+002 35224 102971,102725,102699
 2.9000e+000 102774 -4.8531e+002 -2.9637e+002  2.4725e+002 35224 102595,102725,102621
 2.9000e+000 102751 -1.6734e+002 -2.9727e+002  1.2696e+002 35224 102647,102699,102673
 2.9000e+000 102869 -3.7907e+002 -2.6415e+002  9.5662e+001 35224 102971,102699,102843
 2.9000e+000 102997 -3.6449e+002 -3.2620e+002  1.0647e+002 35224 102621,102725,102971
 2.9000e+000 103020 -3.4006e+002 -3.0344e+002  9.3992e+001 35224 102621,102971,102843
 2.9000e+000 103349 -4.0844e+002 -3.1320e+002  1.9767e+002 34820 103150,103228,103176
 2.9000e+000 103326 -3.7074e+002 -3.6521e+002  1.8511e+002 34820 103124,103228,103150
 2.9000e+000 103303 -3.3121e+002 -3.3207e+002  3.2505e+002 34820 103176,103228,103202
 2.9000e+000 103280 -2.6047e+002 -3.1220e+002  2.5476e+002 34820 103124,103254,103228
 2.9000e+000 103806 -2.6156e+002 -2.6498e+002  6.5872e+001 34530 103558,103662,103636
 2.9000e+000 103783 -2.6601e+002 -2.1563e+002  1.3047e+002 34530 103558,103688,103662
 2.9000e+000 103760 -3.0855e+002 -2.5625e+002  8.9937e+001 34530 103532,103688,103558
 2.9000e+000 103737 -1.8624e+002 -3.1961e+002  3.9625e+001 34530 103584,103636,103610
 2.9000e+000 103714 -4.6894e+002 -2.9328e+002  6.8052e+001 34530 103558,103636,103584
 2.9000e+000 104263 -2.0075e+002 -2.2516e+002  1.5943e+002 34019 103989,104119,104015
 2.9000e+000 104240 -1.5624e+002 -2.0422e+002  1.6713e+002 34019 103989,104145,104119
 2.9000e+000 104217 -2.0419e+002 -2.7985e+002  1.0549e+002 34019 104015,104067,104041
 2.9000e+000 104194 -2.2548e+002 -2.9513e+002  1.4175e+002 34019 104015,104119,104067
 2.9000e+000 104171 -2.3167e+002 -1.9868e+002  1.3653e+002 34019 104067,104119,104093
 2.9000e+000 104641 -2.3764e+002 -2.1959e+002  1.1362e+002 33351 104419,104497,104445
 2.9000e+000 104618 -1.6216e+002 -1.1967e+002  1.7172e+002 33351 104393,104497,104419
 2.9000e+000 104595 -2.8722e+002 -1.9685e+002  4.1044e+001 33351 104367,104497,104393
 2.9000e+000 104572 -2.6255e+002 -2.7588e+002  1.1133e+002 33351 104445,104497,104471
 2.9000e+000 104549 -2.9170e+002 -3.9740e+002  7.8617e+000 33351 104367,104523,104497
 2.9000e+000 105019 -2.7182e+002 -5.6490e+002  3.1461e+002 32861 104823,104901,104875
 2.9000e+000 104996 -3.7949e+002 -6.6359e+002  2.6547e+002 32861 104745,104901,104823
 2.9000e+000 104973 -3.9440e+002 -6.1917e+002  2.8740e+002 32861 104823,104875,104849
 2.9000e+000 104950 -3.7651e+002 -6.3409e+002  3.3976e+002 32861 104745,104823,104797
 2.9000e+000 104927 -4.5166e+002 -2.5131e+002  3.3983e+002 32861 104745,104797,104771
 2.9000e+000 105397 -1.5335e+002 -3.7882e+002  1.5691e+002 32457 105149,105253,105175
 2.9000e+000 105374 -2.3464e+002 -3.3783e+002  1.3434e+002 32457 105149,105279,105253
 2.9000e+000 105351 -1.4536e+002 -2.8216e+002  1.5804e+002 32457 105123,105279,105149
 2.9000e+000 105328 -2.4092e+002 -9.3990e+001  2.1714e+002 32457 105175,105227,105201
 2.9000e+000 105305 -3.0676e+002 -4.4465e+002  1.5441e+002 32457 105175,105253,105227
 2.9000e+000 105726 -1.3047e+002 -4.0130e+002  1.7396e+002 32003 105527,105605,105553
 2.9000e+000 105703 -2.0510e+002 -3.3700e+002  1.6713e+002 32003 105501,105605,105527
 2.9000e+000 105680 -1.1691e+002 -3.0403e+002  1.6950e+002 32003 105501,105631,105605
 2.9000e+000 105657 -6.9550e+001 -2.5346e+002  1.6050e+002 32003 105553,105605,105579
 2.9000e+000 106104 -1.9810e+002 -3.9860e+002  7.0153e+001 31492 106127,105908,105856
 2.9000e+000 106081 -1.9984e+002 -3.9967e+002  7.4985e+001 31492 106127,105856,105830
 2.9000e+000 106058 -2.3762e+002 -4.4170e+002  8.7374e+001 31492 105856,105908,105882
 2.9000e+000 106035 -1.0168e+002 -2.8477e+002  1.4096e+001 31492 105830,105986,105960
 2.9000e+000 106012 -6.8917e+001 -3.9210e+002  1.3551e+002 31492 105908,105960,105934
 2.9000e+000 106153 -1.9710e+002 -3.9525e+002  7.0405e+001 31492 105960,105908,106127
 2.9000e+000 106176 -1.9750e+002 -3.9304e+002  7.4581e+001 31492 105960,106127,105830
 2.9000e+000 106375 -2.8715e+002 -2.9203e+002  2.0095e+002 30788 106398,106277,106251
 2.9000e+000 106352 -2.9807e+002 -4.1879e+002  2.1751e+002 30788 106398,106251,106225
 2.9000e+000 106329 -4.4914e+002 -3.5380e+002  2.9860e+002 30788 106600,106199,106303
 2.9000e+000 106424 -4.2046e+002 -4.7424e+002  1.4468e+002 30788 106470,106398,106303
 2.9000e+000 106447 -3.0396e+002 -4.0304e+002  2.0848e+002 30788 106600,106303,106398
 2.9000e+000 106496 -1.0449e+002 -3.3942e+002  1.6472e+002 30788 106277,106398,106470
 2.9000e+000 106626 -5.3345e+002 -4.6007e+002  3.7095e+002 30788 106225,106199,106600
 2.9000e+000 106649 -4.3666e+002 -5.1846e+002  2.7860e+002 30788 106225,106600,106398
 2.9000e+000 106799 -7.9230e+001 -4.3347e+002 -9.5835e-001 30426 106698,106750,106724
 2.9000e+000 106776 -1.5806e+002 -3.6883e+002 -2.7602e+001 30426 106672,106750,106698
 2.9000e+000 107356 -2.7400e+002 -3.0759e+002  1.5552e+002 29972 107010,107166,107114
 2.9000e+000 107333 -3.5327e+002 -2.7713e+002  2.3008e+002 29972 106984,107166,107010
 2.9000e+000 107310 -3.6784e+002 -2.2749e+002  1.2133e+002 29972 107010,107114,107088
 2.9000e+000 107287 -2.8423e+002 -1.9028e+002  9.3181e+001 29972 107114,107166,107140
 2.9000e+000 107264 -3.2950e+002 -2.9054e+002  2.4061e+002 29972 106984,107192,107166
 2.9000e+000 107241 -4.9513e+002 -4.7572e+002  1.6599e+002 29972 107010,107088,107036
 2.9000e+000 107218 -3.8698e+002 -4.2456e+002  1.3606e+002 29972 107036,107088,107062
 2.9000e+000 107783 -3.7135e+002 -4.8566e+002  2.5285e+002 29724 107878,107806,107590
 2.9000e+000 107760 -4.8059e+002 -5.2087e+002  2.1979e+002 29724 107806,107512,107486
 2.9000e+000 107737 -3.7736e+002 -4.6758e+002  2.7543e+002 29724 107878,107590,107538
 2.9000e+000 107714 -3.7228e+002 -5.4544e+002  2.7542e+002 29724 107950,107460,107616
 2.9000e+000 107691 -3.4268e+002 -5.2937e+002  2.6378e+002 29724 107460,107642,107616
 2.9000e+000 107668 -2.7218e+002 -3.6621e+002  3.1693e+002 29724 107538,107590,107564
 2.9000e+000 107832 -2.6968e+002 -4.8639e+002  3.0265e+002 29724 107616,107590,107806
 2.9000e+000 107855 -3.7986e+002 -5.5014e+002  2.7062e+002 29724 107950,107616,107806
 2.9000e+000 107904 -3.6710e+002 -4.4925e+002  2.6650e+002 29724 107512,107806,107878
 2.9000e+000 107927 -3.4426e+002 -4.1114e+002  2.9662e+002 29724 107512,107878,107538
 2.9000e+000 107976 -2.0938e+002 -5.3534e+002  2.9712e+002 29724 107486,107460,107950
 2.9000e+000 107999 -3.5804e+002 -5.8423e+002  2.6155e+002 29724 107486,107950,107806
 2.9000e+000 108296 -4.1019e+002 -3.0418e+002  2.1521e+002 29206 108319,108100,108048
 2.9000e+000 108273 -2.2940e+002 -2.6679e+002  2.6506e+002 29206 108319,108048,108022
 2.9000e+000 108250 -1.2275e+002 -3.2529e+002  3.2439e+002 29206 108391,108152,108126
 2.9000e+000 108227 -4.7111e+002 -2.1707e+002  2.5514e+002 29206 108048,108100,108074
 2.9000e+000 108204 -1.7595e+002 -4.5003e+002  2.8009e+002 29206 108022,108178,108152
 2.9000e+000 108345 -2.9906e+002 -1.6274e+002  3.1716e+002 29206 108126,108100,108319
 2.9000e+000 108368 -1.6562e+002 -2.5711e+002  3.6224e+002 29206 108391,108126,108319
 2.9000e+000 108417 -2.2680e+002 -4.0753e+002  2.8045e+002 29206 108022,108152,108391
 2.9000e+000 108440 -2.5975e+002 -3.5474e+002  3.2045e+002 29206 108022,108391,108319
 2.9000e+000 108688 -3.5180e+002 -4.0734e+002  2.8581e+002 28595 108711,108541,108515
 2.9000e+000 108665 -5.1303e+002 -4.5045e+002  3.4908e+002 28595 108783,108711,108515
 2.9000e+000 108642 -6.0458e+002 -4.1143e+002  3.4669e+002 28595 108783,108515,108489
 2.9000e+000 108619 -5.7395e+002 -5.1805e+002  1.5595e+002 28595 108463,108593,108489
 2.9000e+000 108737 -3.2968e+002 -3.5956e+002  2.1197e+002 28595 108567,108541,108711
 2.9000e+000 108760 -2.9812e+002 -3.8806e+002  3.0655e+002 28595 108567,108711,108593
 2.9000e+000 108809 -3.4707e+002 -4.6991e+002  2.8160e+002 28595 108593,108711,108783
 2.9000e+000 108832 -4.9709e+002 -4.6729e+002  2.5296e+002 28595 108593,108783,108489
 2.9000e+000 109033 -1.4855e+002 -1.6561e+002  1.0737e+002 28091 108909,108961,108935
 2.9000e+000 109010 -1.3204e+002 -2.1056e+002  1.0435e+002 28091 108857,108961,108909
 2.9000e+000 108987 -2.4424e+002 -3.0667e+002  2.3828e+002 28091 108857,108909,108883
 2.9000e+000 109136 -3.1548e+002 -7.4304e+002  1.3692e+002 27587 109058,109110,109084
 2.9000e+000 109695 -3.4290e+002 -3.3778e+002  1.3523e+002 26969 109718,109375,109323
 2.9000e+000 109672 -3.2769e+002 -3.4814e+002  9.6499e+001 26969 109718,109323,109505
 2.9000e+000 109649 -3.1834e+002 -1.6317e+002  7.2380e+001 26969 109790,109453,109427
 2.9000e+000 109626 -1.6603e+002 -2.9845e+002  1.8212e+002 26969 109323,109375,109349
 2.9000e+000 109603 -2.7143e+002 -3.1853e+002  8.5040e+001 26969 109323,109531,109505
 2.9000e+000 109580 -2.4961e+002 -3.9044e+002  1.0259e+002 26969 109375,109427,109401
 2.9000e+000 109557 -3.4901e+002 -3.3748e+002  1.6229e+002 26969 109453,109505,109479
 2.9000e+000 109744 -3.3671e+002 -3.5899e+002  8.2046e+001 26969 109427,109375,109718
 2.9000e+000 109767 -2.9447e+002 -2.3591e+002  5.9633e+001 26969 109790,109427,109718
 2.9000e+000 109816 -3.0135e+002 -2.4594e+002  1.0891e+002 26969 109505,109453,109790
 2.9000e+000 109839 -2.8654e+002 -3.2396e+002  1.0664e+002 26969 109505,109790,109718
 2.9000e+000 110266 -2.1710e+002 -3.9789e+002  4.8027e+001 26515 110361,110289,110099
 2.9000e+000 110243 -1.9293e+002 -2.7629e+002  7.1196e+001 26515 110289,109995,109943
 2.9000e+000 110220 -2.8869e+002 -4.2920e+002  5.2041e+001 26515 110361,110099,110021
 2.9000e+000 110197 -2.5245e+002 -7.0713e+002  1.7534e+001 26515 110047,110099,110073
 2.9000e+000 110174 -2.3956e+002 -6.7225e+002 -6.7357e+001 26515 110021,110099,110047
 2.9000e+000 110151 -6.8163e+001 -1.6426e+002  1.3522e+002 26515 109943,109995,109969
 2.9000e+000 110315 -2.4937e+002 -2.3503e+002 -9.6387e+000 26515 110125,110099,110289
 2.9000e+000 110338 -2.5640e+002 -8.1013e+001  1.3717e+002 26515 110125,110289,109943
 2.9000e+000 110387 -2.7342e+002 -3.5956e+002 -3.6411e+001 26515 109995,110289,110361
 2.9000e+000 110410 -3.3564e+002 -3.8823e+002 -2.7752e+001 26515 109995,110361,110021
 2.9000e+000 110609 -7.6634e+001 -4.4004e+002  1.6862e+002 25789 110906,110762,110632
 2.9000e+000 110586 -9.2596e+001 -5.4140e+002  1.8905e+002 25789 110762,110433,110537
 2.9000e+000 110563 -2.7102e+002 -4.9751e+002  2.8553e+002 25789 110834,110459,110433
 2.9000e+000 110658 -1.4053e+002 -4.2254e+002  2.1436e+002 25789 110906,110632,110834
 2.9000e+000 110788 -4.3502e+001 -2.8431e+002  9.6538e+001 25789 110511,110632,110762
 2.9000e+000 110811 -1.0506e+002 -4.3668e+002  1.8006e+002 25789 110511,110762,110537
 2.9000e+000 110860 -1.6867e+002 -4.3170e+002  2.3619e+002 25789 110485,110459,110834
 2.9000e+000 110883 -1.9488e+002 -4.0011e+002  2.0637e+002 25789 110485,110834,110632
 2.9000e+000 110932 -2.0581e+002 -4.8145e+002  1.7559e+002 25789 110433,110762,110906
 2.9000e+000 110955 -2.5678e+002 -4.4954e+002  2.1203e+002 25789 110433,110906,110834
 2.9000e+000 111350 -2.6913e+002 -3.7918e+002  2.5583e+002 25228 111445,111373,111186
 2.9000e+000 111327 -2.7263e+002 -3.9594e+002  6.7541e+001 25228 110978,111186,111004
 2.9000e+000 111304 -2.8398e+002 -5.0186e+002  2.3996e+002 25228 111373,111108,111082
 2.9000e+000 111281 -2.7030e+002 -4.9610e+002  2.0058e+002 25228 111134,111186,111160
 2.9000e+000 111258 -2.7272e+002 -3.5332e+002  2.2642e+002 25228 111445,111186,111134
 2.9000e+000 111235 -2.3497e+002 -2.6381e+002  1.4649e+002 25228 111517,111030,111004
 2.9000e+000 111212 -3.1664e+002 -3.5464e+002  2.1718e+002 25228 111030,111082,111056
 2.9000e+000 111399 -2.8642e+002 -4.4437e+002  2.4120e+002 25228 111004,111186,111373
 2.9000e+000 111422 -2.0341e+002 -3.2576e+002  1.9962e+002 25228 111517,111004,111373
 2.9000e+000 111471 -2.3052e+002 -3.5211e+002  2.2670e+002 25228 111108,111373,111445
 2.9000e+000 111494 -2.3365e+002 -3.2283e+002  1.9730e+002 25228 111108,111445,111134
 2.9000e+000 111543 -3.0964e+002 -2.8689e+002  2.2248e+002 25228 111082,111030,111517
 2.9000e+000 111566 -2.8639e+002 -3.7714e+002  2.7562e+002 25228 111082,111517,111373
 2.9000e+000 112074 -1.8910e+002 -2.8067e+002  1.4105e+002 24338 112097,111907,111881
 2.9000e+000 112051 -2.4143e+002 -2.6186e+002  7.6555e+001 24338 112097,111881,111829
 2.9000e+000 112028 -9.0532e+001 -2.5342e+002  7.2174e+001 24338 111829,111881,111855
 2.9000e+000 112005 -2.5651e+002 -3.7241e+002  1.1147e+002 24338 111777,111933,111829
 2.9000e+000 111982 -3.5734e+002 -1.6851e+002  1.2109e+002 24338 111751,111933,111777
 2.9000e+000 111959 -2.6601e+002 -4.4592e+002  1.5129e+002 24338 111777,111829,111803
 2.9000e+000 112123 -2.5729e+002 -4.7654e+002  1.4269e+002 24338 111933,111907,112097
 2.9000e+000 112146 -2.2789e+002 -3.1498e+002  9.2124e+001 24338 111933,112097,111829
 2.9000e+000 112443 -4.0615e+002 -2.8498e+002  1.7908e+002 23998 112466,112299,112247
 2.9000e+000 112420 -4.4400e+002 -4.7713e+002  1.6896e+002 23998 112466,112247,112221
 2.9000e+000 112397 -3.2709e+002 -5.6554e+002  2.6412e+002 23998 112169,112325,112221
 2.9000e+000 112374 -2.7000e+002 -5.2430e+002  3.0193e+002 23998 112169,112221,112195
 2.9000e+000 112351 -1.8296e+002 -2.6166e+002  2.1325e+002 23998 112247,112299,112273
 2.9000e+000 112492 -3.9610e+002 -3.1536e+002  2.9322e+002 23998 112325,112299,112466
 2.9000e+000 112515 -4.3463e+002 -4.2227e+002  2.5955e+002 23998 112325,112466,112221
 2.9000e+000 113200 -4.3089e+002 -5.1040e+002  3.6073e+002 23480 112779,112961,112805
 2.9000e+000 113177 -4.5355e+002 -3.6378e+002  1.5940e+002 23480 112779,112987,112961
 2.9000e+000 113154 -1.2339e+002 -2.6276e+002  2.3871e+002 23480 112805,112961,112883
 2.9000e+000 113131 -2.5103e+002 -4.4927e+002  2.5747e+002 23480 112883,112935,112909
 2.9000e+000 113108 -3.4396e+002 -3.5310e+002  2.6164e+002 23480 112883,112961,112935
 2.9000e+000 113085 -1.0169e+002 -1.9642e+002  1.2124e+002 23480 112831,112883,112857
 2.9000e+000 113062 -2.1591e+002 -2.7880e+002  1.7021e+002 23480 112805,112883,112831
 2.9000e+000 113039 -5.0251e+002 -2.9252e+002  1.6841e+002 23480 112779,113013,112987
 2.9000e+000 113676 -4.1484e+002 -1.9420e+002  3.3268e+002 23018 113699,113434,113356
 2.9000e+000 113653 -3.6486e+002 -1.9358e+002  1.7766e+002 23018 113771,113699,113356
 2.9000e+000 113630 -3.2290e+002 -3.2099e+002  1.2328e+002 23018 113771,113356,113512
 2.9000e+000 113607 -2.3497e+002 -4.3699e+002  2.0184e+002 23018 113330,113512,113356
 2.9000e+000 113584 -8.4764e+002 -4.0564e+002  4.9020e+002 23018 113356,113434,113382
 2.9000e+000 113561 -1.0071e+002 -4.0931e+002  2.0212e+002 23018 113304,113512,113330
 2.9000e+000 113538 -7.7474e+002 -6.2100e+001  1.9758e+002 23018 113382,113434,113408
 2.9000e+000 113725 -4.7184e+002 -3.2726e+002  3.3016e+002 23018 113460,113434,113699
 2.9000e+000 113748 -5.2294e+002 -3.6614e+002  2.0750e+002 23018 113460,113699,113486
 2.9000e+000 113797 -4.7453e+002 -3.7984e+002  2.2277e+002 23018 113486,113699,113771
 2.9000e+000 113820 -3.6800e+002 -4.0800e+002  1.4062e+002 23018 113486,113771,113512
 2.9000e+000 114424 -1.9986e+002 -3.1352e+002  7.2953e+001 22514 114447,114133,114029
 2.9000e+000 114401 -1.9810e+002 -3.6232e+002  7.1426e+001 22514 114447,114029,114237
 2.9000e+000 114378 -9.1378e+001 -2.5656e+002  1.1725e+002 22514 114133,114211,114185
 2.9000e+000 114355 -1.2199e+002 -2.4226e+002  9.4659e+001 22514 114133,114185,114159
 2.9000e+000 114332 -1.0867e+002 -3.5680e+002  1.4215e+002 22514 114003,114237,114029
 2.9000e+000 114309 -2.0935e+002 -2.4087e+002  4.6954e+001 22514 114029,114133,114055
 2.9000e+000 114286 -2.4337e+002 -2.1273e+002  6.0016e+001 22514 114055,114133,114107
 2.9000e+000 114263 -1.9611e+002 -5.0638e+001  1.0076e+002 22514 114055,114107,114081
 2.9000e+000 114473 -2.0866e+002 -2.8619e+002  9.1001e+001 22514 114211,114133,114447
 2.9000e+000 114496 -1.9850e+002 -3.2341e+002  8.8747e+001 22514 114211,114447,114237
 2.9000e+000 114597 -1.8279e+002 -4.4654e+002  2.3483e+002 22316 114620,114571,114545
 2.9000e+000 114646 -1.8279e+002 -4.4654e+002  2.3483e+002 22316 114519,114571,114620
 2.9000e+000 115127 -2.7044e+002 -4.1047e+002  1.0995e+002 21612 115150,114905,114879
 2.9000e+000 115104 -3.1333e+002 -2.3403e+002  1.3911e+002 21612 115150,114879,114853
 2.9000e+000 115081 -2.5221e+002 -1.2607e+002  2.0870e+002 21612 115222,114931,114905
 2.9000e+000 115058 -2.3053e+002 -2.9983e+002  1.7521e+002 21612 115222,114905,115009
 2.9000e+000 115035 -1.5406e+002 -4.0632e+002  1.6849e+002 21612 114957,115009,114983
 2.9000e+000 115176 -2.4187e+002 -2.6598e+002  1.2067e+002 21612 115009,114905,115150
 2.9000e+000 115199 -2.7136e+002 -6.7654e+001  1.4436e+002 21612 115009,115150,114853
 2.9000e+000 115248 -2.7723e+002 -2.6672e+002  1.9673e+002 21612 114957,114931,115222
 2.9000e+000 115271 -2.4815e+002 -4.2809e+002  1.6026e+002 21612 114957,115222,115009
 2.9000e+000 115519 -8.2281e+001  5.0362e+001  7.7091e+001 21208 115542,115372,115320
 2.9000e+000 115496  2.5829e+001  1.1118e+002 -1.0669e+001 21208 115542,115320,115294
 2.9000e+000 115473 -5.7143e+001 -1.3831e+002  1.1910e+002 21208 115320,115372,115346
 2.9000e+000 115450 -2.5711e+002 -6.9735e+001  3.7140e+001 21208 115294,115424,115398
 2.9000e+000 115568 -1.2636e+002  2.0929e+001  1.2020e+002 21208 115398,115372,115542
 2.9000e+000 115591 -8.0873e+001 -3.4812e+001  5.1664e+001 21208 115398,115542,115294
 2.9000e+000 115839 -2.8822e+002 -2.3965e+002  2.2723e+002 20668 115862,115640,115614
 2.9000e+000 115816 -2.9573e+002 -2.7191e+002  2.2866e+002 20668 115862,115614,115744
 2.9000e+000 115793 -2.4980e+002 -1.2820e+002  2.0256e+002 20668 115640,115718,115692
 2.9000e+000 115770 -4.7136e+002 -1.7326e+002  1.9046e+002 20668 115640,115692,115666
 2.9000e+000 115888 -3.0093e+002 -1.8425e+002  2.4842e+002 20668 115718,115640,115862
 2.9000e+000 115911 -3.2422e+002 -2.4262e+002  2.5243e+002 20668 115718,115862,115744
 2.9000e+000 116134 -2.7806e+002 -4.1510e+002  2.5367e+002 20264 115958,116036,115984
 2.9000e+000 116111 -1.4123e+002 -3.4965e+002  2.3341e+002 20264 115958,116062,116036
 2.9000e+000 116088 -1.5979e+002 -4.0056e+002  2.7407e+002 20264 115984,116036,116010
 2.9000e+000 116384 -4.3142e+002 -3.0300e+002  3.1613e+002 19924 116407,116211,116159
 2.9000e+000 116361 -4.0457e+002 -5.0007e+002  2.7255e+002 19924 116407,116159,116263
 2.9000e+000 116338 -3.9704e+002 -1.7201e+002  3.0566e+002 19924 116159,116211,116185
 2.9000e+000 116315 -2.6352e+002 -4.7816e+002  3.0847e+002 19924 116159,116289,116263
 2.9000e+000 116433 -4.2134e+002 -1.9179e+002  3.5942e+002 19924 116237,116211,116407
 2.9000e+000 116456 -3.2424e+002 -3.2530e+002  3.3995e+002 19924 116237,116407,116263
 2.9000e+000 116608 -1.5623e+002 -3.2000e+001  1.5988e+002 19520 116703,116631,116533
 2.9000e+000 116585 -5.3842e+001 -9.3500e+001  9.2447e+001 19520 116631,116507,116481
 2.9000e+000 116657 -1.3468e+002 -9.9309e+001  1.8867e+002 19520 116559,116533,116631
 2.9000e+000 116680 -1.0028e+002 -2.4967e+002  1.2608e+002 19520 116559,116631,116481
 2.9000e+000 116729 -1.5623e+002 -3.2000e+001  1.5988e+002 19520 116507,116631,116703
 2.9000e+000 116952 -3.7194e+002 -3.0662e+002  4.4137e+002 19208 116975,116802,116776
 2.9000e+000 116929 -4.6227e+002 -5.8425e+002  2.5371e+002 19208 116975,116776,116880
 2.9000e+000 116906 -4.9125e+002 -2.1172e+002  3.1363e+002 19208 116802,116854,116828
 2.9000e+000 117001 -2.9834e+002 -2.5915e+002  4.6214e+002 19208 116854,116802,116975
 2.9000e+000 117024 -1.2149e+002 -3.3321e+002  3.6847e+002 19208 116854,116975,116880
 2.9000e+000 117428 -3.3513e+002 -1.1975e+002  2.0622e+002 18796 117154,117206,117180
 2.9000e+000 117405 -2.3972e+002 -2.7243e+002  1.9455e+002 18796 117154,117284,117206
 2.9000e+000 117382 -1.3151e+002 -2.2582e+002  1.9787e+002 18796 117154,117310,117284
 2.9000e+000 117359 -1.3975e+002 -1.8114e+002  2.5472e+002 18796 117206,117284,117258
 2.9000e+000 117336 -3.5469e+001 -2.5405e+001  3.4630e+002 18796 117206,117258,117232
 2.9000e+000 117529 -1.4724e+002 -7.5577e+001  9.5017e+001 18228 117810,117552,117477
 2.9000e+000 117578 -3.9212e+002 -2.2643e+002  1.8185e+002 18228 117682,117552,117503
 2.9000e+000 117708 -1.2142e+002 -7.8259e+001  9.0196e+001 18228 117477,117552,117682
 2.9000e+000 117836 -2.4198e+002 -2.2647e+002  1.5887e+002 18228 117451,117552,117810
 2.9000e+000 118364 -3.7519e+002 -1.2438e+002  1.6027e+002 17722 118067,118223,118093
 2.9000e+000 118341 -3.7788e+002 -5.9124e+001  1.4318e+002 17722 118041,118223,118067
 2.9000e+000 118318 -2.0373e+002 -1.3516e+002  1.2452e+002 17722 118093,118223,118197
 2.9000e+000 118295 -7.3646e+002 -6.9324e+002  4.5817e+002 17722 118119,118197,118171
 2.9000e+000 118272 -9.2195e+001 -1.3012e+001  1.9026e+002 17722 118093,118197,118119
 2.9000e+000 118249 -6.9065e+002 -2.2700e+002  3.4751e+002 17722 118119,118171,118145
 2.9000e+000 118514 -6.4109e+002 -2.5732e+002  2.3902e+002 17268 118387,118439,118413
 2.9000e+000 118491 -6.1664e+001 -3.2189e+002  2.7750e+002 17268 118387,118465,118439
 2.9000e+000 118916 -3.2522e+002 -9.1688e+001  1.1889e+002 16828 118668,118772,118694
 2.9000e+000 118893 -4.0026e+002 -1.2417e+002  1.0801e+002 16828 118668,118798,118772
 2.9000e+000 118870 -4.2192e+002 -2.4102e+002  5.7001e+001 16828 118642,118798,118668
 2.9000e+000 118847 -1.1779e+002 -3.8646e+001  2.4926e+002 16828 118694,118746,118720
 2.9000e+000 118824 -3.7007e+002 -2.4473e+002  1.1134e+002 16828 118694,118772,118746
 2.9000e+000 119316 -1.4884e+002 -1.2890e+002  2.1758e+002 16422 119042,119172,119094
 2.9000e+000 119293 -2.3536e+002 -1.4494e+002  2.2811e+002 16422 119042,119198,119172
 2.9000e+000 119270 -3.1023e+002 -8.4962e+001  1.1623e+002 16422 119042,119094,119068
 2.9000e+000 119247  4.8627e-002  1.7776e+000  2.9445e+002 16422 119094,119146,119120
 2.9000e+000 119224 -1.0972e+002 -5.6461e+001  2.3296e+002 16422 119094,119172,119146
 2.9000e+000 119466 -9.4544e+001  2.0297e+001  6.9599e+001 16010 119339,119391,119365
 2.9000e+000 119443 -5.9712e+001 -4.1814e+001  1.6983e+002 16010 119339,119417,119391
 2.9000e+000 119616 -1.0317e+002 -1.1090e+001  1.6464e+002 15547 119515,119567,119541
 2.9000e+000 119593  1.4370e+002  2.3712e+002  5.1983e+002 15547 119489,119567,119515
 2.9000e+000 119719 -6.2913e+002 -2.5568e+002  2.5696e+002 421 119641,119693,119667
 3.0000e+000 69562 -6.6581e+002 -2.9855e+002  3.4839e+002 69254 69484,69536,69510
 3.0000e+000 70009 -2.8500e+002 -2.3552e+002  2.3836e+002 68942 69686,69842,69816
 3.0000e+000 69986 -2.6439e+002 -9.8771e+001  1.2135e+002 68942 69686,69868,69842
 3.0000e+000 69963 -2.3744e+002 -1.0155e+002  2.7171e+002 68942 69686,69816,69712
 3.0000e+000 69940 -1.3074e+002 -7.5331e+001  3.7378e+002 68942 69712,69790,69738
 3.0000e+000 69917 -4.4742e+002 -6.1605e+002  2.3524e+002 68942 69712,69816,69790
 3.0000e+000 69894 -5.3322e+001 -3.3299e+002  1.4807e+002 68942 69738,69790,69764
 3.0000e+000 70110 -3.1112e+002 -1.1118e+002  1.7667e+002 68766 70032,70084,70058
 3.0000e+000 70746 -4.6866e+002 -2.1302e+002  1.9905e+002 68448 70400,70556,70426
 3.0000e+000 70723 -6.7019e+002 -2.7893e+002  2.4456e+002 68448 70374,70556,70400
 3.0000e+000 70700 -4.5439e+002 -1.7061e+002  1.3848e+002 68448 70426,70556,70478
 3.0000e+000 70677 -5.0708e+002 -1.5700e+002  1.4426e+002 68448 70478,70556,70504
 3.0000e+000 70654 -5.4342e+002 -2.5957e+002  1.8463e+002 68448 70426,70478,70452
 3.0000e+000 70631 -6.4138e+002 -1.8891e+002  3.2547e+002 68448 70374,70582,70556
 3.0000e+000 70608 -5.3730e+002 -1.3781e+002  9.7453e+001 68448 70504,70556,70530
 3.0000e+000 70896 -5.6907e+002 -1.8336e+002  7.6218e+000 68250 70795,70847,70821
 3.0000e+000 70873 -9.8476e+002 -3.5297e+002  2.0184e+001 68250 70769,70847,70795
 3.0000e+000 70997 -1.3020e+003 -5.9618e+002  5.1556e+002 68052 70919,70971,70945
 3.0000e+000 71367 -4.0234e+002 -6.1526e+002  2.2620e+002 67740 71096,71226,71200
 3.0000e+000 71344 -2.6634e+002 -3.6600e+002  2.8290e+002 67740 71044,71226,71096
 3.0000e+000 71321  2.3034e+001 -2.3034e+001  4.6052e+002 67740 71044,71096,71070
 3.0000e+000 71298 -3.2070e+002 -6.6041e+002  4.4631e+002 67740 71096,71200,71174
 3.0000e+000 71275 -1.6281e+002 -3.8842e+002  1.5577e+002 67740 71096,71148,71122
 3.0000e+000 71252 -2.2962e+002 -4.6198e+002  2.8391e+002 67740 71096,71174,71148
 3.0000e+000 71519  1.5948e+002  9.5587e+001  1.4423e+002 67542 71418,71470,71444
 3.0000e+000 71496  2.4207e+002  4.9268e+002  4.5106e+002 67542 71392,71470,71418
 3.0000e+000 71923 -1.0110e+002 -1.5891e+001  1.4963e+002 67230 71649,71779,71675
 3.0000e+000 71900 -7.7807e+001 -1.4314e+002  1.0532e+002 67230 71649,71805,71779
 3.0000e+000 71877 -1.1238e+002 -4.7633e+001  2.7032e+002 67230 71675,71727,71701
 3.0000e+000 71854 -1.4349e+002 -4.0666e+002  2.7198e+002 67230 71675,71753,71727
 3.0000e+000 71831 -1.4361e+002 -2.5006e+002  1.9010e+002 67230 71675,71779,71753
 3.0000e+000 72433 -3.6616e+002 -1.6353e+002  2.0000e+002 67032 72038,72246,72220
 3.0000e+000 72410 -1.5772e+002 -3.2000e+001  1.1828e+002 67032 72012,72246,72038
 3.0000e+000 72387 -3.6136e+002 -1.6437e+002  2.1176e+002 67032 72064,72194,72168
 3.0000e+000 72364 -3.7164e+002 -1.4646e+002  2.1774e+002 67032 72038,72194,72064
 3.0000e+000 72341 -4.5757e+002 -3.7913e+002  2.0250e+002 67032 72038,72220,72194
 3.0000e+000 72318 -1.7854e+002 -3.5326e+001  1.6716e+002 67032 72090,72168,72142
 3.0000e+000 72295 -1.4262e+002 -5.8868e+001  2.6260e+002 67032 72064,72168,72090
 3.0000e+000 72272 -1.9199e+002 -5.6118e+001  1.5705e+002 67032 72090,72142,72116
 3.0000e+000 72933 -2.5950e+002 -2.6040e+002  2.6962e+002 66628 72956,72665,72613
 3.0000e+000 72910 -2.5269e+002 -2.8321e+002  2.6780e+002 66628 73100,72956,72613
 3.0000e+000 72887 -3.0016e+002 -4.0157e+002  2.2311e+002 66628 73028,72691,72665
 3.0000e+000 72864 -2.4189e+002 -2.5956e+002  2.7089e+002 66628 73100,72613,72587
 3.0000e+000 72841 -2.4459e+002 -2.4731e+002  2.3610e+002 66628 72613,72665,72639
 3.0000e+000 72818  6.7184e+000 -1.1874e+001  3.4680e+002 66628 72587,72769,72743
 3.0000e+000 72795 -2.7228e+002 -6.1666e+002  8.3217e+001 66628 72561,72769,72587
 3.0000e+000 72982 -3.0007e+002 -2.9190e+002  2.8491e+002 66628 73028,72665,72956
 3.0000e+000 73005 -2.6243e+002 -1.1051e+002  2.6602e+002 66628 72717,72956,72743
 3.0000e+000 73054 -4.1701e+002 -3.4169e+002  1.3902e+002 66628 72717,72691,73028
 3.0000e+000 73077 -4.1859e+002 -3.0322e+002  1.9622e+002 66628 72717,73028,72956
 3.0000e+000 73126 -2.5920e+002 -2.8180e+002  2.4147e+002 66628 72743,72956,73100
 3.0000e+000 73149 -2.4938e+002 -2.6256e+002  2.4505e+002 66628 72743,73100,72587
 3.0000e+000 73606 -3.1937e+002 -2.6683e+002  2.5633e+002 66281 73332,73384,73358
 3.0000e+000 73583 -4.0500e+002 -3.0958e+002  1.9588e+002 66281 73332,73462,73384
 3.0000e+000 73560 -4.8789e+002 -2.8632e+002  2.1898e+002 66281 73384,73462,73436
 3.0000e+000 73537 -7.3017e+002 -4.2200e+002  3.1273e+002 66281 73332,73488,73462
 3.0000e+000 73514 -5.2856e+002 -2.7904e+002  1.3643e+002 66281 73384,73436,73410
 3.0000e+000 73984 -1.9639e+002 -1.1857e+002  9.5115e+001 65969 73736,73814,73788
 3.0000e+000 73961 -8.7848e+001 -7.2244e+001  8.5378e+001 65969 73736,73866,73814
 3.0000e+000 73938 -1.9053e+002 -1.3686e+002  1.7513e+002 65969 73814,73866,73840
 3.0000e+000 73915 -7.0689e+001 -9.5622e+001  8.1402e+001 65969 73710,73866,73736
 3.0000e+000 73892 -1.4984e+002 -9.7171e+001  4.2331e+001 65969 73736,73788,73762
 3.0000e+000 74232 -2.5459e+002 -2.4458e+002  2.4778e+002 65572 74255,74085,74033
 3.0000e+000 74209 -2.3630e+002 -2.5372e+002  2.3078e+002 65572 74327,74255,74033
 3.0000e+000 74186 -2.4514e+002 -2.1933e+002  2.3141e+002 65572 74327,74033,74007
 3.0000e+000 74163 -2.8404e+002 -2.8618e+002  2.6510e+002 65572 74033,74085,74059
 3.0000e+000 74281 -2.8475e+002 -2.7562e+002  2.8689e+002 65572 74111,74085,74255
 3.0000e+000 74304 -2.2786e+002 -2.5636e+002  2.4897e+002 65572 74111,74255,74137
 3.0000e+000 74353 -2.2894e+002 -2.1389e+002  2.1826e+002 65572 74137,74255,74327
 3.0000e+000 74376 -2.4499e+002 -1.8777e+002  2.2055e+002 65572 74137,74327,74007
 3.0000e+000 74884 -2.5254e+002 -2.6870e+002  2.1945e+002 65174 74587,74717,74613
 3.0000e+000 74861 -3.0017e+002 -3.1617e+002  1.7139e+002 65174 74561,74717,74587
 3.0000e+000 74838 -2.1520e+002 -3.1575e+002  1.6678e+002 65174 74613,74691,74639
 3.0000e+000 74815 -2.5013e+002 -3.1522e+002  2.0993e+002 65174 74613,74717,74691
 3.0000e+000 74792 -1.2514e+002 -4.4755e+002  1.4608e+002 65174 74639,74691,74665
 3.0000e+000 74769 -4.9764e+002 -1.0800e+002  1.8591e+002 65174 74561,74743,74717
 3.0000e+000 75412 -9.4403e+000 -1.0629e+002  4.8127e+002 64770 75167,75245,75219
 3.0000e+000 75389 -2.3743e+002 -4.1190e+002  3.3029e+002 64770 75115,75245,75167
 3.0000e+000 75366 -1.8587e+002 -5.2128e+002  4.2369e+002 64770 75089,75245,75115
 3.0000e+000 75343 -3.7484e+002 -1.3512e+002  3.5886e+002 64770 75167,75219,75193
 3.0000e+000 75320 -1.9211e+002 -3.0971e+002  3.3956e+002 64770 75115,75167,75141
 3.0000e+000 75297 -2.9359e+002 -7.5987e+002  4.4774e+002 64770 75089,75271,75245
 3.0000e+000 75861 -6.3982e+002 -2.6781e+002  3.6274e+002 64316 75538,75694,75564
 3.0000e+000 75838 -4.0913e+002 -1.6063e+002  2.0703e+002 64316 75538,75720,75694
 3.0000e+000 75815 -4.9175e+002 -3.0471e+002  2.8008e+002 64316 75590,75694,75642
 3.0000e+000 75792 -4.7160e+002 -4.2106e+002  3.3095e+002 64316 75564,75694,75590
 3.0000e+000 75769 -1.7458e+002 -5.2361e+002  1.5668e+002 64316 75590,75642,75616
 3.0000e+000 75746 -4.4196e+002 -1.8493e+002  2.5628e+002 64316 75642,75694,75668
 3.0000e+000 76239 -6.6335e+002 -5.0658e+002  2.9768e+002 64018 76262,76095,76043
 3.0000e+000 76216 -4.9965e+002 -5.2568e+002  2.4981e+002 64018 76262,76043,76017
 3.0000e+000 76193 -2.5898e+002 -2.5543e+002  1.9581e+002 64018 75991,76121,76017
 3.0000e+000 76170 -6.4141e+002 -4.0341e+002  4.2259e+002 64018 76043,76095,76069
 3.0000e+000 76147 -3.1745e+000 -2.6062e+002  5.5707e+001 64018 75965,76121,75991
 3.0000e+000 76288 -5.0850e+002 -5.3962e+002  3.7969e+002 64018 76121,76095,76262
 3.0000e+000 76311 -3.7855e+002 -5.8484e+002  3.0744e+002 64018 76121,76262,76017
 3.0000e+000 76866 -2.4524e+002 -2.4713e+002  2.6581e+002 63728 76520,76676,76546
 3.0000e+000 76843 -2.2093e+002 -2.5066e+002  1.9335e+002 63728 76520,76702,76676
 3.0000e+000 76820 -2.0189e+002 -2.6099e+002  2.6012e+002 63728 76546,76650,76572
 3.0000e+000 76797 -3.3332e+002 -3.3520e+002  2.2797e+002 63728 76546,76676,76650
 3.0000e+000 76774 -3.3815e+002 -3.4639e+001  1.2957e+002 63728 76572,76650,76624
 3.0000e+000 76751 -1.8917e+002 -2.2243e+002  2.0526e+002 63728 76494,76702,76520
 3.0000e+000 76728 -7.1113e+001 -1.4206e+002  1.0039e+002 63728 76572,76624,76598
 3.0000e+000 77065 -1.9190e+002 -2.1655e+002  2.3316e+002 63288 77088,76941,76915
 3.0000e+000 77042 -3.6660e+002 -2.6710e+002  2.1101e+002 63288 77088,76915,76993
 3.0000e+000 77019 -7.8959e+001 -3.0606e+002  1.7182e+002 63288 76889,76993,76915
 3.0000e+000 77114 -2.6871e+002 -2.5793e+002  1.9886e+002 63288 76967,76941,77088
 3.0000e+000 77137 -5.4845e+002 -3.3546e+002  8.8715e+001 63288 77160,77088,76993
 3.0000e+000 77186 -1.4741e+002 -1.4603e+002  1.5108e+002 63288 76967,77088,77160
 3.0000e+000 77417 -1.6476e+002 -2.5720e+002  1.6570e+002 62884 77440,77342,77316
 3.0000e+000 77394 -4.0647e+002 -3.4312e+002  8.1063e+001 62884 77770,77440,77316
 3.0000e+000 77466 -3.0182e+002 -3.7983e+002  6.9515e+001 62884 77512,77440,77368
 3.0000e+000 77489 -2.3653e+002 -2.8060e+002  6.3516e+001 62884 77642,77440,77290
 3.0000e+000 77538 -1.2051e+002 -2.5715e+002  1.5739e+001 62884 77342,77440,77512
 3.0000e+000 77668 -3.0457e+002 -4.2130e+002  4.2544e+001 62884 77368,77440,77642
 3.0000e+000 77796 -2.4153e+002 -2.6919e+002  6.5387e+001 62884 77290,77440,77770
 3.0000e+000 78479 -6.0718e+002 -5.1330e+002  3.1059e+002 62480 78084,78240,78214
 3.0000e+000 78456 -4.4053e+002 -4.6145e+002  6.7054e+001 62480 78084,78266,78240
 3.0000e+000 78433 -4.9690e+002 -4.5486e+002  1.5410e+002 62480 78110,78214,78136
 3.0000e+000 78410 -5.1851e+002 -4.6116e+002  2.8467e+002 62480 78084,78214,78110
 3.0000e+000 78387 -3.4496e+002 -4.0055e+002  1.8901e+002 62480 78136,78214,78188
 3.0000e+000 78364 -4.5350e+002 -5.0800e+002  5.0844e+001 62480 78058,78266,78084
 3.0000e+000 78341 -2.4575e+002 -3.1592e+002  5.9362e+001 62480 78136,78188,78162
 3.0000e+000 78318 -5.7809e+002 -5.7514e+002  8.0045e+001 62480 78058,78292,78266
 3.0000e+000 78678 -3.4485e+002 -5.9762e+002  2.4451e+002 61926 78528,78606,78554
 3.0000e+000 78655 -1.9932e+002 -5.6246e+002  3.0851e+002 61926 78502,78606,78528
 3.0000e+000 78632 -2.3947e+002 -3.9428e+002  1.7560e+002 61926 78554,78606,78580
 3.0000e+000 79058 -3.6023e+002 -3.3269e+002  1.8436e+002 61614 78836,78914,78862
 3.0000e+000 79035 -4.2600e+002 -3.8247e+002  1.6214e+002 61614 78810,78914,78836
 3.0000e+000 79012 -2.8372e+002 -3.2147e+002  1.6326e+002 61614 78784,78914,78810
 3.0000e+000 78989 -3.1839e+002 -3.8197e+002  3.1654e+002 61614 78862,78914,78888
 3.0000e+000 78966 -2.4927e+002 -4.1808e+002  1.8844e+002 61614 78784,78940,78914
 3.0000e+000 79208 -2.3554e+002 -5.4833e+002  7.8746e+000 61366 79081,79133,79107
 3.0000e+000 79185 -2.6659e+002 -4.6128e+002  1.5312e+002 61366 79081,79159,79133
 3.0000e+000 79358  2.8770e+001  7.6372e+000  2.7279e+001 60962 79231,79283,79257
 3.0000e+000 79335 -1.2308e+002 -2.8951e+002  8.0359e+001 60962 79231,79309,79283
 3.0000e+000 79608 -2.0966e+002 -4.5274e+002  1.5120e+002 60508 79631,79435,79409
 3.0000e+000 79585 -1.4063e+002 -4.5510e+002  1.0585e+002 60508 79703,79631,79409
 3.0000e+000 79562 -1.6199e+002 -2.5652e+002  1.2743e+002 60508 79703,79409,79383
 3.0000e+000 79539 -4.7643e+002 -3.5059e+002  2.8566e+002 60508 79435,79487,79461
 3.0000e+000 79657 -2.4083e+002 -5.4229e+002  2.7548e+002 60508 79487,79435,79631
 3.0000e+000 79680 -9.6956e+001 -4.1974e+002  1.5567e+002 60508 79487,79631,79513
 3.0000e+000 79729 -7.2081e+001 -2.6894e+002  5.2544e+001 60508 79513,79631,79703
 3.0000e+000 79752 -1.3346e+002 -2.3333e+002  1.9762e+001 60508 79513,79703,79383
 3.0000e+000 80390 -3.0865e+002 -3.2135e+002  2.9071e+002 59997 80413,80096,80018
 3.0000e+000 80367 -5.2370e+002 -3.9228e+002  3.3057e+002 59997 80413,80018,80226
 3.0000e+000 80344 -2.5066e+002 -2.6090e+002  1.7366e+002 59997 80096,80174,80148
 3.0000e+000 80321 -9.0685e+002 -5.9284e+002  4.3344e+002 59997 80018,80096,80070
 3.0000e+000 80298 -3.4340e+002 -3.1646e+002  1.5053e+002 59997 80096,80148,80122
 3.0000e+000 80275 -2.4882e+002 -2.9146e+002  2.4715e+002 59997 80174,80226,80200
 3.0000e+000 80252 -6.9066e+002 -4.2312e+002  2.3324e+002 59997 80018,80070,80044
 3.0000e+000 80439 -2.4884e+002 -3.6520e+002  2.1630e+002 59997 80174,80096,80413
 3.0000e+000 80462 -3.3906e+002 -3.2615e+002  2.3660e+002 59997 80174,80413,80226
 3.0000e+000 80840 -4.1464e+002 -3.6176e+002  1.7784e+002 59443 80863,80644,80618
 3.0000e+000 80817 -1.7557e+002 -2.6748e+002  2.1087e+002 59443 80863,80618,80566
 3.0000e+000 80794 -1.6761e+002 -2.3661e+002  2.5311e+002 59443 81007,80935,80670
 3.0000e+000 80771 -2.2788e+002 -2.3942e+002  2.2306e+002 59443 80566,80722,80696
 3.0000e+000 80748 -2.1994e+002 -3.5682e+002  2.3984e+002 59443 80566,80618,80592
 3.0000e+000 80889 -4.6035e+002 -3.2202e+002  2.8615e+002 59443 80935,80644,80863
 3.0000e+000 80912 -3.1893e+002 -2.8142e+002  2.4187e+002 59443 80696,80863,80566
 3.0000e+000 80961 -2.7458e+002 -2.6986e+002  2.9058e+002 59443 80696,80670,80935
 3.0000e+000 80984 -2.6613e+002 -2.3175e+002  2.6237e+002 59443 80696,80935,80863
 3.0000e+000 81033 -3.5959e+002 -4.3492e+002  3.4738e+002 59443 80644,80935,81007
 3.0000e+000 81360 -4.2753e+002 -1.9488e+002  1.9363e+002 59031 81383,81187,81161
 3.0000e+000 81337 -3.3851e+002 -2.3368e+002  5.3293e+001 59031 81455,81383,81161
 3.0000e+000 81314 -2.3476e+002 -1.8555e+002  7.9599e+001 59031 81455,81161,81135
 3.0000e+000 81291 -6.8801e+002 -1.7987e+002  3.0399e+002 59031 81187,81239,81213
 3.0000e+000 81409 -4.6962e+002 -3.8719e+002  2.6323e+002 59031 81239,81187,81383
 3.0000e+000 81432 -5.1070e+002 -3.0682e+002  6.8120e+001 59031 81239,81383,81265
 3.0000e+000 81481 -4.4402e+002 -1.3202e+002  8.8250e+001 59031 81265,81383,81455
 3.0000e+000 81504 -4.0100e+002 -1.3431e+002  9.0288e+001 59031 81265,81455,81135
 3.0000e+000 81835 -6.0855e+001 -1.8998e+002  8.1947e+001 58577 81610,81714,81636
 3.0000e+000 81812 -6.2904e+001 -2.1992e+002  9.1197e+001 58577 81610,81740,81714
 3.0000e+000 81789 -1.7178e+002 -2.3398e+002  1.7930e+001 58577 81636,81714,81688
 3.0000e+000 81766 -1.5506e+002 -2.2051e+002 -5.7425e+001 58577 81636,81688,81662
 3.0000e+000 81985 -8.6031e+001 -2.0679e+002  1.2912e+002 58030 81884,81936,81910
 3.0000e+000 81962 -1.7267e+002 -5.9802e+001  8.9174e+001 58030 81858,81936,81884
 3.0000e+000 82414 -7.2743e+001 -2.4277e+001  9.3885e+001 57690 82437,82169,82117
 3.0000e+000 82391 -9.9118e+001 -1.1725e+002  1.1034e+002 57690 82437,82117,82247
 3.0000e+000 82368  3.9118e+001  6.6571e+001  2.6143e+002 57690 82195,82247,82221
 3.0000e+000 82345 -7.8024e+001 -1.0815e+002  1.1172e+002 57690 82091,82247,82117
 3.0000e+000 82322 -1.2416e+002 -3.1590e+001  6.3001e+001 57690 82117,82169,82143
 3.0000e+000 82299 -8.8915e+001 -2.0446e+002  1.5579e+002 57690 82091,82273,82247
 3.0000e+000 82463 -1.1238e+002  1.3431e+001  1.3758e+002 57690 82195,82169,82437
 3.0000e+000 82486 -1.2416e+002 -5.2630e+001  1.3874e+002 57690 82195,82437,82247
 3.0000e+000 83041 -2.3530e+002 -2.3510e+002  1.7388e+002 57172 83064,82721,82695
 3.0000e+000 83018 -2.6146e+002 -2.4865e+002  2.4631e+002 57172 83064,82695,82851
 3.0000e+000 82995 -7.3781e+002 -3.4864e+002  3.3322e+002 57172 82669,82851,82695
 3.0000e+000 82972 -4.2985e+002 -2.7102e+002  2.3666e+002 57172 82773,82851,82825
 3.0000e+000 82949 -3.9297e+002 -2.8630e+002  3.1329e+002 57172 82773,82825,82799
 3.0000e+000 82926 -3.0477e+002 -2.0947e+002  1.4634e+002 57172 82721,82773,82747
 3.0000e+000 82903 -8.4237e+002 -3.5704e+002  5.0219e+002 57172 82669,82877,82851
 3.0000e+000 83090 -3.5282e+002 -2.8040e+002  1.6722e+002 57172 82773,82721,83064
 3.0000e+000 83113 -3.0026e+002 -2.6165e+002  2.3552e+002 57172 82773,83064,82851
 3.0000e+000 83747 -2.8032e+002 -2.3215e+002  1.6105e+002 56554 83770,83427,83401
 3.0000e+000 83724 -2.7758e+002 -2.8789e+002  1.8642e+002 56554 83842,83770,83401
 3.0000e+000 83701 -1.4141e+001 -2.2192e+002  7.0402e+001 56554 83842,83401,83583
 3.0000e+000 83678 -5.2019e+002 -4.0706e+002  3.9128e+002 56554 83914,83531,83505
 3.0000e+000 83655 -3.3459e+002 -2.6185e+002  1.3612e+002 56554 83531,83583,83557
 3.0000e+000 83632 -8.7003e+001 -1.0223e+002  4.9671e+001 56554 83375,83583,83401
 3.0000e+000 83609 -2.6953e+002 -2.4004e+002  1.6713e+002 56554 83427,83479,83453
 3.0000e+000 83796 -2.5566e+002 -2.3161e+002  1.6173e+002 56554 83479,83427,83770
 3.0000e+000 83819 -2.9220e+002 -2.0814e+002  1.7749e+002 56554 83479,83770,83505
 3.0000e+000 83868 -1.8600e+002 -1.3826e+002  2.3610e+002 56554 83505,83770,83842
 3.0000e+000 83891 -3.4311e+002 -2.5469e+002  2.8693e+002 56554 83914,83505,83842
 3.0000e+000 83940 -2.4566e+002 -4.0521e+002  2.3153e+002 56554 83583,83531,83914
 3.0000e+000 83963 -1.1263e+002 -3.8548e+002  1.7719e+002 56554 83583,83914,83842
 3.0000e+000 84341 -2.6144e+002 -6.8425e+002  2.6591e+002 56192 84067,84145,84119
 3.0000e+000 84318 -1.2765e+002 -4.8535e+002  2.0785e+002 56192 84067,84223,84145
 3.0000e+000 84295 -2.2010e+002 -5.0952e+002  7.5299e+001 56192 84145,84223,84197
 3.0000e+000 84272 -2.0374e+002 -4.6137e+002  2.5831e+002 56192 84067,84119,84093
 3.0000e+000 84249 -2.7744e+002 -1.6991e+002  1.3605e+002 56192 84145,84197,84171
 3.0000e+000 84611 -1.4405e+002 -3.5098e+002  2.0343e+002 55538 84386,84490,84412
 3.0000e+000 84588 -1.0412e+002 -2.9849e+002  1.8412e+002 55538 84386,84516,84490
 3.0000e+000 84565 -3.0340e+002 -4.2038e+002  1.9480e+002 55538 84412,84490,84464
 3.0000e+000 84542 -1.7117e+002 -4.0332e+002  1.0765e+002 55538 84412,84464,84438
 3.0000e+000 84942 -3.6316e+002 -2.7276e+002  2.3959e+002 55084 84769,84847,84795
 3.0000e+000 84919 -3.1699e+002 -3.0008e+002  1.9987e+002 55084 84717,84847,84769
 3.0000e+000 84896 -3.7620e+002 -3.9658e+002  1.7065e+002 55084 84717,84769,84743
 3.0000e+000 84873 -3.9854e+002 -1.4032e+002  2.0809e+002 55084 84795,84847,84821
 3.0000e+000 85271 -4.8348e+001 -8.9654e+001  1.3724e+002 54580 85294,85098,85072
 3.0000e+000 85248 -3.2604e+002 -1.7384e+002  1.9411e+002 54580 85294,85072,85176
 3.0000e+000 85225 -4.6088e+002 -1.1474e+001  5.8400e+001 54580 85124,85176,85150
 3.0000e+000 85202 -8.6136e+001 -1.5343e+002  6.2324e+001 54580 85046,85176,85072
 3.0000e+000 85320 -2.8907e+002 -1.1149e+002  1.6224e+002 54580 85124,85098,85294
 3.0000e+000 85343 -4.3562e+002 -9.0994e+001  2.0266e+002 54580 85124,85294,85176
 3.0000e+000 85542 -2.2459e+002 -3.4431e+002  1.2564e+002 53976 85565,85444,85418
 3.0000e+000 85519 -1.9003e+002 -3.0705e+002  1.4471e+002 53976 85565,85418,85366
 3.0000e+000 85496 -1.5781e+002 -2.6399e+002  1.1709e+002 53976 85366,85418,85392
 3.0000e+000 85591 -3.2756e+002 -3.4934e+002  5.4467e+001 53976 85470,85444,85565
 3.0000e+000 85614 -2.2412e+002 -1.7705e+002  1.0201e+002 53976 85470,85565,85366
 3.0000e+000 85960 -3.5441e+002 -4.1848e+002  1.8928e+002 53572 85663,85715,85689
 3.0000e+000 85937 -3.1705e+002 -4.0500e+002  1.4673e+002 53572 85983,85715,85663
 3.0000e+000 85914 -5.4018e+002 -4.9394e+002  1.8659e+002 53572 86055,85983,85663
 3.0000e+000 85891 -4.9677e+002 -4.8413e+002  2.7949e+002 53572 86055,85663,85637
 3.0000e+000 85868 -7.9569e+002 -9.7589e+002  4.0565e+002 53572 85637,85793,85767
 3.0000e+000 85845 -7.9643e+002 -2.3442e+002  1.7351e+002 53572 85637,85819,85793
 3.0000e+000 86009 -5.1380e+002 -3.3360e+002  1.2957e+002 53572 85741,85715,85983
 3.0000e+000 86032 -6.9846e+002 -3.6270e+002  2.0359e+002 53572 85741,85983,85767
 3.0000e+000 86081 -4.6054e+002 -2.8818e+002  1.8422e+002 53572 85767,85983,86055
 3.0000e+000 86104 -4.6681e+002 -3.7911e+002  2.6982e+002 53572 85767,86055,85637
 3.0000e+000 86693 -6.3560e+002 -6.7800e+001  2.8464e+002 52946 86474,86526,86500
 3.0000e+000 86670 -1.3890e+002 -2.7761e+001  6.5229e+001 52946 86396,86526,86474
 3.0000e+000 86647 -4.6515e+002 -3.8820e+002  2.0763e+002 52946 86370,86526,86396
 3.0000e+000 86624  8.0016e+000  9.8658e+000  1.1954e+001 52946 86422,86474,86448
 3.0000e+000 86601 -1.4146e+002 -2.9096e+001  6.3409e+001 52946 86396,86474,86422
 3.0000e+000 86578 -4.0822e+002 -8.1947e+001  1.4932e+002 52946 86370,86552,86526
 3.0000e+000 87376 -4.1024e+002 -3.5450e+002  1.5828e+002 52420 87007,87085,87033
 3.0000e+000 87353 -3.1146e+002 -2.9246e+002  1.2807e+002 52420 87007,87163,87085
 3.0000e+000 87330 -3.4997e+002 -2.6259e+002  1.5581e+002 52420 87007,87189,87163
 3.0000e+000 87307 -3.3182e+002 -3.6101e+002  1.2729e+002 52420 87033,87085,87059
 3.0000e+000 87284 -3.6990e+002 -3.3790e+002  6.9134e+001 52420 87085,87137,87111
 3.0000e+000 87261 -2.9537e+002 -3.2039e+002  7.9321e+001 52420 87085,87163,87137
 3.0000e+000 87238 -2.8649e+002 -2.9017e+002  2.6286e+002 52420 86955,87189,87007
 3.0000e+000 87215 -1.9618e+002 -2.0479e+002  1.2972e+002 52420 86955,87007,86981
 3.0000e+000 87624 -2.3969e+002 -3.7534e+002  9.7900e+001 51916 87451,87503,87477
 3.0000e+000 87601 -2.6591e+002 -4.7968e+002  8.6915e+001 51916 87425,87503,87451
 3.0000e+000 87578 -2.1444e+002 -4.7381e+002  7.8802e+001 51916 87425,87529,87503
 3.0000e+000 87555 -1.4816e+002 -3.4757e+002  1.0331e+002 51916 87399,87529,87425
 3.0000e+000 88053 -3.2355e+002 -2.8791e+002  9.9318e+001 51568 87782,87834,87808
 3.0000e+000 88030 -4.0357e+002 -3.0148e+002  1.8293e+002 51568 88076,87782,87886
 3.0000e+000 88007 -3.6599e+002 -2.1572e+002  1.6260e+002 51568 88076,87886,87860
 3.0000e+000 87984 -4.6747e+002 -3.9938e+002  1.5423e+002 51568 87756,87886,87782
 3.0000e+000 87961 -3.5375e+002 -3.2193e+002  3.0074e+002 51568 87756,87912,87886
 3.0000e+000 87938 -4.1959e+002 -2.2238e+002  2.7697e+002 51568 87730,87912,87756
 3.0000e+000 88102 -3.5509e+002 -3.4550e+002  1.2788e+002 51568 87834,87782,88076
 3.0000e+000 88125 -3.2376e+002 -2.8870e+002  1.0987e+002 51568 87834,88076,87860
 3.0000e+000 88324 -2.8760e+002 -3.0132e+002  1.1824e+002 51164 88419,88347,88200
 3.0000e+000 88301 -1.9842e+002 -2.8407e+002  1.5586e+002 51164 88347,88148,88252
 3.0000e+000 88278 -3.7015e+002 -4.5256e+002  8.5150e+001 51164 88419,88200,88174
 3.0000e+000 88373 -1.9278e+002 -2.8393e+002  1.4036e+002 51164 88226,88200,88347
 3.0000e+000 88396 -2.6011e+001 -2.9103e+002  1.2713e+002 51164 88226,88347,88252
 3.0000e+000 88445 -2.7488e+002 -2.9988e+002  1.9940e+002 51164 88148,88347,88419
 3.0000e+000 88468 -2.6983e+002 -2.8337e+002  1.8299e+002 51164 88148,88419,88174
 3.0000e+000 88738 -2.5473e+002 -3.6588e+002  9.6217e+001 50560 88513,88617,88539
 3.0000e+000 88715 -1.7258e+002 -4.0423e+002  6.5494e+001 50560 88513,88643,88617
 3.0000e+000 88692 -1.3149e+002 -8.6110e+001  1.0794e+002 50560 88539,88591,88565
 3.0000e+000 88669 -1.0834e+002 -2.6039e+002  1.4338e+002 50560 88539,88617,88591
 3.0000e+000 88939 -3.3510e+002 -1.5849e+002  1.6791e+002 50106 88962,88789,88763
 3.0000e+000 88916 -2.3486e+002 -2.0515e+002  1.3213e+002 50106 88962,88763,88841
 3.0000e+000 88893 -3.0842e+002 -2.5350e+002  1.9383e+002 50106 88763,88867,88841
 3.0000e+000 88988 -2.3925e+002 -1.9777e+002  1.1126e+002 50106 88815,88789,88962
 3.0000e+000 89011 -1.9720e+002 -1.6183e+002  1.4992e+002 50106 89034,88962,88841
 3.0000e+000 89060 -1.1390e+002 -6.4240e+001  3.0344e+001 50106 88815,88962,89034
 3.0000e+000 89472 -2.0485e+002 -3.9381e+002  9.0025e+001 49666 89273,89351,89325
 3.0000e+000 89449 -2.3767e+002 -2.7154e+002  1.3358e+002 49666 89273,89377,89351
 3.0000e+000 89426 -2.1523e+002 -3.1691e+002  2.2717e+002 49666 89273,89325,89299
 3.0000e+000 89403 -2.3550e+002 -2.0107e+002  1.4896e+002 49666 89247,89377,89273
 3.0000e+000 89978 -3.0560e+002 -6.2219e+002 -3.0463e+001 49205 89681,89837,89733
 3.0000e+000 89955 -7.3274e+001 -2.8911e+002  1.4828e+002 49205 89655,89837,89681
 3.0000e+000 89932 -4.5164e+002 -5.9130e+002  2.1036e+002 49205 89785,89837,89811
 3.0000e+000 89909 -1.3034e+002 -4.3155e+002  8.9357e+001 49205 89733,89837,89785
 3.0000e+000 89886 -4.1832e+002 -5.1648e+002  1.8440e+002 49205 89733,89785,89759
 3.0000e+000 89863 -1.2486e+002 -2.9600e+002 -1.8260e+002 49205 89681,89733,89707
 3.0000e+000 90177 -1.9116e+002 -3.6486e+002  1.4994e+002 48865 90530,90200,90053
 3.0000e+000 90154 -1.8662e+002 -3.6421e+002  1.7976e+002 48865 90402,90200,90001
 3.0000e+000 90131 -2.6051e+002 -2.8235e+002  1.5235e+002 48865 90530,90053,90027
 3.0000e+000 90226 -2.0779e+002 -3.1255e+002  2.1953e+002 48865 90079,90053,90200
 3.0000e+000 90249 -1.6273e+002 -3.0748e+002  1.8306e+002 48865 90272,90200,90105
 3.0000e+000 90298 -1.0807e+002 -2.6294e+002  2.0290e+002 48865 90079,90200,90272
 3.0000e+000 90428 -7.6505e+001 -8.7199e+001  1.1860e+002 48865 90105,90200,90402
 3.0000e+000 90556 -2.5108e+002 -4.2001e+002  1.2374e+002 48865 90001,90200,90530
 3.0000e+000 90579 -3.6388e+002 -3.5698e+002  1.1986e+002 48865 90001,90530,90027
 3.0000e+000 90827 -2.9276e+002 -2.9116e+002  1.5827e+002 48404 90850,90654,90628
 3.0000e+000 90804 -2.8972e+002 -3.2118e+002  2.3810e+002 48404 90850,90628,90732
 3.0000e+000 90781 -1.9214e+002 -2.2172e+002  1.4631e+002 48404 90680,90732,90706
 3.0000e+000 90758 -4.0763e+002 -1.8115e+002  2.3724e+002 48404 90602,90732,90628
 3.0000e+000 90876 -2.7794e+002 -1.7334e+002  1.4533e+002 48404 90680,90654,90850
 3.0000e+000 90899 -2.8449e+002 -2.6146e+002  2.0860e+002 48404 90680,90850,90732
 3.0000e+000 91000 -1.9626e+002 -4.5757e+002  4.6506e+001 48156 90922,90974,90948
 3.0000e+000 91250 -1.3316e+002 -3.1026e+002  1.2689e+001 47752 91051,91103,91077
 3.0000e+000 91227 -2.7342e+002 -4.5333e+002  7.0705e+001 47752 91025,91103,91051
 3.0000e+000 91204 -3.6109e+002 -5.2998e+002  1.1666e+002 47752 91025,91155,91103
 3.0000e+000 91181 -3.3407e+002 -5.3193e+002  1.7114e+002 47752 91103,91155,91129
 3.0000e+000 91402 -3.0300e+002 -3.2043e+002  1.6097e+002 47191 91425,91301,91275
 3.0000e+000 91379 -2.4016e+002 -2.9511e+002  1.9981e+002 47191 91497,91425,91275
 3.0000e+000 91451 -2.8488e+002 -1.8795e+002  1.1970e+002 47191 91327,91301,91425
 3.0000e+000 91474 -2.9876e+002 -3.2662e+002  2.2847e+002 47191 91327,91425,91353
 3.0000e+000 91523 -3.1590e+002 -5.4173e+002  2.1674e+002 47191 91353,91425,91497
 3.0000e+000 91854 -1.9859e+002 -7.7697e+001  7.8647e+001 46744 91949,91877,91707
 3.0000e+000 91831 -1.6502e+002 -3.9875e+002  6.6998e+001 46744 91877,91655,91629
 3.0000e+000 91808 -2.2710e+002 -3.1751e+001  4.4672e+001 46744 91949,91707,91681
 3.0000e+000 91785 -5.6379e+002 -4.9114e+002 -1.4168e+002 46744 91629,91759,91733
 3.0000e+000 91903 -4.0380e+002 -3.4246e+002  1.6814e+002 46744 91733,91707,91877
 3.0000e+000 91926 -1.6182e+002 -5.2086e+002  5.9553e+001 46744 91733,91877,91629
 3.0000e+000 91975 -1.8339e+002 -3.7411e+002  1.7544e+002 46744 91655,91877,91949
 3.0000e+000 91998 -4.1140e+001 -2.0425e+002  8.8462e+001 46744 91655,91949,91681
 3.0000e+000 92378 -2.0797e+002 -7.2428e+001  1.2044e+002 46090 92130,92208,92182
 3.0000e+000 92355 -2.8343e+002 -1.0472e+002  1.2005e+002 46090 92104,92208,92130
 3.0000e+000 92332 -1.3320e+002 -2.1185e+002  1.1435e+002 46090 92104,92260,92208
 3.0000e+000 92309 -1.0396e+002 -6.7355e+001  9.8720e+001 46090 92208,92260,92234
 3.0000e+000 92286 -3.6727e+002 -1.2641e+002  1.4907e+002 46090 92130,92182,92156
 3.0000e+000 92626 -2.1085e+002 -2.6702e+002  1.1005e+002 45693 92721,92649,92505
 3.0000e+000 92603 -2.3016e+002 -2.6761e+002  2.1000e+002 45693 92649,92453,92427
 3.0000e+000 92580 -2.3435e+002 -2.0806e+002  1.0427e+002 45693 92721,92505,92479
 3.0000e+000 92557 -4.0423e+002 -3.5366e+002  2.5795e+002 45693 92401,92531,92427
 3.0000e+000 92675 -3.2487e+002 -2.5857e+002  1.3836e+002 45693 92531,92505,92649
 3.0000e+000 92698 -3.6042e+002 -3.1755e+002  2.7373e+002 45693 92531,92649,92427
 3.0000e+000 92747 -2.1135e+002 -2.0190e+002  1.0599e+002 45693 92453,92649,92721
 3.0000e+000 92770 -1.6699e+002 -3.7832e+001  1.2127e+002 45693 92453,92721,92479
 3.0000e+000 93172 -1.4514e+002 -2.4332e+002  2.1926e+002 45331 92898,93028,92924
 3.0000e+000 93149 -9.2173e+001 -2.2340e+002  1.5056e+002 45331 92898,93054,93028
 3.0000e+000 93126 -2.1037e+002 -1.4987e+002  2.4569e+002 45331 92924,93002,92976
 3.0000e+000 93103 -8.6274e+001 -2.1820e+002  2.1561e+002 45331 92924,93028,93002
 3.0000e+000 93080 -2.2622e+002 -2.5413e+002  2.5685e+002 45331 92924,92976,92950
 3.0000e+000 93518 -4.8327e+002 -5.1608e+002  1.9798e+002 44820 93613,93273,93247
 3.0000e+000 93495 -2.9970e+002 -3.4592e+002  1.5340e+002 44820 93685,93541,93247
 3.0000e+000 93472 -3.5312e+002 -2.5601e+002  1.0843e+002 44820 93541,93195,93377
 3.0000e+000 93449 -3.1279e+002 -3.2042e+002  1.3601e+002 44820 93685,93247,93221
 3.0000e+000 93426 -2.9262e+002 -3.9712e+002  2.0594e+002 44820 93299,93377,93351
 3.0000e+000 93403 -2.5619e+002 -2.4583e+002  2.4289e+002 44820 93299,93351,93325
 3.0000e+000 93567 -2.8814e+002 -4.6846e+002  1.1039e+002 44820 93613,93247,93541
 3.0000e+000 93590 -2.7742e+002 -3.5970e+002  7.0961e+001 44820 93299,93541,93377
 3.0000e+000 93639 -2.7848e+002 -5.3895e+002  1.4339e+002 44820 93299,93273,93613
 3.0000e+000 93662 -2.9614e+002 -5.3831e+002  1.2875e+002 44820 93299,93613,93541
 3.0000e+000 93711 -3.4472e+002 -2.7030e+002  9.5164e+001 44820 93195,93541,93685
 3.0000e+000 93734 -2.9050e+002 -1.2520e+002  9.1142e+001 44820 93195,93685,93221
 3.0000e+000 94163 -3.0908e+002 -3.3950e+002  1.4454e+002 44237 94258,94186,93996
 3.0000e+000 94140 -3.5181e+002 -3.9548e+002  8.7705e+001 44237 94330,94022,93996
 3.0000e+000 94117 -3.6324e+002 -3.4506e+002  1.1518e+002 44237 94186,93918,93866
 3.0000e+000 94094 -2.7543e+002 -2.5404e+002  1.4543e+002 44237 94258,93996,93970
 3.0000e+000 94071 -3.2586e+002 -1.8286e+002  1.3257e+002 44237 94402,93944,93918
 3.0000e+000 94048 -2.1128e+002 -3.2979e+002  1.4659e+002 44237 93866,93918,93892
 3.0000e+000 94212 -3.5240e+002 -4.0014e+002  1.1477e+002 44237 94330,93996,94186
 3.0000e+000 94235 -3.5914e+002 -3.1905e+002  1.3095e+002 44237 93840,94186,93866
 3.0000e+000 94284 -3.1907e+002 -2.5644e+002  9.4906e+001 44237 93918,94186,94258
 3.0000e+000 94307 -3.0831e+002 -1.9523e+002  1.0829e+002 44237 94402,93918,94258
 3.0000e+000 94356 -3.5264e+002 -1.5592e+002  3.9658e+000 44237 93840,94022,94330
 3.0000e+000 94379 -3.3261e+002 -3.4923e+002  1.2188e+002 44237 93840,94330,94186
 3.0000e+000 94428 -3.4404e+002 -2.3452e+002  1.4372e+002 44237 93970,93944,94402
 3.0000e+000 94451 -3.2798e+002 -2.4814e+002  1.1397e+002 44237 93970,94402,94258
 3.0000e+000 94908 -3.1585e+002 -5.3183e+002  4.7823e+001 43890 94660,94790,94712
 3.0000e+000 94885 -1.5843e+002 -1.5136e+002  1.5291e+002 43890 94634,94790,94660
 3.0000e+000 94862 -3.3878e+002 -3.9391e+002  7.3785e+001 43890 94712,94764,94738
 3.0000e+000 94839 -1.9994e+002 -2.8266e+002  1.2921e+002 43890 94712,94790,94764
 3.0000e+000 94816 -3.5291e+002 -3.9554e+002 -1.2389e+002 43890 94660,94712,94686
 3.0000e+000 95414 -2.1578e+002 -1.2734e+002  9.5457e+001 43186 95437,95143,95117
 3.0000e+000 95391 -2.4734e+002 -2.9594e+002  1.2067e+002 43186 95437,95117,95091
 3.0000e+000 95368 -7.4802e+001 -1.2090e+002  1.0607e+002 43186 95143,95221,95195
 3.0000e+000 95345 -3.9553e+002 -2.7997e+002  3.0048e+002 43186 95091,95273,95221
 3.0000e+000 95322 -2.6418e+002 -1.6359e+002  1.3713e+002 43186 95221,95273,95247
 3.0000e+000 95299 -1.4949e+002 -1.3383e+002  2.3670e+001 43186 95143,95195,95169
 3.0000e+000 95463 -2.1061e+002 -2.4133e+002  1.7818e+002 43186 95221,95143,95437
 3.0000e+000 95486 -2.2248e+002 -3.7299e+002  2.0838e+002 43186 95221,95437,95091
 3.0000e+000 96041 -3.7331e+002 -3.4505e+002  1.0719e+002 42782 95695,95851,95799
 3.0000e+000 96018 -3.3271e+002 -4.1048e+002  1.1337e+002 42782 95669,95851,95695
 3.0000e+000 95995 -3.5034e+002 -2.1253e+002  1.1934e+002 42782 95695,95747,95721
 3.0000e+000 95972 -2.6279e+002 -2.9758e+002  1.0503e+002 42782 95695,95799,95747
 3.0000e+000 95949 -2.3928e+002 -1.8552e+002  6.7056e+001 42782 95747,95799,95773
 3.0000e+000 95926 -4.6550e+002 -4.3369e+002  1.6819e+002 42782 95799,95851,95825
 3.0000e+000 95903 -4.6787e+002 -4.7375e+002  1.3019e+002 42782 95669,95877,95851
 3.0000e+000 96370 -3.5512e+002 -4.5291e+002  2.5546e+002 42420 96197,96275,96223
 3.0000e+000 96347 -3.5596e+002 -3.9752e+002  2.3250e+002 42420 96145,96275,96197
 3.0000e+000 96324 -3.3445e+002 -2.5357e+002  2.1966e+002 42420 96145,96197,96171
 3.0000e+000 96301 -2.1804e+002 -3.6333e+002  1.3061e+002 42420 96223,96275,96249
 3.0000e+000 96699 -2.3225e+002 -5.8507e+002 -2.6865e+001 41816 96474,96578,96526
 3.0000e+000 96676 -2.6635e+002 -5.1020e+002 -1.3755e+002 41816 96474,96604,96578
 3.0000e+000 96653 -1.0547e+002 -2.2329e+002  9.9567e+001 41816 96526,96578,96552
 3.0000e+000 96630 -2.0769e+002 -3.6090e+002  5.8425e+001 41816 96474,96526,96500
 3.0000e+000 96947 -1.6035e+002 -3.7386e+002 -6.1674e+000 41212 96722,96800,96748
 3.0000e+000 96924 -1.9905e+002 -4.4579e+002  1.0747e+001 41212 96722,96826,96800
 3.0000e+000 96901 -4.2599e+002 -5.7385e+002  6.7213e+001 41212 96722,96852,96826
 3.0000e+000 96878 -9.5055e+000 -2.9729e+002  3.7122e+001 41212 96748,96800,96774
 3.0000e+000 97097 -1.7468e+002 -6.2329e+001  1.6989e+002 40793 97120,97022,96996
 3.0000e+000 97074 -3.3019e+002 -3.6888e+002  1.0728e+002 40793 97192,97120,96996
 3.0000e+000 97146 -1.2856e+002 -3.0869e+002  1.5411e+002 40793 97324,97120,97048
 3.0000e+000 97169 -1.1496e+002 -4.9039e+002  1.4981e+002 40793 97048,97120,96970
 3.0000e+000 97218 -5.4014e+001 -2.5095e+002  1.1170e+002 40793 96970,97120,97192
 3.0000e+000 97350 -1.2856e+002 -3.0869e+002  1.5411e+002 40793 97022,97120,97324
 3.0000e+000 97878 -1.9649e+002 -3.9783e+002  9.0885e+001 40446 97901,97607,97555
 3.0000e+000 97855 -1.9577e+002 -2.7475e+002  9.3456e+001 40446 97973,97901,97555
 3.0000e+000 97832 -1.2670e+002 -2.2951e+002  7.2817e+001 40446 97973,97555,97737
 3.0000e+000 97809 -2.8387e+002 -3.8251e+002  1.3172e+002 40446 97633,97685,97659
 3.0000e+000 97786 -2.0181e+002 -3.1896e+002  1.0230e+002 40446 97633,97711,97685
 3.0000e+000 97763 -1.9303e+002 -4.4274e+002  1.0615e+002 40446 97555,97607,97581
 3.0000e+000 97927 -2.1873e+002 -4.9879e+002 -1.2452e+001 40446 97633,97607,97901
 3.0000e+000 97950 -1.9367e+002 -3.8600e+002  8.3273e+001 40446 97633,97901,97711
 3.0000e+000 97999 -9.9975e+001 -3.6368e+002  1.3025e+002 40446 97711,97901,97973
 3.0000e+000 98022 -4.4072e+001 -3.1437e+002  1.0948e+002 40446 97711,97973,97737
 3.0000e+000 98449 -1.3448e+002 -1.1927e+002  7.4621e+001 39935 98152,98204,98178
 3.0000e+000 98426 -1.5965e+002 -1.6578e+002  6.4009e+001 39935 98152,98230,98204
 3.0000e+000 98403 -2.6051e+002 -1.7607e+002  1.5637e+002 39935 98152,98256,98230
 3.0000e+000 98380 -2.2520e+002 -1.9687e+002  1.6339e+002 39935 98126,98256,98152
 3.0000e+000 98357 -3.1703e+002 -4.3771e+002  1.7390e+002 39935 98126,98282,98256
 3.0000e+000 98334 -1.8112e+002 -5.2782e+002  2.0261e+002 39935 98126,98308,98282
 3.0000e+000 98746 -5.2459e+002 -3.8973e+002  1.4973e+002 39531 98498,98602,98524
 3.0000e+000 98723 -2.9883e+002 -3.7107e+002  1.2472e+002 39531 98472,98602,98498
 3.0000e+000 98700 -5.4783e+002 -2.4198e+002  8.8778e+001 39531 98524,98602,98576
 3.0000e+000 98677 -2.7037e+002 -3.4983e+002  1.1523e+002 39531 98472,98628,98602
 3.0000e+000 98654 -8.8625e+002 -2.9429e+002  1.0320e+002 39531 98524,98576,98550
 3.0000e+000 99224 -4.2197e+002 -2.5694e+002  2.2487e+002 39027 99247,98956,98930
 3.0000e+000 99201 -3.8503e+002 -2.6662e+002  1.0385e+002 39027 99247,98930,98878
 3.0000e+000 99178 -3.2979e+002 -2.8634e+002  1.4707e+002 39027 99319,98982,98956
 3.0000e+000 99155 -3.4084e+002 -1.6068e+002  1.0359e+002 39027 98852,99060,98878
 3.0000e+000 99132 -4.7384e+002 -2.3660e+002  8.1156e+001 39027 98878,98930,98904
 3.0000e+000 99109 -2.5912e+002 -4.0816e+002  1.8652e+002 39027 98982,99060,99034
 3.0000e+000 99086 -3.8132e+002 -5.3202e+002  3.5764e+002 39027 98982,99034,99008
 3.0000e+000 99273 -3.1282e+002 -2.5137e+002  1.5321e+002 39027 99319,98956,99247
 3.0000e+000 99296 -3.2288e+002 -2.4307e+002  9.2447e+001 39027 99060,99247,98878
 3.0000e+000 99345 -3.2472e+002 -3.0311e+002  1.2874e+002 39027 99060,98982,99319
 3.0000e+000 99368 -3.2458e+002 -2.9424e+002  1.3264e+002 39027 99060,99319,99247
 3.0000e+000 99923 -3.2670e+002 -2.9446e+002  1.7202e+002 38523 99946,99655,99603
 3.0000e+000 99900 -2.9152e+002 -2.7670e+002  1.7974e+002 38523 99946,99603,99759
 3.0000e+000 99877 -1.9184e+002 -3.8876e+002  1.9959e+002 38523 100018,99707,99681
 3.0000e+000 99854 -3.0562e+002 -1.9239e+002  1.7243e+002 38523 99551,99759,99603
 3.0000e+000 99831 -2.8741e+002 -1.8853e+002  1.5288e+002 38523 99551,99603,99577
 3.0000e+000 99808 -3.1655e+002 -4.8923e+002  1.3700e+002 38523 99707,99759,99733
 3.0000e+000 99785 -2.4385e+002 -2.5347e+002  1.4996e+002 38523 99603,99655,99629
 3.0000e+000 99972 -2.6681e+002 -1.4938e+002  1.7093e+002 38523 99681,99655,99946
 3.0000e+000 99995 -2.2079e+002 -2.2089e+002  2.2732e+002 38523 100018,99681,99946
 3.0000e+000 100044 -2.4116e+002 -4.5430e+002  1.2377e+002 38523 99759,99707,100018
 3.0000e+000 100067 -3.2927e+002 -3.9042e+002  1.5522e+002 38523 99759,100018,99946
 3.0000e+000 100467 -5.4566e+001 -1.8711e+002  3.8271e+001 38125 100219,100349,100323
 3.0000e+000 100444 -9.3825e+001 -2.1837e+002  1.6396e+001 38125 100193,100349,100219
 3.0000e+000 100421 -1.0234e+002 -1.6539e+002  3.2549e+001 38125 100245,100323,100297
 3.0000e+000 100398 -8.6016e+001 -2.0103e+002  3.5370e+001 38125 100219,100323,100245
 3.0000e+000 100375 -1.0826e+002 -1.7574e+002  1.6007e+001 38125 100245,100297,100271
 3.0000e+000 100666 -3.5060e+002 -5.5478e+002  1.3937e+002 37607 100689,100568,100542
 3.0000e+000 100643 -2.6062e+002 -2.9229e+002  1.1817e+002 37607 100689,100542,100490
 3.0000e+000 100620 -1.5094e+002 -2.4521e+002  6.5196e+001 37607 100490,100542,100516
 3.0000e+000 100715 -2.6703e+002 -3.0049e+002  8.8593e+001 37607 100594,100568,100689
 3.0000e+000 100738 -3.1605e+002 -2.2812e+002  9.0475e+001 37607 100594,100689,100490
 3.0000e+000 100937 -1.8888e+002 -2.0730e+002  1.4801e+002 37017 100960,100813,100787
 3.0000e+000 100914 -1.0489e+002 -2.0198e+002  7.8294e+001 37017 100960,100787,100761
 3.0000e+000 100891 -3.6505e+002 -1.3568e+002  1.9258e+002 37017 100813,100865,100839
 3.0000e+000 100986 -2.9570e+002 -2.8248e+002  2.3862e+002 37017 100865,100813,100960
 3.0000e+000 101009 -1.3514e+002 -2.2639e+002  1.6440e+002 37017 100865,100960,100761
 3.0000e+000 101519 -2.2722e+002 -1.0772e+002  7.8990e+000 36613 101222,101274,101248
 3.0000e+000 101496 -1.6936e+002 -1.5650e+002  6.2991e+001 36613 101222,101352,101274
 3.0000e+000 101473 -6.3502e+001 -2.8426e+002 -7.4333e+001 36613 101274,101352,101326
 3.0000e+000 101450 -1.9998e+002 -2.3355e+002  3.1123e+001 36613 101222,101378,101352
 3.0000e+000 101427 -4.2219e+001 -4.3156e+002 -4.3000e+001 36613 101274,101326,101300
 3.0000e+000 101404 -1.8085e+002 -2.4609e+002  1.3030e+002 36613 101196,101378,101222
 3.0000e+000 101718 -2.3527e+002 -1.8382e+002  2.0898e+002 36308 101594,101646,101620
 3.0000e+000 101695 -2.3933e+002 -1.4946e+002  1.6791e+002 36308 101568,101646,101594
 3.0000e+000 101672 -1.8929e+002 -1.7325e+002  1.7584e+002 36308 101542,101646,101568
 3.0000e+000 102098 -2.1626e+002 -2.2475e+002  1.1990e+002 35918 102121,101954,101876
 3.0000e+000 102075 -1.8043e+002 -2.7065e+002  9.9893e+001 35918 102121,101876,101824
 3.0000e+000 102052 -2.0134e+002 -2.1991e+002  9.9797e+001 35918 101876,101954,101928
 3.0000e+000 102029 -3.9792e+002 -1.1217e+002  1.3732e+002 35918 101876,101928,101902
 3.0000e+000 102006 -1.6714e+002 -2.4436e+002  1.1468e+002 35918 101824,101876,101850
 3.0000e+000 102147 -2.2121e+002 -2.6702e+002  1.4174e+002 35918 101980,101954,102121
 3.0000e+000 102170 -1.8810e+002 -3.1877e+002  1.1666e+002 35918 101980,102121,101824
 3.0000e+000 102489 -2.9220e+002 -6.6708e+002  2.2342e+002 35514 102241,102345,102267
 3.0000e+000 102466 -3.8898e+002 -6.9728e+002  2.2413e+002 35514 102215,102345,102241
 3.0000e+000 102443 -3.1650e+002 -7.5954e+002  2.3766e+002 35514 102215,102371,102345
 3.0000e+000 102420 -2.4133e+002 -5.6937e+002  2.5186e+002 35514 102267,102345,102293
 3.0000e+000 102397 -1.4378e+002 -3.6549e+002  2.8385e+002 35514 102293,102345,102319
 3.0000e+000 102820 -5.1348e+002 -3.2754e+002  2.9716e+001 35224 102843,102699,102647
 3.0000e+000 102797 -3.7218e+002 -2.5917e+002  9.2147e+001 35224 102971,102725,102699
 3.0000e+000 102774 -4.1762e+002 -2.6005e+002  2.0568e+002 35224 102595,102725,102621
 3.0000e+000 102751 -1.5527e+002 -2.8380e+002  1.1032e+002 35224 102647,102699,102673
 3.0000e+000 102869 -3.2978e+002 -2.4286e+002  8.4472e+001 35224 102971,102699,102843
 3.0000e+000 102997 -3.1804e+002 -2.8327e+002  9.4174e+001 35224 102621,102725,102971
 3.0000e+000 103020 -2.7131e+002 -2.6565e+002  9.0481e+001 35224 102621,102971,102843
 3.0000e+000 103349 -3.6310e+002 -2.9859e+002  1.7900e+002 34820 103150,103228,103176
 3.0000e+000 103326 -3.2729e+002 -3.1037e+002  1.7903e+002 34820 103124,103228,103150
 3.0000e+000 103303 -2.9023e+002 -3.0569e+002  2.9546e+002 34820 103176,103228,103202
 3.0000e+000 103280 -2.2228e+002 -2.6254e+002  2.0978e+002 34820 103124,103254,103228
 3.0000e+000 103806 -2.2482e+002 -2.4620e+002  6.0930e+001 34530 103558,103662,103636
 3.0000e+000 103783 -2.4057e+002 -2.1052e+002  1.1214e+002 34530 103558,103688,103662
 3.0000e+000 103760 -2.5983e+002 -2.4386e+002  1.0321e+002 34530 103532,103688,103558
 3.0000e+000 103737 -1.3973e+002 -2.9095e+002  3.0914e+001 34530 103584,103636,103610
 3.0000e+000 103714 -3.8878e+002 -2.6026e+002  5.7196e+001 34530 103558,103636,103584
 3.0000e+000 104263 -1.8472e+002 -1.9923e+002  1.4412e+002 34019 103989,104119,104015
 3.0000e+000 104240 -1.3672e+002 -1.7709e+002  1.5070e+002 34019 103989,104145,104119
 3.0000e+000 104217 -1.8475e+002 -2.5360e+002  9.9889e+001 34019 104015,104067,104041
 3.0000e+000 104194 -2.0473e+002 -2.6653e+002  1.2821e+002 34019 104015,104119,104067
 3.0000e+000 104171 -2.1569e+002 -1.7908e+002  1.2480e+002 34019 104067,104119,104093
 3.0000e+000 104641 -2.2021e+002 -2.4402e+002  1.1036e+002 33351 104419,104497,104445
 3.0000e+000 104618 -1.8116e+002 -1.7523e+002  1.5122e+002 33351 104393,104497,104419
 3.0000e+000 104595 -3.6139e+002 -2.6361e+002  1.0034e+002 33351 104367,104497,104393
 3.0000e+000 104572 -2.1152e+002 -2.2215e+002  8.4760e+001 33351 104445,104497,104471
 3.0000e+000 104549 -2.3163e+002 -1.5760e+002  2.9111e+001 33351 104367,104523,104497
 3.0000e+000 105019 -2.5034e+002 -5.1328e+002  2.8908e+002 32861 104823,104901,104875
 3.0000e+000 104996 -3.4776e+002 -5.9661e+002  2.4411e+002 32861 104745,104901,104823
 3.0000e+000 104973 -3.6656e+002 -5.6466e+002  2.6795e+002 32861 104823,104875,104849
 3.0000e+000 104950 -3.4343e+002 -5.6535e+002  3.0685e+002 32861 104745,104823,104797
 3.0000e+000 104927 -4.1176e+002 -2.2496e+002  3.0465e+002 32861 104745,104797,104771
 3.0000e+000 105397 -1.3295e+002 -3.3425e+002  1.3920e+002 32457 105149,105253,105175
 3.0000e+000 105374 -2.0867e+002 -3.0618e+002  1.2258e+002 32457 105149,105279,105253
 3.0000e+000 105351 -1.2329e+002 -2.5455e+002  1.4435e+002 32457 105123,105279,105149
 3.0000e+000 105328 -2.2362e+002 -8.3909e+001  2.0094e+002 32457 105175,105227,105201
 3.0000e+000 105305 -2.7167e+002 -3.9385e+002  1.3595e+002 32457 105175,105253,105227
 3.0000e+000 105726 -1.1770e+002 -3.6353e+002  1.5728e+002 32003 105527,105605,105553
 3.0000e+000 105703 -1.8763e+002 -3.0708e+002  1.4956e+002 32003 105501,105605,105527
 3.0000e+000 105680 -1.0432e+002 -2.7548e+002  1.5136e+002 32003 105501,105631,105605
 3.0000e+000 105657 -6.6250e+001 -2.2787e+002  1.4860e+002 32003 105553,105605,105579
 3.0000e+000 106104 -1.7431e+002 -3.4851e+002  6.9530e+001 31492 106127,105908,105856
 3.0000e+000 106081 -2.1170e+002 -3.6503e+002  8.3378e+001 31492 106127,105856,105830
 3.0000e+000 106058 -2.3387e+002 -3.9450e+002  9.0011e+001 31492 105856,105908,105882
 3.0000e+000 106035 -1.3623e+002 -2.6220e+002  6.8500e+000 31492 105830,105986,105960
 3.0000e+000 106012 -7.9394e+001 -3.4994e+002  9.3004e+001 31492 105908,105960,105934
 3.0000e+000 106153 -1.5954e+002 -3.4922e+002  5.1297e+001 31492 105960,105908,106127
 3.0000e+000 106176 -1.7915e+002 -3.5003e+002  6.2828e+001 31492 105960,106127,105830
 3.0000e+000 106375 -2.5687e+002 -2.7292e+002  1.7946e+002 30788 106398,106277,106251
 3.0000e+000 106352 -2.5582e+002 -3.7496e+002  2.0087e+002 30788 106398,106251,106225
 3.0000e+000 106329 -4.0235e+002 -3.2289e+002  2.6589e+002 30788 106600,106199,106303
 3.0000e+000 106424 -3.7977e+002 -4.2783e+002  1.2851e+002 30788 106470,106398,106303
 3.0000e+000 106447 -2.7188e+002 -3.6456e+002  1.8843e+002 30788 106600,106303,106398
 3.0000e+000 106496 -9.4731e+001 -3.0603e+002  1.4672e+002 30788 106277,106398,106470
 3.0000e+000 106626 -4.7671e+002 -4.1345e+002  3.3114e+002 30788 106225,106199,106600
 3.0000e+000 106649 -3.9090e+002 -4.6438e+002  2.5136e+002 30788 106225,106600,106398
 3.0000e+000 106799 -9.1940e+001 -3.8768e+002 -1.9134e+001 30426 106698,106750,106724
 3.0000e+000 106776 -1.4175e+002 -3.3095e+002 -3.5605e+001 30426 106672,106750,106698
 3.0000e+000 107356 -1.9914e+002 -2.8222e+002  1.5914e+002 29972 107010,107166,107114
 3.0000e+000 107333 -3.1391e+002 -3.0249e+002  1.8492e+002 29972 106984,107166,107010
 3.0000e+000 107310 -3.0956e+002 -1.9151e+002  1.1806e+002 29972 107010,107114,107088
 3.0000e+000 107287 -2.3981e+002 -1.7529e+002  5.8911e+001 29972 107114,107166,107140
 3.0000e+000 107264 -2.9190e+002 -2.8663e+002  1.7766e+002 29972 106984,107192,107166
 3.0000e+000 107241 -4.3382e+002 -4.2715e+002  1.6360e+002 29972 107010,107088,107036
 3.0000e+000 107218 -2.8891e+002 -3.5775e+002  1.1422e+002 29972 107036,107088,107062
 3.0000e+000 107783 -3.3433e+002 -4.3675e+002  2.2998e+002 29724 107878,107806,107590
 3.0000e+000 107760 -4.4524e+002 -4.7352e+002  2.0196e+002 29724 107806,107512,107486
 3.0000e+000 107737 -3.3755e+002 -4.2256e+002  2.4675e+002 29724 107878,107590,107538
 3.0000e+000 107714 -3.3967e+002 -4.9588e+002  2.5317e+002 29724 107950,107460,107616
 3.0000e+000 107691 -3.1461e+002 -4.8233e+002  2.4307e+002 29724 107460,107642,107616
 3.0000e+000 107668 -2.4737e+002 -3.2778e+002  2.8443e+002 29724 107538,107590,107564
 3.0000e+000 107832 -2.4506e+002 -4.4064e+002  2.7939e+002 29724 107616,107590,107806
 3.0000e+000 107855 -3.4691e+002 -5.0015e+002  2.4944e+002 29724 107950,107616,107806
 3.0000e+000 107904 -3.3636e+002 -4.0955e+002  2.4703e+002 29724 107512,107806,107878
 3.0000e+000 107927 -3.0709e+002 -3.7536e+002  2.7088e+002 29724 107512,107878,107538
 3.0000e+000 107976 -1.8937e+002 -4.8414e+002  2.7226e+002 29724 107486,107460,107950
 3.0000e+000 107999 -3.2636e+002 -5.3037e+002  2.4118e+002 29724 107486,107950,107806
 3.0000e+000 108296 -3.7415e+002 -2.7519e+002  1.9332e+002 29206 108319,108100,108048
 3.0000e+000 108273 -2.0609e+002 -2.4018e+002  2.4057e+002 29206 108319,108048,108022
 3.0000e+000 108250 -1.1171e+002 -2.9323e+002  2.9694e+002 29206 108391,108152,108126
 3.0000e+000 108227 -4.2904e+002 -1.9418e+002  2.2865e+002 29206 108048,108100,108074
 3.0000e+000 108204 -1.5961e+002 -4.0514e+002  2.5770e+002 29206 108022,108178,108152
 3.0000e+000 108345 -2.7245e+002 -1.4429e+002  2.8765e+002 29206 108126,108100,108319
 3.0000e+000 108368 -1.5022e+002 -2.3168e+002  3.3046e+002 29206 108391,108126,108319
 3.0000e+000 108417 -2.0387e+002 -3.6693e+002  2.5751e+002 29206 108022,108152,108391
 3.0000e+000 108440 -2.3366e+002 -3.1938e+002  2.9308e+002 29206 108022,108391,108319
 3.0000e+000 108688 -3.2582e+002 -3.8036e+002  2.5234e+002 28595 108711,108541,108515
 3.0000e+000 108665 -4.7739e+002 -4.1787e+002  3.1509e+002 28595 108783,108711,108515
 3.0000e+000 108642 -5.7318e+002 -3.6850e+002  3.1363e+002 28595 108783,108515,108489
 3.0000e+000 108619 -5.7316e+002 -4.6871e+002  1.4576e+002 28595 108463,108593,108489
 3.0000e+000 108737 -3.0334e+002 -3.3407e+002  1.9147e+002 28595 108567,108541,108711
 3.0000e+000 108760 -2.6174e+002 -3.5443e+002  2.8100e+002 28595 108567,108711,108593
 3.0000e+000 108809 -3.1047e+002 -4.2268e+002  2.4864e+002 28595 108593,108711,108783
 3.0000e+000 108832 -4.5954e+002 -4.0421e+002  2.2216e+002 28595 108593,108783,108489
 3.0000e+000 109033 -1.3365e+002 -1.5313e+002  7.5292e+001 28091 108909,108961,108935
 3.0000e+000 109010 -1.2617e+002 -1.7422e+002  7.4042e+001 28091 108857,108961,108909
 3.0000e+000 108987 -2.5183e+002 -2.8001e+002  2.1800e+002 28091 108857,108909,108883
 3.0000e+000 109136 -2.8671e+002 -6.7475e+002  1.2494e+002 27587 109058,109110,109084
 3.0000e+000 109695 -3.0348e+002 -2.9120e+002  1.2678e+002 26969 109718,109375,109323
 3.0000e+000 109672 -2.8699e+002 -3.0537e+002  8.4078e+001 26969 109718,109323,109505
 3.0000e+000 109649 -2.6632e+002 -1.3434e+002  6.5255e+001 26969 109790,109453,109427
 3.0000e+000 109626 -1.7031e+002 -2.5958e+002  1.6320e+002 26969 109323,109375,109349
 3.0000e+000 109603 -2.2916e+002 -2.7998e+002  7.5793e+001 26969 109323,109531,109505
 3.0000e+000 109580 -2.2028e+002 -3.4666e+002  9.9724e+001 26969 109375,109427,109401
 3.0000e+000 109557 -2.8335e+002 -2.9352e+002  1.4121e+002 26969 109453,109505,109479
 3.0000e+000 109744 -2.9414e+002 -3.1066e+002  7.6724e+001 26969 109427,109375,109718
 3.0000e+000 109767 -2.5698e+002 -1.9941e+002  5.2246e+001 26969 109790,109427,109718
 3.0000e+000 109816 -2.3975e+002 -2.0981e+002  9.9282e+001 26969 109505,109453,109790
 3.0000e+000 109839 -2.3464e+002 -2.7648e+002  9.5319e+001 26969 109505,109790,109718
 3.0000e+000 110266 -1.7342e+002 -3.4752e+002  4.6322e+001 26515 110361,110289,110099
 3.0000e+000 110243 -1.5920e+002 -2.2878e+002  7.0456e+001 26515 110289,109995,109943
 3.0000e+000 110220 -2.3580e+002 -3.7605e+002  5.5348e+001 26515 110361,110099,110021
 3.0000e+000 110197 -1.9471e+002 -6.2716e+002  7.1908e+001 26515 110047,110099,110073
 3.0000e+000 110174 -1.9536e+002 -5.9918e+002 -5.2844e+001 26515 110021,110099,110047
 3.0000e+000 110151 -5.5601e+001 -1.3384e+002  1.2348e+002 26515 109943,109995,109969
 3.0000e+000 110315 -1.8209e+002 -1.8997e+002 -1.1198e+001 26515 110125,110099,110289
 3.0000e+000 110338 -2.0985e+002 -5.1911e+001  1.2545e+002 26515 110125,110289,109943
 3.0000e+000 110387 -2.1997e+002 -3.0106e+002 -3.0379e+001 26515 109995,110289,110361
 3.0000e+000 110410 -2.7624e+002 -3.3267e+002 -1.7887e+001 26515 109995,110361,110021
 3.0000e+000 110609 -7.3541e+001 -4.0104e+002  1.5330e+002 25789 110906,110762,110632
 3.0000e+000 110586 -8.7618e+001 -4.9515e+002  1.7202e+002 25789 110762,110433,110537
 3.0000e+000 110563 -2.5562e+002 -4.5591e+002  2.6412e+002 25789 110834,110459,110433
 3.0000e+000 110658 -1.3322e+002 -3.8340e+002  1.9520e+002 25789 110906,110632,110834
 3.0000e+000 110788 -4.2843e+001 -2.6341e+002  8.9643e+001 25789 110511,110632,110762
 3.0000e+000 110811 -9.4075e+001 -3.9940e+002  1.6558e+002 25789 110511,110762,110537
 3.0000e+000 110860 -1.5699e+002 -3.9257e+002  2.1501e+002 25789 110485,110459,110834
 3.0000e+000 110883 -1.8156e+002 -3.5582e+002  1.8438e+002 25789 110485,110834,110632
 3.0000e+000 110932 -1.9257e+002 -4.3963e+002  1.5853e+002 25789 110433,110762,110906
 3.0000e+000 110955 -2.4037e+002 -4.0923e+002  1.9191e+002 25789 110433,110906,110834
 3.0000e+000 111350 -2.4959e+002 -3.4584e+002  2.3392e+002 25228 111445,111373,111186
 3.0000e+000 111327 -2.4664e+002 -3.5768e+002  5.3756e+001 25228 110978,111186,111004
 3.0000e+000 111304 -2.5360e+002 -4.5365e+002  2.2245e+002 25228 111373,111108,111082
 3.0000e+000 111281 -2.5026e+002 -4.5369e+002  1.7699e+002 25228 111134,111186,111160
 3.0000e+000 111258 -2.5500e+002 -3.2250e+002  2.0115e+002 25228 111445,111186,111134
 3.0000e+000 111235 -2.0867e+002 -2.3870e+002  1.3085e+002 25228 111517,111030,111004
 3.0000e+000 111212 -2.9681e+002 -3.2383e+002  1.9899e+002 25228 111030,111082,111056
 3.0000e+000 111399 -2.5583e+002 -3.9957e+002  2.2413e+002 25228 111004,111186,111373
 3.0000e+000 111422 -1.7775e+002 -2.9560e+002  1.8336e+002 25228 111517,111004,111373
 3.0000e+000 111471 -2.0427e+002 -3.1818e+002  2.0930e+002 25228 111108,111373,111445
 3.0000e+000 111494 -2.0961e+002 -2.9216e+002  1.7640e+002 25228 111108,111445,111134
 3.0000e+000 111543 -2.8424e+002 -2.6158e+002  1.9952e+002 25228 111082,111030,111517
 3.0000e+000 111566 -2.6038e+002 -3.4395e+002  2.5234e+002 25228 111082,111517,111373
 3.0000e+000 112074 -1.7974e+002 -2.3489e+002  1.2927e+002 24338 112097,111907,111881
 3.0000e+000 112051 -2.2025e+002 -2.1526e+002  6.7887e+001 24338 112097,111881,111829
 3.0000e+000 112028 -8.0521e+001 -2.2074e+002  5.8372e+001 24338 111829,111881,111855
 3.0000e+000 112005 -2.3447e+002 -3.4112e+002  1.0298e+002 24338 111777,111933,111829
 3.0000e+000 111982 -3.3299e+002 -1.6106e+002  1.0677e+002 24338 111751,111933,111777
 3.0000e+000 111959 -2.7644e+002 -4.1428e+002  1.4066e+002 24338 111777,111829,111803
 3.0000e+000 112123 -2.3966e+002 -4.2557e+002  1.3966e+002 24338 111933,111907,112097
 3.0000e+000 112146 -2.0061e+002 -2.6956e+002  8.8459e+001 24338 111933,112097,111829
 3.0000e+000 112443 -3.6270e+002 -2.5143e+002  1.5908e+002 23998 112466,112299,112247
 3.0000e+000 112420 -4.0251e+002 -4.3317e+002  1.5385e+002 23998 112466,112247,112221
 3.0000e+000 112397 -2.9687e+002 -4.9950e+002  2.4716e+002 23998 112169,112325,112221
 3.0000e+000 112374 -2.6238e+002 -4.9039e+002  2.7494e+002 23998 112169,112221,112195
 3.0000e+000 112351 -1.6616e+002 -2.2296e+002  1.9294e+002 23998 112247,112299,112273
 3.0000e+000 112492 -3.6028e+002 -2.8047e+002  2.6720e+002 23998 112325,112299,112466
 3.0000e+000 112515 -3.9626e+002 -3.8055e+002  2.3898e+002 23998 112325,112466,112221
 3.0000e+000 113200 -3.9321e+002 -4.5896e+002  3.2693e+002 23480 112779,112961,112805
 3.0000e+000 113177 -4.1104e+002 -3.3711e+002  1.5129e+002 23480 112779,112987,112961
 3.0000e+000 113154 -1.1112e+002 -2.2957e+002  2.1578e+002 23480 112805,112961,112883
 3.0000e+000 113131 -2.2697e+002 -3.9653e+002  2.2735e+002 23480 112883,112935,112909
 3.0000e+000 113108 -3.0775e+002 -3.1071e+002  2.2944e+002 23480 112883,112961,112935
 3.0000e+000 113085 -9.3334e+001 -1.8274e+002  1.0975e+002 23480 112831,112883,112857
 3.0000e+000 113062 -1.9624e+002 -2.5414e+002  1.5338e+002 23480 112805,112883,112831
 3.0000e+000 113039 -4.7200e+002 -2.6978e+002  1.6365e+002 23480 112779,113013,112987
 3.0000e+000 113676 -3.7570e+002 -1.7391e+002  3.0245e+002 23018 113699,113434,113356
 3.0000e+000 113653 -3.2877e+002 -1.7380e+002  1.6180e+002 23018 113771,113699,113356
 3.0000e+000 113630 -2.8984e+002 -2.8978e+002  1.1310e+002 23018 113771,113356,113512
 3.0000e+000 113607 -2.1312e+002 -3.8828e+002  1.8280e+002 23018 113330,113512,113356
 3.0000e+000 113584 -7.7449e+002 -3.5986e+002  4.4610e+002 23018 113356,113434,113382
 3.0000e+000 113561 -9.0908e+001 -3.6419e+002  1.8300e+002 23018 113304,113512,113330
 3.0000e+000 113538 -7.0571e+002 -4.8877e+001  1.7804e+002 23018 113382,113434,113408
 3.0000e+000 113725 -4.2700e+002 -2.9345e+002  2.9982e+002 23018 113460,113434,113699
 3.0000e+000 113748 -4.7656e+002 -3.3094e+002  1.8849e+002 23018 113460,113699,113486
 3.0000e+000 113797 -4.2956e+002 -3.4259e+002  2.0367e+002 23018 113486,113699,113771
 3.0000e+000 113820 -3.3127e+002 -3.6829e+002  1.2970e+002 23018 113486,113771,113512
 3.0000e+000 114424 -1.9290e+002 -2.8515e+002  7.3019e+001 22514 114447,114133,114029
 3.0000e+000 114401 -1.8363e+002 -3.2726e+002  6.8543e+001 22514 114447,114029,114237
 3.0000e+000 114378 -8.9650e+001 -2.4133e+002  1.2011e+002 22514 114133,114211,114185
 3.0000e+000 114355 -1.3362e+002 -2.3287e+002  9.8285e+001 22514 114133,114185,114159
 3.0000e+000 114332 -1.4266e+002 -3.4117e+002  1.4189e+002 22514 114003,114237,114029
 3.0000e+000 114309 -2.0424e+002 -2.2585e+002  4.7957e+001 22514 114029,114133,114055
 3.0000e+000 114286 -2.6576e+002 -2.0688e+002  7.2254e+001 22514 114055,114133,114107
 3.0000e+000 114263 -2.2228e+002 -2.5647e+001  1.0071e+002 22514 114055,114107,114081
 3.0000e+000 114473 -1.9181e+002 -2.6176e+002  8.7106e+001 22514 114211,114133,114447
 3.0000e+000 114496 -1.7564e+002 -2.9476e+002  8.2710e+001 22514 114211,114447,114237
 3.0000e+000 114597 -1.6497e+002 -4.0268e+002  2.2125e+002 22316 114620,114571,114545
 3.0000e+000 114646 -1.6497e+002 -4.0268e+002  2.2125e+002 22316 114519,114571,114620
 3.0000e+000 115127 -2.4694e+002 -3.6966e+002  9.8350e+001 21612 115150,114905,114879
 3.0000e+000 115104 -2.9328e+002 -2.0969e+002  1.2183e+002 21612 115150,114879,114853
 3.0000e+000 115081 -2.2767e+002 -1.1775e+002  1.8916e+002 21612 115222,114931,114905
 3.0000e+000 115058 -2.0450e+002 -2.7161e+002  1.6168e+002 21612 115222,114905,115009
 3.0000e+000 115035 -1.4252e+002 -3.7841e+002  1.7142e+002 21612 114957,115009,114983
 3.0000e+000 115176 -2.1723e+002 -2.4098e+002  1.0351e+002 21612 115009,114905,115150
 3.0000e+000 115199 -2.5064e+002 -6.0402e+001  1.2166e+002 21612 115009,115150,114853
 3.0000e+000 115248 -2.5176e+002 -2.4120e+002  1.8121e+002 21612 114957,114931,115222
 3.0000e+000 115271 -2.2158e+002 -3.8361e+002  1.5097e+002 21612 114957,115222,115009
 3.0000e+000 115519 -8.2030e+001  5.0902e+001  7.4320e+001 21208 115542,115372,115320
 3.0000e+000 115496  2.1839e+001  1.0989e+002 -1.3729e+001 21208 115542,115320,115294
 3.0000e+000 115473 -5.6922e+001 -1.3755e+002  1.1635e+002 21208 115320,115372,115346
 3.0000e+000 115450 -2.0465e+002 -5.4614e+001  2.8140e+001 21208 115294,115424,115398
 3.0000e+000 115568 -1.2419e+002  1.9744e+001  1.1398e+002 21208 115398,115372,115542
 3.0000e+000 115591 -8.2307e+001 -3.7985e+001  4.4873e+001 21208 115398,115542,115294
 3.0000e+000 115839 -2.6271e+002 -2.1577e+002  2.0521e+002 20668 115862,115640,115614
 3.0000e+000 115816 -2.7071e+002 -2.4349e+002  2.0744e+002 20668 115862,115614,115744
 3.0000e+000 115793 -2.3473e+002 -1.2069e+002  1.8300e+002 20668 115640,115718,115692
 3.0000e+000 115770 -4.5208e+002 -1.7035e+002  1.7382e+002 20668 115640,115692,115666
 3.0000e+000 115888 -2.7596e+002 -1.6744e+002  2.2304e+002 20668 115718,115640,115862
 3.0000e+000 115911 -2.9740e+002 -2.1785e+002  2.2787e+002 20668 115718,115862,115744
 3.0000e+000 116134 -2.5490e+002 -3.7330e+002  2.3012e+002 20264 115958,116036,115984
 3.0000e+000 116111 -1.2654e+002 -3.1161e+002  2.1041e+002 20264 115958,116062,116036
 3.0000e+000 116088 -1.4563e+002 -3.6258e+002  2.4852e+002 20264 115984,116036,116010
 3.0000e+000 116384 -3.9655e+002 -2.7425e+002  2.8551e+002 19924 116407,116211,116159
 3.0000e+000 116361 -3.7215e+002 -4.4968e+002  2.4808e+002 19924 116407,116159,116263
 3.0000e+000 116338 -3.6478e+002 -1.5783e+002  2.7674e+002 19924 116159,116211,116185
 3.0000e+000 116315 -2.5163e+002 -4.3145e+002  2.8046e+002 19924 116159,116289,116263
 3.0000e+000 116433 -3.8848e+002 -1.7516e+002  3.2323e+002 19924 116237,116211,116407
 3.0000e+000 116456 -3.0225e+002 -2.9438e+002  3.0723e+002 19924 116237,116407,116263
 3.0000e+000 116608 -1.3742e+002 -3.0263e+001  1.4573e+002 19520 116703,116631,116533
 3.0000e+000 116585 -3.8968e+001 -8.6186e+001  8.5812e+001 19520 116631,116507,116481
 3.0000e+000 116657 -1.2538e+002 -9.0055e+001  1.7213e+002 19520 116559,116533,116631
 3.0000e+000 116680 -8.6472e+001 -2.2448e+002  1.1806e+002 19520 116559,116631,116481
 3.0000e+000 116729 -1.3742e+002 -3.0263e+001  1.4573e+002 19520 116507,116631,116703
 3.0000e+000 116952 -3.4122e+002 -2.7578e+002  4.0146e+002 19208 116975,116802,116776
 3.0000e+000 116929 -4.2141e+002 -5.2907e+002  2.3062e+002 19208 116975,116776,116880
 3.0000e+000 116906 -4.4378e+002 -1.9142e+002  2.8543e+002 19208 116802,116854,116828
 3.0000e+000 117001 -2.7430e+002 -2.3301e+002  4.2002e+002 19208 116854,116802,116975
 3.0000e+000 117024 -1.1136e+002 -3.0093e+002  3.3520e+002 19208 116854,116975,116880
 3.0000e+000 117428 -3.1231e+002 -1.1379e+002  1.8534e+002 18796 117154,117206,117180
 3.0000e+000 117405 -2.1706e+002 -2.4353e+002  1.7293e+002 18796 117154,117284,117206
 3.0000e+000 117382 -1.1941e+002 -2.0069e+002  1.7906e+002 18796 117154,117310,117284
 3.0000e+000 117359 -1.2427e+002 -1.5508e+002  2.2876e+002 18796 117206,117284,117258
 3.0000e+000 117336 -2.6990e+001 -1.8499e+001  3.0692e+002 18796 117206,117258,117232
 3.0000e+000 117529 -1.3866e+002 -6.8163e+001  8.4948e+001 18228 117810,117552,117477
 3.0000e+000 117578 -3.5657e+002 -1.9898e+002  1.6087e+002 18228 117682,117552,117503
 3.0000e+000 117708 -1.1190e+002 -6.6997e+001  7.9394e+001 18228 117477,117552,117682
 3.0000e+000 117836 -2.3194e+002 -2.0754e+002  1.5231e+002 18228 117451,117552,117810
 3.0000e+000 118364 -3.3196e+002 -1.1231e+002  1.4498e+002 17722 118067,118223,118093
 3.0000e+000 118341 -3.3289e+002 -4.7657e+001  1.2863e+002 17722 118041,118223,118067
 3.0000e+000 118318 -1.8227e+002 -1.2185e+002  1.1512e+002 17722 118093,118223,118197
 3.0000e+000 118295 -6.7170e+002 -6.2965e+002  4.1546e+002 17722 118119,118197,118171
 3.0000e+000 118272 -8.6245e+001 -1.4951e+001  1.7221e+002 17722 118093,118197,118119
 3.0000e+000 118249 -6.3271e+002 -1.9039e+002  3.0160e+002 17722 118119,118171,118145
 3.0000e+000 118514 -5.6626e+002 -2.2824e+002  2.1533e+002 17268 118387,118439,118413
 3.0000e+000 118491 -5.8561e+001 -2.9725e+002  2.5879e+002 17268 118387,118465,118439
 3.0000e+000 118916 -2.9611e+002 -8.6811e+001  1.0448e+002 16828 118668,118772,118694
 3.0000e+000 118893 -3.7089e+002 -1.1556e+002  9.5620e+001 16828 118668,118798,118772
 3.0000e+000 118870 -3.9163e+002 -2.1201e+002  6.0813e+001 16828 118642,118798,118668
 3.0000e+000 118847 -1.3400e+002 -4.8027e+001  2.2847e+002 16828 118694,118746,118720
 3.0000e+000 118824 -3.4135e+002 -2.3152e+002  1.0125e+002 16828 118694,118772,118746
 3.0000e+000 119316 -1.4198e+002 -1.1881e+002  2.0068e+002 16422 119042,119172,119094
 3.0000e+000 119293 -2.1397e+002 -1.3169e+002  2.0927e+002 16422 119042,119198,119172
 3.0000e+000 119270 -2.8298e+002 -8.3419e+001  1.1145e+002 16422 119042,119094,119068
 3.0000e+000 119247  1.4812e+001  6.1301e+000  2.7679e+002 16422 119094,119146,119120
 3.0000e+000 119224 -1.1140e+002 -6.1082e+001  2.1233e+002 16422 119094,119172,119146
 3.0000e+000 119466 -8.4696e+001  1.4137e+001  6.2464e+001 16010 119339,119391,119365
 3.0000e+000 119443 -4.8981e+001 -4.1255e+001  1.5813e+002 16010 119339,119417,119391
 3.0000e+000 119616 -1.0185e+002 -1.7661e+001  1.5507e+002 15547 119515,119567,119541
 3.0000e+000 119593  1.2646e+002  2.1365e+002  4.7259e+002 15547 119489,119567,119515
 3.0000e+000 119719 -5.5682e+002 -2.2682e+002  2.3175e+002 421 119641,119693,119667
 3.1000e+000 69562 -6.2333e+002 -2.7589e+002  3.0091e+002 69254 69484,69536,69510
 3.1000e+000 70009 -2.4037e+002 -1.9140e+002  1.9744e+002 68942 69686,69842,69816
 3.1000e+000 69986 -2.2976e+002 -1.0116e+002  1.0291e+002 68942 69686,69868,69842
 3.1000e+000 69963 -1.5100e+002 -6.3940e+001  2.3932e+002 68942 69686,69816,69712
 3.1000e+000 69940 -1.1371e+002 -6.4517e+001  3.3681e+002 68942 69712,69790,69738
 3.1000e+000 69917 -3.5503e+002 -5.5007e+002  2.3179e+002 68942 69712,69816,69790
 3.1000e+000 69894 -4.1328e+001 -2.9794e+002  1.3419e+002 68942 69738,69790,69764
 3.1000e+000 70110 -2.7783e+002 -1.0042e+002  1.5488e+002 68766 70032,70084,70058
 3.1000e+000 70746 -4.2005e+002 -1.9176e+002  1.7847e+002 68448 70400,70556,70426
 3.1000e+000 70723 -5.8982e+002 -2.4550e+002  2.1557e+002 68448 70374,70556,70400
 3.1000e+000 70700 -4.0909e+002 -1.5415e+002  1.2172e+002 68448 70426,70556,70478
 3.1000e+000 70677 -4.3973e+002 -1.3900e+002  1.2788e+002 68448 70478,70556,70504
 3.1000e+000 70654 -5.0624e+002 -2.3964e+002  1.7325e+002 68448 70426,70478,70452
 3.1000e+000 70631 -5.6501e+002 -1.6370e+002  2.8632e+002 68448 70374,70582,70556
 3.1000e+000 70608 -4.6285e+002 -1.1223e+002  8.5513e+001 68448 70504,70556,70530
 3.1000e+000 70896 -5.6863e+002 -1.9043e+002 -2.5098e+000 68250 70795,70847,70821
 3.1000e+000 70873 -9.2641e+002 -3.4026e+002  1.3117e+001 68250 70769,70847,70795
 3.1000e+000 70997 -1.1640e+003 -5.2942e+002  4.6178e+002 68052 70919,70971,70945
 3.1000e+000 71367 -3.6169e+002 -5.5216e+002  2.0470e+002 67740 71096,71226,71200
 3.1000e+000 71344 -2.4053e+002 -3.2931e+002  2.5502e+002 67740 71044,71226,71096
 3.1000e+000 71321  1.8658e+001 -1.8658e+001  4.1457e+002 67740 71044,71096,71070
 3.1000e+000 71298 -2.9515e+002 -5.9285e+002  3.9865e+002 67740 71096,71200,71174
 3.1000e+000 71275 -1.5099e+002 -3.5701e+002  1.1884e+002 67740 71096,71148,71122
 3.1000e+000 71252 -2.1793e+002 -4.2116e+002  2.5679e+002 67740 71096,71174,71148
 3.1000e+000 71519  1.4636e+002  8.4833e+001  1.2970e+002 67542 71418,71470,71444
 3.1000e+000 71496  2.1624e+002  4.4642e+002  4.0458e+002 67542 71392,71470,71418
 3.1000e+000 71923 -9.5440e+001 -1.9536e+001  1.3832e+002 67230 71649,71779,71675
 3.1000e+000 71900 -7.5528e+001 -1.3343e+002  1.0008e+002 67230 71649,71805,71779
 3.1000e+000 71877 -1.0658e+002 -4.6050e+001  2.4756e+002 67230 71675,71727,71701
 3.1000e+000 71854 -1.3521e+002 -3.7052e+002  2.5129e+002 67230 71675,71753,71727
 3.1000e+000 71831 -1.3397e+002 -2.3017e+002  1.7616e+002 67230 71675,71779,71753
 3.1000e+000 72433 -3.2931e+002 -1.4613e+002  1.7678e+002 67032 72038,72246,72220
 3.1000e+000 72410 -1.5176e+002 -3.7107e+001  1.1008e+002 67032 72012,72246,72038
 3.1000e+000 72387 -3.2604e+002 -1.5142e+002  1.8835e+002 67032 72064,72194,72168
 3.1000e+000 72364 -3.3198e+002 -1.3131e+002  1.9204e+002 67032 72038,72194,72064
 3.1000e+000 72341 -4.0947e+002 -3.3452e+002  1.7744e+002 67032 72038,72220,72194
 3.1000e+000 72318 -1.6474e+002 -3.5329e+001  1.5004e+002 67032 72090,72168,72142
 3.1000e+000 72295 -1.4885e+002 -6.2514e+001  2.3936e+002 67032 72064,72168,72090
 3.1000e+000 72272 -1.7553e+002 -5.4075e+001  1.4100e+002 67032 72090,72142,72116
 3.1000e+000 72933 -2.3992e+002 -2.3615e+002  2.4696e+002 66628 72956,72665,72613
 3.1000e+000 72910 -2.3588e+002 -2.5884e+002  2.4463e+002 66628 73100,72956,72613
 3.1000e+000 72887 -2.7384e+002 -3.6424e+002  2.0457e+002 66628 73028,72691,72665
 3.1000e+000 72864 -2.2683e+002 -2.3841e+002  2.4627e+002 66628 73100,72613,72587
 3.1000e+000 72841 -2.2493e+002 -2.2347e+002  2.1269e+002 66628 72613,72665,72639
 3.1000e+000 72818  1.2356e-001 -1.2632e+001  3.1659e+002 66628 72587,72769,72743
 3.1000e+000 72795 -2.5215e+002 -5.6782e+002  7.7320e+001 66628 72561,72769,72587
 3.1000e+000 72982 -2.7523e+002 -2.6541e+002  2.6043e+002 66628 73028,72665,72956
 3.1000e+000 73005 -2.4259e+002 -1.0309e+002  2.4281e+002 66628 72717,72956,72743
 3.1000e+000 73054 -3.7934e+002 -3.1236e+002  1.2850e+002 66628 72717,72691,73028
 3.1000e+000 73077 -3.8189e+002 -2.7736e+002  1.8039e+002 66628 72717,73028,72956
 3.1000e+000 73126 -2.3972e+002 -2.5731e+002  2.2211e+002 66628 72743,72956,73100
 3.1000e+000 73149 -2.3196e+002 -2.4084e+002  2.2422e+002 66628 72743,73100,72587
 3.1000e+000 73606 -2.8945e+002 -2.4260e+002  2.3427e+002 66281 73332,73384,73358
 3.1000e+000 73583 -3.6548e+002 -2.8185e+002  1.8000e+002 66281 73332,73462,73384
 3.1000e+000 73560 -4.4931e+002 -2.6098e+002  2.0103e+002 66281 73384,73462,73436
 3.1000e+000 73537 -6.6348e+002 -3.8577e+002  2.8560e+002 66281 73332,73488,73462
 3.1000e+000 73514 -4.7812e+002 -2.5123e+002  1.2258e+002 66281 73384,73436,73410
 3.1000e+000 73984 -1.7927e+002 -1.0323e+002  8.0601e+001 65969 73736,73814,73788
 3.1000e+000 73961 -7.5547e+001 -6.3183e+001  7.6045e+001 65969 73736,73866,73814
 3.1000e+000 73938 -1.7024e+002 -1.1934e+002  1.5803e+002 65969 73814,73866,73840
 3.1000e+000 73915 -6.5237e+001 -8.2858e+001  7.2374e+001 65969 73710,73866,73736
 3.1000e+000 73892 -1.3998e+002 -8.3694e+001  3.7882e+001 65969 73736,73788,73762
 3.1000e+000 74232 -2.3599e+002 -2.2188e+002  2.2722e+002 65572 74255,74085,74033
 3.1000e+000 74209 -2.2135e+002 -2.3041e+002  2.1261e+002 65572 74327,74255,74033
 3.1000e+000 74186 -2.3070e+002 -1.9875e+002  2.1261e+002 65572 74327,74033,74007
 3.1000e+000 74163 -2.6407e+002 -2.6060e+002  2.4345e+002 65572 74033,74085,74059
 3.1000e+000 74281 -2.6267e+002 -2.4871e+002  2.6136e+002 65572 74111,74085,74255
 3.1000e+000 74304 -2.1198e+002 -2.3199e+002  2.2838e+002 65572 74111,74255,74137
 3.1000e+000 74353 -2.1255e+002 -1.9417e+002  2.0082e+002 65572 74137,74255,74327
 3.1000e+000 74376 -2.2864e+002 -1.7011e+002  2.0246e+002 65572 74137,74327,74007
 3.1000e+000 74884 -2.3817e+002 -2.4186e+002  2.0332e+002 65174 74587,74717,74613
 3.1000e+000 74861 -2.8503e+002 -2.8694e+002  1.5961e+002 65174 74561,74717,74587
 3.1000e+000 74838 -2.0927e+002 -2.8696e+002  1.5313e+002 65174 74613,74691,74639
 3.1000e+000 74815 -2.3803e+002 -2.8392e+002  1.9451e+002 65174 74613,74717,74691
 3.1000e+000 74792 -1.1363e+002 -4.0715e+002  1.3722e+002 65174 74639,74691,74665
 3.1000e+000 74769 -4.6816e+002 -9.9493e+001  1.7199e+002 65174 74561,74743,74717
 3.1000e+000 75412 -9.3847e+000 -9.1264e+001  4.3677e+002 64770 75167,75245,75219
 3.1000e+000 75389 -2.1929e+002 -3.7045e+002  3.0031e+002 64770 75115,75245,75167
 3.1000e+000 75366 -1.6960e+002 -4.6573e+002  3.8431e+002 64770 75089,75245,75115
 3.1000e+000 75343 -3.4986e+002 -1.2419e+002  3.2604e+002 64770 75167,75219,75193
 3.1000e+000 75320 -1.7809e+002 -2.7630e+002  3.0640e+002 64770 75115,75167,75141
 3.1000e+000 75297 -2.6605e+002 -6.8172e+002  4.0476e+002 64770 75089,75271,75245
 3.1000e+000 75861 -6.0567e+002 -2.5167e+002  3.1984e+002 64316 75538,75694,75564
 3.1000e+000 75838 -4.0404e+002 -1.6045e+002  1.8144e+002 64316 75538,75720,75694
 3.1000e+000 75815 -4.4660e+002 -2.6854e+002  2.5055e+002 64316 75590,75694,75642
 3.1000e+000 75792 -4.2938e+002 -3.7930e+002  2.9880e+002 64316 75564,75694,75590
 3.1000e+000 75769 -1.5857e+002 -4.7285e+002  1.4041e+002 64316 75590,75642,75616
 3.1000e+000 75746 -3.9497e+002 -1.6508e+002  2.2647e+002 64316 75642,75694,75668
 3.1000e+000 76239 -6.0337e+002 -4.5981e+002  2.6156e+002 64018 76262,76095,76043
 3.1000e+000 76216 -4.7153e+002 -4.7795e+002  2.2429e+002 64018 76262,76043,76017
 3.1000e+000 76193 -2.6629e+002 -2.3010e+002  1.7672e+002 64018 75991,76121,76017
 3.1000e+000 76170 -5.8355e+002 -3.5724e+002  3.8200e+002 64018 76043,76095,76069
 3.1000e+000 76147 -2.3292e+001 -2.3349e+002  5.0122e+001 64018 75965,76121,75991
 3.1000e+000 76288 -4.8065e+002 -4.8292e+002  3.2819e+002 64018 76121,76095,76262
 3.1000e+000 76311 -3.7522e+002 -5.2271e+002  2.7117e+002 64018 76121,76262,76017
 3.1000e+000 76866 -2.2813e+002 -2.2275e+002  2.4117e+002 63728 76520,76676,76546
 3.1000e+000 76843 -2.0226e+002 -2.2605e+002  1.7373e+002 63728 76520,76702,76676
 3.1000e+000 76820 -1.9052e+002 -2.3963e+002  2.4035e+002 63728 76546,76650,76572
 3.1000e+000 76797 -3.0658e+002 -3.0941e+002  2.0719e+002 63728 76546,76676,76650
 3.1000e+000 76774 -3.1295e+002 -3.1436e+001  1.1925e+002 63728 76572,76650,76624
 3.1000e+000 76751 -1.7550e+002 -1.9524e+002  1.8537e+002 63728 76494,76702,76520
 3.1000e+000 76728 -6.6203e+001 -1.3302e+002  9.3378e+001 63728 76572,76624,76598
 3.1000e+000 77065 -1.9757e+002 -1.9865e+002  2.1103e+002 63288 77088,76941,76915
 3.1000e+000 77042 -3.4554e+002 -2.4064e+002  1.8967e+002 63288 77088,76915,76993
 3.1000e+000 77019 -8.3629e+001 -2.7389e+002  1.5818e+002 63288 76889,76993,76915
 3.1000e+000 77114 -2.5375e+002 -2.4576e+002  1.8600e+002 63288 76967,76941,77088
 3.1000e+000 77137 -5.0901e+002 -3.1179e+002  7.9458e+001 63288 77160,77088,76993
 3.1000e+000 77186 -1.2625e+002 -1.3471e+002  1.3682e+002 63288 76967,77088,77160
 3.1000e+000 77417 -1.5729e+002 -2.4528e+002  1.6564e+002 62884 77440,77342,77316
 3.1000e+000 77394 -3.9488e+002 -3.2134e+002  8.2390e+001 62884 77770,77440,77316
 3.1000e+000 77466 -2.7757e+002 -3.5425e+002  6.3382e+001 62884 77512,77440,77368
 3.1000e+000 77489 -2.2441e+002 -2.5002e+002  7.2693e+001 62884 77642,77440,77290
 3.1000e+000 77538 -1.0856e+002 -2.4046e+002  1.3559e+001 62884 77342,77440,77512
 3.1000e+000 77668 -3.0309e+002 -3.9770e+002  3.8706e+001 62884 77368,77440,77642
 3.1000e+000 77796 -2.2061e+002 -2.4660e+002  7.1019e+001 62884 77290,77440,77770
 3.1000e+000 78479 -5.6813e+002 -4.6230e+002  2.8335e+002 62480 78084,78240,78214
 3.1000e+000 78456 -4.1774e+002 -4.1803e+002  6.3247e+001 62480 78084,78266,78240
 3.1000e+000 78433 -4.6977e+002 -4.1886e+002  1.4804e+002 62480 78110,78214,78136
 3.1000e+000 78410 -4.8922e+002 -4.2337e+002  2.6240e+002 62480 78084,78214,78110
 3.1000e+000 78387 -3.1426e+002 -3.6660e+002  1.8330e+002 62480 78136,78214,78188
 3.1000e+000 78364 -4.3805e+002 -4.7151e+002  4.4376e+001 62480 78058,78266,78084
 3.1000e+000 78341 -2.3976e+002 -2.8748e+002  3.5116e+001 62480 78136,78188,78162
 3.1000e+000 78318 -5.1771e+002 -5.1824e+002  6.9499e+001 62480 78058,78292,78266
 3.1000e+000 78678 -3.1508e+002 -5.4678e+002  2.2192e+002 61926 78528,78606,78554
 3.1000e+000 78655 -1.8650e+002 -5.1154e+002  2.7932e+002 61926 78502,78606,78528
 3.1000e+000 78632 -2.2166e+002 -3.6518e+002  1.6514e+002 61926 78554,78606,78580
 3.1000e+000 79058 -3.3557e+002 -3.0262e+002  1.7060e+002 61614 78836,78914,78862
 3.1000e+000 79035 -4.0381e+002 -3.5086e+002  1.4942e+002 61614 78810,78914,78836
 3.1000e+000 79012 -2.6069e+002 -2.8980e+002  1.4642e+002 61614 78784,78914,78810
 3.1000e+000 78989 -2.9881e+002 -3.5029e+002  2.9463e+002 61614 78862,78914,78888
 3.1000e+000 78966 -2.2946e+002 -3.7899e+002  1.7024e+002 61614 78784,78940,78914
 3.1000e+000 79208 -1.9734e+002 -4.5913e+002  1.0169e+001 61366 79081,79133,79107
 3.1000e+000 79185 -2.2418e+002 -4.0164e+002  1.1787e+002 61366 79081,79159,79133
 3.1000e+000 79358  2.9129e+001  6.3661e+000  2.4331e+001 60962 79231,79283,79257
 3.1000e+000 79335 -1.1665e+002 -2.7430e+002  7.6621e+001 60962 79231,79309,79283
 3.1000e+000 79608 -1.9644e+002 -4.1534e+002  1.3150e+002 60508 79631,79435,79409
 3.1000e+000 79585 -1.2003e+002 -4.1094e+002  9.2953e+001 60508 79703,79631,79409
 3.1000e+000 79562 -1.1173e+002 -2.2781e+002  1.2002e+002 60508 79703,79409,79383
 3.1000e+000 79539 -4.4243e+002 -3.1812e+002  2.5228e+002 60508 79435,79487,79461
 3.1000e+000 79657 -2.2248e+002 -4.8897e+002  2.4591e+002 60508 79487,79435,79631
 3.1000e+000 79680 -9.8953e+001 -3.8217e+002  1.3769e+002 60508 79487,79631,79513
 3.1000e+000 79729 -7.3656e+001 -2.4480e+002  4.7640e+001 60508 79513,79631,79703
 3.1000e+000 79752 -1.2379e+002 -2.2323e+002  2.0992e+001 60508 79513,79703,79383
 3.1000e+000 80390 -2.8425e+002 -2.9853e+002  2.6711e+002 59997 80413,80096,80018
 3.1000e+000 80367 -4.8662e+002 -3.6297e+002  3.0709e+002 59997 80413,80018,80226
 3.1000e+000 80344 -2.2695e+002 -2.3344e+002  1.5816e+002 59997 80096,80174,80148
 3.1000e+000 80321 -8.4048e+002 -5.3356e+002  3.9251e+002 59997 80018,80096,80070
 3.1000e+000 80298 -3.0693e+002 -2.8706e+002  1.3492e+002 59997 80096,80148,80122
 3.1000e+000 80275 -2.2946e+002 -2.6413e+002  2.3244e+002 59997 80174,80226,80200
 3.1000e+000 80252 -6.5100e+002 -3.7424e+002  2.2537e+002 59997 80018,80070,80044
 3.1000e+000 80439 -2.2746e+002 -3.3706e+002  1.9930e+002 59997 80174,80096,80413
 3.1000e+000 80462 -3.1187e+002 -2.9522e+002  2.1988e+002 59997 80174,80413,80226
 3.1000e+000 80840 -3.8038e+002 -3.2885e+002  1.6358e+002 59443 80863,80644,80618
 3.1000e+000 80817 -1.6657e+002 -2.4332e+002  1.9430e+002 59443 80863,80618,80566
 3.1000e+000 80794 -1.5728e+002 -2.1585e+002  2.3240e+002 59443 81007,80935,80670
 3.1000e+000 80771 -2.1147e+002 -2.1667e+002  2.0277e+002 59443 80566,80722,80696
 3.1000e+000 80748 -2.0552e+002 -3.2351e+002  2.1500e+002 59443 80566,80618,80592
 3.1000e+000 80889 -4.2304e+002 -2.9234e+002  2.6087e+002 59443 80935,80644,80863
 3.1000e+000 80912 -2.9513e+002 -2.5516e+002  2.2123e+002 59443 80696,80863,80566
 3.1000e+000 80961 -2.5456e+002 -2.4560e+002  2.6536e+002 59443 80696,80670,80935
 3.1000e+000 80984 -2.4612e+002 -2.1061e+002  2.3998e+002 59443 80696,80935,80863
 3.1000e+000 81033 -3.3221e+002 -3.9234e+002  3.1785e+002 59443 80644,80935,81007
 3.1000e+000 81360 -4.0467e+002 -1.8427e+002  1.7668e+002 59031 81383,81187,81161
 3.1000e+000 81337 -3.0665e+002 -2.1613e+002  4.7379e+001 59031 81455,81383,81161
 3.1000e+000 81314 -2.0051e+002 -1.7647e+002  7.1937e+001 59031 81455,81161,81135
 3.1000e+000 81291 -6.3154e+002 -1.8087e+002  2.8051e+002 59031 81187,81239,81213
 3.1000e+000 81409 -4.4088e+002 -3.5958e+002  2.4723e+002 59031 81239,81187,81383
 3.1000e+000 81432 -4.7798e+002 -2.8778e+002  6.5454e+001 59031 81239,81383,81265
 3.1000e+000 81481 -4.1700e+002 -1.2716e+002  8.3263e+001 59031 81265,81383,81455
 3.1000e+000 81504 -3.6894e+002 -1.3469e+002  8.4151e+001 59031 81265,81455,81135
 3.1000e+000 81835 -5.8434e+001 -1.7182e+002  7.9309e+001 58577 81610,81714,81636
 3.1000e+000 81812 -4.9294e+001 -1.9414e+002  8.5209e+001 58577 81610,81740,81714
 3.1000e+000 81789 -1.5879e+002 -2.1218e+002  1.8358e+001 58577 81636,81714,81688
 3.1000e+000 81766 -1.4290e+002 -2.0389e+002 -5.9690e+001 58577 81636,81688,81662
 3.1000e+000 81985 -7.7060e+001 -1.8468e+002  1.1590e+002 58030 81884,81936,81910
 3.1000e+000 81962 -1.5307e+002 -5.3759e+001  8.0680e+001 58030 81858,81936,81884
 3.1000e+000 82414 -6.4725e+001 -2.0963e+001  8.3429e+001 57690 82437,82169,82117
 3.1000e+000 82391 -9.0374e+001 -1.0471e+002  9.8998e+001 57690 82437,82117,82247
 3.1000e+000 82368  3.4002e+001  5.8980e+001  2.3723e+002 57690 82195,82247,82221
 3.1000e+000 82345 -7.0233e+001 -9.6026e+001  1.0009e+002 57690 82091,82247,82117
 3.1000e+000 82322 -1.1043e+002 -2.7738e+001  5.5815e+001 57690 82117,82169,82143
 3.1000e+000 82299 -7.9905e+001 -1.8248e+002  1.3987e+002 57690 82091,82273,82247
 3.1000e+000 82463 -1.0223e+002  1.2791e+001  1.2270e+002 57690 82195,82169,82437
 3.1000e+000 82486 -1.1390e+002 -4.6296e+001  1.2446e+002 57690 82195,82437,82247
 3.1000e+000 83041 -2.1600e+002 -2.1839e+002  1.6122e+002 57172 83064,82721,82695
 3.1000e+000 83018 -2.4082e+002 -2.3112e+002  2.2880e+002 57172 83064,82695,82851
 3.1000e+000 82995 -6.7451e+002 -3.1689e+002  3.0547e+002 57172 82669,82851,82695
 3.1000e+000 82972 -3.9446e+002 -2.5112e+002  2.2004e+002 57172 82773,82851,82825
 3.1000e+000 82949 -3.6495e+002 -2.6598e+002  2.8869e+002 57172 82773,82825,82799
 3.1000e+000 82926 -2.8693e+002 -2.1101e+002  1.3805e+002 57172 82721,82773,82747
 3.1000e+000 82903 -7.8178e+002 -3.3661e+002  4.6792e+002 57172 82669,82877,82851
 3.1000e+000 83090 -3.2562e+002 -2.6077e+002  1.5512e+002 57172 82773,82721,83064
 3.1000e+000 83113 -2.7701e+002 -2.4337e+002  2.1888e+002 57172 82773,83064,82851
 3.1000e+000 83747 -2.5037e+002 -2.1021e+002  1.4443e+002 56554 83770,83427,83401
 3.1000e+000 83724 -2.5431e+002 -2.5997e+002  1.6709e+002 56554 83842,83770,83401
 3.1000e+000 83701 -1.8055e+001 -2.0093e+002  6.4573e+001 56554 83842,83401,83583
 3.1000e+000 83678 -4.7849e+002 -3.6270e+002  3.5173e+002 56554 83914,83531,83505
 3.1000e+000 83655 -3.1577e+002 -2.4289e+002  1.2978e+002 56554 83531,83583,83557
 3.1000e+000 83632 -8.4098e+001 -1.0166e+002  4.4947e+001 56554 83375,83583,83401
 3.1000e+000 83609 -2.4545e+002 -2.2146e+002  1.5204e+002 56554 83427,83479,83453
 3.1000e+000 83796 -2.3417e+002 -2.1262e+002  1.4378e+002 56554 83479,83427,83770
 3.1000e+000 83819 -2.6844e+002 -1.8850e+002  1.5840e+002 56554 83479,83770,83505
 3.1000e+000 83868 -1.7305e+002 -1.2572e+002  2.1052e+002 56554 83505,83770,83842
 3.1000e+000 83891 -3.1825e+002 -2.3083e+002  2.5637e+002 56554 83914,83505,83842
 3.1000e+000 83940 -2.2963e+002 -3.6008e+002  2.1094e+002 56554 83583,83531,83914
 3.1000e+000 83963 -1.0590e+002 -3.4401e+002  1.6104e+002 56554 83583,83914,83842
 3.1000e+000 84341 -2.6710e+002 -6.3709e+002  2.4849e+002 56192 84067,84145,84119
 3.1000e+000 84318 -1.4959e+002 -4.3935e+002  1.9809e+002 56192 84067,84223,84145
 3.1000e+000 84295 -2.1976e+002 -4.5302e+002  8.5460e+001 56192 84145,84223,84197
 3.1000e+000 84272 -2.0465e+002 -3.7798e+002  2.3121e+002 56192 84067,84119,84093
 3.1000e+000 84249 -2.5070e+002 -1.6625e+002  1.3588e+002 56192 84145,84197,84171
 3.1000e+000 84611 -1.3364e+002 -3.2276e+002  1.7529e+002 55538 84386,84490,84412
 3.1000e+000 84588 -1.3616e+002 -2.8581e+002  1.6735e+002 55538 84386,84516,84490
 3.1000e+000 84565 -2.7867e+002 -3.8586e+002  1.6830e+002 55538 84412,84490,84464
 3.1000e+000 84542 -1.5425e+002 -3.6242e+002  8.8097e+001 55538 84412,84464,84438
 3.1000e+000 84942 -3.4903e+002 -2.5419e+002  2.2095e+002 55084 84769,84847,84795
 3.1000e+000 84919 -2.9268e+002 -2.7347e+002  1.8642e+002 55084 84717,84847,84769
 3.1000e+000 84896 -3.5463e+002 -3.7167e+002  1.5429e+002 55084 84717,84769,84743
 3.1000e+000 84873 -3.8448e+002 -1.5033e+002  1.9129e+002 55084 84795,84847,84821
 3.1000e+000 85271 -5.2711e+001 -8.3133e+001  1.2682e+002 54580 85294,85098,85072
 3.1000e+000 85248 -3.0215e+002 -1.5399e+002  1.7611e+002 54580 85294,85072,85176
 3.1000e+000 85225 -4.1859e+002 -6.9787e+000  5.5470e+001 54580 85124,85176,85150
 3.1000e+000 85202 -8.2741e+001 -1.3358e+002  6.1762e+001 54580 85046,85176,85072
 3.1000e+000 85320 -2.6722e+002 -1.0525e+002  1.4689e+002 54580 85124,85098,85294
 3.1000e+000 85343 -3.9910e+002 -8.3060e+001  1.8262e+002 54580 85124,85294,85176
 3.1000e+000 85542 -2.1489e+002 -3.1425e+002  1.1085e+002 53976 85565,85444,85418
 3.1000e+000 85519 -1.8465e+002 -2.8233e+002  1.2777e+002 53976 85565,85418,85366
 3.1000e+000 85496 -1.5400e+002 -2.4563e+002  9.8805e+001 53976 85366,85418,85392
 3.1000e+000 85591 -3.0393e+002 -3.1929e+002  4.9154e+001 53976 85470,85444,85565
 3.1000e+000 85614 -2.1458e+002 -1.7067e+002  9.0548e+001 53976 85470,85565,85366
 3.1000e+000 85960 -3.4485e+002 -3.9075e+002  1.7556e+002 53572 85663,85715,85689
 3.1000e+000 85937 -3.0354e+002 -3.7353e+002  1.2897e+002 53572 85983,85715,85663
 3.1000e+000 85914 -5.0880e+002 -4.5098e+002  1.6360e+002 53572 86055,85983,85663
 3.1000e+000 85891 -4.5909e+002 -4.3770e+002  2.5343e+002 53572 86055,85663,85637
 3.1000e+000 85868 -7.4217e+002 -8.8778e+002  3.8868e+002 53572 85637,85793,85767
 3.1000e+000 85845 -6.9743e+002 -1.8716e+002  1.6440e+002 53572 85637,85819,85793
 3.1000e+000 86009 -4.8052e+002 -3.0897e+002  1.1332e+002 53572 85741,85715,85983
 3.1000e+000 86032 -6.6831e+002 -3.3575e+002  1.8844e+002 53572 85741,85983,85767
 3.1000e+000 86081 -4.2660e+002 -2.5689e+002  1.7302e+002 53572 85767,85983,86055
 3.1000e+000 86104 -4.2269e+002 -3.4030e+002  2.5472e+002 53572 85767,86055,85637
 3.1000e+000 86693 -5.7813e+002 -5.6139e+001  2.6489e+002 52946 86474,86526,86500
 3.1000e+000 86670 -1.2877e+002 -3.0047e+001  6.3232e+001 52946 86396,86526,86474
 3.1000e+000 86647 -4.3722e+002 -3.5508e+002  1.9394e+002 52946 86370,86526,86396
 3.1000e+000 86624  5.4619e+000  7.1934e+000  8.2394e+000 52946 86422,86474,86448
 3.1000e+000 86601 -1.3629e+002 -2.4000e+001  5.5030e+001 52946 86396,86474,86422
 3.1000e+000 86578 -3.7401e+002 -8.8123e+001  1.5609e+002 52946 86370,86552,86526
 3.1000e+000 87376 -4.0610e+002 -3.4159e+002  1.4860e+002 52420 87007,87085,87033
 3.1000e+000 87353 -2.9148e+002 -2.7428e+002  1.1841e+002 52420 87007,87163,87085
 3.1000e+000 87330 -3.3038e+002 -2.5118e+002  1.4086e+002 52420 87007,87189,87163
 3.1000e+000 87307 -2.9684e+002 -3.4832e+002  1.0871e+002 52420 87033,87085,87059
 3.1000e+000 87284 -3.4128e+002 -3.1188e+002  6.7318e+001 52420 87085,87137,87111
 3.1000e+000 87261 -2.7574e+002 -2.9450e+002  7.7185e+001 52420 87085,87163,87137
 3.1000e+000 87238 -2.7279e+002 -2.6668e+002  2.3554e+002 52420 86955,87189,87007
 3.1000e+000 87215 -1.8664e+002 -2.0083e+002  9.9963e+001 52420 86955,87007,86981
 3.1000e+000 87624 -2.4808e+002 -3.5704e+002  6.9389e+001 51916 87451,87503,87477
 3.1000e+000 87601 -2.5257e+002 -4.4425e+002  6.8176e+001 51916 87425,87503,87451
 3.1000e+000 87578 -2.0269e+002 -4.3708e+002  6.1713e+001 51916 87425,87529,87503
 3.1000e+000 87555 -1.4541e+002 -3.3992e+002  8.6362e+001 51916 87399,87529,87425
 3.1000e+000 88053 -3.0989e+002 -2.6782e+002  8.4260e+001 51568 87782,87834,87808
 3.1000e+000 88030 -3.7576e+002 -2.8854e+002  1.6444e+002 51568 88076,87782,87886
 3.1000e+000 88007 -3.4177e+002 -2.1102e+002  1.4793e+002 51568 88076,87886,87860
 3.1000e+000 87984 -4.2990e+002 -3.7336e+002  1.4005e+002 51568 87756,87886,87782
 3.1000e+000 87961 -3.2031e+002 -2.9970e+002  2.7309e+002 51568 87756,87912,87886
 3.1000e+000 87938 -3.8416e+002 -2.1408e+002  2.4969e+002 51568 87730,87912,87756
 3.1000e+000 88102 -3.3345e+002 -3.2875e+002  1.1531e+002 51568 87834,87782,88076
 3.1000e+000 88125 -3.0582e+002 -2.7748e+002  1.0070e+002 51568 87834,88076,87860
 3.1000e+000 88324 -2.6274e+002 -2.7929e+002  1.1025e+002 51164 88419,88347,88200
 3.1000e+000 88301 -1.7970e+002 -2.5708e+002  1.4295e+002 51164 88347,88148,88252
 3.1000e+000 88278 -3.3847e+002 -4.0758e+002  7.5262e+001 51164 88419,88200,88174
 3.1000e+000 88373 -1.7456e+002 -2.7275e+002  1.2918e+002 51164 88226,88200,88347
 3.1000e+000 88396 -2.7365e+001 -2.6845e+002  1.1458e+002 51164 88226,88347,88252
 3.1000e+000 88445 -2.4229e+002 -2.7323e+002  1.7807e+002 51164 88148,88347,88419
 3.1000e+000 88468 -2.3815e+002 -2.5844e+002  1.5900e+002 51164 88148,88419,88174
 3.1000e+000 88738 -2.3018e+002 -3.3534e+002  8.6935e+001 50560 88513,88617,88539
 3.1000e+000 88715 -1.5591e+002 -3.6505e+002  5.9135e+001 50560 88513,88643,88617
 3.1000e+000 88692 -1.2566e+002 -9.3430e+001  9.7170e+001 50560 88539,88591,88565
 3.1000e+000 88669 -1.0224e+002 -2.4460e+002  1.2774e+002 50560 88539,88617,88591
 3.1000e+000 88939 -3.0817e+002 -1.5126e+002  1.4946e+002 50106 88962,88789,88763
 3.1000e+000 88916 -2.0559e+002 -1.9440e+002  1.1313e+002 50106 88962,88763,88841
 3.1000e+000 88893 -2.8007e+002 -2.4188e+002  1.7191e+002 50106 88763,88867,88841
 3.1000e+000 88988 -2.0744e+002 -1.7954e+002  1.0159e+002 50106 88815,88789,88962
 3.1000e+000 89011 -1.7749e+002 -1.5961e+002  1.2725e+002 50106 89034,88962,88841
 3.1000e+000 89060 -8.8322e+001 -6.7686e+001  2.0593e+001 50106 88815,88962,89034
 3.1000e+000 89472 -1.9038e+002 -3.5336e+002  9.0434e+001 49666 89273,89351,89325
 3.1000e+000 89449 -2.1395e+002 -2.5870e+002  1.2390e+002 49666 89273,89377,89351
 3.1000e+000 89426 -1.9016e+002 -2.8423e+002  2.0593e+002 49666 89273,89325,89299
 3.1000e+000 89403 -2.0867e+002 -1.8178e+002  1.3812e+002 49666 89247,89377,89273
 3.1000e+000 89978 -2.8730e+002 -6.0190e+002 -2.6520e+001 49205 89681,89837,89733
 3.1000e+000 89955 -7.2194e+001 -2.8261e+002  1.4473e+002 49205 89655,89837,89681
 3.1000e+000 89932 -4.3652e+002 -5.7957e+002  1.9360e+002 49205 89785,89837,89811
 3.1000e+000 89909 -1.2766e+002 -4.1193e+002  7.7390e+001 49205 89733,89837,89785
 3.1000e+000 89886 -3.8671e+002 -4.8477e+002  1.6842e+002 49205 89733,89785,89759
 3.1000e+000 89863 -1.2073e+002 -2.8972e+002 -1.7330e+002 49205 89681,89733,89707
 3.1000e+000 90177 -1.8363e+002 -3.5019e+002  1.4485e+002 48865 90530,90200,90053
 3.1000e+000 90154 -1.9057e+002 -3.5278e+002  1.7600e+002 48865 90402,90200,90001
 3.1000e+000 90131 -2.5041e+002 -2.7056e+002  1.4644e+002 48865 90530,90053,90027
 3.1000e+000 90226 -1.9374e+002 -2.9341e+002  2.0370e+002 48865 90079,90053,90200
 3.1000e+000 90249 -1.6660e+002 -3.0033e+002  1.6980e+002 48865 90272,90200,90105
 3.1000e+000 90298 -1.0805e+002 -2.5214e+002  1.9120e+002 48865 90079,90200,90272
 3.1000e+000 90428 -7.8163e+001 -7.9568e+001  1.1384e+002 48865 90105,90200,90402
 3.1000e+000 90556 -2.4094e+002 -4.0383e+002  1.1967e+002 48865 90001,90200,90530
 3.1000e+000 90579 -3.4923e+002 -3.4284e+002  1.1500e+002 48865 90001,90530,90027
 3.1000e+000 90827 -2.6413e+002 -2.6353e+002  1.4958e+002 48404 90850,90654,90628
 3.1000e+000 90804 -2.5368e+002 -2.8683e+002  2.2371e+002 48404 90850,90628,90732
 3.1000e+000 90781 -1.5408e+002 -2.1443e+002  1.3477e+002 48404 90680,90732,90706
 3.1000e+000 90758 -3.6260e+002 -1.6701e+002  2.1998e+002 48404 90602,90732,90628
 3.1000e+000 90876 -2.4463e+002 -1.5483e+002  1.4142e+002 48404 90680,90654,90850
 3.1000e+000 90899 -2.4705e+002 -2.3461e+002  2.0039e+002 48404 90680,90850,90732
 3.1000e+000 91000 -1.8363e+002 -4.2744e+002  2.1175e+001 48156 90922,90974,90948
 3.1000e+000 91250 -1.2196e+002 -2.8406e+002 -9.9997e-001 47752 91051,91103,91077
 3.1000e+000 91227 -2.4740e+002 -4.2777e+002  5.5846e+001 47752 91025,91103,91051
 3.1000e+000 91204 -3.1909e+002 -5.1041e+002  9.0443e+001 47752 91025,91155,91103
 3.1000e+000 91181 -2.9430e+002 -5.1904e+002  1.4711e+002 47752 91103,91155,91129
 3.1000e+000 91402 -2.8249e+002 -3.0448e+002  1.4296e+002 47191 91425,91301,91275
 3.1000e+000 91379 -2.2567e+002 -2.8117e+002  1.8116e+002 47191 91497,91425,91275
 3.1000e+000 91451 -2.6340e+002 -1.8349e+002  1.0755e+002 47191 91327,91301,91425
 3.1000e+000 91474 -2.7192e+002 -3.0759e+002  2.0695e+002 47191 91327,91425,91353
 3.1000e+000 91523 -2.9079e+002 -4.9888e+002  1.9565e+002 47191 91353,91425,91497
 3.1000e+000 91854 -1.7857e+002 -5.1476e+001  6.2437e+001 46744 91949,91877,91707
 3.1000e+000 91831 -1.2297e+002 -3.9793e+002  5.0924e+001 46744 91877,91655,91629
 3.1000e+000 91808 -2.0884e+002 -1.5989e+000  2.4833e+001 46744 91949,91707,91681
 3.1000e+000 91785 -5.4093e+002 -4.9291e+002 -1.5240e+002 46744 91629,91759,91733
 3.1000e+000 91903 -4.2660e+002 -3.3491e+002  1.6723e+002 46744 91733,91707,91877
 3.1000e+000 91926 -1.3689e+002 -5.2352e+002  5.2210e+001 46744 91733,91877,91629
 3.1000e+000 91975 -1.6233e+002 -3.7730e+002  1.7145e+002 46744 91655,91877,91949
 3.1000e+000 91998 -2.7701e+000 -1.9038e+002  7.5463e+001 46744 91655,91949,91681
 3.1000e+000 92378 -1.8679e+002 -6.8405e+001  1.0799e+002 46090 92130,92208,92182
 3.1000e+000 92355 -2.5733e+002 -9.8405e+001  1.0879e+002 46090 92104,92208,92130
 3.1000e+000 92332 -1.2067e+002 -1.9296e+002  1.0411e+002 46090 92104,92260,92208
 3.1000e+000 92309 -9.4178e+001 -7.3605e+001  9.2933e+001 46090 92208,92260,92234
 3.1000e+000 92286 -3.3550e+002 -1.2395e+002  1.3614e+002 46090 92130,92182,92156
 3.1000e+000 92626 -1.7852e+002 -2.4378e+002  9.2940e+001 45693 92721,92649,92505
 3.1000e+000 92603 -2.0216e+002 -2.4284e+002  1.8947e+002 45693 92649,92453,92427
 3.1000e+000 92580 -1.9876e+002 -1.9058e+002  8.7793e+001 45693 92721,92505,92479
 3.1000e+000 92557 -3.6727e+002 -3.4272e+002  2.2737e+002 45693 92401,92531,92427
 3.1000e+000 92675 -2.9303e+002 -2.4193e+002  1.1587e+002 45693 92531,92505,92649
 3.1000e+000 92698 -3.2461e+002 -2.8930e+002  2.4683e+002 45693 92531,92649,92427
 3.1000e+000 92747 -1.8430e+002 -1.8325e+002  9.0779e+001 45693 92453,92649,92721
 3.1000e+000 92770 -1.3570e+002 -2.7775e+001  1.0820e+002 45693 92453,92721,92479
 3.1000e+000 93172 -1.3087e+002 -2.1774e+002  1.9696e+002 45331 92898,93028,92924
 3.1000e+000 93149 -8.4969e+001 -2.0500e+002  1.3537e+002 45331 92898,93054,93028
 3.1000e+000 93126 -1.9027e+002 -1.3263e+002  2.2070e+002 45331 92924,93002,92976
 3.1000e+000 93103 -7.7874e+001 -1.9537e+002  1.9409e+002 45331 92924,93028,93002
 3.1000e+000 93080 -2.0478e+002 -2.2737e+002  2.3112e+002 45331 92924,92976,92950
 3.1000e+000 93518 -4.0824e+002 -4.6274e+002  1.7762e+002 44820 93613,93273,93247
 3.1000e+000 93495 -2.7704e+002 -3.1481e+002  1.4235e+002 44820 93685,93541,93247
 3.1000e+000 93472 -3.0873e+002 -2.2666e+002  1.0177e+002 44820 93541,93195,93377
 3.1000e+000 93449 -2.9369e+002 -2.8819e+002  1.2129e+002 44820 93685,93247,93221
 3.1000e+000 93426 -2.5141e+002 -3.5393e+002  1.9209e+002 44820 93299,93377,93351
 3.1000e+000 93403 -2.3329e+002 -2.0779e+002  2.2331e+002 44820 93299,93351,93325
 3.1000e+000 93567 -2.5191e+002 -4.2624e+002  1.0474e+002 44820 93613,93247,93541
 3.1000e+000 93590 -2.3784e+002 -3.2588e+002  6.6965e+001 44820 93299,93541,93377
 3.1000e+000 93639 -2.4543e+002 -4.8477e+002  1.3214e+002 44820 93299,93273,93613
 3.1000e+000 93662 -2.5927e+002 -4.8381e+002  1.1938e+002 44820 93299,93613,93541
 3.1000e+000 93711 -3.0237e+002 -2.4423e+002  8.9754e+001 44820 93195,93541,93685
 3.1000e+000 93734 -2.5795e+002 -1.1176e+002  7.7017e+001 44820 93195,93685,93221
 3.1000e+000 94163 -2.8066e+002 -3.0792e+002  1.3208e+002 44237 94258,94186,93996
 3.1000e+000 94140 -3.1839e+002 -3.6560e+002  7.6605e+001 44237 94330,94022,93996
 3.1000e+000 94117 -3.3132e+002 -3.1331e+002  1.0067e+002 44237 94186,93918,93866
 3.1000e+000 94094 -2.5078e+002 -2.2959e+002  1.3125e+002 44237 94258,93996,93970
 3.1000e+000 94071 -2.9420e+002 -1.6525e+002  1.1805e+002 44237 94402,93944,93918
 3.1000e+000 94048 -2.1183e+002 -3.0557e+002  1.3008e+002 44237 93866,93918,93892
 3.1000e+000 94212 -3.1945e+002 -3.6987e+002  1.0147e+002 44237 94330,93996,94186
 3.1000e+000 94235 -3.1585e+002 -2.8947e+002  1.1354e+002 44237 93840,94186,93866
 3.1000e+000 94284 -2.9225e+002 -2.3227e+002  8.6083e+001 44237 93918,94186,94258
 3.1000e+000 94307 -2.8105e+002 -1.7577e+002  9.8548e+001 44237 94402,93918,94258
 3.1000e+000 94356 -3.3781e+002 -1.5168e+002  2.0431e+000 44237 93840,94022,94330
 3.1000e+000 94379 -3.0130e+002 -3.2220e+002  1.0936e+002 44237 93840,94330,94186
 3.1000e+000 94428 -3.0267e+002 -2.0838e+002  1.2548e+002 44237 93970,93944,94402
 3.1000e+000 94451 -2.9390e+002 -2.2162e+002  1.0095e+002 44237 93970,94402,94258
 3.1000e+000 94908 -2.9815e+002 -5.0969e+002  3.8724e+001 43890 94660,94790,94712
 3.1000e+000 94885 -1.3996e+002 -1.4003e+002  1.4106e+002 43890 94634,94790,94660
 3.1000e+000 94862 -3.2033e+002 -3.9335e+002  6.3525e+001 43890 94712,94764,94738
 3.1000e+000 94839 -1.8857e+002 -2.7228e+002  1.1743e+002 43890 94712,94790,94764
 3.1000e+000 94816 -3.1238e+002 -3.8020e+002 -1.1942e+002 43890 94660,94712,94686
 3.1000e+000 95414 -2.0072e+002 -1.1776e+002  8.3047e+001 43186 95437,95143,95117
 3.1000e+000 95391 -2.2919e+002 -2.6909e+002  1.0605e+002 43186 95437,95117,95091
 3.1000e+000 95368 -7.0348e+001 -1.0987e+002  9.0326e+001 43186 95143,95221,95195
 3.1000e+000 95345 -3.5822e+002 -2.5980e+002  2.6289e+002 43186 95091,95273,95221
 3.1000e+000 95322 -2.3792e+002 -1.5714e+002  1.2289e+002 43186 95221,95273,95247
 3.1000e+000 95299 -1.4288e+002 -1.4415e+002  1.9583e+001 43186 95143,95195,95169
 3.1000e+000 95463 -1.9677e+002 -2.2003e+002  1.5759e+002 43186 95221,95143,95437
 3.1000e+000 95486 -2.0732e+002 -3.3783e+002  1.8496e+002 43186 95221,95437,95091
 3.1000e+000 96041 -3.3668e+002 -3.1300e+002  9.5462e+001 42782 95695,95851,95799
 3.1000e+000 96018 -2.9986e+002 -3.6670e+002  1.0204e+002 42782 95669,95851,95695
 3.1000e+000 95995 -3.2078e+002 -1.9727e+002  1.0804e+002 42782 95695,95747,95721
 3.1000e+000 95972 -2.3960e+002 -2.7139e+002  9.4939e+001 42782 95695,95799,95747
 3.1000e+000 95949 -2.1838e+002 -1.7359e+002  6.2147e+001 42782 95747,95799,95773
 3.1000e+000 95926 -4.2371e+002 -3.9218e+002  1.5380e+002 42782 95799,95851,95825
 3.1000e+000 95903 -4.1909e+002 -4.2171e+002  1.1546e+002 42782 95669,95877,95851
 3.1000e+000 96370 -3.1060e+002 -3.9977e+002  2.4169e+002 42420 96197,96275,96223
 3.1000e+000 96347 -3.2105e+002 -3.5428e+002  2.1115e+002 42420 96145,96275,96197
 3.1000e+000 96324 -2.8433e+002 -2.1851e+002  1.9190e+002 42420 96145,96197,96171
 3.1000e+000 96301 -1.7699e+002 -3.1824e+002  1.1945e+002 42420 96223,96275,96249
 3.1000e+000 96699 -2.0231e+002 -5.8666e+002 -3.9708e+001 41816 96474,96578,96526
 3.1000e+000 96676 -2.0990e+002 -5.1320e+002 -1.3903e+002 41816 96474,96604,96578
 3.1000e+000 96653 -1.0605e+002 -1.8694e+002  9.3234e+001 41816 96526,96578,96552
 3.1000e+000 96630 -1.8173e+002 -3.2022e+002  7.1278e+001 41816 96474,96526,96500
 3.1000e+000 96947 -1.4365e+002 -3.3488e+002 -6.9404e+000 41212 96722,96800,96748
 3.1000e+000 96924 -1.6611e+002 -4.1745e+002  3.0590e+000 41212 96722,96826,96800
 3.1000e+000 96901 -4.0756e+002 -5.5247e+002  6.1733e+001 41212 96722,96852,96826
 3.1000e+000 96878 -4.0281e+000 -2.6749e+002  2.1911e+001 41212 96748,96800,96774
 3.1000e+000 97097 -1.5942e+002 -6.4076e+001  1.5333e+002 40793 97120,97022,96996
 3.1000e+000 97074 -2.9851e+002 -3.3585e+002  9.7412e+001 40793 97192,97120,96996
 3.1000e+000 97146 -1.1766e+002 -2.8170e+002  1.3964e+002 40793 97324,97120,97048
 3.1000e+000 97169 -1.0516e+002 -4.4262e+002  1.3636e+002 40793 97048,97120,96970
 3.1000e+000 97218 -4.8180e+001 -2.2885e+002  1.0101e+002 40793 96970,97120,97192
 3.1000e+000 97350 -1.1766e+002 -2.8170e+002  1.3964e+002 40793 97022,97120,97324
 3.1000e+000 97878 -1.7524e+002 -3.5835e+002  8.1991e+001 40446 97901,97607,97555
 3.1000e+000 97855 -1.7629e+002 -2.4864e+002  8.4720e+001 40446 97973,97901,97555
 3.1000e+000 97832 -1.1685e+002 -2.0880e+002  6.6157e+001 40446 97973,97555,97737
 3.1000e+000 97809 -2.5553e+002 -3.4084e+002  1.1484e+002 40446 97633,97685,97659
 3.1000e+000 97786 -1.8208e+002 -2.8885e+002  9.1508e+001 40446 97633,97711,97685
 3.1000e+000 97763 -1.6963e+002 -4.0279e+002  9.9269e+001 40446 97555,97607,97581
 3.1000e+000 97927 -1.9667e+002 -4.4936e+002 -9.4141e+000 40446 97633,97607,97901
 3.1000e+000 97950 -1.7483e+002 -3.4738e+002  7.5287e+001 40446 97633,97901,97711
 3.1000e+000 97999 -9.3971e+001 -3.2783e+002  1.1704e+002 40446 97711,97901,97973
 3.1000e+000 98022 -4.5331e+001 -2.8354e+002  9.8596e+001 40446 97711,97973,97737
 3.1000e+000 98449 -9.7820e+001 -1.2168e+002  7.0227e+001 39935 98152,98204,98178
 3.1000e+000 98426 -1.2720e+002 -1.5406e+002  5.6961e+001 39935 98152,98230,98204
 3.1000e+000 98403 -2.2275e+002 -1.5836e+002  1.4464e+002 39935 98152,98256,98230
 3.1000e+000 98380 -1.9764e+002 -1.6925e+002  1.4826e+002 39935 98126,98256,98152
 3.1000e+000 98357 -2.7747e+002 -3.7668e+002  1.5842e+002 39935 98126,98282,98256
 3.1000e+000 98334 -1.5121e+002 -4.7615e+002  1.9188e+002 39935 98126,98308,98282
 3.1000e+000 98746 -4.8365e+002 -3.6414e+002  1.3305e+002 39531 98498,98602,98524
 3.1000e+000 98723 -2.8042e+002 -3.5272e+002  1.0803e+002 39531 98472,98602,98498
 3.1000e+000 98700 -5.0267e+002 -2.2309e+002  7.6310e+001 39531 98524,98602,98576
 3.1000e+000 98677 -2.4721e+002 -3.2480e+002  9.5247e+001 39531 98472,98628,98602
 3.1000e+000 98654 -7.3870e+002 -2.5160e+002  9.1971e+001 39531 98524,98576,98550
 3.1000e+000 99224 -3.8311e+002 -2.5190e+002  1.8795e+002 39027 99247,98956,98930
 3.1000e+000 99201 -3.5241e+002 -2.6258e+002  8.8254e+001 39027 99247,98930,98878
 3.1000e+000 99178 -3.0509e+002 -2.7134e+002  1.3185e+002 39027 99319,98982,98956
 3.1000e+000 99155 -3.2122e+002 -1.3695e+002  9.5766e+001 39027 98852,99060,98878
 3.1000e+000 99132 -4.2825e+002 -2.0982e+002  5.3704e+001 39027 98878,98930,98904
 3.1000e+000 99109 -2.0198e+002 -3.2722e+002  1.4928e+002 39027 98982,99060,99034
 3.1000e+000 99086 -3.3954e+002 -4.8488e+002  3.2107e+002 39027 98982,99034,99008
 3.1000e+000 99273 -2.9655e+002 -2.5063e+002  1.3155e+002 39027 99319,98956,99247
 3.1000e+000 99296 -2.9868e+002 -2.4138e+002  8.2205e+001 39027 99060,99247,98878
 3.1000e+000 99345 -2.9779e+002 -2.8112e+002  1.1985e+002 39027 99060,98982,99319
 3.1000e+000 99368 -2.9538e+002 -2.7549e+002  1.1946e+002 39027 99060,99319,99247
 3.1000e+000 99923 -2.9690e+002 -2.6632e+002  1.5239e+002 38523 99946,99655,99603
 3.1000e+000 99900 -2.6024e+002 -2.4763e+002  1.6070e+002 38523 99946,99603,99759
 3.1000e+000 99877 -1.7364e+002 -3.4919e+002  1.8170e+002 38523 100018,99707,99681
 3.1000e+000 99854 -2.7541e+002 -1.6930e+002  1.5259e+002 38523 99551,99759,99603
 3.1000e+000 99831 -2.5398e+002 -1.5928e+002  1.3214e+002 38523 99551,99603,99577
 3.1000e+000 99808 -2.8199e+002 -4.4402e+002  1.2808e+002 38523 99707,99759,99733
 3.1000e+000 99785 -2.2536e+002 -2.3027e+002  1.3326e+002 38523 99603,99655,99629
 3.1000e+000 99972 -2.4059e+002 -1.3218e+002  1.5373e+002 38523 99681,99655,99946
 3.1000e+000 99995 -1.9890e+002 -1.9757e+002  2.0583e+002 38523 100018,99681,99946
 3.1000e+000 100044 -2.1612e+002 -4.0784e+002  1.1342e+002 38523 99759,99707,100018
 3.1000e+000 100067 -2.9508e+002 -3.5044e+002  1.4116e+002 38523 99759,100018,99946
 3.1000e+000 100467 -7.7911e+001 -1.7911e+002  3.7198e+001 38125 100219,100349,100323
 3.1000e+000 100444 -9.2451e+001 -2.1544e+002  3.3200e+001 38125 100193,100349,100219
 3.1000e+000 100421 -7.5900e+001 -1.3157e+002  3.6323e+001 38125 100245,100323,100297
 3.1000e+000 100398 -7.6846e+001 -1.7955e+002  3.2370e+001 38125 100219,100323,100245
 3.1000e+000 100375 -9.2637e+001 -1.4789e+002  1.6473e+001 38125 100245,100297,100271
 3.1000e+000 100666 -3.2574e+002 -5.2304e+002  1.3928e+002 37607 100689,100568,100542
 3.1000e+000 100643 -2.5047e+002 -2.7662e+002  1.0363e+002 37607 100689,100542,100490
 3.1000e+000 100620 -1.2542e+002 -2.4955e+002  4.2794e+001 37607 100490,100542,100516
 3.1000e+000 100715 -2.2124e+002 -2.8970e+002  8.3710e+001 37607 100594,100568,100689
 3.1000e+000 100738 -2.8799e+002 -2.2300e+002  8.0065e+001 37607 100594,100689,100490
 3.1000e+000 100937 -1.6373e+002 -2.0019e+002  1.2086e+002 37017 100960,100813,100787
 3.1000e+000 100914 -8.4404e+001 -1.9258e+002  6.2550e+001 37017 100960,100787,100761
 3.1000e+000 100891 -3.2540e+002 -1.2226e+002  1.6355e+002 37017 100813,100865,100839
 3.1000e+000 100986 -2.6209e+002 -2.6226e+002  2.0646e+002 37017 100865,100813,100960
 3.1000e+000 101009 -1.1113e+002 -2.0882e+002  1.4468e+002 37017 100865,100960,100761
 3.1000e+000 101519 -2.2433e+002 -1.1142e+002  1.0937e+001 36613 101222,101274,101248
 3.1000e+000 101496 -1.6611e+002 -1.5298e+002  6.0115e+001 36613 101222,101352,101274
 3.1000e+000 101473 -7.2456e+001 -2.8932e+002 -6.8732e+001 36613 101274,101352,101326
 3.1000e+000 101450 -2.0667e+002 -2.2400e+002  3.0466e+001 36613 101222,101378,101352
 3.1000e+000 101427 -4.8001e+001 -4.4212e+002 -3.5212e+001 36613 101274,101326,101300
 3.1000e+000 101404 -1.9235e+002 -2.3923e+002  1.1634e+002 36613 101196,101378,101222
 3.1000e+000 101718 -1.9212e+002 -1.4847e+002  1.7319e+002 36308 101594,101646,101620
 3.1000e+000 101695 -1.9640e+002 -1.2717e+002  1.4285e+002 36308 101568,101646,101594
 3.1000e+000 101672 -1.5931e+002 -1.3994e+002  1.4972e+002 36308 101542,101646,101568
 3.1000e+000 102098 -1.9598e+002 -2.0713e+002  1.0809e+002 35918 102121,101954,101876
 3.1000e+000 102075 -1.6167e+002 -2.4826e+002  9.0531e+001 35918 102121,101876,101824
 3.1000e+000 102052 -1.8426e+002 -2.0381e+002  8.8842e+001 35918 101876,101954,101928
 3.1000e+000 102029 -3.4247e+002 -1.0435e+002  1.1589e+002 35918 101876,101928,101902
 3.1000e+000 102006 -1.4372e+002 -2.1469e+002  1.1608e+002 35918 101824,101876,101850
 3.1000e+000 102147 -2.0364e+002 -2.4481e+002  1.2755e+002 35918 101980,101954,102121
 3.1000e+000 102170 -1.7097e+002 -2.9059e+002  1.0564e+002 35918 101980,102121,101824
 3.1000e+000 102489 -2.6544e+002 -6.0120e+002  2.0380e+002 35514 102241,102345,102267
 3.1000e+000 102466 -3.4935e+002 -6.2461e+002  2.0179e+002 35514 102215,102345,102241
 3.1000e+000 102443 -2.8472e+002 -6.8145e+002  2.1466e+002 35514 102215,102371,102345
 3.1000e+000 102420 -2.2059e+002 -5.1961e+002  2.2796e+002 35514 102267,102345,102293
 3.1000e+000 102397 -1.3319e+002 -3.3504e+002  2.5510e+002 35514 102293,102345,102319
 3.1000e+000 102820 -4.5514e+002 -2.7170e+002  3.7449e+001 35224 102843,102699,102647
 3.1000e+000 102797 -3.4305e+002 -2.3313e+002  8.2637e+001 35224 102971,102725,102699
 3.1000e+000 102774 -3.8298e+002 -2.2501e+002  1.7507e+002 35224 102595,102725,102621
 3.1000e+000 102751 -1.3662e+002 -2.3247e+002  1.1009e+002 35224 102647,102699,102673
 3.1000e+000 102869 -3.2791e+002 -2.1305e+002  7.4212e+001 35224 102971,102699,102843
 3.1000e+000 102997 -3.1882e+002 -2.5308e+002  8.1357e+001 35224 102621,102725,102971
 3.1000e+000 103020 -3.0663e+002 -2.3885e+002  7.2712e+001 35224 102621,102971,102843
 3.1000e+000 103349 -3.2882e+002 -2.7382e+002  1.6409e+002 34820 103150,103228,103176
 3.1000e+000 103326 -3.0177e+002 -2.7753e+002  1.6578e+002 34820 103124,103228,103150
 3.1000e+000 103303 -2.6103e+002 -2.7233e+002  2.6913e+002 34820 103176,103228,103202
 3.1000e+000 103280 -2.0469e+002 -2.3323e+002  1.9286e+002 34820 103124,103254,103228
 3.1000e+000 103806 -1.8889e+002 -2.1191e+002  5.8245e+001 34530 103558,103662,103636
 3.1000e+000 103783 -2.0746e+002 -1.8660e+002  9.7388e+001 34530 103558,103688,103662
 3.1000e+000 103760 -2.2335e+002 -1.9566e+002  7.8658e+001 34530 103532,103688,103558
 3.1000e+000 103737 -9.7013e+001 -2.3875e+002  3.7165e+001 34530 103584,103636,103610
 3.1000e+000 103714 -3.3488e+002 -2.2347e+002  5.3846e+001 34530 103558,103636,103584
 3.1000e+000 104263 -1.6799e+002 -1.7633e+002  1.3195e+002 34019 103989,104119,104015
 3.1000e+000 104240 -1.3172e+002 -1.5981e+002  1.3615e+002 34019 103989,104145,104119
 3.1000e+000 104217 -1.6969e+002 -2.2928e+002  9.2068e+001 34019 104015,104067,104041
 3.1000e+000 104194 -1.8789e+002 -2.4055e+002  1.1678e+002 34019 104015,104119,104067
 3.1000e+000 104171 -1.9452e+002 -1.6319e+002  1.1232e+002 34019 104067,104119,104093
 3.1000e+000 104641 -2.1395e+002 -2.3657e+002  9.5732e+001 33351 104419,104497,104445
 3.1000e+000 104618 -1.8634e+002 -1.7589e+002  1.3245e+002 33351 104393,104497,104419
 3.1000e+000 104595 -3.3445e+002 -2.4993e+002  8.6927e+001 33351 104367,104497,104393
 3.1000e+000 104572 -1.9713e+002 -1.9594e+002  8.4886e+001 33351 104445,104497,104471
 3.1000e+000 104549 -2.3047e+002 -1.4072e+002  3.3820e+001 33351 104367,104523,104497
 3.1000e+000 105019 -2.3035e+002 -4.6450e+002  2.6244e+002 32861 104823,104901,104875
 3.1000e+000 104996 -3.1665e+002 -5.3288e+002  2.2209e+002 32861 104745,104901,104823
 3.1000e+000 104973 -3.3884e+002 -5.1236e+002  2.4622e+002 32861 104823,104875,104849
 3.1000e+000 104950 -3.1182e+002 -5.0139e+002  2.7673e+002 32861 104745,104823,104797
 3.1000e+000 104927 -3.7279e+002 -2.0101e+002  2.7314e+002 32861 104745,104797,104771
 3.1000e+000 105397 -1.2613e+002 -2.9899e+002  1.2696e+002 32457 105149,105253,105175
 3.1000e+000 105374 -1.9038e+002 -2.7152e+002  1.1060e+002 32457 105149,105279,105253
 3.1000e+000 105351 -1.0896e+002 -2.3144e+002  1.2625e+002 32457 105123,105279,105149
 3.1000e+000 105328 -2.2053e+002 -7.3887e+001  1.8890e+002 32457 105175,105227,105201
 3.1000e+000 105305 -2.5648e+002 -3.5503e+002  1.2350e+002 32457 105175,105253,105227
 3.1000e+000 105726 -1.0900e+002 -3.2827e+002  1.4453e+002 32003 105527,105605,105553
 3.1000e+000 105703 -1.7612e+002 -2.7290e+002  1.3674e+002 32003 105501,105605,105527
 3.1000e+000 105680 -9.4693e+001 -2.3898e+002  1.3360e+002 32003 105501,105631,105605
 3.1000e+000 105657 -6.1076e+001 -2.0560e+002  1.3509e+002 32003 105553,105605,105579
 3.1000e+000 106104 -1.6350e+002 -3.0271e+002  6.6112e+001 31492 106127,105908,105856
 3.1000e+000 106081 -1.7425e+002 -3.0767e+002  7.4222e+001 31492 106127,105856,105830
 3.1000e+000 106058 -1.9703e+002 -3.3525e+002  7.9622e+001 31492 105856,105908,105882
 3.1000e+000 106035 -7.4471e+001 -2.1909e+002  2.8372e+001 31492 105830,105986,105960
 3.1000e+000 106012 -7.6315e+001 -2.8508e+002  1.0400e+002 31492 105908,105960,105934
 3.1000e+000 106153 -1.5889e+002 -2.9950e+002  6.1925e+001 31492 105960,105908,106127
 3.1000e+000 106176 -1.6406e+002 -2.9748e+002  6.8819e+001 31492 105960,106127,105830
 3.1000e+000 106375 -2.3133e+002 -2.4390e+002  1.5939e+002 30788 106398,106277,106251
 3.1000e+000 106352 -2.2194e+002 -3.3603e+002  1.8596e+002 30788 106398,106251,106225
 3.1000e+000 106329 -3.5842e+002 -2.9670e+002  2.3965e+002 30788 106600,106199,106303
 3.1000e+000 106424 -3.5825e+002 -3.8626e+002  1.1296e+002 30788 106470,106398,106303
 3.1000e+000 106447 -2.4910e+002 -3.3180e+002  1.7542e+002 30788 106600,106303,106398
 3.1000e+000 106496 -8.8562e+001 -2.7079e+002  1.3107e+002 30788 106277,106398,106470
 3.1000e+000 106626 -4.2066e+002 -3.7222e+002  2.9389e+002 30788 106225,106199,106600
 3.1000e+000 106649 -3.4891e+002 -4.1528e+002  2.2781e+002 30788 106225,106600,106398
 3.1000e+000 106799 -6.6355e+001 -3.2918e+002 -6.0249e+000 30426 106698,106750,106724
 3.1000e+000 106776 -1.2323e+002 -2.8752e+002 -2.5747e+001 30426 106672,106750,106698
 3.1000e+000 107356 -1.6852e+002 -2.5434e+002  1.4314e+002 29972 107010,107166,107114
 3.1000e+000 107333 -2.5321e+002 -2.7186e+002  1.5856e+002 29972 106984,107166,107010
 3.1000e+000 107310 -2.8359e+002 -1.8145e+002  1.0877e+002 29972 107010,107114,107088
 3.1000e+000 107287 -1.9540e+002 -1.5279e+002  6.1167e+001 29972 107114,107166,107140
 3.1000e+000 107264 -2.4219e+002 -2.4036e+002  1.4038e+002 29972 106984,107192,107166
 3.1000e+000 107241 -4.0155e+002 -4.0333e+002  1.5250e+002 29972 107010,107088,107036
 3.1000e+000 107218 -2.6671e+002 -3.4055e+002  1.1320e+002 29972 107036,107088,107062
 3.1000e+000 107783 -2.9750e+002 -3.8755e+002  2.0705e+002 29724 107878,107806,107590
 3.1000e+000 107760 -4.0344e+002 -4.2641e+002  1.8494e+002 29724 107806,107512,107486
 3.1000e+000 107737 -2.9819e+002 -3.7733e+002  2.1830e+002 29724 107878,107590,107538
 3.1000e+000 107714 -3.0640e+002 -4.4605e+002  2.3263e+002 29724 107950,107460,107616
 3.1000e+000 107691 -2.8822e+002 -4.3581e+002  2.2359e+002 29724 107460,107642,107616
 3.1000e+000 107668 -2.2187e+002 -2.8592e+002  2.5311e+002 29724 107538,107590,107564
 3.1000e+000 107832 -2.2318e+002 -3.9483e+002  2.5490e+002 29724 107616,107590,107806
 3.1000e+000 107855 -3.1142e+002 -4.4977e+002  2.2794e+002 29724 107950,107616,107806
 3.1000e+000 107904 -3.0478e+002 -3.6929e+002  2.2615e+002 29724 107512,107806,107878
 3.1000e+000 107927 -2.7147e+002 -3.4004e+002  2.4376e+002 29724 107512,107878,107538
 3.1000e+000 107976 -1.8124e+002 -4.4104e+002  2.5266e+002 29724 107486,107460,107950
 3.1000e+000 107999 -2.9480e+002 -4.7795e+002  2.2153e+002 29724 107486,107950,107806
 3.1000e+000 108296 -3.3678e+002 -2.4744e+002  1.7173e+002 29206 108319,108100,108048
 3.1000e+000 108273 -1.8356e+002 -2.1508e+002  2.1537e+002 29206 108319,108048,108022
 3.1000e+000 108250 -1.0121e+002 -2.6269e+002  2.6787e+002 29206 108391,108152,108126
 3.1000e+000 108227 -3.8816e+002 -1.7190e+002  2.0399e+002 29206 108048,108100,108074
 3.1000e+000 108204 -1.4430e+002 -3.6217e+002  2.3370e+002 29206 108022,108178,108152
 3.1000e+000 108345 -2.4556e+002 -1.2874e+002  2.5744e+002 29206 108126,108100,108319
 3.1000e+000 108368 -1.3539e+002 -2.0776e+002  2.9718e+002 29206 108391,108126,108319
 3.1000e+000 108417 -1.8181e+002 -3.2794e+002  2.3291e+002 29206 108022,108152,108391
 3.1000e+000 108440 -2.0844e+002 -2.8561e+002  2.6415e+002 29206 108022,108391,108319
 3.1000e+000 108688 -3.0261e+002 -3.4415e+002  2.3020e+002 28595 108711,108541,108515
 3.1000e+000 108665 -4.5286e+002 -3.8180e+002  2.8775e+002 28595 108783,108711,108515
 3.1000e+000 108642 -5.4932e+002 -3.2926e+002  2.8606e+002 28595 108783,108515,108489
 3.1000e+000 108619 -4.4937e+002 -3.8329e+002  1.2015e+002 28595 108463,108593,108489
 3.1000e+000 108737 -2.8227e+002 -3.0504e+002  1.7264e+002 28595 108567,108541,108711
 3.1000e+000 108760 -2.3866e+002 -3.2041e+002  2.5601e+002 28595 108567,108711,108593
 3.1000e+000 108809 -2.8543e+002 -3.8226e+002  2.2230e+002 28595 108593,108711,108783
 3.1000e+000 108832 -4.3329e+002 -3.5899e+002  1.9598e+002 28595 108593,108783,108489
 3.1000e+000 109033 -1.0677e+002 -1.1688e+002  6.6640e+001 28091 108909,108961,108935
 3.1000e+000 109010 -1.0151e+002 -1.4373e+002  6.4131e+001 28091 108857,108961,108909
 3.1000e+000 108987 -2.1464e+002 -2.3659e+002  1.9167e+002 28091 108857,108909,108883
 3.1000e+000 109136 -2.5763e+002 -6.0581e+002  1.1272e+002 27587 109058,109110,109084
 3.1000e+000 109695 -2.6009e+002 -2.6684e+002  1.1393e+002 26969 109718,109375,109323
 3.1000e+000 109672 -2.5128e+002 -2.8108e+002  8.6929e+001 26969 109718,109323,109505
 3.1000e+000 109649 -2.4562e+002 -1.2710e+002  6.7306e+001 26969 109790,109453,109427
 3.1000e+000 109626 -1.4409e+002 -2.1543e+002  1.5021e+002 26969 109323,109375,109349
 3.1000e+000 109603 -2.3452e+002 -2.6076e+002  7.5475e+001 26969 109323,109531,109505
 3.1000e+000 109580 -2.0882e+002 -3.2792e+002  9.9310e+001 26969 109375,109427,109401
 3.1000e+000 109557 -2.7350e+002 -2.6882e+002  1.3229e+002 26969 109453,109505,109479
 3.1000e+000 109744 -2.5964e+002 -2.8618e+002  7.3781e+001 26969 109427,109375,109718
 3.1000e+000 109767 -2.2390e+002 -1.8735e+002  5.8109e+001 26969 109790,109427,109718
 3.1000e+000 109816 -2.3451e+002 -1.9468e+002  9.8327e+001 26969 109505,109453,109790
 3.1000e+000 109839 -2.2088e+002 -2.5923e+002  9.7752e+001 26969 109505,109790,109718
 3.1000e+000 110266 -1.6696e+002 -3.2518e+002  3.7262e+001 26515 110361,110289,110099
 3.1000e+000 110243 -1.5298e+002 -2.2033e+002  5.8258e+001 26515 110289,109995,109943
 3.1000e+000 110220 -2.2343e+002 -3.5067e+002  4.4111e+001 26515 110361,110099,110021
 3.1000e+000 110197 -1.7803e+002 -5.5087e+002  6.2131e+001 26515 110047,110099,110073
 3.1000e+000 110174 -1.7407e+002 -5.3392e+002 -4.3595e+001 26515 110021,110099,110047
 3.1000e+000 110151 -5.8795e+001 -1.3991e+002  1.0737e+002 26515 109943,109995,109969
 3.1000e+000 110315 -1.8102e+002 -1.8620e+002 -1.3970e+001 26515 110125,110099,110289
 3.1000e+000 110338 -2.0009e+002 -5.8916e+001  1.0838e+002 26515 110125,110289,109943
 3.1000e+000 110387 -2.0915e+002 -2.8630e+002 -3.1902e+001 26515 109995,110289,110361
 3.1000e+000 110410 -2.5967e+002 -3.1343e+002 -2.1732e+001 26515 109995,110361,110021
 3.1000e+000 110609 -6.5270e+001 -3.5990e+002  1.4207e+002 25789 110906,110762,110632
 3.1000e+000 110586 -7.7282e+001 -4.4145e+002  1.5862e+002 25789 110762,110433,110537
 3.1000e+000 110563 -2.2420e+002 -4.0513e+002  2.3685e+002 25789 110834,110459,110433
 3.1000e+000 110658 -1.1768e+002 -3.4407e+002  1.7805e+002 25789 110906,110632,110834
 3.1000e+000 110788 -3.7917e+001 -2.4163e+002  8.7025e+001 25789 110511,110632,110762
 3.1000e+000 110811 -8.1867e+001 -3.5857e+002  1.5312e+002 25789 110511,110762,110537
 3.1000e+000 110860 -1.3816e+002 -3.5149e+002  1.9565e+002 25789 110485,110459,110834
 3.1000e+000 110883 -1.5934e+002 -3.2194e+002  1.6887e+002 25789 110485,110834,110632
 3.1000e+000 110932 -1.6848e+002 -3.9331e+002  1.4614e+002 25789 110433,110762,110906
 3.1000e+000 110955 -2.1040e+002 -3.6649e+002  1.7472e+002 25789 110433,110906,110834
 3.1000e+000 111350 -2.2764e+002 -3.0586e+002  2.1325e+002 25228 111445,111373,111186
 3.1000e+000 111327 -2.2612e+002 -3.2633e+002  4.6346e+001 25228 110978,111186,111004
 3.1000e+000 111304 -2.2461e+002 -3.9956e+002  2.0120e+002 25228 111373,111108,111082
 3.1000e+000 111281 -2.1505e+002 -3.9552e+002  1.4817e+002 25228 111134,111186,111160
 3.1000e+000 111258 -2.3313e+002 -2.8137e+002  1.7710e+002 25228 111445,111186,111134
 3.1000e+000 111235 -1.8199e+002 -2.1303e+002  1.1983e+002 25228 111517,111030,111004
 3.1000e+000 111212 -2.6753e+002 -2.8596e+002  1.8130e+002 25228 111030,111082,111056
 3.1000e+000 111399 -2.2766e+002 -3.5840e+002  2.0562e+002 25228 111004,111186,111373
 3.1000e+000 111422 -1.5443e+002 -2.6197e+002  1.6760e+002 25228 111517,111004,111373
 3.1000e+000 111471 -1.7733e+002 -2.7619e+002  1.8724e+002 25228 111108,111373,111445
 3.1000e+000 111494 -1.8281e+002 -2.4891e+002  1.5092e+002 25228 111108,111445,111134
 3.1000e+000 111543 -2.5183e+002 -2.3369e+002  1.7827e+002 25228 111082,111030,111517
 3.1000e+000 111566 -2.2987e+002 -3.0411e+002  2.2649e+002 25228 111082,111517,111373
 3.1000e+000 112074 -1.5365e+002 -2.0495e+002  1.1093e+002 24338 112097,111907,111881
 3.1000e+000 112051 -1.8996e+002 -1.8735e+002  5.3673e+001 24338 112097,111881,111829
 3.1000e+000 112028 -7.2427e+001 -1.9377e+002  4.5760e+001 24338 111829,111881,111855
 3.1000e+000 112005 -2.0374e+002 -3.0019e+002  9.2788e+001 24338 111777,111933,111829
 3.1000e+000 111982 -2.9782e+002 -1.3121e+002  9.4280e+001 24338 111751,111933,111777
 3.1000e+000 111959 -2.4821e+002 -3.6415e+002  1.2539e+002 24338 111777,111829,111803
 3.1000e+000 112123 -2.0917e+002 -3.8135e+002  1.2146e+002 24338 111933,111907,112097
 3.1000e+000 112146 -1.7205e+002 -2.3747e+002  7.3229e+001 24338 111933,112097,111829
 3.1000e+000 112443 -3.2117e+002 -2.2013e+002  1.4254e+002 23998 112466,112299,112247
 3.1000e+000 112420 -3.5887e+002 -3.8841e+002  1.3945e+002 23998 112466,112247,112221
 3.1000e+000 112397 -2.6560e+002 -4.5185e+002  2.2593e+002 23998 112169,112325,112221
 3.1000e+000 112374 -2.2994e+002 -4.4745e+002  2.5667e+002 23998 112169,112221,112195
 3.1000e+000 112351 -1.5587e+002 -1.9814e+002  1.7174e+002 23998 112247,112299,112273
 3.1000e+000 112492 -3.2177e+002 -2.4589e+002  2.4293e+002 23998 112325,112299,112466
 3.1000e+000 112515 -3.5473e+002 -3.3864e+002  2.1793e+002 23998 112325,112466,112221
 3.1000e+000 113200 -3.5283e+002 -4.0832e+002  2.9375e+002 23480 112779,112961,112805
 3.1000e+000 113177 -3.6733e+002 -3.0459e+002  1.3733e+002 23480 112779,112987,112961
 3.1000e+000 113154 -1.0085e+002 -1.9955e+002  1.9478e+002 23480 112805,112961,112883
 3.1000e+000 113131 -1.9965e+002 -3.4516e+002  2.0346e+002 23480 112883,112935,112909
 3.1000e+000 113108 -2.7832e+002 -2.7251e+002  2.0654e+002 23480 112883,112961,112935
 3.1000e+000 113085 -6.6702e+001 -1.5586e+002  9.6461e+001 23480 112831,112883,112857
 3.1000e+000 113062 -1.7309e+002 -2.2089e+002  1.4088e+002 23480 112805,112883,112831
 3.1000e+000 113039 -4.2512e+002 -2.4182e+002  1.4840e+002 23480 112779,113013,112987
 3.1000e+000 113676 -3.3792e+002 -1.5184e+002  2.7260e+002 23018 113699,113434,113356
 3.1000e+000 113653 -2.9523e+002 -1.5264e+002  1.4498e+002 23018 113771,113699,113356
 3.1000e+000 113630 -2.5960e+002 -2.5825e+002  1.0129e+002 23018 113771,113356,113512
 3.1000e+000 113607 -1.9226e+002 -3.4514e+002  1.6381e+002 23018 113330,113512,113356
 3.1000e+000 113584 -6.9787e+002 -3.1880e+002  4.0148e+002 23018 113356,113434,113382
 3.1000e+000 113561 -8.2936e+001 -3.2411e+002  1.6418e+002 23018 113304,113512,113330
 3.1000e+000 113538 -6.3039e+002 -3.7515e+001  1.5657e+002 23018 113382,113434,113408
 3.1000e+000 113725 -3.8441e+002 -2.5969e+002  2.6928e+002 23018 113460,113434,113699
 3.1000e+000 113748 -4.3162e+002 -2.9537e+002  1.6841e+002 23018 113460,113699,113486
 3.1000e+000 113797 -3.8690e+002 -3.0580e+002  1.8310e+002 23018 113486,113699,113771
 3.1000e+000 113820 -2.9738e+002 -3.2969e+002  1.1640e+002 23018 113486,113771,113512
 3.1000e+000 114424 -1.5945e+002 -2.4869e+002  6.2035e+001 22514 114447,114133,114029
 3.1000e+000 114401 -1.5616e+002 -2.8793e+002  6.0545e+001 22514 114447,114029,114237
 3.1000e+000 114378 -7.2887e+001 -2.0275e+002  9.7215e+001 22514 114133,114211,114185
 3.1000e+000 114355 -9.7067e+001 -1.9313e+002  7.9994e+001 22514 114133,114185,114159
 3.1000e+000 114332 -1.1110e+002 -2.9828e+002  1.3265e+002 22514 114003,114237,114029
 3.1000e+000 114309 -1.6667e+002 -1.9121e+002  4.0264e+001 22514 114029,114133,114055
 3.1000e+000 114286 -2.0666e+002 -1.6318e+002  5.4725e+001 22514 114055,114133,114107
 3.1000e+000 114263 -1.9059e+002 -1.7438e+001  6.4886e+001 22514 114055,114107,114081
 3.1000e+000 114473 -1.6400e+002 -2.2636e+002  7.5813e+001 22514 114211,114133,114447
 3.1000e+000 114496 -1.5418e+002 -2.5668e+002  7.3913e+001 22514 114211,114447,114237
 3.1000e+000 114597 -1.4954e+002 -3.6231e+002  1.9280e+002 22316 114620,114571,114545
 3.1000e+000 114646 -1.4954e+002 -3.6231e+002  1.9280e+002 22316 114519,114571,114620
 3.1000e+000 115127 -2.0865e+002 -3.2972e+002  8.0782e+001 21612 115150,114905,114879
 3.1000e+000 115104 -2.4796e+002 -1.8350e+002  1.0150e+002 21612 115150,114879,114853
 3.1000e+000 115081 -1.9678e+002 -1.0114e+002  1.7056e+002 21612 115222,114931,114905
 3.1000e+000 115058 -1.7085e+002 -2.4107e+002  1.4772e+002 21612 115222,114905,115009
 3.1000e+000 115035 -1.4223e+002 -3.4673e+002  1.6309e+002 21612 114957,115009,114983
 3.1000e+000 115176 -1.8359e+002 -2.1094e+002  8.6598e+001 21612 115009,114905,115150
 3.1000e+000 115199 -2.1106e+002 -4.5913e+001  1.0259e+002 21612 115009,115150,114853
 3.1000e+000 115248 -2.2206e+002 -2.1173e+002  1.6698e+002 21612 114957,114931,115222
 3.1000e+000 115271 -1.8936e+002 -3.4084e+002  1.4146e+002 21612 114957,115222,115009
 3.1000e+000 115519 -7.1799e+001  3.9999e+001  6.4127e+001 21208 115542,115372,115320
 3.1000e+000 115496  1.8739e+001  8.9454e+001 -6.9215e+000 21208 115542,115320,115294
 3.1000e+000 115473 -4.5587e+001 -1.0961e+002  9.7082e+001 21208 115320,115372,115346
 3.1000e+000 115450 -1.8642e+002 -4.6128e+001  3.0234e+001 21208 115294,115424,115398
 3.1000e+000 115568 -1.0866e+002  1.7118e+001  1.0025e+002 21208 115398,115372,115542
 3.1000e+000 115591 -6.9798e+001 -2.8196e+001  4.5305e+001 21208 115398,115542,115294
 3.1000e+000 115839 -2.4406e+002 -1.9511e+002  1.8599e+002 20668 115862,115640,115614
 3.1000e+000 115816 -2.5036e+002 -2.1890e+002  1.8770e+002 20668 115862,115614,115744
 3.1000e+000 115793 -1.6987e+002 -9.2544e+001  1.6193e+002 20668 115640,115718,115692
 3.1000e+000 115770 -3.7983e+002 -1.4375e+002  1.5420e+002 20668 115640,115692,115666
 3.1000e+000 115888 -2.5478e+002 -1.5371e+002  2.0081e+002 20668 115718,115640,115862
 3.1000e+000 115911 -2.7271e+002 -1.9683e+002  2.0466e+002 20668 115718,115862,115744
 3.1000e+000 116134 -2.3065e+002 -3.3283e+002  2.0697e+002 20264 115958,116036,115984
 3.1000e+000 116111 -1.1263e+002 -2.7591e+002  1.8832e+002 20264 115958,116062,116036
 3.1000e+000 116088 -1.3149e+002 -3.2519e+002  2.2336e+002 20264 115984,116036,116010
 3.1000e+000 116384 -3.5966e+002 -2.4745e+002  2.5503e+002 19924 116407,116211,116159
 3.1000e+000 116361 -3.3771e+002 -4.0516e+002  2.2289e+002 19924 116407,116159,116263
 3.1000e+000 116338 -3.2534e+002 -1.3849e+002  2.5116e+002 19924 116159,116211,116185
 3.1000e+000 116315 -2.2509e+002 -3.8363e+002  2.4848e+002 19924 116159,116289,116263
 3.1000e+000 116433 -3.5358e+002 -1.5813e+002  2.8824e+002 19924 116237,116211,116407
 3.1000e+000 116456 -2.7683e+002 -2.6566e+002  2.7528e+002 19924 116237,116407,116263
 3.1000e+000 116608 -1.2462e+002 -2.9747e+001  1.2858e+002 19520 116703,116631,116533
 3.1000e+000 116585 -3.6146e+001 -8.0064e+001  7.6788e+001 19520 116631,116507,116481
 3.1000e+000 116657 -1.1495e+002 -8.2477e+001  1.5253e+002 19520 116559,116533,116631
 3.1000e+000 116680 -7.9086e+001 -2.0185e+002  1.0615e+002 19520 116559,116631,116481
 3.1000e+000 116729 -1.2462e+002 -2.9747e+001  1.2858e+002 19520 116507,116631,116703
 3.1000e+000 116952 -3.0977e+002 -2.4590e+002  3.6141e+002 19208 116975,116802,116776
 3.1000e+000 116929 -3.8034e+002 -4.7493e+002  2.0753e+002 19208 116975,116776,116880
 3.1000e+000 116906 -3.9610e+002 -1.7087e+002  2.5675e+002 19208 116802,116854,116828
 3.1000e+000 117001 -2.4969e+002 -2.0766e+002  3.7792e+002 19208 116854,116802,116975
 3.1000e+000 117024 -1.0118e+002 -2.6937e+002  3.0194e+002 19208 116854,116975,116880
 3.1000e+000 117428 -2.6929e+002 -9.8531e+001  1.6275e+002 18796 117154,117206,117180
 3.1000e+000 117405 -1.8844e+002 -2.1508e+002  1.5441e+002 18796 117154,117284,117206
 3.1000e+000 117382 -1.0655e+002 -1.7921e+002  1.5929e+002 18796 117154,117310,117284
 3.1000e+000 117359 -1.0939e+002 -1.3650e+002  2.0189e+002 18796 117206,117284,117258
 3.1000e+000 117336 -1.7536e+001 -1.2291e+001  2.7139e+002 18796 117206,117258,117232
 3.1000e+000 117529 -1.1806e+002 -5.4614e+001  7.2574e+001 18228 117810,117552,117477
 3.1000e+000 117578 -3.1997e+002 -1.7379e+002  1.4605e+002 18228 117682,117552,117503
 3.1000e+000 117708 -9.8741e+001 -5.4150e+001  6.8756e+001 18228 117477,117552,117682
 3.1000e+000 117836 -2.0538e+002 -1.8010e+002  1.3737e+002 18228 117451,117552,117810
 3.1000e+000 118364 -2.7487e+002 -9.3263e+001  1.2783e+002 17722 118067,118223,118093
 3.1000e+000 118341 -2.8524e+002 -3.8015e+001  1.0480e+002 17722 118041,118223,118067
 3.1000e+000 118318 -1.5535e+002 -1.1010e+002  1.0683e+002 17722 118093,118223,118197
 3.1000e+000 118295 -6.0980e+002 -5.6753e+002  3.7537e+002 17722 118119,118197,118171
 3.1000e+000 118272 -7.3881e+001 -1.3793e+001  1.5443e+002 17722 118093,118197,118119
 3.1000e+000 118249 -5.7518e+002 -1.6292e+002  2.6439e+002 17722 118119,118171,118145
 3.1000e+000 118514 -5.0672e+002 -2.0547e+002  1.9243e+002 17268 118387,118439,118413
 3.1000e+000 118491 -5.4415e+001 -2.6883e+002  2.3568e+002 17268 118387,118465,118439
 3.1000e+000 118916 -2.1529e+002 -5.9107e+001  8.9050e+001 16828 118668,118772,118694
 3.1000e+000 118893 -3.0663e+002 -9.5999e+001  7.6811e+001 16828 118668,118798,118772
 3.1000e+000 118870 -3.3551e+002 -1.8881e+002  6.0813e+001 16828 118642,118798,118668
 3.1000e+000 118847 -9.9093e+001 -3.4677e+001  2.0395e+002 16828 118694,118746,118720
 3.1000e+000 118824 -2.6004e+002 -1.9274e+002  8.9827e+001 16828 118694,118772,118746
 3.1000e+000 119316 -1.1287e+002 -1.0046e+002  1.7347e+002 16422 119042,119172,119094
 3.1000e+000 119293 -1.8397e+002 -1.1194e+002  1.8249e+002 16422 119042,119198,119172
 3.1000e+000 119270 -2.4178e+002 -7.1456e+001  9.2445e+001 16422 119042,119094,119068
 3.1000e+000 119247  1.4412e+001  1.2411e+001  2.1575e+002 16422 119094,119146,119120
 3.1000e+000 119224 -7.8961e+001 -3.4673e+001  1.8567e+002 16422 119094,119172,119146
 3.1000e+000 119466 -6.9189e+001  1.2062e+001  5.2564e+001 16010 119339,119391,119365
 3.1000e+000 119443 -2.7208e+001 -2.9311e+001  1.3513e+002 16010 119339,119417,119391
 3.1000e+000 119616 -8.3170e+001 -1.3009e+001  1.3159e+002 15547 119515,119567,119541
 3.1000e+000 119593  1.1406e+002  2.0015e+002  4.2448e+002 15547 119489,119567,119515
 3.1000e+000 119719 -4.5661e+002 -1.8560e+002  2.0543e+002 421 119641,119693,119667
 3.2000e+000 69562 -5.5003e+002 -2.4165e+002  2.5945e+002 69254 69484,69536,69510
 3.2000e+000 70009 -2.1050e+002 -1.7908e+002  1.7856e+002 68942 69686,69842,69816
 3.2000e+000 69986 -2.0081e+002 -9.7803e+001  8.7706e+001 68942 69686,69868,69842
 3.2000e+000 69963 -1.4414e+002 -6.1328e+001  2.1297e+002 68942 69686,69816,69712
 3.2000e+000 69940 -9.7157e+001 -5.4162e+001  2.9910e+002 68942 69712,69790,69738
 3.2000e+000 69917 -3.2209e+002 -4.8945e+002  2.0200e+002 68942 69712,69816,69790
 3.2000e+000 69894 -3.3383e+001 -2.6168e+002  1.2345e+002 68942 69738,69790,69764
 3.2000e+000 70110 -2.6186e+002 -9.8403e+001  1.4208e+002 68766 70032,70084,70058
 3.2000e+000 70746 -4.6504e+002 -1.9710e+002  1.6942e+002 68448 70400,70556,70426
 3.2000e+000 70723 -5.7010e+002 -2.3916e+002  1.9439e+002 68448 70374,70556,70400
 3.2000e+000 70700 -4.4069e+002 -1.6050e+002  1.2204e+002 68448 70426,70556,70478
 3.2000e+000 70677 -4.1657e+002 -1.5123e+002  1.2624e+002 68448 70478,70556,70504
 3.2000e+000 70654 -5.3133e+002 -2.4645e+002  1.6864e+002 68448 70426,70478,70452
 3.2000e+000 70631 -5.4317e+002 -1.4911e+002  2.6323e+002 68448 70374,70582,70556
 3.2000e+000 70608 -4.3296e+002 -9.4768e+001  7.6962e+001 68448 70504,70556,70530
 3.2000e+000 70896 -5.2931e+002 -1.8166e+002 -6.3793e+000 68250 70795,70847,70821
 3.2000e+000 70873 -7.9420e+002 -2.9600e+002  1.0169e+001 68250 70769,70847,70795
 3.2000e+000 70997 -1.0323e+003 -4.6593e+002  4.0570e+002 68052 70919,70971,70945
 3.2000e+000 71367 -3.1583e+002 -4.8650e+002  1.8547e+002 67740 71096,71226,71200
 3.2000e+000 71344 -2.1412e+002 -2.9178e+002  2.2716e+002 67740 71044,71226,71096
 3.2000e+000 71321  1.4741e+001 -1.4741e+001  3.6858e+002 67740 71044,71096,71070
 3.2000e+000 71298 -2.5976e+002 -5.2507e+002  3.6514e+002 67740 71096,71200,71174
 3.2000e+000 71275 -1.2622e+002 -2.9965e+002  1.2446e+002 67740 71096,71148,71122
 3.2000e+000 71252 -1.8442e+002 -3.6367e+002  2.3166e+002 67740 71096,71174,71148
 3.2000e+000 71519  1.2035e+002  6.9155e+001  1.1505e+002 67542 71418,71470,71444
 3.2000e+000 71496  1.9124e+002  4.0008e+002  3.6007e+002 67542 71392,71470,71418
 3.2000e+000 71923 -8.9052e+001 -2.1930e+001  1.2606e+002 67230 71649,71779,71675
 3.2000e+000 71900 -7.2732e+001 -1.2204e+002  9.3628e+001 67230 71649,71805,71779
 3.2000e+000 71877 -1.0065e+002 -4.4014e+001  2.2359e+002 67230 71675,71727,71701
 3.2000e+000 71854 -1.2717e+002 -3.3387e+002  2.2863e+002 67230 71675,71753,71727
 3.2000e+000 71831 -1.2426e+002 -2.0900e+002  1.6113e+002 67230 71675,71779,71753
 3.2000e+000 72433 -3.1080e+002 -1.3856e+002  1.6003e+002 67032 72038,72246,72220
 3.2000e+000 72410 -1.2380e+002 -3.2006e+001  1.0226e+002 67032 72012,72246,72038
 3.2000e+000 72387 -3.1916e+002 -1.5682e+002  1.7183e+002 67032 72064,72194,72168
 3.2000e+000 72364 -3.1860e+002 -1.2827e+002  1.7242e+002 67032 72038,72194,72064
 3.2000e+000 72341 -3.8172e+002 -3.0587e+002  1.6429e+002 67032 72038,72220,72194
 3.2000e+000 72318 -1.6228e+002 -3.9383e+001  1.4070e+002 67032 72090,72168,72142
 3.2000e+000 72295 -1.7528e+002 -7.7472e+001  2.3392e+002 67032 72064,72168,72090
 3.2000e+000 72272 -1.7064e+002 -5.7724e+001  1.3192e+002 67032 72090,72142,72116
 3.2000e+000 72933 -2.2342e+002 -2.1381e+002  2.2418e+002 66628 72956,72665,72613
 3.2000e+000 72910 -2.2429e+002 -2.3520e+002  2.2091e+002 66628 73100,72956,72613
 3.2000e+000 72887 -2.4644e+002 -3.2541e+002  1.8375e+002 66628 73028,72691,72665
 3.2000e+000 72864 -2.1729e+002 -2.1882e+002  2.2112e+002 66628 73100,72613,72587
 3.2000e+000 72841 -2.0742e+002 -2.0149e+002  1.9128e+002 66628 72613,72665,72639
 3.2000e+000 72818 -1.6323e+001 -1.7587e+001  2.8533e+002 66628 72587,72769,72743
 3.2000e+000 72795 -2.4213e+002 -5.2182e+002  7.0649e+001 66628 72561,72769,72587
 3.2000e+000 72982 -2.5070e+002 -2.3959e+002  2.3497e+002 66628 73028,72665,72956
 3.2000e+000 73005 -2.2639e+002 -9.6936e+001  2.1917e+002 66628 72717,72956,72743
 3.2000e+000 73054 -3.4309e+002 -2.8385e+002  1.1764e+002 66628 72717,72691,73028
 3.2000e+000 73077 -3.4695e+002 -2.5289e+002  1.6525e+002 66628 72717,73028,72956
 3.2000e+000 73126 -2.2555e+002 -2.3355e+002  2.0306e+002 66628 72743,72956,73100
 3.2000e+000 73149 -2.2006e+002 -2.2051e+002  2.0369e+002 66628 72743,73100,72587
 3.2000e+000 73606 -2.6781e+002 -2.2444e+002  2.2028e+002 66281 73332,73384,73358
 3.2000e+000 73583 -3.4313e+002 -2.5392e+002  1.6339e+002 66281 73332,73462,73384
 3.2000e+000 73560 -4.1361e+002 -2.3252e+002  1.8282e+002 66281 73384,73462,73436
 3.2000e+000 73537 -6.1105e+002 -3.5672e+002  2.5792e+002 66281 73332,73488,73462
 3.2000e+000 73514 -4.4735e+002 -2.2610e+002  1.0535e+002 66281 73384,73436,73410
 3.2000e+000 73984 -2.1077e+002 -1.0257e+002  8.4939e+001 65969 73736,73814,73788
 3.2000e+000 73961 -1.0425e+002 -7.3593e+001  9.3742e+001 65969 73736,73866,73814
 3.2000e+000 73938 -1.6960e+002 -1.1222e+002  1.4905e+002 65969 73814,73866,73840
 3.2000e+000 73915 -7.8392e+001 -1.0777e+002  8.8779e+001 65969 73710,73866,73736
 3.2000e+000 73892 -1.7039e+002 -7.7092e+001  4.4373e+001 65969 73736,73788,73762
 3.2000e+000 74232 -2.2760e+002 -2.0100e+002  2.1591e+002 65572 74255,74085,74033
 3.2000e+000 74209 -2.1580e+002 -2.0875e+002  2.0344e+002 65572 74327,74255,74033
 3.2000e+000 74186 -2.2011e+002 -1.8806e+002  2.0393e+002 65572 74327,74033,74007
 3.2000e+000 74163 -2.4788e+002 -2.3378e+002  2.2965e+002 65572 74033,74085,74059
 3.2000e+000 74281 -2.4653e+002 -2.2209e+002  2.3777e+002 65572 74111,74085,74255
 3.2000e+000 74304 -2.1559e+002 -2.1321e+002  2.1176e+002 65572 74111,74255,74137
 3.2000e+000 74353 -2.1296e+002 -1.8439e+002  1.9575e+002 65572 74137,74255,74327
 3.2000e+000 74376 -2.2148e+002 -1.6858e+002  1.9712e+002 65572 74137,74327,74007
 3.2000e+000 74884 -2.1030e+002 -2.1960e+002  1.8299e+002 65174 74587,74717,74613
 3.2000e+000 74861 -2.5886e+002 -2.6195e+002  1.4540e+002 65174 74561,74717,74587
 3.2000e+000 74838 -1.7477e+002 -2.5085e+002  1.3499e+002 65174 74613,74691,74639
 3.2000e+000 74815 -2.1420e+002 -2.5206e+002  1.7553e+002 65174 74613,74717,74691
 3.2000e+000 74792 -1.0476e+002 -3.5212e+002  1.2084e+002 65174 74639,74691,74665
 3.2000e+000 74769 -4.3117e+002 -9.5828e+001  1.5713e+002 65174 74561,74743,74717
 3.2000e+000 75412 -8.7513e+000 -7.7032e+001  3.9463e+002 64770 75167,75245,75219
 3.2000e+000 75389 -1.9998e+002 -3.3131e+002  2.7146e+002 64770 75115,75245,75167
 3.2000e+000 75366 -1.5626e+002 -4.1615e+002  3.4754e+002 64770 75089,75245,75115
 3.2000e+000 75343 -3.2306e+002 -1.1266e+002  2.9541e+002 64770 75167,75219,75193
 3.2000e+000 75320 -1.6243e+002 -2.4485e+002  2.7565e+002 64770 75115,75167,75141
 3.2000e+000 75297 -2.4112e+002 -6.1145e+002  3.6298e+002 64770 75089,75271,75245
 3.2000e+000 75861 -5.2778e+002 -2.1735e+002  2.6799e+002 64316 75538,75694,75564
 3.2000e+000 75838 -3.5661e+002 -1.4208e+002  1.5550e+002 64316 75538,75720,75694
 3.2000e+000 75815 -3.8909e+002 -2.4113e+002  2.0418e+002 64316 75590,75694,75642
 3.2000e+000 75792 -3.6964e+002 -3.3305e+002  2.5032e+002 64316 75564,75694,75590
 3.2000e+000 75769 -1.4077e+002 -4.1254e+002  1.1561e+002 64316 75590,75642,75616
 3.2000e+000 75746 -3.4162e+002 -1.3989e+002  1.8153e+002 64316 75642,75694,75668
 3.2000e+000 76239 -5.1768e+002 -3.9778e+002  2.5170e+002 64018 76262,76095,76043
 3.2000e+000 76216 -3.9193e+002 -4.2421e+002  2.1765e+002 64018 76262,76043,76017
 3.2000e+000 76193 -2.1390e+002 -2.0244e+002  1.2836e+002 64018 75991,76121,76017
 3.2000e+000 76170 -4.9622e+002 -3.0896e+002  3.2688e+002 64018 76043,76095,76069
 3.2000e+000 76147 -1.9496e+001 -1.8914e+002  5.3678e+001 64018 75965,76121,75991
 3.2000e+000 76288 -4.0161e+002 -4.0703e+002  3.1459e+002 64018 76121,76095,76262
 3.2000e+000 76311 -3.0294e+002 -4.5746e+002  2.6133e+002 64018 76121,76262,76017
 3.2000e+000 76866 -2.0684e+002 -1.9828e+002  2.1817e+002 63728 76520,76676,76546
 3.2000e+000 76843 -1.8083e+002 -2.0199e+002  1.5432e+002 63728 76520,76702,76676
 3.2000e+000 76820 -1.7447e+002 -2.1684e+002  2.2050e+002 63728 76546,76650,76572
 3.2000e+000 76797 -2.7736e+002 -2.8211e+002  1.8747e+002 63728 76546,76676,76650
 3.2000e+000 76774 -2.8630e+002 -2.6288e+001  1.0716e+002 63728 76572,76650,76624
 3.2000e+000 76751 -1.5880e+002 -1.7274e+002  1.6473e+002 63728 76494,76702,76520
 3.2000e+000 76728 -6.1425e+001 -1.1845e+002  8.5511e+001 63728 76572,76624,76598
 3.2000e+000 77065 -2.6677e+002 -1.5478e+002  1.9108e+002 63288 77088,76941,76915
 3.2000e+000 77042 -3.5986e+002 -1.8542e+002  1.8405e+002 63288 77088,76915,76993
 3.2000e+000 77019 -8.1784e+001 -2.4113e+002  1.3972e+002 63288 76889,76993,76915
 3.2000e+000 77114 -2.7276e+002 -1.7178e+002  1.8876e+002 63288 76967,76941,77088
 3.2000e+000 77137 -5.1568e+002 -2.6766e+002  8.2139e+001 63288 77160,77088,76993
 3.2000e+000 77186 -1.2471e+002 -9.0344e+001  1.3796e+002 63288 76967,77088,77160
 3.2000e+000 77417 -1.7592e+002 -2.4104e+002  1.9822e+002 62884 77440,77342,77316
 3.2000e+000 77394 -4.9456e+002 -2.9964e+002  9.2201e+001 62884 77770,77440,77316
 3.2000e+000 77466 -2.3459e+002 -3.3349e+002  5.9204e+001 62884 77512,77440,77368
 3.2000e+000 77489 -2.4856e+002 -2.4472e+002  8.2452e+001 62884 77642,77440,77290
 3.2000e+000 77538 -1.0332e+002 -2.0252e+002  2.8184e+000 62884 77342,77440,77512
 3.2000e+000 77668 -3.3319e+002 -3.8941e+002  3.6672e+001 62884 77368,77440,77642
 3.2000e+000 77796 -2.4421e+002 -1.9500e+002  7.9718e+001 62884 77290,77440,77770
 3.2000e+000 78479 -5.7818e+002 -4.1458e+002  2.7134e+002 62480 78084,78240,78214
 3.2000e+000 78456 -4.4921e+002 -3.8133e+002  5.4161e+001 62480 78084,78266,78240
 3.2000e+000 78433 -5.1896e+002 -3.6608e+002  1.6731e+002 62480 78110,78214,78136
 3.2000e+000 78410 -4.8050e+002 -3.4627e+002  2.3995e+002 62480 78084,78214,78110
 3.2000e+000 78387 -3.3648e+002 -3.7733e+002  1.9022e+002 62480 78136,78214,78188
 3.2000e+000 78364 -4.4639e+002 -4.4468e+002  3.4485e+001 62480 78058,78266,78084
 3.2000e+000 78341 -2.7551e+002 -2.9164e+002  4.4030e+000 62480 78136,78188,78162
 3.2000e+000 78318 -5.6055e+002 -5.1763e+002  8.2366e+001 62480 78058,78292,78266
 3.2000e+000 78678 -2.9618e+002 -5.0161e+002  2.0704e+002 61926 78528,78606,78554
 3.2000e+000 78655 -1.7862e+002 -4.6039e+002  2.6006e+002 61926 78502,78606,78528
 3.2000e+000 78632 -2.1030e+002 -3.3173e+002  1.6038e+002 61926 78554,78606,78580
 3.2000e+000 79058 -2.8987e+002 -2.7046e+002  1.5307e+002 61614 78836,78914,78862
 3.2000e+000 79035 -3.6946e+002 -3.1759e+002  1.3325e+002 61614 78810,78914,78836
 3.2000e+000 79012 -2.3390e+002 -2.5939e+002  1.3559e+002 61614 78784,78914,78810
 3.2000e+000 78989 -2.6467e+002 -3.1287e+002  2.4885e+002 61614 78862,78914,78888
 3.2000e+000 78966 -2.0438e+002 -3.3524e+002  1.5578e+002 61614 78784,78940,78914
 3.2000e+000 79208 -1.7910e+002 -4.1646e+002  1.4470e+000 61366 79081,79133,79107
 3.2000e+000 79185 -2.0429e+002 -3.3836e+002  1.2373e+002 61366 79081,79159,79133
 3.2000e+000 79358  2.8774e+001  5.2532e+000  2.1511e+001 60962 79231,79283,79257
 3.2000e+000 79335 -1.0831e+002 -2.5458e+002  7.1854e+001 60962 79231,79309,79283
 3.2000e+000 79608 -1.6245e+002 -3.4909e+002  1.3444e+002 60508 79631,79435,79409
 3.2000e+000 79585 -9.7479e+001 -3.4840e+002  9.7038e+001 60508 79703,79631,79409
 3.2000e+000 79562 -8.2144e+001 -1.8240e+002  1.2377e+002 60508 79703,79409,79383
 3.2000e+000 79539 -3.2090e+002 -2.6899e+002  2.4586e+002 60508 79435,79487,79461
 3.2000e+000 79657 -1.8714e+002 -4.1681e+002  2.3114e+002 60508 79487,79435,79631
 3.2000e+000 79680 -8.6602e+001 -3.2442e+002  1.3142e+002 60508 79487,79631,79513
 3.2000e+000 79729 -6.0515e+001 -1.9965e+002  5.7212e+001 60508 79513,79631,79703
 3.2000e+000 79752 -1.0406e+002 -1.8286e+002  3.4137e+001 60508 79513,79703,79383
 3.2000e+000 80390 -2.6327e+002 -2.5853e+002  2.5111e+002 59997 80413,80096,80018
 3.2000e+000 80367 -4.6165e+002 -3.2249e+002  2.8663e+002 59997 80413,80018,80226
 3.2000e+000 80344 -2.0685e+002 -2.0573e+002  1.4401e+002 59997 80096,80174,80148
 3.2000e+000 80321 -7.7954e+002 -4.8325e+002  3.6805e+002 59997 80018,80096,80070
 3.2000e+000 80298 -2.7143e+002 -2.5566e+002  1.2155e+002 59997 80096,80148,80122
 3.2000e+000 80275 -2.2507e+002 -2.3914e+002  2.1502e+002 59997 80174,80226,80200
 3.2000e+000 80252 -6.1649e+002 -3.5383e+002  2.2389e+002 59997 80018,80070,80044
 3.2000e+000 80439 -2.0623e+002 -2.9974e+002  1.8378e+002 59997 80174,80096,80413
 3.2000e+000 80462 -2.8945e+002 -2.6262e+002  2.0141e+002 59997 80174,80413,80226
 3.2000e+000 80840 -3.4345e+002 -2.9623e+002  1.4724e+002 59443 80863,80644,80618
 3.2000e+000 80817 -1.4944e+002 -2.1773e+002  1.7601e+002 59443 80863,80618,80566
 3.2000e+000 80794 -1.4378e+002 -1.9205e+002  2.0988e+002 59443 81007,80935,80670
 3.2000e+000 80771 -1.9329e+002 -1.9561e+002  1.8517e+002 59443 80566,80722,80696
 3.2000e+000 80748 -1.8768e+002 -2.9447e+002  1.9862e+002 59443 80566,80618,80592
 3.2000e+000 80889 -3.8202e+002 -2.6033e+002  2.3445e+002 59443 80935,80644,80863
 3.2000e+000 80912 -2.6684e+002 -2.2903e+002  2.0011e+002 59443 80696,80863,80566
 3.2000e+000 80961 -2.3096e+002 -2.1798e+002  2.3954e+002 59443 80696,80670,80935
 3.2000e+000 80984 -2.2348e+002 -1.8799e+002  2.1703e+002 59443 80696,80935,80863
 3.2000e+000 81033 -3.0151e+002 -3.4839e+002  2.8646e+002 59443 80644,80935,81007
 3.2000e+000 81360 -3.1679e+002 -1.6475e+002  1.5856e+002 59031 81383,81187,81161
 3.2000e+000 81337 -2.4961e+002 -1.9639e+002  5.0901e+001 59031 81455,81383,81161
 3.2000e+000 81314 -1.6897e+002 -1.5600e+002  7.2423e+001 59031 81455,81161,81135
 3.2000e+000 81291 -4.6479e+002 -1.6916e+002  2.3622e+002 59031 81187,81239,81213
 3.2000e+000 81409 -3.4938e+002 -3.0509e+002  2.0702e+002 59031 81239,81187,81383
 3.2000e+000 81432 -3.9374e+002 -2.5131e+002  5.5575e+001 59031 81239,81383,81265
 3.2000e+000 81481 -3.3191e+002 -1.1288e+002  7.6660e+001 59031 81265,81383,81455
 3.2000e+000 81504 -2.9964e+002 -1.1342e+002  7.8890e+001 59031 81265,81455,81135
 3.2000e+000 81835 -5.6161e+001 -1.4717e+002  7.1767e+001 58577 81610,81714,81636
 3.2000e+000 81812 -5.8374e+001 -1.7493e+002  8.0503e+001 58577 81610,81740,81714
 3.2000e+000 81789 -1.4805e+002 -1.8467e+002  2.3819e+001 58577 81636,81714,81688
 3.2000e+000 81766 -1.3875e+002 -1.9593e+002 -6.1158e+001 58577 81636,81688,81662
 3.2000e+000 81985 -6.8119e+001 -1.6275e+002  1.0260e+002 58030 81884,81936,81910
 3.2000e+000 81962 -1.3381e+002 -4.7735e+001  7.1995e+001 58030 81858,81936,81884
 3.2000e+000 82414 -5.7279e+001 -1.7636e+001  7.3335e+001 57690 82437,82169,82117
 3.2000e+000 82391 -8.0981e+001 -9.2249e+001  8.7588e+001 57690 82437,82117,82247
 3.2000e+000 82368  2.9350e+001  5.2241e+001  2.1179e+002 57690 82195,82247,82221
 3.2000e+000 82345 -6.2609e+001 -8.4331e+001  8.8464e+001 57690 82091,82247,82117
 3.2000e+000 82322 -9.7525e+001 -2.4031e+001  4.8904e+001 57690 82117,82169,82143
 3.2000e+000 82299 -7.1304e+001 -1.6096e+002  1.2391e+002 57690 82091,82273,82247
 3.2000e+000 82463 -9.1551e+001  1.2433e+001  1.0822e+002 57690 82195,82169,82437
 3.2000e+000 82486 -1.0244e+002 -4.0098e+001  1.1014e+002 57690 82195,82437,82247
 3.2000e+000 83041 -2.0466e+002 -2.0018e+002  1.4808e+002 57172 83064,82721,82695
 3.2000e+000 83018 -2.2635e+002 -2.0927e+002  2.0991e+002 57172 83064,82695,82851
 3.2000e+000 82995 -6.2700e+002 -3.0012e+002  2.8358e+002 57172 82669,82851,82695
 3.2000e+000 82972 -3.6685e+002 -2.2217e+002  2.0232e+002 57172 82773,82851,82825
 3.2000e+000 82949 -3.3840e+002 -2.3359e+002  2.6097e+002 57172 82773,82825,82799
 3.2000e+000 82926 -2.6201e+002 -1.7478e+002  1.2144e+002 57172 82721,82773,82747
 3.2000e+000 82903 -7.2528e+002 -3.1815e+002  4.2966e+002 57172 82669,82877,82851
 3.2000e+000 83090 -3.0538e+002 -2.3819e+002  1.4031e+002 57172 82773,82721,83064
 3.2000e+000 83113 -2.5997e+002 -2.2011e+002  1.9884e+002 57172 82773,83064,82851
 3.2000e+000 83747 -2.1976e+002 -1.8819e+002  1.2696e+002 56554 83770,83427,83401
 3.2000e+000 83724 -2.1915e+002 -2.3395e+002  1.4789e+002 56554 83842,83770,83401
 3.2000e+000 83701 -9.1887e+000 -1.8135e+002  5.8093e+001 56554 83842,83401,83583
 3.2000e+000 83678 -4.2446e+002 -3.2133e+002  3.1300e+002 56554 83914,83531,83505
 3.2000e+000 83655 -2.8311e+002 -2.2556e+002  1.2340e+002 56554 83531,83583,83557
 3.2000e+000 83632 -6.9788e+001 -9.7954e+001  3.9494e+001 56554 83375,83583,83401
 3.2000e+000 83609 -2.0750e+002 -1.8856e+002  1.2871e+002 56554 83427,83479,83453
 3.2000e+000 83796 -2.0207e+002 -1.8609e+002  1.2820e+002 56554 83479,83427,83770
 3.2000e+000 83819 -2.3021e+002 -1.6935e+002  1.4016e+002 56554 83479,83770,83505
 3.2000e+000 83868 -1.4772e+002 -1.1480e+002  1.8551e+002 56554 83505,83770,83842
 3.2000e+000 83891 -2.8078e+002 -2.0881e+002  2.2646e+002 56554 83914,83505,83842
 3.2000e+000 83940 -2.0076e+002 -3.1767e+002  1.9007e+002 56554 83583,83531,83914
 3.2000e+000 83963 -8.6553e+001 -3.0503e+002  1.4450e+002 56554 83583,83914,83842
 3.2000e+000 84341 -3.3528e+002 -5.4533e+002  2.1965e+002 56192 84067,84145,84119
 3.2000e+000 84318 -2.5333e+002 -3.5317e+002  1.8380e+002 56192 84067,84223,84145
 3.2000e+000 84295 -2.6565e+002 -3.1556e+002  1.2876e+002 56192 84145,84223,84197
 3.2000e+000 84272 -2.7696e+002 -1.6063e+002  1.4608e+002 56192 84067,84119,84093
 3.2000e+000 84249 -1.6337e+002 -1.9934e+002  1.7220e+002 56192 84145,84197,84171
 3.2000e+000 84611 -1.0935e+002 -2.6630e+002  1.7696e+002 55538 84386,84490,84412
 3.2000e+000 84588 -1.3663e+002 -2.6084e+002  1.8025e+002 55538 84386,84516,84490
 3.2000e+000 84565 -2.3339e+002 -3.2022e+002  1.7156e+002 55538 84412,84490,84464
 3.2000e+000 84542 -1.2534e+002 -2.9594e+002  1.0232e+002 55538 84412,84464,84438
 3.2000e+000 84942 -2.9114e+002 -2.2147e+002  1.9563e+002 55084 84769,84847,84795
 3.2000e+000 84919 -2.7153e+002 -2.5063e+002  1.6278e+002 55084 84717,84847,84769
 3.2000e+000 84896 -3.1603e+002 -3.4962e+002  1.5243e+002 55084 84717,84769,84743
 3.2000e+000 84873 -3.2037e+002 -1.0782e+002  1.6877e+002 55084 84795,84847,84821
 3.2000e+000 85271 -3.7191e+001 -7.1839e+001  1.0899e+002 54580 85294,85098,85072
 3.2000e+000 85248 -2.6701e+002 -1.3738e+002  1.5412e+002 54580 85294,85072,85176
 3.2000e+000 85225 -3.7395e+002 -8.2876e+000  4.7856e+001 54580 85124,85176,85150
 3.2000e+000 85202 -7.5657e+001 -1.2054e+002  5.5201e+001 54580 85046,85176,85072
 3.2000e+000 85320 -2.3442e+002 -9.2074e+001  1.2716e+002 54580 85124,85098,85294
 3.2000e+000 85343 -3.5581e+002 -7.1953e+001  1.5983e+002 54580 85124,85294,85176
 3.2000e+000 85542 -1.4888e+002 -2.4658e+002  1.4260e+002 53976 85565,85444,85418
 3.2000e+000 85519 -1.5128e+002 -2.0914e+002  1.3259e+002 53976 85565,85418,85366
 3.2000e+000 85496 -1.2105e+002 -1.9080e+002  9.0247e+001 53976 85366,85418,85392
 3.2000e+000 85591 -1.8006e+002 -2.3782e+002  1.0171e+002 53976 85470,85444,85565
 3.2000e+000 85614 -1.3959e+002 -1.2168e+002  1.0142e+002 53976 85470,85565,85366
 3.2000e+000 85960 -2.9003e+002 -3.4153e+002  1.1524e+002 53572 85663,85715,85689
 3.2000e+000 85937 -2.7025e+002 -2.9029e+002  1.6342e+002 53572 85983,85715,85663
 3.2000e+000 85914 -3.1181e+002 -3.4072e+002  1.8488e+002 53572 86055,85983,85663
 3.2000e+000 85891 -2.9133e+002 -3.3738e+002  2.3058e+002 53572 86055,85663,85637
 3.2000e+000 85868 -5.1462e+002 -6.7415e+002  3.2315e+002 53572 85637,85793,85767
 3.2000e+000 85845 -4.1165e+002 -1.1018e+002  1.4123e+002 53572 85637,85819,85793
 3.2000e+000 86009 -2.9941e+002 -2.7928e+002  1.6166e+002 53572 85741,85715,85983
 3.2000e+000 86032 -3.0097e+002 -2.6235e+002  1.6205e+002 53572 85741,85983,85767
 3.2000e+000 86081 -2.7372e+002 -2.3808e+002  1.8137e+002 53572 85767,85983,86055
 3.2000e+000 86104 -2.7875e+002 -2.8518e+002  2.2370e+002 53572 85767,86055,85637
 3.2000e+000 86693 -5.0934e+002 -9.4508e+001  2.5382e+002 52946 86474,86526,86500
 3.2000e+000 86670 -1.9107e+002 -6.9060e+001  1.0395e+002 52946 86396,86526,86474
 3.2000e+000 86647 -3.9472e+002 -3.9867e+002  2.2290e+002 52946 86370,86526,86396
 3.2000e+000 86624 -4.7872e+001 -3.6223e+001  2.0727e+001 52946 86422,86474,86448
 3.2000e+000 86601 -2.2106e+002 -7.2177e+001  7.9705e+001 52946 86396,86474,86422
 3.2000e+000 86578 -3.7620e+002 -8.5634e+001  1.1648e+002 52946 86370,86552,86526
 3.2000e+000 87376 -3.3491e+002 -2.6537e+002  1.0204e+002 52420 87007,87085,87033
 3.2000e+000 87353 -2.6418e+002 -2.4176e+002  1.0326e+002 52420 87007,87163,87085
 3.2000e+000 87330 -2.8904e+002 -2.2817e+002  1.1697e+002 52420 87007,87189,87163
 3.2000e+000 87307 -2.8844e+002 -2.1690e+002  1.3401e+002 52420 87033,87085,87059
 3.2000e+000 87284 -3.2097e+002 -2.6180e+002  4.3451e+001 52420 87085,87137,87111
 3.2000e+000 87261 -2.3857e+002 -2.5110e+002  5.1842e+001 52420 87085,87163,87137
 3.2000e+000 87238 -2.3348e+002 -2.5396e+002  2.1262e+002 52420 86955,87189,87007
 3.2000e+000 87215 -1.6007e+002 -1.9406e+002  9.6601e+001 52420 86955,87007,86981
 3.2000e+000 87624 -1.4341e+002 -3.2865e+002  8.9894e+001 51916 87451,87503,87477
 3.2000e+000 87601 -1.9855e+002 -3.7029e+002  6.5939e+001 51916 87425,87503,87451
 3.2000e+000 87578 -1.3668e+002 -3.2840e+002  8.5844e+001 51916 87425,87529,87503
 3.2000e+000 87555 -8.9054e+001 -2.0899e+002  9.5534e+001 51916 87399,87529,87425
 3.2000e+000 88053 -2.5891e+002 -2.1861e+002  8.4655e+001 51568 87782,87834,87808
 3.2000e+000 88030 -3.3629e+002 -2.4550e+002  1.5006e+002 51568 88076,87782,87886
 3.2000e+000 88007 -3.1010e+002 -1.8547e+002  1.4077e+002 51568 88076,87886,87860
 3.2000e+000 87984 -3.8095e+002 -3.2502e+002  1.2941e+002 51568 87756,87886,87782
 3.2000e+000 87961 -2.8108e+002 -2.5872e+002  2.4594e+002 51568 87756,87912,87886
 3.2000e+000 87938 -3.2759e+002 -1.5426e+002  2.3009e+002 51568 87730,87912,87756
 3.2000e+000 88102 -3.0676e+002 -2.7705e+002  1.1295e+002 51568 87834,87782,88076
 3.2000e+000 88125 -2.8678e+002 -2.3748e+002  1.0469e+002 51568 87834,88076,87860
 3.2000e+000 88324 -2.3942e+002 -2.4957e+002  1.0181e+002 51164 88419,88347,88200
 3.2000e+000 88301 -1.6124e+002 -2.2732e+002  1.2826e+002 51164 88347,88148,88252
 3.2000e+000 88278 -3.0818e+002 -3.5429e+002  6.4691e+001 51164 88419,88200,88174
 3.2000e+000 88373 -1.5759e+002 -2.5119e+002  1.1814e+002 51164 88226,88200,88347
 3.2000e+000 88396 -2.6304e+001 -2.3864e+002  1.0262e+002 51164 88226,88347,88252
 3.2000e+000 88445 -2.1061e+002 -2.3898e+002  1.5596e+002 51164 88148,88347,88419
 3.2000e+000 88468 -2.0742e+002 -2.2599e+002  1.3419e+002 51164 88148,88419,88174
 3.2000e+000 88738 -2.0522e+002 -3.0049e+002  7.8147e+001 50560 88513,88617,88539
 3.2000e+000 88715 -1.3793e+002 -3.2285e+002  5.2916e+001 50560 88513,88643,88617
 3.2000e+000 88692 -1.1609e+002 -8.8917e+001  8.6419e+001 50560 88539,88591,88565
 3.2000e+000 88669 -9.3333e+001 -2.2256e+002  1.1342e+002 50560 88539,88617,88591
 3.2000e+000 88939 -2.7017e+002 -1.2879e+002  1.3502e+002 50106 88962,88789,88763
 3.2000e+000 88916 -1.8208e+002 -1.6748e+002  1.0418e+002 50106 88962,88763,88841
 3.2000e+000 88893 -2.3969e+002 -2.0314e+002  1.4593e+002 50106 88763,88867,88841
 3.2000e+000 88988 -1.8391e+002 -1.5926e+002  8.9448e+001 50106 88815,88789,88962
 3.2000e+000 89011 -1.5572e+002 -1.3453e+002  1.1752e+002 50106 89034,88962,88841
 3.2000e+000 89060 -7.5245e+001 -5.0412e+001  1.8239e+001 50106 88815,88962,89034
 3.2000e+000 89472 -1.7824e+002 -3.0934e+002  8.5129e+001 49666 89273,89351,89325
 3.2000e+000 89449 -1.8949e+002 -2.3457e+002  1.1167e+002 49666 89273,89377,89351
 3.2000e+000 89426 -1.7073e+002 -2.4907e+002  1.7987e+002 49666 89273,89325,89299
 3.2000e+000 89403 -1.8141e+002 -1.6323e+002  1.2206e+002 49666 89247,89377,89273
 3.2000e+000 89978 -1.6801e+002 -2.8032e+002  1.3096e+002 49205 89681,89837,89733
 3.2000e+000 89955 -1.5513e+002 -2.6562e+002  1.3946e+002 49205 89655,89837,89681
 3.2000e+000 89932 -4.0861e+002 -5.1516e+002  1.7032e+002 49205 89785,89837,89811
 3.2000e+000 89909 -1.9652e+002 -1.8526e+002  7.5632e+001 49205 89733,89837,89785
 3.2000e+000 89886 -4.0410e+002 -2.4252e+002  1.9230e+002 49205 89733,89785,89759
 3.2000e+000 89863 -1.0886e+002 -4.2706e+002  1.9236e+002 49205 89681,89733,89707
 3.2000e+000 90177 -1.6226e+002 -1.9590e+002  1.0029e+002 48865 90530,90200,90053
 3.2000e+000 90154 -1.8690e+002 -2.9349e+002  1.5603e+002 48865 90402,90200,90001
 3.2000e+000 90131 -2.3968e+002 -7.5987e+001  1.0041e+002 48865 90530,90053,90027
 3.2000e+000 90226 -1.8342e+002 -1.9365e+002  1.4280e+002 48865 90079,90053,90200
 3.2000e+000 90249 -2.0526e+002 -2.4675e+002  1.1301e+002 48865 90272,90200,90105
 3.2000e+000 90298 -1.1194e+002 -1.7025e+002  1.4691e+002 48865 90079,90200,90272
 3.2000e+000 90428 -1.3748e+002 -9.1205e+001  1.2262e+002 48865 90105,90200,90402
 3.2000e+000 90556 -2.1178e+002 -3.4226e+002  7.7868e+001 48865 90001,90200,90530
 3.2000e+000 90579 -2.8881e+002 -1.9485e+002  4.9503e+001 48865 90001,90530,90027
 3.2000e+000 90827 -2.4516e+002 -2.5035e+002  1.3535e+002 48404 90850,90654,90628
 3.2000e+000 90804 -2.5285e+002 -2.7996e+002  2.0738e+002 48404 90850,90628,90732
 3.2000e+000 90781 -1.5341e+002 -2.1379e+002  1.0665e+002 48404 90680,90732,90706
 3.2000e+000 90758 -3.7301e+002 -1.3970e+002  2.0397e+002 48404 90602,90732,90628
 3.2000e+000 90876 -2.3753e+002 -1.4421e+002  1.1814e+002 48404 90680,90654,90850
 3.2000e+000 90899 -2.4940e+002 -2.2402e+002  1.7582e+002 48404 90680,90850,90732
 3.2000e+000 91000 -1.5409e+002 -3.6332e+002  1.1641e+002 48156 90922,90974,90948
 3.2000e+000 91250 -1.0092e+002 -2.3628e+002  5.9647e+001 47752 91051,91103,91077
 3.2000e+000 91227 -1.3918e+002 -2.2661e+002  6.0443e+001 47752 91025,91103,91051
 3.2000e+000 91204 -2.8100e+002 -3.1200e+002  1.4250e+002 47752 91025,91155,91103
 3.2000e+000 91181 -2.6590e+002 -2.8865e+002  1.6220e+002 47752 91103,91155,91129
 3.2000e+000 91402 -2.2215e+002 -2.2261e+002  1.5611e+002 47191 91425,91301,91275
 3.2000e+000 91379 -1.9564e+002 -2.1156e+002  1.6750e+002 47191 91497,91425,91275
 3.2000e+000 91451 -2.3265e+002 -1.4185e+002  1.0045e+002 47191 91327,91301,91425
 3.2000e+000 91474 -2.5434e+002 -2.5202e+002  1.8594e+002 47191 91327,91425,91353
 3.2000e+000 91523 -2.6134e+002 -4.5309e+002  1.7945e+002 47191 91353,91425,91497
 3.2000e+000 91854 -1.5253e+002 -1.4719e+002  1.3806e+002 46744 91949,91877,91707
 3.2000e+000 91831 -2.7231e+001 -2.2926e+002  8.3683e+001 46744 91877,91655,91629
 3.2000e+000 91808 -1.6727e+002 -1.2611e+002  1.2396e+002 46744 91949,91707,91681
 3.2000e+000 91785 -2.1323e+002 -1.9484e+002 -2.5980e+001 46744 91629,91759,91733
 3.2000e+000 91903 -2.9356e+002 -2.2990e+002  1.9341e+002 46744 91733,91707,91877
 3.2000e+000 91926 -1.2421e+002 -3.1046e+002  1.3038e+002 46744 91733,91877,91629
 3.2000e+000 91975 -1.5022e+002 -2.6058e+002  1.6729e+002 46744 91655,91877,91949
 3.2000e+000 91998 -1.0747e+002 -1.9586e+002  1.3393e+002 46744 91655,91949,91681
 3.2000e+000 92378 -1.6599e+002 -6.0063e+001  9.5869e+001 46090 92130,92208,92182
 3.2000e+000 92355 -2.2819e+002 -8.6595e+001  9.5819e+001 46090 92104,92208,92130
 3.2000e+000 92332 -1.0716e+002 -1.7057e+002  9.2571e+001 46090 92104,92260,92208
 3.2000e+000 92309 -8.1961e+001 -6.7824e+001  8.4905e+001 46090 92208,92260,92234
 3.2000e+000 92286 -3.0004e+002 -1.1358e+002  1.2218e+002 46090 92130,92182,92156
 3.2000e+000 92626 -1.5212e+002 -2.1048e+002  7.3441e+001 45693 92721,92649,92505
 3.2000e+000 92603 -1.7731e+002 -2.1166e+002  1.6251e+002 45693 92649,92453,92427
 3.2000e+000 92580 -1.6811e+002 -1.6679e+002  6.9238e+001 45693 92721,92505,92479
 3.2000e+000 92557 -3.1085e+002 -3.1445e+002  2.0105e+002 45693 92401,92531,92427
 3.2000e+000 92675 -2.5842e+002 -2.0441e+002  9.7321e+001 45693 92531,92505,92649
 3.2000e+000 92698 -2.9153e+002 -2.5399e+002  2.1775e+002 45693 92531,92649,92427
 3.2000e+000 92747 -1.6068e+002 -1.5934e+002  7.2649e+001 45693 92453,92649,92721
 3.2000e+000 92770 -1.1454e+002 -2.5943e+001  8.9563e+001 45693 92453,92721,92479
 3.2000e+000 93172 -1.1597e+002 -1.9245e+002  1.7530e+002 45331 92898,93028,92924
 3.2000e+000 93149 -7.5259e+001 -1.8102e+002  1.2126e+002 45331 92898,93054,93028
 3.2000e+000 93126 -1.7007e+002 -1.1556e+002  1.9605e+002 45331 92924,93002,92976
 3.2000e+000 93103 -6.9423e+001 -1.7280e+002  1.7281e+002 45331 92924,93028,93002
 3.2000e+000 93080 -1.8384e+002 -2.0085e+002  2.0517e+002 45331 92924,92976,92950
 3.2000e+000 93518 -3.1663e+002 -3.4995e+002  2.0908e+002 44820 93613,93273,93247
 3.2000e+000 93495 -2.7180e+002 -3.0523e+002  1.2106e+002 44820 93685,93541,93247
 3.2000e+000 93472 -2.7851e+002 -2.3468e+002  1.0548e+002 44820 93541,93195,93377
 3.2000e+000 93449 -2.8979e+002 -2.8266e+002  1.0061e+002 44820 93685,93247,93221
 3.2000e+000 93426 -2.4480e+002 -3.0442e+002  1.8014e+002 44820 93299,93377,93351
 3.2000e+000 93403 -2.0904e+002 -1.9865e+002  2.0793e+002 44820 93299,93351,93325
 3.2000e+000 93567 -2.4039e+002 -3.5820e+002  1.0383e+002 44820 93613,93247,93541
 3.2000e+000 93590 -2.4863e+002 -3.1572e+002  7.5400e+001 44820 93299,93541,93377
 3.2000e+000 93639 -2.3816e+002 -4.3220e+002  1.3487e+002 44820 93299,93273,93613
 3.2000e+000 93662 -2.5768e+002 -4.2779e+002  1.1166e+002 44820 93299,93613,93541
 3.2000e+000 93711 -2.6838e+002 -2.5576e+002  8.8262e+001 44820 93195,93541,93685
 3.2000e+000 93734 -2.4611e+002 -1.6784e+002  6.8481e+001 44820 93195,93685,93221
 3.2000e+000 94163 -2.5186e+002 -2.7170e+002  1.1650e+002 44237 94258,94186,93996
 3.2000e+000 94140 -2.7631e+002 -3.2894e+002  6.3984e+001 44237 94330,94022,93996
 3.2000e+000 94117 -2.8901e+002 -2.6945e+002  8.7011e+001 44237 94186,93918,93866
 3.2000e+000 94094 -2.2479e+002 -1.9619e+002  1.1279e+002 44237 94258,93996,93970
 3.2000e+000 94071 -2.6322e+002 -1.3631e+002  1.0090e+002 44237 94402,93944,93918
 3.2000e+000 94048 -1.8578e+002 -2.5944e+002  1.0971e+002 44237 93866,93918,93892
 3.2000e+000 94212 -2.7769e+002 -3.3269e+002  8.5720e+001 44237 94330,93996,94186
 3.2000e+000 94235 -2.6933e+002 -2.5335e+002  9.4572e+001 44237 93840,94186,93866
 3.2000e+000 94284 -2.5422e+002 -1.9882e+002  7.2620e+001 44237 93918,94186,94258
 3.2000e+000 94307 -2.5054e+002 -1.4643e+002  8.2483e+001 44237 94402,93918,94258
 3.2000e+000 94356 -3.0341e+002 -1.4498e+002 -4.2613e-001 44237 93840,94022,94330
 3.2000e+000 94379 -2.6179e+002 -2.9029e+002  9.3364e+001 44237 93840,94330,94186
 3.2000e+000 94428 -2.7255e+002 -1.7681e+002  1.0839e+002 44237 93970,93944,94402
 3.2000e+000 94451 -2.6334e+002 -1.8919e+002  8.5336e+001 44237 93970,94402,94258
 3.2000e+000 94908 -1.2718e+002 -2.9280e+002  9.6502e+001 43890 94660,94790,94712
 3.2000e+000 94885 -1.1403e+002 -1.4017e+002  1.3245e+002 43890 94634,94790,94660
 3.2000e+000 94862 -2.8997e+002 -1.4354e+002  8.3717e+001 43890 94712,94764,94738
 3.2000e+000 94839 -1.2271e+002 -2.9470e+002  1.2413e+002 43890 94712,94790,94764
 3.2000e+000 94816 -7.7483e+001 -3.4410e+002  1.7117e+002 43890 94660,94712,94686
 3.2000e+000 95414 -1.8001e+002 -1.0243e+002  7.2990e+001 43186 95437,95143,95117
 3.2000e+000 95391 -2.0565e+002 -2.3968e+002  9.4541e+001 43186 95437,95117,95091
 3.2000e+000 95368 -6.2925e+001 -9.4841e+001  8.0196e+001 43186 95143,95221,95195
 3.2000e+000 95345 -3.2191e+002 -2.2848e+002  2.3778e+002 43186 95091,95273,95221
 3.2000e+000 95322 -2.1557e+002 -1.3488e+002  1.0504e+002 43186 95221,95273,95247
 3.2000e+000 95299 -1.4001e+002 -1.2666e+002  2.5279e+000 43186 95143,95195,95169
 3.2000e+000 95463 -1.7738e+002 -1.9510e+002  1.4086e+002 43186 95221,95143,95437
 3.2000e+000 95486 -1.8662e+002 -3.0168e+002  1.6626e+002 43186 95221,95437,95091
 3.2000e+000 96041 -2.9954e+002 -2.7860e+002  8.4414e+001 42782 95695,95851,95799
 3.2000e+000 96018 -2.6603e+002 -3.2220e+002  9.1244e+001 42782 95669,95851,95695
 3.2000e+000 95995 -2.9021e+002 -1.7817e+002  9.7448e+001 42782 95695,95747,95721
 3.2000e+000 95972 -2.1406e+002 -2.4201e+002  8.5091e+001 42782 95695,95799,95747
 3.2000e+000 95949 -1.9617e+002 -1.5937e+002  5.6489e+001 42782 95747,95799,95773
 3.2000e+000 95926 -3.8030e+002 -3.4741e+002  1.3937e+002 42782 95799,95851,95825
 3.2000e+000 95903 -3.7163e+002 -3.6931e+002  1.0010e+002 42782 95669,95877,95851
 3.2000e+000 96370 -2.6474e+002 -3.1880e+002  2.0627e+002 42420 96197,96275,96223
 3.2000e+000 96347 -2.7758e+002 -3.0387e+002  1.8511e+002 42420 96145,96275,96197
 3.2000e+000 96324 -2.2782e+002 -1.7711e+002  1.6075e+002 42420 96145,96197,96171
 3.2000e+000 96301 -1.4989e+002 -2.7454e+002  9.2348e+001 42420 96223,96275,96249
 3.2000e+000 96699 -2.0413e+002 -3.7591e+002  7.3809e+001 41816 96474,96578,96526
 3.2000e+000 96676 -1.1047e+002 -2.2848e+002 -5.5482e+001 41816 96474,96604,96578
 3.2000e+000 96653 -3.0791e+002 -1.2293e+002  1.5417e+002 41816 96526,96578,96552
 3.2000e+000 96630 -1.5666e+002 -3.0476e+002  4.3116e+001 41816 96474,96526,96500
 3.2000e+000 96947 -1.4266e+002 -3.3292e+002  3.1919e+001 41212 96722,96800,96748
 3.2000e+000 96924 -1.9101e+002 -3.2764e+002  5.3168e+001 41212 96722,96826,96800
 3.2000e+000 96901 -2.1803e+002 -3.5258e+002  7.1672e+001 41212 96722,96852,96826
 3.2000e+000 96878 -4.6545e+001 -2.9088e+002  3.7446e+001 41212 96748,96800,96774
 3.2000e+000 97097 -1.4291e+002 -6.2269e+001  1.3672e+002 40793 97120,97022,96996
 3.2000e+000 97074 -2.6541e+002 -3.0016e+002  8.7579e+001 40793 97192,97120,96996
 3.2000e+000 97146 -1.0572e+002 -2.5242e+002  1.2505e+002 40793 97324,97120,97048
 3.2000e+000 97169 -9.4576e+001 -3.9315e+002  1.2258e+002 40793 97048,97120,96970
 3.2000e+000 97218 -4.2883e+001 -2.0498e+002  9.0571e+001 40793 96970,97120,97192
 3.2000e+000 97350 -1.0572e+002 -2.5242e+002  1.2505e+002 40793 97022,97120,97324
 3.2000e+000 97878 -1.5075e+002 -3.2014e+002  7.3276e+001 40446 97901,97607,97555
 3.2000e+000 97855 -1.5418e+002 -2.2113e+002  7.6544e+001 40446 97973,97901,97555
 3.2000e+000 97832 -1.0262e+002 -1.8555e+002  5.9527e+001 40446 97973,97555,97737
 3.2000e+000 97809 -2.2377e+002 -2.9679e+002  9.9941e+001 40446 97633,97685,97659
 3.2000e+000 97786 -1.5346e+002 -2.5660e+002  8.3711e+001 40446 97633,97711,97685
 3.2000e+000 97763 -1.4722e+002 -3.5781e+002  8.7101e+001 40446 97555,97607,97581
 3.2000e+000 97927 -1.7259e+002 -4.0332e+002 -8.2922e+000 40446 97633,97607,97901
 3.2000e+000 97950 -1.5369e+002 -3.1049e+002  6.8267e+001 40446 97633,97901,97711
 3.2000e+000 97999 -8.2691e+001 -2.9282e+002  1.0522e+002 40446 97711,97901,97973
 3.2000e+000 98022 -3.9940e+001 -2.5233e+002  8.8588e+001 40446 97711,97973,97737
 3.2000e+000 98449 -8.8817e+001 -9.5467e+001  4.9412e+001 39935 98152,98204,98178
 3.2000e+000 98426 -1.0657e+002 -1.1474e+002  4.1342e+001 39935 98152,98230,98204
 3.2000e+000 98403 -1.9481e+002 -1.2797e+002  1.1850e+002 39935 98152,98256,98230
 3.2000e+000 98380 -1.6722e+002 -1.2699e+002  1.1743e+002 39935 98126,98256,98152
 3.2000e+000 98357 -2.3689e+002 -3.0155e+002  1.2878e+002 39935 98126,98282,98256
 3.2000e+000 98334 -1.3129e+002 -3.8713e+002  1.5815e+002 39935 98126,98308,98282
 3.2000e+000 98746 -3.8998e+002 -2.5978e+002  1.2378e+002 39531 98498,98602,98524
 3.2000e+000 98723 -2.3121e+002 -2.8295e+002  8.2791e+001 39531 98472,98602,98498
 3.2000e+000 98700 -4.1464e+002 -1.4077e+002  6.7504e+001 39531 98524,98602,98576
 3.2000e+000 98677 -2.1499e+002 -2.6798e+002  7.5773e+001 39531 98472,98628,98602
 3.2000e+000 98654 -5.8681e+002 -1.8426e+002  6.5880e+001 39531 98524,98576,98550
 3.2000e+000 99224 -1.6054e+002 -1.7926e+002  9.7843e+001 39027 99247,98956,98930
 3.2000e+000 99201 -1.9989e+002 -3.0724e+002  6.2853e+001 39027 99247,98930,98878
 3.2000e+000 99178 -1.8196e+002 -2.6383e+002  1.9139e+002 39027 99319,98982,98956
 3.2000e+000 99155 -9.9354e+001 -1.1636e+002  1.0620e+002 39027 98852,99060,98878
 3.2000e+000 99132 -2.6712e+002 -1.8592e+002 -1.0134e+001 39027 98878,98930,98904
 3.2000e+000 99109 -2.5197e+002 -3.5535e+002  2.4480e+002 39027 98982,99060,99034
 3.2000e+000 99086 -4.0294e+002 -5.7686e+002  3.8168e+002 39027 98982,99034,99008
 3.2000e+000 99273 -2.2426e+002 -3.0350e+002  1.2220e+002 39027 99319,98956,99247
 3.2000e+000 99296 -1.2225e+002 -2.7112e+002  7.4934e+001 39027 99060,99247,98878
 3.2000e+000 99345 -1.1792e+002 -2.4071e+002  1.9332e+002 39027 99060,98982,99319
 3.2000e+000 99368 -7.9990e+001 -2.4404e+002  1.4663e+002 39027 99060,99319,99247
 3.2000e+000 99923 -2.6950e+002 -2.3591e+002  1.3529e+002 38523 99946,99655,99603
 3.2000e+000 99900 -2.3658e+002 -2.1911e+002  1.4266e+002 38523 99946,99603,99759
 3.2000e+000 99877 -1.4884e+002 -3.1076e+002  1.6064e+002 38523 100018,99707,99681
 3.2000e+000 99854 -2.4517e+002 -1.5034e+002  1.3736e+002 38523 99551,99759,99603
 3.2000e+000 99831 -2.2003e+002 -1.3718e+002  1.1426e+002 38523 99551,99603,99577
 3.2000e+000 99808 -2.5143e+002 -3.9950e+002  1.1416e+002 38523 99707,99759,99733
 3.2000e+000 99785 -2.0723e+002 -2.0186e+002  1.1800e+002 38523 99603,99655,99629
 3.2000e+000 99972 -2.1949e+002 -1.1891e+002  1.3880e+002 38523 99681,99655,99946
 3.2000e+000 99995 -1.7641e+002 -1.7355e+002  1.8439e+002 38523 100018,99681,99946
 3.2000e+000 100044 -1.9318e+002 -3.6584e+002  1.0029e+002 38523 99759,99707,100018
 3.2000e+000 100067 -2.6818e+002 -3.1202e+002  1.2608e+002 38523 99759,100018,99946
 3.2000e+000 100467 -7.4753e+001 -2.1690e+002  5.9210e+001 38125 100219,100349,100323
 3.2000e+000 100444 -8.1629e+001 -1.9069e+002  5.0442e+001 38125 100193,100349,100219
 3.2000e+000 100421 -8.5818e+001 -1.6051e+002  7.1981e+001 38125 100245,100323,100297
 3.2000e+000 100398 -9.5941e+001 -2.2519e+002  6.3505e+001 38125 100219,100323,100245
 3.2000e+000 100375 -1.4698e+002 -1.9329e+002  5.5210e+001 38125 100245,100297,100271
 3.2000e+000 100666 -2.5112e+002 -3.8882e+002  1.2532e+002 37607 100689,100568,100542
 3.2000e+000 100643 -1.7952e+002 -1.8411e+002  1.1084e+002 37607 100689,100542,100490
 3.2000e+000 100620 -2.8364e+001 -1.2154e+002  3.8161e+001 37607 100490,100542,100516
 3.2000e+000 100715 -1.8995e+002 -1.8994e+002  8.6573e+001 37607 100594,100568,100689
 3.2000e+000 100738 -2.2497e+002 -1.3289e+002  8.8600e+001 37607 100594,100689,100490
 3.2000e+000 100937 -1.1389e+002 -1.2503e+002  1.1315e+002 37017 100960,100813,100787
 3.2000e+000 100914 -2.9263e+001 -1.2808e+002  2.5599e+001 37017 100960,100787,100761
 3.2000e+000 100891 -2.9057e+002 -7.8060e+001  1.5733e+002 37017 100813,100865,100839
 3.2000e+000 100986 -2.2729e+002 -2.2089e+002  2.0132e+002 37017 100865,100813,100960
 3.2000e+000 101009 -6.6514e+001 -1.6932e+002  1.0761e+002 37017 100865,100960,100761
 3.2000e+000 101519 -2.4264e+002 -2.0798e+002  6.1178e+001 36613 101222,101274,101248
 3.2000e+000 101496 -2.0765e+002 -2.1943e+002  7.9128e+001 36613 101222,101352,101274
 3.2000e+000 101473 -1.6382e+002 -3.9313e+002 -1.7808e+001 36613 101274,101352,101326
 3.2000e+000 101450 -1.9607e+002 -2.6779e+002  5.9367e+001 36613 101222,101378,101352
 3.2000e+000 101427 -1.9191e+002 -6.0081e+002 -1.1139e+001 36613 101274,101326,101300
 3.2000e+000 101404 -1.6177e+002 -2.2335e+002  1.1994e+002 36613 101196,101378,101222
 3.2000e+000 101718 -1.6776e+002 -1.2682e+002  1.5460e+002 36308 101594,101646,101620
 3.2000e+000 101695 -1.6923e+002 -9.2897e+001  1.1787e+002 36308 101568,101646,101594
 3.2000e+000 101672 -1.3519e+002 -1.1356e+002  1.2294e+002 36308 101542,101646,101568
 3.2000e+000 102098 -1.7010e+002 -1.8113e+002  9.3328e+001 35918 102121,101954,101876
 3.2000e+000 102075 -1.3471e+002 -2.1816e+002  7.7871e+001 35918 102121,101876,101824
 3.2000e+000 102052 -1.6777e+002 -1.8177e+002  7.6805e+001 35918 101876,101954,101928
 3.2000e+000 102029 -3.0536e+002 -8.7212e+001  9.8035e+001 35918 101876,101928,101902
 3.2000e+000 102006 -1.1808e+002 -1.8072e+002  8.5391e+001 35918 101824,101876,101850
 3.2000e+000 102147 -1.8319e+002 -2.1525e+002  1.1071e+002 35918 101980,101954,102121
 3.2000e+000 102170 -1.4782e+002 -2.5544e+002  9.1667e+001 35918 101980,102121,101824
 3.2000e+000 102489 -2.3773e+002 -5.3291e+002  1.8352e+002 35514 102241,102345,102267
 3.2000e+000 102466 -3.1070e+002 -5.5168e+002  1.8020e+002 35514 102215,102345,102241
 3.2000e+000 102443 -2.5189e+002 -6.0132e+002  1.9156e+002 35514 102215,102371,102345
 3.2000e+000 102420 -1.9775e+002 -4.6452e+002  2.0424e+002 35514 102267,102345,102293
 3.2000e+000 102397 -1.1997e+002 -2.9933e+002  2.2766e+002 35514 102293,102345,102319
 3.2000e+000 102820 -2.5334e+002 -1.9021e+002  3.0031e+001 35224 102843,102699,102647
 3.2000e+000 102797 -1.8749e+002 -1.5580e+002  4.8170e+001 35224 102971,102725,102699
 3.2000e+000 102774 -2.0077e+002 -1.4038e+002  1.0252e+002 35224 102595,102725,102621
 3.2000e+000 102751 -8.2382e+001 -1.7044e+002  7.0562e+001 35224 102647,102699,102673
 3.2000e+000 102869 -1.7455e+002 -1.5422e+002  4.7272e+001 35224 102971,102699,102843
 3.2000e+000 102997 -1.7302e+002 -1.6033e+002  4.9348e+001 35224 102621,102725,102971
 3.2000e+000 103020 -1.5771e+002 -1.5683e+002  5.0004e+001 35224 102621,102971,102843
 3.2000e+000 103349 -2.9540e+002 -2.4279e+002  1.4505e+002 34820 103150,103228,103176
 3.2000e+000 103326 -2.7421e+002 -2.4639e+002  1.4625e+002 34820 103124,103228,103150
 3.2000e+000 103303 -2.3761e+002 -2.4246e+002  2.3700e+002 34820 103176,103228,103202
 3.2000e+000 103280 -1.8207e+002 -2.0445e+002  1.6903e+002 34820 103124,103254,103228
 3.2000e+000 103806 -1.5152e+002 -1.5727e+002  5.4058e+001 34530 103558,103662,103636
 3.2000e+000 103783 -1.3582e+002 -1.3633e+002  7.2282e+001 34530 103558,103688,103662
 3.2000e+000 103760 -1.4908e+002 -1.5377e+002  6.2887e+001 34530 103532,103688,103558
 3.2000e+000 103737 -7.7948e+001 -1.9147e+002  3.9628e+001 34530 103584,103636,103610
 3.2000e+000 103714 -2.3259e+002 -1.6932e+002  5.4044e+001 34530 103558,103636,103584
 3.2000e+000 104263 -1.5319e+002 -1.5232e+002  1.1565e+002 34019 103989,104119,104015
 3.2000e+000 104240 -1.1315e+002 -1.3464e+002  1.1849e+002 34019 103989,104145,104119
 3.2000e+000 104217 -1.5072e+002 -2.0348e+002  8.3052e+001 34019 104015,104067,104041
 3.2000e+000 104194 -1.6514e+002 -2.1224e+002  1.0327e+002 34019 104015,104119,104067
 3.2000e+000 104171 -1.7815e+002 -1.4338e+002  1.0127e+002 34019 104067,104119,104093
 3.2000e+000 104641 -1.7119e+002 -2.1372e+002  8.1067e+001 33351 104419,104497,104445
 3.2000e+000 104618 -1.4366e+002 -1.4650e+002  1.2166e+002 33351 104393,104497,104419
 3.2000e+000 104595 -2.7473e+002 -2.1453e+002  7.3898e+001 33351 104367,104497,104393
 3.2000e+000 104572 -1.5140e+002 -1.6784e+002  5.0445e+001 33351 104445,104497,104471
 3.2000e+000 104549 -2.0696e+002 -1.1071e+002  4.4098e+001 33351 104367,104523,104497
 3.2000e+000 105019 -2.0548e+002 -4.0948e+002  2.3487e+002 32861 104823,104901,104875
 3.2000e+000 104996 -2.8008e+002 -4.6715e+002  1.9971e+002 32861 104745,104901,104823
 3.2000e+000 104973 -3.0507e+002 -4.5336e+002  2.2179e+002 32861 104823,104875,104849
 3.2000e+000 104950 -2.7437e+002 -4.3600e+002  2.4408e+002 32861 104745,104823,104797
 3.2000e+000 104927 -3.2740e+002 -1.7622e+002  2.3968e+002 32861 104745,104797,104771
 3.2000e+000 105397 -1.0143e+002 -2.5704e+002  1.1013e+002 32457 105149,105253,105175
 3.2000e+000 105374 -1.6817e+002 -2.3757e+002  9.7293e+001 32457 105149,105279,105253
 3.2000e+000 105351 -8.4802e+001 -2.0213e+002  1.1028e+002 32457 105123,105279,105149
 3.2000e+000 105328 -2.0491e+002 -6.7125e+001  1.7204e+002 32457 105175,105227,105201
 3.2000e+000 105305 -2.2538e+002 -3.1049e+002  1.0543e+002 32457 105175,105253,105227
 3.2000e+000 105726 -9.4592e+001 -2.8813e+002  1.2963e+002 32003 105527,105605,105553
 3.2000e+000 105703 -1.5947e+002 -2.4097e+002  1.2063e+002 32003 105501,105605,105527
 3.2000e+000 105680 -8.6533e+001 -2.1149e+002  1.1948e+002 32003 105501,105631,105605
 3.2000e+000 105657 -5.2141e+001 -1.8682e+002  1.1900e+002 32003 105553,105605,105579
 3.2000e+000 106104 -1.3820e+002 -2.1428e+002  5.6105e+001 31492 106127,105908,105856
 3.2000e+000 106081 -1.4981e+002 -2.1968e+002  7.0956e+001 31492 106127,105856,105830
 3.2000e+000 106058 -1.7717e+002 -2.5549e+002  7.2751e+001 31492 105856,105908,105882
 3.2000e+000 106035 -1.3721e+002 -1.4438e+002  2.5379e+001 31492 105830,105986,105960
 3.2000e+000 106012 -8.5262e+001 -2.0894e+002  7.8299e+001 31492 105908,105960,105934
 3.2000e+000 106153 -1.3265e+002 -2.0558e+002  5.3194e+001 31492 105960,105908,106127
 3.2000e+000 106176 -1.3764e+002 -1.9996e+002  6.5856e+001 31492 105960,106127,105830
 3.2000e+000 106375 -2.0583e+002 -2.1769e+002  1.3913e+002 30788 106398,106277,106251
 3.2000e+000 106352 -1.9539e+002 -2.9153e+002  1.6331e+002 30788 106398,106251,106225
 3.2000e+000 106329 -3.1571e+002 -2.4931e+002  2.1226e+002 30788 106600,106199,106303
 3.2000e+000 106424 -3.3139e+002 -3.4112e+002  9.4693e+001 30788 106470,106398,106303
 3.2000e+000 106447 -2.2572e+002 -2.8380e+002  1.5503e+002 30788 106600,106303,106398
 3.2000e+000 106496 -7.4924e+001 -2.3116e+002  1.1183e+002 30788 106277,106398,106470
 3.2000e+000 106626 -3.6973e+002 -3.2002e+002  2.5538e+002 30788 106225,106199,106600
 3.2000e+000 106649 -3.0864e+002 -3.5946e+002  1.9743e+002 30788 106225,106600,106398
 3.2000e+000 106799 -9.2058e+001 -2.5551e+002  1.0029e+001 30426 106698,106750,106724
 3.2000e+000 106776 -9.2304e+001 -2.1515e+002  1.1493e+001 30426 106672,106750,106698
 3.2000e+000 107356 -1.2598e+002 -2.1410e+002  1.3032e+002 29972 107010,107166,107114
 3.2000e+000 107333 -1.8037e+002 -2.2661e+002  1.3825e+002 29972 106984,107166,107010
 3.2000e+000 107310 -1.9626e+002 -1.6979e+002  1.0812e+002 29972 107010,107114,107088
 3.2000e+000 107287 -1.6073e+002 -1.6465e+002  6.0867e+001 29972 107114,107166,107140
 3.2000e+000 107264 -1.6931e+002 -1.7976e+002  1.1022e+002 29972 106984,107192,107166
 3.2000e+000 107241 -3.2247e+002 -3.7816e+002  1.6201e+002 29972 107010,107088,107036
 3.2000e+000 107218 -1.9754e+002 -3.1623e+002  8.7925e+001 29972 107036,107088,107062
 3.2000e+000 107783 -2.6272e+002 -3.3838e+002  1.8349e+002 29724 107878,107806,107590
 3.2000e+000 107760 -3.6245e+002 -3.7669e+002  1.6589e+002 29724 107806,107512,107486
 3.2000e+000 107737 -2.6134e+002 -3.3175e+002  1.9001e+002 29724 107878,107590,107538
 3.2000e+000 107714 -2.7392e+002 -3.9485e+002  2.0855e+002 29724 107950,107460,107616
 3.2000e+000 107691 -2.6068e+002 -3.8719e+002  2.0094e+002 29724 107460,107642,107616
 3.2000e+000 107668 -1.9774e+002 -2.4937e+002  2.2055e+002 29724 107538,107590,107564
 3.2000e+000 107832 -1.9905e+002 -3.4708e+002  2.2902e+002 29724 107616,107590,107806
 3.2000e+000 107855 -2.7781e+002 -3.9798e+002  2.0437e+002 29724 107950,107616,107806
 3.2000e+000 107904 -2.7374e+002 -3.2782e+002  2.0324e+002 29724 107512,107806,107878
 3.2000e+000 107927 -2.3884e+002 -3.0381e+002  2.1531e+002 29724 107512,107878,107538
 3.2000e+000 107976 -1.6971e+002 -3.9168e+002  2.2647e+002 29724 107486,107460,107950
 3.2000e+000 107999 -2.6406e+002 -4.2226e+002  1.9927e+002 29724 107486,107950,107806
 3.2000e+000 108296 -2.9936e+002 -2.1766e+002  1.5133e+002 29206 108319,108100,108048
 3.2000e+000 108273 -1.6151e+002 -1.8848e+002  1.9160e+002 29206 108319,108048,108022
 3.2000e+000 108250 -8.9641e+001 -2.3040e+002  2.3938e+002 29206 108391,108152,108126
 3.2000e+000 108227 -3.4516e+002 -1.4982e+002  1.7943e+002 29206 108048,108100,108074
 3.2000e+000 108204 -1.2740e+002 -3.1743e+002  2.0959e+002 29206 108022,108178,108152
 3.2000e+000 108345 -2.1824e+002 -1.1064e+002  2.2821e+002 29206 108126,108100,108319
 3.2000e+000 108368 -1.1991e+002 -1.8187e+002  2.6491e+002 29206 108391,108126,108319
 3.2000e+000 108417 -1.5996e+002 -2.8773e+002  2.0871e+002 29206 108022,108152,108391
 3.2000e+000 108440 -1.8362e+002 -2.5029e+002  2.3599e+002 29206 108022,108391,108319
 3.2000e+000 108688 -2.5829e+002 -2.8584e+002  2.1125e+002 28595 108711,108541,108515
 3.2000e+000 108665 -3.9949e+002 -3.2466e+002  2.5423e+002 28595 108783,108711,108515
 3.2000e+000 108642 -4.8442e+002 -2.7935e+002  2.5175e+002 28595 108783,108515,108489
 3.2000e+000 108619 -4.2367e+002 -3.4449e+002  1.0731e+002 28595 108463,108593,108489
 3.2000e+000 108737 -2.4339e+002 -2.6221e+002  1.5459e+002 28595 108567,108541,108711
 3.2000e+000 108760 -2.0983e+002 -2.7411e+002  2.2257e+002 28595 108567,108711,108593
 3.2000e+000 108809 -2.4809e+002 -3.2796e+002  1.9627e+002 28595 108593,108711,108783
 3.2000e+000 108832 -3.8026e+002 -3.1044e+002  1.7141e+002 28595 108593,108783,108489
 3.2000e+000 109033 -8.7671e+001 -9.5964e+001  5.2862e+001 28091 108909,108961,108935
 3.2000e+000 109010 -8.3035e+001 -1.2255e+002  5.0364e+001 28091 108857,108961,108909
 3.2000e+000 108987 -1.6759e+002 -1.8385e+002  1.4807e+002 28091 108857,108909,108883
 3.2000e+000 109136 -2.2810e+002 -5.3591e+002  1.0019e+002 27587 109058,109110,109084
 3.2000e+000 109695 -1.5103e+002 -2.3122e+002  8.0760e+001 26969 109718,109375,109323
 3.2000e+000 109672 -1.6437e+002 -2.5981e+002  8.4352e+001 26969 109718,109323,109505
 3.2000e+000 109649 -1.8867e+002 -1.2833e+002  7.1554e+001 26969 109790,109453,109427
 3.2000e+000 109626 -1.0137e+002 -1.4499e+002  1.0647e+002 26969 109323,109375,109349
 3.2000e+000 109603 -1.6941e+002 -2.0800e+002  4.7701e+001 26969 109323,109531,109505
 3.2000e+000 109580 -1.6452e+002 -2.9266e+002  9.2329e+001 26969 109375,109427,109401
 3.2000e+000 109557 -2.4341e+002 -2.5164e+002  1.3598e+002 26969 109453,109505,109479
 3.2000e+000 109744 -1.7332e+002 -2.4715e+002  6.7029e+001 26969 109427,109375,109718
 3.2000e+000 109767 -1.4431e+002 -1.7945e+002  6.9013e+001 26969 109790,109427,109718
 3.2000e+000 109816 -2.0515e+002 -1.8233e+002  9.6245e+001 26969 109505,109453,109790
 3.2000e+000 109839 -1.7568e+002 -2.4270e+002  1.0159e+002 26969 109505,109790,109718
 3.2000e+000 110266 -1.3377e+002 -2.7259e+002  2.6350e+001 26515 110361,110289,110099
 3.2000e+000 110243 -1.1240e+002 -1.8269e+002  3.5983e+001 26515 110289,109995,109943
 3.2000e+000 110220 -1.9048e+002 -2.9701e+002  2.7681e+001 26515 110361,110099,110021
 3.2000e+000 110197 -1.6859e+002 -4.9186e+002  4.0852e+001 26515 110047,110099,110073
 3.2000e+000 110174 -1.5499e+002 -4.6810e+002 -5.2336e+001 26515 110021,110099,110047
 3.2000e+000 110151 -5.8693e+001 -1.3695e+002  6.4274e+001 26515 109943,109995,109969
 3.2000e+000 110315 -1.4987e+002 -1.5467e+002 -1.7890e+001 26515 110125,110099,110289
 3.2000e+000 110338 -1.6428e+002 -4.4821e+001  8.5186e+001 26515 110125,110289,109943
 3.2000e+000 110387 -1.7785e+002 -2.4685e+002 -4.0728e+001 26515 109995,110289,110361
 3.2000e+000 110410 -2.2661e+002 -2.6766e+002 -3.5455e+001 26515 109995,110361,110021
 3.2000e+000 110609 -5.6701e+001 -3.1914e+002  1.2711e+002 25789 110906,110762,110632
 3.2000e+000 110586 -6.7276e+001 -3.9447e+002  1.4206e+002 25789 110762,110433,110537
 3.2000e+000 110563 -1.9728e+002 -3.6104e+002  2.1393e+002 25789 110834,110459,110433
 3.2000e+000 110658 -1.0272e+002 -3.0367e+002  1.5827e+002 25789 110906,110632,110834
 3.2000e+000 110788 -3.1786e+001 -2.1230e+002  7.5504e+001 25789 110511,110632,110762
 3.2000e+000 110811 -7.4071e+001 -3.1746e+002  1.3532e+002 25789 110511,110762,110537
 3.2000e+000 110860 -1.1540e+002 -3.1071e+002  1.7502e+002 25789 110485,110459,110834
 3.2000e+000 110883 -1.3610e+002 -2.7785e+002  1.4703e+002 25789 110485,110834,110632
 3.2000e+000 110932 -1.4627e+002 -3.4902e+002  1.2926e+002 25789 110433,110762,110906
 3.2000e+000 110955 -1.8339e+002 -3.2475e+002  1.5410e+002 25789 110433,110906,110834
 3.2000e+000 111350 -2.0268e+002 -2.6753e+002  1.9096e+002 25228 111445,111373,111186
 3.2000e+000 111327 -2.0209e+002 -2.9006e+002  3.1793e+001 25228 110978,111186,111004
 3.2000e+000 111304 -1.9581e+002 -3.5157e+002  1.8261e+002 25228 111373,111108,111082
 3.2000e+000 111281 -1.9368e+002 -3.4746e+002  1.3165e+002 25228 111134,111186,111160
 3.2000e+000 111258 -2.0849e+002 -2.4637e+002  1.5558e+002 25228 111445,111186,111134
 3.2000e+000 111235 -1.5455e+002 -1.8034e+002  1.0405e+002 25228 111517,111030,111004
 3.2000e+000 111212 -2.3266e+002 -2.5719e+002  1.6012e+002 25228 111030,111082,111056
 3.2000e+000 111399 -1.9934e+002 -3.1604e+002  1.8511e+002 25228 111004,111186,111373
 3.2000e+000 111422 -1.2978e+002 -2.2620e+002  1.4894e+002 25228 111517,111004,111373
 3.2000e+000 111471 -1.5240e+002 -2.3967e+002  1.6928e+002 25228 111108,111373,111445
 3.2000e+000 111494 -1.5836e+002 -2.1627e+002  1.3366e+002 25228 111108,111445,111134
 3.2000e+000 111543 -2.2008e+002 -1.9864e+002  1.5960e+002 25228 111082,111030,111517
 3.2000e+000 111566 -2.0069e+002 -2.6493e+002  2.0491e+002 25228 111082,111517,111373
 3.2000e+000 112074 -1.1794e+002 -1.6305e+002  8.3821e+001 24338 112097,111907,111881
 3.2000e+000 112051 -1.4557e+002 -1.4867e+002  3.6319e+001 24338 112097,111881,111829
 3.2000e+000 112028 -5.2778e+001 -1.6433e+002  2.5871e+001 24338 111829,111881,111855
 3.2000e+000 112005 -1.6092e+002 -2.4582e+002  8.0316e+001 24338 111777,111933,111829
 3.2000e+000 111982 -2.7562e+002 -1.0905e+002  6.9811e+001 24338 111751,111933,111777
 3.2000e+000 111959 -2.3545e+002 -2.9049e+002  9.8753e+001 24338 111777,111829,111803
 3.2000e+000 112123 -1.6281e+002 -3.0865e+002  9.4651e+001 24338 111933,111907,112097
 3.2000e+000 112146 -1.2984e+002 -1.9024e+002  5.3863e+001 24338 111933,112097,111829
 3.2000e+000 112443 -2.8361e+002 -1.9594e+002  1.2394e+002 23998 112466,112299,112247
 3.2000e+000 112420 -3.1614e+002 -3.3668e+002  1.2321e+002 23998 112466,112247,112221
 3.2000e+000 112397 -2.1471e+002 -3.9409e+002  2.0292e+002 23998 112169,112325,112221
 3.2000e+000 112374 -2.0439e+002 -4.1507e+002  2.1906e+002 23998 112169,112221,112195
 3.2000e+000 112351 -1.4808e+002 -1.6546e+002  1.5230e+002 23998 112247,112299,112273
 3.2000e+000 112492 -2.8740e+002 -2.1656e+002  2.0828e+002 23998 112325,112299,112466
 3.2000e+000 112515 -3.1466e+002 -2.9415e+002  1.8852e+002 23998 112325,112466,112221
 3.2000e+000 113200 -3.1158e+002 -3.6047e+002  2.5903e+002 23480 112779,112961,112805
 3.2000e+000 113177 -3.2189e+002 -2.7101e+002  1.2182e+002 23480 112779,112987,112961
 3.2000e+000 113154 -9.1808e+001 -1.7352e+002  1.7278e+002 23480 112805,112961,112883
 3.2000e+000 113131 -1.7543e+002 -2.9845e+002  1.8295e+002 23480 112883,112935,112909
 3.2000e+000 113108 -2.3913e+002 -2.3353e+002  1.8351e+002 23480 112883,112961,112935
 3.2000e+000 113085 -6.8199e+001 -1.3956e+002  9.1296e+001 23480 112831,112883,112857
 3.2000e+000 113062 -1.5297e+002 -1.9281e+002  1.2648e+002 23480 112805,112883,112831
 3.2000e+000 113039 -3.8245e+002 -2.1493e+002  1.3368e+002 23480 112779,113013,112987
 3.2000e+000 113676 -2.9899e+002 -1.2978e+002  2.4238e+002 23018 113699,113434,113356
 3.2000e+000 113653 -2.5911e+002 -1.3072e+002  1.2786e+002 23018 113771,113699,113356
 3.2000e+000 113630 -2.2640e+002 -2.2600e+002  8.9058e+001 23018 113771,113356,113512
 3.2000e+000 113607 -1.6800e+002 -3.0014e+002  1.4423e+002 23018 113330,113512,113356
 3.2000e+000 113584 -6.2148e+002 -2.7880e+002  3.5714e+002 23018 113356,113434,113382
 3.2000e+000 113561 -7.3345e+001 -2.8120e+002  1.4544e+002 23018 113304,113512,113330
 3.2000e+000 113538 -5.5131e+002 -2.6410e+001  1.3653e+002 23018 113382,113434,113408
 3.2000e+000 113725 -3.4043e+002 -2.2590e+002  2.3946e+002 23018 113460,113434,113699
 3.2000e+000 113748 -3.8425e+002 -2.5920e+002  1.4897e+002 23018 113460,113699,113486
 3.2000e+000 113797 -3.4260e+002 -2.6837e+002  1.6288e+002 23018 113486,113699,113771
 3.2000e+000 113820 -2.6082e+002 -2.8997e+002  1.0333e+002 23018 113486,113771,113512
 3.2000e+000 114424 -1.2376e+002 -2.0405e+002  5.4648e+001 22514 114447,114133,114029
 3.2000e+000 114401 -1.2115e+002 -2.2902e+002  5.3697e+001 22514 114447,114029,114237
 3.2000e+000 114378 -5.5215e+001 -1.7351e+002  8.4798e+001 22514 114133,114211,114185
 3.2000e+000 114355 -6.8016e+001 -1.6229e+002  6.9242e+001 22514 114133,114185,114159
 3.2000e+000 114332 -9.3300e+001 -2.4040e+002  1.1333e+002 22514 114003,114237,114029
 3.2000e+000 114309 -1.2863e+002 -1.6407e+002  3.9061e+001 22514 114029,114133,114055
 3.2000e+000 114286 -1.1219e+002 -1.3544e+002  2.9933e+001 22514 114055,114133,114107
 3.2000e+000 114263 -1.2061e+002  8.0213e-001  9.4507e+000 22514 114055,114107,114081
 3.2000e+000 114473 -1.2646e+002 -1.8975e+002  6.3213e+001 22514 114211,114133,114447
 3.2000e+000 114496 -1.1977e+002 -2.0917e+002  6.2022e+001 22514 114211,114447,114237
 3.2000e+000 114597 -1.2430e+002 -2.9819e+002  1.5158e+002 22316 114620,114571,114545
 3.2000e+000 114646 -1.2430e+002 -2.9819e+002  1.5158e+002 22316 114519,114571,114620
 3.2000e+000 115127 -1.7178e+002 -2.8200e+002  6.9736e+001 21612 115150,114905,114879
 3.2000e+000 115104 -2.1535e+002 -1.5166e+002  8.5347e+001 21612 115150,114879,114853
 3.2000e+000 115081 -1.6342e+002 -9.4063e+001  1.3826e+002 21612 115222,114931,114905
 3.2000e+000 115058 -1.3573e+002 -2.0644e+002  1.2245e+002 21612 115222,114905,115009
 3.2000e+000 115035 -1.1778e+002 -2.9346e+002  1.4389e+002 21612 114957,115009,114983
 3.2000e+000 115176 -1.4471e+002 -1.7926e+002  7.0051e+001 21612 115009,114905,115150
 3.2000e+000 115199 -1.7695e+002 -3.1379e+001  8.1043e+001 21612 115009,115150,114853
 3.2000e+000 115248 -1.8783e+002 -1.8068e+002  1.3945e+002 21612 114957,114931,115222
 3.2000e+000 115271 -1.5416e+002 -2.8376e+002  1.2127e+002 21612 114957,115222,115009
 3.2000e+000 115519 -4.7098e+001  3.1905e+001  5.0554e+001 21208 115542,115372,115320
 3.2000e+000 115496  1.6711e+001  6.6510e+001 -3.2537e+000 21208 115542,115320,115294
 3.2000e+000 115473 -3.6224e+001 -8.6578e+001  7.8631e+001 21208 115320,115372,115346
 3.2000e+000 115450 -1.4819e+002 -4.7901e+001  2.4975e+001 21208 115294,115424,115398
 3.2000e+000 115568 -7.2615e+001  1.2927e+001  7.3518e+001 21208 115398,115372,115542
 3.2000e+000 115591 -4.7284e+001 -2.4092e+001  3.1747e+001 21208 115398,115542,115294
 3.2000e+000 115839 -2.2981e+002 -1.7063e+002  1.6467e+002 20668 115862,115640,115614
 3.2000e+000 115816 -2.2599e+002 -1.9246e+002  1.6136e+002 20668 115862,115614,115744
 3.2000e+000 115793 -1.7924e+002 -9.2139e+001  1.4167e+002 20668 115640,115718,115692
 3.2000e+000 115770 -3.5127e+002 -1.3533e+002  1.3527e+002 20668 115640,115692,115666
 3.2000e+000 115888 -2.2740e+002 -1.3636e+002  1.7715e+002 20668 115718,115640,115862
 3.2000e+000 115911 -2.3533e+002 -1.7418e+002  1.7377e+002 20668 115718,115862,115744
 3.2000e+000 116134 -2.0570e+002 -2.9190e+002  1.8371e+002 20264 115958,116036,115984
 3.2000e+000 116111 -9.8445e+001 -2.3992e+002  1.6613e+002 20264 115958,116062,116036
 3.2000e+000 116088 -1.1703e+002 -2.8752e+002  1.9795e+002 20264 115984,116036,116010
 3.2000e+000 116384 -3.0982e+002 -2.1755e+002  2.2682e+002 19924 116407,116211,116159
 3.2000e+000 116361 -2.9126e+002 -3.5839e+002  2.0010e+002 19924 116407,116159,116263
 3.2000e+000 116338 -2.8747e+002 -1.2628e+002  2.1585e+002 19924 116159,116211,116185
 3.2000e+000 116315 -2.0184e+002 -3.4174e+002  2.2180e+002 19924 116159,116289,116263
 3.2000e+000 116433 -3.0716e+002 -1.3685e+002  2.5599e+002 19924 116237,116211,116407
 3.2000e+000 116456 -2.4076e+002 -2.3338e+002  2.4619e+002 19924 116237,116407,116263
 3.2000e+000 116608 -9.0351e+001 -1.9875e+001  1.1275e+002 19520 116703,116631,116533
 3.2000e+000 116585  1.8687e+000 -6.6923e+001  6.4590e+001 19520 116631,116507,116481
 3.2000e+000 116657 -9.3130e+001 -6.8033e+001  1.3504e+002 19520 116559,116533,116631
 3.2000e+000 116680 -4.7503e+001 -1.7753e+002  9.4303e+001 19520 116559,116631,116481
 3.2000e+000 116729 -9.0351e+001 -1.9875e+001  1.1275e+002 19520 116507,116631,116703
 3.2000e+000 116952 -2.7749e+002 -2.1603e+002  3.2111e+002 19208 116975,116802,116776
 3.2000e+000 116929 -3.3861e+002 -4.2013e+002  1.8433e+002 19208 116975,116776,116880
 3.2000e+000 116906 -3.5478e+002 -1.5310e+002  2.2871e+002 19208 116802,116854,116828
 3.2000e+000 117001 -2.2418e+002 -1.8238e+002  3.3553e+002 19208 116854,116802,116975
 3.2000e+000 117024 -9.0591e+001 -2.3763e+002  2.6836e+002 19208 116854,116975,116880
 3.2000e+000 117428 -2.3950e+002 -8.8801e+001  1.4126e+002 18796 117154,117206,117180
 3.2000e+000 117405 -1.6627e+002 -1.8815e+002  1.3422e+002 18796 117154,117284,117206
 3.2000e+000 117382 -9.3476e+001 -1.5687e+002  1.3647e+002 18796 117154,117310,117284
 3.2000e+000 117359 -9.8760e+001 -1.2257e+002  1.7581e+002 18796 117206,117284,117258
 3.2000e+000 117336 -1.8218e+001 -1.0998e+001  2.3765e+002 18796 117206,117258,117232
 3.2000e+000 117529 -1.0252e+002 -4.5107e+001  6.1587e+001 18228 117810,117552,117477
 3.2000e+000 117578 -2.8391e+002 -1.4809e+002  1.2738e+002 18228 117682,117552,117503
 3.2000e+000 117708 -8.4398e+001 -4.1170e+001  5.7377e+001 18228 117477,117552,117682
 3.2000e+000 117836 -1.8083e+002 -1.5210e+002  1.2163e+002 18228 117451,117552,117810
 3.2000e+000 118364 -2.5023e+002 -8.8053e+001  1.1401e+002 17722 118067,118223,118093
 3.2000e+000 118341 -2.5259e+002 -3.7745e+001  9.8684e+001 17722 118041,118223,118067
 3.2000e+000 118318 -1.4291e+002 -1.0126e+002  9.5795e+001 17722 118093,118223,118197
 3.2000e+000 118295 -5.4700e+002 -5.0569e+002  3.3366e+002 17722 118119,118197,118171
 3.2000e+000 118272 -7.2001e+001 -1.6854e+001  1.3780e+002 17722 118093,118197,118119
 3.2000e+000 118249 -5.1458e+002 -1.3619e+002  2.2858e+002 17722 118119,118171,118145
 3.2000e+000 118514 -4.4905e+002 -1.8329e+002  1.7039e+002 17268 118387,118439,118413
 3.2000e+000 118491 -4.7966e+001 -2.4165e+002  2.1314e+002 17268 118387,118465,118439
 3.2000e+000 118916 -1.9819e+002 -5.9021e+001  8.0048e+001 16828 118668,118772,118694
 3.2000e+000 118893 -2.6632e+002 -8.9911e+001  6.8697e+001 16828 118668,118798,118772
 3.2000e+000 118870 -2.8986e+002 -1.7021e+002  5.3115e+001 16828 118642,118798,118668
 3.2000e+000 118847 -9.1070e+001 -3.3185e+001  1.8281e+002 16828 118694,118746,118720
 3.2000e+000 118824 -2.3729e+002 -1.7745e+002  8.0920e+001 16828 118694,118772,118746
 3.2000e+000 119316 -9.6892e+001 -8.8668e+001  1.5377e+002 16422 119042,119172,119094
 3.2000e+000 119293 -1.4848e+002 -9.2355e+001  1.6384e+002 16422 119042,119198,119172
 3.2000e+000 119270 -2.1652e+002 -6.7529e+001  8.1904e+001 16422 119042,119094,119068
 3.2000e+000 119247  1.0862e+001  9.7417e+000  1.9228e+002 16422 119094,119146,119120
 3.2000e+000 119224 -6.6762e+001 -3.0645e+001  1.6489e+002 16422 119094,119172,119146
 3.2000e+000 119466 -6.0576e+001  6.7449e+000  4.8167e+001 16010 119339,119391,119365
 3.2000e+000 119443 -5.0256e+001 -3.4021e+001  1.1463e+002 16010 119339,119417,119391
 3.2000e+000 119616 -8.2715e+001 -1.7393e+001  1.1578e+002 15547 119515,119567,119541
 3.2000e+000 119593  9.9905e+001  1.8062e+002  3.7750e+002 15547 119489,119567,119515
 3.2000e+000 119719 -4.4984e+002 -1.8506e+002  1.8546e+002 421 119641,119693,119667
 3.3000e+000 69562 -5.4513e+002 -2.3604e+002  2.1066e+002 69254 69484,69536,69510
 3.3000e+000 70009 -2.0659e+002 -1.6961e+002  1.5770e+002 68942 69686,69842,69816
 3.3000e+000 69986 -2.0780e+002 -1.2311e+002  7.3755e+001 68942 69686,69868,69842
 3.3000e+000 69963 -1.4294e+002 -6.1514e+001  1.8969e+002 68942 69686,69816,69712
 3.3000e+000 69940 -8.3253e+001 -4.5373e+001  2.6184e+002 68942 69712,69790,69738
 3.3000e+000 69917 -2.8872e+002 -4.1856e+002  1.7350e+002 68942 69712,69816,69790
 3.3000e+000 69894 -2.6183e+001 -2.3268e+002  1.0748e+002 68942 69738,69790,69764
 3.3000e+000 70110 -2.3674e+002 -9.1177e+001  1.2569e+002 68766 70032,70084,70058
 3.3000e+000 70746 -4.8189e+002 -2.0001e+002  1.5463e+002 68448 70400,70556,70426
 3.3000e+000 70723 -5.3268e+002 -2.2407e+002  1.6759e+002 68448 70374,70556,70400
 3.3000e+000 70700 -4.2475e+002 -1.5047e+002  1.0602e+002 68448 70426,70556,70478
 3.3000e+000 70677 -3.9429e+002 -1.4339e+002  1.0951e+002 68448 70478,70556,70504
 3.3000e+000 70654 -5.1951e+002 -2.3807e+002  1.5456e+002 68448 70426,70478,70452
 3.3000e+000 70631 -5.0485e+002 -1.2999e+002  2.3220e+002 68448 70374,70582,70556
 3.3000e+000 70608 -4.0614e+002 -9.0608e+001  6.7212e+001 68448 70504,70556,70530
 3.3000e+000 70896 -4.6589e+002 -1.6425e+002 -1.2088e+001 68250 70795,70847,70821
 3.3000e+000 70873 -7.2322e+002 -2.7508e+002  2.8770e+000 68250 70769,70847,70795
 3.3000e+000 70997 -8.8671e+002 -3.9660e+002  3.4283e+002 68052 70919,70971,70945
 3.3000e+000 71367 -2.7008e+002 -4.1836e+002  1.6677e+002 67740 71096,71226,71200
 3.3000e+000 71344 -1.8282e+002 -2.4872e+002  2.0226e+002 67740 71044,71226,71096
 3.3000e+000 71321  1.1285e+001 -1.1285e+001  3.2255e+002 67740 71044,71096,71070
 3.3000e+000 71298 -2.0984e+002 -4.4318e+002  3.1386e+002 67740 71096,71200,71174
 3.3000e+000 71275 -1.1477e+002 -2.6882e+002  7.0911e+001 67740 71096,71148,71122
 3.3000e+000 71252 -1.8151e+002 -3.2750e+002  2.0949e+002 67740 71096,71174,71148
 3.3000e+000 71519  1.1341e+002  6.2015e+001  1.0094e+002 67542 71418,71470,71444
 3.3000e+000 71496  1.6572e+002  3.5173e+002  3.1314e+002 67542 71392,71470,71418
 3.3000e+000 71923 -7.9904e+001 -2.1929e+001  1.1074e+002 67230 71649,71779,71675
 3.3000e+000 71900 -6.5946e+001 -1.0788e+002  8.3909e+001 67230 71649,71805,71779
 3.3000e+000 71877 -9.0696e+001 -3.9556e+001  1.9566e+002 67230 71675,71727,71701
 3.3000e+000 71854 -1.1370e+002 -2.9164e+002  2.0191e+002 67230 71675,71753,71727
 3.3000e+000 71831 -1.1030e+002 -1.8363e+002  1.4202e+002 67230 71675,71779,71753
 3.3000e+000 72433 -2.6862e+002 -1.1936e+002  1.3701e+002 67032 72038,72246,72220
 3.3000e+000 72410 -9.8112e+001 -2.6123e+001  9.0060e+001 67032 72012,72246,72038
 3.3000e+000 72387 -2.7972e+002 -1.4077e+002  1.4793e+002 67032 72064,72194,72168
 3.3000e+000 72364 -2.7569e+002 -1.1131e+002  1.4672e+002 67032 72038,72194,72064
 3.3000e+000 72341 -3.2808e+002 -2.5945e+002  1.4075e+002 67032 72038,72220,72194
 3.3000e+000 72318 -1.4963e+002 -3.9777e+001  1.2600e+002 67032 72090,72168,72142
 3.3000e+000 72295 -1.7196e+002 -7.5983e+001  2.0818e+002 67032 72064,72168,72090
 3.3000e+000 72272 -1.5593e+002 -5.5605e+001  1.1854e+002 67032 72090,72142,72116
 3.3000e+000 72933 -2.0064e+002 -1.8724e+002  1.9707e+002 66628 72956,72665,72613
 3.3000e+000 72910 -2.0536e+002 -2.0707e+002  1.9309e+002 66628 73100,72956,72613
 3.3000e+000 72887 -2.1520e+002 -2.8159e+002  1.6058e+002 66628 73028,72691,72665
 3.3000e+000 72864 -2.0041e+002 -1.9494e+002  1.9209e+002 66628 73100,72613,72587
 3.3000e+000 72841 -1.8646e+002 -1.7609e+002  1.6362e+002 66628 72613,72665,72639
 3.3000e+000 72818 -2.6667e+001 -1.9605e+001  2.4993e+002 66628 72587,72769,72743
 3.3000e+000 72795 -2.2578e+002 -4.7022e+002  6.8856e+001 66628 72561,72769,72587
 3.3000e+000 72982 -2.2112e+002 -2.0956e+002  2.0557e+002 66628 73028,72665,72956
 3.3000e+000 73005 -2.0328e+002 -8.7148e+001  1.9206e+002 66628 72717,72956,72743
 3.3000e+000 73054 -2.9993e+002 -2.4938e+002  1.0514e+002 66628 72717,72691,73028
 3.3000e+000 73077 -3.0450e+002 -2.2295e+002  1.4697e+002 66628 72717,73028,72956
 3.3000e+000 73126 -2.0442e+002 -2.0530e+002  1.8016e+002 66628 72743,72956,73100
 3.3000e+000 73149 -2.0109e+002 -1.9580e+002  1.7951e+002 66628 72743,73100,72587
 3.3000e+000 73606 -2.4443e+002 -2.0518e+002  1.9640e+002 66281 73332,73384,73358
 3.3000e+000 73583 -3.1152e+002 -2.2468e+002  1.4324e+002 66281 73332,73462,73384
 3.3000e+000 73560 -3.6345e+002 -2.0125e+002  1.6162e+002 66281 73384,73462,73436
 3.3000e+000 73537 -5.4028e+002 -3.2484e+002  2.2416e+002 66281 73332,73488,73462
 3.3000e+000 73514 -3.9899e+002 -1.9838e+002  9.1531e+001 66281 73384,73436,73410
 3.3000e+000 73984 -2.2122e+002 -9.6586e+001  8.2560e+001 65969 73736,73814,73788
 3.3000e+000 73961 -1.2405e+002 -7.8821e+001  1.0070e+002 65969 73736,73866,73814
 3.3000e+000 73938 -1.6302e+002 -1.0083e+002  1.3333e+002 65969 73814,73866,73840
 3.3000e+000 73915 -9.0002e+001 -1.1519e+002  9.6740e+001 65969 73710,73866,73736
 3.3000e+000 73892 -1.9005e+002 -6.8834e+001  5.5526e+001 65969 73736,73788,73762
 3.3000e+000 74232 -2.0507e+002 -1.8092e+002  1.9208e+002 65572 74255,74085,74033
 3.3000e+000 74209 -1.9875e+002 -1.8501e+002  1.8561e+002 65572 74327,74255,74033
 3.3000e+000 74186 -2.0378e+002 -1.6781e+002  1.8546e+002 65572 74327,74033,74007
 3.3000e+000 74163 -2.2546e+002 -2.0441e+002  2.0206e+002 65572 74033,74085,74059
 3.3000e+000 74281 -2.1665e+002 -1.9209e+002  2.0663e+002 65572 74111,74085,74255
 3.3000e+000 74304 -1.9630e+002 -1.8636e+002  1.9042e+002 65572 74111,74255,74137
 3.3000e+000 74353 -1.9402e+002 -1.6528e+002  1.7905e+002 65572 74137,74255,74327
 3.3000e+000 74376 -2.0266e+002 -1.5214e+002  1.7976e+002 65572 74137,74327,74007
 3.3000e+000 74884 -1.9420e+002 -1.9568e+002  1.6280e+002 65174 74587,74717,74613
 3.3000e+000 74861 -2.4208e+002 -2.3678e+002  1.2728e+002 65174 74561,74717,74587
 3.3000e+000 74838 -1.5576e+002 -2.2362e+002  1.1290e+002 65174 74613,74691,74639
 3.3000e+000 74815 -1.9881e+002 -2.2497e+002  1.5593e+002 65174 74613,74717,74691
 3.3000e+000 74792 -9.7575e+001 -3.0673e+002  1.0193e+002 65174 74639,74691,74665
 3.3000e+000 74769 -3.9941e+002 -9.1329e+001  1.3773e+002 65174 74561,74743,74717
 3.3000e+000 75412 -7.6493e+000 -6.1199e+001  3.4533e+002 64770 75167,75245,75219
 3.3000e+000 75389 -1.7746e+002 -2.8668e+002  2.3723e+002 64770 75115,75245,75167
 3.3000e+000 75366 -1.3619e+002 -3.5842e+002  3.0398e+002 64770 75089,75245,75115
 3.3000e+000 75343 -2.8852e+002 -9.6158e+001  2.5709e+002 64770 75167,75219,75193
 3.3000e+000 75320 -1.4416e+002 -2.0993e+002  2.4094e+002 64770 75115,75167,75141
 3.3000e+000 75297 -2.1058e+002 -5.2877e+002  3.1821e+002 64770 75089,75271,75245
 3.3000e+000 75861 -5.3219e+002 -2.1918e+002  2.2273e+002 64316 75538,75694,75564
 3.3000e+000 75838 -3.9734e+002 -1.6147e+002  1.3173e+002 64316 75538,75720,75694
 3.3000e+000 75815 -3.8451e+002 -2.2948e+002  1.7343e+002 64316 75590,75694,75642
 3.3000e+000 75792 -3.6610e+002 -3.0749e+002  2.1557e+002 64316 75564,75694,75590
 3.3000e+000 75769 -1.4484e+002 -3.7407e+002  1.0094e+002 64316 75590,75642,75616
 3.3000e+000 75746 -3.2579e+002 -1.3288e+002  1.4678e+002 64316 75642,75694,75668
 3.3000e+000 76239 -4.5302e+002 -3.5021e+002  2.1320e+002 64018 76262,76095,76043
 3.3000e+000 76216 -3.5794e+002 -3.7232e+002  1.8869e+002 64018 76262,76043,76017
 3.3000e+000 76193 -2.1493e+002 -1.8261e+002  1.1772e+002 64018 75991,76121,76017
 3.3000e+000 76170 -4.3788e+002 -2.7027e+002  2.9048e+002 64018 76043,76095,76069
 3.3000e+000 76147  8.4542e+000 -1.5698e+002  4.7629e+001 64018 75965,76121,75991
 3.3000e+000 76288 -3.6743e+002 -3.5418e+002  2.6080e+002 64018 76121,76095,76262
 3.3000e+000 76311 -2.9234e+002 -3.9498e+002  2.2174e+002 64018 76121,76262,76017
 3.3000e+000 76866 -1.8489e+002 -1.7105e+002  1.9039e+002 63728 76520,76676,76546
 3.3000e+000 76843 -1.5813e+002 -1.7397e+002  1.3373e+002 63728 76520,76702,76676
 3.3000e+000 76820 -1.5552e+002 -1.8834e+002  1.9397e+002 63728 76546,76650,76572
 3.3000e+000 76797 -2.4614e+002 -2.4724e+002  1.6364e+002 63728 76546,76676,76650
 3.3000e+000 76774 -2.5246e+002 -2.2467e+001  9.3357e+001 63728 76572,76650,76624
 3.3000e+000 76751 -1.4052e+002 -1.4602e+002  1.4299e+002 63728 76494,76702,76520
 3.3000e+000 76728 -5.5757e+001 -1.0467e+002  7.5265e+001 63728 76572,76624,76598
 3.3000e+000 77065 -2.6979e+002 -1.3752e+002  1.6575e+002 63288 77088,76941,76915
 3.3000e+000 77042 -3.2583e+002 -1.5527e+002  1.6010e+002 63288 77088,76915,76993
 3.3000e+000 77019 -9.1098e+001 -2.1128e+002  1.2141e+002 63288 76889,76993,76915
 3.3000e+000 77114 -2.4771e+002 -1.6029e+002  1.7684e+002 63288 76967,76941,77088
 3.3000e+000 77137 -4.5865e+002 -2.4242e+002  7.5146e+001 63288 77160,77088,76993
 3.3000e+000 77186 -9.1939e+001 -8.0813e+001  1.2479e+002 63288 76967,77088,77160
 3.3000e+000 77417 -1.8732e+002 -2.2144e+002  1.8623e+002 62884 77440,77342,77316
 3.3000e+000 77394 -4.4546e+002 -2.7436e+002  9.7323e+001 62884 77770,77440,77316
 3.3000e+000 77466 -2.6575e+002 -2.9790e+002  5.9960e+001 62884 77512,77440,77368
 3.3000e+000 77489 -2.5174e+002 -2.1292e+002  8.3798e+001 62884 77642,77440,77290
 3.3000e+000 77538 -1.2478e+002 -2.0061e+002  1.7455e+001 62884 77342,77440,77512
 3.3000e+000 77668 -3.3427e+002 -3.5006e+002  3.5780e+001 62884 77368,77440,77642
 3.3000e+000 77796 -2.2566e+002 -1.7292e+002  7.2262e+001 62884 77290,77440,77770
 3.3000e+000 78479 -5.5411e+002 -3.7840e+002  2.4938e+002 62480 78084,78240,78214
 3.3000e+000 78456 -4.3936e+002 -3.5063e+002  5.4783e+001 62480 78084,78266,78240
 3.3000e+000 78433 -5.1406e+002 -3.1371e+002  1.5857e+002 62480 78110,78214,78136
 3.3000e+000 78410 -4.5678e+002 -2.8660e+002  2.1152e+002 62480 78084,78214,78110
 3.3000e+000 78387 -3.5121e+002 -3.3488e+002  1.7660e+002 62480 78136,78214,78188
 3.3000e+000 78364 -4.1904e+002 -4.1248e+002  3.7589e+001 62480 78058,78266,78084
 3.3000e+000 78341 -3.5777e+002 -2.8301e+002  2.7408e+000 62480 78136,78188,78162
 3.3000e+000 78318 -5.3203e+002 -4.7168e+002  6.1684e+001 62480 78058,78292,78266
 3.3000e+000 78678 -2.7713e+002 -4.5873e+002  1.8607e+002 61926 78528,78606,78554
 3.3000e+000 78655 -1.7073e+002 -4.0360e+002  2.3421e+002 61926 78502,78606,78528
 3.3000e+000 78632 -1.9674e+002 -2.9421e+002  1.5044e+002 61926 78554,78606,78580
 3.3000e+000 79058 -2.6572e+002 -2.3619e+002  1.3844e+002 61614 78836,78914,78862
 3.3000e+000 79035 -3.4892e+002 -2.8280e+002  1.1911e+002 61614 78810,78914,78836
 3.3000e+000 79012 -2.2310e+002 -2.2856e+002  1.2396e+002 61614 78784,78914,78810
 3.3000e+000 78989 -2.3937e+002 -2.6891e+002  2.2924e+002 61614 78862,78914,78888
 3.3000e+000 78966 -1.9625e+002 -3.0406e+002  1.4455e+002 61614 78784,78940,78914
 3.3000e+000 79208 -1.6121e+002 -3.7458e+002 -1.3366e+001 61366 79081,79133,79107
 3.3000e+000 79185 -1.8618e+002 -3.3948e+002  6.7849e+001 61366 79081,79159,79133
 3.3000e+000 79358  2.6101e+001  4.2018e+000  1.8177e+001 60962 79231,79283,79257
 3.3000e+000 79335 -9.5522e+001 -2.2433e+002  6.3413e+001 60962 79231,79309,79283
 3.3000e+000 79608 -1.3151e+002 -3.1012e+002  1.2026e+002 60508 79631,79435,79409
 3.3000e+000 79585 -7.7872e+001 -3.1107e+002  8.7674e+001 60508 79703,79631,79409
 3.3000e+000 79562 -5.9019e+001 -1.6785e+002  1.1199e+002 60508 79703,79409,79383
 3.3000e+000 79539 -2.7236e+002 -2.3944e+002  2.0916e+002 60508 79435,79487,79461
 3.3000e+000 79657 -1.5296e+002 -3.6623e+002  1.9824e+002 60508 79487,79435,79631
 3.3000e+000 79680 -7.4729e+001 -2.9137e+002  1.1233e+002 60508 79487,79631,79513
 3.3000e+000 79729 -4.9475e+001 -1.8420e+002  5.3878e+001 60508 79513,79631,79703
 3.3000e+000 79752 -8.5522e+001 -1.7211e+002  3.4621e+001 60508 79513,79703,79383
 3.3000e+000 80390 -2.3835e+002 -2.2854e+002  2.2255e+002 59997 80413,80096,80018
 3.3000e+000 80367 -4.2289e+002 -2.8645e+002  2.5687e+002 59997 80413,80018,80226
 3.3000e+000 80344 -1.8558e+002 -1.7970e+002  1.2354e+002 59997 80096,80174,80148
 3.3000e+000 80321 -6.9858e+002 -4.1943e+002  3.2224e+002 59997 80018,80096,80070
 3.3000e+000 80298 -2.4596e+002 -2.2417e+002  1.0384e+002 59997 80096,80148,80122
 3.3000e+000 80275 -2.0990e+002 -2.0940e+002  1.9269e+002 59997 80174,80226,80200
 3.3000e+000 80252 -5.6877e+002 -3.1572e+002  2.0982e+002 59997 80018,80070,80044
 3.3000e+000 80439 -1.8468e+002 -2.6532e+002  1.6125e+002 59997 80174,80096,80413
 3.3000e+000 80462 -2.6177e+002 -2.2766e+002  1.7835e+002 59997 80174,80413,80226
 3.3000e+000 80840 -3.0243e+002 -2.5635e+002  1.2926e+002 59443 80863,80644,80618
 3.3000e+000 80817 -1.3411e+002 -1.8887e+002  1.5427e+002 59443 80863,80618,80566
 3.3000e+000 80794 -1.2844e+002 -1.6598e+002  1.8418e+002 59443 81007,80935,80670
 3.3000e+000 80771 -1.7316e+002 -1.7059e+002  1.6275e+002 59443 80566,80722,80696
 3.3000e+000 80748 -1.6922e+002 -2.5754e+002  1.7675e+002 59443 80566,80618,80592
 3.3000e+000 80889 -3.3753e+002 -2.2580e+002  2.0484e+002 59443 80935,80644,80863
 3.3000e+000 80912 -2.3636e+002 -1.9900e+002  1.7478e+002 59443 80696,80863,80566
 3.3000e+000 80961 -2.0507e+002 -1.8832e+002  2.0969e+002 59443 80696,80670,80935
 3.3000e+000 80984 -1.9827e+002 -1.6234e+002  1.8977e+002 59443 80696,80935,80863
 3.3000e+000 81033 -2.6794e+002 -3.0276e+002  2.5135e+002 59443 80644,80935,81007
 3.3000e+000 81360 -2.6540e+002 -1.4146e+002  1.3638e+002 59031 81383,81187,81161
 3.3000e+000 81337 -2.1322e+002 -1.7602e+002  3.7722e+001 59031 81455,81383,81161
 3.3000e+000 81314 -1.3998e+002 -1.4297e+002  5.6485e+001 59031 81455,81161,81135
 3.3000e+000 81291 -4.3847e+002 -1.6406e+002  1.8134e+002 59031 81187,81239,81213
 3.3000e+000 81409 -2.9955e+002 -2.6248e+002  1.6763e+002 59031 81239,81187,81383
 3.3000e+000 81432 -3.5803e+002 -2.2568e+002  3.2656e+001 59031 81239,81383,81265
 3.3000e+000 81481 -2.8899e+002 -1.0601e+002  6.0723e+001 59031 81265,81383,81455
 3.3000e+000 81504 -2.5806e+002 -1.0855e+002  6.2412e+001 59031 81265,81455,81135
 3.3000e+000 81835 -5.3444e+001 -1.1604e+002  6.6746e+001 58577 81610,81714,81636
 3.3000e+000 81812 -5.4657e+001 -1.4673e+002  7.6307e+001 58577 81610,81740,81714
 3.3000e+000 81789 -1.3946e+002 -1.5122e+002  2.1401e+001 58577 81636,81714,81688
 3.3000e+000 81766 -1.3624e+002 -1.7561e+002 -5.9698e+001 58577 81636,81688,81662
 3.3000e+000 81985 -5.7900e+001 -1.3785e+002  8.7304e+001 58030 81884,81936,81910
 3.3000e+000 81962 -1.1280e+002 -4.0616e+001  6.1561e+001 58030 81858,81936,81884
 3.3000e+000 82414 -4.8868e+001 -1.4275e+001  6.2275e+001 57690 82437,82169,82117
 3.3000e+000 82391 -6.9067e+001 -7.7954e+001  7.4534e+001 57690 82437,82117,82247
 3.3000e+000 82368  2.4581e+001  4.5521e+001  1.8061e+002 57690 82195,82247,82221
 3.3000e+000 82345 -5.3511e+001 -7.1245e+001  7.5311e+001 57690 82091,82247,82117
 3.3000e+000 82322 -8.3184e+001 -1.9921e+001  4.1304e+001 57690 82117,82169,82143
 3.3000e+000 82299 -6.0698e+001 -1.3611e+002  1.0551e+002 57690 82091,82273,82247
 3.3000e+000 82463 -7.8191e+001  1.1582e+001  9.1919e+001 57690 82195,82169,82437
 3.3000e+000 82486 -8.7480e+001 -3.3413e+001  9.3613e+001 57690 82195,82437,82247
 3.3000e+000 83041 -1.8016e+002 -1.7334e+002  1.3205e+002 57172 83064,82721,82695
 3.3000e+000 83018 -2.0055e+002 -1.8296e+002  1.8804e+002 57172 83064,82695,82851
 3.3000e+000 82995 -5.5622e+002 -2.6539e+002  2.5335e+002 57172 82669,82851,82695
 3.3000e+000 82972 -3.2339e+002 -1.9159e+002  1.8363e+002 57172 82773,82851,82825
 3.3000e+000 82949 -2.8716e+002 -1.9437e+002  2.2868e+002 57172 82773,82825,82799
 3.3000e+000 82926 -2.4641e+002 -1.4951e+002  1.1632e+002 57172 82721,82773,82747
 3.3000e+000 82903 -6.5432e+002 -2.9248e+002  3.9077e+002 57172 82669,82877,82851
 3.3000e+000 83090 -2.7099e+002 -2.0817e+002  1.2625e+002 57172 82773,82721,83064
 3.3000e+000 83113 -2.3062e+002 -1.9300e+002  1.7916e+002 57172 82773,83064,82851
 3.3000e+000 83747 -2.0075e+002 -1.6299e+002  1.1157e+002 56554 83770,83427,83401
 3.3000e+000 83724 -1.9586e+002 -2.0044e+002  1.2879e+002 56554 83842,83770,83401
 3.3000e+000 83701 -1.3716e+001 -1.5518e+002  5.0723e+001 56554 83842,83401,83583
 3.3000e+000 83678 -3.7287e+002 -2.7555e+002  2.7091e+002 56554 83914,83531,83505
 3.3000e+000 83655 -2.5686e+002 -2.0061e+002  1.1156e+002 56554 83531,83583,83557
 3.3000e+000 83632 -7.0830e+001 -9.0128e+001  3.2367e+001 56554 83375,83583,83401
 3.3000e+000 83609 -1.9129e+002 -1.6112e+002  1.1649e+002 56554 83427,83479,83453
 3.3000e+000 83796 -1.8222e+002 -1.5649e+002  1.1463e+002 56554 83479,83427,83770
 3.3000e+000 83819 -2.0986e+002 -1.4900e+002  1.2637e+002 56554 83479,83770,83505
 3.3000e+000 83868 -1.3508e+002 -1.0180e+002  1.6238e+002 56554 83505,83770,83842
 3.3000e+000 83891 -2.4951e+002 -1.8018e+002  1.9647e+002 56554 83914,83505,83842
 3.3000e+000 83940 -1.8080e+002 -2.7283e+002  1.6630e+002 56554 83583,83531,83914
 3.3000e+000 83963 -8.1484e+001 -2.6190e+002  1.2707e+002 56554 83583,83914,83842
 3.3000e+000 84341 -3.2529e+002 -4.8862e+002  1.9534e+002 56192 84067,84145,84119
 3.3000e+000 84318 -2.5481e+002 -3.1394e+002  1.6341e+002 56192 84067,84223,84145
 3.3000e+000 84295 -2.5651e+002 -2.6870e+002  1.1964e+002 56192 84145,84223,84197
 3.3000e+000 84272 -2.9030e+002 -1.3495e+002  1.0028e+002 56192 84067,84119,84093
 3.3000e+000 84249 -1.5898e+002 -1.8015e+002  1.5710e+002 56192 84145,84197,84171
 3.3000e+000 84611 -9.2124e+001 -2.2394e+002  1.5945e+002 55538 84386,84490,84412
 3.3000e+000 84588 -1.0427e+002 -2.2432e+002  1.6090e+002 55538 84386,84516,84490
 3.3000e+000 84565 -1.9457e+002 -2.6924e+002  1.4995e+002 55538 84412,84490,84464
 3.3000e+000 84542 -1.2081e+002 -2.8503e+002  9.7806e+001 55538 84412,84464,84438
 3.3000e+000 84942 -2.6232e+002 -1.9558e+002  1.7733e+002 55084 84769,84847,84795
 3.3000e+000 84919 -2.5242e+002 -2.2081e+002  1.5114e+002 55084 84717,84847,84769
 3.3000e+000 84896 -2.9215e+002 -3.2189e+002  1.4763e+002 55084 84717,84769,84743
 3.3000e+000 84873 -2.9297e+002 -8.6812e+001  1.4995e+002 55084 84795,84847,84821
 3.3000e+000 85271 -3.7065e+001 -6.1924e+001  9.2970e+001 54580 85294,85098,85072
 3.3000e+000 85248 -2.4024e+002 -1.2198e+002  1.3314e+002 54580 85294,85072,85176
 3.3000e+000 85225 -3.3343e+002 -7.2511e+000  4.1883e+001 54580 85124,85176,85150
 3.3000e+000 85202 -6.8810e+001 -1.0469e+002  5.0552e+001 54580 85046,85176,85072
 3.3000e+000 85320 -2.1162e+002 -7.8751e+001  1.0948e+002 54580 85124,85098,85294
 3.3000e+000 85343 -3.1854e+002 -6.2716e+001  1.3822e+002 54580 85124,85294,85176
 3.3000e+000 85542 -1.2841e+002 -2.3749e+002  1.3247e+002 53976 85565,85444,85418
 3.3000e+000 85519 -1.3751e+002 -1.9990e+002  1.1687e+002 53976 85565,85418,85366
 3.3000e+000 85496 -1.1723e+002 -1.9362e+002  8.4720e+001 53976 85366,85418,85392
 3.3000e+000 85591 -1.4668e+002 -2.2658e+002  9.6451e+001 53976 85470,85444,85565
 3.3000e+000 85614 -1.1704e+002 -1.1947e+002  8.7165e+001 53976 85470,85565,85366
 3.3000e+000 85960 -3.0735e+002 -3.0039e+002  1.1613e+002 53572 85663,85715,85689
 3.3000e+000 85937 -2.8423e+002 -2.6947e+002  1.3396e+002 53572 85983,85715,85663
 3.3000e+000 85914 -2.7846e+002 -3.1247e+002  1.5180e+002 53572 86055,85983,85663
 3.3000e+000 85891 -2.6331e+002 -3.0938e+002  1.8526e+002 53572 86055,85663,85637
 3.3000e+000 85868 -4.4273e+002 -5.6819e+002  2.6230e+002 53572 85637,85793,85767
 3.3000e+000 85845 -3.3499e+002 -9.1214e+001  1.0383e+002 53572 85637,85819,85793
 3.3000e+000 86009 -2.7120e+002 -2.4775e+002  1.4127e+002 53572 85741,85715,85983
 3.3000e+000 86032 -2.4917e+002 -2.5097e+002  1.3203e+002 53572 85741,85983,85767
 3.3000e+000 86081 -2.4999e+002 -2.3787e+002  1.5011e+002 53572 85767,85983,86055
 3.3000e+000 86104 -2.5328e+002 -2.7168e+002  1.8115e+002 53572 85767,86055,85637
 3.3000e+000 86693 -4.7512e+002 -9.8038e+001  2.3481e+002 52946 86474,86526,86500
 3.3000e+000 86670 -1.8723e+002 -7.9556e+001  1.0296e+002 52946 86396,86526,86474
 3.3000e+000 86647 -3.7081e+002 -3.7714e+002  2.1240e+002 52946 86370,86526,86396
 3.3000e+000 86624 -7.7647e+001 -8.5270e+001  2.1043e+001 52946 86422,86474,86448
 3.3000e+000 86601 -2.2905e+002 -8.0995e+001  6.6698e+001 52946 86396,86474,86422
 3.3000e+000 86578 -3.5271e+002 -1.0521e+002  1.1557e+002 52946 86370,86552,86526
 3.3000e+000 87376 -3.1235e+002 -2.4620e+002  9.0801e+001 52420 87007,87085,87033
 3.3000e+000 87353 -2.4664e+002 -2.2717e+002  9.5222e+001 52420 87007,87163,87085
 3.3000e+000 87330 -2.6472e+002 -2.1546e+002  1.0640e+002 52420 87007,87189,87163
 3.3000e+000 87307 -2.8345e+002 -2.0519e+002  1.2097e+002 52420 87033,87085,87059
 3.3000e+000 87284 -2.8683e+002 -2.4090e+002  4.0611e+001 52420 87085,87137,87111
 3.3000e+000 87261 -2.2302e+002 -2.4268e+002  4.3545e+001 52420 87085,87163,87137
 3.3000e+000 87238 -2.1445e+002 -2.3594e+002  1.9209e+002 52420 86955,87189,87007
 3.3000e+000 87215 -1.4750e+002 -1.8158e+002  8.7301e+001 52420 86955,87007,86981
 3.3000e+000 87624 -1.1838e+002 -2.8569e+002  8.6074e+001 51916 87451,87503,87477
 3.3000e+000 87601 -1.6687e+002 -3.2885e+002  6.4978e+001 51916 87425,87503,87451
 3.3000e+000 87578 -1.3905e+002 -3.0215e+002  8.0600e+001 51916 87425,87529,87503
 3.3000e+000 87555 -9.3949e+001 -2.2060e+002  9.8663e+001 51916 87399,87529,87425
 3.3000e+000 88053 -2.4097e+002 -2.0152e+002  7.8968e+001 51568 87782,87834,87808
 3.3000e+000 88030 -2.9680e+002 -2.2689e+002  1.3091e+002 51568 88076,87782,87886
 3.3000e+000 88007 -2.7770e+002 -1.8400e+002  1.1719e+002 51568 88076,87886,87860
 3.3000e+000 87984 -3.4108e+002 -2.9742e+002  1.1092e+002 51568 87756,87886,87782
 3.3000e+000 87961 -2.5122e+002 -2.3810e+002  2.1361e+002 51568 87756,87912,87886
 3.3000e+000 87938 -2.9546e+002 -1.6532e+002  1.9807e+002 51568 87730,87912,87756
 3.3000e+000 88102 -2.6884e+002 -2.4909e+002  1.0290e+002 51568 87834,87782,88076
 3.3000e+000 88125 -2.5145e+002 -2.2052e+002  9.0746e+001 51568 87834,88076,87860
 3.3000e+000 88324 -2.1464e+002 -2.1466e+002  9.1052e+001 51164 88419,88347,88200
 3.3000e+000 88301 -1.3929e+002 -1.9334e+002  1.1103e+002 51164 88347,88148,88252
 3.3000e+000 88278 -2.7758e+002 -2.9608e+002  5.0327e+001 51164 88419,88200,88174
 3.3000e+000 88373 -1.3771e+002 -2.2382e+002  1.0519e+002 51164 88226,88200,88347
 3.3000e+000 88396 -2.0050e+001 -2.0346e+002  8.8567e+001 51164 88226,88347,88252
 3.3000e+000 88445 -1.7544e+002 -1.9890e+002  1.3154e+002 51164 88148,88347,88419
 3.3000e+000 88468 -1.7319e+002 -1.8752e+002  1.0614e+002 51164 88148,88419,88174
 3.3000e+000 88738 -1.7267e+002 -2.5505e+002  6.5078e+001 50560 88513,88617,88539
 3.3000e+000 88715 -1.1784e+002 -2.7568e+002  4.4731e+001 50560 88513,88643,88617
 3.3000e+000 88692 -9.7649e+001 -6.2481e+001  6.8190e+001 50560 88539,88591,88565
 3.3000e+000 88669 -7.9650e+001 -1.8921e+002  9.4752e+001 50560 88539,88617,88591
 3.3000e+000 88939 -2.4247e+002 -1.1629e+002  1.1659e+002 50106 88962,88789,88763
 3.3000e+000 88916 -1.6269e+002 -1.5571e+002  8.9198e+001 50106 88962,88763,88841
 3.3000e+000 88893 -2.0563e+002 -1.8400e+002  1.2738e+002 50106 88763,88867,88841
 3.3000e+000 88988 -1.6372e+002 -1.3970e+002  7.9194e+001 50106 88815,88789,88962
 3.3000e+000 89011 -1.4368e+002 -1.2437e+002  1.0147e+002 50106 89034,88962,88841
 3.3000e+000 89060 -6.4976e+001 -4.7382e+001  1.3038e+001 50106 88815,88962,89034
 3.3000e+000 89472 -1.5827e+002 -2.6066e+002  8.1157e+001 49666 89273,89351,89325
 3.3000e+000 89449 -1.6335e+002 -2.0733e+002  1.0007e+002 49666 89273,89377,89351
 3.3000e+000 89426 -1.5257e+002 -2.1151e+002  1.5779e+002 49666 89273,89325,89299
 3.3000e+000 89403 -1.5343e+002 -1.3372e+002  1.0935e+002 49666 89247,89377,89273
 3.3000e+000 89978 -1.8375e+002 -2.3263e+002  1.1093e+002 49205 89681,89837,89733
 3.3000e+000 89955 -1.4485e+002 -2.1693e+002  1.1506e+002 49205 89655,89837,89681
 3.3000e+000 89932 -3.9985e+002 -4.4603e+002  1.6196e+002 49205 89785,89837,89811
 3.3000e+000 89909 -2.0325e+002 -1.8368e+002  7.6110e+001 49205 89733,89837,89785
 3.3000e+000 89886 -4.1400e+002 -2.4098e+002  1.8525e+002 49205 89733,89785,89759
 3.3000e+000 89863 -1.3987e+002 -4.4918e+002  2.0734e+002 49205 89681,89733,89707
 3.3000e+000 90177 -1.6677e+002 -1.8661e+002  9.8327e+001 48865 90530,90200,90053
 3.3000e+000 90154 -1.6920e+002 -2.4956e+002  1.3356e+002 48865 90402,90200,90001
 3.3000e+000 90131 -2.2968e+002 -9.3162e+001  9.8701e+001 48865 90530,90053,90027
 3.3000e+000 90226 -1.8180e+002 -1.7455e+002  1.3635e+002 48865 90079,90053,90200
 3.3000e+000 90249 -2.2797e+002 -2.3785e+002  9.1281e+001 48865 90272,90200,90105
 3.3000e+000 90298 -1.1687e+002 -1.4689e+002  1.3162e+002 48865 90079,90200,90272
 3.3000e+000 90428 -1.5544e+002 -7.5720e+001  1.1431e+002 48865 90105,90200,90402
 3.3000e+000 90556 -2.0942e+002 -2.9287e+002  7.9300e+001 48865 90001,90200,90530
 3.3000e+000 90579 -2.7928e+002 -1.8488e+002  5.9671e+001 48865 90001,90530,90027
 3.3000e+000 90827 -2.1528e+002 -2.1992e+002  1.1989e+002 48404 90850,90654,90628
 3.3000e+000 90804 -2.1912e+002 -2.4380e+002  1.8234e+002 48404 90850,90628,90732
 3.3000e+000 90781 -1.4015e+002 -1.8669e+002  1.0276e+002 48404 90680,90732,90706
 3.3000e+000 90758 -3.3007e+002 -1.2339e+002  1.7716e+002 48404 90602,90732,90628
 3.3000e+000 90876 -2.0644e+002 -1.2811e+002  1.0638e+002 48404 90680,90654,90850
 3.3000e+000 90899 -2.1550e+002 -1.9664e+002  1.5652e+002 48404 90680,90850,90732
 3.3000e+000 91000 -1.2966e+002 -3.0626e+002  1.1623e+002 48156 90922,90974,90948
 3.3000e+000 91250 -8.2459e+001 -1.9314e+002  5.8294e+001 47752 91051,91103,91077
 3.3000e+000 91227 -1.2187e+002 -1.7879e+002  5.7776e+001 47752 91025,91103,91051
 3.3000e+000 91204 -2.4556e+002 -2.3884e+002  1.3154e+002 47752 91025,91155,91103
 3.3000e+000 91181 -2.3638e+002 -2.1479e+002  1.4239e+002 47752 91103,91155,91129
 3.3000e+000 91402 -1.9440e+002 -1.9841e+002  1.3950e+002 47191 91425,91301,91275
 3.3000e+000 91379 -1.8201e+002 -1.9341e+002  1.5281e+002 47191 91497,91425,91275
 3.3000e+000 91451 -2.0738e+002 -1.2027e+002  8.1375e+001 47191 91327,91301,91425
 3.3000e+000 91474 -2.2709e+002 -2.2528e+002  1.6345e+002 47191 91327,91425,91353
 3.3000e+000 91523 -2.3237e+002 -4.1338e+002  1.5815e+002 47191 91353,91425,91497
 3.3000e+000 91854 -1.2718e+002 -1.3277e+002  1.2472e+002 46744 91949,91877,91707
 3.3000e+000 91831 -1.9042e+001 -1.9338e+002  7.0755e+001 46744 91877,91655,91629
 3.3000e+000 91808 -1.3599e+002 -1.1819e+002  1.1518e+002 46744 91949,91707,91681
 3.3000e+000 91785 -9.5195e+001 -1.4826e+002 -3.0113e+001 46744 91629,91759,91733
 3.3000e+000 91903 -2.3546e+002 -2.0129e+002  1.6755e+002 46744 91733,91707,91877
 3.3000e+000 91926 -1.0188e+002 -2.7949e+002  1.0943e+002 46744 91733,91877,91629
 3.3000e+000 91975 -1.2206e+002 -2.1761e+002  1.4918e+002 46744 91655,91877,91949
 3.3000e+000 91998 -8.4976e+001 -1.6910e+002  1.2461e+002 46744 91655,91949,91681
 3.3000e+000 92378 -1.4305e+002 -4.1519e+001  7.9186e+001 46090 92130,92208,92182
 3.3000e+000 92355 -1.9881e+002 -6.5574e+001  7.7431e+001 46090 92104,92208,92130
 3.3000e+000 92332 -8.8844e+001 -1.3884e+002  7.4426e+001 46090 92104,92260,92208
 3.3000e+000 92309 -6.5100e+001 -4.1815e+001  6.6894e+001 46090 92208,92260,92234
 3.3000e+000 92286 -2.5698e+002 -8.6751e+001  1.0121e+002 46090 92130,92182,92156
 3.3000e+000 92626 -1.3813e+002 -1.9202e+002  6.7583e+001 45693 92721,92649,92505
 3.3000e+000 92603 -1.6606e+002 -1.9547e+002  1.4157e+002 45693 92649,92453,92427
 3.3000e+000 92580 -1.5158e+002 -1.5351e+002  6.4012e+001 45693 92721,92505,92479
 3.3000e+000 92557 -2.9599e+002 -2.8777e+002  1.7421e+002 45693 92401,92531,92427
 3.3000e+000 92675 -2.3111e+002 -1.8342e+002  9.0556e+001 45693 92531,92505,92649
 3.3000e+000 92698 -2.6187e+002 -2.2976e+002  1.9295e+002 45693 92531,92649,92427
 3.3000e+000 92747 -1.4897e+002 -1.4613e+002  6.7814e+001 45693 92453,92649,92721
 3.3000e+000 92770 -1.0325e+002 -2.4321e+001  8.4954e+001 45693 92453,92721,92479
 3.3000e+000 93172 -9.9062e+001 -1.6218e+002  1.4919e+002 45331 92898,93028,92924
 3.3000e+000 93149 -6.0623e+001 -1.4532e+002  1.0220e+002 45331 92898,93054,93028
 3.3000e+000 93126 -1.4588e+002 -9.6352e+001  1.6633e+002 45331 92924,93002,92976
 3.3000e+000 93103 -5.8762e+001 -1.4487e+002  1.4660e+002 45331 92924,93028,93002
 3.3000e+000 93080 -1.5889e+002 -1.6764e+002  1.7305e+002 45331 92924,92976,92950
 3.3000e+000 93518 -2.6507e+002 -3.1366e+002  2.1285e+002 44820 93613,93273,93247
 3.3000e+000 93495 -2.6484e+002 -2.7514e+002  1.2863e+002 44820 93685,93541,93247
 3.3000e+000 93472 -2.7210e+002 -1.9657e+002  1.0492e+002 44820 93541,93195,93377
 3.3000e+000 93449 -2.8913e+002 -2.4488e+002  1.0062e+002 44820 93685,93247,93221
 3.3000e+000 93426 -2.4148e+002 -2.7107e+002  1.6996e+002 44820 93299,93377,93351
 3.3000e+000 93403 -2.0684e+002 -1.8903e+002  1.9308e+002 44820 93299,93351,93325
 3.3000e+000 93567 -2.2754e+002 -3.3817e+002  1.0839e+002 44820 93613,93247,93541
 3.3000e+000 93590 -2.4438e+002 -2.8123e+002  7.3551e+001 44820 93299,93541,93377
 3.3000e+000 93639 -2.2772e+002 -4.0893e+002  1.3726e+002 44820 93299,93273,93613
 3.3000e+000 93662 -2.4665e+002 -4.0380e+002  1.1275e+002 44820 93299,93613,93541
 3.3000e+000 93711 -2.5710e+002 -2.0984e+002  8.5563e+001 44820 93195,93541,93685
 3.3000e+000 93734 -2.2887e+002 -9.4830e+001  5.7685e+001 44820 93195,93685,93221
 3.3000e+000 94163 -2.1818e+002 -2.2973e+002  1.0161e+002 44237 94258,94186,93996
 3.3000e+000 94140 -2.3597e+002 -2.8759e+002  5.2068e+001 44237 94330,94022,93996
 3.3000e+000 94117 -2.4868e+002 -2.1705e+002  7.5248e+001 44237 94186,93918,93866
 3.3000e+000 94094 -1.9588e+002 -1.6099e+002  9.4242e+001 44237 94258,93996,93970
 3.3000e+000 94071 -2.2690e+002 -1.0299e+002  8.5076e+001 44237 94402,93944,93918
 3.3000e+000 94048 -1.6909e+002 -2.0783e+002  9.1644e+001 44237 93866,93918,93892
 3.3000e+000 94212 -2.3667e+002 -2.9042e+002  7.0784e+001 44237 94330,93996,94186
 3.3000e+000 94235 -2.3294e+002 -2.1175e+002  7.6694e+001 44237 93840,94186,93866
 3.3000e+000 94284 -2.2035e+002 -1.6252e+002  6.0648e+001 44237 93918,94186,94258
 3.3000e+000 94307 -2.1755e+002 -1.1202e+002  6.9797e+001 44237 94402,93918,94258
 3.3000e+000 94356 -2.3124e+002 -1.2299e+002 -8.2519e+000 44237 93840,94022,94330
 3.3000e+000 94379 -2.2316e+002 -2.5557e+002  7.5137e+001 44237 93840,94330,94186
 3.3000e+000 94428 -2.2601e+002 -1.3906e+002  8.9254e+001 44237 93970,93944,94402
 3.3000e+000 94451 -2.2399e+002 -1.5238e+002  6.9194e+001 44237 93970,94402,94258
 3.3000e+000 94908 -1.4303e+002 -2.4305e+002  7.3335e+001 43890 94660,94790,94712
 3.3000e+000 94885 -9.8933e+001 -1.1637e+002  1.0852e+002 43890 94634,94790,94660
 3.3000e+000 94862 -3.0915e+002 -1.3663e+002  7.1390e+001 43890 94712,94764,94738
 3.3000e+000 94839 -1.3347e+002 -2.3918e+002  1.2066e+002 43890 94712,94790,94764
 3.3000e+000 94816 -8.6889e+001 -3.1421e+002  1.7675e+002 43890 94660,94712,94686
 3.3000e+000 95414 -1.5866e+002 -7.5404e+001  5.7137e+001 43186 95437,95143,95117
 3.3000e+000 95391 -1.8174e+002 -1.9961e+002  7.7258e+001 43186 95437,95117,95091
 3.3000e+000 95368 -6.3483e+001 -8.1519e+001  6.8617e+001 43186 95143,95221,95195
 3.3000e+000 95345 -2.8034e+002 -1.9820e+002  1.9933e+002 43186 95091,95273,95221
 3.3000e+000 95322 -1.9206e+002 -1.2040e+002  8.7945e+001 43186 95221,95273,95247
 3.3000e+000 95299 -1.1210e+002 -6.2333e+001  2.6466e+000 43186 95143,95195,95169
 3.3000e+000 95463 -1.5725e+002 -1.5917e+002  1.1880e+002 43186 95221,95143,95437
 3.3000e+000 95486 -1.6537e+002 -2.5541e+002  1.4230e+002 43186 95221,95437,95091
 3.3000e+000 96041 -2.5445e+002 -2.3969e+002  6.8918e+001 42782 95695,95851,95799
 3.3000e+000 96018 -2.0841e+002 -2.7192e+002  8.1244e+001 42782 95669,95851,95695
 3.3000e+000 95995 -2.7388e+002 -1.5556e+002  8.3630e+001 42782 95695,95747,95721
 3.3000e+000 95972 -1.9067e+002 -2.1236e+002  6.9205e+001 42782 95695,95799,95747
 3.3000e+000 95949 -1.7363e+002 -1.4531e+002  5.0032e+001 42782 95747,95799,95773
 3.3000e+000 95926 -3.2937e+002 -2.9270e+002  1.2232e+002 42782 95799,95851,95825
 3.3000e+000 95903 -3.0979e+002 -3.1420e+002  8.3972e+001 42782 95669,95877,95851
 3.3000e+000 96370 -2.4035e+002 -2.7664e+002  1.8368e+002 42420 96197,96275,96223
 3.3000e+000 96347 -2.4720e+002 -2.6622e+002  1.7115e+002 42420 96145,96275,96197
 3.3000e+000 96324 -2.1720e+002 -1.5169e+002  1.5466e+002 42420 96145,96197,96171
 3.3000e+000 96301 -1.3740e+002 -2.4410e+002  8.0247e+001 42420 96223,96275,96249
 3.3000e+000 96699 -1.4667e+002 -3.0191e+002  6.5661e+001 41816 96474,96578,96526
 3.3000e+000 96676 -1.9996e+001 -2.1025e+002  1.2198e+001 41816 96474,96604,96578
 3.3000e+000 96653 -9.7845e+001 -1.4382e+002  1.2503e+002 41816 96526,96578,96552
 3.3000e+000 96630 -1.1731e+002 -2.7106e+002  3.8580e+001 41816 96474,96526,96500
 3.3000e+000 96947 -1.2823e+002 -2.9921e+002  2.9463e+001 41212 96722,96800,96748
 3.3000e+000 96924 -1.7053e+002 -2.7780e+002  4.8085e+001 41212 96722,96826,96800
 3.3000e+000 96901 -1.8643e+002 -2.9403e+002  6.0882e+001 41212 96722,96852,96826
 3.3000e+000 96878 -8.5652e+001 -2.8019e+002  3.3189e+001 41212 96748,96800,96774
 3.3000e+000 97097 -1.2619e+002 -6.2066e+001  1.2032e+002 40793 97120,97022,96996
 3.3000e+000 97074 -2.3447e+002 -2.5997e+002  7.6128e+001 40793 97192,97120,96996
 3.3000e+000 97146 -9.1922e+001 -2.1891e+002  1.0973e+002 40793 97324,97120,97048
 3.3000e+000 97169 -8.3647e+001 -3.3165e+002  1.0781e+002 40793 97048,97120,96970
 3.3000e+000 97218 -3.7488e+001 -1.7569e+002  7.9797e+001 40793 96970,97120,97192
 3.3000e+000 97350 -9.1922e+001 -2.1891e+002  1.0973e+002 40793 97022,97120,97324
 3.3000e+000 97878 -1.3789e+002 -2.7387e+002  6.2210e+001 40446 97901,97607,97555
 3.3000e+000 97855 -1.3676e+002 -1.8965e+002  6.2826e+001 40446 97973,97901,97555
 3.3000e+000 97832 -1.0299e+002 -1.6019e+002  4.6415e+001 40446 97973,97555,97737
 3.3000e+000 97809 -1.8262e+002 -2.5024e+002  7.9480e+001 40446 97633,97685,97659
 3.3000e+000 97786 -1.2018e+002 -2.1947e+002  6.8320e+001 40446 97633,97711,97685
 3.3000e+000 97763 -1.3314e+002 -3.0526e+002  7.5591e+001 40446 97555,97607,97581
 3.3000e+000 97927 -1.5127e+002 -3.4017e+002 -3.3585e+000 40446 97633,97607,97901
 3.3000e+000 97950 -1.3581e+002 -2.6533e+002  5.3559e+001 40446 97633,97901,97711
 3.3000e+000 97999 -8.7786e+001 -2.5417e+002  8.2906e+001 40446 97711,97901,97973
 3.3000e+000 98022 -5.7064e+001 -2.1573e+002  6.8348e+001 40446 97711,97973,97737
 3.3000e+000 98449 -7.3902e+001 -6.8330e+001  3.7237e+001 39935 98152,98204,98178
 3.3000e+000 98426 -8.1059e+001 -8.3923e+001  3.4326e+001 39935 98152,98230,98204
 3.3000e+000 98403 -1.5505e+002 -9.7887e+001  9.7587e+001 39935 98152,98256,98230
 3.3000e+000 98380 -1.4424e+002 -9.4323e+001  9.5888e+001 39935 98126,98256,98152
 3.3000e+000 98357 -1.9661e+002 -2.3305e+002  1.0206e+002 39935 98126,98282,98256
 3.3000e+000 98334 -1.1737e+002 -3.4288e+002  1.4235e+002 39935 98126,98308,98282
 3.3000e+000 98746 -3.5454e+002 -2.1320e+002  1.1054e+002 39531 98498,98602,98524
 3.3000e+000 98723 -1.9421e+002 -2.3665e+002  6.9820e+001 39531 98472,98602,98498
 3.3000e+000 98700 -3.7570e+002 -1.0212e+002  5.9081e+001 39531 98524,98602,98576
 3.3000e+000 98677 -1.9556e+002 -2.3402e+002  6.8201e+001 39531 98472,98628,98602
 3.3000e+000 98654 -5.1117e+002 -1.5072e+002  4.9615e+001 39531 98524,98576,98550
 3.3000e+000 99224 -1.2582e+002 -9.2326e+001  1.1855e+002 39027 99247,98956,98930
 3.3000e+000 99201 -1.8898e+002 -2.6977e+002  8.8641e+001 39027 99247,98930,98878
 3.3000e+000 99178 -1.5918e+002 -2.4232e+002  1.4953e+002 39027 99319,98982,98956
 3.3000e+000 99155 -1.3693e+002 -1.2930e+002  1.2958e+002 39027 98852,99060,98878
 3.3000e+000 99132 -1.0928e+002 -1.1582e+002  1.0907e+001 39027 98878,98930,98904
 3.3000e+000 99109 -2.1731e+002 -3.8292e+002  2.2312e+002 39027 98982,99060,99034
 3.3000e+000 99086 -3.4958e+002 -5.6074e+002  3.5377e+002 39027 98982,99034,99008
 3.3000e+000 99273 -1.7362e+002 -2.5606e+002  1.2680e+002 39027 99319,98956,99247
 3.3000e+000 99296 -1.4301e+002 -2.4556e+002  1.0752e+002 39027 99060,99247,98878
 3.3000e+000 99345 -1.3863e+002 -2.3426e+002  1.5063e+002 39027 99060,98982,99319
 3.3000e+000 99368 -1.2622e+002 -2.3542e+002  1.3514e+002 39027 99060,99319,99247
 3.3000e+000 99923 -2.3238e+002 -1.9735e+002  1.1422e+002 38523 99946,99655,99603
 3.3000e+000 99900 -2.0856e+002 -1.8438e+002  1.2120e+002 38523 99946,99603,99759
 3.3000e+000 99877 -1.3587e+002 -2.5960e+002  1.3405e+002 38523 100018,99707,99681
 3.3000e+000 99854 -2.1295e+002 -1.2969e+002  1.1789e+002 38523 99551,99759,99603
 3.3000e+000 99831 -1.9333e+002 -1.1866e+002  1.0033e+002 38523 99551,99603,99577
 3.3000e+000 99808 -2.1934e+002 -3.4290e+002  1.0195e+002 38523 99707,99759,99733
 3.3000e+000 99785 -1.7611e+002 -1.6688e+002  9.8759e+001 38523 99603,99655,99629
 3.3000e+000 99972 -1.9148e+002 -9.9484e+001  1.1419e+002 38523 99681,99655,99946
 3.3000e+000 99995 -1.5842e+002 -1.4633e+002  1.5317e+002 38523 100018,99681,99946
 3.3000e+000 100044 -1.7147e+002 -3.0474e+002  8.4575e+001 38523 99759,99707,100018
 3.3000e+000 100067 -2.3325e+002 -2.6038e+002  1.0543e+002 38523 99759,100018,99946
 3.3000e+000 100467 -6.7030e+001 -1.9466e+002  4.8562e+001 38125 100219,100349,100323
 3.3000e+000 100444 -6.4210e+001 -1.4979e+002  4.3398e+001 38125 100193,100349,100219
 3.3000e+000 100421 -9.2118e+001 -1.8905e+002  5.4197e+001 38125 100245,100323,100297
 3.3000e+000 100398 -8.5977e+001 -2.0157e+002  5.5222e+001 38125 100219,100323,100245
 3.3000e+000 100375 -1.3604e+002 -2.0253e+002  6.3493e+001 38125 100245,100297,100271
 3.3000e+000 100666 -1.9322e+002 -3.0967e+002  1.0418e+002 37607 100689,100568,100542
 3.3000e+000 100643 -1.3752e+002 -1.5368e+002  9.4939e+001 37607 100689,100542,100490
 3.3000e+000 100620 -1.8898e+001 -1.1497e+002  3.7231e+001 37607 100490,100542,100516
 3.3000e+000 100715 -1.4994e+002 -1.5735e+002  7.5429e+001 37607 100594,100568,100689
 3.3000e+000 100738 -1.7407e+002 -1.1355e+002  7.7482e+001 37607 100594,100689,100490
 3.3000e+000 100937 -8.2932e+001 -8.2890e+001  8.9824e+001 37017 100960,100813,100787
 3.3000e+000 100914 -1.9622e+000 -8.7628e+001  3.2841e-001 37017 100960,100787,100761
 3.3000e+000 100891 -2.5268e+002 -7.3038e+001  1.3545e+002 37017 100813,100865,100839
 3.3000e+000 100986 -1.9345e+002 -1.8164e+002  1.7420e+002 37017 100865,100813,100960
 3.3000e+000 101009 -3.9450e+001 -1.3284e+002  7.8261e+001 37017 100865,100960,100761
 3.3000e+000 101519 -2.5260e+002 -2.4585e+002  8.8730e+001 36613 101222,101274,101248
 3.3000e+000 101496 -1.6101e+002 -1.9769e+002  7.1084e+001 36613 101222,101352,101274
 3.3000e+000 101473 -1.9329e+002 -3.3728e+002  5.6522e+001 36613 101274,101352,101326
 3.3000e+000 101450 -1.8542e+002 -2.1672e+002  6.2817e+001 36613 101222,101378,101352
 3.3000e+000 101427 -4.1320e+001 -4.7823e+002  1.5114e+002 36613 101274,101326,101300
 3.3000e+000 101404 -1.6170e+002 -1.7690e+002  9.0138e+001 36613 101196,101378,101222
 3.3000e+000 101718 -1.3664e+002 -1.0545e+002  1.3069e+002 36308 101594,101646,101620
 3.3000e+000 101695 -1.3799e+002 -7.4584e+001  9.6303e+001 36308 101568,101646,101594
 3.3000e+000 101672 -1.1109e+002 -9.3493e+001  1.0008e+002 36308 101542,101646,101568
 3.3000e+000 102098 -1.3302e+002 -1.4133e+002  7.8012e+001 35918 102121,101954,101876
 3.3000e+000 102075 -1.0021e+002 -1.7823e+002  6.2661e+001 35918 102121,101876,101824
 3.3000e+000 102052 -1.1571e+002 -1.3606e+002  5.6728e+001 35918 101876,101954,101928
 3.3000e+000 102029 -2.5070e+002 -6.2465e+001  8.0185e+001 35918 101876,101928,101902
 3.3000e+000 102006 -9.3730e+001 -1.6704e+002  7.7643e+001 35918 101824,101876,101850
 3.3000e+000 102147 -1.4233e+002 -1.7529e+002  9.5605e+001 35918 101980,101954,102121
 3.3000e+000 102170 -1.1042e+002 -2.1601e+002  7.6464e+001 35918 101980,102121,101824
 3.3000e+000 102489 -2.0765e+002 -4.6155e+002  1.6163e+002 35514 102241,102345,102267
 3.3000e+000 102466 -2.6888e+002 -4.7463e+002  1.5626e+002 35514 102215,102345,102241
 3.3000e+000 102443 -2.1828e+002 -5.1964e+002  1.6710e+002 35514 102215,102371,102345
 3.3000e+000 102420 -1.7373e+002 -4.0687e+002  1.7857e+002 35514 102267,102345,102293
 3.3000e+000 102397 -1.0622e+002 -2.6262e+002  1.9824e+002 35514 102293,102345,102319
 3.3000e+000 102820 -9.9704e+001 -1.2587e+002  2.9720e+001 35224 102843,102699,102647
 3.3000e+000 102797 -1.7777e+002 -1.2497e+002  4.7660e+001 35224 102971,102725,102699
 3.3000e+000 102774 -8.4248e+001 -1.1643e+002  5.7913e+001 35224 102595,102725,102621
 3.3000e+000 102751 -6.2302e+001 -1.0207e+002  4.2206e+001 35224 102647,102699,102673
 3.3000e+000 102869 -1.2337e+002 -1.3322e+002  4.9809e+001 35224 102971,102699,102843
 3.3000e+000 102997 -1.2043e+002 -1.3236e+002  5.4694e+001 35224 102621,102725,102971
 3.3000e+000 103020 -5.1447e+001 -1.2594e+002  6.5219e+001 35224 102621,102971,102843
 3.3000e+000 103349 -2.5089e+002 -1.9329e+002  1.2336e+002 34820 103150,103228,103176
 3.3000e+000 103326 -2.2881e+002 -2.0266e+002  1.2298e+002 34820 103124,103228,103150
 3.3000e+000 103303 -2.0499e+002 -1.9818e+002  2.0076e+002 34820 103176,103228,103202
 3.3000e+000 103280 -1.6003e+002 -1.7083e+002  1.4377e+002 34820 103124,103254,103228
 3.3000e+000 103806 -1.2706e+002 -1.3113e+002  5.3366e+001 34530 103558,103662,103636
 3.3000e+000 103783 -8.7382e+001 -1.2282e+002  4.6351e+001 34530 103558,103688,103662
 3.3000e+000 103760 -9.9718e+001 -1.4445e+002  4.1219e+001 34530 103532,103688,103558
 3.3000e+000 103737 -6.4323e+001 -1.3239e+002  4.6107e+001 34530 103584,103636,103610
 3.3000e+000 103714 -1.6304e+002 -1.2953e+002  4.9314e+001 34530 103558,103636,103584
 3.3000e+000 104263 -1.2946e+002 -1.2646e+002  9.8426e+001 34019 103989,104119,104015
 3.3000e+000 104240 -9.5125e+001 -1.0991e+002  1.0489e+002 34019 103989,104145,104119
 3.3000e+000 104217 -1.2494e+002 -1.7166e+002  6.8706e+001 34019 104015,104067,104041
 3.3000e+000 104194 -1.3573e+002 -1.7856e+002  8.8905e+001 34019 104015,104119,104067
 3.3000e+000 104171 -1.3875e+002 -1.1894e+002  8.4159e+001 34019 104067,104119,104093
 3.3000e+000 104641 -1.4407e+002 -1.8779e+002  6.4101e+001 33351 104419,104497,104445
 3.3000e+000 104618 -1.2085e+002 -1.1384e+002  1.0983e+002 33351 104393,104497,104419
 3.3000e+000 104595 -2.4560e+002 -1.7995e+002  5.9322e+001 33351 104367,104497,104393
 3.3000e+000 104572 -1.0600e+002 -1.0091e+002  1.1419e+001 33351 104445,104497,104471
 3.3000e+000 104549 -1.8620e+002 -9.5377e+001  3.2241e+001 33351 104367,104523,104497
 3.3000e+000 105019 -1.8425e+002 -3.5454e+002  2.0465e+002 32861 104823,104901,104875
 3.3000e+000 104996 -2.4999e+002 -4.0231e+002  1.7327e+002 32861 104745,104901,104823
 3.3000e+000 104973 -2.7234e+002 -3.9324e+002  1.9502e+002 32861 104823,104875,104849
 3.3000e+000 104950 -2.4381e+002 -3.7111e+002  2.1192e+002 32861 104745,104823,104797
 3.3000e+000 104927 -2.8483e+002 -1.5208e+002  2.0867e+002 32861 104745,104797,104771
 3.3000e+000 105397 -9.0328e+001 -2.2270e+002  9.5838e+001 32457 105149,105253,105175
 3.3000e+000 105374 -1.4506e+002 -2.0380e+002  8.3489e+001 32457 105149,105279,105253
 3.3000e+000 105351 -7.7103e+001 -1.7217e+002  9.5712e+001 32457 105123,105279,105149
 3.3000e+000 105328 -1.5793e+002 -5.6813e+001  1.4432e+002 32457 105175,105227,105201
 3.3000e+000 105305 -1.7796e+002 -2.6037e+002  9.3492e+001 32457 105175,105253,105227
 3.3000e+000 105726 -7.9268e+001 -2.4614e+002  1.1482e+002 32003 105527,105605,105553
 3.3000e+000 105703 -1.3834e+002 -2.0215e+002  1.0632e+002 32003 105501,105605,105527
 3.3000e+000 105680 -7.4249e+001 -1.7674e+002  1.0632e+002 32003 105501,105631,105605
 3.3000e+000 105657 -4.7165e+001 -1.5764e+002  1.0959e+002 32003 105553,105605,105579
 3.3000e+000 106104 -1.2222e+002 -1.4277e+002  4.3896e+001 31492 106127,105908,105856
 3.3000e+000 106081 -1.0495e+002 -1.3541e+002  3.8145e+001 31492 106127,105856,105830
 3.3000e+000 106058 -1.2108e+002 -2.0227e+002  6.0904e+001 31492 105856,105908,105882
 3.3000e+000 106035 -1.3730e+002 -1.1330e+002  2.4846e+001 31492 105830,105986,105960
 3.3000e+000 106012 -8.2989e+001 -1.6556e+002  7.7897e+001 31492 105908,105960,105934
 3.3000e+000 106153 -1.2917e+002 -1.4197e+002  5.2761e+001 31492 105960,105908,106127
 3.3000e+000 106176 -1.1988e+002 -1.4123e+002  4.8004e+001 31492 105960,106127,105830
 3.3000e+000 106375 -1.6953e+002 -1.5257e+002  1.1605e+002 30788 106398,106277,106251
 3.3000e+000 106352 -1.6337e+002 -2.4959e+002  1.4238e+002 30788 106398,106251,106225
 3.3000e+000 106329 -2.7352e+002 -2.2817e+002  1.8593e+002 30788 106600,106199,106303
 3.3000e+000 106424 -2.6831e+002 -2.8211e+002  8.5282e+001 30788 106470,106398,106303
 3.3000e+000 106447 -1.8200e+002 -2.5329e+002  1.3759e+002 30788 106600,106303,106398
 3.3000e+000 106496 -6.3862e+001 -1.9430e+002  9.9887e+001 30788 106277,106398,106470
 3.3000e+000 106626 -3.2357e+002 -2.8335e+002  2.3200e+002 30788 106225,106199,106600
 3.3000e+000 106649 -2.6530e+002 -3.1676e+002  1.8146e+002 30788 106225,106600,106398
 3.3000e+000 106799 -1.0040e+002 -2.0989e+002  6.2599e+000 30426 106698,106750,106724
 3.3000e+000 106776 -6.2636e+001 -1.4606e+002  2.2966e+001 30426 106672,106750,106698
 3.3000e+000 107356 -1.0197e+002 -1.9684e+002  1.1751e+002 29972 107010,107166,107114
 3.3000e+000 107333 -1.5600e+002 -2.1034e+002  1.2392e+002 29972 106984,107166,107010
 3.3000e+000 107310 -1.3294e+002 -1.8127e+002  1.0924e+002 29972 107010,107114,107088
 3.3000e+000 107287 -1.4849e+002 -2.2464e+002  7.0034e+001 29972 107114,107166,107140
 3.3000e+000 107264 -1.3668e+002 -1.5820e+002  9.3347e+001 29972 106984,107192,107166
 3.3000e+000 107241 -2.8779e+002 -3.7505e+002  1.8952e+002 29972 107010,107088,107036
 3.3000e+000 107218 -1.7102e+002 -3.1759e+002  1.1692e+002 29972 107036,107088,107062
 3.3000e+000 107783 -2.2409e+002 -2.8994e+002  1.5932e+002 29724 107878,107806,107590
 3.3000e+000 107760 -3.1820e+002 -3.2500e+002  1.4548e+002 29724 107806,107512,107486
 3.3000e+000 107737 -2.2124e+002 -2.8599e+002  1.6245e+002 29724 107878,107590,107538
 3.3000e+000 107714 -2.3755e+002 -3.4191e+002  1.8217e+002 29724 107950,107460,107616
 3.3000e+000 107691 -2.2118e+002 -3.3339e+002  1.7598e+002 29724 107460,107642,107616
 3.3000e+000 107668 -1.7273e+002 -2.1269e+002  1.8832e+002 29724 107538,107590,107564
 3.3000e+000 107832 -1.6922e+002 -2.9863e+002  2.0145e+002 29724 107616,107590,107806
 3.3000e+000 107855 -2.4072e+002 -3.4441e+002  1.7907e+002 29724 107950,107616,107806
 3.3000e+000 107904 -2.3796e+002 -2.8489e+002  1.7957e+002 29724 107512,107806,107878
 3.3000e+000 107927 -2.0188e+002 -2.6474e+002  1.8770e+002 29724 107512,107878,107538
 3.3000e+000 107976 -1.5353e+002 -3.3849e+002  1.9643e+002 29724 107486,107460,107950
 3.3000e+000 107999 -2.2948e+002 -3.6359e+002  1.7504e+002 29724 107486,107950,107806
 3.3000e+000 108296 -2.6235e+002 -1.8887e+002  1.3073e+002 29206 108319,108100,108048
 3.3000e+000 108273 -1.4099e+002 -1.6258e+002  1.6621e+002 29206 108319,108048,108022
 3.3000e+000 108250 -7.8625e+001 -1.9970e+002  2.0897e+002 29206 108391,108152,108126
 3.3000e+000 108227 -3.0261e+002 -1.2897e+002  1.5481e+002 29206 108048,108100,108074
 3.3000e+000 108204 -1.1183e+002 -2.7604e+002  1.8320e+002 29206 108022,108178,108152
 3.3000e+000 108345 -1.9201e+002 -9.5306e+001  1.9853e+002 29206 108126,108100,108319
 3.3000e+000 108368 -1.0540e+002 -1.5693e+002  2.3115e+002 29206 108391,108126,108319
 3.3000e+000 108417 -1.3981e+002 -2.4995e+002  1.8214e+002 29206 108022,108152,108391
 3.3000e+000 108440 -1.6080e+002 -2.1690e+002  2.0591e+002 29206 108022,108391,108319
 3.3000e+000 108688 -2.1463e+002 -2.2267e+002  1.7606e+002 28595 108711,108541,108515
 3.3000e+000 108665 -3.4469e+002 -2.6035e+002  2.1022e+002 28595 108783,108711,108515
 3.3000e+000 108642 -4.0713e+002 -2.4189e+002  2.0467e+002 28595 108783,108515,108489
 3.3000e+000 108619 -3.4403e+002 -3.2796e+002  9.8967e+001 28595 108463,108593,108489
 3.3000e+000 108737 -2.0472e+002 -2.1154e+002  1.2146e+002 28595 108567,108541,108711
 3.3000e+000 108760 -1.6769e+002 -2.2038e+002  1.8691e+002 28595 108567,108711,108593
 3.3000e+000 108809 -2.1277e+002 -2.9383e+002  1.6144e+002 28595 108593,108711,108783
 3.3000e+000 108832 -3.2600e+002 -3.1160e+002  1.3387e+002 28595 108593,108783,108489
 3.3000e+000 109033 -5.7011e+001 -5.5123e+001  2.7564e+001 28091 108909,108961,108935
 3.3000e+000 109010 -5.8625e+001 -1.1827e+002  1.8322e+001 28091 108857,108961,108909
 3.3000e+000 108987 -1.0597e+002 -1.2091e+002  9.3185e+001 28091 108857,108909,108883
 3.3000e+000 109136 -1.9899e+002 -4.6712e+002  8.7750e+001 27587 109058,109110,109084
 3.3000e+000 109695 -4.6612e+001 -2.1523e+002  5.3967e+001 26969 109718,109375,109323
 3.3000e+000 109672 -8.6752e+001 -2.5934e+002  9.4843e+001 26969 109718,109323,109505
 3.3000e+000 109649 -1.4424e+002 -1.3207e+002  8.6052e+001 26969 109790,109453,109427
 3.3000e+000 109626 -6.7981e+001 -8.9809e+001  6.7017e+001 26969 109323,109375,109349
 3.3000e+000 109603 -1.2298e+002 -1.7923e+002  3.3951e+001 26969 109323,109531,109505
 3.3000e+000 109580 -1.5740e+002 -3.0488e+002  9.4884e+001 26969 109375,109427,109401
 3.3000e+000 109557 -2.2521e+002 -2.5452e+002  1.3345e+002 26969 109453,109505,109479
 3.3000e+000 109744 -1.0583e+002 -2.3553e+002  6.0661e+001 26969 109427,109375,109718
 3.3000e+000 109767 -7.4212e+001 -1.8162e+002  8.9259e+001 26969 109790,109427,109718
 3.3000e+000 109816 -1.8734e+002 -1.8120e+002  1.0808e+002 26969 109505,109453,109790
 3.3000e+000 109839 -1.3999e+002 -2.4555e+002  1.1955e+002 26969 109505,109790,109718
 3.3000e+000 110266 -1.1702e+002 -2.4350e+002  2.1326e+001 26515 110361,110289,110099
 3.3000e+000 110243 -8.6766e+001 -1.7123e+002  2.3376e+001 26515 110289,109995,109943
 3.3000e+000 110220 -1.6591e+002 -2.6403e+002  1.9624e+001 26515 110361,110099,110021
 3.3000e+000 110197 -1.5361e+002 -4.3632e+002  5.0473e+001 26515 110047,110099,110073
 3.3000e+000 110174 -1.3305e+002 -4.0301e+002 -4.4289e+001 26515 110021,110099,110047
 3.3000e+000 110151 -4.3441e+001 -1.0047e+002  4.1770e+001 26515 109943,109995,109969
 3.3000e+000 110315 -1.5899e+002 -1.5224e+002 -1.2317e+001 26515 110125,110099,110289
 3.3000e+000 110338 -1.4127e+002 -5.2717e+001  7.1683e+001 26515 110125,110289,109943
 3.3000e+000 110387 -1.5585e+002 -2.2819e+002 -3.5159e+001 26515 109995,110289,110361
 3.3000e+000 110410 -1.9683e+002 -2.4288e+002 -3.3138e+001 26515 109995,110361,110021
 3.3000e+000 110609 -5.1392e+001 -2.7432e+002  1.1326e+002 25789 110906,110762,110632
 3.3000e+000 110586 -6.1252e+001 -3.4192e+002  1.2584e+002 25789 110762,110433,110537
 3.3000e+000 110563 -1.7297e+002 -3.0421e+002  1.8462e+002 25789 110834,110459,110433
 3.3000e+000 110658 -9.2008e+001 -2.5891e+002  1.4038e+002 25789 110906,110632,110834
 3.3000e+000 110788 -2.9868e+001 -1.8283e+002  6.7223e+001 25789 110511,110632,110762
 3.3000e+000 110811 -6.7615e+001 -2.7358e+002  1.1933e+002 25789 110511,110762,110537
 3.3000e+000 110860 -1.0294e+002 -2.6402e+002  1.5675e+002 25789 110485,110459,110834
 3.3000e+000 110883 -1.2156e+002 -2.4379e+002  1.3344e+002 25789 110485,110834,110632
 3.3000e+000 110932 -1.2948e+002 -3.0136e+002  1.1369e+002 25789 110433,110762,110906
 3.3000e+000 110955 -1.6262e+002 -2.7911e+002  1.3542e+002 25789 110433,110906,110834
 3.3000e+000 111350 -1.6844e+002 -2.3600e+002  1.7133e+002 25228 111445,111373,111186
 3.3000e+000 111327 -1.6072e+002 -2.5965e+002  5.0903e+001 25228 110978,111186,111004
 3.3000e+000 111304 -1.6979e+002 -3.0485e+002  1.6626e+002 25228 111373,111108,111082
 3.3000e+000 111281 -1.6698e+002 -2.9517e+002  1.1826e+002 25228 111134,111186,111160
 3.3000e+000 111258 -1.7280e+002 -2.1122e+002  1.3291e+002 25228 111445,111186,111134
 3.3000e+000 111235 -1.4625e+002 -1.5978e+002  1.0133e+002 25228 111517,111030,111004
 3.3000e+000 111212 -2.0814e+002 -2.2769e+002  1.3970e+002 25228 111030,111082,111056
 3.3000e+000 111399 -1.7693e+002 -2.8200e+002  1.6306e+002 25228 111004,111186,111373
 3.3000e+000 111422 -1.2455e+002 -1.9601e+002  1.4061e+002 25228 111517,111004,111373
 3.3000e+000 111471 -1.1459e+002 -2.0556e+002  1.4399e+002 25228 111108,111373,111445
 3.3000e+000 111494 -1.1894e+002 -1.7784e+002  1.0536e+002 25228 111108,111445,111134
 3.3000e+000 111543 -2.0488e+002 -1.7649e+002  1.4369e+002 25228 111082,111030,111517
 3.3000e+000 111566 -1.8671e+002 -2.2805e+002  1.8355e+002 25228 111082,111517,111373
 3.3000e+000 112074 -8.8898e+001 -1.2302e+002  3.8329e+001 24338 112097,111907,111881
 3.3000e+000 112051 -9.0905e+001 -1.0966e+002  1.1636e+001 24338 112097,111881,111829
 3.3000e+000 112028 -4.1799e+001 -1.2009e+002  5.3255e+000 24338 111829,111881,111855
 3.3000e+000 112005 -9.5806e+001 -1.7985e+002  5.9641e+001 24338 111777,111933,111829
 3.3000e+000 111982 -1.8821e+002 -8.7682e+001  4.8605e+001 24338 111751,111933,111777
 3.3000e+000 111959 -1.1098e+002 -2.1360e+002  7.7964e+001 24338 111777,111829,111803
 3.3000e+000 112123 -1.0690e+002 -2.1421e+002  5.7739e+001 24338 111933,111907,112097
 3.3000e+000 112146 -7.0553e+001 -1.4021e+002  3.0748e+001 24338 111933,112097,111829
 3.3000e+000 112443 -2.4691e+002 -1.6093e+002  1.0919e+002 23998 112466,112299,112247
 3.3000e+000 112420 -2.6677e+002 -2.6758e+002  1.0593e+002 23998 112466,112247,112221
 3.3000e+000 112397 -1.8759e+002 -3.3095e+002  1.6490e+002 23998 112169,112325,112221
 3.3000e+000 112374 -1.7283e+002 -3.7877e+002  1.9301e+002 23998 112169,112221,112195
 3.3000e+000 112351 -1.2223e+002 -1.4707e+002  1.3246e+002 23998 112247,112299,112273
 3.3000e+000 112492 -2.4451e+002 -1.7331e+002  1.7342e+002 23998 112325,112299,112466
 3.3000e+000 112515 -2.6496e+002 -2.3431e+002  1.5534e+002 23998 112325,112466,112221
 3.3000e+000 113200 -2.6996e+002 -3.0814e+002  2.2395e+002 23480 112779,112961,112805
 3.3000e+000 113177 -2.7808e+002 -2.3583e+002  1.0595e+002 23480 112779,112987,112961
 3.3000e+000 113154 -8.5125e+001 -1.4688e+002  1.5141e+002 23480 112805,112961,112883
 3.3000e+000 113131 -1.3154e+002 -2.4252e+002  1.5476e+002 23480 112883,112935,112909
 3.3000e+000 113108 -2.0170e+002 -1.9427e+002  1.5909e+002 23480 112883,112961,112935
 3.3000e+000 113085 -3.4976e+001 -1.0604e+002  8.0703e+001 23480 112831,112883,112857
 3.3000e+000 113062 -1.2758e+002 -1.6018e+002  1.1857e+002 23480 112805,112883,112831
 3.3000e+000 113039 -3.3325e+002 -1.8970e+002  1.1660e+002 23480 112779,113013,112987
 3.3000e+000 113676 -2.6111e+002 -1.0916e+002  2.1215e+002 23018 113699,113434,113356
 3.3000e+000 113653 -2.2573e+002 -1.1073e+002  1.1087e+002 23018 113771,113699,113356
 3.3000e+000 113630 -1.9652e+002 -1.9481e+002  7.7181e+001 23018 113771,113356,113512
 3.3000e+000 113607 -1.4660e+002 -2.5697e+002  1.2513e+002 23018 113330,113512,113356
 3.3000e+000 113584 -5.4510e+002 -2.4364e+002  3.1293e+002 23018 113356,113434,113382
 3.3000e+000 113561 -6.5901e+001 -2.4177e+002  1.2599e+002 23018 113304,113512,113330
 3.3000e+000 113538 -4.6898e+002 -1.6549e+001  1.1504e+002 23018 113382,113434,113408
 3.3000e+000 113725 -2.9758e+002 -1.9332e+002  2.0868e+002 23018 113460,113434,113699
 3.3000e+000 113748 -3.3959e+002 -2.2478e+002  1.2850e+002 23018 113460,113699,113486
 3.3000e+000 113797 -2.9978e+002 -2.3176e+002  1.4209e+002 23018 113486,113699,113771
 3.3000e+000 113820 -2.2711e+002 -2.5103e+002  9.0090e+001 23018 113486,113771,113512
 3.3000e+000 114424 -9.4389e+001 -1.6472e+002  3.8639e+001 22514 114447,114133,114029
 3.3000e+000 114401 -9.5428e+001 -1.7352e+002  3.9216e+001 22514 114447,114029,114237
 3.3000e+000 114378 -4.8442e+001 -1.5392e+002  6.7467e+001 22514 114133,114211,114185
 3.3000e+000 114355 -7.8945e+001 -1.4494e+002  4.7820e+001 22514 114133,114185,114159
 3.3000e+000 114332 -6.6672e+001 -1.7541e+002  7.5922e+001 22514 114003,114237,114029
 3.3000e+000 114309 -9.7977e+001 -1.3242e+002  2.6014e+001 22514 114029,114133,114055
 3.3000e+000 114286 -9.6321e+001 -1.1064e+002  2.2876e+001 22514 114055,114133,114107
 3.3000e+000 114263 -1.0155e+002  2.4431e+000  2.1651e+001 22514 114055,114107,114081
 3.3000e+000 114473 -9.7015e+001 -1.5937e+002  4.1895e+001 22514 114211,114133,114447
 3.3000e+000 114496 -9.6692e+001 -1.6617e+002  4.2224e+001 22514 114211,114447,114237
 3.3000e+000 114597 -1.0655e+002 -2.5513e+002  1.3610e+002 22316 114620,114571,114545
 3.3000e+000 114646 -1.0655e+002 -2.5513e+002  1.3610e+002 22316 114519,114571,114620
 3.3000e+000 115127 -9.1233e+001 -2.5616e+002  2.5967e+001 21612 115150,114905,114879
 3.3000e+000 115104 -1.1769e+002 -1.3297e+002  4.3063e+001 21612 115150,114879,114853
 3.3000e+000 115081 -1.1127e+002 -7.3207e+001  1.0156e+002 21612 115222,114931,114905
 3.3000e+000 115058 -6.0097e+001 -1.7190e+002  9.3864e+001 21612 115222,114905,115009
 3.3000e+000 115035 -1.1933e+002 -2.7440e+002  1.4463e+002 21612 114957,115009,114983
 3.3000e+000 115176 -7.4546e+001 -1.5255e+002  3.3764e+001 21612 115009,114905,115150
 3.3000e+000 115199 -9.1110e+001 -1.3664e+001  4.7195e+001 21612 115009,115150,114853
 3.3000e+000 115248 -1.5024e+002 -1.3975e+002  1.1770e+002 21612 114957,114931,115222
 3.3000e+000 115271 -9.2507e+001 -2.2896e+002  1.0704e+002 21612 114957,115222,115009
 3.3000e+000 115519 -4.6228e+001  1.6637e+001  3.8191e+001 21208 115542,115372,115320
 3.3000e+000 115496  1.8524e+001  4.9893e+001 -6.4868e+000 21208 115542,115320,115294
 3.3000e+000 115473 -3.0951e+001 -7.3280e+001  5.8753e+001 21208 115320,115372,115346
 3.3000e+000 115450 -1.3869e+002 -3.7789e+001  1.8813e+001 21208 115294,115424,115398
 3.3000e+000 115568 -7.2840e+001  4.9519e+000  6.5523e+001 21208 115398,115372,115542
 3.3000e+000 115591 -4.2615e+001 -2.2185e+001  3.1919e+001 21208 115398,115542,115294
 3.3000e+000 115839 -1.8316e+002 -1.4874e+002  1.3363e+002 20668 115862,115640,115614
 3.3000e+000 115816 -1.8306e+002 -1.7299e+002  1.3227e+002 20668 115862,115614,115744
 3.3000e+000 115793 -9.5306e+001 -5.2640e+001  1.1575e+002 20668 115640,115718,115692
 3.3000e+000 115770 -2.9519e+002 -1.1491e+002  1.1734e+002 20668 115640,115692,115666
 3.3000e+000 115888 -1.8568e+002 -1.0927e+002  1.4739e+002 20668 115718,115640,115862
 3.3000e+000 115911 -1.9801e+002 -1.5175e+002  1.4684e+002 20668 115718,115862,115744
 3.3000e+000 116134 -1.8081e+002 -2.5088e+002  1.6034e+002 20264 115958,116036,115984
 3.3000e+000 116111 -8.3996e+001 -2.0367e+002  1.4371e+002 20264 115958,116062,116036
 3.3000e+000 116088 -1.0238e+002 -2.4986e+002  1.7240e+002 20264 115984,116036,116010
 3.3000e+000 116384 -2.7805e+002 -1.9086e+002  1.9705e+002 19924 116407,116211,116159
 3.3000e+000 116361 -2.6107e+002 -3.1241e+002  1.7457e+002 19924 116407,116159,116263
 3.3000e+000 116338 -2.5251e+002 -1.0967e+002  1.9324e+002 19924 116159,116211,116185
 3.3000e+000 116315 -1.7175e+002 -2.9936e+002  2.0206e+002 19924 116159,116289,116263
 3.3000e+000 116433 -2.7533e+002 -1.2164e+002  2.2152e+002 19924 116237,116211,116407
 3.3000e+000 116456 -2.1725e+002 -2.0502e+002  2.1371e+002 19924 116237,116407,116263
 3.3000e+000 116608 -8.2344e+001 -1.9791e+001  9.2228e+001 19520 116703,116631,116533
 3.3000e+000 116585 -3.9453e+001 -5.6966e+001  6.0489e+001 19520 116631,116507,116481
 3.3000e+000 116657 -5.1572e+001 -5.7787e+001  1.1118e+002 19520 116559,116533,116631
 3.3000e+000 116680 -5.0255e+001 -1.4579e+002  7.8348e+001 19520 116559,116631,116481
 3.3000e+000 116729 -8.2344e+001 -1.9791e+001  9.2228e+001 19520 116507,116631,116703
 3.3000e+000 116952 -2.4574e+002 -1.8734e+002  2.8117e+002 19208 116975,116802,116776
 3.3000e+000 116929 -2.9773e+002 -3.6641e+002  1.6107e+002 19208 116975,116776,116880
 3.3000e+000 116906 -3.0819e+002 -1.3292e+002  1.9987e+002 19208 116802,116854,116828
 3.3000e+000 117001 -1.9880e+002 -1.5828e+002  2.9346e+002 19208 116854,116802,116975
 3.3000e+000 117024 -8.0100e+001 -2.0696e+002  2.3482e+002 19208 116854,116975,116880
 3.3000e+000 117428 -2.0304e+002 -7.6307e+001  1.2220e+002 18796 117154,117206,117180
 3.3000e+000 117405 -1.3659e+002 -1.5503e+002  1.1543e+002 18796 117154,117284,117206
 3.3000e+000 117382 -7.0131e+001 -1.2745e+002  1.1447e+002 18796 117154,117310,117284
 3.3000e+000 117359 -8.0028e+001 -1.0240e+002  1.5150e+002 18796 117206,117284,117258
 3.3000e+000 117336 -1.5832e+001 -8.5623e+000  2.0327e+002 18796 117206,117258,117232
 3.3000e+000 117529 -8.0830e+001 -3.4873e+001  4.8431e+001 18228 117810,117552,117477
 3.3000e+000 117578 -2.4879e+002 -1.2391e+002  1.1065e+002 18228 117682,117552,117503
 3.3000e+000 117708 -7.1540e+001 -2.8884e+001  4.5447e+001 18228 117477,117552,117682
 3.3000e+000 117836 -1.5240e+002 -1.2414e+002  1.0707e+002 18228 117451,117552,117810
 3.3000e+000 118364 -2.0580e+002 -7.3396e+001  9.8240e+001 17722 118067,118223,118093
 3.3000e+000 118341 -2.1751e+002 -2.9919e+001  7.5427e+001 17722 118041,118223,118067
 3.3000e+000 118318 -1.2136e+002 -9.0590e+001  8.6129e+001 17722 118093,118223,118197
 3.3000e+000 118295 -4.8356e+002 -4.4461e+002  2.9355e+002 17722 118119,118197,118171
 3.3000e+000 118272 -6.1954e+001 -1.5868e+001  1.2063e+002 17722 118093,118197,118119
 3.3000e+000 118249 -4.5311e+002 -1.1090e+002  1.9586e+002 17722 118119,118171,118145
 3.3000e+000 118514 -3.9802e+002 -1.6365e+002  1.4869e+002 17268 118387,118439,118413
 3.3000e+000 118491 -4.4887e+001 -2.1035e+002  1.8688e+002 17268 118387,118465,118439
 3.3000e+000 118916 -8.9514e+001 -1.4331e+001  4.5312e+001 16828 118668,118772,118694
 3.3000e+000 118893 -1.4807e+002 -3.5123e+001  3.8685e+001 16828 118668,118798,118772
 3.3000e+000 118870 -1.6895e+002 -1.0785e+002  2.4395e+001 16828 118642,118798,118668
 3.3000e+000 118847 -1.0613e+002 -3.9902e+001  1.5279e+002 16828 118694,118746,118720
 3.3000e+000 118824 -1.4440e+002 -1.4136e+002  5.8737e+001 16828 118694,118772,118746
 3.3000e+000 119316 -6.5793e+001 -6.4711e+001  1.2360e+002 16422 119042,119172,119094
 3.3000e+000 119293 -1.0736e+002 -6.6942e+001  1.3201e+002 16422 119042,119198,119172
 3.3000e+000 119270 -1.4839e+002 -4.3168e+001  6.3967e+001 16422 119042,119094,119068
 3.3000e+000 119247  1.2803e+001  1.2503e+001  1.4932e+002 16422 119094,119146,119120
 3.3000e+000 119224 -4.1179e+001 -1.5831e+001  1.3202e+002 16422 119094,119172,119146
 3.3000e+000 119466 -4.2581e+001  9.9216e+000  2.6102e+001 16010 119339,119391,119365
 3.3000e+000 119443 -3.0074e+001 -1.4845e+001  7.0726e+001 16010 119339,119417,119391
 3.3000e+000 119616 -6.0617e+001 -9.7424e+000  8.6629e+001 15547 119515,119567,119541
 3.3000e+000 119593  9.0398e+001  1.7062e+002  3.2934e+002 15547 119489,119567,119515
 3.3000e+000 119719 -3.4051e+002 -1.3934e+002  1.5838e+002 421 119641,119693,119667
 3.4000e+000 69562 -4.9649e+002 -2.1391e+002  1.7362e+002 69254 69484,69536,69510
 3.4000e+000 70009 -1.8753e+002 -1.5014e+002  1.5417e+002 68942 69686,69842,69816
 3.4000e+000 69986 -1.9739e+002 -1.2366e+002  6.2904e+001 68942 69686,69868,69842
 3.4000e+000 69963 -1.8522e+002 -7.9866e+001  1.6438e+002 68942 69686,69816,69712
 3.4000e+000 69940 -8.7093e+001 -4.4451e+001  2.2359e+002 68942 69712,69790,69738
 3.4000e+000 69917 -2.9769e+002 -3.7119e+002  1.3237e+002 68942 69712,69816,69790
 3.4000e+000 69894 -3.6495e+001 -2.0107e+002  9.3624e+001 68942 69738,69790,69764
 3.4000e+000 70110 -2.0079e+002 -7.8134e+001  1.0463e+002 68766 70032,70084,70058
 3.4000e+000 70746 -4.2604e+002 -1.7616e+002  1.2683e+002 68448 70400,70556,70426
 3.4000e+000 70723 -4.6256e+002 -1.9432e+002  1.3628e+002 68448 70374,70556,70400
 3.4000e+000 70700 -3.7443e+002 -1.3152e+002  8.1607e+001 68448 70426,70556,70478
 3.4000e+000 70677 -3.4192e+002 -1.2000e+002  8.7080e+001 68448 70478,70556,70504
 3.4000e+000 70654 -4.6046e+002 -2.0774e+002  1.2556e+002 68448 70426,70478,70452
 3.4000e+000 70631 -4.3692e+002 -1.0614e+002  1.9231e+002 68448 70374,70582,70556
 3.4000e+000 70608 -3.4844e+002 -7.3004e+001  5.4103e+001 68448 70504,70556,70530
 3.4000e+000 70896 -3.9440e+002 -1.4560e+002 -6.3592e+000 68250 70795,70847,70821
 3.4000e+000 70873 -5.9822e+002 -2.3070e+002 -3.1108e-001 68250 70769,70847,70795
 3.4000e+000 70997 -7.8867e+002 -3.5015e+002  2.9628e+002 68052 70919,70971,70945
 3.4000e+000 71367 -2.3855e+002 -3.6379e+002  1.3884e+002 67740 71096,71226,71200
 3.4000e+000 71344 -1.6411e+002 -2.2092e+002  1.6909e+002 67740 71044,71226,71096
 3.4000e+000 71321  8.2896e+000 -8.2896e+000  2.7650e+002 67740 71044,71096,71070
 3.4000e+000 71298 -1.9050e+002 -3.8538e+002  2.6496e+002 67740 71096,71200,71174
 3.4000e+000 71275 -9.6758e+001 -2.2827e+002  9.6230e+001 67740 71096,71148,71122
 3.4000e+000 71252 -1.4005e+002 -2.7604e+002  1.7311e+002 67740 71096,71174,71148
 3.4000e+000 71519  9.6076e+001  5.1040e+001  8.6589e+001 67542 71418,71470,71444
 3.4000e+000 71496  1.4101e+002  3.0339e+002  2.6785e+002 67542 71392,71470,71418
 3.4000e+000 71923 -7.1369e+001 -2.1916e+001  9.7383e+001 67230 71649,71779,71675
 3.4000e+000 71900 -6.0413e+001 -9.4688e+001  7.5458e+001 67230 71649,71805,71779
 3.4000e+000 71877 -8.0801e+001 -3.5446e+001  1.7029e+002 67230 71675,71727,71701
 3.4000e+000 71854 -1.0141e+002 -2.5271e+002  1.7690e+002 67230 71675,71753,71727
 3.4000e+000 71831 -9.7039e+001 -1.5945e+002  1.2482e+002 67230 71675,71779,71753
 3.4000e+000 72433 -2.4149e+002 -1.0678e+002  1.1407e+002 67032 72038,72246,72220
 3.4000e+000 72410 -9.7606e+001 -3.0155e+001  7.7311e+001 67032 72012,72246,72038
 3.4000e+000 72387 -2.6368e+002 -1.3962e+002  1.2574e+002 67032 72064,72194,72168
 3.4000e+000 72364 -2.5421e+002 -1.0348e+002  1.2196e+002 67032 72038,72194,72064
 3.4000e+000 72341 -2.9057e+002 -2.2293e+002  1.2299e+002 67032 72038,72220,72194
 3.4000e+000 72318 -1.3050e+002 -3.3809e+001  1.0800e+002 67032 72090,72168,72142
 3.4000e+000 72295 -1.8395e+002 -8.2327e+001  1.9434e+002 67032 72064,72168,72090
 3.4000e+000 72272 -1.3427e+002 -4.9237e+001  1.0080e+002 67032 72090,72142,72116
 3.4000e+000 72933 -1.7777e+002 -1.6305e+002  1.7210e+002 66628 72956,72665,72613
 3.4000e+000 72910 -1.8511e+002 -1.8139e+002  1.6769e+002 66628 73100,72956,72613
 3.4000e+000 72887 -1.8586e+002 -2.4201e+002  1.3962e+002 66628 73028,72691,72665
 3.4000e+000 72864 -1.8189e+002 -1.7300e+002  1.6587e+002 66628 73100,72613,72587
 3.4000e+000 72841 -1.6314e+002 -1.5225e+002  1.3853e+002 66628 72613,72665,72639
 3.4000e+000 72818 -3.2170e+001 -2.0246e+001  2.1809e+002 66628 72587,72769,72743
 3.4000e+000 72795 -2.0585e+002 -4.1882e+002  5.9608e+001 66628 72561,72769,72587
 3.4000e+000 72982 -1.9298e+002 -1.8216e+002  1.7879e+002 66628 73028,72665,72956
 3.4000e+000 73005 -1.8003e+002 -7.7566e+001  1.6749e+002 66628 72717,72956,72743
 3.4000e+000 73054 -2.5960e+002 -2.1770e+002  9.3604e+001 66628 72717,72691,73028
 3.4000e+000 73077 -2.6462e+002 -1.9529e+002  1.3003e+002 66628 72717,73028,72956
 3.4000e+000 73126 -1.8267e+002 -1.7958e+002  1.5900e+002 66628 72743,72956,73100
 3.4000e+000 73149 -1.8106e+002 -1.7318e+002  1.5745e+002 66628 72743,73100,72587
 3.4000e+000 73606 -2.0519e+002 -1.8018e+002  1.7575e+002 66281 73332,73384,73358
 3.4000e+000 73583 -2.6476e+002 -1.9381e+002  1.2674e+002 66281 73332,73462,73384
 3.4000e+000 73560 -3.0727e+002 -1.7474e+002  1.4136e+002 66281 73384,73462,73436
 3.4000e+000 73537 -4.6023e+002 -2.9117e+002  1.9624e+002 66281 73332,73488,73462
 3.4000e+000 73514 -3.3957e+002 -1.7358e+002  8.0056e+001 66281 73384,73436,73410
 3.4000e+000 73984 -2.0951e+002 -8.4086e+001  7.2621e+001 65969 73736,73814,73788
 3.4000e+000 73961 -1.1817e+002 -6.8593e+001  9.1842e+001 65969 73736,73866,73814
 3.4000e+000 73938 -1.4368e+002 -8.3949e+001  1.1242e+002 65969 73814,73866,73840
 3.4000e+000 73915 -8.4367e+001 -1.0464e+002  8.8369e+001 65969 73710,73866,73736
 3.4000e+000 73892 -1.8435e+002 -5.7394e+001  5.3205e+001 65969 73736,73788,73762
 3.4000e+000 74232 -1.9224e+002 -1.5949e+002  1.7112e+002 65572 74255,74085,74033
 3.4000e+000 74209 -1.8636e+002 -1.6162e+002  1.6694e+002 65572 74327,74255,74033
 3.4000e+000 74186 -1.8713e+002 -1.5123e+002  1.6756e+002 65572 74327,74033,74007
 3.4000e+000 74163 -2.1049e+002 -1.7745e+002  1.7879e+002 65572 74033,74085,74059
 3.4000e+000 74281 -1.9794e+002 -1.6529e+002  1.7797e+002 65572 74111,74085,74255
 3.4000e+000 74304 -1.9171e+002 -1.6491e+002  1.6642e+002 65572 74111,74255,74137
 3.4000e+000 74353 -1.8717e+002 -1.4882e+002  1.6300e+002 65572 74137,74255,74327
 3.4000e+000 74376 -1.8990e+002 -1.4081e+002  1.6392e+002 65572 74137,74327,74007
 3.4000e+000 74884 -1.6463e+002 -1.6589e+002  1.4671e+002 65174 74587,74717,74613
 3.4000e+000 74861 -2.1287e+002 -2.0402e+002  1.1652e+002 65174 74561,74717,74587
 3.4000e+000 74838 -1.2782e+002 -1.8758e+002  1.0170e+002 65174 74613,74691,74639
 3.4000e+000 74815 -1.7824e+002 -1.9396e+002  1.3836e+002 65174 74613,74717,74691
 3.4000e+000 74792 -8.3474e+001 -2.5226e+002  9.3542e+001 65174 74639,74691,74665
 3.4000e+000 74769 -3.5442e+002 -8.3879e+001  1.2653e+002 65174 74561,74743,74717
 3.4000e+000 75412 -6.3755e+000 -4.7325e+001  2.9870e+002 64770 75167,75245,75219
 3.4000e+000 75389 -1.5474e+002 -2.4505e+002  2.0477e+002 64770 75115,75245,75167
 3.4000e+000 75366 -1.1928e+002 -3.0652e+002  2.6318e+002 64770 75089,75245,75115
 3.4000e+000 75343 -2.5270e+002 -8.0143e+001  2.2116e+002 64770 75167,75219,75193
 3.4000e+000 75320 -1.2580e+002 -1.7855e+002  2.0884e+002 64770 75115,75167,75141
 3.4000e+000 75297 -1.8237e+002 -4.5325e+002  2.7435e+002 64770 75089,75271,75245
 3.4000e+000 75861 -4.8835e+002 -2.0140e+002  1.8239e+002 64316 75538,75694,75564
 3.4000e+000 75838 -3.7883e+002 -1.5595e+002  1.1146e+002 64316 75538,75720,75694
 3.4000e+000 75815 -3.4288e+002 -2.0147e+002  1.4534e+002 64316 75590,75694,75642
 3.4000e+000 75792 -3.3129e+002 -2.7388e+002  1.8035e+002 64316 75564,75694,75590
 3.4000e+000 75769 -1.2882e+002 -3.2953e+002  8.4125e+001 64316 75590,75642,75616
 3.4000e+000 75746 -2.7732e+002 -1.1283e+002  1.1668e+002 64316 75642,75694,75668
 3.4000e+000 76239 -4.0809e+002 -2.9674e+002  1.8735e+002 64018 76262,76095,76043
 3.4000e+000 76216 -3.1128e+002 -3.2538e+002  1.6389e+002 64018 76262,76043,76017
 3.4000e+000 76193 -1.7583e+002 -1.5085e+002  8.9492e+001 64018 75991,76121,76017
 3.4000e+000 76170 -3.9325e+002 -2.2271e+002  2.5011e+002 64018 76043,76095,76069
 3.4000e+000 76147 -2.1451e+000 -1.2962e+002  3.9153e+001 64018 75965,76121,75991
 3.4000e+000 76288 -3.2110e+002 -2.9237e+002  2.3586e+002 64018 76121,76095,76262
 3.4000e+000 76311 -2.4587e+002 -3.4234e+002  1.9734e+002 64018 76121,76262,76017
 3.4000e+000 76866 -1.6081e+002 -1.4302e+002  1.6358e+002 63728 76520,76676,76546
 3.4000e+000 76843 -1.3391e+002 -1.4524e+002  1.1331e+002 63728 76520,76702,76676
 3.4000e+000 76820 -1.3618e+002 -1.5907e+002  1.6709e+002 63728 76546,76650,76572
 3.4000e+000 76797 -2.1379e+002 -2.1043e+002  1.4041e+002 63728 76546,76676,76650
 3.4000e+000 76774 -2.1913e+002 -1.7834e+001  7.9388e+001 63728 76572,76650,76624
 3.4000e+000 76751 -1.1846e+002 -1.2265e+002  1.2097e+002 63728 76494,76702,76520
 3.4000e+000 76728 -4.8566e+001 -8.7916e+001  6.5222e+001 63728 76572,76624,76598
 3.4000e+000 77065 -2.4628e+002 -1.2251e+002  1.3878e+002 63288 77088,76941,76915
 3.4000e+000 77042 -2.8250e+002 -1.3471e+002  1.3607e+002 63288 77088,76915,76993
 3.4000e+000 77019 -1.0287e+002 -1.7988e+002  1.0787e+002 63288 76889,76993,76915
 3.4000e+000 77114 -2.1989e+002 -1.3276e+002  1.5200e+002 63288 76967,76941,77088
 3.4000e+000 77137 -3.8949e+002 -2.1027e+002  6.7590e+001 63288 77160,77088,76993
 3.4000e+000 77186 -8.9966e+001 -7.5843e+001  1.1054e+002 63288 76967,77088,77160
 3.4000e+000 77417 -1.9172e+002 -1.9345e+002  1.6233e+002 62884 77440,77342,77316
 3.4000e+000 77394 -4.1043e+002 -2.4440e+002  8.4681e+001 62884 77770,77440,77316
 3.4000e+000 77466 -2.3648e+002 -2.5454e+002  5.1802e+001 62884 77512,77440,77368
 3.4000e+000 77489 -2.3482e+002 -1.8571e+002  7.0254e+001 62884 77642,77440,77290
 3.4000e+000 77538 -1.4441e+002 -1.9299e+002  2.4941e+001 62884 77342,77440,77512
 3.4000e+000 77668 -3.0909e+002 -3.0972e+002  2.6383e+001 62884 77368,77440,77642
 3.4000e+000 77796 -2.0506e+002 -1.4708e+002  5.7266e+001 62884 77290,77440,77770
 3.4000e+000 78479 -5.0250e+002 -3.3623e+002  2.1185e+002 62480 78084,78240,78214
 3.4000e+000 78456 -4.0348e+002 -3.1204e+002  5.6497e+001 62480 78084,78266,78240
 3.4000e+000 78433 -4.7156e+002 -2.6697e+002  1.4749e+002 62480 78110,78214,78136
 3.4000e+000 78410 -4.1805e+002 -2.4274e+002  1.7514e+002 62480 78084,78214,78110
 3.4000e+000 78387 -3.3609e+002 -2.9470e+002  1.6037e+002 62480 78136,78214,78188
 3.4000e+000 78364 -3.8683e+002 -3.5966e+002  4.3733e+001 62480 78058,78266,78084
 3.4000e+000 78341 -3.6271e+002 -2.6757e+002  3.1154e+001 62480 78136,78188,78162
 3.4000e+000 78318 -4.7081e+002 -4.0034e+002  5.5235e+001 62480 78058,78292,78266
 3.4000e+000 78678 -2.4748e+002 -4.0384e+002  1.5957e+002 61926 78528,78606,78554
 3.4000e+000 78655 -1.5185e+002 -3.5381e+002  2.0333e+002 61926 78502,78606,78528
 3.4000e+000 78632 -1.8063e+002 -2.6002e+002  1.3947e+002 61926 78554,78606,78580
 3.4000e+000 79058 -2.2742e+002 -2.0122e+002  1.2169e+002 61614 78836,78914,78862
 3.4000e+000 79035 -2.9544e+002 -2.3971e+002  1.0565e+002 61614 78810,78914,78836
 3.4000e+000 79012 -1.8988e+002 -1.9400e+002  1.1183e+002 61614 78784,78914,78810
 3.4000e+000 78989 -2.0650e+002 -2.2870e+002  1.9732e+002 61614 78862,78914,78888
 3.4000e+000 78966 -1.6406e+002 -2.5466e+002  1.2819e+002 61614 78784,78940,78914
 3.4000e+000 79208 -1.3872e+002 -3.2192e+002  2.1133e+000 61366 79081,79133,79107
 3.4000e+000 79185 -1.6308e+002 -2.7342e+002  9.5153e+001 61366 79081,79159,79133
 3.4000e+000 79358  2.2527e+001  3.5726e+000  1.5513e+001 60962 79231,79283,79257
 3.4000e+000 79335 -8.1298e+001 -1.9075e+002  5.4344e+001 60962 79231,79309,79283
 3.4000e+000 79608 -1.2056e+002 -2.6218e+002  9.9163e+001 60508 79631,79435,79409
 3.4000e+000 79585 -7.6312e+001 -2.6475e+002  7.0028e+001 60508 79703,79631,79409
 3.4000e+000 79562 -8.7972e+001 -1.5111e+002  8.1807e+001 60508 79703,79409,79383
 3.4000e+000 79539 -2.5478e+002 -2.1431e+002  1.8092e+002 60508 79435,79487,79461
 3.4000e+000 79657 -1.4232e+002 -3.1760e+002  1.7486e+002 60508 79487,79435,79631
 3.4000e+000 79680 -5.3524e+001 -2.4591e+002  1.0225e+002 60508 79487,79631,79513
 3.4000e+000 79729 -3.7436e+001 -1.5891e+002  3.8951e+001 60508 79513,79631,79703
 3.4000e+000 79752 -7.1905e+001 -1.3928e+002  1.9736e+001 60508 79513,79703,79383
 3.4000e+000 80390 -2.1050e+002 -2.0366e+002  1.9505e+002 59997 80413,80096,80018
 3.4000e+000 80367 -3.7296e+002 -2.5203e+002  2.2843e+002 59997 80413,80018,80226
 3.4000e+000 80344 -1.6187e+002 -1.5097e+002  1.0880e+002 59997 80096,80174,80148
 3.4000e+000 80321 -6.1599e+002 -3.5893e+002  2.7699e+002 59997 80018,80096,80070
 3.4000e+000 80298 -2.1100e+002 -1.9499e+002  8.8551e+001 59997 80096,80148,80122
 3.4000e+000 80275 -1.8954e+002 -1.8030e+002  1.7752e+002 59997 80174,80226,80200
 3.4000e+000 80252 -5.1149e+002 -2.5982e+002  1.9485e+002 59997 80018,80070,80044
 3.4000e+000 80439 -1.6308e+002 -2.3250e+002  1.4331e+002 59997 80174,80096,80413
 3.4000e+000 80462 -2.3047e+002 -1.9351e+002  1.6027e+002 59997 80174,80413,80226
 3.4000e+000 80840 -2.5840e+002 -2.1694e+002  1.0766e+002 59443 80863,80644,80618
 3.4000e+000 80817 -1.0975e+002 -1.5907e+002  1.2919e+002 59443 80863,80618,80566
 3.4000e+000 80794 -1.1117e+002 -1.4044e+002  1.5756e+002 59443 81007,80935,80670
 3.4000e+000 80771 -1.4806e+002 -1.4482e+002  1.3759e+002 59443 80566,80722,80696
 3.4000e+000 80748 -1.4160e+002 -2.1935e+002  1.5157e+002 59443 80566,80618,80592
 3.4000e+000 80889 -2.9055e+002 -1.9093e+002  1.7362e+002 59443 80935,80644,80863
 3.4000e+000 80912 -2.0098e+002 -1.6840e+002  1.4710e+002 59443 80696,80863,80566
 3.4000e+000 80961 -1.7596e+002 -1.5923e+002  1.7807e+002 59443 80696,80670,80935
 3.4000e+000 80984 -1.6928e+002 -1.3528e+002  1.6004e+002 59443 80696,80935,80863
 3.4000e+000 81033 -2.3075e+002 -2.5600e+002  2.1473e+002 59443 80644,80935,81007
 3.4000e+000 81360 -2.2631e+002 -1.2809e+002  1.1738e+002 59031 81383,81187,81161
 3.4000e+000 81337 -1.8433e+002 -1.6089e+002  3.1308e+001 59031 81455,81383,81161
 3.4000e+000 81314 -1.2306e+002 -1.3313e+002  4.7206e+001 59031 81455,81161,81135
 3.4000e+000 81291 -3.6268e+002 -1.4030e+002  1.5683e+002 59031 81187,81239,81213
 3.4000e+000 81409 -2.5778e+002 -2.3335e+002  1.4177e+002 59031 81239,81187,81383
 3.4000e+000 81432 -3.0863e+002 -2.0368e+002  2.4956e+001 59031 81239,81383,81265
 3.4000e+000 81481 -2.4821e+002 -1.0204e+002  4.9937e+001 59031 81265,81383,81455
 3.4000e+000 81504 -2.2239e+002 -1.0434e+002  5.1478e+001 59031 81265,81455,81135
 3.4000e+000 81835 -3.7540e+001 -9.5802e+001  5.9936e+001 58577 81610,81714,81636
 3.4000e+000 81812 -5.0662e+001 -1.2660e+002  7.0768e+001 58577 81610,81740,81714
 3.4000e+000 81789 -1.1689e+002 -1.2845e+002  1.4871e+001 58577 81636,81714,81688
 3.4000e+000 81766 -1.1888e+002 -1.5898e+002 -4.9429e+001 58577 81636,81688,81662
 3.4000e+000 81985 -4.9009e+001 -1.1634e+002  7.4145e+001 58030 81884,81936,81910
 3.4000e+000 81962 -9.5539e+001 -3.4410e+001  5.2218e+001 58030 81858,81936,81884
 3.4000e+000 82414 -4.2496e+001 -1.1027e+001  5.2644e+001 57690 82437,82169,82117
 3.4000e+000 82391 -5.7517e+001 -6.5968e+001  6.2537e+001 57690 82437,82117,82247
 3.4000e+000 82368  2.1360e+001  4.1539e+001  1.5104e+002 57690 82195,82247,82221
 3.4000e+000 82345 -4.5435e+001 -6.0719e+001  6.3615e+001 57690 82091,82247,82117
 3.4000e+000 82322 -7.1046e+001 -1.7457e+001  3.5318e+001 57690 82117,82169,82143
 3.4000e+000 82299 -5.1551e+001 -1.1519e+002  8.9120e+001 57690 82091,82273,82247
 3.4000e+000 82463 -6.5747e+001  1.1954e+001  7.8056e+001 57690 82195,82169,82437
 3.4000e+000 82486 -7.2436e+001 -2.7738e+001  7.8784e+001 57690 82195,82437,82247
 3.4000e+000 83041 -1.5659e+002 -1.5132e+002  1.1484e+002 57172 83064,82721,82695
 3.4000e+000 83018 -1.7409e+002 -1.5874e+002  1.6351e+002 57172 83064,82695,82851
 3.4000e+000 82995 -4.8124e+002 -2.2841e+002  2.1893e+002 57172 82669,82851,82695
 3.4000e+000 82972 -2.7933e+002 -1.6282e+002  1.6040e+002 57172 82773,82851,82825
 3.4000e+000 82949 -2.5207e+002 -1.6494e+002  1.9444e+002 57172 82773,82825,82799
 3.4000e+000 82926 -2.1136e+002 -1.3020e+002  9.8901e+001 57172 82721,82773,82747
 3.4000e+000 82903 -5.7477e+002 -2.5934e+002  3.4422e+002 57172 82669,82877,82851
 3.4000e+000 83090 -2.3571e+002 -1.8134e+002  1.0900e+002 57172 82773,82721,83064
 3.4000e+000 83113 -2.0045e+002 -1.6740e+002  1.5505e+002 57172 82773,83064,82851
 3.4000e+000 83747 -1.7193e+002 -1.3824e+002  9.3874e+001 56554 83770,83427,83401
 3.4000e+000 83724 -1.6859e+002 -1.7067e+002  1.0879e+002 56554 83842,83770,83401
 3.4000e+000 83701 -1.3885e+001 -1.3256e+002  4.2153e+001 56554 83842,83401,83583
 3.4000e+000 83678 -3.2758e+002 -2.3249e+002  2.3057e+002 56554 83914,83531,83505
 3.4000e+000 83655 -2.2497e+002 -1.7479e+002  1.0042e+002 56554 83531,83583,83557
 3.4000e+000 83632 -6.4319e+001 -8.3553e+001  2.5441e+001 56554 83375,83583,83401
 3.4000e+000 83609 -1.6608e+002 -1.3247e+002  1.0077e+002 56554 83427,83479,83453
 3.4000e+000 83796 -1.5819e+002 -1.2802e+002  9.8336e+001 56554 83479,83427,83770
 3.4000e+000 83819 -1.8420e+002 -1.2816e+002  1.0939e+002 56554 83479,83770,83505
 3.4000e+000 83868 -1.1862e+002 -8.8961e+001  1.3611e+002 56554 83505,83770,83842
 3.4000e+000 83891 -2.2058e+002 -1.5540e+002  1.6492e+002 56554 83914,83505,83842
 3.4000e+000 83940 -1.6049e+002 -2.2854e+002  1.4289e+002 56554 83583,83531,83914
 3.4000e+000 83963 -7.1178e+001 -2.2096e+002  1.0800e+002 56554 83583,83914,83842
 3.4000e+000 84341 -2.8627e+002 -4.2222e+002  1.6718e+002 56192 84067,84145,84119
 3.4000e+000 84318 -2.3974e+002 -2.7469e+002  1.4466e+002 56192 84067,84223,84145
 3.4000e+000 84295 -2.3873e+002 -2.3182e+002  1.0586e+002 56192 84145,84223,84197
 3.4000e+000 84272 -2.5101e+002 -1.1358e+002  8.4027e+001 56192 84067,84119,84093
 3.4000e+000 84249 -1.5092e+002 -1.5078e+002  1.3994e+002 56192 84145,84197,84171
 3.4000e+000 84611 -8.2899e+001 -1.9876e+002  1.2432e+002 55538 84386,84490,84412
 3.4000e+000 84588 -7.4654e+001 -1.9577e+002  1.2110e+002 55538 84386,84516,84490
 3.4000e+000 84565 -1.7823e+002 -2.4083e+002  1.1662e+002 55538 84412,84490,84464
 3.4000e+000 84542 -1.0488e+002 -2.4601e+002  6.6977e+001 55538 84412,84464,84438
 3.4000e+000 84942 -2.2629e+002 -1.6934e+002  1.5383e+002 55084 84769,84847,84795
 3.4000e+000 84919 -2.2505e+002 -1.9393e+002  1.3097e+002 55084 84717,84847,84769
 3.4000e+000 84896 -2.5965e+002 -2.8837e+002  1.3095e+002 55084 84717,84769,84743
 3.4000e+000 84873 -2.5540e+002 -7.1621e+001  1.2805e+002 55084 84795,84847,84821
 3.4000e+000 85271 -3.7485e+001 -4.7719e+001  7.6649e+001 54580 85294,85098,85072
 3.4000e+000 85248 -2.0660e+002 -1.0318e+002  1.1140e+002 54580 85294,85072,85176
 3.4000e+000 85225 -2.8414e+002 -5.2118e+000  3.7186e+001 54580 85124,85176,85150
 3.4000e+000 85202 -5.3057e+001 -8.6840e+001  4.0978e+001 54580 85046,85176,85072
 3.4000e+000 85320 -1.8388e+002 -5.8907e+001  9.2198e+001 54580 85124,85098,85294
 3.4000e+000 85343 -2.7209e+002 -5.0009e+001  1.1621e+002 54580 85124,85294,85176
 3.4000e+000 85542 -1.1845e+002 -2.1415e+002  1.2994e+002 53976 85565,85444,85418
 3.4000e+000 85519 -1.3564e+002 -1.7466e+002  1.0732e+002 53976 85565,85418,85366
 3.4000e+000 85496 -1.1494e+002 -1.8032e+002  6.6425e+001 53976 85366,85418,85392
 3.4000e+000 85591 -1.2288e+002 -1.9999e+002  9.8155e+001 53976 85470,85444,85565
 3.4000e+000 85614 -1.0432e+002 -9.8660e+001  7.8338e+001 53976 85470,85565,85366
 3.4000e+000 85960 -2.6872e+002 -2.6515e+002  9.6151e+001 53572 85663,85715,85689
 3.4000e+000 85937 -2.4620e+002 -2.3736e+002  1.1266e+002 53572 85983,85715,85663
 3.4000e+000 85914 -2.3156e+002 -2.6749e+002  1.2510e+002 53572 86055,85983,85663
 3.4000e+000 85891 -2.1455e+002 -2.6289e+002  1.5253e+002 53572 86055,85663,85637
 3.4000e+000 85868 -3.5482e+002 -4.6783e+002  2.2181e+002 53572 85637,85793,85767
 3.4000e+000 85845 -2.6141e+002 -1.0104e+002  9.8443e+001 53572 85637,85819,85793
 3.4000e+000 86009 -2.2488e+002 -2.1925e+002  1.2038e+002 53572 85741,85715,85983
 3.4000e+000 86032 -2.1166e+002 -2.2418e+002  1.1485e+002 53572 85741,85983,85767
 3.4000e+000 86081 -2.0516e+002 -2.0975e+002  1.3095e+002 53572 85767,85983,86055
 3.4000e+000 86104 -2.0165e+002 -2.3472e+002  1.5571e+002 53572 85767,86055,85637
 3.4000e+000 86693 -4.5144e+002 -9.7788e+001  1.9982e+002 52946 86474,86526,86500
 3.4000e+000 86670 -1.8903e+002 -7.8122e+001  9.1857e+001 52946 86396,86526,86474
 3.4000e+000 86647 -3.3440e+002 -3.5568e+002  1.9371e+002 52946 86370,86526,86396
 3.4000e+000 86624 -1.0248e+002 -9.1038e+001  1.9396e+001 52946 86422,86474,86448
 3.4000e+000 86601 -2.2951e+002 -7.8439e+001  5.4780e+001 52946 86396,86474,86422
 3.4000e+000 86578 -3.1591e+002 -1.2813e+002  1.1037e+002 52946 86370,86552,86526
 3.4000e+000 87376 -2.6449e+002 -2.1363e+002  7.5684e+001 52420 87007,87085,87033
 3.4000e+000 87353 -2.1175e+002 -1.9985e+002  8.1089e+001 52420 87007,87163,87085
 3.4000e+000 87330 -2.3155e+002 -1.9615e+002  8.6877e+001 52420 87007,87189,87163
 3.4000e+000 87307 -2.2550e+002 -1.8149e+002  9.4273e+001 52420 87033,87085,87059
 3.4000e+000 87284 -2.3752e+002 -2.0090e+002  3.6464e+001 52420 87085,87137,87111
 3.4000e+000 87261 -1.9038e+002 -2.1577e+002  3.3900e+001 52420 87085,87163,87137
 3.4000e+000 87238 -1.8364e+002 -2.0425e+002  1.6332e+002 52420 86955,87189,87007
 3.4000e+000 87215 -1.2296e+002 -1.5927e+002  6.6566e+001 52420 86955,87007,86981
 3.4000e+000 87624 -1.0926e+002 -2.5485e+002  5.5157e+001 51916 87451,87503,87477
 3.4000e+000 87601 -1.3017e+002 -2.7481e+002  4.6084e+001 51916 87425,87503,87451
 3.4000e+000 87578 -1.1549e+002 -2.5104e+002  6.2459e+001 51916 87425,87529,87503
 3.4000e+000 87555 -8.1014e+001 -1.8898e+002  7.6459e+001 51916 87399,87529,87425
 3.4000e+000 88053 -2.1275e+002 -1.6765e+002  6.5147e+001 51568 87782,87834,87808
 3.4000e+000 88030 -2.5564e+002 -1.9758e+002  1.0535e+002 51568 88076,87782,87886
 3.4000e+000 88007 -2.4350e+002 -1.7056e+002  9.5456e+001 51568 88076,87886,87860
 3.4000e+000 87984 -2.8438e+002 -2.5500e+002  9.1755e+001 51568 87756,87886,87782
 3.4000e+000 87961 -2.2234e+002 -2.1054e+002  1.7898e+002 51568 87756,87912,87886
 3.4000e+000 87938 -2.6660e+002 -1.7134e+002  1.6268e+002 51568 87730,87912,87756
 3.4000e+000 88102 -2.3686e+002 -2.1158e+002  8.7537e+001 51568 87834,87782,88076
 3.4000e+000 88125 -2.2527e+002 -1.9349e+002  7.8765e+001 51568 87834,88076,87860
 3.4000e+000 88324 -1.9282e+002 -1.7356e+002  8.0338e+001 51164 88419,88347,88200
 3.4000e+000 88301 -1.1914e+002 -1.5962e+002  9.2866e+001 51164 88347,88148,88252
 3.4000e+000 88278 -2.5016e+002 -2.3250e+002  3.6063e+001 51164 88419,88200,88174
 3.4000e+000 88373 -1.2109e+002 -1.8504e+002  9.3143e+001 51164 88226,88200,88347
 3.4000e+000 88396 -1.3163e+001 -1.6267e+002  7.6850e+001 51164 88226,88347,88252
 3.4000e+000 88445 -1.4352e+002 -1.5306e+002  1.0768e+002 51164 88148,88347,88419
 3.4000e+000 88468 -1.4223e+002 -1.4325e+002  7.8833e+001 51164 88148,88419,88174
 3.4000e+000 88738 -1.4558e+002 -2.0984e+002  5.5737e+001 50560 88513,88617,88539
 3.4000e+000 88715 -9.7282e+001 -2.2751e+002  3.7879e+001 50560 88513,88643,88617
 3.4000e+000 88692 -7.7387e+001 -3.4969e+001  5.6286e+001 50560 88539,88591,88565
 3.4000e+000 88669 -6.4189e+001 -1.5230e+002  8.1699e+001 50560 88539,88617,88591
 3.4000e+000 88939 -2.0613e+002 -9.6439e+001  9.2473e+001 50106 88962,88789,88763
 3.4000e+000 88916 -1.4548e+002 -1.3602e+002  7.2408e+001 50106 88962,88763,88841
 3.4000e+000 88893 -1.6984e+002 -1.5470e+002  1.0445e+002 50106 88763,88867,88841
 3.4000e+000 88988 -1.4734e+002 -1.1320e+002  6.5634e+001 50106 88815,88789,88962
 3.4000e+000 89011 -1.3104e+002 -1.0408e+002  8.4551e+001 50106 89034,88962,88841
 3.4000e+000 89060 -6.9018e+001 -4.2919e+001  1.2823e+001 50106 88815,88962,89034
 3.4000e+000 89472 -1.3301e+002 -2.0670e+002  7.4206e+001 49666 89273,89351,89325
 3.4000e+000 89449 -1.3949e+002 -1.7564e+002  8.4921e+001 49666 89273,89377,89351
 3.4000e+000 89426 -1.2748e+002 -1.7169e+002  1.2752e+002 49666 89273,89325,89299
 3.4000e+000 89403 -1.3302e+002 -1.1616e+002  9.3565e+001 49666 89247,89377,89273
 3.4000e+000 89978 -1.8832e+002 -2.0172e+002  9.6757e+001 49205 89681,89837,89733
 3.4000e+000 89955 -1.3906e+002 -1.7968e+002  1.0374e+002 49205 89655,89837,89681
 3.4000e+000 89932 -3.7083e+002 -3.6344e+002  1.4038e+002 49205 89785,89837,89811
 3.4000e+000 89909 -2.0561e+002 -1.7554e+002  7.0194e+001 49205 89733,89837,89785
 3.4000e+000 89886 -3.7787e+002 -2.1964e+002  1.6005e+002 49205 89733,89785,89759
 3.4000e+000 89863 -1.1049e+002 -4.1818e+002  1.9813e+002 49205 89681,89733,89707
 3.4000e+000 90177 -1.3716e+002 -1.5616e+002  8.4388e+001 48865 90530,90200,90053
 3.4000e+000 90154 -1.3607e+002 -2.0313e+002  1.0690e+002 48865 90402,90200,90001
 3.4000e+000 90131 -1.8498e+002 -8.5469e+001  8.4209e+001 48865 90530,90053,90027
 3.4000e+000 90226 -1.4985e+002 -1.4615e+002  1.1562e+002 48865 90079,90053,90200
 3.4000e+000 90249 -1.9949e+002 -2.0630e+002  6.7257e+001 48865 90272,90200,90105
 3.4000e+000 90298 -9.2457e+001 -1.1788e+002  1.0634e+002 48865 90079,90200,90272
 3.4000e+000 90428 -1.3299e+002 -5.8886e+001  9.3337e+001 48865 90105,90200,90402
 3.4000e+000 90556 -1.6959e+002 -2.3534e+002  7.0054e+001 48865 90001,90200,90530
 3.4000e+000 90579 -2.2351e+002 -1.5492e+002  5.4982e+001 48865 90001,90530,90027
 3.4000e+000 90827 -1.8232e+002 -1.7066e+002  9.8001e+001 48404 90850,90654,90628
 3.4000e+000 90804 -1.9228e+002 -1.9414e+002  1.5416e+002 48404 90850,90628,90732
 3.4000e+000 90781 -1.1483e+002 -1.4195e+002  7.4789e+001 48404 90680,90732,90706
 3.4000e+000 90758 -2.9167e+002 -1.1354e+002  1.4446e+002 48404 90602,90732,90628
 3.4000e+000 90876 -1.7786e+002 -8.7977e+001  8.2549e+001 48404 90680,90654,90850
 3.4000e+000 90899 -1.8981e+002 -1.5025e+002  1.2794e+002 48404 90680,90850,90732
 3.4000e+000 91000 -1.1591e+002 -2.7286e+002  1.0001e+002 48156 90922,90974,90948
 3.4000e+000 91250 -7.4486e+001 -1.7419e+002  4.9489e+001 47752 91051,91103,91077
 3.4000e+000 91227 -1.0392e+002 -1.5663e+002  4.6899e+001 47752 91025,91103,91051
 3.4000e+000 91204 -2.2291e+002 -2.1425e+002  1.1762e+002 47752 91025,91155,91103
 3.4000e+000 91181 -2.1060e+002 -1.8417e+002  1.2991e+002 47752 91103,91155,91129
 3.4000e+000 91402 -1.8696e+002 -1.6712e+002  1.0752e+002 47191 91425,91301,91275
 3.4000e+000 91379 -1.6595e+002 -1.5830e+002  1.2437e+002 47191 91497,91425,91275
 3.4000e+000 91451 -1.9070e+002 -9.9139e+001  6.6671e+001 47191 91327,91301,91425
 3.4000e+000 91474 -1.8876e+002 -1.8826e+002  1.4120e+002 47191 91327,91425,91353
 3.4000e+000 91523 -2.1086e+002 -3.5512e+002  1.2961e+002 47191 91353,91425,91497
 3.4000e+000 91854 -1.1673e+002 -1.0789e+002  9.5694e+001 46744 91949,91877,91707
 3.4000e+000 91831 -2.0316e+001 -1.6746e+002  5.8095e+001 46744 91877,91655,91629
 3.4000e+000 91808 -1.1785e+002 -9.9561e+001  9.0635e+001 46744 91949,91707,91681
 3.4000e+000 91785 -1.4924e+002 -1.4132e+002 -2.6235e+001 46744 91629,91759,91733
 3.4000e+000 91903 -2.3306e+002 -1.6916e+002  1.4089e+002 46744 91733,91707,91877
 3.4000e+000 91926 -9.2328e+001 -2.3007e+002  9.2486e+001 46744 91733,91877,91629
 3.4000e+000 91975 -1.0092e+002 -1.8413e+002  1.2714e+002 46744 91655,91877,91949
 3.4000e+000 91998 -5.0098e+001 -1.4018e+002  1.0645e+002 46744 91655,91949,91681
 3.4000e+000 92378 -1.2694e+002 -2.7889e+001  6.6111e+001 46090 92130,92208,92182
 3.4000e+000 92355 -1.7664e+002 -4.9537e+001  6.3385e+001 46090 92104,92208,92130
 3.4000e+000 92332 -7.5971e+001 -1.1378e+002  6.0430e+001 46090 92104,92260,92208
 3.4000e+000 92309 -5.2864e+001 -1.8702e+001  5.2700e+001 46090 92208,92260,92234
 3.4000e+000 92286 -2.1542e+002 -6.1693e+001  8.2560e+001 46090 92130,92182,92156
 3.4000e+000 92626 -1.1429e+002 -1.6802e+002  5.1328e+001 45693 92721,92649,92505
 3.4000e+000 92603 -1.4496e+002 -1.7095e+002  1.2074e+002 45693 92649,92453,92427
 3.4000e+000 92580 -1.2537e+002 -1.3414e+002  4.8299e+001 45693 92721,92505,92479
 3.4000e+000 92557 -2.5992e+002 -2.4628e+002  1.5319e+002 45693 92401,92531,92427
 3.4000e+000 92675 -2.0500e+002 -1.6285e+002  7.0935e+001 45693 92531,92505,92649
 3.4000e+000 92698 -2.3308e+002 -2.0194e+002  1.6757e+002 45693 92531,92649,92427
 3.4000e+000 92747 -1.2863e+002 -1.2608e+002  5.2812e+001 45693 92453,92649,92721
 3.4000e+000 92770 -8.0996e+001 -1.2306e+001  7.1168e+001 45693 92453,92721,92479
 3.4000e+000 93172 -8.4861e+001 -1.3792e+002  1.2836e+002 45331 92898,93028,92924
 3.4000e+000 93149 -4.8312e+001 -1.1559e+002  8.7601e+001 45331 92898,93054,93028
 3.4000e+000 93126 -1.2561e+002 -8.0828e+001  1.4239e+002 45331 92924,93002,92976
 3.4000e+000 93103 -5.0137e+001 -1.2267e+002  1.2563e+002 45331 92924,93028,93002
 3.4000e+000 93080 -1.3768e+002 -1.4049e+002  1.4723e+002 45331 92924,92976,92950
 3.4000e+000 93518 -2.6867e+002 -2.8620e+002  1.9945e+002 44820 93613,93273,93247
 3.4000e+000 93495 -2.3077e+002 -2.2740e+002  1.1881e+002 44820 93685,93541,93247
 3.4000e+000 93472 -2.3902e+002 -1.6067e+002  8.9334e+001 44820 93541,93195,93377
 3.4000e+000 93449 -2.5447e+002 -1.9800e+002  9.1180e+001 44820 93685,93247,93221
 3.4000e+000 93426 -1.8152e+002 -2.2138e+002  1.0824e+002 44820 93299,93377,93351
 3.4000e+000 93403 -1.6067e+002 -1.3589e+002  1.2842e+002 44820 93299,93351,93325
 3.4000e+000 93567 -1.9281e+002 -2.9483e+002  9.7383e+001 44820 93613,93247,93541
 3.4000e+000 93590 -1.8656e+002 -2.3672e+002  6.2769e+001 44820 93299,93541,93377
 3.4000e+000 93639 -1.9117e+002 -3.6662e+002  1.2800e+002 44820 93299,93273,93613
 3.4000e+000 93662 -2.0968e+002 -3.6241e+002  1.0522e+002 44820 93299,93613,93541
 3.4000e+000 93711 -2.2563e+002 -1.6281e+002  7.5409e+001 44820 93195,93541,93685
 3.4000e+000 93734 -1.9656e+002 -4.7931e+001  4.8411e+001 44820 93195,93685,93221
 3.4000e+000 94163 -1.8369e+002 -1.8171e+002  8.1514e+001 44237 94258,94186,93996
 3.4000e+000 94140 -1.9699e+002 -2.3551e+002  3.9657e+001 44237 94330,94022,93996
 3.4000e+000 94117 -2.0936e+002 -1.6418e+002  6.0676e+001 44237 94186,93918,93866
 3.4000e+000 94094 -1.6642e+002 -1.2740e+002  7.4865e+001 44237 94258,93996,93970
 3.4000e+000 94071 -1.9181e+002 -7.3472e+001  7.0318e+001 44237 94402,93944,93918
 3.4000e+000 94048 -1.3162e+002 -1.4226e+002  6.4349e+001 44237 93866,93918,93892
 3.4000e+000 94212 -1.9812e+002 -2.3766e+002  5.3227e+001 44237 94330,93996,94186
 3.4000e+000 94235 -1.9509e+002 -1.6626e+002  5.7924e+001 44237 93840,94186,93866
 3.4000e+000 94284 -1.8865e+002 -1.2715e+002  4.7431e+001 44237 93918,94186,94258
 3.4000e+000 94307 -1.8322e+002 -8.2154e+001  5.6087e+001 44237 94402,93918,94258
 3.4000e+000 94356 -2.1177e+002 -1.2121e+002 -2.1558e+000 44237 93840,94022,94330
 3.4000e+000 94379 -1.8824e+002 -2.1116e+002  5.7731e+001 44237 93840,94330,94186
 3.4000e+000 94428 -1.8933e+002 -1.0762e+002  7.3963e+001 44237 93970,93944,94402
 3.4000e+000 94451 -1.8841e+002 -1.2081e+002  5.5073e+001 44237 93970,94402,94258
 3.4000e+000 94908 -1.5066e+002 -2.1908e+002  6.2433e+001 43890 94660,94790,94712
 3.4000e+000 94885 -9.7998e+001 -1.0331e+002  9.6595e+001 43890 94634,94790,94660
 3.4000e+000 94862 -3.1057e+002 -1.3787e+002  5.0905e+001 43890 94712,94764,94738
 3.4000e+000 94839 -1.3589e+002 -1.9933e+002  1.0461e+002 43890 94712,94790,94764
 3.4000e+000 94816 -7.5756e+001 -2.8995e+002  1.7621e+002 43890 94660,94712,94686
 3.4000e+000 95414 -1.3347e+002 -5.5094e+001  4.9227e+001 43186 95437,95143,95117
 3.4000e+000 95391 -1.5474e+002 -1.5876e+002  6.4226e+001 43186 95437,95117,95091
 3.4000e+000 95368 -5.3337e+001 -6.0891e+001  6.0052e+001 43186 95143,95221,95195
 3.4000e+000 95345 -2.3503e+002 -1.6063e+002  1.6410e+002 43186 95091,95273,95221
 3.4000e+000 95322 -1.7238e+002 -1.0092e+002  7.2518e+001 43186 95221,95273,95247
 3.4000e+000 95299 -7.9619e+001 -1.9463e+001  1.1475e+001 43186 95143,95195,95169
 3.4000e+000 95463 -1.3036e+002 -1.2495e+002  1.0122e+002 43186 95221,95143,95437
 3.4000e+000 95486 -1.3882e+002 -2.0466e+002  1.1911e+002 43186 95221,95437,95091
 3.4000e+000 96041 -2.2011e+002 -2.0185e+002  6.0907e+001 42782 95695,95851,95799
 3.4000e+000 96018 -1.7364e+002 -2.2480e+002  7.4457e+001 42782 95669,95851,95695
 3.4000e+000 95995 -2.3416e+002 -1.3148e+002  7.3659e+001 42782 95695,95747,95721
 3.4000e+000 95972 -1.6105e+002 -1.7653e+002  6.0835e+001 42782 95695,95799,95747
 3.4000e+000 95949 -1.4766e+002 -1.2137e+002  4.3381e+001 42782 95747,95799,95773
 3.4000e+000 95926 -2.8511e+002 -2.4354e+002  1.0795e+002 42782 95799,95851,95825
 3.4000e+000 95903 -2.5277e+002 -2.5578e+002  7.2392e+001 42782 95669,95877,95851
 3.4000e+000 96370 -2.0868e+002 -2.2922e+002  1.6162e+002 42420 96197,96275,96223
 3.4000e+000 96347 -2.1986e+002 -2.3164e+002  1.4919e+002 42420 96145,96275,96197
 3.4000e+000 96324 -2.1222e+002 -1.2323e+002  1.4114e+002 42420 96145,96197,96171
 3.4000e+000 96301 -1.1595e+002 -2.1174e+002  6.5401e+001 42420 96223,96275,96249
 3.4000e+000 96699 -1.4480e+002 -2.8176e+002  4.8595e+001 41816 96474,96578,96526
 3.4000e+000 96676 -1.8101e+001 -2.1653e+002  2.5252e+001 41816 96474,96604,96578
 3.4000e+000 96653 -1.0373e+002 -1.4474e+002  9.9630e+001 41816 96526,96578,96552
 3.4000e+000 96630 -1.2700e+002 -2.5807e+002  3.5358e+001 41816 96474,96526,96500
 3.4000e+000 96947 -1.1478e+002 -2.6769e+002  2.2820e+001 41212 96722,96800,96748
 3.4000e+000 96924 -1.5553e+002 -2.5436e+002  4.0670e+001 41212 96722,96826,96800
 3.4000e+000 96901 -1.7446e+002 -2.6978e+002  5.1153e+001 41212 96722,96852,96826
 3.4000e+000 96878 -5.0276e+001 -2.3802e+002  3.1494e+001 41212 96748,96800,96774
 3.4000e+000 97097 -1.0792e+002 -4.9718e+001  1.0384e+002 40793 97120,97022,96996
 3.4000e+000 97074 -2.0250e+002 -2.1704e+002  6.4898e+001 40793 97192,97120,96996
 3.4000e+000 97146 -7.6902e+001 -1.8272e+002  9.4473e+001 40793 97324,97120,97048
 3.4000e+000 97169 -7.1359e+001 -2.7578e+002  9.2620e+001 40793 97048,97120,96970
 3.4000e+000 97218 -3.2822e+001 -1.4443e+002  6.8875e+001 40793 96970,97120,97192
 3.4000e+000 97350 -7.6902e+001 -1.8272e+002  9.4473e+001 40793 97022,97120,97324
 3.4000e+000 97878 -1.1155e+002 -2.2912e+002  5.3386e+001 40446 97901,97607,97555
 3.4000e+000 97855 -1.1633e+002 -1.5906e+002  5.6307e+001 40446 97973,97901,97555
 3.4000e+000 97832 -9.0817e+001 -1.3515e+002  4.2428e+001 40446 97973,97555,97737
 3.4000e+000 97809 -1.5722e+002 -2.0785e+002  6.7571e+001 40446 97633,97685,97659
 3.4000e+000 97786 -1.0279e+002 -1.8401e+002  5.9879e+001 40446 97633,97711,97685
 3.4000e+000 97763 -1.1069e+002 -2.5287e+002  6.1161e+001 40446 97555,97607,97581
 3.4000e+000 97927 -1.2990e+002 -2.8752e+002 -1.3793e+000 40446 97633,97607,97901
 3.4000e+000 97950 -1.1659e+002 -2.2142e+002  4.7823e+001 40446 97633,97901,97711
 3.4000e+000 97999 -7.8839e+001 -2.1265e+002  7.1982e+001 40446 97711,97901,97973
 3.4000e+000 98022 -5.4891e+001 -1.8038e+002  5.9946e+001 40446 97711,97973,97737
 3.4000e+000 98449 -4.6910e+001 -5.5967e+001  2.7746e+001 39935 98152,98204,98178
 3.4000e+000 98426 -5.8107e+001 -5.6662e+001  2.2036e+001 39935 98152,98230,98204
 3.4000e+000 98403 -1.1934e+002 -6.8532e+001  7.3739e+001 39935 98152,98256,98230
 3.4000e+000 98380 -1.2247e+002 -6.9066e+001  7.3990e+001 39935 98126,98256,98152
 3.4000e+000 98357 -1.5761e+002 -1.6921e+002  7.5977e+001 39935 98126,98282,98256
 3.4000e+000 98334 -9.9906e+001 -2.8394e+002  1.1947e+002 39935 98126,98308,98282
 3.4000e+000 98746 -3.1925e+002 -1.8603e+002  8.7061e+001 39531 98498,98602,98524
 3.4000e+000 98723 -1.5593e+002 -2.0128e+002  5.2369e+001 39531 98472,98602,98498
 3.4000e+000 98700 -3.4116e+002 -1.0415e+002  4.2759e+001 39531 98524,98602,98576
 3.4000e+000 98677 -1.8043e+002 -2.1292e+002  5.6768e+001 39531 98472,98628,98602
 3.4000e+000 98654 -5.0473e+002 -1.4357e+002  4.2108e+001 39531 98524,98576,98550
 3.4000e+000 99224 -1.1181e+002 -1.2765e+002  7.1196e+001 39027 99247,98956,98930
 3.4000e+000 99201 -1.6757e+002 -2.5549e+002  7.8811e+001 39027 99247,98930,98878
 3.4000e+000 99178 -1.6185e+002 -2.2513e+002  1.3189e+002 39027 99319,98982,98956
 3.4000e+000 99155 -1.2177e+002 -1.1339e+002  1.2146e+002 39027 98852,99060,98878
 3.4000e+000 99132 -1.1594e+002 -1.5350e+002  2.6535e+001 39027 98878,98930,98904
 3.4000e+000 99109 -1.9083e+002 -3.4787e+002  2.0635e+002 39027 98982,99060,99034
 3.4000e+000 99086 -3.2325e+002 -5.1396e+002  3.4565e+002 39027 98982,99034,99008
 3.4000e+000 99273 -1.8429e+002 -2.5147e+002  1.0116e+002 39027 99319,98956,99247
 3.4000e+000 99296 -1.4045e+002 -2.3970e+002  9.5209e+001 39027 99060,99247,98878
 3.4000e+000 99345 -1.3657e+002 -2.1064e+002  1.3771e+002 39027 99060,98982,99319
 3.4000e+000 99368 -1.2041e+002 -2.1437e+002  1.1693e+002 39027 99060,99319,99247
 3.4000e+000 99923 -1.9286e+002 -1.6637e+002  9.8257e+001 38523 99946,99655,99603
 3.4000e+000 99900 -1.7901e+002 -1.5745e+002  1.0508e+002 38523 99946,99603,99759
 3.4000e+000 99877 -1.1737e+002 -2.2122e+002  1.1270e+002 38523 100018,99707,99681
 3.4000e+000 99854 -1.8975e+002 -1.1081e+002  9.8687e+001 38523 99551,99759,99603
 3.4000e+000 99831 -1.7650e+002 -9.8552e+001  8.8798e+001 38523 99551,99603,99577
 3.4000e+000 99808 -1.8913e+002 -2.9288e+002  8.5456e+001 38523 99707,99759,99733
 3.4000e+000 99785 -1.4833e+002 -1.3763e+002  8.4734e+001 38523 99603,99655,99629
 3.4000e+000 99972 -1.5872e+002 -8.0641e+001  9.2613e+001 38523 99681,99655,99946
 3.4000e+000 99995 -1.3557e+002 -1.2407e+002  1.2803e+002 38523 100018,99681,99946
 3.4000e+000 100044 -1.4566e+002 -2.5943e+002  7.0334e+001 38523 99759,99707,100018
 3.4000e+000 100067 -1.9779e+002 -2.2170e+002  8.7496e+001 38523 99759,100018,99946
 3.4000e+000 100467 -5.5235e+001 -1.7693e+002  4.6405e+001 38125 100219,100349,100323
 3.4000e+000 100444 -6.1790e+001 -1.4393e+002  3.6705e+001 38125 100193,100349,100219
 3.4000e+000 100421 -6.9050e+001 -1.5928e+002  5.7373e+001 38125 100245,100323,100297
 3.4000e+000 100398 -7.9507e+001 -1.8634e+002  5.1706e+001 38125 100219,100323,100245
 3.4000e+000 100375 -1.3422e+002 -1.8363e+002  6.1928e+001 38125 100245,100297,100271
 3.4000e+000 100666 -1.8516e+002 -2.8329e+002  9.7929e+001 37607 100689,100568,100542
 3.4000e+000 100643 -1.3328e+002 -1.3931e+002  8.9816e+001 37607 100689,100542,100490
 3.4000e+000 100620 -1.7011e+000 -1.0551e+002  2.5966e+001 37607 100490,100542,100516
 3.4000e+000 100715 -1.4617e+002 -1.4239e+002  7.1384e+001 37607 100594,100568,100689
 3.4000e+000 100738 -1.6756e+002 -1.0188e+002  7.3309e+001 37607 100594,100689,100490
 3.4000e+000 100937 -8.7830e+001 -8.5554e+001  7.4552e+001 37017 100960,100813,100787
 3.4000e+000 100914 -4.4800e+000 -8.6989e+001 -7.6743e+000 37017 100960,100787,100761
 3.4000e+000 100891 -2.3658e+002 -6.9201e+001  1.3485e+002 37017 100813,100865,100839
 3.4000e+000 100986 -1.9875e+002 -1.7568e+002  1.6213e+002 37017 100865,100813,100960
 3.4000e+000 101009 -4.0175e+001 -1.2415e+002  7.4236e+001 37017 100865,100960,100761
 3.4000e+000 101519 -1.8774e+002 -2.1327e+002  7.4546e+001 36613 101222,101274,101248
 3.4000e+000 101496 -1.3923e+002 -1.8624e+002  6.4000e+001 36613 101222,101352,101274
 3.4000e+000 101473 -1.6939e+002 -3.4456e+002  4.1620e+001 36613 101274,101352,101326
 3.4000e+000 101450 -1.7255e+002 -2.1614e+002  5.1082e+001 36613 101222,101378,101352
 3.4000e+000 101427 -3.7129e+001 -4.1915e+002  1.2293e+002 36613 101274,101326,101300
 3.4000e+000 101404 -1.4889e+002 -1.8021e+002  8.5142e+001 36613 101196,101378,101222
 3.4000e+000 101718 -1.1417e+002 -9.6234e+001  1.1110e+002 36308 101594,101646,101620
 3.4000e+000 101695 -1.1322e+002 -6.6655e+001  8.2672e+001 36308 101568,101646,101594
 3.4000e+000 101672 -9.3588e+001 -8.1170e+001  8.5471e+001 36308 101542,101646,101568
 3.4000e+000 102098 -1.0869e+002 -1.1965e+002  6.5048e+001 35918 102121,101954,101876
 3.4000e+000 102075 -7.8709e+001 -1.5912e+002  4.8760e+001 35918 102121,101876,101824
 3.4000e+000 102052 -9.9800e+001 -1.1771e+002  4.7748e+001 35918 101876,101954,101928
 3.4000e+000 102029 -2.0581e+002 -5.1950e+001  6.4335e+001 35918 101876,101928,101902
 3.4000e+000 102006 -6.2192e+001 -1.1380e+002  3.0838e+001 35918 101824,101876,101850
 3.4000e+000 102147 -1.1222e+002 -1.5576e+002  8.4322e+001 35918 101980,101954,102121
 3.4000e+000 102170 -8.4756e+001 -2.0054e+002  6.3633e+001 35918 101980,102121,101824
 3.4000e+000 102489 -1.7872e+002 -3.9434e+002  1.4004e+002 35514 102241,102345,102267
 3.4000e+000 102466 -2.3004e+002 -4.0447e+002  1.3463e+002 35514 102215,102345,102241
 3.4000e+000 102443 -1.8710e+002 -4.4428e+002  1.4462e+002 35514 102215,102371,102345
 3.4000e+000 102420 -1.4874e+002 -3.4740e+002  1.5473e+002 35514 102267,102345,102293
 3.4000e+000 102397 -9.0546e+001 -2.2238e+002  1.7112e+002 35514 102293,102345,102319
 3.4000e+000 102820 -7.2296e+001 -1.0491e+002  2.4935e+001 35224 102843,102699,102647
 3.4000e+000 102797 -1.4391e+002 -9.8594e+001  3.8465e+001 35224 102971,102725,102699
 3.4000e+000 102774 -6.6205e+001 -9.4171e+001  4.3910e+001 35224 102595,102725,102621
 3.4000e+000 102751 -4.7173e+001 -8.8120e+001  3.3493e+001 35224 102647,102699,102673
 3.4000e+000 102869 -9.1893e+001 -1.1072e+002  4.2441e+001 35224 102971,102699,102843
 3.4000e+000 102997 -9.0701e+001 -1.0249e+002  4.5893e+001 35224 102621,102725,102971
 3.4000e+000 103020 -2.3433e+001 -9.8615e+001  5.8363e+001 35224 102621,102971,102843
 3.4000e+000 103349 -2.1470e+002 -1.6462e+002  1.0229e+002 34820 103150,103228,103176
 3.4000e+000 103326 -1.9699e+002 -1.7480e+002  1.0130e+002 34820 103124,103228,103150
 3.4000e+000 103303 -1.7338e+002 -1.6782e+002  1.7260e+002 34820 103176,103228,103202
 3.4000e+000 103280 -1.3786e+002 -1.4663e+002  1.2406e+002 34820 103124,103254,103228
 3.4000e+000 103806 -1.1321e+002 -1.1387e+002  4.4913e+001 34530 103558,103662,103636
 3.4000e+000 103783 -7.7902e+001 -1.1049e+002  3.4116e+001 34530 103558,103688,103662
 3.4000e+000 103760 -7.6027e+001 -6.6466e+001  9.7038e+000 34530 103532,103688,103558
 3.4000e+000 103737 -5.7821e+001 -1.1616e+002  4.8521e+001 34530 103584,103636,103610
 3.4000e+000 103714 -1.6628e+002 -1.2475e+002  4.6301e+001 34530 103558,103636,103584
 3.4000e+000 104263 -1.1199e+002 -1.0402e+002  8.3580e+001 34019 103989,104119,104015
 3.4000e+000 104240 -8.9632e+001 -9.3519e+001  8.6913e+001 34019 103989,104145,104119
 3.4000e+000 104217 -1.1174e+002 -1.4621e+002  6.1142e+001 34019 104015,104067,104041
 3.4000e+000 104194 -1.1708e+002 -1.4991e+002  7.5470e+001 34019 104015,104119,104067
 3.4000e+000 104171 -1.2349e+002 -1.0124e+002  7.2587e+001 34019 104067,104119,104093
 3.4000e+000 104641 -1.1540e+002 -1.6902e+002  4.8718e+001 33351 104419,104497,104445
 3.4000e+000 104618 -8.2683e+001 -9.2214e+001  9.4442e+001 33351 104393,104497,104419
 3.4000e+000 104595 -2.0331e+002 -1.5671e+002  4.5340e+001 33351 104367,104497,104393
 3.4000e+000 104572 -7.7231e+001 -8.1529e+001  1.1957e+001 33351 104445,104497,104471
 3.4000e+000 104549 -1.4562e+002 -6.8246e+001  1.9979e+001 33351 104367,104523,104497
 3.4000e+000 105019 -1.5336e+002 -2.9955e+002  1.7830e+002 32861 104823,104901,104875
 3.4000e+000 104996 -2.1057e+002 -3.3808e+002  1.5062e+002 32861 104745,104901,104823
 3.4000e+000 104973 -2.3443e+002 -3.3490e+002  1.7199e+002 32861 104823,104875,104849
 3.4000e+000 104950 -2.0274e+002 -3.0539e+002  1.8163e+002 32861 104745,104823,104797
 3.4000e+000 104927 -2.4053e+002 -1.2652e+002  1.7666e+002 32861 104745,104797,104771
 3.4000e+000 105397 -7.6917e+001 -1.8697e+002  8.0699e+001 32457 105149,105253,105175
 3.4000e+000 105374 -1.2774e+002 -1.7147e+002  6.9998e+001 32457 105149,105279,105253
 3.4000e+000 105351 -6.3753e+001 -1.4183e+002  8.1508e+001 32457 105123,105279,105149
 3.4000e+000 105328 -1.3876e+002 -4.3402e+001  1.2182e+002 32457 105175,105227,105201
 3.4000e+000 105305 -1.5589e+002 -2.2095e+002  7.8313e+001 32457 105175,105253,105227
 3.4000e+000 105726 -6.8951e+001 -2.0982e+002  9.2205e+001 32003 105527,105605,105553
 3.4000e+000 105703 -1.1310e+002 -1.6785e+002  8.6773e+001 32003 105501,105605,105527
 3.4000e+000 105680 -5.6906e+001 -1.4423e+002  8.4461e+001 32003 105501,105631,105605
 3.4000e+000 105657 -4.8313e+001 -1.3454e+002  9.3081e+001 32003 105553,105605,105579
 3.4000e+000 106104 -1.1309e+002 -1.0779e+002  4.2221e+001 31492 106127,105908,105856
 3.4000e+000 106081 -1.1183e+002 -1.0725e+002  3.3641e+001 31492 106127,105856,105830
 3.4000e+000 106058 -1.3327e+002 -1.6219e+002  6.0375e+001 31492 105856,105908,105882
 3.4000e+000 106035 -1.0788e+002 -9.0660e+001  1.4052e+001 31492 105830,105986,105960
 3.4000e+000 106012 -6.9586e+001 -1.3499e+002  6.5448e+001 31492 105908,105960,105934
 3.4000e+000 106153 -1.1445e+002 -1.1462e+002  4.0863e+001 31492 105960,105908,106127
 3.4000e+000 106176 -1.1455e+002 -1.1918e+002  3.3512e+001 31492 105960,106127,105830
 3.4000e+000 106375 -1.4344e+002 -1.2198e+002  9.5164e+001 30788 106398,106277,106251
 3.4000e+000 106352 -1.3540e+002 -2.0502e+002  1.2059e+002 30788 106398,106251,106225
 3.4000e+000 106329 -2.3143e+002 -1.9341e+002  1.5368e+002 30788 106600,106199,106303
 3.4000e+000 106424 -2.2722e+002 -2.3226e+002  7.0366e+001 30788 106470,106398,106303
 3.4000e+000 106447 -1.5405e+002 -2.1204e+002  1.1579e+002 30788 106600,106303,106398
 3.4000e+000 106496 -5.6868e+001 -1.5898e+002  8.2917e+001 30788 106277,106398,106470
 3.4000e+000 106626 -2.7251e+002 -2.3538e+002  1.9306e+002 30788 106225,106199,106600
 3.4000e+000 106649 -2.2438e+002 -2.6202e+002  1.5292e+002 30788 106225,106600,106398
 3.4000e+000 106799 -1.1548e+002 -1.9294e+002 -2.2355e+000 30426 106698,106750,106724
 3.4000e+000 106776 -4.8256e+001 -1.1255e+002  2.6168e+001 30426 106672,106750,106698
 3.4000e+000 107356 -9.1762e+001 -1.8267e+002  1.0461e+002 29972 107010,107166,107114
 3.4000e+000 107333 -1.3161e+002 -1.9504e+002  1.0648e+002 29972 106984,107166,107010
 3.4000e+000 107310 -1.0912e+002 -1.6533e+002  9.5701e+001 29972 107010,107114,107088
 3.4000e+000 107287 -1.3948e+002 -2.1545e+002  5.7381e+001 29972 107114,107166,107140
 3.4000e+000 107264 -1.3641e+002 -1.5481e+002  8.0094e+001 29972 106984,107192,107166
 3.4000e+000 107241 -2.5958e+002 -3.4464e+002  1.7525e+002 29972 107010,107088,107036
 3.4000e+000 107218 -1.5221e+002 -2.9376e+002  1.1932e+002 29972 107036,107088,107062
 3.4000e+000 107783 -1.8867e+002 -2.4244e+002  1.3631e+002 29724 107878,107806,107590
 3.4000e+000 107760 -2.7193e+002 -2.7433e+002  1.2575e+002 29724 107806,107512,107486
 3.4000e+000 107737 -1.8488e+002 -2.4088e+002  1.3666e+002 29724 107878,107590,107538
 3.4000e+000 107714 -2.0161e+002 -2.8973e+002  1.5593e+002 29724 107950,107460,107616
 3.4000e+000 107691 -1.8944e+002 -2.8377e+002  1.5272e+002 29724 107460,107642,107616
 3.4000e+000 107668 -1.4636e+002 -1.7635e+002  1.5867e+002 29724 107538,107590,107564
 3.4000e+000 107832 -1.4419e+002 -2.5129e+002  1.7400e+002 29724 107616,107590,107806
 3.4000e+000 107855 -2.0503e+002 -2.9171e+002  1.5452e+002 29724 107950,107616,107806
 3.4000e+000 107904 -2.0345e+002 -2.4192e+002  1.5513e+002 29724 107512,107806,107878
 3.4000e+000 107927 -1.6963e+002 -2.2650e+002  1.5964e+002 29724 107512,107878,107538
 3.4000e+000 107976 -1.2967e+002 -2.8291e+002  1.6549e+002 29724 107486,107460,107950
 3.4000e+000 107999 -1.9489e+002 -3.0584e+002  1.5092e+002 29724 107486,107950,107806
 3.4000e+000 108296 -2.2550e+002 -1.5768e+002  1.1117e+002 29206 108319,108100,108048
 3.4000e+000 108273 -1.1922e+002 -1.3491e+002  1.4355e+002 29206 108319,108048,108022
 3.4000e+000 108250 -6.5655e+001 -1.6547e+002  1.8113e+002 29206 108391,108152,108126
 3.4000e+000 108227 -2.5660e+002 -1.0689e+002  1.2952e+002 29206 108048,108100,108074
 3.4000e+000 108204 -9.2144e+001 -2.2616e+002  1.5913e+002 29206 108022,108178,108152
 3.4000e+000 108345 -1.6484e+002 -7.6712e+001  1.7089e+002 29206 108126,108100,108319
 3.4000e+000 108368 -8.8805e+001 -1.3002e+002  1.9983e+002 29206 108391,108126,108319
 3.4000e+000 108417 -1.1769e+002 -2.0733e+002  1.5915e+002 29206 108022,108152,108391
 3.4000e+000 108440 -1.3560e+002 -1.7944e+002  1.7905e+002 29206 108022,108391,108319
 3.4000e+000 108688 -1.7545e+002 -1.7862e+002  1.5060e+002 28595 108711,108541,108515
 3.4000e+000 108665 -2.8359e+002 -2.1073e+002  1.7535e+002 28595 108783,108711,108515
 3.4000e+000 108642 -3.3237e+002 -1.9772e+002  1.7027e+002 28595 108783,108515,108489
 3.4000e+000 108619 -2.7174e+002 -2.6800e+002  8.4455e+001 28595 108463,108593,108489
 3.4000e+000 108737 -1.6764e+002 -1.7321e+002  1.0343e+002 28595 108567,108541,108711
 3.4000e+000 108760 -1.4145e+002 -1.8037e+002  1.5511e+002 28595 108567,108711,108593
 3.4000e+000 108809 -1.7649e+002 -2.4071e+002  1.3688e+002 28595 108593,108711,108783
 3.4000e+000 108832 -2.6726e+002 -2.5838e+002  1.1380e+002 28595 108593,108783,108489
 3.4000e+000 109033 -3.6377e+001 -3.4698e+001  2.4433e+001 28091 108909,108961,108935
 3.4000e+000 109010 -4.1679e+001 -9.6247e+001  1.4699e+001 28091 108857,108961,108909
 3.4000e+000 108987 -7.0688e+001 -7.7534e+001  7.1530e+001 28091 108857,108909,108883
 3.4000e+000 109136 -1.6707e+002 -3.9182e+002  7.3974e+001 27587 109058,109110,109084
 3.4000e+000 109695 -3.5184e+001 -2.0054e+002  4.8939e+001 26969 109718,109375,109323
 3.4000e+000 109672 -7.6442e+001 -2.3900e+002  9.4231e+001 26969 109718,109323,109505
 3.4000e+000 109649 -1.3061e+002 -1.2674e+002  8.4750e+001 26969 109790,109453,109427
 3.4000e+000 109626 -6.2986e+001 -8.1197e+001  5.8363e+001 26969 109323,109375,109349
 3.4000e+000 109603 -1.2737e+002 -1.6727e+002  3.5171e+001 26969 109323,109531,109505
 3.4000e+000 109580 -1.3505e+002 -2.8420e+002  8.4788e+001 26969 109375,109427,109401
 3.4000e+000 109557 -2.0551e+002 -2.4234e+002  1.2020e+002 26969 109453,109505,109479
 3.4000e+000 109744 -1.0011e+002 -2.2387e+002  5.3724e+001 26969 109427,109375,109718
 3.4000e+000 109767 -6.7622e+001 -1.7087e+002  8.8411e+001 26969 109790,109427,109718
 3.4000e+000 109816 -1.6978e+002 -1.7049e+002  1.0449e+002 26969 109505,109453,109790
 3.4000e+000 109839 -1.2723e+002 -2.2775e+002  1.1548e+002 26969 109505,109790,109718
 3.4000e+000 110266 -1.1409e+002 -2.3534e+002  4.1882e+000 26515 110361,110289,110099
 3.4000e+000 110243 -7.3966e+001 -1.6916e+002  4.4591e+000 26515 110289,109995,109943
 3.4000e+000 110220 -1.5836e+002 -2.5370e+002  1.0591e+000 26515 110361,110099,110021
 3.4000e+000 110197 -1.9261e+002 -4.0820e+002  5.0098e+001 26515 110047,110099,110073
 3.4000e+000 110174 -1.6977e+002 -3.7252e+002 -5.1991e+001 26515 110021,110099,110047
 3.4000e+000 110151 -4.9264e+001 -1.1346e+002  1.2921e+001 26515 109943,109995,109969
 3.4000e+000 110315 -1.9646e+002 -1.5531e+002 -2.4200e+001 26515 110125,110099,110289
 3.4000e+000 110338 -1.3578e+002 -4.4410e+001  5.7543e+001 26515 110125,110289,109943
 3.4000e+000 110387 -1.4964e+002 -2.2539e+002 -4.6453e+001 26515 109995,110289,110361
 3.4000e+000 110410 -1.8619e+002 -2.3696e+002 -4.6038e+001 26515 109995,110361,110021
 3.4000e+000 110609 -4.5317e+001 -2.3477e+002  9.2774e+001 25789 110906,110762,110632
 3.4000e+000 110586 -5.3591e+001 -2.8913e+002  1.0399e+002 25789 110762,110433,110537
 3.4000e+000 110563 -1.6026e+002 -2.6614e+002  1.6181e+002 25789 110834,110459,110433
 3.4000e+000 110658 -8.3323e+001 -2.2247e+002  1.1731e+002 25789 110906,110632,110834
 3.4000e+000 110788 -2.6401e+001 -1.6121e+002  5.8358e+001 25789 110511,110632,110762
 3.4000e+000 110811 -5.1241e+001 -2.3550e+002  1.0232e+002 25789 110511,110762,110537
 3.4000e+000 110860 -9.1781e+001 -2.2667e+002  1.3294e+002 25789 110485,110459,110834
 3.4000e+000 110883 -1.0973e+002 -2.0604e+002  1.0946e+002 25789 110485,110834,110632
 3.4000e+000 110932 -1.1739e+002 -2.5812e+002  9.4609e+001 25789 110433,110762,110906
 3.4000e+000 110955 -1.4779e+002 -2.3836e+002  1.1396e+002 25789 110433,110906,110834
 3.4000e+000 111350 -1.4346e+002 -1.9788e+002  1.4745e+002 25228 111445,111373,111186
 3.4000e+000 111327 -1.3625e+002 -2.2527e+002  4.0564e+001 25228 110978,111186,111004
 3.4000e+000 111304 -1.4279e+002 -2.5537e+002  1.4580e+002 25228 111373,111108,111082
 3.4000e+000 111281 -1.3377e+002 -2.4134e+002  9.2742e+001 25228 111134,111186,111160
 3.4000e+000 111258 -1.4782e+002 -1.7564e+002  1.0947e+002 25228 111445,111186,111134
 3.4000e+000 111235 -1.2208e+002 -1.2920e+002  8.8812e+001 25228 111517,111030,111004
 3.4000e+000 111212 -1.6453e+002 -1.8815e+002  1.1924e+002 25228 111030,111082,111056
 3.4000e+000 111399 -1.5163e+002 -2.4299e+002  1.3964e+002 25228 111004,111186,111373
 3.4000e+000 111422 -1.0554e+002 -1.6098e+002  1.2143e+002 25228 111517,111004,111373
 3.4000e+000 111471 -8.9516e+001 -1.6877e+002  1.2326e+002 25228 111108,111373,111445
 3.4000e+000 111494 -9.3969e+001 -1.4397e+002  8.5017e+001 25228 111108,111445,111134
 3.4000e+000 111543 -1.7004e+002 -1.4134e+002  1.2766e+002 25228 111082,111030,111517
 3.4000e+000 111566 -1.5703e+002 -1.8723e+002  1.6064e+002 25228 111082,111517,111373
 3.4000e+000 112074 -4.9957e+001 -9.1078e+001  1.3725e+001 24338 112097,111907,111881
 3.4000e+000 112051 -5.1951e+001 -7.8763e+001 -1.2151e+001 24338 112097,111881,111829
 3.4000e+000 112028 -3.9907e+001 -8.9937e+001 -1.7515e+001 24338 111829,111881,111855
 3.4000e+000 112005 -5.6632e+001 -1.3171e+002  4.8279e+001 24338 111777,111933,111829
 3.4000e+000 111982 -1.2287e+002 -7.2586e+001  3.8791e+001 24338 111751,111933,111777
 3.4000e+000 111959 -8.9624e+001 -1.5960e+002  6.1236e+001 24338 111777,111829,111803
 3.4000e+000 112123 -6.7865e+001 -1.7817e+002  3.2377e+001 24338 111933,111907,112097
 3.4000e+000 112146 -3.3127e+001 -1.0753e+002  6.2250e+000 24338 111933,112097,111829
 3.4000e+000 112443 -1.9942e+002 -1.2632e+002  8.8907e+001 23998 112466,112299,112247
 3.4000e+000 112420 -2.2345e+002 -2.1752e+002  9.1480e+001 23998 112466,112247,112221
 3.4000e+000 112397 -1.6780e+002 -2.6218e+002  1.4140e+002 23998 112169,112325,112221
 3.4000e+000 112374 -1.5422e+002 -3.4877e+002  1.8116e+002 23998 112169,112221,112195
 3.4000e+000 112351 -9.9749e+001 -1.1720e+002  1.0794e+002 23998 112247,112299,112273
 3.4000e+000 112492 -2.0718e+002 -1.3959e+002  1.4369e+002 23998 112325,112299,112466
 3.4000e+000 112515 -2.2478e+002 -1.8936e+002  1.3330e+002 23998 112325,112466,112221
 3.4000e+000 113200 -2.2320e+002 -2.5681e+002  1.8753e+002 23480 112779,112961,112805
 3.4000e+000 113177 -2.2836e+002 -1.9752e+002  8.8447e+001 23480 112779,112987,112961
 3.4000e+000 113154 -7.2714e+001 -1.2131e+002  1.2829e+002 23480 112805,112961,112883
 3.4000e+000 113131 -1.1079e+002 -2.0011e+002  1.3394e+002 23480 112883,112935,112909
 3.4000e+000 113108 -1.5979e+002 -1.5638e+002  1.3440e+002 23480 112883,112961,112935
 3.4000e+000 113085 -1.7534e+001 -6.8889e+001  6.9771e+001 23480 112831,112883,112857
 3.4000e+000 113062 -1.0215e+002 -1.2887e+002  1.0456e+002 23480 112805,112883,112831
 3.4000e+000 113039 -2.7969e+002 -1.6037e+002  9.8398e+001 23480 112779,113013,112987
 3.4000e+000 113676 -2.2255e+002 -8.8094e+001  1.8209e+002 23018 113699,113434,113356
 3.4000e+000 113653 -1.9041e+002 -8.9766e+001  9.3207e+001 23018 113771,113699,113356
 3.4000e+000 113630 -1.6430e+002 -1.6312e+002  6.4314e+001 23018 113771,113356,113512
 3.4000e+000 113607 -1.2108e+002 -2.1418e+002  1.0619e+002 23018 113330,113512,113356
 3.4000e+000 113584 -4.6720e+002 -2.0613e+002  2.6857e+002 23018 113356,113434,113382
 3.4000e+000 113561 -5.5012e+001 -2.0173e+002  1.0721e+002 23018 113304,113512,113330
 3.4000e+000 113538 -4.0052e+002 -1.1929e+001  9.6679e+001 23018 113382,113434,113408
 3.4000e+000 113725 -2.5425e+002 -1.6122e+002  1.7907e+002 23018 113460,113434,113699
 3.4000e+000 113748 -2.9328e+002 -1.9040e+002  1.0822e+002 23018 113460,113699,113486
 3.4000e+000 113797 -2.5609e+002 -1.9489e+002  1.2122e+002 23018 113486,113699,113771
 3.4000e+000 113820 -1.9142e+002 -2.1157e+002  7.6369e+001 23018 113486,113771,113512
 3.4000e+000 114424 -7.2678e+001 -1.3144e+002  2.7893e+001 22514 114447,114133,114029
 3.4000e+000 114401 -7.0111e+001 -1.2904e+002  2.6843e+001 22514 114447,114029,114237
 3.4000e+000 114378 -3.3638e+001 -1.3355e+002  5.4947e+001 22514 114133,114211,114185
 3.4000e+000 114355 -5.1780e+001 -1.2158e+002  3.6013e+001 22514 114133,114185,114159
 3.4000e+000 114332 -6.7347e+001 -1.3835e+002  5.5753e+001 22514 114003,114237,114029
 3.4000e+000 114309 -8.4556e+001 -1.0312e+002  8.2485e+000 22514 114029,114133,114055
 3.4000e+000 114286 -1.3711e+002 -9.2942e+001  2.6557e+001 22514 114055,114133,114107
 3.4000e+000 114263 -1.3122e+002 -1.4128e+001  6.3807e+001 22514 114055,114107,114081
 3.4000e+000 114473 -6.9372e+001 -1.3296e+002  2.6668e+001 22514 114211,114133,114447
 3.4000e+000 114496 -6.7447e+001 -1.3149e+002  2.5899e+001 22514 114211,114447,114237
 3.4000e+000 114597 -9.3911e+001 -2.2334e+002  1.1070e+002 22316 114620,114571,114545
 3.4000e+000 114646 -9.3911e+001 -2.2334e+002  1.1070e+002 22316 114519,114571,114620
 3.4000e+000 115127 -4.8675e+001 -2.0483e+002  1.6976e+001 21612 115150,114905,114879
 3.4000e+000 115104 -7.6778e+001 -1.0681e+002  2.8384e+001 21612 115150,114879,114853
 3.4000e+000 115081 -7.8466e+001 -6.0747e+001  6.7502e+001 21612 115222,114931,114905
 3.4000e+000 115058 -1.8087e+001 -1.3365e+002  6.7719e+001 21612 115222,114905,115009
 3.4000e+000 115035 -9.8791e+001 -2.1647e+002  1.2723e+002 21612 114957,115009,114983
 3.4000e+000 115176 -3.1456e+001 -1.2512e+002  1.9294e+001 21612 115009,114905,115150
 3.4000e+000 115199 -5.0990e+001 -1.3853e+001  2.7468e+001 21612 115009,115150,114853
 3.4000e+000 115248 -1.2275e+002 -1.0151e+002  9.2291e+001 21612 114957,114931,115222
 3.4000e+000 115271 -5.6388e+001 -1.6633e+002  8.9560e+001 21612 114957,115222,115009
 3.4000e+000 115519 -2.0930e+001  1.9610e+001  2.0074e+001 21208 115542,115372,115320
 3.4000e+000 115496  2.2766e+001  4.1509e+001 -9.3649e+000 21208 115542,115320,115294
 3.4000e+000 115473 -1.8158e+001 -4.2640e+001  3.5722e+001 21208 115320,115372,115346
 3.4000e+000 115450 -8.1253e+001 -2.2513e+001  1.2940e+001 21208 115294,115424,115398
 3.4000e+000 115568 -3.8991e+001  1.2116e+001  3.8344e+001 21208 115398,115372,115542
 3.4000e+000 115591 -1.8438e+001 -5.9566e+000  1.6415e+001 21208 115398,115542,115294
 3.4000e+000 115839 -1.5385e+002 -1.2321e+002  1.1538e+002 20668 115862,115640,115614
 3.4000e+000 115816 -1.4979e+002 -1.4364e+002  1.1243e+002 20668 115862,115614,115744
 3.4000e+000 115793 -8.4167e+001 -4.7305e+001  9.9545e+001 20668 115640,115718,115692
 3.4000e+000 115770 -2.5152e+002 -9.9318e+001  9.9855e+001 20668 115640,115692,115666
 3.4000e+000 115888 -1.5147e+002 -9.1354e+001  1.2645e+002 20668 115718,115640,115862
 3.4000e+000 115911 -1.5839e+002 -1.2657e+002  1.2339e+002 20668 115718,115862,115744
 3.4000e+000 116134 -1.5664e+002 -2.1045e+002  1.3714e+002 20264 115958,116036,115984
 3.4000e+000 116111 -6.9477e+001 -1.6763e+002  1.2138e+002 20264 115958,116062,116036
 3.4000e+000 116088 -8.7654e+001 -2.1255e+002  1.4718e+002 20264 115984,116036,116010
 3.4000e+000 116384 -2.3653e+002 -1.6189e+002  1.7099e+002 19924 116407,116211,116159
 3.4000e+000 116361 -2.2143e+002 -2.6534e+002  1.5251e+002 19924 116407,116159,116263
 3.4000e+000 116338 -2.1836e+002 -9.0610e+001  1.6211e+002 19924 116159,116211,116185
 3.4000e+000 116315 -1.4384e+002 -2.4827e+002  1.6935e+002 19924 116159,116289,116263
 3.4000e+000 116433 -2.3400e+002 -1.0308e+002  1.9127e+002 19924 116237,116211,116407
 3.4000e+000 116456 -1.8417e+002 -1.7411e+002  1.8532e+002 19924 116237,116407,116263
 3.4000e+000 116608 -5.9912e+001 -1.3879e+001  7.5932e+001 19520 116703,116631,116533
 3.4000e+000 116585 -2.8540e+001 -4.5529e+001  5.0647e+001 19520 116631,116507,116481
 3.4000e+000 116657 -2.8519e+001 -4.5779e+001  9.2663e+001 19520 116559,116533,116631
 3.4000e+000 116680 -3.2905e+001 -1.2048e+002  6.5289e+001 19520 116559,116631,116481
 3.4000e+000 116729 -5.9912e+001 -1.3879e+001  7.5932e+001 19520 116507,116631,116703
 3.4000e+000 116952 -2.1257e+002 -1.5882e+002  2.4095e+002 19208 116975,116802,116776
 3.4000e+000 116929 -2.5584e+002 -3.1253e+002  1.3791e+002 19208 116975,116776,116880
 3.4000e+000 116906 -2.6578e+002 -1.1457e+002  1.7141e+002 19208 116802,116854,116828
 3.4000e+000 117001 -1.7226e+002 -1.3427e+002  2.5122e+002 19208 116854,116802,116975
 3.4000e+000 117024 -6.9223e+001 -1.7622e+002  2.0121e+002 19208 116854,116975,116880
 3.4000e+000 117428 -1.6175e+002 -6.1192e+001  1.0220e+002 18796 117154,117206,117180
 3.4000e+000 117405 -1.0997e+002 -1.2669e+002  9.8361e+001 18796 117154,117284,117206
 3.4000e+000 117382 -5.7948e+001 -1.0550e+002  9.6612e+001 18796 117154,117310,117284
 3.4000e+000 117359 -6.5045e+001 -8.5200e+001  1.2760e+002 18796 117206,117284,117258
 3.4000e+000 117336 -1.6835e+001 -8.0016e+000  1.7016e+002 18796 117206,117258,117232
 3.4000e+000 117529 -6.6145e+001 -2.5821e+001  3.8972e+001 18228 117810,117552,117477
 3.4000e+000 117578 -2.0887e+002 -9.9703e+001  9.4118e+001 18228 117682,117552,117503
 3.4000e+000 117708 -5.7568e+001 -1.8672e+001  3.5868e+001 18228 117477,117552,117682
 3.4000e+000 117836 -1.2573e+002 -9.7898e+001  8.7739e+001 18228 117451,117552,117810
 3.4000e+000 118364 -1.7771e+002 -6.5269e+001  8.3623e+001 17722 118067,118223,118093
 3.4000e+000 118341 -1.7984e+002 -2.6456e+001  7.0645e+001 17722 118041,118223,118067
 3.4000e+000 118318 -9.4185e+001 -7.5637e+001  7.1014e+001 17722 118093,118223,118197
 3.4000e+000 118295 -4.1298e+002 -3.7989e+002  2.5409e+002 17722 118119,118197,118171
 3.4000e+000 118272 -4.0462e+001 -9.5136e+000  1.0332e+002 17722 118093,118197,118119
 3.4000e+000 118249 -3.9124e+002 -9.5649e+001  1.6258e+002 17722 118119,118171,118145
 3.4000e+000 118514 -3.3618e+002 -1.3897e+002  1.2639e+002 17268 118387,118439,118413
 3.4000e+000 118491 -4.3024e+001 -1.8386e+002  1.6358e+002 17268 118387,118465,118439
 3.4000e+000 118916 -5.4293e+001 -3.0731e+000  2.2698e+001 16828 118668,118772,118694
 3.4000e+000 118893 -8.9322e+001 -2.6741e+001  1.2344e+001 16828 118668,118798,118772
 3.4000e+000 118870 -8.5192e+001 -4.4369e+001 -7.0049e+000 16828 118642,118798,118668
 3.4000e+000 118847 -9.6997e+001 -3.7326e+001  1.2964e+002 16828 118694,118746,118720
 3.4000e+000 118824 -1.1191e+002 -1.3001e+002  3.8907e+001 16828 118694,118772,118746
 3.4000e+000 119316 -4.4460e+001 -4.4983e+001  9.0444e+001 16422 119042,119172,119094
 3.4000e+000 119293 -1.0580e+002 -5.5313e+001  9.6519e+001 16422 119042,119198,119172
 3.4000e+000 119270 -1.4069e+002 -4.4268e+001  4.7654e+001 16422 119042,119094,119068
 3.4000e+000 119247  1.3277e+001  1.3786e+001  1.0847e+002 16422 119094,119146,119120
 3.4000e+000 119224 -2.3144e+001 -5.3173e+000  9.9134e+001 16422 119094,119172,119146
 3.4000e+000 119466 -5.3414e+000  2.0822e+001  8.3102e+000 16010 119339,119391,119365
 3.4000e+000 119443  4.9469e+000  7.1855e+000  3.4884e+001 16010 119339,119417,119391
 3.4000e+000 119616 -4.8968e+001 -8.7938e+000  7.1983e+001 15547 119515,119567,119541
 3.4000e+000 119593  7.6763e+001  1.4922e+002  2.8179e+002 15547 119489,119567,119515
 3.4000e+000 119719 -3.4833e+002 -1.4542e+002  1.4595e+002 421 119641,119693,119667
 3.5000e+000 69562 -4.2472e+002 -1.7939e+002  1.1063e+002 69254 69484,69536,69510
 3.5000e+000 70009 -1.2796e+002 -1.2136e+002  1.1803e+002 68942 69686,69842,69816
 3.5000e+000 69986 -1.4180e+002 -1.1679e+002  4.3339e+001 68942 69686,69868,69842
 3.5000e+000 69963 -1.0947e+002 -4.7032e+001  1.3274e+002 68942 69686,69816,69712
 3.5000e+000 69940 -6.4336e+001 -3.2633e+001  1.8632e+002 68942 69712,69790,69738
 3.5000e+000 69917 -2.1600e+002 -3.0964e+002  1.2190e+002 68942 69712,69816,69790
 3.5000e+000 69894 -2.1835e+001 -1.6958e+002  7.7221e+001 68942 69738,69790,69764
 3.5000e+000 70110 -2.7101e+002 -1.0960e+002  7.9076e+001 68766 70032,70084,70058
 3.5000e+000 70746 -3.8887e+002 -1.5803e+002  1.0497e+002 68448 70400,70556,70426
 3.5000e+000 70723 -3.9659e+002 -1.6678e+002  1.0843e+002 68448 70374,70556,70400
 3.5000e+000 70700 -3.3610e+002 -1.1449e+002  6.1247e+001 68448 70426,70556,70478
 3.5000e+000 70677 -2.9353e+002 -9.9945e+001  6.8343e+001 68448 70478,70556,70504
 3.5000e+000 70654 -4.2088e+002 -1.8343e+002  1.0479e+002 68448 70426,70478,70452
 3.5000e+000 70631 -3.7284e+002 -9.1708e+001  1.4258e+002 68448 70374,70582,70556
 3.5000e+000 70608 -2.8671e+002 -6.4612e+001  6.0690e+001 68448 70504,70556,70530
 3.5000e+000 70896 -3.8385e+002 -1.4175e+002 -1.7120e+001 68250 70795,70847,70821
 3.5000e+000 70873 -5.3112e+002 -2.1019e+002  1.2807e+000 68250 70769,70847,70795
 3.5000e+000 70997 -6.9719e+002 -3.0631e+002  2.4009e+002 68052 70919,70971,70945
 3.5000e+000 71367 -2.0025e+002 -3.0726e+002  1.1433e+002 67740 71096,71226,71200
 3.5000e+000 71344 -1.4267e+002 -1.8954e+002  1.3715e+002 67740 71044,71226,71096
 3.5000e+000 71321  5.7545e+000 -5.7545e+000  2.3041e+002 67740 71044,71096,71070
 3.5000e+000 71298 -1.7038e+002 -3.2828e+002  2.1817e+002 67740 71096,71200,71174
 3.5000e+000 71275 -7.8862e+001 -1.8554e+002  8.3106e+001 67740 71096,71148,71122
 3.5000e+000 71252 -1.1821e+002 -2.3566e+002  1.4294e+002 67740 71096,71174,71148
 3.5000e+000 71519  7.9360e+001  4.0861e+001  7.2287e+001 67542 71418,71470,71444
 3.5000e+000 71496  1.1659e+002  2.5428e+002  2.2269e+002 67542 71392,71470,71418
 3.5000e+000 71923 -6.2522e+001 -2.1028e+001  8.3172e+001 67230 71649,71779,71675
 3.5000e+000 71900 -5.3982e+001 -8.1271e+001  6.5661e+001 67230 71649,71805,71779
 3.5000e+000 71877 -6.9915e+001 -3.0795e+001  1.4460e+002 67230 71675,71727,71701
 3.5000e+000 71854 -8.7823e+001 -2.1264e+002  1.5115e+002 67230 71675,71753,71727
 3.5000e+000 71831 -8.3942e+001 -1.3650e+002  1.0691e+002 67230 71675,71779,71753
 3.5000e+000 72433 -2.1964e+002 -9.4760e+001  9.4223e+001 67032 72038,72246,72220
 3.5000e+000 72410 -7.3185e+001 -2.4086e+001  7.0931e+001 67032 72012,72246,72038
 3.5000e+000 72387 -2.4782e+002 -1.3516e+002  1.0386e+002 67032 72064,72194,72168
 3.5000e+000 72364 -2.3589e+002 -9.7053e+001  9.8829e+001 67032 72038,72194,72064
 3.5000e+000 72341 -2.5798e+002 -1.8542e+002  1.0456e+002 67032 72038,72220,72194
 3.5000e+000 72318 -1.1245e+002 -2.8840e+001  8.9915e+001 67032 72090,72168,72142
 3.5000e+000 72295 -1.8566e+002 -8.3099e+001  1.7408e+002 67032 72064,72168,72090
 3.5000e+000 72272 -1.1417e+002 -4.3116e+001  8.3369e+001 67032 72090,72142,72116
 3.5000e+000 72933 -1.5655e+002 -1.3831e+002  1.4675e+002 66628 72956,72665,72613
 3.5000e+000 72910 -1.6787e+002 -1.5618e+002  1.4134e+002 66628 73100,72956,72613
 3.5000e+000 72887 -1.5553e+002 -2.0213e+002  1.1672e+002 66628 73028,72691,72665
 3.5000e+000 72864 -1.6669e+002 -1.5229e+002  1.3859e+002 66628 73100,72613,72587
 3.5000e+000 72841 -1.4129e+002 -1.2798e+002  1.1478e+002 66628 72613,72665,72639
 3.5000e+000 72818 -4.2803e+001 -2.3199e+001  1.8538e+002 66628 72587,72769,72743
 3.5000e+000 72795 -1.9293e+002 -3.7234e+002  5.1918e+001 66628 72561,72769,72587
 3.5000e+000 72982 -1.6473e+002 -1.5503e+002  1.5134e+002 66628 73028,72665,72956
 3.5000e+000 73005 -1.5866e+002 -6.8600e+001  1.4249e+002 66628 72717,72956,72743
 3.5000e+000 73054 -2.2079e+002 -1.8668e+002  8.0788e+001 66628 72717,72691,73028
 3.5000e+000 73077 -2.2648e+002 -1.6837e+002  1.1287e+002 66628 72717,73028,72956
 3.5000e+000 73126 -1.6389e+002 -1.5422e+002  1.3773e+002 66628 72743,72956,73100
 3.5000e+000 73149 -1.6431e+002 -1.5154e+002  1.3515e+002 66628 72743,73100,72587
 3.5000e+000 73606 -1.8519e+002 -1.6424e+002  1.5730e+002 66281 73332,73384,73358
 3.5000e+000 73583 -2.3856e+002 -1.7187e+002  1.1134e+002 66281 73332,73462,73384
 3.5000e+000 73560 -2.6898e+002 -1.5219e+002  1.2491e+002 66281 73384,73462,73436
 3.5000e+000 73537 -3.9892e+002 -2.5797e+002  1.6843e+002 66281 73332,73488,73462
 3.5000e+000 73514 -2.9410e+002 -1.4993e+002  6.8362e+001 66281 73384,73436,73410
 3.5000e+000 73984 -1.9015e+002 -6.7708e+001  6.1291e+001 65969 73736,73814,73788
 3.5000e+000 73961 -1.1585e+002 -6.3274e+001  8.7104e+001 65969 73736,73866,73814
 3.5000e+000 73938 -1.2286e+002 -6.9874e+001  9.1867e+001 65969 73814,73866,73840
 3.5000e+000 73915 -9.9790e+001 -9.8565e+001  8.1368e+001 65969 73710,73866,73736
 3.5000e+000 73892 -1.7540e+002 -4.5909e+001  5.2813e+001 65969 73736,73788,73762
 3.5000e+000 74232 -1.7370e+002 -1.3460e+002  1.5469e+002 65572 74255,74085,74033
 3.5000e+000 74209 -1.6759e+002 -1.3387e+002  1.5340e+002 65572 74327,74255,74033
 3.5000e+000 74186 -1.6412e+002 -1.3190e+002  1.5478e+002 65572 74327,74033,74007
 3.5000e+000 74163 -1.8812e+002 -1.5298e+002  1.6255e+002 65572 74033,74085,74059
 3.5000e+000 74281 -1.7467e+002 -1.3507e+002  1.5639e+002 65572 74111,74085,74255
 3.5000e+000 74304 -1.7714e+002 -1.3721e+002  1.5127e+002 65572 74111,74255,74137
 3.5000e+000 74353 -1.7373e+002 -1.3005e+002  1.5275e+002 65572 74137,74255,74327
 3.5000e+000 74376 -1.7023e+002 -1.2841e+002  1.5380e+002 65572 74137,74327,74007
 3.5000e+000 74884 -1.6088e+002 -1.4757e+002  1.2687e+002 65174 74587,74717,74613
 3.5000e+000 74861 -2.1144e+002 -1.8343e+002  1.0195e+002 65174 74561,74717,74587
 3.5000e+000 74838 -1.3468e+002 -1.6587e+002  8.5203e+001 65174 74613,74691,74639
 3.5000e+000 74815 -1.7058e+002 -1.6609e+002  1.2125e+002 65174 74613,74717,74691
 3.5000e+000 74792 -7.9459e+001 -2.0826e+002  8.4489e+001 65174 74639,74691,74665
 3.5000e+000 74769 -3.3569e+002 -7.6361e+001  1.0938e+002 65174 74561,74743,74717
 3.5000e+000 75412 -5.1535e+000 -3.4963e+001  2.5097e+002 64770 75167,75245,75219
 3.5000e+000 75389 -1.3045e+002 -2.0294e+002  1.7189e+002 64770 75115,75245,75167
 3.5000e+000 75366 -1.0124e+002 -2.5402e+002  2.2142e+002 64770 75089,75245,75115
 3.5000e+000 75343 -2.1456e+002 -6.4438e+001  1.8454e+002 64770 75167,75219,75193
 3.5000e+000 75320 -1.0621e+002 -1.4723e+002  1.7563e+002 64770 75115,75167,75141
 3.5000e+000 75297 -1.5354e+002 -3.7765e+002  2.2992e+002 64770 75089,75271,75245
 3.5000e+000 75861 -4.4175e+002 -1.8138e+002  1.3648e+002 64316 75538,75694,75564
 3.5000e+000 75838 -3.6615e+002 -1.5116e+002  7.9385e+001 64316 75538,75720,75694
 3.5000e+000 75815 -3.0630e+002 -1.7219e+002  1.1802e+002 64316 75590,75694,75642
 3.5000e+000 75792 -3.0377e+002 -2.2999e+002  1.4012e+002 64316 75564,75694,75590
 3.5000e+000 75769 -1.2440e+002 -2.8323e+002  6.7408e+001 64316 75590,75642,75616
 3.5000e+000 75746 -2.2779e+002 -9.2252e+001  8.5505e+001 64316 75642,75694,75668
 3.5000e+000 76239 -3.3987e+002 -2.5533e+002  1.5350e+002 64018 76262,76095,76043
 3.5000e+000 76216 -2.7629e+002 -2.7333e+002  1.3871e+002 64018 76262,76043,76017
 3.5000e+000 76193 -1.7971e+002 -1.3876e+002  7.1948e+001 64018 75991,76121,76017
 3.5000e+000 76170 -3.3058e+002 -1.9496e+002  2.0862e+002 64018 76043,76095,76069
 3.5000e+000 76147 -1.8436e+001 -1.1434e+002  3.2863e+001 64018 75965,76121,75991
 3.5000e+000 76288 -2.8470e+002 -2.5332e+002  1.8525e+002 64018 76121,76095,76262
 3.5000e+000 76311 -2.3448e+002 -2.8487e+002  1.6067e+002 64018 76121,76262,76017
 3.5000e+000 76866 -1.3523e+002 -1.1778e+002  1.3712e+002 63728 76520,76676,76546
 3.5000e+000 76843 -1.1215e+002 -1.2057e+002  9.3923e+001 63728 76520,76702,76676
 3.5000e+000 76820 -1.1679e+002 -1.3297e+002  1.4034e+002 63728 76546,76650,76572
 3.5000e+000 76797 -1.8091e+002 -1.7676e+002  1.1711e+002 63728 76546,76676,76650
 3.5000e+000 76774 -1.8555e+002 -1.4640e+001  6.5826e+001 63728 76572,76650,76624
 3.5000e+000 76751 -9.9423e+001 -1.0046e+002  1.0048e+002 63728 76494,76702,76520
 3.5000e+000 76728 -4.2207e+001 -7.3746e+001  5.4832e+001 63728 76572,76624,76598
 3.5000e+000 77065 -2.2393e+002 -9.8728e+001  1.0704e+002 63288 77088,76941,76915
 3.5000e+000 77042 -2.4891e+002 -1.0576e+002  1.0273e+002 63288 77088,76915,76993
 3.5000e+000 77019 -1.1487e+002 -1.4244e+002  8.2244e+001 63288 76889,76993,76915
 3.5000e+000 77114 -1.9734e+002 -1.1131e+002  1.2090e+002 63288 76967,76941,77088
 3.5000e+000 77137 -3.3534e+002 -1.7410e+002  4.8033e+001 63288 77160,77088,76993
 3.5000e+000 77186 -8.4755e+001 -6.0502e+001  8.5342e+001 63288 76967,77088,77160
 3.5000e+000 77417 -1.7293e+002 -1.6158e+002  1.4644e+002 62884 77440,77342,77316
 3.5000e+000 77394 -3.5902e+002 -2.1349e+002  7.8213e+001 62884 77770,77440,77316
 3.5000e+000 77466 -2.3591e+002 -2.2068e+002  4.4044e+001 62884 77512,77440,77368
 3.5000e+000 77489 -2.1657e+002 -1.5428e+002  5.7841e+001 62884 77642,77440,77290
 3.5000e+000 77538 -1.3528e+002 -1.7828e+002  2.5785e+001 62884 77342,77440,77512
 3.5000e+000 77668 -2.8388e+002 -2.6991e+002  1.9488e+001 62884 77368,77440,77642
 3.5000e+000 77796 -1.8565e+002 -1.2518e+002  4.4755e+001 62884 77290,77440,77770
 3.5000e+000 78479 -4.6434e+002 -2.9752e+002  1.7074e+002 62480 78084,78240,78214
 3.5000e+000 78456 -3.7440e+002 -2.7349e+002  5.5241e+001 62480 78084,78266,78240
 3.5000e+000 78433 -4.2766e+002 -2.2174e+002  1.2991e+002 62480 78110,78214,78136
 3.5000e+000 78410 -3.8621e+002 -2.0396e+002  1.3478e+002 62480 78084,78214,78110
 3.5000e+000 78387 -3.2678e+002 -2.5403e+002  1.3703e+002 62480 78136,78214,78188
 3.5000e+000 78364 -3.5369e+002 -3.2487e+002  4.2142e+001 62480 78058,78266,78084
 3.5000e+000 78341 -3.3724e+002 -2.3116e+002  3.8871e+001 62480 78136,78188,78162
 3.5000e+000 78318 -4.1844e+002 -3.4917e+002  3.7026e+001 62480 78058,78292,78266
 3.5000e+000 78678 -2.1692e+002 -3.4721e+002  1.3551e+002 61926 78528,78606,78554
 3.5000e+000 78655 -1.3223e+002 -3.0483e+002  1.7480e+002 61926 78502,78606,78528
 3.5000e+000 78632 -1.6370e+002 -2.2296e+002  1.3139e+002 61926 78554,78606,78580
 3.5000e+000 79058 -2.0565e+002 -1.7564e+002  1.0793e+002 61614 78836,78914,78862
 3.5000e+000 79035 -2.7713e+002 -2.1533e+002  9.1436e+001 61614 78810,78914,78836
 3.5000e+000 79012 -1.6769e+002 -1.6757e+002  1.0100e+002 61614 78784,78914,78810
 3.5000e+000 78989 -1.8359e+002 -1.8763e+002  1.7304e+002 61614 78862,78914,78888
 3.5000e+000 78966 -1.5037e+002 -2.2223e+002  1.1656e+002 61614 78784,78940,78914
 3.5000e+000 79208 -1.1891e+002 -2.7564e+002  8.8234e+000 61366 79081,79133,79107
 3.5000e+000 79185 -1.4188e+002 -2.4725e+002  8.0949e+001 61366 79081,79159,79133
 3.5000e+000 79358  2.0084e+001  2.6641e+000  1.2531e+001 60962 79231,79283,79257
 3.5000e+000 79335 -6.9514e+001 -1.6297e+002  4.6618e+001 60962 79231,79309,79283
 3.5000e+000 79608 -1.0239e+002 -2.2098e+002  8.4954e+001 60508 79631,79435,79409
 3.5000e+000 79585 -7.0456e+001 -2.2420e+002  6.2239e+001 60508 79703,79631,79409
 3.5000e+000 79562 -7.9827e+001 -1.3668e+002  7.1099e+001 60508 79703,79409,79383
 3.5000e+000 79539 -2.0928e+002 -1.7064e+002  1.4748e+002 60508 79435,79487,79461
 3.5000e+000 79657 -1.1951e+002 -2.6305e+002  1.4089e+002 60508 79487,79435,79631
 3.5000e+000 79680 -5.4146e+001 -2.0993e+002  8.4987e+001 60508 79487,79631,79513
 3.5000e+000 79729 -4.0375e+001 -1.4283e+002  3.8133e+001 60508 79513,79631,79703
 3.5000e+000 79752 -6.6817e+001 -1.2762e+002  2.3198e+001 60508 79513,79703,79383
 3.5000e+000 80390 -1.8662e+002 -1.7512e+002  1.6595e+002 59997 80413,80096,80018
 3.5000e+000 80367 -3.3105e+002 -2.1702e+002  1.9592e+002 59997 80413,80018,80226
 3.5000e+000 80344 -1.3891e+002 -1.2470e+002  9.2488e+001 59997 80096,80174,80148
 3.5000e+000 80321 -5.3102e+002 -2.9785e+002  2.3094e+002 59997 80018,80096,80070
 3.5000e+000 80298 -1.7919e+002 -1.7146e+002  7.0265e+001 59997 80096,80148,80122
 3.5000e+000 80275 -1.6663e+002 -1.5208e+002  1.5387e+002 59997 80174,80226,80200
 3.5000e+000 80252 -4.5402e+002 -2.1116e+002  1.7706e+002 59997 80018,80070,80044
 3.5000e+000 80439 -1.4385e+002 -2.0012e+002  1.2077e+002 59997 80174,80096,80413
 3.5000e+000 80462 -2.0368e+002 -1.6381e+002  1.3589e+002 59997 80174,80413,80226
 3.5000e+000 80840 -2.1847e+002 -1.8251e+002  8.9573e+001 59443 80863,80644,80618
 3.5000e+000 80817 -9.0259e+001 -1.3269e+002  1.0838e+002 59443 80863,80618,80566
 3.5000e+000 80794 -9.8132e+001 -1.1748e+002  1.3305e+002 59443 81007,80935,80670
 3.5000e+000 80771 -1.2649e+002 -1.2143e+002  1.1651e+002 59443 80566,80722,80696
 3.5000e+000 80748 -1.1946e+002 -1.8690e+002  1.2945e+002 59443 80566,80618,80592
 3.5000e+000 80889 -2.4589e+002 -1.5857e+002  1.4529e+002 59443 80935,80644,80863
 3.5000e+000 80912 -1.7000e+002 -1.4065e+002  1.2359e+002 59443 80696,80863,80566
 3.5000e+000 80961 -1.5130e+002 -1.3276e+002  1.4917e+002 59443 80696,80670,80935
 3.5000e+000 80984 -1.4528e+002 -1.1241e+002  1.3410e+002 59443 80696,80935,80863
 3.5000e+000 81033 -1.9689e+002 -2.1116e+002  1.7993e+002 59443 80644,80935,81007
 3.5000e+000 81360 -2.3972e+002 -1.1720e+002  8.6410e+001 59031 81383,81187,81161
 3.5000e+000 81337 -1.9110e+002 -1.3704e+002  2.0497e+001 59031 81455,81383,81161
 3.5000e+000 81314 -1.4035e+002 -1.1409e+002  3.3834e+001 59031 81455,81161,81135
 3.5000e+000 81291 -3.5521e+002 -1.5319e+002  1.2458e+002 59031 81187,81239,81213
 3.5000e+000 81409 -2.5981e+002 -2.0484e+002  1.2097e+002 59031 81239,81187,81383
 3.5000e+000 81432 -2.7732e+002 -1.7254e+002  2.6270e+001 59031 81239,81383,81265
 3.5000e+000 81481 -2.4444e+002 -8.8377e+001  3.5282e+001 59031 81265,81383,81455
 3.5000e+000 81504 -2.2294e+002 -9.0472e+001  3.6697e+001 59031 81265,81455,81135
 3.5000e+000 81835 -4.6735e+001 -8.5786e+001  5.5486e+001 58577 81610,81714,81636
 3.5000e+000 81812 -5.9559e+001 -1.1263e+002  6.5101e+001 58577 81610,81740,81714
 3.5000e+000 81789 -1.1648e+002 -1.1457e+002  8.7360e+000 58577 81636,81714,81688
 3.5000e+000 81766 -1.1493e+002 -1.4605e+002 -7.3722e+001 58577 81636,81688,81662
 3.5000e+000 81985 -3.9797e+001 -9.4162e+001  6.0224e+001 58030 81884,81936,81910
 3.5000e+000 81962 -7.6478e+001 -2.8047e+001  4.2828e+001 58030 81858,81936,81884
 3.5000e+000 82414 -3.4188e+001 -7.6973e+000  4.2269e+001 57690 82437,82169,82117
 3.5000e+000 82391 -4.6152e+001 -5.3049e+001  5.0373e+001 57690 82437,82117,82247
 3.5000e+000 82368  1.7633e+001  3.5679e+001  1.2226e+002 57690 82195,82247,82221
 3.5000e+000 82345 -3.6783e+001 -4.8949e+001  5.1525e+001 57690 82091,82247,82117
 3.5000e+000 82322 -5.6794e+001 -1.3907e+001  2.8609e+001 57690 82117,82169,82143
 3.5000e+000 82299 -4.1613e+001 -9.3015e+001  7.2281e+001 57690 82091,82273,82247
 3.5000e+000 82463 -5.3065e+001  1.1487e+001  6.3154e+001 57690 82195,82169,82437
 3.5000e+000 82486 -5.8356e+001 -2.1514e+001  6.3662e+001 57690 82195,82437,82247
 3.5000e+000 83041 -1.5386e+002 -1.3718e+002  1.0816e+002 57172 83064,82721,82695
 3.5000e+000 83018 -1.6484e+002 -1.3879e+002  1.4252e+002 57172 83064,82695,82851
 3.5000e+000 82995 -4.1681e+002 -1.9390e+002  1.8678e+002 57172 82669,82851,82695
 3.5000e+000 82972 -2.3955e+002 -1.3575e+002  1.4000e+002 57172 82773,82851,82825
 3.5000e+000 82949 -2.1845e+002 -1.3699e+002  1.6543e+002 57172 82773,82825,82799
 3.5000e+000 82926 -1.7829e+002 -1.0376e+002  8.7320e+001 57172 82721,82773,82747
 3.5000e+000 82903 -5.0758e+002 -2.2697e+002  3.0377e+002 57172 82669,82877,82851
 3.5000e+000 83090 -2.1004e+002 -1.5722e+002  1.0092e+002 57172 82773,82721,83064
 3.5000e+000 83113 -1.8395e+002 -1.4437e+002  1.3372e+002 57172 82773,83064,82851
 3.5000e+000 83747 -1.3888e+002 -1.1419e+002  7.7408e+001 56554 83770,83427,83401
 3.5000e+000 83724 -1.3931e+002 -1.4259e+002  9.0451e+001 56554 83842,83770,83401
 3.5000e+000 83701 -1.4229e+001 -1.1227e+002  3.5986e+001 56554 83842,83401,83583
 3.5000e+000 83678 -2.7813e+002 -1.9144e+002  1.9014e+002 56554 83914,83531,83505
 3.5000e+000 83655 -1.9941e+002 -1.4719e+002  8.5507e+001 56554 83531,83583,83557
 3.5000e+000 83632 -5.3429e+001 -7.0503e+001  2.3016e+001 56554 83375,83583,83401
 3.5000e+000 83609 -1.3684e+002 -1.0358e+002  8.2624e+001 56554 83427,83479,83453
 3.5000e+000 83796 -1.3186e+002 -1.0158e+002  8.2676e+001 56554 83479,83427,83770
 3.5000e+000 83819 -1.5492e+002 -1.0735e+002  9.2477e+001 56554 83479,83770,83505
 3.5000e+000 83868 -1.0036e+002 -7.6631e+001  1.1052e+002 56554 83505,83770,83842
 3.5000e+000 83891 -1.8854e+002 -1.3173e+002  1.3434e+002 56554 83914,83505,83842
 3.5000e+000 83940 -1.3785e+002 -1.8692e+002  1.1941e+002 56554 83583,83531,83914
 3.5000e+000 83963 -6.0388e+001 -1.8216e+002  8.9562e+001 56554 83583,83914,83842
 3.5000e+000 84341 -2.5647e+002 -3.5926e+002  1.3934e+002 56192 84067,84145,84119
 3.5000e+000 84318 -2.2163e+002 -2.3896e+002  1.2143e+002 56192 84067,84223,84145
 3.5000e+000 84295 -2.1431e+002 -1.9444e+002  9.3654e+001 56192 84145,84223,84197
 3.5000e+000 84272 -2.3274e+002 -9.5042e+001  5.5967e+001 56192 84067,84119,84093
 3.5000e+000 84249 -1.3680e+002 -1.2273e+002  1.2386e+002 56192 84145,84197,84171
 3.5000e+000 84611 -7.1994e+001 -1.7148e+002  1.0222e+002 55538 84386,84490,84412
 3.5000e+000 84588 -8.3799e+001 -1.8442e+002  1.0608e+002 55538 84386,84516,84490
 3.5000e+000 84565 -1.5200e+002 -2.0680e+002  9.6063e+001 55538 84412,84490,84464
 3.5000e+000 84542 -8.8915e+001 -2.0817e+002  5.4071e+001 55538 84412,84464,84438
 3.5000e+000 84942 -1.9110e+002 -1.4594e+002  1.3012e+002 55084 84769,84847,84795
 3.5000e+000 84919 -1.9530e+002 -1.6749e+002  1.1177e+002 55084 84717,84847,84769
 3.5000e+000 84896 -2.2560e+002 -2.6145e+002  1.1712e+002 55084 84717,84769,84743
 3.5000e+000 84873 -2.1098e+002 -5.7704e+001  1.1030e+002 55084 84795,84847,84821
 3.5000e+000 85271 -2.2811e+001 -3.6134e+001  6.0623e+001 54580 85294,85098,85072
 3.5000e+000 85248 -1.6753e+002 -8.4605e+001  9.0445e+001 54580 85294,85072,85176
 3.5000e+000 85225 -2.3534e+002 -3.0105e+000  2.5017e+001 54580 85124,85176,85150
 3.5000e+000 85202 -4.7501e+001 -7.4223e+001  3.2984e+001 54580 85046,85176,85072
 3.5000e+000 85320 -1.4817e+002 -4.5222e+001  7.4047e+001 54580 85124,85098,85294
 3.5000e+000 85343 -2.2343e+002 -3.8478e+001  9.4493e+001 54580 85124,85294,85176
 3.5000e+000 85542 -8.6942e+001 -1.8023e+002  9.5554e+001 53976 85565,85444,85418
 3.5000e+000 85519 -9.3904e+001 -1.5160e+002  8.3257e+001 53976 85565,85418,85366
 3.5000e+000 85496 -8.2286e+001 -1.4971e+002  6.4140e+001 53976 85366,85418,85392
 3.5000e+000 85591 -1.0117e+002 -1.7237e+002  6.7420e+001 53976 85470,85444,85565
 3.5000e+000 85614 -7.7960e+001 -8.9478e+001  5.9925e+001 53976 85470,85565,85366
 3.5000e+000 85960 -2.0183e+002 -2.2511e+002  9.0105e+001 53572 85663,85715,85689
 3.5000e+000 85937 -1.7297e+002 -1.9263e+002  9.5892e+001 53572 85983,85715,85663
 3.5000e+000 85914 -1.8800e+002 -2.1764e+002  1.0660e+002 53572 86055,85983,85663
 3.5000e+000 85891 -1.7307e+002 -2.1356e+002  1.3114e+002 53572 86055,85663,85637
 3.5000e+000 85868 -2.9657e+002 -3.7584e+002  1.9225e+002 53572 85637,85793,85767
 3.5000e+000 85845 -2.5288e+002 -7.5013e+001  9.4082e+001 53572 85637,85819,85793
 3.5000e+000 86009 -1.8119e+002 -1.7499e+002  9.8733e+001 53572 85741,85715,85983
 3.5000e+000 86032 -1.9524e+002 -1.8182e+002  1.0451e+002 53572 85741,85983,85767
 3.5000e+000 86081 -1.6481e+002 -1.6559e+002  1.1082e+002 53572 85767,85983,86055
 3.5000e+000 86104 -1.6222e+002 -1.8809e+002  1.3305e+002 53572 85767,86055,85637
 3.5000e+000 86693 -3.8855e+002 -8.8090e+001  1.6732e+002 52946 86474,86526,86500
 3.5000e+000 86670 -1.8072e+002 -7.6189e+001  8.3263e+001 52946 86396,86526,86474
 3.5000e+000 86647 -3.0198e+002 -3.2275e+002  1.7542e+002 52946 86370,86526,86396
 3.5000e+000 86624 -8.5684e+001 -6.6453e+001  2.1077e+001 52946 86422,86474,86448
 3.5000e+000 86601 -2.0755e+002 -6.8684e+001  5.5019e+001 52946 86396,86474,86422
 3.5000e+000 86578 -2.8204e+002 -1.3906e+002  1.0977e+002 52946 86370,86552,86526
 3.5000e+000 87376 -2.2264e+002 -1.8275e+002  6.9210e+001 52420 87007,87085,87033
 3.5000e+000 87353 -1.9043e+002 -1.7357e+002  7.1748e+001 52420 87007,87163,87085
 3.5000e+000 87330 -1.9698e+002 -1.6439e+002  7.9050e+001 52420 87007,87189,87163
 3.5000e+000 87307 -1.9311e+002 -1.5499e+002  8.6389e+001 52420 87033,87085,87059
 3.5000e+000 87284 -2.1212e+002 -1.7425e+002  2.7951e+001 52420 87085,87137,87111
 3.5000e+000 87261 -1.6880e+002 -1.8858e+002  2.5500e+001 52420 87085,87163,87137
 3.5000e+000 87238 -1.6060e+002 -1.7228e+002  1.3917e+002 52420 86955,87189,87007
 3.5000e+000 87215 -1.1082e+002 -1.3403e+002  6.2805e+001 52420 86955,87007,86981
 3.5000e+000 87624 -1.0311e+002 -2.1238e+002  5.5060e+001 51916 87451,87503,87477
 3.5000e+000 87601 -1.2088e+002 -2.3728e+002  4.7384e+001 51916 87425,87503,87451
 3.5000e+000 87578 -9.7026e+001 -2.1315e+002  6.1741e+001 51916 87425,87529,87503
 3.5000e+000 87555 -6.5390e+001 -1.5236e+002  7.3523e+001 51916 87399,87529,87425
 3.5000e+000 88053 -1.6046e+002 -1.2241e+002  5.1782e+001 51568 87782,87834,87808
 3.5000e+000 88030 -2.1620e+002 -1.6478e+002  8.6596e+001 51568 88076,87782,87886
 3.5000e+000 88007 -2.0899e+002 -1.4842e+002  8.3433e+001 51568 88076,87886,87860
 3.5000e+000 87984 -2.3339e+002 -2.1351e+002  7.7738e+001 51568 87756,87886,87782
 3.5000e+000 87961 -1.8063e+002 -1.7564e+002  1.5083e+002 51568 87756,87912,87886
 3.5000e+000 87938 -2.1426e+002 -1.3594e+002  1.3880e+002 51568 87730,87912,87756
 3.5000e+000 88102 -2.0748e+002 -1.7349e+002  7.6476e+001 51568 87834,87782,88076
 3.5000e+000 88125 -2.0171e+002 -1.6268e+002  7.3658e+001 51568 87834,88076,87860
 3.5000e+000 88324 -1.6771e+002 -1.3801e+002  6.7139e+001 51164 88419,88347,88200
 3.5000e+000 88301 -9.7189e+001 -1.2651e+002  7.5369e+001 51164 88347,88148,88252
 3.5000e+000 88278 -2.2043e+002 -1.7969e+002  2.0273e+001 51164 88419,88200,88174
 3.5000e+000 88373 -1.0195e+002 -1.5026e+002  7.8763e+001 51164 88226,88200,88347
 3.5000e+000 88396 -8.5571e+000 -1.2691e+002  6.3504e+001 51164 88226,88347,88252
 3.5000e+000 88445 -1.1085e+002 -1.1400e+002  8.4502e+001 51164 88148,88347,88419
 3.5000e+000 88468 -1.1015e+002 -1.0535e+002  5.3141e+001 51164 88148,88419,88174
 3.5000e+000 88738 -1.1742e+002 -1.6721e+002  4.5618e+001 50560 88513,88617,88539
 3.5000e+000 88715 -7.7219e+001 -1.8052e+002  3.0772e+001 50560 88513,88643,88617
 3.5000e+000 88692 -6.1848e+001 -1.6587e+001  4.3799e+001 50560 88539,88591,88565
 3.5000e+000 88669 -5.0963e+001 -1.2063e+002  6.6712e+001 50560 88539,88617,88591
 3.5000e+000 88939 -1.7178e+002 -7.6034e+001  7.5125e+001 50106 88962,88789,88763
 3.5000e+000 88916 -1.2435e+002 -1.1504e+002  6.0097e+001 50106 88962,88763,88841
 3.5000e+000 88893 -1.4446e+002 -1.3009e+002  8.5567e+001 50106 88763,88867,88841
 3.5000e+000 88988 -1.2724e+002 -9.1542e+001  5.2890e+001 50106 88815,88789,88962
 3.5000e+000 89011 -1.1032e+002 -8.1793e+001  7.2618e+001 50106 89034,88962,88841
 3.5000e+000 89060 -6.1392e+001 -3.0656e+001  9.4306e+000 50106 88815,88962,89034
 3.5000e+000 89472 -1.1512e+002 -1.6185e+002  6.5005e+001 49666 89273,89351,89325
 3.5000e+000 89449 -1.1011e+002 -1.4209e+002  7.2306e+001 49666 89273,89377,89351
 3.5000e+000 89426 -1.0382e+002 -1.3390e+002  1.0290e+002 49666 89273,89325,89299
 3.5000e+000 89403 -9.9191e+001 -8.9498e+001  7.5638e+001 49666 89247,89377,89273
 3.5000e+000 89978 -1.7826e+002 -1.6286e+002  8.5850e+001 49205 89681,89837,89733
 3.5000e+000 89955 -1.4675e+002 -1.5711e+002  8.4707e+001 49205 89655,89837,89681
 3.5000e+000 89932 -3.4238e+002 -2.9020e+002  1.2421e+002 49205 89785,89837,89811
 3.5000e+000 89909 -1.9530e+002 -1.5225e+002  6.3965e+001 49205 89733,89837,89785
 3.5000e+000 89886 -3.2002e+002 -1.7944e+002  1.3768e+002 49205 89733,89785,89759
 3.5000e+000 89863 -9.5569e+001 -3.5676e+002  1.8046e+002 49205 89681,89733,89707
 3.5000e+000 90177 -1.4958e+002 -1.3750e+002  7.3363e+001 48865 90530,90200,90053
 3.5000e+000 90154 -1.1468e+002 -1.6235e+002  8.7565e+001 48865 90402,90200,90001
 3.5000e+000 90131 -1.7759e+002 -9.2451e+001  7.2271e+001 48865 90530,90053,90027
 3.5000e+000 90226 -1.6858e+002 -1.3079e+002  1.1328e+002 48865 90079,90053,90200
 3.5000e+000 90249 -2.0514e+002 -1.7314e+002  6.0841e+001 48865 90272,90200,90105
 3.5000e+000 90298 -1.1255e+002 -9.6231e+001  9.4755e+001 48865 90079,90200,90272
 3.5000e+000 90428 -1.4929e+002 -5.1097e+001  8.8870e+001 48865 90105,90200,90402
 3.5000e+000 90556 -1.6634e+002 -1.9426e+002  6.5992e+001 48865 90001,90200,90530
 3.5000e+000 90579 -1.9221e+002 -1.3826e+002  5.3509e+001 48865 90001,90530,90027
 3.5000e+000 90827 -1.5123e+002 -1.3965e+002  9.9203e+001 48404 90850,90654,90628
 3.5000e+000 90804 -1.7607e+002 -1.6108e+002  1.3304e+002 48404 90850,90628,90732
 3.5000e+000 90781 -1.2459e+002 -1.3072e+002  6.9282e+001 48404 90680,90732,90706
 3.5000e+000 90758 -2.5066e+002 -8.5160e+001  1.2775e+002 48404 90602,90732,90628
 3.5000e+000 90876 -1.5980e+002 -8.8827e+001  7.9846e+001 48404 90680,90654,90850
 3.5000e+000 90899 -1.7747e+002 -1.2925e+002  1.0768e+002 48404 90680,90850,90732
 3.5000e+000 91000 -9.7740e+001 -2.2969e+002  8.9497e+001 48156 90922,90974,90948
 3.5000e+000 91250 -5.9914e+001 -1.3971e+002  3.3755e+001 47752 91051,91103,91077
 3.5000e+000 91227 -1.1682e+002 -1.4150e+002  3.9808e+001 47752 91025,91103,91051
 3.5000e+000 91204 -1.8834e+002 -1.8861e+002  8.0008e+001 47752 91025,91155,91103
 3.5000e+000 91181 -1.6296e+002 -1.6734e+002  1.1824e+002 47752 91103,91155,91129
 3.5000e+000 91402 -1.5605e+002 -1.3696e+002  9.4258e+001 47191 91425,91301,91275
 3.5000e+000 91379 -1.4993e+002 -1.3434e+002  1.0655e+002 47191 91497,91425,91275
 3.5000e+000 91451 -1.6464e+002 -8.0162e+001  5.1545e+001 47191 91327,91301,91425
 3.5000e+000 91474 -1.7166e+002 -1.5676e+002  1.1419e+002 47191 91327,91425,91353
 3.5000e+000 91523 -1.8195e+002 -2.9696e+002  1.0827e+002 47191 91353,91425,91497
 3.5000e+000 91854 -8.8066e+001 -8.6167e+001  7.5693e+001 46744 91949,91877,91707
 3.5000e+000 91831 -6.7128e+000 -1.4213e+002  4.2710e+001 46744 91877,91655,91629
 3.5000e+000 91808 -9.0011e+001 -7.8044e+001  7.0629e+001 46744 91949,91707,91681
 3.5000e+000 91785 -1.3378e+002 -1.3826e+002 -2.4838e+001 46744 91629,91759,91733
 3.5000e+000 91903 -1.8663e+002 -1.4337e+002  1.1409e+002 46744 91733,91707,91877
 3.5000e+000 91926 -6.6872e+001 -2.0026e+002  7.0903e+001 46744 91733,91877,91629
 3.5000e+000 91975 -7.5207e+001 -1.5514e+002  1.0332e+002 46744 91655,91877,91949
 3.5000e+000 91998 -3.1293e+001 -1.1547e+002  8.4372e+001 46744 91655,91949,91681
 3.5000e+000 92378 -1.0666e+002 -1.5666e+001  5.1863e+001 46090 92130,92208,92182
 3.5000e+000 92355 -1.4740e+002 -3.3716e+001  4.8105e+001 46090 92104,92208,92130
 3.5000e+000 92332 -6.2500e+001 -8.7776e+001  4.6072e+001 46090 92104,92260,92208
 3.5000e+000 92309 -4.0150e+001 -1.5402e+000  4.0197e+001 46090 92208,92260,92234
 3.5000e+000 92286 -1.7375e+002 -3.8580e+001  6.3128e+001 46090 92130,92182,92156
 3.5000e+000 92626 -9.3874e+001 -1.3642e+002  3.9788e+001 45693 92721,92649,92505
 3.5000e+000 92603 -1.1521e+002 -1.3715e+002  1.0498e+002 45693 92649,92453,92427
 3.5000e+000 92580 -1.0557e+002 -1.0407e+002  3.6271e+001 45693 92721,92505,92479
 3.5000e+000 92557 -2.4719e+002 -2.0648e+002  1.2943e+002 45693 92401,92531,92427
 3.5000e+000 92675 -1.7306e+002 -1.2998e+002  5.7803e+001 45693 92531,92505,92649
 3.5000e+000 92698 -2.0038e+002 -1.6701e+002  1.4662e+002 45693 92531,92649,92427
 3.5000e+000 92747 -1.0043e+002 -9.8284e+001  3.8772e+001 45693 92453,92649,92721
 3.5000e+000 92770 -6.5821e+001  1.6700e+000  5.0925e+001 45693 92453,92721,92479
 3.5000e+000 93172 -7.0077e+001 -1.1337e+002  1.0593e+002 45331 92898,93028,92924
 3.5000e+000 93149 -3.6334e+001 -8.6732e+001  7.1977e+001 45331 92898,93054,93028
 3.5000e+000 93126 -1.0440e+002 -6.5110e+001  1.1677e+002 45331 92924,93002,92976
 3.5000e+000 93103 -4.1412e+001 -1.0044e+002  1.0314e+002 45331 92924,93028,93002
 3.5000e+000 93080 -1.1437e+002 -1.1502e+002  1.2112e+002 45331 92924,92976,92950
 3.5000e+000 93518 -1.9782e+002 -2.3000e+002  1.6408e+002 44820 93613,93273,93247
 3.5000e+000 93495 -1.7506e+002 -1.9496e+002  9.6386e+001 44820 93685,93541,93247
 3.5000e+000 93472 -2.0763e+002 -1.3300e+002  7.0619e+001 44820 93541,93195,93377
 3.5000e+000 93449 -1.8988e+002 -1.7258e+002  7.7712e+001 44820 93685,93247,93221
 3.5000e+000 93426 -2.0223e+002 -1.9960e+002  1.1924e+002 44820 93299,93377,93351
 3.5000e+000 93403 -1.6802e+002 -1.2338e+002  1.4070e+002 44820 93299,93351,93325
 3.5000e+000 93567 -1.6572e+002 -2.5259e+002  7.7174e+001 44820 93613,93247,93541
 3.5000e+000 93590 -1.9818e+002 -1.9883e+002  4.6665e+001 44820 93299,93541,93377
 3.5000e+000 93639 -1.6563e+002 -3.1066e+002  1.0207e+002 44820 93299,93273,93613
 3.5000e+000 93662 -1.8170e+002 -3.0704e+002  8.1157e+001 44820 93299,93613,93541
 3.5000e+000 93711 -1.9099e+002 -1.3699e+002  5.3260e+001 44820 93195,93541,93685
 3.5000e+000 93734 -1.5582e+002 -2.8628e+001  4.0201e+001 44820 93195,93685,93221
 3.5000e+000 94163 -1.4934e+002 -1.4470e+002  6.8633e+001 44237 94258,94186,93996
 3.5000e+000 94140 -1.6330e+002 -1.9297e+002  3.3259e+001 44237 94330,94022,93996
 3.5000e+000 94117 -1.7401e+002 -1.2673e+002  5.3955e+001 44237 94186,93918,93866
 3.5000e+000 94094 -1.3534e+002 -9.7089e+001  6.0685e+001 44237 94258,93996,93970
 3.5000e+000 94071 -1.5594e+002 -4.5663e+001  5.8351e+001 44237 94402,93944,93918
 3.5000e+000 94048 -1.0226e+002 -9.8980e+001  4.9984e+001 44237 93866,93918,93892
 3.5000e+000 94212 -1.6501e+002 -1.9486e+002  4.3659e+001 44237 94330,93996,94186
 3.5000e+000 94235 -1.6730e+002 -1.3056e+002  5.1023e+001 44237 93840,94186,93866
 3.5000e+000 94284 -1.5455e+002 -9.6027e+001  3.7781e+001 44237 93918,94186,94258
 3.5000e+000 94307 -1.4915e+002 -5.3713e+001  4.5858e+001 44237 94402,93918,94258
 3.5000e+000 94356 -2.0997e+002 -1.1486e+002  5.8038e+000 44237 93840,94022,94330
 3.5000e+000 94379 -1.5738e+002 -1.7244e+002  4.9738e+001 44237 93840,94330,94186
 3.5000e+000 94428 -1.4894e+002 -7.6993e+001  6.0512e+001 44237 93970,93944,94402
 3.5000e+000 94451 -1.5131e+002 -9.0353e+001  4.3402e+001 44237 93970,94402,94258
 3.5000e+000 94908 -1.4708e+002 -1.8124e+002  5.4112e+001 43890 94660,94790,94712
 3.5000e+000 94885 -7.1908e+001 -8.7474e+001  8.7965e+001 43890 94634,94790,94660
 3.5000e+000 94862 -2.7898e+002 -1.2278e+002  4.8069e+001 43890 94712,94764,94738
 3.5000e+000 94839 -1.3100e+002 -1.5650e+002  9.6054e+001 43890 94712,94790,94764
 3.5000e+000 94816 -5.9888e+001 -2.4658e+002  1.7010e+002 43890 94660,94712,94686
 3.5000e+000 95414 -1.0411e+002 -3.4603e+001  3.8432e+001 43186 95437,95143,95117
 3.5000e+000 95391 -1.2096e+002 -1.2285e+002  5.2849e+001 43186 95437,95117,95091
 3.5000e+000 95368 -4.3882e+001 -4.3960e+001  5.0842e+001 43186 95143,95221,95195
 3.5000e+000 95345 -1.9074e+002 -1.2650e+002  1.3591e+002 43186 95091,95273,95221
 3.5000e+000 95322 -1.4318e+002 -7.8619e+001  5.8761e+001 43186 95221,95273,95247
 3.5000e+000 95299 -5.1392e+001  2.4399e+001  1.3024e+001 43186 95143,95195,95169
 3.5000e+000 95463 -1.0351e+002 -9.4046e+001  8.2591e+001 43186 95221,95143,95437
 3.5000e+000 95486 -1.0942e+002 -1.6193e+002  9.9308e+001 43186 95221,95437,95091
 3.5000e+000 96041 -1.8378e+002 -1.6665e+002  5.0962e+001 42782 95695,95851,95799
 3.5000e+000 96018 -1.5071e+002 -1.8779e+002  6.0455e+001 42782 95669,95851,95695
 3.5000e+000 95995 -1.9752e+002 -1.0997e+002  6.2334e+001 42782 95695,95747,95721
 3.5000e+000 95972 -1.3404e+002 -1.4533e+002  5.1089e+001 42782 95695,95799,95747
 3.5000e+000 95949 -1.2383e+002 -1.0136e+002  3.5859e+001 42782 95747,95799,95773
 3.5000e+000 95926 -2.3883e+002 -2.0502e+002  8.9491e+001 42782 95799,95851,95825
 3.5000e+000 95903 -1.9003e+002 -2.0158e+002  5.5947e+001 42782 95669,95877,95851
 3.5000e+000 96370 -1.6798e+002 -1.8179e+002  1.3976e+002 42420 96197,96275,96223
 3.5000e+000 96347 -1.7745e+002 -1.7212e+002  1.2368e+002 42420 96145,96275,96197
 3.5000e+000 96324 -1.5760e+002 -7.9816e+001  1.1118e+002 42420 96145,96197,96171
 3.5000e+000 96301 -8.3105e+001 -1.6118e+002  5.5106e+001 42420 96223,96275,96249
 3.5000e+000 96699 -1.0813e+002 -2.3441e+002  3.4373e+001 41816 96474,96578,96526
 3.5000e+000 96676 -2.1495e+001 -2.0940e+002  4.1573e+001 41816 96474,96604,96578
 3.5000e+000 96653 -8.0408e+001 -1.2549e+002  7.4365e+001 41816 96526,96578,96552
 3.5000e+000 96630 -9.9429e+001 -2.1355e+002  3.3457e+001 41816 96474,96526,96500
 3.5000e+000 96947 -9.6542e+001 -2.2499e+002  1.2295e+001 41212 96722,96800,96748
 3.5000e+000 96924 -1.2406e+002 -2.1250e+002  2.4256e+001 41212 96722,96826,96800
 3.5000e+000 96901 -1.6343e+002 -2.3558e+002  3.5027e+001 41212 96722,96852,96826
 3.5000e+000 96878  3.7214e+000 -1.7949e+002  2.3697e+001 41212 96748,96800,96774
 3.5000e+000 97097 -8.9467e+001 -4.0221e+001  8.6174e+001 40793 97120,97022,96996
 3.5000e+000 97074 -1.6852e+002 -1.7837e+002  5.3543e+001 40793 97192,97120,96996
 3.5000e+000 97146 -6.3369e+001 -1.5015e+002  7.8591e+001 40793 97324,97120,97048
 3.5000e+000 97169 -5.9033e+001 -2.2545e+002  7.7211e+001 40793 97048,97120,96970
 3.5000e+000 97218 -2.7267e+001 -1.1789e+002  5.7491e+001 40793 96970,97120,97192
 3.5000e+000 97350 -6.3369e+001 -1.5015e+002  7.8591e+001 40793 97022,97120,97324
 3.5000e+000 97878 -9.8250e+001 -1.9325e+002  4.5608e+001 40446 97901,97607,97555
 3.5000e+000 97855 -9.9121e+001 -1.3201e+002  4.6487e+001 40446 97973,97901,97555
 3.5000e+000 97832 -7.4856e+001 -1.1084e+002  3.4552e+001 40446 97973,97555,97737
 3.5000e+000 97809 -1.3170e+002 -1.6923e+002  5.5364e+001 40446 97633,97685,97659
 3.5000e+000 97786 -8.4090e+001 -1.5280e+002  5.1670e+001 40446 97633,97711,97685
 3.5000e+000 97763 -9.4125e+001 -2.1013e+002  5.4499e+001 40446 97555,97607,97581
 3.5000e+000 97927 -1.0931e+002 -2.4229e+002 -1.4445e+000 40446 97633,97607,97901
 3.5000e+000 97950 -9.8943e+001 -1.8719e+002  4.0397e+001 40446 97633,97901,97711
 3.5000e+000 97999 -6.4348e+001 -1.7854e+002  6.1379e+001 40446 97711,97901,97973
 3.5000e+000 98022 -4.2176e+001 -1.5076e+002  5.0796e+001 40446 97711,97973,97737
 3.5000e+000 98449 -3.8220e+001 -4.1945e+001  2.2752e+001 39935 98152,98204,98178
 3.5000e+000 98426 -4.8928e+001 -6.3247e+001  1.8348e+001 39935 98152,98230,98204
 3.5000e+000 98403 -9.5531e+001 -5.5791e+001  6.1830e+001 39935 98152,98256,98230
 3.5000e+000 98380 -9.2264e+001 -4.7703e+001  5.8384e+001 39935 98126,98256,98152
 3.5000e+000 98357 -1.1373e+002 -1.2738e+002  5.3801e+001 39935 98126,98282,98256
 3.5000e+000 98334 -8.6975e+001 -2.4589e+002  1.0024e+002 39935 98126,98308,98282
 3.5000e+000 98746 -2.7820e+002 -1.6065e+002  6.8989e+001 39531 98498,98602,98524
 3.5000e+000 98723 -1.3468e+002 -1.7197e+002  4.1220e+001 39531 98472,98602,98498
 3.5000e+000 98700 -3.0326e+002 -1.0687e+002  2.9120e+001 39531 98524,98602,98576
 3.5000e+000 98677 -1.4693e+002 -1.6534e+002  3.6261e+001 39531 98472,98628,98602
 3.5000e+000 98654 -3.8531e+002 -1.1818e+002  3.5721e+001 39531 98524,98576,98550
 3.5000e+000 99224 -1.0423e+002 -1.2355e+002  6.3869e+001 39027 99247,98956,98930
 3.5000e+000 99201 -1.4737e+002 -2.2805e+002  6.3854e+001 39027 99247,98930,98878
 3.5000e+000 99178 -1.3935e+002 -2.0102e+002  1.1229e+002 39027 99319,98982,98956
 3.5000e+000 99155 -1.0068e+002 -9.3272e+001  1.0327e+002 39027 98852,99060,98878
 3.5000e+000 99132 -8.7079e+001 -1.7076e+002  3.6608e+001 39027 98878,98930,98904
 3.5000e+000 99109 -1.8340e+002 -2.6608e+002  1.5398e+002 39027 98982,99060,99034
 3.5000e+000 99086 -2.7880e+002 -3.8519e+002  2.4376e+002 39027 98982,99034,99008
 3.5000e+000 99273 -1.5873e+002 -2.2421e+002  8.5496e+001 39027 99319,98956,99247
 3.5000e+000 99296 -1.2142e+002 -2.1322e+002  7.7965e+001 39027 99060,99247,98878
 3.5000e+000 99345 -1.1759e+002 -1.8838e+002  1.1742e+002 39027 99060,98982,99319
 3.5000e+000 99368 -1.0332e+002 -1.9174e+002  9.9327e+001 39027 99060,99319,99247
 3.5000e+000 99923 -1.5691e+002 -1.3753e+002  8.2773e+001 38523 99946,99655,99603
 3.5000e+000 99900 -1.4644e+002 -1.3024e+002  8.8936e+001 38523 99946,99603,99759
 3.5000e+000 99877 -9.9648e+001 -1.8471e+002  9.5821e+001 38523 100018,99707,99681
 3.5000e+000 99854 -1.4880e+002 -9.1374e+001  8.6582e+001 38523 99551,99759,99603
 3.5000e+000 99831 -1.3558e+002 -8.2646e+001  7.5496e+001 38523 99551,99603,99577
 3.5000e+000 99808 -1.5341e+002 -2.4802e+002  7.4379e+001 38523 99707,99759,99733
 3.5000e+000 99785 -1.1309e+002 -1.1142e+002  7.0149e+001 38523 99603,99655,99629
 3.5000e+000 99972 -1.2744e+002 -6.1925e+001  7.5274e+001 38523 99681,99655,99946
 3.5000e+000 99995 -1.1228e+002 -1.0172e+002  1.0707e+002 38523 100018,99681,99946
 3.5000e+000 100044 -1.1938e+002 -2.1617e+002  5.9220e+001 38523 99759,99707,100018
 3.5000e+000 100067 -1.6170e+002 -1.8494e+002  7.2847e+001 38523 99759,100018,99946
 3.5000e+000 100467 -4.6241e+001 -1.5886e+002  4.0217e+001 38125 100219,100349,100323
 3.5000e+000 100444 -5.5123e+001 -1.2818e+002  2.9254e+001 38125 100193,100349,100219
 3.5000e+000 100421 -6.7128e+001 -1.4029e+002  4.9231e+001 38125 100245,100323,100297
 3.5000e+000 100398 -7.2181e+001 -1.6901e+002  4.5269e+001 38125 100219,100323,100245
 3.5000e+000 100375 -1.1022e+002 -1.5424e+002  5.6741e+001 38125 100245,100297,100271
 3.5000e+000 100666 -1.3357e+002 -2.3157e+002  6.9739e+001 37607 100689,100568,100542
 3.5000e+000 100643 -8.8007e+001 -1.0212e+002  5.9609e+001 37607 100689,100542,100490
 3.5000e+000 100620  1.0276e+001 -8.2516e+001  1.2422e+001 37607 100490,100542,100516
 3.5000e+000 100715 -9.4612e+001 -1.0569e+002  4.4124e+001 37607 100594,100568,100689
 3.5000e+000 100738 -1.1690e+002 -6.9483e+001  4.4608e+001 37607 100594,100689,100490
 3.5000e+000 100937 -5.0818e+001 -5.2294e+001  5.2985e+001 37017 100960,100813,100787
 3.5000e+000 100914  1.5236e+001 -5.6147e+001 -1.6556e+001 37017 100960,100787,100761
 3.5000e+000 100891 -1.7502e+002 -5.4663e+001  9.6220e+001 37017 100813,100865,100839
 3.5000e+000 100986 -1.3939e+002 -1.2831e+002  1.2057e+002 37017 100865,100813,100960
 3.5000e+000 101009 -1.5512e+001 -9.0359e+001  4.6276e+001 37017 100865,100960,100761
 3.5000e+000 101519 -1.6371e+002 -1.8821e+002  5.7409e+001 36613 101222,101274,101248
 3.5000e+000 101496 -1.1867e+002 -1.6700e+002  5.0833e+001 36613 101222,101352,101274
 3.5000e+000 101473 -1.4577e+002 -3.1832e+002  2.8227e+001 36613 101274,101352,101326
 3.5000e+000 101450 -1.3537e+002 -1.9346e+002  3.9642e+001 36613 101222,101378,101352
 3.5000e+000 101427 -4.3268e+001 -3.3885e+002  9.0043e+001 36613 101274,101326,101300
 3.5000e+000 101404 -1.0780e+002 -1.5197e+002  8.0552e+001 36613 101196,101378,101222
 3.5000e+000 101718 -9.6607e+001 -8.5479e+001  9.1595e+001 36308 101594,101646,101620
 3.5000e+000 101695 -9.4551e+001 -5.5455e+001  6.4299e+001 36308 101568,101646,101594
 3.5000e+000 101672 -8.1286e+001 -6.5104e+001  6.6366e+001 36308 101542,101646,101568
 3.5000e+000 102098 -7.6838e+001 -9.5072e+001  5.4709e+001 35918 102121,101954,101876
 3.5000e+000 102075 -5.0592e+001 -1.2602e+002  4.2123e+001 35918 102121,101876,101824
 3.5000e+000 102052 -6.4014e+001 -9.1243e+001  4.0148e+001 35918 101876,101954,101928
 3.5000e+000 102029 -1.4737e+002 -4.9025e+001  5.4180e+001 35918 101876,101928,101902
 3.5000e+000 102006 -3.3242e+001 -7.9752e+001  2.6637e+001 35918 101824,101876,101850
 3.5000e+000 102147 -8.3142e+001 -1.2345e+002  6.9672e+001 35918 101980,101954,102121
 3.5000e+000 102170 -5.8000e+001 -1.5789e+002  5.3831e+001 35918 101980,102121,101824
 3.5000e+000 102489 -1.4607e+002 -3.2482e+002  1.1639e+002 35514 102241,102345,102267
 3.5000e+000 102466 -1.8864e+002 -3.3345e+002  1.1195e+002 35514 102215,102345,102241
 3.5000e+000 102443 -1.5484e+002 -3.6664e+002  1.2064e+002 35514 102215,102371,102345
 3.5000e+000 102420 -1.2307e+002 -2.8676e+002  1.2793e+002 35514 102267,102345,102293
 3.5000e+000 102397 -7.5408e+001 -1.8359e+002  1.4064e+002 35514 102293,102345,102319
 3.5000e+000 102820 -5.4290e+001 -8.2078e+001  2.1941e+001 35224 102843,102699,102647
 3.5000e+000 102797 -1.1984e+002 -7.8343e+001  2.8685e+001 35224 102971,102725,102699
 3.5000e+000 102774 -4.4112e+001 -6.8000e+001  3.2611e+001 35224 102595,102725,102621
 3.5000e+000 102751 -3.9367e+001 -6.0093e+001  2.9124e+001 35224 102647,102699,102673
 3.5000e+000 102869 -7.7627e+001 -9.0313e+001  3.2975e+001 35224 102971,102699,102843
 3.5000e+000 102997 -7.7808e+001 -7.9560e+001  3.5162e+001 35224 102621,102725,102971
 3.5000e+000 103020 -2.2491e+001 -7.7443e+001  4.6574e+001 35224 102621,102971,102843
 3.5000e+000 103349 -1.7814e+002 -1.3482e+002  8.6055e+001 34820 103150,103228,103176
 3.5000e+000 103326 -1.6488e+002 -1.4981e+002  8.3196e+001 34820 103124,103228,103150
 3.5000e+000 103303 -1.4519e+002 -1.3348e+002  1.4034e+002 34820 103176,103228,103202
 3.5000e+000 103280 -1.1395e+002 -1.2448e+002  1.1014e+002 34820 103124,103254,103228
 3.5000e+000 103806 -1.0585e+002 -9.4190e+001  4.3157e+001 34530 103558,103662,103636
 3.5000e+000 103783 -7.0868e+001 -9.2753e+001  3.0445e+001 34530 103558,103688,103662
 3.5000e+000 103760 -6.8341e+001 -4.7616e+001  5.9912e+000 34530 103532,103688,103558
 3.5000e+000 103737 -5.6575e+001 -9.4266e+001  5.1226e+001 34530 103584,103636,103610
 3.5000e+000 103714 -1.4722e+002 -1.0688e+002  4.6555e+001 34530 103558,103636,103584
 3.5000e+000 104263 -9.5579e+001 -8.6620e+001  6.7104e+001 34019 103989,104119,104015
 3.5000e+000 104240 -7.1141e+001 -7.5150e+001  7.0670e+001 34019 103989,104145,104119
 3.5000e+000 104217 -9.7677e+001 -1.2069e+002  5.3046e+001 34019 104015,104067,104041
 3.5000e+000 104194 -9.3466e+001 -1.1974e+002  6.2856e+001 34019 104015,104119,104067
 3.5000e+000 104171 -1.0400e+002 -8.4508e+001  6.2388e+001 34019 104067,104119,104093
 3.5000e+000 104641 -9.8120e+001 -1.4644e+002  3.4257e+001 33351 104419,104497,104445
 3.5000e+000 104618 -8.5897e+001 -7.9468e+001  7.5998e+001 33351 104393,104497,104419
 3.5000e+000 104595 -1.4822e+002 -1.1942e+002  2.8757e+001 33351 104367,104497,104393
 3.5000e+000 104572 -6.8407e+001 -7.6682e+001  2.0806e+001 33351 104445,104497,104471
 3.5000e+000 104549 -1.0663e+002 -4.1324e+001  1.2349e+001 33351 104367,104523,104497
 3.5000e+000 105019 -1.2680e+002 -2.4618e+002  1.4856e+002 32861 104823,104901,104875
 3.5000e+000 104996 -1.7247e+002 -2.7675e+002  1.2631e+002 32861 104745,104901,104823
 3.5000e+000 104973 -1.9247e+002 -2.7479e+002  1.4364e+002 32861 104823,104875,104849
 3.5000e+000 104950 -1.6644e+002 -2.5139e+002  1.4918e+002 32861 104745,104823,104797
 3.5000e+000 104927 -1.9918e+002 -1.0390e+002  1.4387e+002 32861 104745,104797,104771
 3.5000e+000 105397 -6.3647e+001 -1.4884e+002  6.5609e+001 32457 105149,105253,105175
 3.5000e+000 105374 -1.0503e+002 -1.4308e+002  6.0305e+001 32457 105149,105279,105253
 3.5000e+000 105351 -5.3296e+001 -1.1820e+002  7.0157e+001 32457 105123,105279,105149
 3.5000e+000 105328 -1.1006e+002 -3.9731e+001  9.1746e+001 32457 105175,105227,105201
 3.5000e+000 105305 -1.2731e+002 -1.7631e+002  6.3059e+001 32457 105175,105253,105227
 3.5000e+000 105726 -5.9833e+001 -1.6776e+002  7.5541e+001 32003 105527,105605,105553
 3.5000e+000 105703 -9.0174e+001 -1.3705e+002  7.1860e+001 32003 105501,105605,105527
 3.5000e+000 105680 -5.2843e+001 -1.2210e+002  7.1691e+001 32003 105501,105631,105605
 3.5000e+000 105657 -5.1135e+001 -1.1343e+002  8.0975e+001 32003 105553,105605,105579
 3.5000e+000 106104 -9.3795e+001 -7.5057e+001  3.3786e+001 31492 106127,105908,105856
 3.5000e+000 106081 -9.1396e+001 -7.4091e+001  2.4923e+001 31492 106127,105856,105830
 3.5000e+000 106058 -8.9653e+001 -9.6069e+001  3.9554e+001 31492 105856,105908,105882
 3.5000e+000 106035 -7.8458e+001 -6.2714e+001  1.1162e+001 31492 105830,105986,105960
 3.5000e+000 106012 -5.6937e+001 -9.5718e+001  5.4218e+001 31492 105908,105960,105934
 3.5000e+000 106153 -9.5554e+001 -8.1843e+001  3.2948e+001 31492 105960,105908,106127
 3.5000e+000 106176 -9.4976e+001 -8.6333e+001  2.5381e+001 31492 105960,106127,105830
 3.5000e+000 106375 -1.2842e+002 -9.8290e+001  8.2563e+001 30788 106398,106277,106251
 3.5000e+000 106352 -1.3033e+002 -1.7148e+002  9.7980e+001 30788 106398,106251,106225
 3.5000e+000 106329 -1.9914e+002 -1.6049e+002  1.2793e+002 30788 106600,106199,106303
 3.5000e+000 106424 -2.0117e+002 -1.9606e+002  6.0876e+001 30788 106470,106398,106303
 3.5000e+000 106447 -1.4056e+002 -1.7600e+002  9.8171e+001 30788 106600,106303,106398
 3.5000e+000 106496 -5.0423e+001 -1.3119e+002  7.1579e+001 30788 106277,106398,106470
 3.5000e+000 106626 -2.3095e+002 -1.9450e+002  1.5734e+002 30788 106225,106199,106600
 3.5000e+000 106649 -1.9411e+002 -2.1573e+002  1.2611e+002 30788 106225,106600,106398
 3.5000e+000 106799 -8.0623e+001 -1.2077e+002  1.8025e+000 30426 106698,106750,106724
 3.5000e+000 106776 -4.0033e+001 -9.3217e+001  1.7737e+001 30426 106672,106750,106698
 3.5000e+000 107356 -8.2058e+001 -1.5526e+002  9.3291e+001 29972 107010,107166,107114
 3.5000e+000 107333 -1.2995e+002 -1.6811e+002  9.7637e+001 29972 106984,107166,107010
 3.5000e+000 107310 -1.0053e+002 -1.4696e+002  8.8558e+001 29972 107010,107114,107088
 3.5000e+000 107287 -1.2186e+002 -1.8890e+002  5.6691e+001 29972 107114,107166,107140
 3.5000e+000 107264 -1.1012e+002 -1.2661e+002  7.3408e+001 29972 106984,107192,107166
 3.5000e+000 107241 -2.3212e+002 -3.1168e+002  1.5583e+002 29972 107010,107088,107036
 3.5000e+000 107218 -1.1276e+002 -2.5737e+002  1.0962e+002 29972 107036,107088,107062
 3.5000e+000 107783 -1.5557e+002 -1.9610e+002  1.1209e+002 29724 107878,107806,107590
 3.5000e+000 107760 -2.3148e+002 -2.2463e+002  1.0518e+002 29724 107806,107512,107486
 3.5000e+000 107737 -1.5091e+002 -1.9596e+002  1.1074e+002 29724 107878,107590,107538
 3.5000e+000 107714 -1.6967e+002 -2.3973e+002  1.3006e+002 29724 107950,107460,107616
 3.5000e+000 107691 -1.5803e+002 -2.3431e+002  1.2813e+002 29724 107460,107642,107616
 3.5000e+000 107668 -1.1712e+002 -1.4076e+002  1.2959e+002 29724 107538,107590,107564
 3.5000e+000 107832 -1.1915e+002 -2.0500e+002  1.4616e+002 29724 107616,107590,107806
 3.5000e+000 107855 -1.7177e+002 -2.4104e+002  1.2899e+002 29724 107950,107616,107806
 3.5000e+000 107904 -1.7178e+002 -1.9846e+002  1.3102e+002 29724 107512,107806,107878
 3.5000e+000 107927 -1.3753e+002 -1.8521e+002  1.3352e+002 29724 107512,107878,107538
 3.5000e+000 107976 -1.2229e+002 -2.3571e+002  1.3687e+002 29724 107486,107460,107950
 3.5000e+000 107999 -1.6510e+002 -2.5067e+002  1.2669e+002 29724 107486,107950,107806
 3.5000e+000 108296 -1.8902e+002 -1.2605e+002  9.0421e+001 29206 108319,108100,108048
 3.5000e+000 108273 -9.7962e+001 -1.0505e+002  1.1644e+002 29206 108319,108048,108022
 3.5000e+000 108250 -5.2946e+001 -1.3206e+002  1.5004e+002 29206 108391,108152,108126
 3.5000e+000 108227 -2.0911e+002 -8.4146e+001  1.0230e+002 29206 108048,108100,108074
 3.5000e+000 108204 -7.5413e+001 -1.8304e+002  1.3165e+002 29206 108022,108178,108152
 3.5000e+000 108345 -1.3900e+002 -6.0833e+001  1.4255e+002 29206 108126,108100,108319
 3.5000e+000 108368 -7.2883e+001 -1.0208e+002  1.6581e+002 29206 108391,108126,108319
 3.5000e+000 108417 -9.7054e+001 -1.6742e+002  1.3162e+002 29206 108022,108152,108391
 3.5000e+000 108440 -1.1242e+002 -1.4363e+002  1.4839e+002 29206 108022,108391,108319
 3.5000e+000 108688 -1.3559e+002 -1.3732e+002  1.1973e+002 28595 108711,108541,108515
 3.5000e+000 108665 -2.1520e+002 -1.6151e+002  1.3552e+002 28595 108783,108711,108515
 3.5000e+000 108642 -2.4858e+002 -1.5475e+002  1.3129e+002 28595 108783,108515,108489
 3.5000e+000 108619 -2.0250e+002 -2.1289e+002  5.8930e+001 28595 108463,108593,108489
 3.5000e+000 108737 -1.3059e+002 -1.3681e+002  8.4652e+001 28595 108567,108541,108711
 3.5000e+000 108760 -1.1143e+002 -1.4103e+002  1.2142e+002 28595 108567,108711,108593
 3.5000e+000 108809 -1.3744e+002 -1.8711e+002  1.0844e+002 28595 108593,108711,108783
 3.5000e+000 108832 -2.0247e+002 -2.0422e+002  9.0918e+001 28595 108593,108783,108489
 3.5000e+000 109033 -2.6063e+001 -1.9105e+001  1.8998e+001 28091 108909,108961,108935
 3.5000e+000 109010 -2.8237e+001 -6.4302e+001  1.2478e+001 28091 108857,108961,108909
 3.5000e+000 108987 -4.8887e+001 -4.9357e+001  5.2584e+001 28091 108857,108909,108883
 3.5000e+000 109136 -1.3649e+002 -3.1980e+002  6.0637e+001 27587 109058,109110,109084
 3.5000e+000 109695 -2.4382e+001 -1.7487e+002  4.7817e+001 26969 109718,109375,109323
 3.5000e+000 109672 -5.8534e+001 -2.1216e+002  8.0665e+001 26969 109718,109323,109505
 3.5000e+000 109649 -1.0328e+002 -9.9595e+001  7.1251e+001 26969 109790,109453,109427
 3.5000e+000 109626 -4.6794e+001 -6.1182e+001  5.7238e+001 26969 109323,109375,109349
 3.5000e+000 109603 -9.5881e+001 -1.4495e+002  2.5665e+001 26969 109323,109531,109505
 3.5000e+000 109580 -1.1868e+002 -2.5885e+002  8.3602e+001 26969 109375,109427,109401
 3.5000e+000 109557 -1.6022e+002 -1.9269e+002  9.5548e+001 26969 109453,109505,109479
 3.5000e+000 109744 -7.5487e+001 -1.9381e+002  5.0297e+001 26969 109427,109375,109718
 3.5000e+000 109767 -4.7382e+001 -1.4297e+002  7.4211e+001 26969 109790,109427,109718
 3.5000e+000 109816 -1.3616e+002 -1.4304e+002  9.1208e+001 26969 109505,109453,109790
 3.5000e+000 109839 -9.8626e+001 -1.9793e+002  1.0120e+002 26969 109505,109790,109718
 3.5000e+000 110266 -9.0123e+001 -2.0489e+002 -7.9515e+000 26515 110361,110289,110099
 3.5000e+000 110243 -6.8415e+001 -1.4086e+002 -2.1541e+000 26515 110289,109995,109943
 3.5000e+000 110220 -1.2366e+002 -2.1987e+002 -4.3271e+000 26515 110361,110099,110021
 3.5000e+000 110197 -1.5471e+002 -3.4746e+002 -2.6566e+000 26515 110047,110099,110073
 3.5000e+000 110174 -1.1389e+002 -3.0988e+002 -4.4172e+001 26515 110021,110099,110047
 3.5000e+000 110151 -3.9829e+001 -9.1404e+001  9.6631e+000 26515 109943,109995,109969
 3.5000e+000 110315 -1.3273e+002 -1.2666e+002 -3.7473e+001 26515 110125,110099,110289
 3.5000e+000 110338 -1.0928e+002 -3.6520e+001  3.5139e+001 26515 110125,110289,109943
 3.5000e+000 110387 -1.1399e+002 -1.8326e+002 -4.9423e+001 26515 109995,110289,110361
 3.5000e+000 110410 -1.4401e+002 -1.9905e+002 -4.3692e+001 26515 109995,110361,110021
 3.5000e+000 110609 -3.5516e+001 -1.8594e+002  7.1934e+001 25789 110906,110762,110632
 3.5000e+000 110586 -3.8639e+001 -2.3267e+002  8.2481e+001 25789 110762,110433,110537
 3.5000e+000 110563 -1.2177e+002 -2.2008e+002  1.3540e+002 25789 110834,110459,110433
 3.5000e+000 110658 -6.2089e+001 -1.7642e+002  8.8835e+001 25789 110906,110632,110834
 3.5000e+000 110788 -1.8969e+001 -1.2513e+002  4.4810e+001 25789 110511,110632,110762
 3.5000e+000 110811 -3.6561e+001 -1.8476e+002  8.0801e+001 25789 110511,110762,110537
 3.5000e+000 110860 -5.2838e+001 -1.8011e+002  1.0465e+002 25789 110485,110459,110834
 3.5000e+000 110883 -7.2488e+001 -1.4736e+002  7.5118e+001 25789 110485,110834,110632
 3.5000e+000 110932 -8.5395e+001 -2.0264e+002  7.2437e+001 25789 110433,110762,110906
 3.5000e+000 110955 -1.0679e+002 -1.8837e+002  8.5800e+001 25789 110433,110906,110834
 3.5000e+000 111350 -1.1056e+002 -1.5848e+002  1.2861e+002 25228 111445,111373,111186
 3.5000e+000 111327 -1.0298e+002 -1.8096e+002  3.3056e+001 25228 110978,111186,111004
 3.5000e+000 111304 -1.1584e+002 -2.2155e+002  1.2303e+002 25228 111373,111108,111082
 3.5000e+000 111281 -9.9746e+001 -1.7342e+002  7.7852e+001 25228 111134,111186,111160
 3.5000e+000 111258 -1.1287e+002 -1.3273e+002  9.0725e+001 25228 111445,111186,111134
 3.5000e+000 111235 -1.0107e+002 -9.6163e+001  7.2820e+001 25228 111517,111030,111004
 3.5000e+000 111212 -1.2739e+002 -1.4556e+002  8.8823e+001 25228 111030,111082,111056
 3.5000e+000 111399 -1.2448e+002 -1.9832e+002  1.1993e+002 25228 111004,111186,111373
 3.5000e+000 111422 -8.4391e+001 -1.2410e+002  1.0473e+002 25228 111517,111004,111373
 3.5000e+000 111471 -5.7851e+001 -1.2867e+002  9.8354e+001 25228 111108,111373,111445
 3.5000e+000 111494 -5.9956e+001 -9.9519e+001  6.0275e+001 25228 111108,111445,111134
 3.5000e+000 111543 -1.4911e+002 -1.0920e+002  1.0541e+002 25228 111082,111030,111517
 3.5000e+000 111566 -1.3496e+002 -1.4885e+002  1.3786e+002 25228 111082,111517,111373
 3.5000e+000 112074 -3.1898e+001 -6.2759e+001  9.8713e+000 24338 112097,111907,111881
 3.5000e+000 112051 -3.7918e+001 -5.4909e+001 -1.1295e+001 24338 112097,111881,111829
 3.5000e+000 112028 -2.4052e+001 -6.5531e+001 -1.6240e+001 24338 111829,111881,111855
 3.5000e+000 112005 -4.4254e+001 -9.1701e+001  3.1602e+001 24338 111777,111933,111829
 3.5000e+000 111982 -7.4021e+001 -4.7016e+001  2.9277e+001 24338 111751,111933,111777
 3.5000e+000 111959 -4.5795e+001 -9.6564e+001  3.4221e+001 24338 111777,111829,111803
 3.5000e+000 112123 -4.8964e+001 -1.2987e+002  2.0606e+001 24338 111933,111907,112097
 3.5000e+000 112146 -2.6857e+001 -7.5569e+001  5.5084e-001 24338 111933,112097,111829
 3.5000e+000 112443 -1.5353e+002 -9.9768e+001  6.9792e+001 23998 112466,112299,112247
 3.5000e+000 112420 -1.6705e+002 -1.6033e+002  7.0372e+001 23998 112466,112247,112221
 3.5000e+000 112397 -1.2329e+002 -2.0444e+002  1.0462e+002 23998 112169,112325,112221
 3.5000e+000 112374 -1.0527e+002 -2.7639e+002  1.4598e+002 23998 112169,112221,112195
 3.5000e+000 112351 -8.3753e+001 -8.8909e+001  8.4817e+001 23998 112247,112299,112273
 3.5000e+000 112492 -1.5633e+002 -1.0658e+002  1.0641e+002 23998 112325,112299,112466
 3.5000e+000 112515 -1.6780e+002 -1.4080e+002  9.8065e+001 23998 112325,112466,112221
 3.5000e+000 113200 -1.8421e+002 -2.1004e+002  1.5795e+002 23480 112779,112961,112805
 3.5000e+000 113177 -1.8925e+002 -1.6452e+002  7.2874e+001 23480 112779,112987,112961
 3.5000e+000 113154 -5.4821e+001 -9.0768e+001  1.0687e+002 23480 112805,112961,112883
 3.5000e+000 113131 -7.5935e+001 -1.6037e+002  1.0999e+002 23480 112883,112935,112909
 3.5000e+000 113108 -1.4076e+002 -1.2472e+002  1.1445e+002 23480 112883,112961,112935
 3.5000e+000 113085 -2.2311e+001 -8.6355e+001  5.0634e+001 23480 112831,112883,112857
 3.5000e+000 113062 -9.2686e+001 -1.0813e+002  7.7788e+001 23480 112805,112883,112831
 3.5000e+000 113039 -2.3673e+002 -1.3524e+002  8.2230e+001 23480 112779,113013,112987
 3.5000e+000 113676 -1.8843e+002 -6.0616e+001  1.5065e+002 23018 113699,113434,113356
 3.5000e+000 113653 -1.5401e+002 -6.0711e+001  7.0663e+001 23018 113771,113699,113356
 3.5000e+000 113630 -1.2901e+002 -1.2585e+002  4.5569e+001 23018 113771,113356,113512
 3.5000e+000 113607 -9.2414e+001 -1.7530e+002  8.3090e+001 23018 113330,113512,113356
 3.5000e+000 113584 -3.9893e+002 -1.7353e+002  2.2560e+002 23018 113356,113434,113382
 3.5000e+000 113561 -4.6222e+001 -1.6124e+002  8.7050e+001 23018 113304,113512,113330
 3.5000e+000 113538 -3.3314e+002 -3.0798e+000  7.3682e+001 23018 113382,113434,113408
 3.5000e+000 113725 -2.1617e+002 -1.2620e+002  1.5161e+002 23018 113460,113434,113699
 3.5000e+000 113748 -2.4889e+002 -1.5232e+002  8.6394e+001 23018 113460,113699,113486
 3.5000e+000 113797 -2.1615e+002 -1.5344e+002  9.8164e+001 23018 113486,113699,113771
 3.5000e+000 113820 -1.5448e+002 -1.6699e+002  5.8927e+001 23018 113486,113771,113512
 3.5000e+000 114424 -6.3755e+001 -9.9203e+001  1.3391e+001 22514 114447,114133,114029
 3.5000e+000 114401 -5.8766e+001 -8.1947e+001  1.1034e+001 22514 114447,114029,114237
 3.5000e+000 114378 -3.0268e+001 -1.1761e+002  4.1662e+001 22514 114133,114211,114185
 3.5000e+000 114355 -5.2004e+001 -1.0675e+002  2.2078e+001 22514 114133,114185,114159
 3.5000e+000 114332 -6.4115e+001 -9.6321e+001  4.6525e+001 22514 114003,114237,114029
 3.5000e+000 114309 -6.3199e+001 -7.5233e+001  6.4641e+000 22514 114029,114133,114055
 3.5000e+000 114286 -8.9027e+001 -9.4694e+001  1.5149e+001 22514 114055,114133,114107
 3.5000e+000 114263 -6.8523e+001  7.5115e+000  6.3284e+001 22514 114055,114107,114081
 3.5000e+000 114473 -5.4495e+001 -1.0961e+002  6.7878e+000 22514 114211,114133,114447
 3.5000e+000 114496 -5.2744e+001 -9.6893e+001  5.2299e+000 22514 114211,114447,114237
 3.5000e+000 114597 -7.8239e+001 -1.8571e+002  9.6732e+001 22316 114620,114571,114545
 3.5000e+000 114646 -7.8239e+001 -1.8571e+002  9.6732e+001 22316 114519,114571,114620
 3.5000e+000 115127 -2.4797e+001 -1.5456e+002  8.6727e+000 21612 115150,114905,114879
 3.5000e+000 115104 -2.8874e+001 -8.6299e+001  1.9695e+001 21612 115150,114879,114853
 3.5000e+000 115081 -6.2947e+001 -3.8675e+001  4.9338e+001 21612 115222,114931,114905
 3.5000e+000 115058 -1.6574e+001 -1.0259e+002  4.8844e+001 21612 115222,114905,115009
 3.5000e+000 115035 -9.3228e+001 -1.9213e+002  1.1095e+002 21612 114957,115009,114983
 3.5000e+000 115176 -2.2520e+001 -9.2674e+001  1.8108e+001 21612 115009,114905,115150
 3.5000e+000 115199 -2.1176e+001 -1.5723e+001  2.7642e+001 21612 115009,115150,114853
 3.5000e+000 115248 -9.7864e+001 -7.6605e+001  6.7638e+001 21612 114957,114931,115222
 3.5000e+000 115271 -4.6574e+001 -1.3375e+002  6.4778e+001 21612 114957,115222,115009
 3.5000e+000 115519 -2.8441e+001  7.1243e-001  2.2612e+001 21208 115542,115372,115320
 3.5000e+000 115496  3.7661e+000  1.6434e+001  3.5051e+000 21208 115542,115320,115294
 3.5000e+000 115473 -1.2503e+001 -2.9264e+001  2.8108e+001 21208 115320,115372,115346
 3.5000e+000 115450 -8.5722e+001 -3.1124e+001  2.1494e+001 21208 115294,115424,115398
 3.5000e+000 115568 -4.1964e+001 -2.7163e+000  3.7041e+001 21208 115398,115372,115542
 3.5000e+000 115591 -2.5675e+001 -1.3289e+001  2.3170e+001 21208 115398,115542,115294
 3.5000e+000 115839 -1.3040e+002 -9.6438e+001  9.1104e+001 20668 115862,115640,115614
 3.5000e+000 115816 -1.1504e+002 -1.1596e+002  8.2947e+001 20668 115862,115614,115744
 3.5000e+000 115793 -6.0968e+001 -3.3757e+001  7.5292e+001 20668 115640,115718,115692
 3.5000e+000 115770 -2.1786e+002 -8.7081e+001  7.8911e+001 20668 115640,115692,115666
 3.5000e+000 115888 -1.1378e+002 -7.0916e+001  1.0087e+002 20668 115718,115640,115862
 3.5000e+000 115911 -1.0993e+002 -1.0251e+002  9.0148e+001 20668 115718,115862,115744
 3.5000e+000 116134 -1.3354e+002 -1.6391e+002  1.1243e+002 20264 115958,116036,115984
 3.5000e+000 116111 -5.1171e+001 -1.2292e+002  9.6220e+001 20264 115958,116062,116036
 3.5000e+000 116088 -7.0849e+001 -1.7073e+002  1.2053e+002 20264 115984,116036,116010
 3.5000e+000 116384 -1.8828e+002 -1.3485e+002  1.4577e+002 19924 116407,116211,116159
 3.5000e+000 116361 -1.7645e+002 -2.2444e+002  1.3136e+002 19924 116407,116159,116263
 3.5000e+000 116338 -1.7770e+002 -7.8339e+001  1.3356e+002 19924 116159,116211,116185
 3.5000e+000 116315 -1.0600e+002 -2.0097e+002  1.3597e+002 19924 116159,116289,116263
 3.5000e+000 116433 -1.8845e+002 -8.2982e+001  1.6303e+002 19924 116237,116211,116407
 3.5000e+000 116456 -1.4746e+002 -1.4489e+002  1.5925e+002 19924 116237,116407,116263
 3.5000e+000 116608 -4.8536e+001 -1.1405e+001  5.3555e+001 19520 116703,116631,116533
 3.5000e+000 116585 -3.3452e+001 -3.5325e+001  3.6245e+001 19520 116631,116507,116481
 3.5000e+000 116657 -1.5424e+001 -3.5468e+001  6.7054e+001 19520 116559,116533,116631
 3.5000e+000 116680 -2.8491e+001 -9.2322e+001  4.6132e+001 19520 116559,116631,116481
 3.5000e+000 116729 -4.8536e+001 -1.1405e+001  5.3555e+001 19520 116507,116631,116703
 3.5000e+000 116952 -1.8144e+002 -1.3096e+002  2.0146e+002 19208 116975,116802,116776
 3.5000e+000 116929 -2.1529e+002 -2.5721e+002  1.1456e+002 19208 116975,116776,116880
 3.5000e+000 116906 -2.2470e+002 -9.6722e+001  1.4226e+002 19208 116802,116854,116828
 3.5000e+000 117001 -1.4628e+002 -1.1163e+002  2.0905e+002 19208 116854,116802,116975
 3.5000e+000 117024 -5.8320e+001 -1.4620e+002  1.6712e+002 19208 116854,116975,116880
 3.5000e+000 117428 -1.3593e+002 -5.1508e+001  7.5517e+001 18796 117154,117206,117180
 3.5000e+000 117405 -1.0110e+002 -1.0907e+002  7.5498e+001 18796 117154,117284,117206
 3.5000e+000 117382 -4.7837e+001 -8.4505e+001  8.2175e+001 18796 117154,117310,117284
 3.5000e+000 117359 -6.6592e+001 -7.0949e+001  9.6436e+001 18796 117206,117284,117258
 3.5000e+000 117336 -1.9923e+001 -7.8338e+000  1.2986e+002 18796 117206,117258,117232
 3.5000e+000 117529 -4.2594e+001 -1.1800e+001  2.2220e+001 18228 117810,117552,117477
 3.5000e+000 117578 -1.7125e+002 -6.9631e+001  7.6799e+001 18228 117682,117552,117503
 3.5000e+000 117708 -3.0415e+001  7.0134e+000  1.5798e+001 18228 117477,117552,117682
 3.5000e+000 117836 -9.3362e+001 -7.0702e+001  6.4272e+001 18228 117451,117552,117810
 3.5000e+000 118364 -1.2995e+002 -4.7622e+001  6.4994e+001 17722 118067,118223,118093
 3.5000e+000 118341 -1.4012e+002 -1.5997e+001  4.5822e+001 17722 118041,118223,118067
 3.5000e+000 118318 -6.5061e+001 -5.3806e+001  5.5322e+001 17722 118093,118223,118197
 3.5000e+000 118295 -3.5988e+002 -3.3214e+002  2.1411e+002 17722 118119,118197,118171
 3.5000e+000 118272 -2.5031e+001 -4.5632e+000  7.9835e+001 17722 118093,118197,118119
 3.5000e+000 118249 -3.3593e+002 -6.5148e+001  1.2890e+002 17722 118119,118171,118145
 3.5000e+000 118514 -2.8062e+002 -1.1667e+002  1.0425e+002 17268 118387,118439,118413
 3.5000e+000 118491 -3.8873e+001 -1.5519e+002  1.3771e+002 17268 118387,118465,118439
 3.5000e+000 118916  6.6700e+000  1.7298e+001  1.5152e+001 16828 118668,118772,118694
 3.5000e+000 118893 -2.2222e+000 -2.2750e+000  5.1502e+000 16828 118668,118798,118772
 3.5000e+000 118870 -2.1657e+000 -3.6267e+000  2.0602e+000 16828 118642,118798,118668
 3.5000e+000 118847 -9.5594e+001 -3.7489e+001  1.0308e+002 16828 118694,118746,118720
 3.5000e+000 118824 -4.8753e+001 -8.9312e+001  3.5155e+001 16828 118694,118772,118746
 3.5000e+000 119316 -2.9022e+001 -3.2755e+001  6.7386e+001 16422 119042,119172,119094
 3.5000e+000 119293 -6.9358e+001 -3.7970e+001  7.2374e+001 16422 119042,119198,119172
 3.5000e+000 119270 -1.0693e+002 -3.4018e+001  3.3431e+001 16422 119042,119094,119068
 3.5000e+000 119247  2.1575e+001  1.6072e+001  8.2926e+001 16422 119094,119146,119120
 3.5000e+000 119224 -1.2727e+001 -2.1912e+000  7.3982e+001 16422 119094,119172,119146
 3.5000e+000 119466  9.5515e+000  2.1927e+001 -4.3895e+000 16010 119339,119391,119365
 3.5000e+000 119443 -8.4902e+000  9.3347e+000  2.2990e+000 16010 119339,119417,119391
 3.5000e+000 119616 -3.3297e+001 -5.0509e+000  5.3412e+001 15547 119515,119567,119541
 3.5000e+000 119593  6.4904e+001  1.3037e+002  2.3409e+002 15547 119489,119567,119515
 3.5000e+000 119719 -3.1852e+002 -1.3315e+002  1.1897e+002 421 119641,119693,119667
 3.6000e+000 69562 -3.5233e+002 -1.4610e+002  5.2155e+001 69254 69484,69536,69510
 3.6000e+000 70009 -1.0530e+002 -1.1359e+002  9.9332e+001 68942 69686,69842,69816
 3.6000e+000 69986 -1.1597e+002 -1.0525e+002  2.7573e+001 68942 69686,69868,69842
 3.6000e+000 69963 -1.3158e+002 -5.6039e+001  9.9108e+001 68942 69686,69816,69712
 3.6000e+000 69940 -1.0628e+002 -4.8517e+001  1.4350e+002 68942 69712,69790,69738
 3.6000e+000 69917 -2.2108e+002 -2.7300e+002  9.5474e+001 68942 69712,69816,69790
 3.6000e+000 69894 -6.1118e+001 -1.4631e+002  4.9684e+001 68942 69738,69790,69764
 3.6000e+000 70110 -4.5258e+002 -1.8937e+002  6.0695e+001 68766 70032,70084,70058
 3.6000e+000 70746 -3.6564e+002 -1.4050e+002  8.2986e+001 68448 70400,70556,70426
 3.6000e+000 70723 -3.6004e+002 -1.5228e+002  8.6068e+001 68448 70374,70556,70400
 3.6000e+000 70700 -3.1519e+002 -9.9343e+001  4.0518e+001 68448 70426,70556,70478
 3.6000e+000 70677 -2.9103e+002 -9.2019e+001  4.4281e+001 68448 70478,70556,70504
 3.6000e+000 70654 -3.8652e+002 -1.6655e+002  7.5674e+001 68448 70426,70478,70452
 3.6000e+000 70631 -3.2622e+002 -7.0471e+001  8.8620e+001 68448 70374,70582,70556
 3.6000e+000 70608 -2.6906e+002 -5.0989e+001  5.5948e+001 68448 70504,70556,70530
 3.6000e+000 70896 -3.3086e+002 -1.2440e+002 -1.8859e+001 68250 70795,70847,70821
 3.6000e+000 70873 -4.2474e+002 -1.7086e+002 -4.4284e-001 68250 70769,70847,70795
 3.6000e+000 70997 -5.3093e+002 -2.3227e+002  2.0032e+002 68052 70919,70971,70945
 3.6000e+000 71367 -1.7431e+002 -2.5692e+002  8.5743e+001 67740 71096,71226,71200
 3.6000e+000 71344 -1.1827e+002 -1.6045e+002  1.0914e+002 67740 71044,71226,71096
 3.6000e+000 71321  3.6806e+000 -3.6806e+000  1.8430e+002 67740 71044,71096,71070
 3.6000e+000 71298 -1.3910e+002 -2.7045e+002  1.7636e+002 67740 71096,71200,71174
 3.6000e+000 71275 -6.7196e+001 -1.5701e+002  6.0805e+001 67740 71096,71148,71122
 3.6000e+000 71252 -9.5334e+001 -1.8871e+002  1.0849e+002 67740 71096,71174,71148
 3.6000e+000 71519  5.7334e+001  2.8990e+001  5.7616e+001 67542 71418,71470,71444
 3.6000e+000 71496  9.2828e+001  2.0517e+002  1.7847e+002 67542 71392,71470,71418
 3.6000e+000 71923 -5.1710e+001 -1.8593e+001  6.7748e+001 67230 71649,71779,71675
 3.6000e+000 71900 -4.5445e+001 -6.6054e+001  5.4430e+001 67230 71649,71805,71779
 3.6000e+000 71877 -6.0132e+001 -2.6348e+001  1.1641e+002 67230 71675,71727,71701
 3.6000e+000 71854 -7.4109e+001 -1.7050e+002  1.2280e+002 67230 71675,71753,71727
 3.6000e+000 71831 -7.0076e+001 -1.0992e+002  8.7416e+001 67230 71675,71779,71753
 3.6000e+000 72433 -1.8932e+002 -7.9719e+001  7.2884e+001 67032 72038,72246,72220
 3.6000e+000 72410 -5.1085e+001 -1.7621e+001  6.0656e+001 67032 72012,72246,72038
 3.6000e+000 72387 -2.2917e+002 -1.2793e+002  8.1211e+001 67032 72064,72194,72168
 3.6000e+000 72364 -2.1557e+002 -8.9520e+001  7.5293e+001 67032 72038,72194,72064
 3.6000e+000 72341 -2.1910e+002 -1.4991e+002  9.0717e+001 67032 72038,72220,72194
 3.6000e+000 72318 -1.0244e+002 -2.8415e+001  7.5639e+001 67032 72090,72168,72142
 3.6000e+000 72295 -1.8393e+002 -8.1853e+001  1.5028e+002 67032 72064,72168,72090
 3.6000e+000 72272 -1.0246e+002 -4.0532e+001  7.0208e+001 67032 72090,72142,72116
 3.6000e+000 72933 -1.2995e+002 -1.1209e+002  1.1954e+002 66628 72956,72665,72613
 3.6000e+000 72910 -1.4542e+002 -1.2864e+002  1.1314e+002 66628 73100,72956,72613
 3.6000e+000 72887 -1.1953e+002 -1.5797e+002  9.1927e+001 66628 73028,72691,72665
 3.6000e+000 72864 -1.4651e+002 -1.2979e+002  1.0931e+002 66628 73100,72613,72587
 3.6000e+000 72841 -1.1459e+002 -1.0227e+002  8.8294e+001 66628 72613,72665,72639
 3.6000e+000 72818 -4.7262e+001 -2.3652e+001  1.5153e+002 66628 72587,72769,72743
 3.6000e+000 72795 -1.7124e+002 -3.1517e+002  4.8191e+001 66628 72561,72769,72587
 3.6000e+000 72982 -1.3106e+002 -1.2520e+002  1.2188e+002 66628 73028,72665,72956
 3.6000e+000 73005 -1.3171e+002 -5.7053e+001  1.1651e+002 66628 72717,72956,72743
 3.6000e+000 73054 -1.7606e+002 -1.5221e+002  6.7531e+001 66628 72717,72691,73028
 3.6000e+000 73077 -1.8233e+002 -1.3849e+002  9.5053e+001 66628 72717,73028,72956
 3.6000e+000 73126 -1.3967e+002 -1.2628e+002  1.1522e+002 66628 72743,72956,73100
 3.6000e+000 73149 -1.4236e+002 -1.2779e+002  1.1145e+002 66628 72743,73100,72587
 3.6000e+000 73606 -1.5660e+002 -1.3659e+002  1.3695e+002 66281 73332,73384,73358
 3.6000e+000 73583 -2.0494e+002 -1.4023e+002  9.3712e+001 66281 73332,73462,73384
 3.6000e+000 73560 -2.2681e+002 -1.2594e+002  1.0336e+002 66281 73384,73462,73436
 3.6000e+000 73537 -3.2905e+002 -2.2318e+002  1.3932e+002 66281 73332,73488,73462
 3.6000e+000 73514 -2.4881e+002 -1.2481e+002  5.5027e+001 66281 73384,73436,73410
 3.6000e+000 73984 -2.0076e+002 -6.2613e+001  4.9586e+001 65969 73736,73814,73788
 3.6000e+000 73961 -1.1588e+002 -5.6747e+001  7.9362e+001 65969 73736,73866,73814
 3.6000e+000 73938 -1.1545e+002 -6.1013e+001  7.7634e+001 65969 73814,73866,73840
 3.6000e+000 73915 -1.1272e+002 -8.3690e+001  7.3741e+001 65969 73710,73866,73736
 3.6000e+000 73892 -2.0241e+002 -3.6119e+001  6.2972e+001 65969 73736,73788,73762
 3.6000e+000 74232 -1.6161e+002 -1.1307e+002  1.2972e+002 65572 74255,74085,74033
 3.6000e+000 74209 -1.5690e+002 -1.0988e+002  1.3136e+002 65572 74327,74255,74033
 3.6000e+000 74186 -1.5228e+002 -1.1323e+002  1.3278e+002 65572 74327,74033,74007
 3.6000e+000 74163 -1.6420e+002 -1.2363e+002  1.3422e+002 65572 74033,74085,74059
 3.6000e+000 74281 -1.5967e+002 -1.0924e+002  1.2916e+002 65572 74111,74085,74255
 3.6000e+000 74304 -1.6437e+002 -1.1094e+002  1.3036e+002 65572 74111,74255,74137
 3.6000e+000 74353 -1.6397e+002 -1.1224e+002  1.3276e+002 65572 74137,74255,74327
 3.6000e+000 74376 -1.5821e+002 -1.1470e+002  1.3361e+002 65572 74137,74327,74007
 3.6000e+000 74884 -1.4439e+002 -1.2469e+002  1.0367e+002 65174 74587,74717,74613
 3.6000e+000 74861 -1.8802e+002 -1.5404e+002  8.4865e+001 65174 74561,74717,74587
 3.6000e+000 74838 -1.2956e+002 -1.4049e+002  6.7857e+001 65174 74613,74691,74639
 3.6000e+000 74815 -1.4834e+002 -1.3443e+002  1.0097e+002 65174 74613,74717,74691
 3.6000e+000 74792 -6.6357e+001 -1.7064e+002  7.1734e+001 65174 74639,74691,74665
 3.6000e+000 74769 -2.8832e+002 -6.0604e+001  8.8574e+001 65174 74561,74743,74717
 3.6000e+000 75412 -4.6795e+000 -2.6292e+001  2.0517e+002 64770 75167,75245,75219
 3.6000e+000 75389 -1.0914e+002 -1.6466e+002  1.4068e+002 64770 75115,75245,75167
 3.6000e+000 75366 -8.4654e+001 -2.0484e+002  1.8085e+002 64770 75089,75245,75115
 3.6000e+000 75343 -1.7940e+002 -5.3469e+001  1.5117e+002 64770 75167,75219,75193
 3.6000e+000 75320 -8.8652e+001 -1.1728e+002  1.4295e+002 64770 75115,75167,75141
 3.6000e+000 75297 -1.2547e+002 -3.0541e+002  1.8577e+002 64770 75089,75271,75245
 3.6000e+000 75861 -3.9863e+002 -1.6324e+002  9.9431e+001 64316 75538,75694,75564
 3.6000e+000 75838 -3.4938e+002 -1.4499e+002  4.9416e+001 64316 75538,75720,75694
 3.6000e+000 75815 -2.8440e+002 -1.5099e+002  8.9240e+001 64316 75590,75694,75642
 3.6000e+000 75792 -2.9326e+002 -2.0948e+002  1.0067e+002 64316 75564,75694,75590
 3.6000e+000 75769 -1.4452e+002 -2.3908e+002  5.1351e+001 64316 75590,75642,75616
 3.6000e+000 75746 -2.0758e+002 -8.4716e+001  5.8474e+001 64316 75642,75694,75668
 3.6000e+000 76239 -2.8730e+002 -2.1054e+002  1.2331e+002 64018 76262,76095,76043
 3.6000e+000 76216 -2.4944e+002 -2.1781e+002  1.1435e+002 64018 76262,76043,76017
 3.6000e+000 76193 -1.7447e+002 -1.0274e+002  7.2983e+001 64018 75991,76121,76017
 3.6000e+000 76170 -2.7955e+002 -1.6039e+002  1.6469e+002 64018 76043,76095,76069
 3.6000e+000 76147 -2.8725e+001 -9.5761e+001  2.0848e+001 64018 75965,76121,75991
 3.6000e+000 76288 -2.5505e+002 -2.1410e+002  1.4276e+002 64018 76121,76095,76262
 3.6000e+000 76311 -2.2402e+002 -2.2798e+002  1.2812e+002 64018 76121,76262,76017
 3.6000e+000 76866 -1.1145e+002 -9.6258e+001  1.1335e+002 63728 76520,76676,76546
 3.6000e+000 76843 -9.0502e+001 -9.9127e+001  7.5746e+001 63728 76520,76702,76676
 3.6000e+000 76820 -9.8490e+001 -1.1290e+002  1.1905e+002 63728 76546,76650,76572
 3.6000e+000 76797 -1.4989e+002 -1.5189e+002  9.6582e+001 63728 76546,76676,76650
 3.6000e+000 76774 -1.5631e+002 -1.1177e+001  5.4375e+001 63728 76572,76650,76624
 3.6000e+000 76751 -8.1096e+001 -7.9463e+001  8.1478e+001 63728 76494,76702,76520
 3.6000e+000 76728 -3.5972e+001 -6.0652e+001  4.6181e+001 63728 76572,76624,76598
 3.6000e+000 77065 -2.0443e+002 -8.2547e+001  7.3461e+001 63288 77088,76941,76915
 3.6000e+000 77042 -2.2496e+002 -9.0691e+001  7.3812e+001 63288 77088,76915,76993
 3.6000e+000 77019 -1.5756e+002 -1.2006e+002  5.9504e+001 63288 76889,76993,76915
 3.6000e+000 77114 -1.8683e+002 -8.4639e+001  8.2688e+001 63288 76967,76941,77088
 3.6000e+000 77137 -2.8941e+002 -1.3663e+002  3.0974e+001 63288 77160,77088,76993
 3.6000e+000 77186 -1.0533e+002 -5.3884e+001  5.8365e+001 63288 76967,77088,77160
 3.6000e+000 77417 -1.7591e+002 -1.2898e+002  1.2994e+002 62884 77440,77342,77316
 3.6000e+000 77394 -3.3205e+002 -1.7646e+002  7.0999e+001 62884 77770,77440,77316
 3.6000e+000 77466 -2.2768e+002 -1.7264e+002  3.0687e+001 62884 77512,77440,77368
 3.6000e+000 77489 -2.1505e+002 -1.2414e+002  4.0579e+001 62884 77642,77440,77290
 3.6000e+000 77538 -1.5294e+002 -1.6953e+002  3.0300e+001 62884 77342,77440,77512
 3.6000e+000 77668 -2.6981e+002 -2.1786e+002  8.1673e+000 62884 77368,77440,77642
 3.6000e+000 77796 -1.8178e+002 -9.1319e+001  2.6524e+001 62884 77290,77440,77770
 3.6000e+000 78479 -4.1427e+002 -2.5168e+002  1.4512e+002 62480 78084,78240,78214
 3.6000e+000 78456 -3.5031e+002 -2.3615e+002  5.6449e+001 62480 78084,78266,78240
 3.6000e+000 78433 -3.9694e+002 -1.8091e+002  1.1530e+002 62480 78110,78214,78136
 3.6000e+000 78410 -3.4417e+002 -1.5892e+002  1.1034e+002 62480 78084,78214,78110
 3.6000e+000 78387 -3.0455e+002 -2.0822e+002  1.2271e+002 62480 78136,78214,78188
 3.6000e+000 78364 -3.0955e+002 -2.7098e+002  5.0823e+001 62480 78058,78266,78084
 3.6000e+000 78341 -3.7649e+002 -2.1184e+002  2.3724e+001 62480 78136,78188,78162
 3.6000e+000 78318 -4.2628e+002 -3.0912e+002  3.1462e+001 62480 78058,78292,78266
 3.6000e+000 78678 -1.9633e+002 -2.9407e+002  1.1367e+002 61926 78528,78606,78554
 3.6000e+000 78655 -1.1889e+002 -2.5611e+002  1.5002e+002 61926 78502,78606,78528
 3.6000e+000 78632 -1.5360e+002 -1.8827e+002  1.1705e+002 61926 78554,78606,78580
 3.6000e+000 79058 -1.6979e+002 -1.4519e+002  9.1551e+001 61614 78836,78914,78862
 3.6000e+000 79035 -2.3559e+002 -1.8143e+002  7.6481e+001 61614 78810,78914,78836
 3.6000e+000 79012 -1.5109e+002 -1.4403e+002  8.8123e+001 61614 78784,78914,78810
 3.6000e+000 78989 -1.6038e+002 -1.6345e+002  1.3386e+002 61614 78862,78914,78888
 3.6000e+000 78966 -1.4236e+002 -1.7976e+002  9.8654e+001 61614 78784,78940,78914
 3.6000e+000 79208 -9.8646e+001 -2.2830e+002  1.1307e+001 61366 79081,79133,79107
 3.6000e+000 79185 -1.0426e+002 -1.8446e+002  5.9282e+001 61366 79081,79159,79133
 3.6000e+000 79358  1.9719e+001  1.2472e+000  9.3032e+000 60962 79231,79283,79257
 3.6000e+000 79335 -6.3220e+001 -1.4813e+002  4.1956e+001 60962 79231,79309,79283
 3.6000e+000 79608 -7.8419e+001 -1.7631e+002  6.8100e+001 60508 79631,79435,79409
 3.6000e+000 79585 -5.4679e+001 -1.8359e+002  4.4411e+001 60508 79703,79631,79409
 3.6000e+000 79562 -6.1029e+001 -1.1377e+002  5.1707e+001 60508 79703,79409,79383
 3.6000e+000 79539 -1.4971e+002 -1.3233e+002  1.2314e+002 60508 79435,79487,79461
 3.6000e+000 79657 -9.6199e+001 -2.1831e+002  1.1243e+002 60508 79487,79435,79631
 3.6000e+000 79680 -4.3400e+001 -1.7361e+002  6.2145e+001 60508 79487,79631,79513
 3.6000e+000 79729 -3.1292e+001 -1.1889e+002  2.5195e+001 60508 79513,79631,79703
 3.6000e+000 79752 -5.1986e+001 -1.0738e+002  1.3401e+001 60508 79513,79703,79383
 3.6000e+000 80390 -1.6374e+002 -1.4383e+002  1.3250e+002 59997 80413,80096,80018
 3.6000e+000 80367 -2.8132e+002 -1.7630e+002  1.5847e+002 59997 80413,80018,80226
 3.6000e+000 80344 -1.2044e+002 -9.7647e+001  7.6963e+001 59997 80096,80174,80148
 3.6000e+000 80321 -4.4155e+002 -2.4154e+002  1.8327e+002 59997 80018,80096,80070
 3.6000e+000 80298 -1.4545e+002 -1.4306e+002  5.4619e+001 59997 80096,80148,80122
 3.6000e+000 80275 -1.4637e+002 -1.2037e+002  1.2956e+002 59997 80174,80226,80200
 3.6000e+000 80252 -3.9017e+002 -1.6672e+002  1.5440e+002 59997 80018,80070,80044
 3.6000e+000 80439 -1.2865e+002 -1.6222e+002  9.6894e+001 59997 80174,80096,80413
 3.6000e+000 80462 -1.7714e+002 -1.2941e+002  1.1009e+002 59997 80174,80413,80226
 3.6000e+000 80840 -1.8005e+002 -1.4813e+002  7.4427e+001 59443 80863,80644,80618
 3.6000e+000 80817 -7.6120e+001 -1.0915e+002  8.9218e+001 59443 80863,80618,80566
 3.6000e+000 80794 -8.2240e+001 -9.5865e+001  1.1105e+002 59443 81007,80935,80670
 3.6000e+000 80771 -1.0699e+002 -1.0320e+002  9.5237e+001 59443 80566,80722,80696
 3.6000e+000 80748 -1.0530e+002 -1.6237e+002  1.1057e+002 59443 80566,80618,80592
 3.6000e+000 80889 -2.0334e+002 -1.2975e+002  1.1925e+002 59443 80935,80644,80863
 3.6000e+000 80912 -1.4040e+002 -1.1793e+002  1.0170e+002 59443 80696,80863,80566
 3.6000e+000 80961 -1.2318e+002 -1.0649e+002  1.2538e+002 59443 80696,80670,80935
 3.6000e+000 80984 -1.1918e+002 -9.1854e+001  1.1100e+002 59443 80696,80935,80863
 3.6000e+000 81033 -1.6272e+002 -1.7298e+002  1.4883e+002 59443 80644,80935,81007
 3.6000e+000 81360 -1.9427e+002 -8.8899e+001  6.2231e+001 59031 81383,81187,81161
 3.6000e+000 81337 -1.3771e+002 -9.9849e+001  7.7009e+000 59031 81455,81383,81161
 3.6000e+000 81314 -8.3423e+001 -8.9780e+001  1.8468e+001 59031 81455,81161,81135
 3.6000e+000 81291 -3.1289e+002 -1.2855e+002  9.2658e+001 59031 81187,81239,81213
 3.6000e+000 81409 -2.0833e+002 -1.6012e+002  9.6546e+001 59031 81239,81187,81383
 3.6000e+000 81432 -2.2178e+002 -1.3456e+002  1.8753e+001 59031 81239,81383,81265
 3.6000e+000 81481 -1.9693e+002 -7.0479e+001  2.5298e+001 59031 81265,81383,81455
 3.6000e+000 81504 -1.6817e+002 -8.0295e+001  2.5203e+001 59031 81265,81455,81135
 3.6000e+000 81835 -3.3974e+001 -6.5920e+001  4.7245e+001 58577 81610,81714,81636
 3.6000e+000 81812 -3.5881e+001 -8.9292e+001  5.4789e+001 58577 81610,81740,81714
 3.6000e+000 81789 -9.2956e+001 -9.0463e+001  2.2461e+000 58577 81636,81714,81688
 3.6000e+000 81766 -9.0780e+001 -1.1181e+002 -5.8987e+001 58577 81636,81688,81662
 3.6000e+000 81985 -3.0849e+001 -7.2759e+001  4.6723e+001 58030 81884,81936,81910
 3.6000e+000 81962 -5.6867e+001 -2.2010e+001  3.4274e+001 58030 81858,81936,81884
 3.6000e+000 82414 -2.6963e+001 -4.9243e+000  3.2647e+001 57690 82437,82169,82117
 3.6000e+000 82391 -3.6420e+001 -4.0885e+001  3.9120e+001 57690 82437,82117,82247
 3.6000e+000 82368  1.3438e+001  2.7942e+001  9.6202e+001 57690 82195,82247,82221
 3.6000e+000 82345 -2.9011e+001 -3.7634e+001  4.0089e+001 57690 82091,82247,82117
 3.6000e+000 82322 -4.4635e+001 -1.0066e+001  2.1939e+001 57690 82117,82169,82143
 3.6000e+000 82299 -3.3140e+001 -7.1878e+001  5.6296e+001 57690 82091,82273,82247
 3.6000e+000 82463 -4.1954e+001  1.0384e+001  4.9145e+001 57690 82195,82169,82437
 3.6000e+000 82486 -4.6142e+001 -1.5871e+001  4.9576e+001 57690 82195,82437,82247
 3.6000e+000 83041 -1.3987e+002 -1.0848e+002  8.6930e+001 57172 83064,82721,82695
 3.6000e+000 83018 -1.5105e+002 -1.1556e+002  1.1427e+002 57172 83064,82695,82851
 3.6000e+000 82995 -3.5335e+002 -1.6901e+002  1.5227e+002 57172 82669,82851,82695
 3.6000e+000 82972 -2.0598e+002 -1.0881e+002  1.1914e+002 57172 82773,82851,82825
 3.6000e+000 82949 -1.8928e+002 -1.0976e+002  1.3921e+002 57172 82773,82825,82799
 3.6000e+000 82926 -1.5715e+002 -7.8220e+001  7.4808e+001 57172 82721,82773,82747
 3.6000e+000 82903 -4.2678e+002 -1.9250e+002  2.4669e+002 57172 82669,82877,82851
 3.6000e+000 83090 -1.8382e+002 -1.2621e+002  8.6151e+001 57172 82773,82721,83064
 3.6000e+000 83113 -1.6532e+002 -1.2087e+002  1.1179e+002 57172 82773,83064,82851
 3.6000e+000 83747 -1.2248e+002 -9.2833e+001  6.2419e+001 56554 83770,83427,83401
 3.6000e+000 83724 -1.1844e+002 -1.1665e+002  7.3440e+001 56554 83842,83770,83401
 3.6000e+000 83701 -2.4170e+001 -9.5001e+001  2.9632e+001 56554 83842,83401,83583
 3.6000e+000 83678 -2.3387e+002 -1.5603e+002  1.4906e+002 56554 83914,83531,83505
 3.6000e+000 83655 -1.6815e+002 -1.3392e+002  7.6006e+001 56554 83531,83583,83557
 3.6000e+000 83632 -4.6279e+001 -7.4808e+001  2.2147e+001 56554 83375,83583,83401
 3.6000e+000 83609 -1.1640e+002 -7.2608e+001  6.5025e+001 56554 83427,83479,83453
 3.6000e+000 83796 -1.1488e+002 -7.4489e+001  7.0005e+001 56554 83479,83427,83770
 3.6000e+000 83819 -1.3129e+002 -8.9601e+001  7.7088e+001 56554 83479,83770,83505
 3.6000e+000 83868 -9.1354e+001 -6.8941e+001  8.6388e+001 56554 83505,83770,83842
 3.6000e+000 83891 -1.6290e+002 -1.1095e+002  1.0446e+002 56554 83914,83505,83842
 3.6000e+000 83940 -1.2264e+002 -1.5206e+002  9.4251e+001 56554 83583,83531,83914
 3.6000e+000 83963 -5.9805e+001 -1.4892e+002  7.0322e+001 56554 83583,83914,83842
 3.6000e+000 84341 -2.2899e+002 -2.8810e+002  1.0356e+002 56192 84067,84145,84119
 3.6000e+000 84318 -2.1074e+002 -2.0126e+002  9.2527e+001 56192 84067,84223,84145
 3.6000e+000 84295 -2.0108e+002 -1.6349e+002  7.6081e+001 56192 84145,84223,84197
 3.6000e+000 84272 -2.1955e+002 -7.8505e+001  2.1028e+001 56192 84067,84119,84093
 3.6000e+000 84249 -1.3204e+002 -9.7034e+001  1.0347e+002 56192 84145,84197,84171
 3.6000e+000 84611 -5.8623e+001 -1.3843e+002  7.3209e+001 55538 84386,84490,84412
 3.6000e+000 84588 -7.1618e+001 -1.5572e+002  7.8191e+001 55538 84386,84516,84490
 3.6000e+000 84565 -1.3464e+002 -1.7194e+002  6.7856e+001 55538 84412,84490,84464
 3.6000e+000 84542 -7.2421e+001 -1.6888e+002  2.7467e+001 55538 84412,84464,84438
 3.6000e+000 84942 -1.7569e+002 -1.2262e+002  1.0714e+002 55084 84769,84847,84795
 3.6000e+000 84919 -1.7526e+002 -1.3586e+002  9.5098e+001 55084 84717,84847,84769
 3.6000e+000 84896 -2.0414e+002 -2.2382e+002  9.9660e+001 55084 84717,84769,84743
 3.6000e+000 84873 -1.8509e+002 -4.6639e+001  9.4461e+001 55084 84795,84847,84821
 3.6000e+000 85271 -2.5740e+001 -2.8244e+001  4.3199e+001 54580 85294,85098,85072
 3.6000e+000 85248 -1.4133e+002 -7.6099e+001  6.9630e+001 54580 85294,85072,85176
 3.6000e+000 85225 -1.9510e+002 -2.4635e+000  1.9625e+001 54580 85124,85176,85150
 3.6000e+000 85202 -3.3492e+001 -5.9501e+001  3.0722e+001 54580 85046,85176,85072
 3.6000e+000 85320 -1.2812e+002 -3.0749e+001  5.7282e+001 54580 85124,85098,85294
 3.6000e+000 85343 -1.8714e+002 -3.2819e+001  7.4096e+001 54580 85124,85294,85176
 3.6000e+000 85542 -7.3867e+001 -1.6141e+002  8.1588e+001 53976 85565,85444,85418
 3.6000e+000 85519 -8.1728e+001 -1.3428e+002  6.8721e+001 53976 85565,85418,85366
 3.6000e+000 85496 -7.3607e+001 -1.2720e+002  5.9475e+001 53976 85366,85418,85392
 3.6000e+000 85591 -8.4608e+001 -1.5359e+002  5.5868e+001 53976 85470,85444,85565
 3.6000e+000 85614 -6.4663e+001 -7.6809e+001  4.6826e+001 53976 85470,85565,85366
 3.6000e+000 85960 -1.6668e+002 -1.7967e+002  7.0065e+001 53572 85663,85715,85689
 3.6000e+000 85937 -1.3956e+002 -1.5423e+002  7.3129e+001 53572 85983,85715,85663
 3.6000e+000 85914 -1.4465e+002 -1.6803e+002  7.9055e+001 53572 86055,85983,85663
 3.6000e+000 85891 -1.3798e+002 -1.6616e+002  9.0897e+001 53572 86055,85663,85637
 3.6000e+000 85868 -2.5145e+002 -3.0466e+002  1.4466e+002 53572 85637,85793,85767
 3.6000e+000 85845 -2.2062e+002 -7.9220e+001  7.0772e+001 53572 85637,85819,85793
 3.6000e+000 86009 -1.4175e+002 -1.4018e+002  7.6022e+001 53572 85741,85715,85983
 3.6000e+000 86032 -1.4969e+002 -1.4993e+002  7.9349e+001 53572 85741,85983,85767
 3.6000e+000 86081 -1.3358e+002 -1.4281e+002  8.0644e+001 53572 85767,85983,86055
 3.6000e+000 86104 -1.3299e+002 -1.5384e+002  9.1452e+001 53572 85767,86055,85637
 3.6000e+000 86693 -3.3874e+002 -9.3364e+001  1.5067e+002 52946 86474,86526,86500
 3.6000e+000 86670 -1.7867e+002 -9.9388e+001  7.2629e+001 52946 86396,86526,86474
 3.6000e+000 86647 -2.8210e+002 -2.8390e+002  1.4417e+002 52946 86370,86526,86396
 3.6000e+000 86624 -8.3749e+001 -8.1347e+001  2.1322e+001 52946 86422,86474,86448
 3.6000e+000 86601 -1.9235e+002 -6.6699e+001  4.7490e+001 52946 86396,86474,86422
 3.6000e+000 86578 -2.4558e+002 -1.2807e+002  1.1268e+002 52946 86370,86552,86526
 3.6000e+000 87376 -2.1882e+002 -1.7116e+002  5.8226e+001 52420 87007,87085,87033
 3.6000e+000 87353 -1.7978e+002 -1.5866e+002  5.9870e+001 52420 87007,87163,87085
 3.6000e+000 87330 -1.8671e+002 -1.5526e+002  6.3234e+001 52420 87007,87189,87163
 3.6000e+000 87307 -1.9429e+002 -1.3642e+002  8.3014e+001 52420 87033,87085,87059
 3.6000e+000 87284 -1.9622e+002 -1.6231e+002  2.3118e+001 52420 87085,87137,87111
 3.6000e+000 87261 -1.6230e+002 -1.7411e+002  2.1065e+001 52420 87085,87163,87137
 3.6000e+000 87238 -1.4770e+002 -1.5224e+002  1.2198e+002 52420 86955,87189,87007
 3.6000e+000 87215 -1.0157e+002 -1.2335e+002  4.7045e+001 52420 86955,87007,86981
 3.6000e+000 87624 -8.9092e+001 -1.6686e+002  4.4771e+001 51916 87451,87503,87477
 3.6000e+000 87601 -1.0581e+002 -1.8883e+002  3.7545e+001 51916 87425,87503,87451
 3.6000e+000 87578 -6.5014e+001 -1.6428e+002  4.7980e+001 51916 87425,87529,87503
 3.6000e+000 87555 -4.7259e+001 -1.0893e+002  4.8624e+001 51916 87399,87529,87425
 3.6000e+000 88053 -1.6058e+002 -1.1415e+002  5.6642e+001 51568 87782,87834,87808
 3.6000e+000 88030 -1.8993e+002 -1.4341e+002  7.1946e+001 51568 88076,87782,87886
 3.6000e+000 88007 -1.8951e+002 -1.4280e+002  6.9626e+001 51568 88076,87886,87860
 3.6000e+000 87984 -2.0606e+002 -1.8585e+002  6.3846e+001 51568 87756,87886,87782
 3.6000e+000 87961 -1.5587e+002 -1.5220e+002  1.2139e+002 51568 87756,87912,87886
 3.6000e+000 87938 -1.8066e+002 -1.2827e+002  1.1254e+002 51568 87730,87912,87756
 3.6000e+000 88102 -1.8746e+002 -1.4366e+002  7.1075e+001 51568 87834,87782,88076
 3.6000e+000 88125 -1.8623e+002 -1.4315e+002  6.9031e+001 51568 87834,88076,87860
 3.6000e+000 88324 -1.4153e+002 -1.1027e+002  5.3660e+001 51164 88419,88347,88200
 3.6000e+000 88301 -7.7033e+001 -9.8397e+001  5.9701e+001 51164 88347,88148,88252
 3.6000e+000 88278 -1.8902e+002 -1.3932e+002  7.0709e+000 51164 88419,88200,88174
 3.6000e+000 88373 -8.3341e+001 -1.2245e+002  6.3887e+001 51164 88226,88200,88347
 3.6000e+000 88396 -7.3557e+000 -9.9222e+001  5.0182e+001 51164 88226,88347,88252
 3.6000e+000 88445 -8.2174e+001 -8.5043e+001  6.3968e+001 51164 88148,88347,88419
 3.6000e+000 88468 -8.1871e+001 -7.7623e+001  3.2330e+001 51164 88148,88419,88174
 3.6000e+000 88738 -9.2930e+001 -1.3226e+002  3.6545e+001 50560 88513,88617,88539
 3.6000e+000 88715 -6.0101e+001 -1.4045e+002  2.4366e+001 50560 88513,88643,88617
 3.6000e+000 88692 -5.1393e+001 -1.8070e+001  3.5595e+001 50560 88539,88591,88565
 3.6000e+000 88669 -4.0995e+001 -9.6765e+001  5.2772e+001 50560 88539,88617,88591
 3.6000e+000 88939 -1.3528e+002 -6.2124e+001  5.8520e+001 50106 88962,88789,88763
 3.6000e+000 88916 -1.0282e+002 -9.9178e+001  4.8966e+001 50106 88962,88763,88841
 3.6000e+000 88893 -1.1592e+002 -1.0992e+002  6.9469e+001 50106 88763,88867,88841
 3.6000e+000 88988 -1.0602e+002 -7.2948e+001  4.3629e+001 50106 88815,88789,88962
 3.6000e+000 89011 -9.2534e+001 -6.7088e+001  6.0787e+001 50106 89034,88962,88841
 3.6000e+000 89060 -5.6419e+001 -2.8047e+001  1.0889e+001 50106 88815,88962,89034
 3.6000e+000 89472 -9.3260e+001 -1.1988e+002  5.4098e+001 49666 89273,89351,89325
 3.6000e+000 89449 -8.8035e+001 -1.1623e+002  5.5675e+001 49666 89273,89377,89351
 3.6000e+000 89426 -8.5929e+001 -1.0374e+002  7.5342e+001 49666 89273,89325,89299
 3.6000e+000 89403 -8.3876e+001 -6.8751e+001  6.3233e+001 49666 89247,89377,89273
 3.6000e+000 89978 -1.7934e+002 -1.4577e+002  6.7438e+001 49205 89681,89837,89733
 3.6000e+000 89955 -1.1618e+002 -1.1700e+002  7.7193e+001 49205 89655,89837,89681
 3.6000e+000 89932 -3.1229e+002 -1.9136e+002  1.0634e+002 49205 89785,89837,89811
 3.6000e+000 89909 -1.8293e+002 -1.3441e+002  5.8950e+001 49205 89733,89837,89785
 3.6000e+000 89886 -3.2020e+002 -1.6835e+002  1.2126e+002 49205 89733,89785,89759
 3.6000e+000 89863 -7.7969e+001 -2.9366e+002  1.4456e+002 49205 89681,89733,89707
 3.6000e+000 90177 -1.5462e+002 -9.8335e+001  6.7487e+001 48865 90530,90200,90053
 3.6000e+000 90154 -1.3368e+002 -1.1439e+002  5.7013e+001 48865 90402,90200,90001
 3.6000e+000 90131 -1.6159e+002 -8.4824e+001  6.6691e+001 48865 90530,90053,90027
 3.6000e+000 90226 -1.7348e+002 -1.1227e+002  9.1459e+001 48865 90079,90053,90200
 3.6000e+000 90249 -1.9964e+002 -1.5728e+002  3.9600e+001 48865 90272,90200,90105
 3.6000e+000 90298 -1.1197e+002 -7.6122e+001  7.3400e+001 48865 90079,90200,90272
 3.6000e+000 90428 -1.6434e+002 -8.1647e+001  6.3885e+001 48865 90105,90200,90402
 3.6000e+000 90556 -1.5737e+002 -1.1910e+002  6.6294e+001 48865 90001,90200,90530
 3.6000e+000 90579 -1.6026e+002 -9.9533e+001  6.0996e+001 48865 90001,90530,90027
 3.6000e+000 90827 -1.4622e+002 -1.1103e+002  7.9490e+001 48404 90850,90654,90628
 3.6000e+000 90804 -1.5209e+002 -1.2126e+002  1.0486e+002 48404 90850,90628,90732
 3.6000e+000 90781 -1.0634e+002 -1.0092e+002  6.0746e+001 48404 90680,90732,90706
 3.6000e+000 90758 -2.0547e+002 -6.9130e+001  1.0019e+002 48404 90602,90732,90628
 3.6000e+000 90876 -1.4447e+002 -7.3727e+001  7.1569e+001 48404 90680,90654,90850
 3.6000e+000 90899 -1.5094e+002 -1.0163e+002  9.2351e+001 48404 90680,90850,90732
 3.6000e+000 91000 -7.6154e+001 -1.7765e+002  5.9561e+001 48156 90922,90974,90948
 3.6000e+000 91250 -5.4935e+001 -1.2783e+002  2.0902e+001 47752 91051,91103,91077
 3.6000e+000 91227 -9.5135e+001 -1.2664e+002  2.4264e+001 47752 91025,91103,91051
 3.6000e+000 91204 -1.4802e+002 -1.6443e+002  5.3320e+001 47752 91025,91155,91103
 3.6000e+000 91181 -1.3203e+002 -1.4930e+002  8.1211e+001 47752 91103,91155,91129
 3.6000e+000 91402 -1.4096e+002 -1.0982e+002  7.8378e+001 47191 91425,91301,91275
 3.6000e+000 91379 -1.3290e+002 -1.0628e+002  8.6295e+001 47191 91497,91425,91275
 3.6000e+000 91451 -1.4911e+002 -6.6581e+001  4.2880e+001 47191 91327,91301,91425
 3.6000e+000 91474 -1.5148e+002 -1.3034e+002  9.6328e+001 47191 91327,91425,91353
 3.6000e+000 91523 -1.6463e+002 -2.5553e+002  8.9648e+001 47191 91353,91425,91497
 3.6000e+000 91854 -9.1592e+001 -1.0132e+002  4.5540e+001 46744 91949,91877,91707
 3.6000e+000 91831 -1.8177e+001 -1.3114e+002  2.5365e+001 46744 91877,91655,91629
 3.6000e+000 91808 -8.4332e+001 -1.0186e+002  4.6720e+001 46744 91949,91707,91681
 3.6000e+000 91785 -1.2276e+002 -1.4118e+002  6.7908e+000 46744 91629,91759,91733
 3.6000e+000 91903 -1.8400e+002 -1.3188e+002  8.0023e+001 46744 91733,91707,91877
 3.6000e+000 91926 -7.3365e+001 -1.6339e+002  5.2394e+001 46744 91733,91877,91629
 3.6000e+000 91975 -7.1244e+001 -1.4071e+002  7.2374e+001 46744 91655,91877,91949
 3.6000e+000 91998 -2.5362e+001 -1.1732e+002  6.3154e+001 46744 91655,91949,91681
 3.6000e+000 92378 -8.5993e+001 -1.3951e+001  4.0761e+001 46090 92130,92208,92182
 3.6000e+000 92355 -1.2232e+002 -2.9569e+001  3.9866e+001 46090 92104,92208,92130
 3.6000e+000 92332 -4.9965e+001 -7.0473e+001  3.7423e+001 46090 92104,92260,92208
 3.6000e+000 92309 -3.2819e+001 -5.6625e+000  3.3153e+001 46090 92208,92260,92234
 3.6000e+000 92286 -1.4157e+002 -3.7882e+001  5.1904e+001 46090 92130,92182,92156
 3.6000e+000 92626 -8.3564e+001 -1.1709e+002  3.3892e+001 45693 92721,92649,92505
 3.6000e+000 92603 -1.0419e+002 -1.1907e+002  8.7063e+001 45693 92649,92453,92427
 3.6000e+000 92580 -9.1982e+001 -9.2526e+001  3.1274e+001 45693 92721,92505,92479
 3.6000e+000 92557 -2.1425e+002 -1.6921e+002  1.0985e+002 45693 92401,92531,92427
 3.6000e+000 92675 -1.4976e+002 -1.0932e+002  5.0231e+001 45693 92531,92505,92649
 3.6000e+000 92698 -1.7438e+002 -1.4280e+002  1.2307e+002 45693 92531,92649,92427
 3.6000e+000 92747 -9.1316e+001 -8.7315e+001  3.3802e+001 45693 92453,92649,92721
 3.6000e+000 92770 -6.0836e+001 -7.5896e+000  4.4858e+001 45693 92453,92721,92479
 3.6000e+000 93172 -5.6344e+001 -9.0099e+001  8.4455e+001 45331 92898,93028,92924
 3.6000e+000 93149 -2.9833e+001 -7.0868e+001  5.7081e+001 45331 92898,93054,93028
 3.6000e+000 93126 -8.3675e+001 -5.0485e+001  9.2964e+001 45331 92924,93002,92976
 3.6000e+000 93103 -3.3140e+001 -7.9741e+001  8.2374e+001 45331 92924,93028,93002
 3.6000e+000 93080 -9.0990e+001 -9.1746e+001  9.7507e+001 45331 92924,92976,92950
 3.6000e+000 93518 -2.5487e+002 -2.3744e+002  1.3449e+002 44820 93613,93273,93247
 3.6000e+000 93495 -1.5133e+002 -1.5647e+002  9.6649e+001 44820 93685,93541,93247
 3.6000e+000 93472 -1.8620e+002 -1.0517e+002  6.8633e+001 44820 93541,93195,93377
 3.6000e+000 93449 -1.6881e+002 -1.3138e+002  7.4487e+001 44820 93685,93247,93221
 3.6000e+000 93426 -1.6296e+002 -1.4801e+002  8.8247e+001 44820 93299,93377,93351
 3.6000e+000 93403 -1.2373e+002 -9.6577e+001  1.0662e+002 44820 93299,93351,93325
 3.6000e+000 93567 -1.4980e+002 -2.1898e+002  7.5563e+001 44820 93613,93247,93541
 3.6000e+000 93590 -1.6455e+002 -1.5806e+002  5.0484e+001 44820 93299,93541,93377
 3.6000e+000 93639 -1.4674e+002 -2.6506e+002  9.7179e+001 44820 93299,93273,93613
 3.6000e+000 93662 -1.5753e+002 -2.6401e+002  8.5591e+001 44820 93299,93613,93541
 3.6000e+000 93711 -1.6302e+002 -9.3605e+001  5.0126e+001 44820 93195,93541,93685
 3.6000e+000 93734 -1.2669e+002  2.3048e+001  3.2644e+001 44820 93195,93685,93221
 3.6000e+000 94163 -1.2931e+002 -1.1546e+002  5.4889e+001 44237 94258,94186,93996
 3.6000e+000 94140 -1.3676e+002 -1.5308e+002  2.7701e+001 44237 94330,94022,93996
 3.6000e+000 94117 -1.4524e+002 -9.8258e+001  4.4043e+001 44237 94186,93918,93866
 3.6000e+000 94094 -1.1802e+002 -7.4968e+001  4.6895e+001 44237 94258,93996,93970
 3.6000e+000 94071 -1.3483e+002 -3.0857e+001  4.6065e+001 44237 94402,93944,93918
 3.6000e+000 94048 -9.1783e+001 -7.0827e+001  3.4292e+001 44237 93866,93918,93892
 3.6000e+000 94212 -1.3787e+002 -1.5433e+002  3.5508e+001 44237 94330,93996,94186
 3.6000e+000 94235 -1.4382e+002 -1.0337e+002  4.0944e+001 44237 93840,94186,93866
 3.6000e+000 94284 -1.2853e+002 -7.3686e+001  2.8778e+001 44237 93918,94186,94258
 3.6000e+000 94307 -1.2778e+002 -3.8178e+001  3.4517e+001 44237 94402,93918,94258
 3.6000e+000 94356 -1.5603e+002 -9.0504e+001  4.4278e+000 44237 93840,94022,94330
 3.6000e+000 94379 -1.3215e+002 -1.3830e+002  3.8833e+001 44237 93840,94330,94186
 3.6000e+000 94428 -1.3192e+002 -5.9073e+001  4.9043e+001 44237 93970,93944,94402
 3.6000e+000 94451 -1.3155e+002 -7.0375e+001  3.3565e+001 44237 93970,94402,94258
 3.6000e+000 94908 -1.6119e+002 -1.7854e+002  3.6987e+001 43890 94660,94790,94712
 3.6000e+000 94885 -6.6861e+001 -7.7664e+001  7.6025e+001 43890 94634,94790,94660
 3.6000e+000 94862 -2.8600e+002 -1.3103e+002  2.1402e+001 43890 94712,94764,94738
 3.6000e+000 94839 -1.3652e+002 -1.3001e+002  7.3913e+001 43890 94712,94790,94764
 3.6000e+000 94816 -6.3446e+001 -2.2727e+002  1.4151e+002 43890 94660,94712,94686
 3.6000e+000 95414 -8.7874e+001 -2.9338e+001  2.8085e+001 43186 95437,95143,95117
 3.6000e+000 95391 -9.8917e+001 -9.7377e+001  4.1523e+001 43186 95437,95117,95091
 3.6000e+000 95368 -3.9019e+001 -3.6380e+001  3.4027e+001 43186 95143,95221,95195
 3.6000e+000 95345 -1.5521e+002 -1.0182e+002  1.0400e+002 43186 95091,95273,95221
 3.6000e+000 95322 -1.2322e+002 -6.7239e+001  4.5382e+001 43186 95221,95273,95247
 3.6000e+000 95299 -4.4521e+001 -2.7954e+000  1.3750e+001 43186 95143,95195,95169
 3.6000e+000 95463 -9.0228e+001 -7.5263e+001  6.1828e+001 43186 95221,95143,95437
 3.6000e+000 95486 -9.2807e+001 -1.2771e+002  7.6836e+001 43186 95221,95437,95091
 3.6000e+000 96041 -1.4607e+002 -1.3168e+002  4.0190e+001 42782 95695,95851,95799
 3.6000e+000 96018 -1.2058e+002 -1.4828e+002  4.7649e+001 42782 95669,95851,95695
 3.6000e+000 95995 -1.5323e+002 -8.4527e+001  4.8973e+001 42782 95695,95747,95721
 3.6000e+000 95972 -1.0402e+002 -1.1365e+002  4.0815e+001 42782 95695,95799,95747
 3.6000e+000 95949 -9.6077e+001 -7.6856e+001  2.6508e+001 42782 95747,95799,95773
 3.6000e+000 95926 -1.9201e+002 -1.6338e+002  7.2103e+001 42782 95799,95851,95825
 3.6000e+000 95903 -1.5402e+002 -1.6070e+002  4.5053e+001 42782 95669,95877,95851
 3.6000e+000 96370 -1.6255e+002 -1.6348e+002  1.2468e+002 42420 96197,96275,96223
 3.6000e+000 96347 -1.6581e+002 -1.4977e+002  1.1412e+002 42420 96145,96275,96197
 3.6000e+000 96324 -1.0579e+002 -6.8774e+001  8.7218e+001 42420 96145,96197,96171
 3.6000e+000 96301 -8.3557e+001 -1.4667e+002  4.6723e+001 42420 96223,96275,96249
 3.6000e+000 96699 -8.5071e+001 -1.8251e+002  1.6093e+001 41816 96474,96578,96526
 3.6000e+000 96676 -5.3814e+001 -1.8756e+002  3.5688e+001 41816 96474,96604,96578
 3.6000e+000 96653 -5.9600e+001 -9.1736e+001  4.9324e+001 41816 96526,96578,96552
 3.6000e+000 96630 -8.8966e+001 -1.6759e+002  3.0628e+001 41816 96474,96526,96500
 3.6000e+000 96947 -8.0338e+001 -1.8714e+002  5.3273e+000 41212 96722,96800,96748
 3.6000e+000 96924 -1.0118e+002 -1.7597e+002  1.4330e+001 41212 96722,96826,96800
 3.6000e+000 96901 -1.3442e+002 -2.0145e+002  3.0942e+001 41212 96722,96852,96826
 3.6000e+000 96878 -6.6408e+001 -1.7565e+002  2.4059e+001 41212 96748,96800,96774
 3.6000e+000 97097 -7.0888e+001 -2.9540e+001  6.7592e+001 40793 97120,97022,96996
 3.6000e+000 97074 -1.3339e+002 -1.4105e+002  4.2036e+001 40793 97192,97120,96996
 3.6000e+000 97146 -5.0214e+001 -1.1860e+002  6.1915e+001 40793 97324,97120,97048
 3.6000e+000 97169 -4.6477e+001 -1.8055e+002  6.0989e+001 40793 97048,97120,96970
 3.6000e+000 97218 -2.0808e+001 -9.2813e+001  4.4823e+001 40793 96970,97120,97192
 3.6000e+000 97350 -5.0214e+001 -1.1860e+002  6.1915e+001 40793 97022,97120,97324
 3.6000e+000 97878 -8.0451e+001 -1.5584e+002  3.6531e+001 40446 97901,97607,97555
 3.6000e+000 97855 -7.7416e+001 -1.0515e+002  3.5472e+001 40446 97973,97901,97555
 3.6000e+000 97832 -5.5591e+001 -8.7706e+001  2.6067e+001 40446 97973,97555,97737
 3.6000e+000 97809 -9.6331e+001 -1.2537e+002  3.7906e+001 40446 97633,97685,97659
 3.6000e+000 97786 -6.9270e+001 -1.1956e+002  3.8290e+001 40446 97633,97711,97685
 3.6000e+000 97763 -7.7418e+001 -1.7039e+002  4.3795e+001 40446 97555,97607,97581
 3.6000e+000 97927 -8.4708e+001 -1.9577e+002 -3.1270e+000 40446 97633,97607,97901
 3.6000e+000 97950 -7.5485e+001 -1.4927e+002  2.9535e+001 40446 97633,97901,97711
 3.6000e+000 97999 -4.7014e+001 -1.4248e+002  4.8750e+001 40446 97711,97901,97973
 3.6000e+000 98022 -2.7706e+001 -1.2051e+002  4.0151e+001 40446 97711,97973,97737
 3.6000e+000 98449 -3.0339e+001 -2.4385e+001  1.6500e+001 39935 98152,98204,98178
 3.6000e+000 98426 -3.7889e+001 -5.0739e+001  1.4064e+001 39935 98152,98230,98204
 3.6000e+000 98403 -7.5838e+001 -4.2210e+001  4.9527e+001 39935 98152,98256,98230
 3.6000e+000 98380 -7.8279e+001 -3.1880e+001  4.5139e+001 39935 98126,98256,98152
 3.6000e+000 98357 -9.6954e+001 -1.0024e+002  4.1712e+001 39935 98126,98282,98256
 3.6000e+000 98334 -5.9946e+001 -1.8427e+002  7.4647e+001 39935 98126,98308,98282
 3.6000e+000 98746 -2.3567e+002 -1.3187e+002  6.6689e+001 39531 98498,98602,98524
 3.6000e+000 98723 -1.2926e+002 -1.4844e+002  4.1598e+001 39531 98472,98602,98498
 3.6000e+000 98700 -2.5889e+002 -8.0533e+001  2.8587e+001 39531 98524,98602,98576
 3.6000e+000 98677 -1.0981e+002 -1.2977e+002  3.2576e+001 39531 98472,98628,98602
 3.6000e+000 98654 -3.0872e+002 -1.0262e+002  2.4842e+001 39531 98524,98576,98550
 3.6000e+000 99224 -9.1528e+001 -9.7213e+001  3.9019e+001 39027 99247,98956,98930
 3.6000e+000 99201 -1.2904e+002 -1.8398e+002  4.3562e+001 39027 99247,98930,98878
 3.6000e+000 99178 -1.1994e+002 -1.5800e+002  7.1329e+001 39027 99319,98982,98956
 3.6000e+000 99155 -8.4851e+001 -7.8014e+001  8.4017e+001 39027 98852,99060,98878
 3.6000e+000 99132 -7.5265e+001 -1.8728e+002  4.9804e+001 39027 98878,98930,98904
 3.6000e+000 99109 -1.0710e+002 -2.1398e+002  1.1593e+002 39027 98982,99060,99034
 3.6000e+000 99086 -2.0040e+002 -3.2774e+002  2.0082e+002 39027 98982,99034,99008
 3.6000e+000 99273 -1.3492e+002 -1.8085e+002  5.5868e+001 39027 99319,98956,99247
 3.6000e+000 99296 -1.1708e+002 -1.7434e+002  6.0114e+001 39027 99060,99247,98878
 3.6000e+000 99345 -1.1084e+002 -1.4609e+002  7.9572e+001 39027 99060,98982,99319
 3.6000e+000 99368 -1.0343e+002 -1.5056e+002  6.9176e+001 39027 99060,99319,99247
 3.6000e+000 99923 -1.2712e+002 -1.0891e+002  6.3674e+001 38523 99946,99655,99603
 3.6000e+000 99900 -1.1770e+002 -1.0274e+002  6.8363e+001 38523 99946,99603,99759
 3.6000e+000 99877 -7.1165e+001 -1.5007e+002  7.3907e+001 38523 100018,99707,99681
 3.6000e+000 99854 -1.2293e+002 -8.1750e+001  6.5097e+001 38523 99551,99759,99603
 3.6000e+000 99831 -1.0918e+002 -6.2675e+001  5.7350e+001 38523 99551,99603,99577
 3.6000e+000 99808 -1.1184e+002 -2.0681e+002  5.7610e+001 38523 99707,99759,99733
 3.6000e+000 99785 -8.9049e+001 -8.5731e+001  5.2596e+001 38523 99603,99655,99629
 3.6000e+000 99972 -1.0255e+002 -4.7298e+001  5.9142e+001 38523 99681,99655,99946
 3.6000e+000 99995 -8.5267e+001 -7.8143e+001  8.5080e+001 38523 100018,99681,99946
 3.6000e+000 100044 -9.2179e+001 -1.7851e+002  4.3016e+001 38523 99759,99707,100018
 3.6000e+000 100067 -1.3127e+002 -1.5029e+002  5.5431e+001 38523 99759,100018,99946
 3.6000e+000 100467 -3.2786e+001 -1.2807e+002  2.4168e+001 38125 100219,100349,100323
 3.6000e+000 100444 -4.9224e+001 -1.1413e+002  1.0616e+001 38125 100193,100349,100219
 3.6000e+000 100421 -5.0426e+001 -1.0664e+002  3.2561e+001 38125 100245,100323,100297
 3.6000e+000 100398 -5.9490e+001 -1.3891e+002  2.7016e+001 38125 100219,100323,100245
 3.6000e+000 100375 -7.1364e+001 -1.1053e+002  4.2161e+001 38125 100245,100297,100271
 3.6000e+000 100666 -1.3182e+002 -1.8717e+002  6.2590e+001 37607 100689,100568,100542
 3.6000e+000 100643 -9.5527e+001 -9.6042e+001  6.2512e+001 37607 100689,100542,100490
 3.6000e+000 100620  2.2668e+001 -7.1530e+001  6.5483e+000 37607 100490,100542,100516
 3.6000e+000 100715 -1.1685e+002 -9.6499e+001  4.7594e+001 37607 100594,100568,100689
 3.6000e+000 100738 -1.2259e+002 -7.0091e+001  5.0291e+001 37607 100594,100689,100490
 3.6000e+000 100937 -5.3411e+001 -6.1643e+001  3.2387e+001 37017 100960,100813,100787
 3.6000e+000 100914  1.1020e+001 -6.0143e+001 -2.2012e+001 37017 100960,100787,100761
 3.6000e+000 100891 -1.5906e+002 -4.5693e+001  8.1880e+001 37017 100813,100865,100839
 3.6000e+000 100986 -1.3608e+002 -1.2000e+002  9.9620e+001 37017 100865,100813,100960
 3.6000e+000 101009 -1.5025e+001 -8.0609e+001  4.1942e+001 37017 100865,100960,100761
 3.6000e+000 101519 -1.2817e+002 -1.6009e+002  4.8099e+001 36613 101222,101274,101248
 3.6000e+000 101496 -9.2236e+001 -1.4049e+002  4.0666e+001 36613 101222,101352,101274
 3.6000e+000 101473 -1.2518e+002 -2.7607e+002  2.9113e+001 36613 101274,101352,101326
 3.6000e+000 101450 -1.1667e+002 -1.6623e+002  2.9659e+001 36613 101222,101378,101352
 3.6000e+000 101427 -5.3656e+001 -2.6365e+002  7.1176e+001 36613 101274,101326,101300
 3.6000e+000 101404 -8.9194e+001 -1.2764e+002  7.6122e+001 36613 101196,101378,101222
 3.6000e+000 101718 -8.4973e+001 -7.5861e+001  9.0483e+001 36308 101594,101646,101620
 3.6000e+000 101695 -8.7678e+001 -5.1108e+001  5.5350e+001 36308 101568,101646,101594
 3.6000e+000 101672 -6.4615e+001 -4.8937e+001  6.1758e+001 36308 101542,101646,101568
 3.6000e+000 102098 -5.7148e+001 -8.1106e+001  4.3048e+001 35918 102121,101954,101876
 3.6000e+000 102075 -3.7271e+001 -1.0128e+002  3.5058e+001 35918 102121,101876,101824
 3.6000e+000 102052 -4.0324e+001 -7.4879e+001  3.5320e+001 35918 101876,101954,101928
 3.6000e+000 102029 -1.1044e+002 -4.5456e+001  4.7592e+001 35918 101876,101928,101902
 3.6000e+000 102006 -2.0746e+001 -5.8320e+001  2.3201e+001 35918 101824,101876,101850
 3.6000e+000 102147 -6.4845e+001 -9.9582e+001  5.2608e+001 35918 101980,101954,102121
 3.6000e+000 102170 -4.4802e+001 -1.2136e+002  4.2703e+001 35918 101980,102121,101824
 3.6000e+000 102489 -1.1757e+002 -2.5455e+002  9.2870e+001 35514 102241,102345,102267
 3.6000e+000 102466 -1.4897e+002 -2.5993e+002  8.8564e+001 35514 102215,102345,102241
 3.6000e+000 102443 -1.2169e+002 -2.8734e+002  9.5971e+001 35514 102215,102371,102345
 3.6000e+000 102420 -9.6287e+001 -2.2263e+002  1.0299e+002 35514 102267,102345,102293
 3.6000e+000 102397 -5.7779e+001 -1.3999e+002  1.1413e+002 35514 102293,102345,102319
 3.6000e+000 102820 -2.2906e+001 -5.1342e+001  1.8325e+001 35224 102843,102699,102647
 3.6000e+000 102797 -1.1022e+002 -5.1922e+001  2.0439e+001 35224 102971,102725,102699
 3.6000e+000 102774 -3.1746e+001 -4.4960e+001  1.9102e+001 35224 102595,102725,102621
 3.6000e+000 102751 -2.9872e+001 -2.3093e+001  2.1493e+001 35224 102647,102699,102673
 3.6000e+000 102869 -6.2766e+001 -6.7044e+001  2.6126e+001 35224 102971,102699,102843
 3.6000e+000 102997 -6.3662e+001 -5.2031e+001  2.8018e+001 35224 102621,102725,102971
 3.6000e+000 103020 -1.0126e+000 -5.0523e+001  4.1907e+001 35224 102621,102971,102843
 3.6000e+000 103349 -1.3919e+002 -1.1003e+002  6.8547e+001 34820 103150,103228,103176
 3.6000e+000 103326 -1.2912e+002 -1.1961e+002  6.6939e+001 34820 103124,103228,103150
 3.6000e+000 103303 -1.1513e+002 -1.0575e+002  1.0656e+002 34820 103176,103228,103202
 3.6000e+000 103280 -9.6629e+001 -1.0305e+002  8.6390e+001 34820 103124,103254,103228
 3.6000e+000 103806 -9.1718e+001 -6.8429e+001  3.5417e+001 34530 103558,103662,103636
 3.6000e+000 103783 -3.7048e+001 -6.4766e+001  1.7562e+001 34530 103558,103688,103662
 3.6000e+000 103760 -3.6444e+001 -3.7099e+001  1.2758e+000 34530 103532,103688,103558
 3.6000e+000 103737 -3.2895e+001 -5.1759e+001  4.1631e+001 34530 103584,103636,103610
 3.6000e+000 103714 -9.5134e+001 -6.7949e+001  3.4801e+001 34530 103558,103636,103584
 3.6000e+000 104263 -6.9963e+001 -6.1504e+001  5.1209e+001 34019 103989,104119,104015
 3.6000e+000 104240 -5.5143e+001 -5.5634e+001  5.0452e+001 34019 103989,104145,104119
 3.6000e+000 104217 -7.2074e+001 -8.7683e+001  3.9003e+001 34019 104015,104067,104041
 3.6000e+000 104194 -7.3161e+001 -8.8715e+001  4.6525e+001 34019 104015,104119,104067
 3.6000e+000 104171 -7.4352e+001 -6.3936e+001  4.4192e+001 34019 104067,104119,104093
 3.6000e+000 104641 -7.0964e+001 -1.2328e+002  2.7125e+001 33351 104419,104497,104445
 3.6000e+000 104618 -6.9988e+001 -6.2163e+001  6.6046e+001 33351 104393,104497,104419
 3.6000e+000 104595 -1.0380e+002 -9.0564e+001  1.9499e+001 33351 104367,104497,104393
 3.6000e+000 104572 -4.9406e+001 -7.1845e+001  2.1126e+001 33351 104445,104497,104471
 3.6000e+000 104549 -8.6302e+001 -2.3377e+001  1.6886e+001 33351 104367,104523,104497
 3.6000e+000 105019 -9.8619e+001 -1.8830e+002  1.1686e+002 32861 104823,104901,104875
 3.6000e+000 104996 -1.3269e+002 -2.1509e+002  1.0045e+002 32861 104745,104901,104823
 3.6000e+000 104973 -1.5117e+002 -2.1139e+002  1.1172e+002 32861 104823,104875,104849
 3.6000e+000 104950 -1.2516e+002 -1.8782e+002  1.1894e+002 32861 104745,104823,104797
 3.6000e+000 104927 -1.5108e+002 -8.4716e+001  1.1379e+002 32861 104745,104797,104771
 3.6000e+000 105397 -4.0195e+001 -1.0333e+002  4.8108e+001 32457 105149,105253,105175
 3.6000e+000 105374 -8.0061e+001 -1.0077e+002  4.4453e+001 32457 105149,105279,105253
 3.6000e+000 105351 -3.3887e+001 -8.6653e+001  4.8964e+001 32457 105123,105279,105149
 3.6000e+000 105328 -7.3357e+001 -2.4945e+001  6.3699e+001 32457 105175,105227,105201
 3.6000e+000 105305 -8.8282e+001 -1.2412e+002  4.5812e+001 32457 105175,105253,105227
 3.6000e+000 105726 -3.9783e+001 -1.1916e+002  5.7887e+001 32003 105527,105605,105553
 3.6000e+000 105703 -6.9937e+001 -1.0175e+002  5.2256e+001 32003 105501,105605,105527
 3.6000e+000 105680 -3.8113e+001 -8.9097e+001  5.2311e+001 32003 105501,105631,105605
 3.6000e+000 105657 -2.6145e+001 -8.2047e+001  5.4932e+001 32003 105553,105605,105579
 3.6000e+000 106104 -5.6350e+001 -4.0182e+001  2.0335e+001 31492 106127,105908,105856
 3.6000e+000 106081 -5.7145e+001 -4.0648e+001  1.2168e+001 31492 106127,105856,105830
 3.6000e+000 106058 -4.9638e+001 -3.6245e+001  1.8604e+001 31492 105856,105908,105882
 3.6000e+000 106035 -6.1654e+001 -4.6273e+001  5.5227e+000 31492 105830,105986,105960
 3.6000e+000 106012 -3.3737e+001 -5.0651e+001  3.0509e+001 31492 105908,105960,105934
 3.6000e+000 106153 -5.6837e+001 -4.7510e+001  1.7769e+001 31492 105960,105908,106127
 3.6000e+000 106176 -5.7972e+001 -5.2371e+001  1.0781e+001 31492 105960,106127,105830
 3.6000e+000 106375 -9.5970e+001 -5.9427e+001  5.6749e+001 30788 106398,106277,106251
 3.6000e+000 106352 -9.4974e+001 -1.2044e+002  7.2028e+001 30788 106398,106251,106225
 3.6000e+000 106329 -1.4682e+002 -1.1950e+002  9.2909e+001 30788 106600,106199,106303
 3.6000e+000 106424 -1.6158e+002 -1.3954e+002  4.0830e+001 30788 106470,106398,106303
 3.6000e+000 106447 -1.0881e+002 -1.2866e+002  7.4497e+001 30788 106600,106303,106398
 3.6000e+000 106496 -3.8758e+001 -8.6643e+001  4.9485e+001 30788 106277,106398,106470
 3.6000e+000 106626 -1.6702e+002 -1.4016e+002  1.1208e+002 30788 106225,106199,106600
 3.6000e+000 106649 -1.4352e+002 -1.5338e+002  9.2624e+001 30788 106225,106600,106398
 3.6000e+000 106799 -7.3285e+001 -6.8890e+001 -1.0751e+001 30426 106698,106750,106724
 3.6000e+000 106776 -2.7667e+001 -6.4248e+001  6.0477e+000 30426 106672,106750,106698
 3.6000e+000 107356 -7.1811e+001 -1.2472e+002  8.0919e+001 29972 107010,107166,107114
 3.6000e+000 107333 -9.5301e+001 -1.3366e+002  8.0042e+001 29972 106984,107166,107010
 3.6000e+000 107310 -8.1523e+001 -1.2962e+002  8.2895e+001 29972 107010,107114,107088
 3.6000e+000 107287 -1.0463e+002 -1.6119e+002  5.4866e+001 29972 107114,107166,107140
 3.6000e+000 107264 -7.5083e+001 -9.8000e+001  5.9415e+001 29972 106984,107192,107166
 3.6000e+000 107241 -1.9951e+002 -2.6618e+002  1.4496e+002 29972 107010,107088,107036
 3.6000e+000 107218 -1.0115e+002 -2.2245e+002  1.1027e+002 29972 107036,107088,107062
 3.6000e+000 107783 -1.1483e+002 -1.4394e+002  8.6258e+001 29724 107878,107806,107590
 3.6000e+000 107760 -1.7459e+002 -1.6704e+002  8.1041e+001 29724 107806,107512,107486
 3.6000e+000 107737 -1.1080e+002 -1.4446e+002  8.4520e+001 29724 107878,107590,107538
 3.6000e+000 107714 -1.2609e+002 -1.7897e+002  1.0061e+002 29724 107950,107460,107616
 3.6000e+000 107691 -1.2401e+002 -1.7762e+002  9.8682e+001 29724 107460,107642,107616
 3.6000e+000 107668 -9.0360e+001 -1.0580e+002  9.7121e+001 29724 107538,107590,107564
 3.6000e+000 107832 -8.7215e+001 -1.5124e+002  1.1360e+002 29724 107616,107590,107806
 3.6000e+000 107855 -1.2794e+002 -1.7996e+002  1.0007e+002 29724 107950,107616,107806
 3.6000e+000 107904 -1.2836e+002 -1.4690e+002  1.0128e+002 29724 107512,107806,107878
 3.6000e+000 107927 -1.0107e+002 -1.3733e+002  1.0252e+002 29724 107512,107878,107538
 3.6000e+000 107976 -8.7619e+001 -1.7465e+002  1.0548e+002 29724 107486,107460,107950
 3.6000e+000 107999 -1.2234e+002 -1.8716e+002  9.8171e+001 29724 107486,107950,107806
 3.6000e+000 108296 -1.5172e+002 -9.5563e+001  7.1704e+001 29206 108319,108100,108048
 3.6000e+000 108273 -7.6669e+001 -7.7295e+001  9.2061e+001 29206 108319,108048,108022
 3.6000e+000 108250 -4.0466e+001 -1.0006e+002  1.2073e+002 29206 108391,108152,108126
 3.6000e+000 108227 -1.6257e+002 -6.4168e+001  7.8243e+001 29206 108048,108100,108074
 3.6000e+000 108204 -5.7801e+001 -1.4111e+002  1.0572e+002 29206 108022,108178,108152
 3.6000e+000 108345 -1.1183e+002 -4.4385e+001  1.1522e+002 29206 108126,108100,108319
 3.6000e+000 108368 -5.6882e+001 -7.5603e+001  1.3349e+002 29206 108391,108126,108319
 3.6000e+000 108417 -7.6239e+001 -1.2878e+002  1.0582e+002 29206 108022,108152,108391
 3.6000e+000 108440 -8.8890e+001 -1.0929e+002  1.1941e+002 29206 108022,108391,108319
 3.6000e+000 108688 -9.2058e+001 -9.5164e+001  8.5601e+001 28595 108711,108541,108515
 3.6000e+000 108665 -1.4686e+002 -1.1046e+002  9.8306e+001 28595 108783,108711,108515
 3.6000e+000 108642 -1.6988e+002 -1.0561e+002  9.5254e+001 28595 108783,108515,108489
 3.6000e+000 108619 -1.1286e+002 -1.3813e+002  3.6878e+001 28595 108463,108593,108489
 3.6000e+000 108737 -8.7057e+001 -9.2177e+001  6.1485e+001 28595 108567,108541,108711
 3.6000e+000 108760 -7.4111e+001 -9.5460e+001  8.9058e+001 28595 108567,108711,108593
 3.6000e+000 108809 -9.2445e+001 -1.2809e+002  7.9813e+001 28595 108593,108711,108783
 3.6000e+000 108832 -1.3744e+002 -1.3987e+002  6.7560e+001 28595 108593,108783,108489
 3.6000e+000 109033 -2.0960e+001 -2.0025e+001  1.3288e+001 28091 108909,108961,108935
 3.6000e+000 109010 -2.2620e+001 -4.4525e+001  9.6824e+000 28091 108857,108961,108909
 3.6000e+000 108987 -3.9518e+001 -4.2486e+001  3.5633e+001 28091 108857,108909,108883
 3.6000e+000 109136 -1.0749e+002 -2.5165e+002  4.8099e+001 27587 109058,109110,109084
 3.6000e+000 109695 -1.9434e+001 -1.4945e+002  3.6926e+001 26969 109718,109375,109323
 3.6000e+000 109672 -5.7126e+001 -1.9367e+002  6.9977e+001 26969 109718,109323,109505
 3.6000e+000 109649 -1.0174e+002 -8.7449e+001  6.5487e+001 26969 109790,109453,109427
 3.6000e+000 109626 -4.1897e+001 -5.2335e+001  4.3234e+001 26969 109323,109375,109349
 3.6000e+000 109603 -8.4102e+001 -1.3301e+002  2.0024e+001 26969 109323,109531,109505
 3.6000e+000 109580 -1.1683e+002 -2.0921e+002  6.9207e+001 26969 109375,109427,109401
 3.6000e+000 109557 -1.5381e+002 -1.6342e+002  8.6417e+001 26969 109453,109505,109479
 3.6000e+000 109744 -7.0063e+001 -1.6347e+002  4.7129e+001 26969 109427,109375,109718
 3.6000e+000 109767 -4.8558e+001 -1.2612e+002  6.9602e+001 26969 109790,109427,109718
 3.6000e+000 109816 -1.3496e+002 -1.2569e+002  8.3084e+001 26969 109505,109453,109790
 3.6000e+000 109839 -9.9282e+001 -1.7521e+002  9.3485e+001 26969 109505,109790,109718
 3.6000e+000 110266 -7.8911e+001 -1.6553e+002 -1.8020e+001 26515 110361,110289,110099
 3.6000e+000 110243 -5.6430e+001 -1.2172e+002 -1.6502e+001 26515 110289,109995,109943
 3.6000e+000 110220 -1.0408e+002 -1.7641e+002 -1.7534e+001 26515 110361,110099,110021
 3.6000e+000 110197 -1.7278e+002 -2.9050e+002 -1.2185e+001 26515 110047,110099,110073
 3.6000e+000 110174 -1.3179e+002 -2.5695e+002 -5.2463e+001 26515 110021,110099,110047
 3.6000e+000 110151 -2.3185e+001 -5.2524e+001 -4.4118e+000 26515 109943,109995,109969
 3.6000e+000 110315 -1.2866e+002 -1.1369e+002 -3.7505e+001 26515 110125,110099,110289
 3.6000e+000 110338 -9.2318e+001 -4.2388e+001  1.4572e+001 26515 110125,110289,109943
 3.6000e+000 110387 -9.7544e+001 -1.5454e+002 -4.8064e+001 26515 109995,110289,110361
 3.6000e+000 110410 -1.1925e+002 -1.6387e+002 -4.5752e+001 26515 109995,110361,110021
 3.6000e+000 110609 -2.3068e+001 -1.4164e+002  5.4703e+001 25789 110906,110762,110632
 3.6000e+000 110586 -2.4917e+001 -1.8044e+002  6.4749e+001 25789 110762,110433,110537
 3.6000e+000 110563 -9.4384e+001 -1.7806e+002  1.1341e+002 25789 110834,110459,110433
 3.6000e+000 110658 -4.3595e+001 -1.3487e+002  6.7481e+001 25789 110906,110632,110834
 3.6000e+000 110788 -7.5757e+000 -8.4912e+001  2.8457e+001 25789 110511,110632,110762
 3.6000e+000 110811 -2.8461e+001 -1.3832e+002  6.0314e+001 25789 110511,110762,110537
 3.6000e+000 110860 -3.2139e+001 -1.3976e+002  7.8571e+001 25789 110485,110459,110834
 3.6000e+000 110883 -4.7528e+001 -9.6119e+001  4.9116e+001 25789 110485,110834,110632
 3.6000e+000 110932 -6.1099e+001 -1.5392e+002  5.5437e+001 25789 110433,110762,110906
 3.6000e+000 110955 -7.7464e+001 -1.4322e+002  6.5455e+001 25789 110433,110906,110834
 3.6000e+000 111350 -7.7256e+001 -1.2335e+002  1.0488e+002 25228 111445,111373,111186
 3.6000e+000 111327 -6.6541e+001 -1.3776e+002  2.2960e+001 25228 110978,111186,111004
 3.6000e+000 111304 -9.0405e+001 -1.8907e+002  1.0149e+002 25228 111373,111108,111082
 3.6000e+000 111281 -6.1886e+001 -1.1817e+002  5.0900e+001 25228 111134,111186,111160
 3.6000e+000 111258 -7.8788e+001 -9.4603e+001  6.3830e+001 25228 111445,111186,111134
 3.6000e+000 111235 -8.7294e+001 -6.2498e+001  5.9863e+001 25228 111517,111030,111004
 3.6000e+000 111212 -8.0921e+001 -9.4518e+001  6.1028e+001 25228 111030,111082,111056
 3.6000e+000 111399 -1.0284e+002 -1.5843e+002  9.3419e+001 25228 111004,111186,111373
 3.6000e+000 111422 -7.4345e+001 -8.7293e+001  8.6502e+001 25228 111517,111004,111373
 3.6000e+000 111471 -2.0342e+001 -9.1114e+001  7.0342e+001 25228 111108,111373,111445
 3.6000e+000 111494 -2.1613e+001 -5.8491e+001  2.9111e+001 25228 111108,111445,111134
 3.6000e+000 111543 -1.2681e+002 -7.2137e+001  8.9927e+001 25228 111082,111030,111517
 3.6000e+000 111566 -1.1642e+002 -1.0778e+002  1.1693e+002 25228 111082,111517,111373
 3.6000e+000 112074 -2.1822e+001 -4.1852e+001  3.8172e+000 24338 112097,111907,111881
 3.6000e+000 112051 -2.6029e+001 -3.6451e+001 -1.1479e+001 24338 112097,111881,111829
 3.6000e+000 112028 -1.1600e+001 -4.0926e+001 -1.3500e+001 24338 111829,111881,111855
 3.6000e+000 112005 -3.3127e+001 -6.2461e+001  2.4894e+001 24338 111777,111933,111829
 3.6000e+000 111982 -5.6630e+001 -2.6223e+001  2.2771e+001 24338 111751,111933,111777
 3.6000e+000 111959 -9.2117e+000 -4.1101e+001  1.4204e+001 24338 111777,111829,111803
 3.6000e+000 112123 -3.4226e+001 -8.9945e+001  1.1663e+001 24338 111933,111907,112097
 3.6000e+000 112146 -1.8300e+001 -5.1193e+001 -2.8819e+000 24338 111933,112097,111829
 3.6000e+000 112443 -8.9859e+001 -5.8408e+001  3.4363e+001 23998 112466,112299,112247
 3.6000e+000 112420 -1.0936e+002 -1.2262e+002  3.8559e+001 23998 112466,112247,112221
 3.6000e+000 112397 -7.2811e+001 -1.4313e+002  7.5656e+001 23998 112169,112325,112221
 3.6000e+000 112374 -7.1908e+001 -2.1141e+002  1.0070e+002 23998 112169,112221,112195
 3.6000e+000 112351 -5.3226e+001 -4.0024e+001  4.5215e+001 23998 112247,112299,112273
 3.6000e+000 112492 -9.9242e+001 -6.7517e+001  7.2960e+001 23998 112325,112299,112466
 3.6000e+000 112515 -1.1166e+002 -1.0199e+002  6.7650e+001 23998 112325,112466,112221
 3.6000e+000 113200 -1.4372e+002 -1.6301e+002  1.2375e+002 23480 112779,112961,112805
 3.6000e+000 113177 -1.4521e+002 -1.2495e+002  5.6672e+001 23480 112779,112987,112961
 3.6000e+000 113154 -4.5625e+001 -6.4096e+001  8.4050e+001 23480 112805,112961,112883
 3.6000e+000 113131 -6.8474e+001 -1.3659e+002  8.3118e+001 23480 112883,112935,112909
 3.6000e+000 113108 -1.2147e+002 -9.5994e+001  8.3712e+001 23480 112883,112961,112935
 3.6000e+000 113085 -1.8350e+001 -6.2004e+001  4.0507e+001 23480 112831,112883,112857
 3.6000e+000 113062 -7.4876e+001 -8.1299e+001  6.2172e+001 23480 112805,112883,112831
 3.6000e+000 113039 -1.7367e+002 -1.0461e+002  6.1538e+001 23480 112779,113013,112987
 3.6000e+000 113676 -1.4940e+002 -3.6994e+001  1.2226e+002 23018 113699,113434,113356
 3.6000e+000 113653 -1.1923e+002 -3.7562e+001  5.2788e+001 23018 113771,113699,113356
 3.6000e+000 113630 -9.7406e+001 -9.2527e+001  3.1993e+001 23018 113771,113356,113512
 3.6000e+000 113607 -6.7060e+001 -1.3241e+002  6.3538e+001 23018 113330,113512,113356
 3.6000e+000 113584 -3.2007e+002 -1.3926e+002  1.8379e+002 23018 113356,113434,113382
 3.6000e+000 113561 -3.5231e+001 -1.2230e+002  6.6614e+001 23018 113304,113512,113330
 3.6000e+000 113538 -2.5334e+002  5.6685e+000  5.5770e+001 23018 113382,113434,113408
 3.6000e+000 113725 -1.7315e+002 -9.2969e+001  1.2276e+002 23018 113460,113434,113699
 3.6000e+000 113748 -2.0527e+002 -1.1791e+002  6.5099e+001 23018 113460,113699,113486
 3.6000e+000 113797 -1.7314e+002 -1.1543e+002  7.6981e+001 23018 113486,113699,113771
 3.6000e+000 113820 -1.1949e+002 -1.2651e+002  4.4272e+001 23018 113486,113771,113512
 3.6000e+000 114424 -2.0380e+001 -5.5233e+001 -1.0035e+000 22514 114447,114133,114029
 3.6000e+000 114401 -1.3426e+001 -5.0543e+001 -3.8525e+000 22514 114447,114029,114237
 3.6000e+000 114378  4.0122e+000 -5.7068e+001  6.4516e+000 22514 114133,114211,114185
 3.6000e+000 114355 -2.4987e+000 -4.1853e+001 -1.2470e+001 22514 114133,114185,114159
 3.6000e+000 114332 -2.8404e+000 -5.9677e+001  3.8433e+001 22514 114003,114237,114029
 3.6000e+000 114309 -3.9822e+001 -7.9262e+001 -1.2274e+001 22514 114029,114133,114055
 3.6000e+000 114286 -8.2857e+001 -9.6584e+001  2.6854e+000 22514 114055,114133,114107
 3.6000e+000 114263 -8.3911e+001 -3.5336e+001  4.4116e+001 22514 114055,114107,114081
 3.6000e+000 114473 -1.2240e+001 -5.8630e+001 -3.5355e+000 22514 114211,114133,114447
 3.6000e+000 114496 -6.4888e+000 -5.5793e+001 -5.6698e+000 22514 114211,114447,114237
 3.6000e+000 114597 -6.1236e+001 -1.4429e+002  6.7709e+001 22316 114620,114571,114545
 3.6000e+000 114646 -6.1236e+001 -1.4429e+002  6.7709e+001 22316 114519,114571,114620
 3.6000e+000 115127 -1.4099e+001 -1.0692e+002  1.0752e+001 21612 115150,114905,114879
 3.6000e+000 115104 -2.1203e+001 -5.9899e+001  1.6979e+001 21612 115150,114879,114853
 3.6000e+000 115081 -3.8981e+001 -2.1259e+001  3.6326e+001 21612 115222,114931,114905
 3.6000e+000 115058 -4.9210e+000 -6.9441e+001  3.6534e+001 21612 115222,114905,115009
 3.6000e+000 115035 -8.1991e+001 -1.5168e+002  9.3490e+001 21612 114957,115009,114983
 3.6000e+000 115176 -9.9606e+000 -6.5996e+001  1.4771e+001 21612 115009,114905,115150
 3.6000e+000 115199 -1.2961e+001 -1.2578e+001  1.9788e+001 21612 115009,115150,114853
 3.6000e+000 115248 -6.5350e+001 -4.9765e+001  5.0013e+001 21612 114957,114931,115222
 3.6000e+000 115271 -2.7612e+001 -9.2878e+001  4.8460e+001 21612 114957,115222,115009
 3.6000e+000 115519 -1.4687e+001 -1.5271e+001  1.3694e+001 21208 115542,115372,115320
 3.6000e+000 115496 -5.0291e+000 -9.9078e+000  8.0260e-002 21208 115542,115320,115294
 3.6000e+000 115473 -7.2330e+000 -1.6742e+001  1.3050e+001 21208 115320,115372,115346
 3.6000e+000 115450 -3.4741e+001 -3.2498e+001 -4.4198e+000 21208 115294,115424,115398
 3.6000e+000 115568 -1.8172e+001 -2.2465e+001  1.4452e+001 21208 115398,115372,115542
 3.6000e+000 115591 -1.6852e+001 -3.4585e+001  3.5196e+000 21208 115398,115542,115294
 3.6000e+000 115839 -8.3284e+001 -6.4792e+001  6.1660e+001 20668 115862,115640,115614
 3.6000e+000 115816 -6.0762e+001 -8.3454e+001  5.0416e+001 20668 115862,115614,115744
 3.6000e+000 115793 -3.2525e+000 -1.2866e+001  5.5620e+001 20668 115640,115718,115692
 3.6000e+000 115770 -1.0950e+002 -4.1892e+001  5.1002e+001 20668 115640,115692,115666
 3.6000e+000 115888 -5.8376e+001 -4.3559e+001  7.0619e+001 20668 115718,115640,115862
 3.6000e+000 115911 -4.7639e+001 -7.2604e+001  5.5319e+001 20668 115718,115862,115744
 3.6000e+000 116134 -1.0956e+002 -1.2201e+002  8.8911e+001 20264 115958,116036,115984
 3.6000e+000 116111 -3.5439e+001 -8.4811e+001  7.3483e+001 20264 115958,116062,116036
 3.6000e+000 116088 -5.4800e+001 -1.3130e+002  9.5332e+001 20264 115984,116036,116010
 3.6000e+000 116384 -1.5852e+002 -1.1621e+002  1.1505e+002 19924 116407,116211,116159
 3.6000e+000 116361 -1.4776e+002 -1.9695e+002  1.0272e+002 19924 116407,116159,116263
 3.6000e+000 116338 -1.4515e+002 -6.0620e+001  1.0622e+002 19924 116159,116211,116185
 3.6000e+000 116315 -7.0250e+001 -1.6240e+002  9.5510e+001 19924 116159,116289,116263
 3.6000e+000 116433 -1.5916e+002 -6.9509e+001  1.3017e+002 19924 116237,116211,116407
 3.6000e+000 116456 -1.2239e+002 -1.2533e+002  1.2741e+002 19924 116237,116407,116263
 3.6000e+000 116608 -2.1064e+001 -2.4294e+000  3.6934e+001 19520 116703,116631,116533
 3.6000e+000 116585 -2.1802e+001 -1.9915e+001  2.6149e+001 19520 116631,116507,116481
 3.6000e+000 116657  1.6224e+001 -2.0087e+001  4.7968e+001 19520 116559,116533,116631
 3.6000e+000 116680 -6.7794e+000 -6.2584e+001  3.1747e+001 19520 116559,116631,116481
 3.6000e+000 116729 -2.1064e+001 -2.4294e+000  3.6934e+001 19520 116507,116631,116703
 3.6000e+000 116952 -1.4789e+002 -1.0316e+002  1.6164e+002 19208 116975,116802,116776
 3.6000e+000 116929 -1.7361e+002 -2.0354e+002  9.1381e+001 19208 116975,116776,116880
 3.6000e+000 116906 -1.7779e+002 -7.6505e+001  1.1432e+002 19208 116802,116854,116828
 3.6000e+000 117001 -1.1887e+002 -8.8346e+001  1.6718e+002 19208 116854,116802,116975
 3.6000e+000 117024 -4.6913e+001 -1.1591e+002  1.3349e+002 19208 116854,116975,116880
 3.6000e+000 117428 -9.6721e+001 -3.6755e+001  5.5997e+001 18796 117154,117206,117180
 3.6000e+000 117405 -7.5174e+001 -8.4193e+001  5.8282e+001 18796 117154,117284,117206
 3.6000e+000 117382 -3.3728e+001 -6.3798e+001  6.6756e+001 18796 117154,117310,117284
 3.6000e+000 117359 -5.1073e+001 -5.4809e+001  7.2287e+001 18796 117206,117284,117258
 3.6000e+000 117336 -1.0381e+001 -3.5251e+000  9.8742e+001 18796 117206,117258,117232
 3.6000e+000 117529 -2.5524e+001 -6.8111e-001  9.6135e+000 18228 117810,117552,117477
 3.6000e+000 117578 -1.2609e+002 -4.5463e+001  6.3759e+001 18228 117682,117552,117503
 3.6000e+000 117708 -1.7063e+001  1.6527e+001  4.1359e+000 18228 117477,117552,117682
 3.6000e+000 117836 -6.7676e+001 -4.5475e+001  4.6018e+001 18228 117451,117552,117810
 3.6000e+000 118364 -7.9154e+001 -2.7050e+001  3.4706e+001 17722 118067,118223,118093
 3.6000e+000 118341 -8.3512e+001 -1.3036e+001  2.6928e+001 17722 118041,118223,118067
 3.6000e+000 118318 -5.1054e+001 -6.1803e+001  3.8314e+001 17722 118093,118223,118197
 3.6000e+000 118295 -2.9749e+002 -2.7701e+002  1.7005e+002 17722 118119,118197,118171
 3.6000e+000 118272 -1.3316e+001 -1.0386e+000  5.6418e+001 17722 118093,118197,118119
 3.6000e+000 118249 -2.7395e+002 -4.2471e+001  9.5348e+001 17722 118119,118171,118145
 3.6000e+000 118514 -2.1657e+002 -9.0508e+001  8.2682e+001 17268 118387,118439,118413
 3.6000e+000 118491 -3.0013e+001 -1.2641e+002  1.1336e+002 17268 118387,118465,118439
 3.6000e+000 118916  6.9243e-001  9.9221e+000  8.9251e+000 16828 118668,118772,118694
 3.6000e+000 118893  2.0875e+001  3.2819e+000  4.1267e+000 16828 118668,118798,118772
 3.6000e+000 118870  2.3687e+001 -5.4284e+000 -7.0398e+000 16828 118642,118798,118668
 3.6000e+000 118847 -3.0559e+001 -9.5130e+000  6.6932e+001 16828 118694,118746,118720
 3.6000e+000 118824 -3.1601e+001 -5.8786e+001  1.8973e+001 16828 118694,118772,118746
 3.6000e+000 119316  5.2757e+000 -4.5290e+000  2.5885e+001 16422 119042,119172,119094
 3.6000e+000 119293 -2.0317e+001 -6.9569e+000  2.9626e+001 16422 119042,119198,119172
 3.6000e+000 119270 -4.8831e+001 -1.1638e+001  9.3212e+000 16422 119042,119094,119068
 3.6000e+000 119247  3.1364e+001  2.3420e+001  1.5057e+001 16422 119094,119146,119120
 3.6000e+000 119224  1.8598e+001  2.1419e+001  3.0799e+001 16422 119094,119172,119146
 3.6000e+000 119466  1.2155e+001  1.6919e+001 -3.9813e+000 16010 119339,119391,119365
 3.6000e+000 119443  3.2098e-001  7.5368e+000  1.6598e+000 16010 119339,119417,119391
 3.6000e+000 119616 -8.0222e+000  4.6997e+000  2.0577e+001 15547 119515,119567,119541
 3.6000e+000 119593  5.8202e+001  1.2199e+002  1.8593e+002 15547 119489,119567,119515
 3.6000e+000 119719 -2.5329e+002 -1.0576e+002  9.3014e+001 421 119641,119693,119667
 3.7000e+000 69562 -2.9028e+002 -1.1855e+002 -1.9487e+000 69254 69484,69536,69510
 3.7000e+000 70009 -9.9237e+001 -1.1328e+002  7.8177e+001 68942 69686,69842,69816
 3.7000e+000 69986 -1.0439e+002 -9.8126e+001  1.4989e+001 68942 69686,69868,69842
 3.7000e+000 69963 -1.5504e+002 -6.6025e+001  6.7741e+001 68942 69686,69816,69712
 3.7000e+000 69940 -1.5778e+002 -6.9021e+001  9.9888e+001 68942 69712,69790,69738
 3.7000e+000 69917 -2.2295e+002 -2.2338e+002  7.3843e+001 68942 69712,69816,69790
 3.7000e+000 69894 -1.0961e+002 -1.2531e+002  2.1216e+001 68942 69738,69790,69764
 3.7000e+000 70110 -3.3243e+002 -1.3964e+002  4.1217e+001 68766 70032,70084,70058
 3.7000e+000 70746 -3.1640e+002 -1.1570e+002  6.0461e+001 68448 70400,70556,70426
 3.7000e+000 70723 -2.9423e+002 -1.2481e+002  6.1303e+001 68448 70374,70556,70400
 3.7000e+000 70700 -2.6939e+002 -7.9459e+001  2.3806e+001 68448 70426,70556,70478
 3.7000e+000 70677 -2.4372e+002 -7.2303e+001  2.7685e+001 68448 70478,70556,70504
 3.7000e+000 70654 -3.2444e+002 -1.3696e+002  5.0055e+001 68448 70426,70478,70452
 3.7000e+000 70631 -2.6669e+002 -5.4259e+001  6.8559e+001 68448 70374,70582,70556
 3.7000e+000 70608 -2.2316e+002 -4.5460e+001  4.6100e+001 68448 70504,70556,70530
 3.7000e+000 70896 -3.5985e+002 -1.3949e+002 -2.6235e+001 68250 70795,70847,70821
 3.7000e+000 70873 -4.1480e+002 -1.7115e+002 -4.1843e+000 68250 70769,70847,70795
 3.7000e+000 70997 -4.1664e+002 -1.8069e+002  1.5168e+002 68052 70919,70971,70945
 3.7000e+000 71367 -1.4783e+002 -2.0668e+002  5.5691e+001 67740 71096,71226,71200
 3.7000e+000 71344 -1.0036e+002 -1.3922e+002  7.6567e+001 67740 71044,71226,71096
 3.7000e+000 71321  2.0680e+000 -2.0680e+000  1.3817e+002 67740 71044,71096,71070
 3.7000e+000 71298 -9.5540e+001 -2.0666e+002  1.2838e+002 67740 71096,71200,71174
 3.7000e+000 71275 -6.0926e+001 -1.4126e+002  3.2746e+001 67740 71096,71148,71122
 3.7000e+000 71252 -7.5408e+001 -1.4552e+002  7.2734e+001 67740 71096,71174,71148
 3.7000e+000 71519  3.2054e+001  1.6265e+001  4.2756e+001 67542 71418,71470,71444
 3.7000e+000 71496  6.9525e+001  1.5567e+002  1.3493e+002 67542 71392,71470,71418
 3.7000e+000 71923 -4.2207e+001 -1.6237e+001  5.3037e+001 67230 71649,71779,71675
 3.7000e+000 71900 -3.6726e+001 -5.1688e+001  4.3573e+001 67230 71649,71805,71779
 3.7000e+000 71877 -4.5402e+001 -1.9940e+001  9.0315e+001 67230 71675,71727,71701
 3.7000e+000 71854 -5.7506e+001 -1.3066e+002  9.5257e+001 67230 71675,71753,71727
 3.7000e+000 71831 -5.4052e+001 -8.4943e+001  6.7821e+001 67230 71675,71779,71753
 3.7000e+000 72433 -1.7713e+002 -7.0475e+001  5.3128e+001 67032 72038,72246,72220
 3.7000e+000 72410 -6.3735e+001 -2.5755e+001  5.7884e+001 67032 72012,72246,72038
 3.7000e+000 72387 -2.2653e+002 -1.2687e+002  5.9386e+001 67032 72064,72194,72168
 3.7000e+000 72364 -2.1461e+002 -9.0251e+001  5.4041e+001 67032 72038,72194,72064
 3.7000e+000 72341 -2.0049e+002 -1.2437e+002  7.9083e+001 67032 72038,72220,72194
 3.7000e+000 72318 -1.1590e+002 -3.5860e+001  5.6030e+001 67032 72090,72168,72142
 3.7000e+000 72295 -1.7144e+002 -7.5863e+001  1.2694e+002 67032 72064,72168,72090
 3.7000e+000 72272 -1.1799e+002 -4.8507e+001  5.0503e+001 67032 72090,72142,72116
 3.7000e+000 72933 -1.0552e+002 -8.7385e+001  9.3578e+001 66628 72956,72665,72613
 3.7000e+000 72910 -1.2257e+002 -1.0189e+002  8.6941e+001 66628 73100,72956,72613
 3.7000e+000 72887 -8.7636e+001 -1.1854e+002  6.8487e+001 66628 73028,72691,72665
 3.7000e+000 72864 -1.2511e+002 -1.0692e+002  8.4168e+001 66628 73100,72613,72587
 3.7000e+000 72841 -9.2176e+001 -7.9159e+001  6.4752e+001 66628 72613,72665,72639
 3.7000e+000 72818 -5.9309e+001 -2.7647e+001  1.1829e+002 66628 72587,72769,72743
 3.7000e+000 72795 -1.5981e+002 -2.6668e+002  3.6581e+001 66628 72561,72769,72587
 3.7000e+000 72982 -1.0066e+002 -9.7649e+001  9.4100e+001 66628 73028,72665,72956
 3.7000e+000 73005 -1.0751e+002 -4.6645e+001  9.1085e+001 66628 72717,72956,72743
 3.7000e+000 73054 -1.3614e+002 -1.2025e+002  5.3667e+001 66628 72717,72691,73028
 3.7000e+000 73077 -1.4267e+002 -1.1040e+002  7.6974e+001 66628 72717,73028,72956
 3.7000e+000 73126 -1.1841e+002 -1.0032e+002  9.3013e+001 66628 72743,72956,73100
 3.7000e+000 73149 -1.2171e+002 -1.0476e+002  9.0164e+001 66628 72743,73100,72587
 3.7000e+000 73606 -1.3360e+002 -1.1206e+002  1.1674e+002 66281 73332,73384,73358
 3.7000e+000 73583 -1.7771e+002 -1.1529e+002  7.6507e+001 66281 73332,73462,73384
 3.7000e+000 73560 -1.9131e+002 -1.0095e+002  8.5334e+001 66281 73384,73462,73436
 3.7000e+000 73537 -2.7090e+002 -1.8834e+002  1.1177e+002 66281 73332,73488,73462
 3.7000e+000 73514 -2.0808e+002 -9.9767e+001  4.4262e+001 66281 73384,73436,73410
 3.7000e+000 73984 -1.9400e+002 -5.1659e+001  3.9481e+001 65969 73736,73814,73788
 3.7000e+000 73961 -1.0550e+002 -4.3993e+001  6.9933e+001 65969 73736,73866,73814
 3.7000e+000 73938 -8.9935e+001 -5.0864e+001  5.3420e+001 65969 73814,73866,73840
 3.7000e+000 73915 -1.4083e+002 -7.6402e+001  5.6446e+001 65969 73710,73866,73736
 3.7000e+000 73892 -1.9903e+002 -2.1407e+001  5.7930e+001 65969 73736,73788,73762
 3.7000e+000 74232 -1.5383e+002 -9.4694e+001  1.0048e+002 65572 74255,74085,74033
 3.7000e+000 74209 -1.5390e+002 -9.0537e+001  1.0453e+002 65572 74327,74255,74033
 3.7000e+000 74186 -1.5325e+002 -9.6107e+001  1.0447e+002 65572 74327,74033,74007
 3.7000e+000 74163 -1.4161e+002 -9.6674e+001  1.0134e+002 65572 74033,74085,74059
 3.7000e+000 74281 -1.5274e+002 -8.9563e+001  1.0238e+002 65572 74111,74085,74255
 3.7000e+000 74304 -1.4742e+002 -8.5238e+001  1.1062e+002 65572 74111,74255,74137
 3.7000e+000 74353 -1.5421e+002 -9.7201e+001  1.0685e+002 65572 74137,74255,74327
 3.7000e+000 74376 -1.5238e+002 -1.0147e+002  1.0654e+002 65572 74137,74327,74007
 3.7000e+000 74884 -1.3403e+002 -9.7497e+001  8.4734e+001 65174 74587,74717,74613
 3.7000e+000 74861 -1.7699e+002 -1.2804e+002  6.4101e+001 65174 74561,74717,74587
 3.7000e+000 74838 -1.2370e+002 -1.1686e+002  5.0722e+001 65174 74613,74691,74639
 3.7000e+000 74815 -1.3445e+002 -1.0747e+002  8.2759e+001 65174 74613,74717,74691
 3.7000e+000 74792 -5.7896e+001 -1.3303e+002  5.8662e+001 65174 74639,74691,74665
 3.7000e+000 74769 -2.6507e+002 -4.8540e+001  6.6935e+001 65174 74561,74743,74717
 3.7000e+000 75412 -3.3602e+000 -1.7119e+001  1.5890e+002 64770 75167,75245,75219
 3.7000e+000 75389 -8.5315e+001 -1.2635e+002  1.0841e+002 64770 75115,75245,75167
 3.7000e+000 75366 -6.8637e+001 -1.5834e+002  1.4034e+002 64770 75089,75245,75115
 3.7000e+000 75343 -1.3514e+002 -3.5273e+001  1.1323e+002 64770 75167,75219,75193
 3.7000e+000 75320 -6.9502e+001 -9.0130e+001  1.1221e+002 64770 75115,75167,75141
 3.7000e+000 75297 -9.7961e+001 -2.3590e+002  1.4165e+002 64770 75089,75271,75245
 3.7000e+000 75861 -3.6471e+002 -1.4969e+002  6.4763e+001 64316 75538,75694,75564
 3.7000e+000 75838 -3.4187e+002 -1.4312e+002  2.2692e+001 64316 75538,75720,75694
 3.7000e+000 75815 -2.5145e+002 -1.2290e+002  6.0242e+001 64316 75590,75694,75642
 3.7000e+000 75792 -2.6309e+002 -1.8300e+002  6.9899e+001 64316 75564,75694,75590
 3.7000e+000 75769 -1.4810e+002 -1.7952e+002  3.7532e+001 64316 75590,75642,75616
 3.7000e+000 75746 -1.8310e+002 -7.5515e+001  3.4040e+001 64316 75642,75694,75668
 3.7000e+000 76239 -2.3193e+002 -1.5868e+002  9.0692e+001 64018 76262,76095,76043
 3.7000e+000 76216 -2.0127e+002 -1.6696e+002  8.4011e+001 64018 76262,76043,76017
 3.7000e+000 76193 -1.4035e+002 -7.2405e+001  5.3583e+001 64018 75991,76121,76017
 3.7000e+000 76170 -2.2131e+002 -1.0600e+002  1.2388e+002 64018 76043,76095,76069
 3.7000e+000 76147  6.2921e+000 -5.3357e+001  1.6456e+001 64018 75965,76121,75991
 3.7000e+000 76288 -2.0565e+002 -1.5844e+002  1.0647e+002 64018 76121,76095,76262
 3.7000e+000 76311 -1.8098e+002 -1.7290e+002  9.5074e+001 64018 76121,76262,76017
 3.7000e+000 76866 -8.2977e+001 -7.5097e+001  8.6827e+001 63728 76520,76676,76546
 3.7000e+000 76843 -7.1366e+001 -7.9732e+001  5.7862e+001 63728 76520,76702,76676
 3.7000e+000 76820 -7.5837e+001 -8.7258e+001  9.2171e+001 63728 76546,76650,76572
 3.7000e+000 76797 -1.1690e+002 -1.2084e+002  7.1952e+001 63728 76546,76676,76650
 3.7000e+000 76774 -1.2000e+002 -7.8180e+000  4.1428e+001 63728 76572,76650,76624
 3.7000e+000 76751 -6.3971e+001 -6.1800e+001  6.2775e+001 63728 76494,76702,76520
 3.7000e+000 76728 -2.7809e+001 -4.6737e+001  3.5389e+001 63728 76572,76624,76598
 3.7000e+000 77065 -2.0274e+002 -6.9099e+001  4.3557e+001 63288 77088,76941,76915
 3.7000e+000 77042 -2.1246e+002 -7.6589e+001  5.0471e+001 63288 77088,76915,76993
 3.7000e+000 77019 -1.7262e+002 -1.0486e+002  3.7794e+001 63288 76889,76993,76915
 3.7000e+000 77114 -1.8732e+002 -6.7030e+001  5.1644e+001 63288 76967,76941,77088
 3.7000e+000 77137 -2.5131e+002 -9.8026e+001  2.2502e+001 63288 77160,77088,76993
 3.7000e+000 77186 -1.2989e+002 -5.1171e+001  3.5808e+001 63288 76967,77088,77160
 3.7000e+000 77417 -1.9037e+002 -1.1860e+002  1.0397e+002 62884 77440,77342,77316
 3.7000e+000 77394 -3.1100e+002 -1.4865e+002  5.7720e+001 62884 77770,77440,77316
 3.7000e+000 77466 -2.2314e+002 -1.3927e+002  2.3134e+001 62884 77512,77440,77368
 3.7000e+000 77489 -2.1175e+002 -9.2477e+001  2.6814e+001 62884 77642,77440,77290
 3.7000e+000 77538 -1.7785e+002 -1.6033e+002  3.3856e+001 62884 77342,77440,77512
 3.7000e+000 77668 -2.5698e+002 -1.7665e+002  4.6029e+000 62884 77368,77440,77642
 3.7000e+000 77796 -1.7632e+002 -7.0111e+001  1.2584e+001 62884 77290,77440,77770
 3.7000e+000 78479 -3.6081e+002 -2.0539e+002  1.0951e+002 62480 78084,78240,78214
 3.7000e+000 78456 -3.2524e+002 -1.9998e+002  4.2180e+001 62480 78084,78266,78240
 3.7000e+000 78433 -3.5680e+002 -1.4503e+002  8.7122e+001 62480 78110,78214,78136
 3.7000e+000 78410 -3.0697e+002 -1.2452e+002  7.9961e+001 62480 78084,78214,78110
 3.7000e+000 78387 -2.7738e+002 -1.8002e+002  9.1065e+001 62480 78136,78214,78188
 3.7000e+000 78364 -2.8185e+002 -2.3013e+002  3.8676e+001 62480 78058,78266,78084
 3.7000e+000 78341 -3.7157e+002 -1.9600e+002 -1.2574e+000 62480 78136,78188,78162
 3.7000e+000 78318 -3.5361e+002 -2.5067e+002  1.9350e+001 62480 78058,78292,78266
 3.7000e+000 78678 -1.6922e+002 -2.3722e+002  9.3243e+001 61926 78528,78606,78554
 3.7000e+000 78655 -1.0186e+002 -2.0643e+002  1.2533e+002 61926 78502,78606,78528
 3.7000e+000 78632 -1.2748e+002 -1.3856e+002  9.1023e+001 61926 78554,78606,78580
 3.7000e+000 79058 -1.4599e+002 -1.1413e+002  7.5173e+001 61614 78836,78914,78862
 3.7000e+000 79035 -2.1673e+002 -1.5708e+002  5.6884e+001 61614 78810,78914,78836
 3.7000e+000 79012 -1.3802e+002 -1.2111e+002  7.5858e+001 61614 78784,78914,78810
 3.7000e+000 78989 -1.4064e+002 -1.3367e+002  1.1009e+002 61614 78862,78914,78888
 3.7000e+000 78966 -1.5960e+002 -1.3844e+002  8.3291e+001 61614 78784,78940,78914
 3.7000e+000 79208 -9.5337e+001 -2.2046e+002 -7.0251e+000 61366 79081,79133,79107
 3.7000e+000 79185 -7.3890e+001 -1.2010e+002  3.1508e+001 61366 79081,79159,79133
 3.7000e+000 79358  1.6910e+001  7.1795e-001  7.2615e+000 60962 79231,79283,79257
 3.7000e+000 79335 -5.3583e+001 -1.2546e+002  3.5228e+001 60962 79231,79309,79283
 3.7000e+000 79608 -7.9655e+001 -1.4659e+002  3.9364e+001 60508 79631,79435,79409
 3.7000e+000 79585 -5.5519e+001 -1.5201e+002  1.8484e+001 60508 79703,79631,79409
 3.7000e+000 79562 -6.8801e+001 -9.7785e+001  2.1726e+001 60508 79703,79409,79383
 3.7000e+000 79539 -1.5379e+002 -9.8046e+001  9.3939e+001 60508 79435,79487,79461
 3.7000e+000 79657 -9.6701e+001 -1.8609e+002  8.3764e+001 60508 79487,79435,79631
 3.7000e+000 79680 -3.9319e+001 -1.4346e+002  4.1070e+001 60508 79487,79631,79513
 3.7000e+000 79729 -3.2093e+001 -1.0004e+002  2.1890e+000 60508 79513,79631,79703
 3.7000e+000 79752 -4.9903e+001 -8.8012e+001 -8.2468e+000 60508 79513,79703,79383
 3.7000e+000 80390 -1.3503e+002 -1.1569e+002  1.0475e+002 59997 80413,80096,80018
 3.7000e+000 80367 -2.2930e+002 -1.3982e+002  1.2773e+002 59997 80413,80018,80226
 3.7000e+000 80344 -1.0007e+002 -7.3020e+001  5.9954e+001 59997 80096,80174,80148
 3.7000e+000 80321 -3.6059e+002 -1.8948e+002  1.4295e+002 59997 80018,80096,80070
 3.7000e+000 80298 -1.1499e+002 -1.1026e+002  4.1540e+001 59997 80096,80148,80122
 3.7000e+000 80275 -1.2230e+002 -9.1576e+001  1.1037e+002 59997 80174,80226,80200
 3.7000e+000 80252 -3.3534e+002 -1.3531e+002  1.3501e+002 59997 80018,80070,80044
 3.7000e+000 80439 -1.0694e+002 -1.2777e+002  7.7612e+001 59997 80174,80096,80413
 3.7000e+000 80462 -1.4553e+002 -9.7465e+001  8.9420e+001 59997 80174,80413,80226
 3.7000e+000 80840 -1.3509e+002 -1.1695e+002  5.7566e+001 59443 80863,80644,80618
 3.7000e+000 80817 -5.9004e+001 -8.5391e+001  7.0010e+001 59443 80863,80618,80566
 3.7000e+000 80794 -5.9789e+001 -7.1895e+001  7.9633e+001 59443 81007,80935,80670
 3.7000e+000 80771 -8.3965e+001 -8.3734e+001  7.6735e+001 59443 80566,80722,80696
 3.7000e+000 80748 -8.6061e+001 -1.3369e+002  9.0508e+001 59443 80566,80618,80592
 3.7000e+000 80889 -1.4884e+002 -9.7097e+001  8.8505e+001 59443 80935,80644,80863
 3.7000e+000 80912 -1.0642e+002 -9.3508e+001  7.9439e+001 59443 80696,80863,80566
 3.7000e+000 80961 -9.4707e+001 -8.0816e+001  9.1521e+001 59443 80696,80670,80935
 3.7000e+000 80984 -9.2374e+001 -7.3624e+001  8.5992e+001 59443 80696,80935,80863
 3.7000e+000 81033 -1.2165e+002 -1.2557e+002  1.0876e+002 59443 80644,80935,81007
 3.7000e+000 81360 -1.9116e+002 -7.5994e+001  3.8131e+001 59031 81383,81187,81161
 3.7000e+000 81337 -1.4199e+002 -8.4429e+001 -6.1769e+000 59031 81455,81383,81161
 3.7000e+000 81314 -9.7437e+001 -8.2144e+001  1.4102e+000 59031 81455,81161,81135
 3.7000e+000 81291 -2.9591e+002 -1.1929e+002  6.2099e+001 59031 81187,81239,81213
 3.7000e+000 81409 -2.0323e+002 -1.3729e+002  6.8941e+001 59031 81239,81187,81383
 3.7000e+000 81432 -2.0424e+002 -1.1440e+002  7.8612e+000 59031 81239,81383,81265
 3.7000e+000 81481 -1.9163e+002 -6.9462e+001  8.8775e+000 59031 81265,81383,81455
 3.7000e+000 81504 -1.6577e+002 -8.0804e+001  8.2922e+000 59031 81265,81455,81135
 3.7000e+000 81835 -2.5941e+001 -4.0208e+001  4.6673e+001 58577 81610,81714,81636
 3.7000e+000 81812 -3.0143e+001 -7.5648e+001  5.8312e+001 58577 81610,81740,81714
 3.7000e+000 81789 -8.1759e+001 -6.3622e+001  3.8811e+000 58577 81636,81714,81688
 3.7000e+000 81766 -9.1324e+001 -1.0602e+002 -4.2002e+001 58577 81636,81688,81662
 3.7000e+000 81985 -2.4434e+001 -5.7505e+001  3.7226e+001 58030 81884,81936,81910
 3.7000e+000 81962 -4.4386e+001 -1.7599e+001  2.7629e+001 58030 81858,81936,81884
 3.7000e+000 82414 -2.2290e+001 -3.3938e+000  2.5894e+001 57690 82437,82169,82117
 3.7000e+000 82391 -2.7547e+001 -3.2656e+001  3.0442e+001 57690 82437,82117,82247
 3.7000e+000 82368  1.1479e+001  2.4751e+001  7.3698e+001 57690 82195,82247,82221
 3.7000e+000 82345 -2.3074e+001 -3.0632e+001  3.1680e+001 57690 82091,82247,82117
 3.7000e+000 82322 -3.6321e+001 -8.8266e+000  1.7545e+001 57690 82117,82169,82143
 3.7000e+000 82299 -2.6052e+001 -5.7252e+001  4.4337e+001 57690 82091,82273,82247
 3.7000e+000 82463 -3.2386e+001  9.6624e+000  3.9224e+001 57690 82195,82169,82437
 3.7000e+000 82486 -3.4447e+001 -1.2520e+001  3.8819e+001 57690 82195,82437,82247
 3.7000e+000 83041 -1.2186e+002 -7.9330e+001  7.1210e+001 57172 83064,82721,82695
 3.7000e+000 83018 -1.3053e+002 -8.6919e+001  8.9342e+001 57172 83064,82695,82851
 3.7000e+000 82995 -2.8854e+002 -1.3496e+002  1.2065e+002 57172 82669,82851,82695
 3.7000e+000 82972 -1.6970e+002 -8.2087e+001  9.5384e+001 57172 82773,82851,82825
 3.7000e+000 82949 -1.5619e+002 -8.2051e+001  1.0958e+002 57172 82773,82825,82799
 3.7000e+000 82926 -1.2850e+002 -6.8445e+001  6.3430e+001 57172 82721,82773,82747
 3.7000e+000 82903 -3.5050e+002 -1.5498e+002  1.9848e+002 57172 82669,82877,82851
 3.7000e+000 83090 -1.5055e+002 -9.1985e+001  7.3298e+001 57172 82773,82721,83064
 3.7000e+000 83113 -1.3942e+002 -9.0846e+001  9.0084e+001 57172 82773,83064,82851
 3.7000e+000 83747 -9.7720e+001 -7.1019e+001  4.9512e+001 56554 83770,83427,83401
 3.7000e+000 83724 -9.1227e+001 -8.8895e+001  5.7832e+001 56554 83842,83770,83401
 3.7000e+000 83701 -2.0509e+001 -7.2475e+001  2.5496e+001 56554 83842,83401,83583
 3.7000e+000 83678 -1.7599e+002 -1.1773e+002  1.1426e+002 56554 83914,83531,83505
 3.7000e+000 83655 -1.3283e+002 -1.1091e+002  6.5498e+001 56554 83531,83583,83557
 3.7000e+000 83632 -2.8213e+001 -5.9025e+001  2.3156e+001 56554 83375,83583,83401
 3.7000e+000 83609 -9.3111e+001 -5.6960e+001  5.3905e+001 56554 83427,83479,83453
 3.7000e+000 83796 -8.8747e+001 -5.6109e+001  5.5748e+001 56554 83479,83427,83770
 3.7000e+000 83819 -9.9720e+001 -6.8626e+001  6.0514e+001 56554 83479,83770,83505
 3.7000e+000 83868 -7.0708e+001 -5.3292e+001  6.7951e+001 56554 83505,83770,83842
 3.7000e+000 83891 -1.2366e+002 -8.4442e+001  8.1343e+001 56554 83914,83505,83842
 3.7000e+000 83940 -9.3908e+001 -1.1501e+002  7.3829e+001 56554 83583,83531,83914
 3.7000e+000 83963 -4.7249e+001 -1.1251e+002  5.6198e+001 56554 83583,83914,83842
 3.7000e+000 84341 -2.0277e+002 -2.2346e+002  7.2326e+001 56192 84067,84145,84119
 3.7000e+000 84318 -2.0665e+002 -1.6808e+002  7.0494e+001 56192 84067,84223,84145
 3.7000e+000 84295 -1.9895e+002 -1.3460e+002  5.1876e+001 56192 84145,84223,84197
 3.7000e+000 84272 -2.0347e+002 -8.9473e+001  8.6027e+000 56192 84067,84119,84093
 3.7000e+000 84249 -1.3057e+002 -7.2347e+001  7.8628e+001 56192 84145,84197,84171
 3.7000e+000 84611 -5.3043e+001 -1.2381e+002  3.1492e+001 55538 84386,84490,84412
 3.7000e+000 84588 -3.7711e+001 -8.4067e+001  1.8754e+001 55538 84386,84516,84490
 3.7000e+000 84565 -8.4671e+001 -1.3820e+002  2.7692e+001 55538 84412,84490,84464
 3.7000e+000 84542 -6.3351e+001 -1.4748e+002  1.2457e+001 55538 84412,84464,84438
 3.7000e+000 84942 -1.5967e+002 -1.0382e+002  8.3831e+001 55084 84769,84847,84795
 3.7000e+000 84919 -1.5176e+002 -1.0501e+002  8.0589e+001 55084 84717,84847,84769
 3.7000e+000 84896 -1.8037e+002 -1.9392e+002  8.6308e+001 55084 84717,84769,84743
 3.7000e+000 84873 -1.5884e+002 -5.2339e+001  7.9350e+001 55084 84795,84847,84821
 3.7000e+000 85271 -2.7687e+001 -2.3079e+001  3.4839e+001 54580 85294,85098,85072
 3.7000e+000 85248 -1.0675e+002 -5.3650e+001  5.2238e+001 54580 85294,85072,85176
 3.7000e+000 85225 -1.4187e+002 -2.8944e+000  1.9022e+001 54580 85124,85176,85150
 3.7000e+000 85202 -3.1389e+001 -4.2038e+001  2.5379e+001 54580 85046,85176,85072
 3.7000e+000 85320 -9.7064e+001 -2.6083e+001  4.3593e+001 54580 85124,85098,85294
 3.7000e+000 85343 -1.3753e+002 -2.5710e+001  5.4968e+001 54580 85124,85294,85176
 3.7000e+000 85542 -8.2745e+001 -1.4004e+002  5.6366e+001 53976 85565,85444,85418
 3.7000e+000 85519 -9.0827e+001 -1.1842e+002  4.4466e+001 53976 85565,85418,85366
 3.7000e+000 85496 -7.1433e+001 -1.2421e+002  7.7416e+000 53976 85366,85418,85392
 3.7000e+000 85591 -8.6720e+001 -1.3309e+002  3.7762e+001 53976 85470,85444,85565
 3.7000e+000 85614 -7.4202e+001 -7.5354e+001  2.7729e+001 53976 85470,85565,85366
 3.7000e+000 85960 -1.3205e+002 -1.5587e+002  9.0519e+000 53572 85663,85715,85689
 3.7000e+000 85937 -1.1686e+002 -1.2329e+002  4.8552e+001 53572 85983,85715,85663
 3.7000e+000 85914 -1.2538e+002 -1.2959e+002  5.1298e+001 53572 86055,85983,85663
 3.7000e+000 85891 -1.1906e+002 -1.2760e+002  6.0873e+001 53572 86055,85663,85637
 3.7000e+000 85868 -1.9932e+002 -2.1019e+002  1.0207e+002 53572 85637,85793,85767
 3.7000e+000 85845 -1.9818e+002 -8.6311e+001  6.2842e+001 53572 85637,85819,85793
 3.7000e+000 86009 -1.2111e+002 -1.2633e+002  4.7066e+001 53572 85741,85715,85983
 3.7000e+000 86032 -1.2519e+002 -1.1784e+002  4.8384e+001 53572 85741,85983,85767
 3.7000e+000 86081 -1.1579e+002 -1.0987e+002  5.4076e+001 53572 85767,85983,86055
 3.7000e+000 86104 -1.1405e+002 -1.1816e+002  6.2679e+001 53572 85767,86055,85637
 3.7000e+000 86693 -3.0001e+002 -9.5065e+001  1.2166e+002 52946 86474,86526,86500
 3.7000e+000 86670 -1.9073e+002 -1.1136e+002  5.7237e+001 52946 86396,86526,86474
 3.7000e+000 86647 -2.5434e+002 -2.4402e+002  1.0911e+002 52946 86370,86526,86396
 3.7000e+000 86624 -8.0020e+001 -8.6895e+001  1.4141e+001 52946 86422,86474,86448
 3.7000e+000 86601 -1.9242e+002 -6.5781e+001  3.8750e+001 52946 86396,86474,86422
 3.7000e+000 86578 -2.0153e+002 -1.0583e+002  1.0932e+002 52946 86370,86552,86526
 3.7000e+000 87376 -1.8784e+002 -1.4499e+002  4.6736e+001 52420 87007,87085,87033
 3.7000e+000 87353 -1.5567e+002 -1.3451e+002  4.8036e+001 52420 87007,87163,87085
 3.7000e+000 87330 -1.4776e+002 -1.2802e+002  5.1160e+001 52420 87007,87189,87163
 3.7000e+000 87307 -1.5242e+002 -1.1810e+002  6.1139e+001 52420 87033,87085,87059
 3.7000e+000 87284 -1.6859e+002 -1.2864e+002  2.0089e+001 52420 87085,87137,87111
 3.7000e+000 87261 -1.4016e+002 -1.4606e+002  1.5949e+001 52420 87085,87163,87137
 3.7000e+000 87238 -1.2014e+002 -1.1871e+002  8.9585e+001 52420 86955,87189,87007
 3.7000e+000 87215 -8.5993e+001 -1.0457e+002  3.0285e+001 52420 86955,87007,86981
 3.7000e+000 87624 -9.6138e+001 -1.5139e+002  1.1003e+001 51916 87451,87503,87477
 3.7000e+000 87601 -1.1296e+002 -1.6447e+002  3.6302e+000 51916 87425,87503,87451
 3.7000e+000 87578 -6.9896e+001 -1.3629e+002  1.6489e+001 51916 87425,87529,87503
 3.7000e+000 87555 -5.9254e+001 -1.3628e+002  2.6787e+001 51916 87399,87529,87425
 3.7000e+000 88053 -1.3026e+002 -9.1837e+001  4.7121e+001 51568 87782,87834,87808
 3.7000e+000 88030 -1.5592e+002 -1.2099e+002  5.5123e+001 51568 88076,87782,87886
 3.7000e+000 88007 -1.5914e+002 -1.2901e+002  5.2368e+001 51568 88076,87886,87860
 3.7000e+000 87984 -1.6537e+002 -1.5094e+002  5.0147e+001 51568 87756,87886,87782
 3.7000e+000 87961 -1.1957e+002 -1.2134e+002  9.6722e+001 51568 87756,87912,87886
 3.7000e+000 87938 -1.4087e+002 -1.1202e+002  8.8877e+001 51568 87730,87912,87756
 3.7000e+000 88102 -1.5617e+002 -1.1663e+002  5.9036e+001 51568 87834,87782,88076
 3.7000e+000 88125 -1.5699e+002 -1.2171e+002  5.6623e+001 51568 87834,88076,87860
 3.7000e+000 88324 -8.9580e+001 -7.8799e+001  4.3147e+001 51164 88419,88347,88200
 3.7000e+000 88301 -5.8577e+001 -7.8998e+001  4.3365e+001 51164 88347,88148,88252
 3.7000e+000 88278 -1.0932e+002 -9.5092e+001  2.5874e+001 51164 88419,88200,88174
 3.7000e+000 88373 -5.8733e+001 -9.0587e+001  4.7626e+001 51164 88226,88200,88347
 3.7000e+000 88396 -4.1558e+000 -7.5725e+001  3.8451e+001 51164 88226,88347,88252
 3.7000e+000 88445 -6.8818e+001 -7.0086e+001  5.0140e+001 51164 88148,88347,88419
 3.7000e+000 88468 -6.8491e+001 -6.6880e+001  3.8557e+001 51164 88148,88419,88174
 3.7000e+000 88738 -6.8307e+001 -9.8290e+001  2.5452e+001 50560 88513,88617,88539
 3.7000e+000 88715 -4.7472e+001 -1.1089e+002  1.8063e+001 50560 88513,88643,88617
 3.7000e+000 88692 -3.4030e+001 -1.4703e+000  2.3093e+001 50560 88539,88591,88565
 3.7000e+000 88669 -2.9149e+001 -6.8656e+001  3.8550e+001 50560 88539,88617,88591
 3.7000e+000 88939 -9.5752e+001 -5.6401e+001  3.9418e+001 50106 88962,88789,88763
 3.7000e+000 88916 -8.1240e+001 -8.3079e+001  3.5770e+001 50106 88962,88763,88841
 3.7000e+000 88893 -8.4508e+001 -8.8877e+001  5.3158e+001 50106 88763,88867,88841
 3.7000e+000 88988 -7.9727e+001 -6.0503e+001  3.2763e+001 50106 88815,88789,88962
 3.7000e+000 89011 -8.9300e+001 -6.3705e+001  4.1920e+001 50106 89034,88962,88841
 3.7000e+000 89060 -4.5309e+001 -3.0321e+001  9.9168e+000 50106 88815,88962,89034
 3.7000e+000 89472 -8.4007e+001 -9.1211e+001  4.3632e+001 49666 89273,89351,89325
 3.7000e+000 89449 -6.6552e+001 -8.8660e+001  4.5556e+001 49666 89273,89377,89351
 3.7000e+000 89426 -7.2326e+001 -7.5836e+001  6.1075e+001 49666 89273,89325,89299
 3.7000e+000 89403 -6.3900e+001 -5.0083e+001  5.2374e+001 49666 89247,89377,89273
 3.7000e+000 89978 -1.7793e+002 -1.2116e+002  4.2696e+001 49205 89681,89837,89733
 3.7000e+000 89955 -9.0203e+001 -8.4951e+001  5.4163e+001 49205 89655,89837,89681
 3.7000e+000 89932 -2.6182e+002 -1.2366e+002  8.4391e+001 49205 89785,89837,89811
 3.7000e+000 89909 -1.6673e+002 -1.1586e+002  5.3190e+001 49205 89733,89837,89785
 3.7000e+000 89886 -2.7511e+002 -1.4537e+002  9.2357e+001 49205 89733,89785,89759
 3.7000e+000 89863 -4.3689e+001 -1.9509e+002  8.6795e+001 49205 89681,89733,89707
 3.7000e+000 90177 -1.3120e+002 -7.3995e+001  5.1405e+001 48865 90530,90200,90053
 3.7000e+000 90154 -1.1831e+002 -7.7419e+001  3.0848e+001 48865 90402,90200,90001
 3.7000e+000 90131 -1.3542e+002 -7.0074e+001  5.1563e+001 48865 90530,90053,90027
 3.7000e+000 90226 -1.4686e+002 -9.0471e+001  6.7250e+001 48865 90079,90053,90200
 3.7000e+000 90249 -1.6323e+002 -1.3335e+002  2.3757e+001 48865 90272,90200,90105
 3.7000e+000 90298 -7.9290e+001 -5.6945e+001  5.5923e+001 48865 90079,90200,90272
 3.7000e+000 90428 -1.4209e+002 -8.7640e+001  3.9274e+001 48865 90105,90200,90402
 3.7000e+000 90556 -1.3533e+002 -7.4195e+001  4.9566e+001 48865 90001,90200,90530
 3.7000e+000 90579 -1.4388e+002 -7.3208e+001  5.0165e+001 48865 90001,90530,90027
 3.7000e+000 90827 -1.2029e+002 -8.2151e+001  6.4646e+001 48404 90850,90654,90628
 3.7000e+000 90804 -1.2699e+002 -8.9905e+001  8.1780e+001 48404 90850,90628,90732
 3.7000e+000 90781 -8.3553e+001 -6.1515e+001  4.4565e+001 48404 90680,90732,90706
 3.7000e+000 90758 -1.6732e+002 -5.0612e+001  7.7866e+001 48404 90602,90732,90628
 3.7000e+000 90876 -1.2035e+002 -5.6856e+001  5.7944e+001 48404 90680,90654,90850
 3.7000e+000 90899 -1.2643e+002 -7.6073e+001  7.2130e+001 48404 90680,90850,90732
 3.7000e+000 91000 -6.5511e+001 -1.5149e+002  2.4378e+000 48156 90922,90974,90948
 3.7000e+000 91250 -5.0904e+001 -1.1830e+002 -9.4490e+000 47752 91051,91103,91077
 3.7000e+000 91227 -5.5243e+001 -1.1522e+002 -1.0287e+001 47752 91025,91103,91051
 3.7000e+000 91204 -9.7032e+001 -1.2541e+002  1.5132e+001 47752 91025,91155,91103
 3.7000e+000 91181 -1.0309e+002 -1.2681e+002  1.8740e+001 47752 91103,91155,91129
 3.7000e+000 91402 -1.1845e+002 -8.8700e+001  5.3297e+001 47191 91425,91301,91275
 3.7000e+000 91379 -1.1859e+002 -8.8569e+001  6.0502e+001 47191 91497,91425,91275
 3.7000e+000 91451 -1.2567e+002 -5.6332e+001  2.4293e+001 47191 91327,91301,91425
 3.7000e+000 91474 -1.2550e+002 -1.0398e+002  6.5261e+001 47191 91327,91425,91353
 3.7000e+000 91523 -1.3626e+002 -1.9740e+002  6.0198e+001 47191 91353,91425,91497
 3.7000e+000 91854 -8.3958e+001 -1.3841e+002  1.8475e+001 46744 91949,91877,91707
 3.7000e+000 91831 -2.3610e+001 -1.1528e+002  7.2276e+000 46744 91877,91655,91629
 3.7000e+000 91808 -7.8398e+001 -1.4222e+002  2.1401e+001 46744 91949,91707,91681
 3.7000e+000 91785 -9.8821e+001 -9.8036e+001  9.3243e+000 46744 91629,91759,91733
 3.7000e+000 91903 -1.3597e+002 -1.1971e+002  3.5809e+001 46744 91733,91707,91877
 3.7000e+000 91926 -7.6449e+001 -1.1191e+002  3.4860e+001 46744 91733,91877,91629
 3.7000e+000 91975 -7.7091e+001 -1.3329e+002  2.2935e+001 46744 91655,91877,91949
 3.7000e+000 91998 -6.7764e+001 -1.3606e+002  2.5381e+001 46744 91655,91949,91681
 3.7000e+000 92378 -5.4594e+001 -9.2946e+000  2.7076e+001 46090 92130,92208,92182
 3.7000e+000 92355 -7.5282e+001 -1.8167e+001  2.6680e+001 46090 92104,92208,92130
 3.7000e+000 92332 -3.4869e+001 -4.4643e+001  2.6405e+001 46090 92104,92260,92208
 3.7000e+000 92309 -2.1019e+001  8.4081e+000  2.2603e+001 46090 92208,92260,92234
 3.7000e+000 92286 -8.7661e+001 -2.3800e+001  3.3741e+001 46090 92130,92182,92156
 3.7000e+000 92626 -6.0980e+001 -9.2426e+001  2.4054e+001 45693 92721,92649,92505
 3.7000e+000 92603 -7.7146e+001 -9.2005e+001  6.7245e+001 45693 92649,92453,92427
 3.7000e+000 92580 -6.8142e+001 -7.2040e+001  2.1707e+001 45693 92721,92505,92479
 3.7000e+000 92557 -1.7430e+002 -1.1903e+002  8.3046e+001 45693 92401,92531,92427
 3.7000e+000 92675 -1.1504e+002 -9.0344e+001  3.4212e+001 45693 92531,92505,92649
 3.7000e+000 92698 -1.3272e+002 -1.1089e+002  9.3125e+001 45693 92531,92649,92427
 3.7000e+000 92747 -6.6805e+001 -6.7847e+001  2.3670e+001 45693 92453,92649,92721
 3.7000e+000 92770 -4.2513e+001 -2.2137e+000  3.2231e+001 45693 92453,92721,92479
 3.7000e+000 93172 -3.9745e+001 -6.4442e+001  6.1231e+001 45331 92898,93028,92924
 3.7000e+000 93149 -1.7819e+001 -4.2299e+001  4.2158e+001 45331 92898,93054,93028
 3.7000e+000 93126 -6.1272e+001 -3.4908e+001  6.6779e+001 45331 92924,93002,92976
 3.7000e+000 93103 -2.3901e+001 -5.6994e+001  5.9198e+001 45331 92924,93028,93002
 3.7000e+000 93080 -6.5797e+001 -6.7146e+001  7.1510e+001 45331 92924,92976,92950
 3.7000e+000 93518 -1.9224e+002 -1.8567e+002  1.0198e+002 44820 93613,93273,93247
 3.7000e+000 93495 -1.3584e+002 -1.3336e+002  7.1226e+001 44820 93685,93541,93247
 3.7000e+000 93472 -1.6914e+002 -8.3062e+001  4.9468e+001 44820 93541,93195,93377
 3.7000e+000 93449 -1.4876e+002 -1.1406e+002  5.4429e+001 44820 93685,93247,93221
 3.7000e+000 93426 -1.7062e+002 -1.2641e+002  7.6804e+001 44820 93299,93377,93351
 3.7000e+000 93403 -1.1419e+002 -9.7795e+001  9.5771e+001 44820 93299,93351,93325
 3.7000e+000 93567 -1.3834e+002 -1.8412e+002  5.4091e+001 44820 93613,93247,93541
 3.7000e+000 93590 -1.6924e+002 -1.3246e+002  3.1750e+001 44820 93299,93541,93377
 3.7000e+000 93639 -1.3672e+002 -2.1882e+002  7.0050e+001 44820 93299,93273,93613
 3.7000e+000 93662 -1.4607e+002 -2.1786e+002  5.9445e+001 44820 93299,93613,93541
 3.7000e+000 93711 -1.5052e+002 -8.2656e+001  3.2167e+001 44820 93195,93541,93685
 3.7000e+000 93734 -1.1874e+002  1.3780e+001  2.0293e+001 44820 93195,93685,93221
 3.7000e+000 94163 -9.2439e+001 -8.5093e+001  4.0953e+001 44237 94258,94186,93996
 3.7000e+000 94140 -9.6662e+001 -1.1621e+002  1.9256e+001 44237 94330,94022,93996
 3.7000e+000 94117 -1.0422e+002 -6.9284e+001  3.1406e+001 44237 94186,93918,93866
 3.7000e+000 94094 -8.5865e+001 -5.5035e+001  3.1786e+001 44237 94258,93996,93970
 3.7000e+000 94071 -9.6161e+001 -1.4903e+001  3.4650e+001 44237 94402,93944,93918
 3.7000e+000 94048 -8.0973e+001 -4.7731e+001  1.7228e+001 44237 93866,93918,93892
 3.7000e+000 94212 -9.7066e+001 -1.1692e+002  2.5082e+001 44237 94330,93996,94186
 3.7000e+000 94235 -1.0239e+002 -7.5633e+001  2.7594e+001 44237 93840,94186,93866
 3.7000e+000 94284 -9.2304e+001 -5.2324e+001  2.0231e+001 44237 93918,94186,94258
 3.7000e+000 94307 -9.1359e+001 -2.1316e+001  2.5223e+001 44237 94402,93918,94258
 3.7000e+000 94356 -9.3054e+001 -6.5584e+001 -5.6961e-001 44237 93840,94022,94330
 3.7000e+000 94379 -9.2897e+001 -1.0618e+002  2.6136e+001 44237 93840,94330,94186
 3.7000e+000 94428 -8.8114e+001 -3.9380e+001  3.5831e+001 44237 93970,93944,94402
 3.7000e+000 94451 -9.1582e+001 -5.0584e+001  2.2596e+001 44237 93970,94402,94258
 3.7000e+000 94908 -1.5480e+002 -1.6518e+002  2.3987e+001 43890 94660,94790,94712
 3.7000e+000 94885 -5.0182e+001 -6.3579e+001  6.5319e+001 43890 94634,94790,94660
 3.7000e+000 94862 -2.2308e+002 -1.3338e+002  2.3509e+001 43890 94712,94764,94738
 3.7000e+000 94839 -1.2118e+002 -9.4550e+001  6.2061e+001 43890 94712,94790,94764
 3.7000e+000 94816 -8.8140e+001 -1.9827e+002  9.6377e+001 43890 94660,94712,94686
 3.7000e+000 95414 -7.0854e+001 -2.9887e+001  1.7736e+001 43186 95437,95143,95117
 3.7000e+000 95391 -7.3497e+001 -7.3628e+001  3.1294e+001 43186 95437,95117,95091
 3.7000e+000 95368 -5.5719e+001 -3.2460e+001  2.7535e+001 43186 95143,95221,95195
 3.7000e+000 95345 -1.1489e+002 -8.2701e+001  6.6411e+001 43186 95091,95273,95221
 3.7000e+000 95322 -9.1966e+001 -5.8366e+001  2.6198e+001 43186 95221,95273,95247
 3.7000e+000 95299 -5.5990e+001 -3.0244e+000  1.5516e+001 43186 95143,95195,95169
 3.7000e+000 95463 -7.8255e+001 -5.9606e+001  3.8438e+001 43186 95221,95143,95437
 3.7000e+000 95486 -7.5559e+001 -9.3884e+001  5.2628e+001 43186 95221,95437,95091
 3.7000e+000 96041 -1.0057e+002 -9.7683e+001  2.3735e+001 42782 95695,95851,95799
 3.7000e+000 96018 -8.0817e+001 -1.1181e+002  2.9584e+001 42782 95669,95851,95695
 3.7000e+000 95995 -1.1687e+002 -5.9392e+001  2.9452e+001 42782 95695,95747,95721
 3.7000e+000 95972 -7.9792e+001 -8.8768e+001  2.4717e+001 42782 95695,95799,95747
 3.7000e+000 95949 -7.0396e+001 -5.7062e+001  1.7397e+001 42782 95747,95799,95773
 3.7000e+000 95926 -1.3942e+002 -1.2184e+002  5.1112e+001 42782 95799,95851,95825
 3.7000e+000 95903 -9.3085e+001 -1.1614e+002  2.7947e+001 42782 95669,95877,95851
 3.7000e+000 96370 -1.2595e+002 -1.2180e+002  9.4428e+001 42420 96197,96275,96223
 3.7000e+000 96347 -1.2525e+002 -1.1509e+002  9.2111e+001 42420 96145,96275,96197
 3.7000e+000 96324 -7.7160e+001 -4.4813e+001  7.0054e+001 42420 96145,96197,96171
 3.7000e+000 96301 -6.6786e+001 -1.1033e+002  3.6790e+001 42420 96223,96275,96249
 3.7000e+000 96699 -6.3739e+001 -1.2769e+002  1.2609e+001 41816 96474,96578,96526
 3.7000e+000 96676 -5.4104e+001 -1.4131e+002  3.3039e+001 41816 96474,96604,96578
 3.7000e+000 96653 -5.6627e+001 -8.3462e+001  2.8554e+001 41816 96526,96578,96552
 3.7000e+000 96630 -6.1378e+001 -1.4139e+002  1.2651e+000 41816 96474,96526,96500
 3.7000e+000 96947 -5.5510e+001 -1.2932e+002 -1.8820e+001 41212 96722,96800,96748
 3.7000e+000 96924 -8.8891e+001 -1.4900e+002 -4.4080e+000 41212 96722,96826,96800
 3.7000e+000 96901 -6.4478e+001 -1.4003e+002 -4.3805e+000 41212 96722,96852,96826
 3.7000e+000 96878 -5.8084e+001 -1.2534e+002 -2.3801e+000 41212 96748,96800,96774
 3.7000e+000 97097 -5.3461e+001 -2.5167e+001  4.8885e+001 40793 97120,97022,96996
 3.7000e+000 97074 -9.8578e+001 -1.0714e+002  3.0613e+001 40793 97192,97120,96996
 3.7000e+000 97146 -3.8388e+001 -9.0351e+001  4.4959e+001 40793 97324,97120,97048
 3.7000e+000 97169 -3.5149e+001 -1.3758e+002  4.4519e+001 40793 97048,97120,96970
 3.7000e+000 97218 -1.4743e+001 -7.1206e+001  3.1849e+001 40793 96970,97120,97192
 3.7000e+000 97350 -3.8388e+001 -9.0351e+001  4.4959e+001 40793 97022,97120,97324
 3.7000e+000 97878 -5.7656e+001 -1.1601e+002  2.6259e+001 40446 97901,97607,97555
 3.7000e+000 97855 -5.4198e+001 -7.5069e+001  2.4864e+001 40446 97973,97901,97555
 3.7000e+000 97832 -4.8316e+001 -6.2295e+001  1.5213e+001 40446 97973,97555,97737
 3.7000e+000 97809 -5.7161e+001 -8.8259e+001  1.8888e+001 40446 97633,97685,97659
 3.7000e+000 97786 -4.6462e+001 -8.7882e+001  2.0438e+001 40446 97633,97711,97685
 3.7000e+000 97763 -5.6713e+001 -1.2981e+002  3.1416e+001 40446 97555,97607,97581
 3.7000e+000 97927 -6.1404e+001 -1.4752e+002 -4.5736e+000 40446 97633,97607,97901
 3.7000e+000 97950 -5.1068e+001 -1.0787e+002  1.4567e+001 40446 97633,97901,97711
 3.7000e+000 97999 -4.2840e+001 -1.0836e+002  3.0010e+001 40446 97711,97901,97973
 3.7000e+000 98022 -3.4224e+001 -8.6794e+001  2.2698e+001 40446 97711,97973,97737
 3.7000e+000 98449 -1.5388e+001 -1.8243e+001  1.0282e+001 39935 98152,98204,98178
 3.7000e+000 98426 -2.2713e+001 -3.9891e+001  7.6950e+000 39935 98152,98230,98204
 3.7000e+000 98403 -4.4733e+001 -2.4443e+001  3.0913e+001 39935 98152,98256,98230
 3.7000e+000 98380 -5.6027e+001 -2.7086e+001  3.2089e+001 39935 98126,98256,98152
 3.7000e+000 98357 -5.3274e+001 -6.0641e+001  1.9201e+001 39935 98126,98282,98256
 3.7000e+000 98334 -6.0329e+001 -1.5409e+002  5.7295e+001 39935 98126,98308,98282
 3.7000e+000 98746 -1.9003e+002 -1.1030e+002  5.2322e+001 39531 98498,98602,98524
 3.7000e+000 98723 -1.0160e+002 -1.1303e+002  3.8946e+001 39531 98472,98602,98498
 3.7000e+000 98700 -1.9668e+002 -7.3896e+001  3.4658e+001 39531 98524,98602,98576
 3.7000e+000 98677 -8.6146e+001 -1.0184e+002  3.3876e+001 39531 98472,98628,98602
 3.7000e+000 98654 -2.5372e+002 -9.8241e+001  3.0386e+001 39531 98524,98576,98550
 3.7000e+000 99224 -9.3412e+001 -1.0948e+002  2.4889e+001 39027 99247,98956,98930
 3.7000e+000 99201 -1.1116e+002 -1.4834e+002  2.9642e+001 39027 99247,98930,98878
 3.7000e+000 99178 -1.1024e+002 -1.2935e+002  5.9470e+001 39027 99319,98982,98956
 3.7000e+000 99155 -5.7936e+001 -6.2316e+001  6.0998e+001 39027 98852,99060,98878
 3.7000e+000 99132 -4.5027e+001 -1.7194e+002  4.8815e+001 39027 98878,98930,98904
 3.7000e+000 99109 -1.0091e+002 -1.5317e+002  8.2920e+001 39027 98982,99060,99034
 3.7000e+000 99086 -1.7622e+002 -2.5823e+002  1.3007e+002 39027 98982,99034,99008
 3.7000e+000 99273 -1.2544e+002 -1.4952e+002  4.0128e+001 39027 99319,98956,99247
 3.7000e+000 99296 -9.9276e+001 -1.4092e+002  3.8064e+001 39027 99060,99247,98878
 3.7000e+000 99345 -9.5611e+001 -1.1848e+002  6.5058e+001 39027 99060,98982,99319
 3.7000e+000 99368 -8.5509e+001 -1.2187e+002  5.2043e+001 39027 99060,99319,99247
 3.7000e+000 99923 -9.5253e+001 -8.1997e+001  4.7095e+001 38523 99946,99655,99603
 3.7000e+000 99900 -8.7654e+001 -7.7138e+001  5.0607e+001 38523 99946,99603,99759
 3.7000e+000 99877 -5.6398e+001 -1.1414e+002  5.6042e+001 38523 100018,99707,99681
 3.7000e+000 99854 -9.0057e+001 -6.6029e+001  4.9005e+001 38523 99551,99759,99603
 3.7000e+000 99831 -7.8035e+001 -4.7022e+001  4.3109e+001 38523 99551,99603,99577
 3.7000e+000 99808 -9.3519e+001 -1.6779e+002  4.8384e+001 38523 99707,99759,99733
 3.7000e+000 99785 -6.4053e+001 -6.2176e+001  3.7787e+001 38523 99603,99655,99629
 3.7000e+000 99972 -7.5928e+001 -3.3093e+001  4.2627e+001 38523 99681,99655,99946
 3.7000e+000 99995 -6.5125e+001 -5.8274e+001  6.3418e+001 38523 100018,99681,99946
 3.7000e+000 100044 -6.9456e+001 -1.3532e+002  3.1717e+001 38523 99759,99707,100018
 3.7000e+000 100067 -9.8154e+001 -1.1418e+002  4.0656e+001 38523 99759,100018,99946
 3.7000e+000 100467 -4.0850e+001 -9.2695e+001  1.9212e+001 38125 100219,100349,100323
 3.7000e+000 100444 -4.6199e+001 -1.0713e+002  1.7994e+001 38125 100193,100349,100219
 3.7000e+000 100421 -4.7285e+001 -7.1091e+001  1.6315e+001 38125 100245,100323,100297
 3.7000e+000 100398 -3.9701e+001 -9.2582e+001  1.7257e+001 38125 100219,100323,100245
 3.7000e+000 100375 -1.0829e+002 -9.8156e+001  1.1542e+001 38125 100245,100297,100271
 3.7000e+000 100666 -1.0050e+002 -1.6280e+002  4.5854e+001 37607 100689,100568,100542
 3.7000e+000 100643 -6.8084e+001 -7.3503e+001  3.9675e+001 37607 100689,100542,100490
 3.7000e+000 100620  1.0007e+001 -5.8633e+001  2.8773e+000 37607 100490,100542,100516
 3.7000e+000 100715 -7.5629e+001 -7.5500e+001  2.8090e+001 37607 100594,100568,100689
 3.7000e+000 100738 -8.9114e+001 -5.0296e+001  2.8472e+001 37607 100594,100689,100490
 3.7000e+000 100937 -4.8846e+001 -5.4519e+001  1.8937e+001 37017 100960,100813,100787
 3.7000e+000 100914  8.7260e+000 -4.9856e+001 -2.1543e+001 37017 100960,100787,100761
 3.7000e+000 100891 -1.2913e+002 -4.2383e+001  7.1339e+001 37017 100813,100865,100839
 3.7000e+000 100986 -1.2043e+002 -9.6915e+001  7.9815e+001 37017 100865,100813,100960
 3.7000e+000 101009 -1.2277e+001 -6.0271e+001  3.7266e+001 37017 100865,100960,100761
 3.7000e+000 101519 -7.5572e+001 -1.1671e+002  3.0881e+001 36613 101222,101274,101248
 3.7000e+000 101496 -3.8750e+001 -1.0040e+002  2.6435e+001 36613 101222,101352,101274
 3.7000e+000 101473 -6.4174e+001 -2.0958e+002  1.6405e+001 36613 101274,101352,101326
 3.7000e+000 101450 -7.8247e+001 -1.3249e+002  1.2544e+001 36613 101222,101378,101352
 3.7000e+000 101427 -4.0737e+001 -2.0636e+002  3.2414e+001 36613 101274,101326,101300
 3.7000e+000 101404 -7.7029e+001 -1.3516e+002  2.4266e+001 36613 101196,101378,101222
 3.7000e+000 101718 -8.5763e+001 -7.4465e+001  8.4792e+001 36308 101594,101646,101620
 3.7000e+000 101695 -8.5375e+001 -3.7956e+001  4.4389e+001 36308 101568,101646,101594
 3.7000e+000 101672 -5.7968e+001 -4.3546e+001  5.0894e+001 36308 101542,101646,101568
 3.7000e+000 102098 -3.4496e+001 -5.8484e+001  3.3110e+001 35918 102121,101954,101876
 3.7000e+000 102075 -1.2900e+001 -7.1534e+001  2.8142e+001 35918 102121,101876,101824
 3.7000e+000 102052 -2.6218e+001 -5.6014e+001  2.4697e+001 35918 101876,101954,101928
 3.7000e+000 102029 -3.6615e+001 -3.5558e+001  2.3819e+001 35918 101876,101928,101902
 3.7000e+000 102006  1.5603e+000 -3.5027e+001  2.2248e+001 35918 101824,101876,101850
 3.7000e+000 102147 -5.0830e+001 -7.0656e+001  3.8580e+001 35918 101980,101954,102121
 3.7000e+000 102170 -2.6440e+001 -8.2739e+001  3.3000e+001 35918 101980,102121,101824
 3.7000e+000 102489 -8.5966e+001 -1.8305e+002  6.6833e+001 35514 102241,102345,102267
 3.7000e+000 102466 -1.0762e+002 -1.8693e+002  6.3924e+001 35514 102215,102345,102241
 3.7000e+000 102443 -8.8526e+001 -2.0838e+002  7.0018e+001 35514 102215,102371,102345
 3.7000e+000 102420 -6.8003e+001 -1.5554e+002  7.5427e+001 35514 102267,102345,102293
 3.7000e+000 102397 -3.9522e+001 -9.5263e+001  8.4682e+001 35514 102293,102345,102319
 3.7000e+000 102820 -7.0308e+000 -2.7866e+001  1.5659e+001 35224 102843,102699,102647
 3.7000e+000 102797 -7.4861e+001 -2.4072e+001  9.0670e+000 35224 102971,102725,102699
 3.7000e+000 102774 -4.4211e+000 -1.5647e+001  4.6187e+000 35224 102595,102725,102621
 3.7000e+000 102751 -2.7900e+001 -2.3188e+001  1.1531e+001 35224 102647,102699,102673
 3.7000e+000 102869 -3.5051e+001 -3.9863e+001  1.5300e+001 35224 102971,102699,102843
 3.7000e+000 102997 -3.7146e+001 -2.1457e+001  1.5950e+001 35224 102621,102725,102971
 3.7000e+000 103020  1.6439e+001 -2.1758e+001  2.9406e+001 35224 102621,102971,102843
 3.7000e+000 103349 -1.0365e+002 -7.6600e+001  4.7855e+001 34820 103150,103228,103176
 3.7000e+000 103326 -9.4984e+001 -9.3342e+001  4.4054e+001 34820 103124,103228,103150
 3.7000e+000 103303 -8.6158e+001 -6.9165e+001  7.2915e+001 34820 103176,103228,103202
 3.7000e+000 103280 -7.7672e+001 -8.2615e+001  6.7356e+001 34820 103124,103254,103228
 3.7000e+000 103806 -7.4502e+001 -4.7512e+001  3.2832e+001 34530 103558,103662,103636
 3.7000e+000 103783 -3.1750e+001 -4.6111e+001  1.7349e+001 34530 103558,103688,103662
 3.7000e+000 103760 -2.8748e+001 -3.1207e+001  1.3825e+001 34530 103532,103688,103558
 3.7000e+000 103737 -3.0029e+001 -3.9212e+001  3.6147e+001 34530 103584,103636,103610
 3.7000e+000 103714 -6.3093e+001 -4.6165e+001  3.3209e+001 34530 103558,103636,103584
 3.7000e+000 104263 -4.0690e+001 -3.8515e+001  3.2818e+001 34019 103989,104119,104015
 3.7000e+000 104240 -3.9826e+001 -3.7927e+001  3.3383e+001 34019 103989,104145,104119
 3.7000e+000 104217 -4.5232e+001 -4.9308e+001  2.0649e+001 34019 104015,104067,104041
 3.7000e+000 104194 -4.4728e+001 -4.9696e+001  3.0205e+001 34019 104015,104119,104067
 3.7000e+000 104171 -4.6086e+001 -3.9443e+001  2.9438e+001 34019 104067,104119,104093
 3.7000e+000 104641 -4.8291e+001 -9.8321e+001  1.8895e+001 33351 104419,104497,104445
 3.7000e+000 104618 -3.7782e+001 -3.6209e+001  5.7026e+001 33351 104393,104497,104419
 3.7000e+000 104595 -8.2794e+001 -6.9428e+001  1.0602e+001 33351 104367,104497,104393
 3.7000e+000 104572 -3.3388e+001 -6.2441e+001  1.2783e+001 33351 104445,104497,104471
 3.7000e+000 104549 -8.9288e+001 -1.4870e+001  2.1498e+001 33351 104367,104523,104497
 3.7000e+000 105019 -7.7543e+001 -1.3319e+002  8.2611e+001 32861 104823,104901,104875
 3.7000e+000 104996 -1.0755e+002 -1.5481e+002  6.7911e+001 32861 104745,104901,104823
 3.7000e+000 104973 -1.1273e+002 -1.4875e+002  7.8597e+001 32861 104823,104875,104849
 3.7000e+000 104950 -1.0398e+002 -1.3293e+002  9.2748e+001 32861 104745,104823,104797
 3.7000e+000 104927 -1.1772e+002 -6.6107e+001  9.0469e+001 32861 104745,104797,104771
 3.7000e+000 105397 -2.9427e+001 -5.8983e+001  2.9063e+001 32457 105149,105253,105175
 3.7000e+000 105374 -5.1821e+001 -6.2422e+001  2.9505e+001 32457 105149,105279,105253
 3.7000e+000 105351 -1.5952e+001 -5.4736e+001  3.1310e+001 32457 105123,105279,105149
 3.7000e+000 105328 -5.3288e+001 -1.0837e+001  3.9372e+001 32457 105175,105227,105201
 3.7000e+000 105305 -6.0216e+001 -7.2472e+001  2.6144e+001 32457 105175,105253,105227
 3.7000e+000 105726 -2.6478e+001 -6.7136e+001  3.2749e+001 32003 105527,105605,105553
 3.7000e+000 105703 -4.3374e+001 -5.9402e+001  2.9251e+001 32003 105501,105605,105527
 3.7000e+000 105680 -2.0579e+001 -5.2297e+001  3.3002e+001 32003 105501,105631,105605
 3.7000e+000 105657 -1.3731e+001 -5.0740e+001  2.5621e+001 32003 105553,105605,105579
 3.7000e+000 106104 -3.1750e+001 -3.5108e+001  4.8168e+000 31492 106127,105908,105856
 3.7000e+000 106081 -2.1809e+001 -3.1071e+001  1.4005e+000 31492 106127,105856,105830
 3.7000e+000 106058 -4.6187e+001 -2.5492e+001  3.7823e+000 31492 105856,105908,105882
 3.7000e+000 106035 -1.8388e+001 -1.3319e+001 -6.4517e+000 31492 105830,105986,105960
 3.7000e+000 106012 -1.3910e+001 -3.4126e+001  2.1944e+001 31492 105908,105960,105934
 3.7000e+000 106153 -3.5919e+001 -3.4697e+001  9.8502e+000 31492 105960,105908,106127
 3.7000e+000 106176 -3.0545e+001 -3.4489e+001  7.0292e+000 31492 105960,106127,105830
 3.7000e+000 106375 -6.4165e+001 -2.8023e+001  3.7317e+001 30788 106398,106277,106251
 3.7000e+000 106352 -6.8728e+001 -7.5446e+001  4.4926e+001 30788 106398,106251,106225
 3.7000e+000 106329 -1.0169e+002 -7.8868e+001  6.0090e+001 30788 106600,106199,106303
 3.7000e+000 106424 -1.0457e+002 -8.8024e+001  2.7646e+001 30788 106470,106398,106303
 3.7000e+000 106447 -7.2733e+001 -8.3373e+001  4.8312e+001 30788 106600,106303,106398
 3.7000e+000 106496 -2.0188e+001 -5.1713e+001  3.2284e+001 30788 106277,106398,106470
 3.7000e+000 106626 -1.1595e+002 -9.0665e+001  7.5254e+001 30788 106225,106199,106600
 3.7000e+000 106649 -9.9057e+001 -9.9117e+001  6.2329e+001 30788 106225,106600,106398
 3.7000e+000 106799 -9.6375e+001 -5.7212e+001 -4.7183e+001 30426 106698,106750,106724
 3.7000e+000 106776 -2.7521e+001 -6.4049e+001 -2.1839e+001 30426 106672,106750,106698
 3.7000e+000 107356 -5.7350e+001 -9.9291e+001  6.4044e+001 29972 107010,107166,107114
 3.7000e+000 107333 -6.7164e+001 -1.0328e+002  6.3368e+001 29972 106984,107166,107010
 3.7000e+000 107310 -6.1450e+001 -1.1100e+002  6.9653e+001 29972 107010,107114,107088
 3.7000e+000 107287 -8.6515e+001 -1.4685e+002  4.8831e+001 29972 107114,107166,107140
 3.7000e+000 107264 -5.0157e+001 -7.3512e+001  4.6044e+001 29972 106984,107192,107166
 3.7000e+000 107241 -1.5107e+002 -2.1008e+002  1.1746e+002 29972 107010,107088,107036
 3.7000e+000 107218 -7.9731e+001 -1.7829e+002  8.2683e+001 29972 107036,107088,107062
 3.7000e+000 107783 -7.9351e+001 -9.5130e+001  6.1761e+001 29724 107878,107806,107590
 3.7000e+000 107760 -1.2034e+002 -1.1491e+002  5.8759e+001 29724 107806,107512,107486
 3.7000e+000 107737 -7.6277e+001 -9.5897e+001  6.0118e+001 29724 107878,107590,107538
 3.7000e+000 107714 -8.6496e+001 -1.2417e+002  7.3746e+001 29724 107950,107460,107616
 3.7000e+000 107691 -8.3210e+001 -1.2323e+002  7.6190e+001 29724 107460,107642,107616
 3.7000e+000 107668 -6.3959e+001 -7.0150e+001  6.8235e+001 29724 107538,107590,107564
 3.7000e+000 107832 -6.2535e+001 -1.0215e+002  8.2833e+001 29724 107616,107590,107806
 3.7000e+000 107855 -8.7830e+001 -1.2494e+002  7.3272e+001 29724 107950,107616,107806
 3.7000e+000 107904 -8.9384e+001 -9.7856e+001  7.2434e+001 29724 107512,107806,107878
 3.7000e+000 107927 -6.9902e+001 -9.1666e+001  7.2858e+001 29724 107512,107878,107538
 3.7000e+000 107976 -5.8013e+001 -1.2130e+002  7.7699e+001 29724 107486,107460,107950
 3.7000e+000 107999 -8.3712e+001 -1.3051e+002  7.1914e+001 29724 107486,107950,107806
 3.7000e+000 108296 -1.1657e+002 -6.8624e+001  5.3994e+001 29206 108319,108100,108048
 3.7000e+000 108273 -6.0666e+001 -5.4173e+001  6.8066e+001 29206 108319,108048,108022
 3.7000e+000 108250 -2.9728e+001 -7.2615e+001  8.9450e+001 29206 108391,108152,108126
 3.7000e+000 108227 -1.1916e+002 -4.4699e+001  5.6021e+001 29206 108048,108100,108074
 3.7000e+000 108204 -4.2581e+001 -1.0488e+002  7.6873e+001 29206 108022,108178,108152
 3.7000e+000 108345 -8.7612e+001 -3.2469e+001  8.7503e+001 29206 108126,108100,108319
 3.7000e+000 108368 -4.3895e+001 -5.2861e+001  1.0014e+002 29206 108391,108126,108319
 3.7000e+000 108417 -6.0087e+001 -9.6106e+001  7.7570e+001 29206 108022,108152,108391
 3.7000e+000 108440 -7.0761e+001 -7.9886e+001  8.8809e+001 29206 108022,108391,108319
 3.7000e+000 108688 -4.5377e+001 -4.7692e+001  6.7095e+001 28595 108711,108541,108515
 3.7000e+000 108665 -7.6737e+001 -6.0843e+001  6.5380e+001 28595 108783,108711,108515
 3.7000e+000 108642 -8.1767e+001 -6.6506e+001  6.3163e+001 28595 108783,108515,108489
 3.7000e+000 108619 -2.3194e+001 -8.5269e+001  1.3744e+001 28595 108463,108593,108489
 3.7000e+000 108737 -4.4925e+001 -5.5058e+001  4.5979e+001 28595 108567,108541,108711
 3.7000e+000 108760 -5.1521e+001 -6.0153e+001  5.4205e+001 28595 108567,108711,108593
 3.7000e+000 108809 -5.5739e+001 -7.8965e+001  5.9096e+001 28595 108593,108711,108783
 3.7000e+000 108832 -7.2486e+001 -9.5306e+001  5.2423e+001 28595 108593,108783,108489
 3.7000e+000 109033 -2.4815e+001 -7.9585e+000  5.3048e+000 28091 108909,108961,108935
 3.7000e+000 109010 -1.1872e+001 -2.2906e+001  7.0359e+000 28091 108857,108961,108909
 3.7000e+000 108987 -1.5872e+001 -1.0876e+001  1.9306e+001 28091 108857,108909,108883
 3.7000e+000 109136 -7.9180e+001 -1.8520e+002  3.5500e+001 27587 109058,109110,109084
 3.7000e+000 109695  4.6790e+000 -1.1405e+002  3.3092e+001 26969 109718,109375,109323
 3.7000e+000 109672 -2.6986e+001 -1.5508e+002  5.7889e+001 26969 109718,109323,109505
 3.7000e+000 109649 -5.7756e+001 -6.8257e+001  5.8197e+001 26969 109790,109453,109427
 3.7000e+000 109626 -3.8863e+001 -3.2939e+001  3.0911e+001 26969 109323,109375,109349
 3.7000e+000 109603 -5.6661e+001 -9.9158e+001  9.9062e+000 26969 109323,109531,109505
 3.7000e+000 109580 -1.0014e+002 -1.7841e+002  6.8107e+001 26969 109375,109427,109401
 3.7000e+000 109557 -8.1445e+001 -1.1357e+002  4.9498e+001 26969 109453,109505,109479
 3.7000e+000 109744 -3.7503e+001 -1.2475e+002  4.2887e+001 26969 109427,109375,109718
 3.7000e+000 109767 -2.1851e+001 -9.7881e+001  6.0602e+001 26969 109790,109427,109718
 3.7000e+000 109816 -7.8603e+001 -9.7986e+001  7.2176e+001 26969 109505,109453,109790
 3.7000e+000 109839 -5.4621e+001 -1.3472e+002  7.9257e+001 26969 109505,109790,109718
 3.7000e+000 110266 -5.3417e+001 -1.3221e+002 -2.7412e+001 26515 110361,110289,110099
 3.7000e+000 110243 -2.8249e+001 -8.7368e+001 -3.8153e+001 26515 110289,109995,109943
 3.7000e+000 110220 -8.3597e+001 -1.4520e+002 -2.7087e+001 26515 110361,110099,110021
 3.7000e+000 110197 -1.6981e+002 -2.5572e+002 -3.3996e+001 26515 110047,110099,110073
 3.7000e+000 110174 -1.1641e+002 -2.0675e+002 -5.3477e+001 26515 110021,110099,110047
 3.7000e+000 110151 -1.8543e+001 -4.2192e+001 -3.8090e+001 26515 109943,109995,109969
 3.7000e+000 110315 -6.4640e+001 -8.1190e+001 -4.7945e+001 26515 110125,110099,110289
 3.7000e+000 110338 -6.6350e+001 -3.6423e+001 -9.4267e+000 26515 110125,110289,109943
 3.7000e+000 110387 -7.5735e+001 -1.1980e+002 -6.3533e+001 26515 109995,110289,110361
 3.7000e+000 110410 -1.0168e+002 -1.3072e+002 -6.1006e+001 26515 109995,110361,110021
 3.7000e+000 110609 -2.0772e+001 -9.9959e+001  3.4478e+001 25789 110906,110762,110632
 3.7000e+000 110586 -1.5795e+001 -1.3001e+002  4.5206e+001 25789 110762,110433,110537
 3.7000e+000 110563 -6.6894e+001 -1.3475e+002  8.2074e+001 25789 110834,110459,110433
 3.7000e+000 110658 -3.1952e+001 -9.7948e+001  4.1132e+001 25789 110906,110632,110834
 3.7000e+000 110788 -6.7480e+000 -5.6709e+001  2.0792e+001 25789 110511,110632,110762
 3.7000e+000 110811 -1.1031e+001 -9.5135e+001  4.5466e+001 25789 110511,110762,110537
 3.7000e+000 110860 -1.5552e+001 -1.0211e+002  4.8832e+001 25789 110485,110459,110834
 3.7000e+000 110883 -2.7401e+001 -5.6870e+001  2.1543e+001 25789 110485,110834,110632
 3.7000e+000 110932 -4.1321e+001 -1.0538e+002  3.6053e+001 25789 110433,110762,110906
 3.7000e+000 110955 -4.9754e+001 -1.0036e+002  4.1059e+001 25789 110433,110906,110834
 3.7000e+000 111350 -5.6371e+001 -8.9848e+001  8.2323e+001 25228 111445,111373,111186
 3.7000e+000 111327 -5.3289e+001 -1.1155e+002  1.8103e+001 25228 110978,111186,111004
 3.7000e+000 111304 -6.6989e+001 -1.4174e+002  8.4788e+001 25228 111373,111108,111082
 3.7000e+000 111281 -3.4469e+001 -7.4103e+001  2.3203e+001 25228 111134,111186,111160
 3.7000e+000 111258 -5.8798e+001 -6.3320e+001  3.8823e+001 25228 111445,111186,111134
 3.7000e+000 111235 -6.8055e+001 -2.8780e+001  4.3240e+001 25228 111517,111030,111004
 3.7000e+000 111212 -4.1314e+001 -6.4023e+001  3.3238e+001 25228 111030,111082,111056
 3.7000e+000 111399 -8.0803e+001 -1.2589e+002  7.1138e+001 25228 111004,111186,111373
 3.7000e+000 111422 -5.6652e+001 -5.1960e+001  6.7916e+001 25228 111517,111004,111373
 3.7000e+000 111471  5.1592e+000 -5.7027e+001  5.1391e+001 25228 111108,111373,111445
 3.7000e+000 111494  2.7354e+000 -2.7163e+001  7.6182e+000 25228 111108,111445,111134
 3.7000e+000 111543 -1.0452e+002 -3.7034e+001  7.1795e+001 25228 111082,111030,111517
 3.7000e+000 111566 -9.5631e+001 -7.0556e+001  9.6797e+001 25228 111082,111517,111373
 3.7000e+000 112074 -3.0798e+000 -1.8176e+001  1.4943e+000 24338 112097,111907,111881
 3.7000e+000 112051 -1.1394e+001 -1.7493e+001 -7.6012e+000 24338 112097,111881,111829
 3.7000e+000 112028 -7.7314e+000 -1.7890e+001 -7.7228e+000 24338 111829,111881,111855
 3.7000e+000 112005 -1.9831e+001 -2.6251e+001  9.8292e+000 24338 111777,111933,111829
 3.7000e+000 111982 -2.5674e+001 -1.7256e+001  9.2563e+000 24338 111751,111933,111777
 3.7000e+000 111959 -1.1507e+001 -1.0428e+001  4.5175e-001 24338 111777,111829,111803
 3.7000e+000 112123 -1.3279e+001 -4.2149e+001 -9.0569e-002 24338 111933,111907,112097
 3.7000e+000 112146 -1.2027e+001 -2.2986e+001 -6.9585e+000 24338 111933,112097,111829
 3.7000e+000 112443 -5.0952e+001 -3.5891e+001  2.1217e+001 23998 112466,112299,112247
 3.7000e+000 112420 -6.4877e+001 -7.5219e+001  2.5181e+001 23998 112466,112247,112221
 3.7000e+000 112397 -4.2039e+001 -8.0872e+001  4.9452e+001 23998 112169,112325,112221
 3.7000e+000 112374 -3.4028e+001 -1.3193e+002  7.6904e+001 23998 112169,112221,112195
 3.7000e+000 112351 -3.0651e+001 -1.8598e+001  2.8783e+001 23998 112247,112299,112273
 3.7000e+000 112492 -5.9753e+001 -4.2260e+001  4.4869e+001 23998 112325,112299,112466
 3.7000e+000 112515 -6.7455e+001 -6.2697e+001  4.2899e+001 23998 112325,112466,112221
 3.7000e+000 113200 -1.0260e+002 -1.1668e+002  8.7039e+001 23480 112779,112961,112805
 3.7000e+000 113177 -1.0124e+002 -8.7558e+001  4.0893e+001 23480 112779,112987,112961
 3.7000e+000 113154 -3.6591e+001 -4.2432e+001  5.9281e+001 23480 112805,112961,112883
 3.7000e+000 113131 -3.9648e+001 -8.6365e+001  5.4143e+001 23480 112883,112935,112909
 3.7000e+000 113108 -7.8052e+001 -6.1137e+001  5.5139e+001 23480 112883,112961,112935
 3.7000e+000 113085 -1.2946e+001 -5.6893e+001  2.4666e+001 23480 112831,112883,112857
 3.7000e+000 113062 -6.1290e+001 -6.2991e+001  4.2190e+001 23480 112805,112883,112831
 3.7000e+000 113039 -1.1796e+002 -7.8081e+001  4.3875e+001 23480 112779,113013,112987
 3.7000e+000 113676 -1.1022e+002 -1.9361e+001  9.3105e+001 23018 113699,113434,113356
 3.7000e+000 113653 -8.6233e+001 -2.0304e+001  3.7360e+001 23018 113771,113699,113356
 3.7000e+000 113630 -6.8831e+001 -6.2969e+001  2.1491e+001 23018 113771,113356,113512
 3.7000e+000 113607 -4.5274e+001 -9.0692e+001  4.5813e+001 23018 113330,113512,113356
 3.7000e+000 113584 -2.3532e+002 -1.0214e+002  1.3880e+002 23018 113356,113434,113382
 3.7000e+000 113561 -2.6402e+001 -8.4677e+001  4.7722e+001 23018 113304,113512,113330
 3.7000e+000 113538 -1.7772e+002  1.1674e+001  3.8325e+001 23018 113382,113434,113408
 3.7000e+000 113725 -1.2912e+002 -6.3756e+001  9.3262e+001 23018 113460,113434,113699
 3.7000e+000 113748 -1.5693e+002 -8.5118e+001  4.6159e+001 23018 113460,113699,113486
 3.7000e+000 113797 -1.2897e+002 -8.0457e+001  5.6723e+001 23018 113486,113699,113771
 3.7000e+000 113820 -8.6355e+001 -8.8870e+001  3.1625e+001 23018 113486,113771,113512
 3.7000e+000 114424  2.1867e+000 -4.0743e+001 -1.1512e+001 22514 114447,114133,114029
 3.7000e+000 114401 -2.4161e+000 -3.8798e+001 -9.7177e+000 22514 114447,114029,114237
 3.7000e+000 114378  1.2811e+000 -4.8381e+001  6.1765e+000 22514 114133,114211,114185
 3.7000e+000 114355 -1.7511e+001 -3.9907e+001 -1.0582e+001 22514 114133,114185,114159
 3.7000e+000 114332 -1.1523e+001 -5.5602e+001  3.2524e+001 22514 114003,114237,114029
 3.7000e+000 114309 -1.5128e+001 -8.9894e+001 -1.2536e+001 22514 114029,114133,114055
 3.7000e+000 114286 -3.6834e+001 -1.2536e+002 -4.8542e+000 22514 114055,114133,114107
 3.7000e+000 114263 -2.8222e+001 -3.1067e+001  3.3050e+001 22514 114055,114107,114081
 3.7000e+000 114473 -1.9782e+000 -4.1229e+001 -1.1565e+001 22514 114211,114133,114447
 3.7000e+000 114496 -6.8728e+000 -3.9438e+001 -1.0145e+001 22514 114211,114447,114237
 3.7000e+000 114597 -5.3280e+001 -1.2414e+002  1.5806e+001 22316 114620,114571,114545
 3.7000e+000 114646 -5.3280e+001 -1.2414e+002  1.5806e+001 22316 114519,114571,114620
 3.7000e+000 115127 -1.3019e+001 -6.4521e+001 -3.2999e-001 21612 115150,114905,114879
 3.7000e+000 115104 -1.3973e+001 -4.9145e+001  1.8610e+000 21612 115150,114879,114853
 3.7000e+000 115081 -3.4722e+001 -2.1033e+001  1.8756e+001 21612 115222,114931,114905
 3.7000e+000 115058 -1.0617e+001 -5.5408e+001  1.9437e+001 21612 115222,114905,115009
 3.7000e+000 115035 -4.1844e+001 -1.0783e+002  6.3796e+001 21612 114957,115009,114983
 3.7000e+000 115176 -1.3197e+001 -5.0489e+001  2.0362e+000 21612 115009,114905,115150
 3.7000e+000 115199 -1.2707e+001 -3.2883e+001  3.9510e+000 21612 115009,115150,114853
 3.7000e+000 115248 -5.3611e+001 -4.1367e+001  2.8478e+001 21612 114957,114931,115222
 3.7000e+000 115271 -2.6857e+001 -7.2120e+001  2.7903e+001 21612 114957,115222,115009
 3.7000e+000 115519 -9.3855e+000 -4.7894e+001  1.5579e+001 21208 115542,115372,115320
 3.7000e+000 115496 -1.8390e+001 -5.0345e+001 -2.1036e+000 21208 115542,115320,115294
 3.7000e+000 115473  1.2013e+000  3.0021e+000  6.6162e-001 21208 115320,115372,115346
 3.7000e+000 115450 -2.8168e+001 -8.9886e+001 -1.6611e+001 21208 115294,115424,115398
 3.7000e+000 115568 -3.4170e+000 -6.5072e+001  1.3350e+000 21208 115398,115372,115542
 3.7000e+000 115591 -1.8329e+001 -8.8225e+001 -1.4626e+001 21208 115398,115542,115294
 3.7000e+000 115839 -3.7198e+001 -4.2439e+001  4.0979e+001 20668 115862,115640,115614
 3.7000e+000 115816 -1.9139e+001 -5.7559e+001  3.2255e+001 20668 115862,115614,115744
 3.7000e+000 115793  6.5786e+001  1.4110e+001  3.6458e+001 20668 115640,115718,115692
 3.7000e+000 115770 -4.7219e+001 -1.6975e+001  3.0982e+001 20668 115640,115692,115666
 3.7000e+000 115888 -1.7322e+001 -2.5207e+001  4.8198e+001 20668 115718,115640,115862
 3.7000e+000 115911 -8.6665e+000 -4.8738e+001  3.6219e+001 20668 115718,115862,115744
 3.7000e+000 116134 -8.4031e+001 -8.4212e+001  6.5539e+001 20264 115958,116036,115984
 3.7000e+000 116111 -2.2226e+001 -5.3011e+001  5.2178e+001 20264 115958,116062,116036
 3.7000e+000 116088 -3.9397e+001 -9.3862e+001  7.0400e+001 20264 115984,116036,116010
 3.7000e+000 116384 -1.1478e+002 -8.8366e+001  8.7999e+001 19924 116407,116211,116159
 3.7000e+000 116361 -1.0610e+002 -1.5391e+002  7.8637e+001 19924 116407,116159,116263
 3.7000e+000 116338 -1.0102e+002 -4.0824e+001  8.3087e+001 19924 116159,116211,116185
 3.7000e+000 116315 -4.3973e+001 -1.2043e+002  6.4228e+001 19924 116159,116289,116263
 3.7000e+000 116433 -1.1581e+002 -5.0355e+001  9.9927e+001 19924 116237,116211,116407
 3.7000e+000 116456 -8.6324e+001 -9.5778e+001  9.8297e+001 19924 116237,116407,116263
 3.7000e+000 116608 -1.2324e+000  3.5176e+000  2.3454e+001 19520 116703,116631,116533
 3.7000e+000 116585 -1.1704e+001 -9.0280e+000  1.7038e+001 19520 116631,116507,116481
 3.7000e+000 116657  3.6693e+001 -9.2525e+000  3.2532e+001 19520 116559,116533,116631
 3.7000e+000 116680  8.7958e+000 -4.0729e+001  1.9833e+001 19520 116559,116631,116481
 3.7000e+000 116729 -1.2324e+000  3.5176e+000  2.3454e+001 19520 116507,116631,116703
 3.7000e+000 116952 -1.1353e+002 -7.5897e+001  1.2168e+002 19208 116975,116802,116776
 3.7000e+000 116929 -1.3191e+002 -1.5124e+002  6.8011e+001 19208 116975,116776,116880
 3.7000e+000 116906 -1.2846e+002 -5.5271e+001  8.6863e+001 19208 116802,116854,116828
 3.7000e+000 117001 -9.0883e+001 -6.5218e+001  1.2547e+002 19208 116854,116802,116975
 3.7000e+000 117024 -3.5294e+001 -8.5945e+001  9.9884e+001 19208 116854,116975,116880
 3.7000e+000 117428 -7.3240e+001 -2.8597e+001  3.9637e+001 18796 117154,117206,117180
 3.7000e+000 117405 -5.2126e+001 -5.7997e+001  3.9562e+001 18796 117154,117284,117206
 3.7000e+000 117382 -2.6949e+001 -4.4318e+001  4.7752e+001 18796 117154,117310,117284
 3.7000e+000 117359 -3.3905e+001 -3.7787e+001  5.0988e+001 18796 117206,117284,117258
 3.7000e+000 117336 -6.7644e+000 -2.0155e+000  6.9314e+001 18796 117206,117258,117232
 3.7000e+000 117529 -5.5981e+000  4.0965e+000  6.7350e-001 18228 117810,117552,117477
 3.7000e+000 117578 -8.8887e+001 -2.7509e+001  4.8527e+001 18228 117682,117552,117503
 3.7000e+000 117708 -9.6488e+000  1.8655e+001 -2.2801e+000 18228 117477,117552,117682
 3.7000e+000 117836 -3.7760e+001 -2.2250e+001  3.1809e+001 18228 117451,117552,117810
 3.7000e+000 118364 -4.2797e+001 -1.4253e+001  2.3013e+001 17722 118067,118223,118093
 3.7000e+000 118341 -4.6645e+001 -1.0174e+001  1.9045e+001 17722 118041,118223,118067
 3.7000e+000 118318 -2.2864e+001 -4.4844e+001  2.7419e+001 17722 118093,118223,118197
 3.7000e+000 118295 -2.2312e+002 -2.0858e+002  1.3103e+002 17722 118119,118197,118171
 3.7000e+000 118272  7.5780e+000  5.9476e+000  4.1536e+001 17722 118093,118197,118119
 3.7000e+000 118249 -2.0898e+002 -2.8556e+001  6.6488e+001 17722 118119,118171,118145
 3.7000e+000 118514 -1.5863e+002 -6.6694e+001  6.1705e+001 17268 118387,118439,118413
 3.7000e+000 118491 -2.2152e+001 -9.6543e+001  8.7307e+001 17268 118387,118465,118439
 3.7000e+000 118916  1.2417e+001  1.0964e+001  4.2819e+000 16828 118668,118772,118694
 3.7000e+000 118893  1.3345e+001 -1.0280e-001 -1.4714e+000 16828 118668,118798,118772
 3.7000e+000 118870 -1.7219e+000  7.1668e+000  2.1089e+001 16828 118642,118798,118668
 3.7000e+000 118847  8.5437e-001  3.0195e+000  4.0873e+001 16828 118694,118746,118720
 3.7000e+000 118824 -6.9123e+000 -3.1808e+001  1.0004e+001 16828 118694,118772,118746
 3.7000e+000 119316  6.1271e+000  6.6155e+000  2.3290e+000 16422 119042,119172,119094
 3.7000e+000 119293  2.7406e+001  4.2244e+000 -3.9313e+000 16422 119042,119198,119172
 3.7000e+000 119270  1.8692e+001  1.3754e+001 -1.1038e+000 16422 119042,119094,119068
 3.7000e+000 119247  2.3447e+000  7.6108e+000  5.5107e+000 16422 119094,119146,119120
 3.7000e+000 119224  5.4972e+000  6.3644e+000  1.5284e+000 16422 119094,119172,119146
 3.7000e+000 119466  2.8851e+000  8.0515e+000 -1.9699e+000 16010 119339,119391,119365
 3.7000e+000 119443  7.7482e-001  4.3845e+000  4.7898e-001 16010 119339,119417,119391
 3.7000e+000 119616  1.2083e+001  1.1234e+001 -3.1254e+000 15547 119515,119567,119541
 3.7000e+000 119593  4.9070e+001  1.0624e+002  1.3813e+002 15547 119489,119567,119515
 3.7000e+000 119719 -1.5330e+002 -6.4215e+001  8.0196e+001 421 119641,119693,119667
 3.8000e+000 69562 -2.2017e+002 -8.9344e+001 -4.2805e+001 69254 69484,69536,69510
 3.8000e+000 70009 -8.1119e+001 -9.6668e+001  4.3106e+001 68942 69686,69842,69816
 3.8000e+000 69986 -8.2251e+001 -8.3944e+001  3.0338e+000 68942 69686,69868,69842
 3.8000e+000 69963 -1.1919e+002 -5.0796e+001  3.6975e+001 68942 69686,69816,69712
 3.8000e+000 69940 -1.0390e+002 -4.5196e+001  6.2368e+001 68942 69712,69790,69738
 3.8000e+000 69917 -1.6979e+002 -1.7390e+002  3.5187e+001 68942 69712,69816,69790
 3.8000e+000 69894 -7.6977e+001 -8.7299e+001  1.4714e+001 68942 69738,69790,69764
 3.8000e+000 70110 -4.1321e+002 -1.7625e+002  3.6277e+001 68766 70032,70084,70058
 3.8000e+000 70746 -2.9736e+002 -9.0347e+001  4.4633e+001 68448 70400,70556,70426
 3.8000e+000 70723 -2.8730e+002 -1.2320e+002  5.4562e+001 68448 70374,70556,70400
 3.8000e+000 70700 -2.5464e+002 -6.5038e+001  2.7000e+001 68448 70426,70556,70478
 3.8000e+000 70677 -2.2670e+002 -6.1436e+001  2.9898e+001 68448 70478,70556,70504
 3.8000e+000 70654 -2.6511e+002 -5.3818e+001  3.3735e+001 68448 70426,70478,70452
 3.8000e+000 70631 -2.5748e+002 -5.6382e+001  4.8268e+001 68448 70374,70582,70556
 3.8000e+000 70608 -2.3298e+002 -8.4889e+001  3.7501e+001 68448 70504,70556,70530
 3.8000e+000 70896 -3.1339e+002 -1.2207e+002 -2.8714e+001 68250 70795,70847,70821
 3.8000e+000 70873 -3.2743e+002 -1.3735e+002 -3.8966e+000 68250 70769,70847,70795
 3.8000e+000 70997 -2.8909e+002 -1.2409e+002  1.0101e+002 68052 70919,70971,70945
 3.8000e+000 71367 -1.0472e+002 -1.5332e+002  3.4526e+001 67740 71096,71226,71200
 3.8000e+000 71344 -6.9357e+001 -9.5390e+001  4.9482e+001 67740 71044,71226,71096
 3.8000e+000 71321  9.1688e-001 -9.1688e-001  9.2030e+001 67740 71044,71096,71070
 3.8000e+000 71298 -8.3106e+001 -1.5750e+002  7.9002e+001 67740 71096,71200,71174
 3.8000e+000 71275 -6.3785e+001 -1.4732e+002 -6.7279e+000 67740 71096,71148,71122
 3.8000e+000 71252 -7.1464e+001 -1.2281e+002  4.7413e+001 67740 71096,71174,71148
 3.8000e+000 71519 -7.3495e+000 -1.9259e+000  2.6573e+001 67542 71418,71470,71444
 3.8000e+000 71496  4.7512e+001  1.0770e+002  9.3532e+001 67542 71392,71470,71418
 3.8000e+000 71923 -3.0553e+001 -1.2418e+001  3.8718e+001 67230 71649,71779,71675
 3.8000e+000 71900 -2.7827e+001 -3.7783e+001  3.2074e+001 67230 71649,71805,71779
 3.8000e+000 71877 -3.5363e+001 -1.5532e+001  6.5259e+001 67230 71675,71727,71701
 3.8000e+000 71854 -4.4083e+001 -9.5300e+001  6.9431e+001 67230 71675,71753,71727
 3.8000e+000 71831 -4.0494e+001 -6.1373e+001  4.9897e+001 67230 71675,71779,71753
 3.8000e+000 72433 -1.4575e+002 -5.4929e+001  3.3173e+001 67032 72038,72246,72220
 3.8000e+000 72410 -4.6208e+001 -1.9492e+001  4.7822e+001 67032 72012,72246,72038
 3.8000e+000 72387 -2.0615e+002 -1.1636e+002  3.8994e+001 67032 72064,72194,72168
 3.8000e+000 72364 -1.9018e+002 -8.0618e+001  3.1856e+001 67032 72038,72194,72064
 3.8000e+000 72341 -1.6013e+002 -8.6020e+001  6.4174e+001 67032 72038,72220,72194
 3.8000e+000 72318 -1.8121e+002 -6.6165e+001  3.7579e+001 67032 72090,72168,72142
 3.8000e+000 72295 -2.0003e+002 -8.7217e+001  9.9424e+001 67032 72064,72168,72090
 3.8000e+000 72272 -1.8586e+002 -7.8656e+001  3.2222e+001 67032 72090,72142,72116
 3.8000e+000 72933 -8.5035e+001 -6.4675e+001  6.9049e+001 66628 72956,72665,72613
 3.8000e+000 72910 -1.0383e+002 -7.6215e+001  6.2185e+001 66628 73100,72956,72613
 3.8000e+000 72887 -5.7673e+001 -8.0700e+001  4.4852e+001 66628 73028,72691,72665
 3.8000e+000 72864 -1.0751e+002 -8.4356e+001  6.0459e+001 66628 73100,72613,72587
 3.8000e+000 72841 -7.3968e+001 -5.8043e+001  4.2140e+001 66628 72613,72665,72639
 3.8000e+000 72818 -7.5689e+001 -3.3742e+001  8.5209e+001 66628 72587,72769,72743
 3.8000e+000 72795 -1.5117e+002 -2.1442e+002  3.1728e+001 66628 72561,72769,72587
 3.8000e+000 72982 -7.2948e+001 -7.1451e+001  6.7397e+001 66628 73028,72665,72956
 3.8000e+000 73005 -8.7692e+001 -3.8066e+001  6.6636e+001 66628 72717,72956,72743
 3.8000e+000 73054 -1.0065e+002 -9.0269e+001  3.9614e+001 66628 72717,72691,73028
 3.8000e+000 73077 -1.0769e+002 -8.4059e+001  5.9791e+001 66628 72717,73028,72956
 3.8000e+000 73126 -1.0134e+002 -7.5305e+001  7.1431e+001 66628 72743,72956,73100
 3.8000e+000 73149 -1.0505e+002 -8.2077e+001  6.9513e+001 66628 72743,73100,72587
 3.8000e+000 73606 -1.1106e+002 -8.4842e+001  9.6812e+001 66281 73332,73384,73358
 3.8000e+000 73583 -1.5278e+002 -8.5047e+001  5.7206e+001 66281 73332,73462,73384
 3.8000e+000 73560 -1.5891e+002 -7.8697e+001  6.1074e+001 66281 73384,73462,73436
 3.8000e+000 73537 -2.1519e+002 -1.5562e+002  8.3394e+001 66281 73332,73488,73462
 3.8000e+000 73514 -1.6751e+002 -7.6902e+001  3.2476e+001 66281 73384,73436,73410
 3.8000e+000 73984 -1.9178e+002 -5.2053e+001  3.5935e+001 65969 73736,73814,73788
 3.8000e+000 73961 -1.1036e+002 -4.2614e+001  6.2669e+001 65969 73736,73866,73814
 3.8000e+000 73938 -9.4892e+001 -5.6771e+001  4.4822e+001 65969 73814,73866,73840
 3.8000e+000 73915 -1.2579e+002 -6.2229e+001  5.5625e+001 65969 73710,73866,73736
 3.8000e+000 73892 -2.1001e+002 -2.3463e+001  6.7663e+001 65969 73736,73788,73762
 3.8000e+000 74232 -1.6049e+002 -8.6030e+001  6.3400e+001 65572 74255,74085,74033
 3.8000e+000 74209 -1.5859e+002 -7.5368e+001  7.2861e+001 65572 74327,74255,74033
 3.8000e+000 74186 -1.5910e+002 -8.1763e+001  7.2383e+001 65572 74327,74033,74007
 3.8000e+000 74163 -1.3589e+002 -7.3106e+001  5.7741e+001 65572 74033,74085,74059
 3.8000e+000 74281 -1.6142e+002 -7.4061e+001  7.3368e+001 65572 74111,74085,74255
 3.8000e+000 74304 -1.4160e+002 -6.1393e+001  8.9467e+001 65572 74111,74255,74137
 3.8000e+000 74353 -1.5684e+002 -8.3493e+001  7.5596e+001 65572 74137,74255,74327
 3.8000e+000 74376 -1.5611e+002 -8.8427e+001  7.4966e+001 65572 74137,74327,74007
 3.8000e+000 74884 -1.2803e+002 -6.9658e+001  6.4368e+001 65174 74587,74717,74613
 3.8000e+000 74861 -1.7238e+002 -1.0259e+002  4.1353e+001 65174 74561,74717,74587
 3.8000e+000 74838 -1.2509e+002 -9.2273e+001  3.7538e+001 65174 74613,74691,74639
 3.8000e+000 74815 -1.3160e+002 -8.4593e+001  6.0841e+001 65174 74613,74717,74691
 3.8000e+000 74792 -4.7388e+001 -9.6752e+001  5.0622e+001 65174 74639,74691,74665
 3.8000e+000 74769 -2.3898e+002 -4.4631e+001  4.3262e+001 65174 74561,74743,74717
 3.8000e+000 75412 -2.4349e+000 -1.0841e+001  1.1771e+002 64770 75167,75245,75219
 3.8000e+000 75389 -6.4288e+001 -9.2268e+001  8.0391e+001 64770 75115,75245,75167
 3.8000e+000 75366 -5.6530e+001 -1.1696e+002  1.0413e+002 64770 75089,75245,75115
 3.8000e+000 75343 -9.9690e+001 -2.4239e+001  8.2837e+001 64770 75167,75219,75193
 3.8000e+000 75320 -5.2973e+001 -6.6323e+001  8.3512e+001 64770 75115,75167,75141
 3.8000e+000 75297 -7.3493e+001 -1.7507e+002  9.9207e+001 64770 75089,75271,75245
 3.8000e+000 75861 -3.1098e+002 -1.2812e+002  3.3697e+001 64316 75538,75694,75564
 3.8000e+000 75838 -3.0876e+002 -1.3046e+002 -2.1301e-001 64316 75538,75720,75694
 3.8000e+000 75815 -2.3761e+002 -9.8511e+001  3.5865e+001 64316 75590,75694,75642
 3.8000e+000 75792 -2.5852e+002 -1.5449e+002  3.4400e+001 64316 75564,75694,75590
 3.8000e+000 75769 -2.1747e+002 -1.3140e+002  2.2915e+001 64316 75590,75642,75616
 3.8000e+000 75746 -1.8995e+002 -8.0100e+001  1.9196e+001 64316 75642,75694,75668
 3.8000e+000 76239 -1.9444e+002 -1.1312e+002  4.6110e+001 64018 76262,76095,76043
 3.8000e+000 76216 -1.7619e+002 -1.1137e+002  4.1319e+001 64018 76262,76043,76017
 3.8000e+000 76193 -1.4113e+002 -6.7006e+001  2.3720e+001 64018 75991,76121,76017
 3.8000e+000 76170 -1.8853e+002 -6.8949e+001  7.9341e+001 64018 76043,76095,76069
 3.8000e+000 76147 -3.2760e+001 -4.0940e+001  1.0967e+001 64018 75965,76121,75991
 3.8000e+000 76288 -1.7976e+002 -1.2176e+002  5.6233e+001 64018 76121,76095,76262
 3.8000e+000 76311 -1.6338e+002 -1.2107e+002  4.8937e+001 64018 76121,76262,76017
 3.8000e+000 76866 -6.1568e+001 -5.6280e+001  6.4266e+001 63728 76520,76676,76546
 3.8000e+000 76843 -5.2690e+001 -5.9975e+001  4.2809e+001 63728 76520,76702,76676
 3.8000e+000 76820 -5.6628e+001 -6.6304e+001  6.9097e+001 63728 76546,76650,76572
 3.8000e+000 76797 -8.8083e+001 -9.3173e+001  5.2657e+001 63728 76546,76676,76650
 3.8000e+000 76774 -9.0224e+001 -1.1271e+001  3.1002e+001 63728 76572,76650,76624
 3.8000e+000 76751 -4.7702e+001 -4.4614e+001  4.6664e+001 63728 76494,76702,76520
 3.8000e+000 76728 -2.2548e+001 -3.6233e+001  2.8146e+001 63728 76572,76624,76598
 3.8000e+000 77065 -1.7661e+002 -5.9718e+001  2.7111e+001 63288 77088,76941,76915
 3.8000e+000 77042 -1.9397e+002 -6.4912e+001  2.3984e+001 63288 77088,76915,76993
 3.8000e+000 77019 -1.8810e+002 -7.8330e+001  1.8236e+001 63288 76889,76993,76915
 3.8000e+000 77114 -1.7509e+002 -6.3093e+001  2.8338e+001 63288 76967,76941,77088
 3.8000e+000 77137 -2.2682e+002 -8.9117e+001  1.3618e+000 63288 77160,77088,76993
 3.8000e+000 77186 -1.3909e+002 -4.5843e+001  1.7368e+001 63288 76967,77088,77160
 3.8000e+000 77417 -1.7880e+002 -8.6269e+001  6.1352e+001 62884 77440,77342,77316
 3.8000e+000 77394 -2.5948e+002 -1.1663e+002  2.9276e+001 62884 77770,77440,77316
 3.8000e+000 77466 -1.9149e+002 -1.0480e+002  1.4696e+001 62884 77512,77440,77368
 3.8000e+000 77489 -2.0448e+002 -1.3055e+002  8.7205e+000 62884 77642,77440,77290
 3.8000e+000 77538 -1.7373e+002 -1.1775e+002  2.1391e+001 62884 77342,77440,77512
 3.8000e+000 77668 -1.9131e+002 -1.0495e+002  1.4582e+001 62884 77368,77440,77642
 3.8000e+000 77796 -1.9223e+002 -7.4716e+001  8.3294e-001 62884 77290,77440,77770
 3.8000e+000 78479 -2.9371e+002 -1.5123e+002  8.0768e+001 62480 78084,78240,78214
 3.8000e+000 78456 -2.8036e+002 -1.5156e+002  4.2502e+001 62480 78084,78266,78240
 3.8000e+000 78433 -3.1151e+002 -1.1878e+002  5.2927e+001 62480 78110,78214,78136
 3.8000e+000 78410 -2.4167e+002 -8.8830e+001  5.6614e+001 62480 78084,78214,78110
 3.8000e+000 78387 -2.2400e+002 -1.4271e+002  6.1294e+001 62480 78136,78214,78188
 3.8000e+000 78364 -2.2765e+002 -1.5627e+002  4.7846e+001 62480 78058,78266,78084
 3.8000e+000 78341 -3.5021e+002 -1.7630e+002 -1.9858e+001 62480 78136,78188,78162
 3.8000e+000 78318 -3.3744e+002 -1.8132e+002  3.8951e+000 62480 78058,78292,78266
 3.8000e+000 78678 -1.4536e+002 -1.6807e+002  7.2473e+001 61926 78528,78606,78554
 3.8000e+000 78655 -1.0190e+002 -1.4457e+002  9.3251e+001 61926 78502,78606,78528
 3.8000e+000 78632 -1.0997e+002 -7.8469e+001  7.6567e+001 61926 78554,78606,78580
 3.8000e+000 79058 -1.2488e+002 -8.6602e+001  6.5437e+001 61614 78836,78914,78862
 3.8000e+000 79035 -2.0494e+002 -1.2149e+002  5.1559e+001 61614 78810,78914,78836
 3.8000e+000 79012 -1.3293e+002 -8.9531e+001  6.0555e+001 61614 78784,78914,78810
 3.8000e+000 78989 -1.2274e+002 -9.7709e+001  8.3727e+001 61614 78862,78914,78888
 3.8000e+000 78966 -1.8740e+002 -9.0642e+001  6.5491e+001 61614 78784,78940,78914
 3.8000e+000 79208 -1.0603e+002 -2.4556e+002 -2.8576e+001 61366 79081,79133,79107
 3.8000e+000 79185 -5.5319e+001 -9.4666e+001 -9.1564e+000 61366 79081,79159,79133
 3.8000e+000 79358  9.8375e+000 -9.7662e+000  5.7921e+000 60962 79231,79283,79257
 3.8000e+000 79335 -4.1844e+001 -9.7897e+001  2.7500e+001 60962 79231,79309,79283
 3.8000e+000 79608 -9.4678e+001 -1.2064e+002  1.1875e+001 60508 79631,79435,79409
 3.8000e+000 79585 -6.4583e+001 -1.1492e+002  3.8697e+000 60508 79703,79631,79409
 3.8000e+000 79562 -6.2403e+001 -8.6459e+001  8.3200e+000 60508 79703,79409,79383
 3.8000e+000 79539 -1.4662e+002 -1.0105e+002  4.8351e+001 60508 79435,79487,79461
 3.8000e+000 79657 -1.0264e+002 -1.3833e+002  4.7551e+001 60508 79487,79435,79631
 3.8000e+000 79680 -5.9733e+001 -1.1157e+002  2.6046e+001 60508 79487,79631,79513
 3.8000e+000 79729 -5.8427e+001 -8.9641e+001 -3.2898e+000 60508 79513,79631,79703
 3.8000e+000 79752 -6.5684e+001 -8.7125e+001 -7.3773e+000 60508 79513,79703,79383
 3.8000e+000 80390 -1.1351e+002 -9.0171e+001  7.5263e+001 59997 80413,80096,80018
 3.8000e+000 80367 -1.8659e+002 -1.0648e+002  9.6132e+001 59997 80413,80018,80226
 3.8000e+000 80344 -8.5482e+001 -5.1151e+001  4.2323e+001 59997 80096,80174,80148
 3.8000e+000 80321 -2.7895e+002 -1.3800e+002  1.0013e+002 59997 80018,80096,80070
 3.8000e+000 80298 -8.7974e+001 -8.1355e+001  2.7102e+001 59997 80096,80148,80122
 3.8000e+000 80275 -1.1435e+002 -6.7158e+001  8.4694e+001 59997 80174,80226,80200
 3.8000e+000 80252 -2.6882e+002 -8.3780e+001  1.0799e+002 59997 80018,80070,80044
 3.8000e+000 80439 -9.2116e+001 -9.5876e+001  5.5949e+001 59997 80174,80096,80413
 3.8000e+000 80462 -1.2159e+002 -6.7138e+001  6.6870e+001 59997 80174,80413,80226
 3.8000e+000 80840 -1.0253e+002 -8.8420e+001  4.2173e+001 59443 80863,80644,80618
 3.8000e+000 80817 -4.2825e+001 -6.4014e+001  5.1867e+001 59443 80863,80618,80566
 3.8000e+000 80794 -4.5532e+001 -5.4530e+001  6.0157e+001 59443 81007,80935,80670
 3.8000e+000 80771 -6.2776e+001 -6.3777e+001  5.8186e+001 59443 80566,80722,80696
 3.8000e+000 80748 -6.5494e+001 -1.0149e+002  7.2018e+001 59443 80566,80618,80592
 3.8000e+000 80889 -1.1331e+002 -7.2600e+001  6.5992e+001 59443 80935,80644,80863
 3.8000e+000 80912 -8.0145e+001 -7.1286e+001  5.9360e+001 59443 80696,80863,80566
 3.8000e+000 80961 -7.1805e+001 -6.1327e+001  6.8512e+001 59443 80696,80670,80935
 3.8000e+000 80984 -6.9393e+001 -5.4632e+001  6.4574e+001 59443 80696,80935,80863
 3.8000e+000 81033 -9.1823e+001 -9.1481e+001  8.1934e+001 59443 80644,80935,81007
 3.8000e+000 81360 -1.6122e+002 -6.1460e+001  1.7824e+001 59031 81383,81187,81161
 3.8000e+000 81337 -1.4822e+002 -7.5232e+001 -1.1351e+001 59031 81455,81383,81161
 3.8000e+000 81314 -1.2932e+002 -7.3639e+001 -7.7931e+000 59031 81455,81161,81135
 3.8000e+000 81291 -1.9799e+002 -1.0002e+002  2.1089e+001 59031 81187,81239,81213
 3.8000e+000 81409 -1.7446e+002 -1.0014e+002  2.4610e+001 59031 81239,81187,81383
 3.8000e+000 81432 -1.8343e+002 -9.1328e+001 -1.1144e+001 59031 81239,81383,81265
 3.8000e+000 81481 -1.6933e+002 -6.7811e+001 -5.2842e+000 59031 81265,81383,81455
 3.8000e+000 81504 -1.5857e+002 -7.2374e+001 -5.2954e+000 59031 81265,81455,81135
 3.8000e+000 81835 -3.4481e+001 -3.0170e+001  3.8044e+001 58577 81610,81714,81636
 3.8000e+000 81812 -5.2121e+001 -5.4652e+001  4.7459e+001 58577 81610,81740,81714
 3.8000e+000 81789 -7.7418e+001 -4.8509e+001 -2.8626e+000 58577 81636,81714,81688
 3.8000e+000 81766 -9.3684e+001 -9.7338e+001 -2.7090e+001 58577 81636,81688,81662
 3.8000e+000 81985 -1.6607e+001 -3.8975e+001  2.5475e+001 58030 81884,81936,81910
 3.8000e+000 81962 -2.9921e+001 -1.2038e+001  1.9033e+001 58030 81858,81936,81884
 3.8000e+000 82414 -1.5543e+001 -6.4429e+000  1.8638e+001 57690 82437,82169,82117
 3.8000e+000 82391 -1.9241e+001 -2.3363e+001  2.1499e+001 57690 82437,82117,82247
 3.8000e+000 82368  6.3451e+000  1.3876e+001  4.8703e+001 57690 82195,82247,82221
 3.8000e+000 82345 -1.5823e+001 -2.1885e+001  2.1705e+001 57690 82091,82247,82117
 3.8000e+000 82322 -2.5002e+001 -7.7917e+000  1.2640e+001 57690 82117,82169,82143
 3.8000e+000 82299 -1.7558e+001 -3.9007e+001  2.9893e+001 57690 82091,82273,82247
 3.8000e+000 82463 -2.1973e+001  1.0131e+000  2.6342e+001 57690 82195,82169,82437
 3.8000e+000 82486 -2.3537e+001 -1.1643e+001  2.6335e+001 57690 82195,82437,82247
 3.8000e+000 83041 -1.2232e+002 -6.4090e+001  5.7400e+001 57172 83064,82721,82695
 3.8000e+000 83018 -1.2737e+002 -7.1588e+001  6.3692e+001 57172 83064,82695,82851
 3.8000e+000 82995 -2.3866e+002 -1.1418e+002  8.8171e+001 57172 82669,82851,82695
 3.8000e+000 82972 -1.4477e+002 -6.4960e+001  7.2391e+001 57172 82773,82851,82825
 3.8000e+000 82949 -1.1061e+002 -5.4762e+001  8.2587e+001 57172 82773,82825,82799
 3.8000e+000 82926 -1.0676e+002 -5.1005e+001  5.0890e+001 57172 82721,82773,82747
 3.8000e+000 82903 -2.8630e+002 -1.2370e+002  1.4952e+002 57172 82669,82877,82851
 3.8000e+000 83090 -1.3177e+002 -6.9971e+001  6.2274e+001 57172 82773,82721,83064
 3.8000e+000 83113 -1.2973e+002 -7.3619e+001  6.7731e+001 57172 82773,83064,82851
 3.8000e+000 83747 -8.1280e+001 -5.6976e+001  3.4624e+001 56554 83770,83427,83401
 3.8000e+000 83724 -7.5085e+001 -6.8701e+001  4.0134e+001 56554 83842,83770,83401
 3.8000e+000 83701 -3.0207e+001 -5.9136e+001  1.7705e+001 56554 83842,83401,83583
 3.8000e+000 83678 -1.4094e+002 -8.6829e+001  7.7137e+001 56554 83914,83531,83505
 3.8000e+000 83655 -1.0871e+002 -8.5425e+001  4.9115e+001 56554 83531,83583,83557
 3.8000e+000 83632 -3.1861e+001 -5.0206e+001  1.7443e+001 56554 83375,83583,83401
 3.8000e+000 83609 -7.6523e+001 -4.2942e+001  3.7438e+001 56554 83427,83479,83453
 3.8000e+000 83796 -7.4803e+001 -4.3595e+001  4.0168e+001 56554 83479,83427,83770
 3.8000e+000 83819 -8.0294e+001 -5.6559e+001  4.2639e+001 56554 83479,83770,83505
 3.8000e+000 83868 -6.4537e+001 -4.9179e+001  4.4674e+001 56554 83505,83770,83842
 3.8000e+000 83891 -1.0414e+002 -6.8698e+001  5.2926e+001 56554 83914,83505,83842
 3.8000e+000 83940 -8.2658e+001 -8.2981e+001  5.1311e+001 56554 83583,83531,83914
 3.8000e+000 83963 -4.7085e+001 -8.3291e+001  3.8124e+001 56554 83583,83914,83842
 3.8000e+000 84341 -1.5177e+002 -1.6277e+002  4.0200e+001 56192 84067,84145,84119
 3.8000e+000 84318 -1.6374e+002 -1.0470e+002  4.0184e+001 56192 84067,84223,84145
 3.8000e+000 84295 -1.5981e+002 -8.8220e+001  3.0610e+001 56192 84145,84223,84197
 3.8000e+000 84272 -1.4515e+002 -7.8779e+001  6.9911e+000 56192 84067,84119,84093
 3.8000e+000 84249 -1.1174e+002 -4.7264e+001  4.9178e+001 56192 84145,84197,84171
 3.8000e+000 84611 -4.4877e+001 -1.0440e+002 -3.3070e+000 55538 84386,84490,84412
 3.8000e+000 84588  3.1145e+000 -5.1654e+001 -2.4848e+001 55538 84386,84516,84490
 3.8000e+000 84565 -6.7346e+001 -1.1506e+002 -7.8012e+000 55538 84412,84490,84464
 3.8000e+000 84542 -5.7643e+001 -1.3418e+002 -1.6734e+001 55538 84412,84464,84438
 3.8000e+000 84942 -1.3635e+002 -8.1015e+001  6.5315e+001 55084 84769,84847,84795
 3.8000e+000 84919 -1.3557e+002 -7.9544e+001  6.6361e+001 55084 84717,84847,84769
 3.8000e+000 84896 -1.5950e+002 -1.5979e+002  7.4288e+001 55084 84717,84769,84743
 3.8000e+000 84873 -1.3107e+002 -3.8239e+001  6.4237e+001 55084 84795,84847,84821
 3.8000e+000 85271 -2.8931e+001 -2.0390e+001  2.3344e+001 54580 85294,85098,85072
 3.8000e+000 85248 -7.7982e+001 -4.8797e+001  3.6994e+001 54580 85294,85072,85176
 3.8000e+000 85225 -1.0326e+002 -1.4350e+001  1.6322e+001 54580 85124,85176,85150
 3.8000e+000 85202 -2.9054e+001 -3.8779e+001  2.3753e+001 54580 85046,85176,85072
 3.8000e+000 85320 -7.4564e+001 -1.7366e+001  3.2405e+001 54580 85124,85098,85294
 3.8000e+000 85343 -9.8556e+001 -2.4805e+001  4.0080e+001 54580 85124,85294,85176
 3.8000e+000 85542 -8.4149e+001 -1.0608e+002  2.6847e+001 53976 85565,85444,85418
 3.8000e+000 85519 -8.8055e+001 -9.1492e+001  2.0000e+001 53976 85565,85418,85366
 3.8000e+000 85496 -6.8990e+001 -1.1656e+002 -2.8246e+001 53976 85366,85418,85392
 3.8000e+000 85591 -9.0338e+001 -1.0223e+002  1.2611e+001 53976 85470,85444,85565
 3.8000e+000 85614 -7.8891e+001 -6.0126e+001  7.8890e+000 53976 85470,85565,85366
 3.8000e+000 85960 -1.7453e+002 -1.6950e+002  5.2753e+000 53572 85663,85715,85689
 3.8000e+000 85937 -1.3943e+002 -1.1317e+002  2.1093e+001 53572 85983,85715,85663
 3.8000e+000 85914 -1.2640e+002 -1.0159e+002  1.6043e+001 53572 86055,85983,85663
 3.8000e+000 85891 -1.1005e+002 -9.5191e+001  2.4880e+001 53572 86055,85663,85637
 3.8000e+000 85868 -1.3316e+002 -1.2990e+002  5.9045e+001 53572 85637,85793,85767
 3.8000e+000 85845 -1.4230e+002 -6.7131e+001  4.0349e+001 53572 85637,85819,85793
 3.8000e+000 86009 -1.1673e+002 -1.4654e+002  1.7101e+001 53572 85741,85715,85983
 3.8000e+000 86032 -1.1100e+002 -1.0699e+002  1.3732e+001 53572 85741,85983,85767
 3.8000e+000 86081 -1.1108e+002 -9.0741e+001  3.4952e+001 53572 85767,85983,86055
 3.8000e+000 86104 -9.5085e+001 -9.2007e+001  4.1279e+001 53572 85767,86055,85637
 3.8000e+000 86693 -2.5397e+002 -1.0827e+002  6.9679e+001 52946 86474,86526,86500
 3.8000e+000 86670 -1.6605e+002 -1.0917e+002  3.4470e+001 52946 86396,86526,86474
 3.8000e+000 86647 -2.1938e+002 -1.7523e+002  6.1801e+001 52946 86370,86526,86396
 3.8000e+000 86624 -9.4925e+001 -1.1692e+002  7.1039e+000 52946 86422,86474,86448
 3.8000e+000 86601 -1.6692e+002 -6.1590e+001  1.4640e+001 52946 86396,86474,86422
 3.8000e+000 86578 -1.4692e+002 -5.3588e+001  1.0118e+002 52946 86370,86552,86526
 3.8000e+000 87376 -1.6171e+002 -1.2577e+002  4.2181e+001 52420 87007,87085,87033
 3.8000e+000 87353 -1.4436e+002 -1.1675e+002  3.8864e+001 52420 87007,87163,87085
 3.8000e+000 87330 -1.2029e+002 -1.0901e+002  4.0491e+001 52420 87007,87189,87163
 3.8000e+000 87307 -1.6365e+002 -1.0806e+002  5.8368e+001 52420 87033,87085,87059
 3.8000e+000 87284 -1.6697e+002 -1.2031e+002  1.8441e+001 52420 87085,87137,87111
 3.8000e+000 87261 -1.3578e+002 -1.3024e+002  1.7202e+001 52420 87085,87163,87137
 3.8000e+000 87238 -9.2050e+001 -8.9663e+001  7.4376e+001 52420 86955,87189,87007
 3.8000e+000 87215 -6.1024e+001 -6.9379e+001  2.7928e+001 52420 86955,87007,86981
 3.8000e+000 87624 -1.2181e+002 -1.5738e+002 -3.8309e+001 51916 87451,87503,87477
 3.8000e+000 87601 -9.8984e+001 -1.3443e+002 -2.8135e+001 51916 87425,87503,87451
 3.8000e+000 87578 -4.9243e+001 -1.0585e+002 -1.6567e+001 51916 87425,87529,87503
 3.8000e+000 87555 -4.6949e+001 -1.0736e+002 -1.3514e+001 51916 87399,87529,87425
 3.8000e+000 88053 -9.9425e+001 -7.2327e+001  3.8617e+001 51568 87782,87834,87808
 3.8000e+000 88030 -1.2537e+002 -9.4555e+001  4.2156e+001 51568 88076,87782,87886
 3.8000e+000 88007 -1.2880e+002 -1.0297e+002  4.0048e+001 51568 88076,87886,87860
 3.8000e+000 87984 -1.3454e+002 -1.1818e+002  3.7622e+001 51568 87756,87886,87782
 3.8000e+000 87961 -1.0426e+002 -9.7783e+001  7.1365e+001 51568 87756,87912,87886
 3.8000e+000 87938 -1.1344e+002 -1.0382e+002  6.7969e+001 51568 87730,87912,87756
 3.8000e+000 88102 -1.2636e+002 -8.9974e+001  4.6423e+001 51568 87834,87782,88076
 3.8000e+000 88125 -1.2757e+002 -9.5350e+001  4.4582e+001 51568 87834,88076,87860
 3.8000e+000 88324 -6.0766e+001 -5.9726e+001  2.7927e+001 51164 88419,88347,88200
 3.8000e+000 88301 -3.7092e+001 -5.6340e+001  2.9162e+001 51164 88347,88148,88252
 3.8000e+000 88278 -7.6933e+001 -7.0636e+001  1.2544e+001 51164 88419,88200,88174
 3.8000e+000 88373 -3.8094e+001 -6.7949e+001  3.1373e+001 51164 88226,88200,88347
 3.8000e+000 88396 -3.7453e+000 -5.6403e+001  2.4904e+001 51164 88226,88347,88252
 3.8000e+000 88445 -4.1415e+001 -5.1582e+001  3.2135e+001 51164 88148,88347,88419
 3.8000e+000 88468 -4.1216e+001 -4.9053e+001  2.1685e+001 51164 88148,88419,88174
 3.8000e+000 88738 -4.3405e+001 -6.7494e+001  1.4398e+001 50560 88513,88617,88539
 3.8000e+000 88715 -3.3655e+001 -7.8576e+001  1.1185e+001 50560 88513,88643,88617
 3.8000e+000 88692 -2.4297e+001 -1.6333e+000  1.1591e+001 50560 88539,88591,88565
 3.8000e+000 88669 -2.0716e+001 -4.8626e+001  2.2491e+001 50560 88539,88617,88591
 3.8000e+000 88939 -8.9498e+001 -4.9742e+001  3.3234e+001 50106 88962,88789,88763
 3.8000e+000 88916 -7.0098e+001 -6.8576e+001  2.7442e+001 50106 88962,88763,88841
 3.8000e+000 88893 -7.4976e+001 -7.4023e+001  4.1005e+001 50106 88763,88867,88841
 3.8000e+000 88988 -6.8773e+001 -5.0064e+001  2.8566e+001 50106 88815,88789,88962
 3.8000e+000 89011 -7.5358e+001 -5.6924e+001  3.1094e+001 50106 89034,88962,88841
 3.8000e+000 89060 -3.9930e+001 -3.1250e+001  7.6479e+000 50106 88815,88962,89034
 3.8000e+000 89472 -6.0758e+001 -5.7373e+001  3.5371e+001 49666 89273,89351,89325
 3.8000e+000 89449 -4.7087e+001 -6.7246e+001  3.2653e+001 49666 89273,89377,89351
 3.8000e+000 89426 -5.0463e+001 -4.9749e+001  4.1178e+001 49666 89273,89325,89299
 3.8000e+000 89403 -4.9870e+001 -3.3758e+001  4.2681e+001 49666 89247,89377,89273
 3.8000e+000 89978 -1.4233e+002 -1.0615e+002  1.7772e+001 49205 89681,89837,89733
 3.8000e+000 89955 -7.9589e+001 -5.6697e+001  4.0657e+001 49205 89655,89837,89681
 3.8000e+000 89932 -2.1850e+002 -3.9498e+001  4.5970e+001 49205 89785,89837,89811
 3.8000e+000 89909 -1.3126e+002 -9.0087e+001  2.3889e+001 49205 89733,89837,89785
 3.8000e+000 89886 -1.8204e+002 -1.1298e+002  1.9160e+001 49205 89733,89785,89759
 3.8000e+000 89863 -7.4638e+001 -1.0855e+002  2.2401e+001 49205 89681,89733,89707
 3.8000e+000 90177 -1.1803e+002 -4.8239e+001  3.6771e+001 48865 90530,90200,90053
 3.8000e+000 90154 -1.0296e+002 -5.4287e+001  4.5683e+000 48865 90402,90200,90001
 3.8000e+000 90131 -1.2318e+002 -4.4188e+001  3.7066e+001 48865 90530,90053,90027
 3.8000e+000 90226 -1.3507e+002 -7.5519e+001  4.7230e+001 48865 90079,90053,90200
 3.8000e+000 90249 -1.4272e+002 -1.2254e+002  6.4255e+000 48865 90272,90200,90105
 3.8000e+000 90298 -7.3998e+001 -4.4366e+001  3.5661e+001 48865 90079,90200,90272
 3.8000e+000 90428 -1.2911e+002 -9.2847e+001  1.6506e+001 48865 90105,90200,90402
 3.8000e+000 90556 -1.2360e+002 -4.6149e+001  3.4217e+001 48865 90001,90200,90530
 3.8000e+000 90579 -1.3542e+002 -4.6932e+001  3.5645e+001 48865 90001,90530,90027
 3.8000e+000 90827 -8.7426e+001 -5.8723e+001  4.5606e+001 48404 90850,90654,90628
 3.8000e+000 90804 -9.2714e+001 -6.2694e+001  5.2251e+001 48404 90850,90628,90732
 3.8000e+000 90781 -6.3057e+001 -5.4640e+001  2.7533e+001 48404 90680,90732,90706
 3.8000e+000 90758 -1.0173e+002 -3.4543e+001  5.4153e+001 48404 90602,90732,90628
 3.8000e+000 90876 -8.8553e+001 -4.8764e+001  4.1782e+001 48404 90680,90654,90850
 3.8000e+000 90899 -9.2657e+001 -5.6727e+001  4.7418e+001 48404 90680,90850,90732
 3.8000e+000 91000 -5.5707e+001 -1.2909e+002 -3.7238e+001 48156 90922,90974,90948
 3.8000e+000 91250 -5.0409e+001 -1.1756e+002 -3.5458e+001 47752 91051,91103,91077
 3.8000e+000 91227 -3.6033e+001 -1.0907e+002 -3.9779e+001 47752 91025,91103,91051
 3.8000e+000 91204 -3.8151e+001 -8.5606e+001 -3.5526e+001 47752 91025,91155,91103
 3.8000e+000 91181 -3.9043e+001 -6.3285e+001 -3.8576e+001 47752 91103,91155,91129
 3.8000e+000 91402 -1.1299e+002 -6.1572e+001  3.4026e+001 47191 91425,91301,91275
 3.8000e+000 91379 -1.0038e+002 -5.6197e+001  3.3615e+001 47191 91497,91425,91275
 3.8000e+000 91451 -1.1732e+002 -4.9508e+001  2.0372e+001 47191 91327,91301,91425
 3.8000e+000 91474 -1.1054e+002 -7.7999e+001  4.6903e+001 47191 91327,91425,91353
 3.8000e+000 91523 -1.2644e+002 -1.5021e+002  3.9913e+001 47191 91353,91425,91497
 3.8000e+000 91854 -5.5848e+001 -1.5421e+002 -8.5483e+000 46744 91949,91877,91707
 3.8000e+000 91831  2.3220e+001 -9.0961e+001 -1.9858e+001 46744 91877,91655,91629
 3.8000e+000 91808 -4.6952e+001 -1.6433e+002 -1.4459e+000 46744 91949,91707,91681
 3.8000e+000 91785 -7.7550e+001 -7.5023e+001  1.3752e+001 46744 91629,91759,91733
 3.8000e+000 91903 -1.0825e+002 -1.0002e+002  6.8547e+000 46744 91733,91707,91877
 3.8000e+000 91926 -4.9576e+001 -6.9352e+001  1.8901e+001 46744 91733,91877,91629
 3.8000e+000 91975 -4.9276e+001 -1.1901e+002 -1.1804e+001 46744 91655,91877,91949
 3.8000e+000 91998 -5.1577e+001 -1.3923e+002 -1.6528e-001 46744 91655,91949,91681
 3.8000e+000 92378 -2.9895e+001 -4.3157e+000  1.5272e+001 46090 92130,92208,92182
 3.8000e+000 92355 -4.6772e+001 -1.1122e+001  1.6797e+001 46090 92104,92208,92130
 3.8000e+000 92332 -1.9268e+001 -2.5980e+001  1.6013e+001 46090 92104,92260,92208
 3.8000e+000 92309 -1.1435e+001  7.6357e+000  1.2545e+001 46090 92208,92260,92234
 3.8000e+000 92286 -5.7155e+001 -1.6839e+001  2.0947e+001 46090 92130,92182,92156
 3.8000e+000 92626 -5.9839e+001 -7.9048e+001  2.0342e+001 45693 92721,92649,92505
 3.8000e+000 92603 -7.3219e+001 -7.9456e+001  5.4100e+001 45693 92649,92453,92427
 3.8000e+000 92580 -6.2730e+001 -6.8898e+001  1.9420e+001 45693 92721,92505,92479
 3.8000e+000 92557 -1.3684e+002 -1.0431e+002  6.7044e+001 45693 92401,92531,92427
 3.8000e+000 92675 -1.0172e+002 -7.6757e+001  2.8531e+001 45693 92531,92505,92649
 3.8000e+000 92698 -1.1621e+002 -9.3981e+001  7.3285e+001 45693 92531,92649,92427
 3.8000e+000 92747 -6.6934e+001 -6.5615e+001  2.1312e+001 45693 92453,92649,92721
 3.8000e+000 92770 -4.8570e+001 -2.7427e+001  2.8550e+001 45693 92453,92721,92479
 3.8000e+000 93172 -2.5532e+001 -4.0469e+001  3.8219e+001 45331 92898,93028,92924
 3.8000e+000 93149 -1.0825e+001 -2.5575e+001  2.5575e+001 45331 92898,93054,93028
 3.8000e+000 93126 -3.7925e+001 -2.0785e+001  4.1232e+001 45331 92924,93002,92976
 3.8000e+000 93103 -1.5037e+001 -3.5535e+001  3.6866e+001 45331 92924,93028,93002
 3.8000e+000 93080 -4.0100e+001 -4.4579e+001  4.5873e+001 45331 92924,92976,92950
 3.8000e+000 93518 -2.1525e+002 -1.5737e+002  3.8880e+001 44820 93613,93273,93247
 3.8000e+000 93495 -1.3096e+002 -1.0879e+002  3.3964e+001 44820 93685,93541,93247
 3.8000e+000 93472 -1.2725e+002 -7.7023e+001  3.4804e+001 44820 93541,93195,93377
 3.8000e+000 93449 -1.4815e+002 -9.1655e+001  1.3674e+001 44820 93685,93247,93221
 3.8000e+000 93426 -1.3488e+002 -9.3887e+001  5.2075e+001 44820 93299,93377,93351
 3.8000e+000 93403 -8.9467e+001 -6.3822e+001  6.8798e+001 44820 93299,93351,93325
 3.8000e+000 93567 -1.2535e+002 -1.2421e+002  2.9358e+001 44820 93613,93247,93541
 3.8000e+000 93590 -1.3560e+002 -1.0299e+002  2.5163e+001 44820 93299,93541,93377
 3.8000e+000 93639 -1.2188e+002 -1.3775e+002  3.6940e+001 44820 93299,93273,93613
 3.8000e+000 93662 -1.2437e+002 -1.3897e+002  3.7109e+001 44820 93299,93613,93541
 3.8000e+000 93711 -1.0593e+002 -7.6940e+001  1.5374e+001 44820 93195,93541,93685
 3.8000e+000 93734 -9.8715e+001 -2.5261e+001 -9.9780e+000 44820 93195,93685,93221
 3.8000e+000 94163 -7.2390e+001 -6.7351e+001  2.9660e+001 44237 94258,94186,93996
 3.8000e+000 94140 -6.9233e+001 -9.0074e+001  1.4886e+001 44237 94330,94022,93996
 3.8000e+000 94117 -7.5088e+001 -5.3475e+001  2.2085e+001 44237 94186,93918,93866
 3.8000e+000 94094 -7.2647e+001 -4.6091e+001  1.4589e+001 44237 94258,93996,93970
 3.8000e+000 94071 -7.2715e+001 -6.3208e+000  2.4242e+001 44237 94402,93944,93918
 3.8000e+000 94048 -5.0607e+001 -3.3375e+001  9.7471e+000 44237 93866,93918,93892
 3.8000e+000 94212 -6.9343e+001 -9.0383e+001  1.7918e+001 44237 94330,93996,94186
 3.8000e+000 94235 -7.1856e+001 -6.0129e+001  1.8000e+001 44237 93840,94186,93866
 3.8000e+000 94284 -6.5993e+001 -4.0673e+001  1.3534e+001 44237 93918,94186,94258
 3.8000e+000 94307 -7.0734e+001 -1.2208e+001  1.6652e+001 44237 94402,93918,94258
 3.8000e+000 94356 -6.2322e+001 -6.3132e+001  4.0794e+000 44237 93840,94022,94330
 3.8000e+000 94379 -6.7249e+001 -8.5321e+001  1.8001e+001 44237 93840,94330,94186
 3.8000e+000 94428 -5.6075e+001 -2.8552e+001  2.2911e+001 44237 93970,93944,94402
 3.8000e+000 94451 -6.5784e+001 -4.1034e+001  1.1192e+001 44237 93970,94402,94258
 3.8000e+000 94908 -1.3482e+002 -1.2812e+002  2.2583e+000 43890 94660,94790,94712
 3.8000e+000 94885 -6.4736e+001 -7.8106e+001  2.6660e+001 43890 94634,94790,94660
 3.8000e+000 94862 -1.5441e+002 -1.3669e+002  4.0062e+000 43890 94712,94764,94738
 3.8000e+000 94839 -1.1014e+002 -7.4186e+001  2.3515e+001 43890 94712,94790,94764
 3.8000e+000 94816 -8.9461e+001 -1.3613e+002  3.3538e+001 43890 94660,94712,94686
 3.8000e+000 95414 -5.3131e+001 -2.2407e+001  8.7777e+000 43186 95437,95143,95117
 3.8000e+000 95391 -5.3750e+001 -5.3542e+001  1.9863e+001 43186 95437,95117,95091
 3.8000e+000 95368 -3.7418e+001 -2.5084e+001  1.0973e+001 43186 95143,95221,95195
 3.8000e+000 95345 -8.5372e+001 -6.3319e+001  4.2453e+001 43186 95091,95273,95221
 3.8000e+000 95322 -6.9968e+001 -4.7108e+001  1.5869e+001 43186 95221,95273,95247
 3.8000e+000 95299 -3.3415e+001 -6.1769e+000  8.5034e+000 43186 95143,95195,95169
 3.8000e+000 95463 -6.0207e+001 -4.3649e+001  2.3236e+001 43186 95221,95143,95437
 3.8000e+000 95486 -5.7035e+001 -6.8182e+001  3.4658e+001 43186 95221,95437,95091
 3.8000e+000 96041 -6.0807e+001 -5.8750e+001  1.2721e+001 42782 95695,95851,95799
 3.8000e+000 96018 -4.9742e+001 -7.2253e+001  1.5699e+001 42782 95669,95851,95695
 3.8000e+000 95995 -7.3589e+001 -3.1548e+001  1.4981e+001 42782 95695,95747,95721
 3.8000e+000 95972 -5.0344e+001 -5.4260e+001  1.2835e+001 42782 95695,95799,95747
 3.8000e+000 95949 -4.1029e+001 -2.8310e+001  1.0179e+001 42782 95747,95799,95773
 3.8000e+000 95926 -8.6156e+001 -7.7688e+001  2.9574e+001 42782 95799,95851,95825
 3.8000e+000 95903 -5.7183e+001 -7.5514e+001  1.5996e+001 42782 95669,95877,95851
 3.8000e+000 96370 -9.5885e+001 -1.1075e+002  7.5926e+001 42420 96197,96275,96223
 3.8000e+000 96347 -1.0134e+002 -9.6733e+001  6.1421e+001 42420 96145,96275,96197
 3.8000e+000 96324 -8.9095e+001 -5.7417e+001  5.3786e+001 42420 96145,96197,96171
 3.8000e+000 96301 -5.5120e+001 -9.7768e+001  3.8842e+001 42420 96223,96275,96249
 3.8000e+000 96699 -3.6124e+001 -9.4196e+001 -5.0227e+000 41816 96474,96578,96526
 3.8000e+000 96676 -3.5571e+001 -9.5241e+001 -3.6894e+000 41816 96474,96604,96578
 3.8000e+000 96653 -7.1965e+001 -1.1263e+002 -1.3768e+001 41816 96526,96578,96552
 3.8000e+000 96630 -3.7665e+001 -1.2870e+002 -2.2264e+001 41816 96474,96526,96500
 3.8000e+000 96947 -3.9784e+001 -9.3159e+001 -4.2618e+001 41212 96722,96800,96748
 3.8000e+000 96924 -7.2744e+001 -1.2893e+002 -2.8353e+001 41212 96722,96826,96800
 3.8000e+000 96901 -4.0514e+001 -1.0909e+002 -3.8478e+001 41212 96722,96852,96826
 3.8000e+000 96878 -8.3421e+001 -1.0479e+002 -2.1627e+001 41212 96748,96800,96774
 3.8000e+000 97097 -3.2131e+001 -6.0007e+000  2.8892e+001 40793 97120,97022,96996
 3.8000e+000 97074 -6.1633e+001 -6.6681e+001  1.7644e+001 40793 97192,97120,96996
 3.8000e+000 97146 -2.3626e+001 -5.5443e+001  2.7206e+001 40793 97324,97120,97048
 3.8000e+000 97169 -2.0332e+001 -9.0953e+001  2.7299e+001 40793 97048,97120,96970
 3.8000e+000 97218 -7.9005e+000 -4.3642e+001  1.8846e+001 40793 96970,97120,97192
 3.8000e+000 97350 -2.3626e+001 -5.5443e+001  2.7206e+001 40793 97022,97120,97324
 3.8000e+000 97878 -3.7458e+001 -7.3636e+001  1.4354e+001 40446 97901,97607,97555
 3.8000e+000 97855 -3.7279e+001 -5.4624e+001  1.4329e+001 40446 97973,97901,97555
 3.8000e+000 97832 -3.7454e+001 -4.9783e+001  1.0008e+001 40446 97973,97555,97737
 3.8000e+000 97809 -2.4301e+001 -4.3629e+001  3.6086e+000 40446 97633,97685,97659
 3.8000e+000 97786 -3.8279e+001 -5.1589e+001  6.8655e+000 40446 97633,97711,97685
 3.8000e+000 97763 -3.6555e+001 -8.4296e+001  1.8530e+001 40446 97555,97607,97581
 3.8000e+000 97927 -4.2323e+001 -9.2282e+001 -2.9255e+000 40446 97633,97607,97901
 3.8000e+000 97950 -3.3251e+001 -6.4896e+001  4.1659e+000 40446 97633,97901,97711
 3.8000e+000 97999 -3.5622e+001 -6.8619e+001  1.5155e+001 40446 97711,97901,97973
 3.8000e+000 98022 -3.3705e+001 -5.9170e+001  1.2142e+001 40446 97711,97973,97737
 3.8000e+000 98449 -1.6412e+001 -1.0930e+001  6.0777e+000 39935 98152,98204,98178
 3.8000e+000 98426 -1.3887e+001 -2.5096e+001  8.2545e+000 39935 98152,98230,98204
 3.8000e+000 98403 -2.3088e+001 -1.2939e+001  1.9271e+001 39935 98152,98256,98230
 3.8000e+000 98380 -4.1741e+001 -1.3086e+001  1.9341e+001 39935 98126,98256,98152
 3.8000e+000 98357 -3.7555e+001 -4.2271e+001  6.6904e+000 39935 98126,98282,98256
 3.8000e+000 98334 -4.1344e+001 -9.1353e+001  2.6855e+001 39935 98126,98308,98282
 3.8000e+000 98746 -1.5767e+002 -1.0380e+002  3.4839e+001 39531 98498,98602,98524
 3.8000e+000 98723 -9.9988e+001 -9.5877e+001  3.2617e+001 39531 98472,98602,98498
 3.8000e+000 98700 -1.4708e+002 -6.1026e+001  3.1574e+001 39531 98524,98602,98576
 3.8000e+000 98677 -7.3696e+001 -9.3913e+001  3.4319e+001 39531 98472,98628,98602
 3.8000e+000 98654 -2.0934e+002 -8.8721e+001  2.5797e+001 39531 98524,98576,98550
 3.8000e+000 99224 -7.5717e+001 -1.0895e+002 -9.5993e+000 39027 99247,98956,98930
 3.8000e+000 99201 -9.1595e+001 -1.1783e+002  2.1129e+001 39027 99247,98930,98878
 3.8000e+000 99178 -1.1357e+002 -1.1756e+002  3.1969e+001 39027 99319,98982,98956
 3.8000e+000 99155 -6.0720e+001 -6.5998e+001  3.3511e+001 39027 98852,99060,98878
 3.8000e+000 99132 -5.0446e+001 -1.2948e+002  3.1278e+001 39027 98878,98930,98904
 3.8000e+000 99109 -1.2652e+002 -9.7535e+001  1.9024e+001 39027 98982,99060,99034
 3.8000e+000 99086 -1.7955e+002 -1.7049e+002  4.2398e+001 39027 98982,99034,99008
 3.8000e+000 99273 -1.2078e+002 -1.2247e+002  1.6820e+001 39027 99319,98956,99247
 3.8000e+000 99296 -9.3288e+001 -1.1972e+002  1.6838e+001 39027 99060,99247,98878
 3.8000e+000 99345 -9.8774e+001 -1.1443e+002  3.0330e+001 39027 99060,98982,99319
 3.8000e+000 99368 -8.9627e+001 -1.1409e+002  2.0047e+001 39027 99060,99319,99247
 3.8000e+000 99923 -5.3493e+001 -5.0310e+001  3.4377e+001 38523 99946,99655,99603
 3.8000e+000 99900 -5.7915e+001 -5.3004e+001  3.2711e+001 38523 99946,99603,99759
 3.8000e+000 99877 -4.7594e+001 -7.8417e+001  3.3978e+001 38523 100018,99707,99681
 3.8000e+000 99854 -5.7878e+001 -4.6986e+001  3.2485e+001 38523 99551,99759,99603
 3.8000e+000 99831 -4.8997e+001 -3.7768e+001  2.6385e+001 38523 99551,99603,99577
 3.8000e+000 99808 -6.2766e+001 -1.1763e+002  3.1318e+001 38523 99707,99759,99733
 3.8000e+000 99785 -4.0447e+001 -3.7679e+001  2.9140e+001 38523 99603,99655,99629
 3.8000e+000 99972 -4.5164e+001 -2.2952e+001  2.2672e+001 38523 99681,99655,99946
 3.8000e+000 99995 -4.7442e+001 -4.1092e+001  3.5809e+001 38523 100018,99681,99946
 3.8000e+000 100044 -4.7950e+001 -9.0115e+001  1.6592e+001 38523 99759,99707,100018
 3.8000e+000 100067 -6.2676e+001 -7.8107e+001  2.1060e+001 38523 99759,100018,99946
 3.8000e+000 100467 -2.9333e+001 -6.1006e+001 -2.9892e+000 38125 100219,100349,100323
 3.8000e+000 100444 -3.7957e+001 -8.7777e+001 -4.3963e+000 38125 100193,100349,100219
 3.8000e+000 100421 -3.6793e+001 -5.7287e+001 -1.0104e+001 38125 100245,100323,100297
 3.8000e+000 100398 -2.5892e+001 -6.0266e+001 -6.6411e+000 38125 100219,100323,100245
 3.8000e+000 100375 -6.5084e+001 -7.3174e+001 -1.9111e+001 38125 100245,100297,100271
 3.8000e+000 100666 -8.4682e+001 -1.4063e+002  2.8845e+001 37607 100689,100568,100542
 3.8000e+000 100643 -6.0929e+001 -8.4294e+001  3.0829e+001 37607 100689,100542,100490
 3.8000e+000 100620 -8.5387e+000 -9.3551e+001  5.9468e+000 37607 100490,100542,100516
 3.8000e+000 100715 -7.9690e+001 -8.3681e+001  2.0063e+001 37607 100594,100568,100689
 3.8000e+000 100738 -8.0197e+001 -6.7237e+001  2.2263e+001 37607 100594,100689,100490
 3.8000e+000 100937 -3.4258e+001 -6.8222e+001 -6.9551e+000 37017 100960,100813,100787
 3.8000e+000 100914  1.6844e+001 -5.5699e+001 -2.4191e+001 37017 100960,100787,100761
 3.8000e+000 100891 -1.1077e+002 -4.7990e+001  3.7444e+001 37017 100813,100865,100839
 3.8000e+000 100986 -9.2823e+001 -8.3692e+001  4.9610e+001 37017 100865,100813,100960
 3.8000e+000 101009  3.9597e+000 -4.6620e+001  3.2401e+001 37017 100865,100960,100761
 3.8000e+000 101519 -4.0872e+001 -6.8842e+001 -3.6609e+000 36613 101222,101274,101248
 3.8000e+000 101496 -3.1895e+001 -6.7572e+001 -2.3764e+000 36613 101222,101352,101274
 3.8000e+000 101473 -5.1695e+001 -1.1512e+002  1.7037e+000 36613 101274,101352,101326
 3.8000e+000 101450 -4.0262e+001 -7.5761e+001 -5.8625e+000 36613 101222,101378,101352
 3.8000e+000 101427 -1.9717e+001 -1.0745e+002  2.2171e+001 36613 101274,101326,101300
 3.8000e+000 101404 -5.3672e+001 -1.0032e+002 -1.7848e+001 36613 101196,101378,101222
 3.8000e+000 101718 -6.2128e+001 -5.1242e+001  6.7287e+001 36308 101594,101646,101620
 3.8000e+000 101695 -6.5629e+001 -3.1102e+001  3.3836e+001 36308 101568,101646,101594
 3.8000e+000 101672 -2.7609e+001 -3.8679e+001  4.2970e+001 36308 101542,101646,101568
 3.8000e+000 102098 -2.0783e+001 -4.6518e+001  2.5482e+001 35918 102121,101954,101876
 3.8000e+000 102075 -5.0888e+000 -5.3697e+001  2.2881e+001 35918 102121,101876,101824
 3.8000e+000 102052 -1.3097e+001 -4.3802e+001  2.1258e+001 35918 101876,101954,101928
 3.8000e+000 102029  3.1195e+000 -3.2647e+001  1.5525e+001 35918 101876,101928,101902
 3.8000e+000 102006  7.0904e+000 -2.0316e+001  7.3315e+000 35918 101824,101876,101850
 3.8000e+000 102147 -3.4611e+001 -5.3273e+001  2.8172e+001 35918 101980,101954,102121
 3.8000e+000 102170 -1.6221e+001 -5.9078e+001  2.5508e+001 35918 101980,102121,101824
 3.8000e+000 102489 -5.3916e+001 -1.1058e+002  4.1453e+001 35514 102241,102345,102267
 3.8000e+000 102466 -6.5813e+001 -1.1378e+002  4.0806e+001 35514 102215,102345,102241
 3.8000e+000 102443 -5.4036e+001 -1.2684e+002  4.4587e+001 35514 102215,102371,102345
 3.8000e+000 102420 -3.9523e+001 -8.7985e+001  4.8384e+001 35514 102267,102345,102293
 3.8000e+000 102397 -2.0618e+001 -4.9715e+001  5.6582e+001 35514 102293,102345,102319
 3.8000e+000 102820 -1.6625e+001 -3.3350e+001 -6.6643e-001 35224 102843,102699,102647
 3.8000e+000 102797 -6.6535e+001 -2.8755e+001  4.7466e+000 35224 102971,102725,102699
 3.8000e+000 102774 -1.9259e+001 -2.0085e+001  9.6107e+000 35224 102595,102725,102621
 3.8000e+000 102751 -1.2926e+001 -1.9542e+001  2.4893e+000 35224 102647,102699,102673
 3.8000e+000 102869 -3.6927e+001 -4.0265e+001  9.3352e+000 35224 102971,102699,102843
 3.8000e+000 102997 -3.8510e+001 -2.7256e+001  9.7932e+000 35224 102621,102725,102971
 3.8000e+000 103020  1.2652e+000 -2.7333e+001  1.9724e+001 35224 102621,102971,102843
 3.8000e+000 103349 -5.5524e+001 -5.0974e+001  3.3435e+001 34820 103150,103228,103176
 3.8000e+000 103326 -4.7893e+001 -5.8524e+001  3.2175e+001 34820 103124,103228,103150
 3.8000e+000 103303 -4.9217e+001 -4.7340e+001  4.1939e+001 34820 103176,103228,103202
 3.8000e+000 103280 -4.6140e+001 -5.5451e+001  4.7990e+001 34820 103124,103254,103228
 3.8000e+000 103806 -3.5823e+001 -3.2706e+001  1.5795e+001 34530 103558,103662,103636
 3.8000e+000 103783 -8.9159e+000 -2.7755e+001  1.0691e+001 34530 103558,103688,103662
 3.8000e+000 103760 -3.2009e+000 -4.9813e+000  6.5058e+000 34530 103532,103688,103558
 3.8000e+000 103737 -7.5756e+000 -2.4539e+001  1.0494e+001 34530 103584,103636,103610
 3.8000e+000 103714 -9.1873e+000 -2.1443e+001  1.1895e+001 34530 103558,103636,103584
 3.8000e+000 104263 -1.6929e+001 -1.8177e+001  1.8294e+001 34019 103989,104119,104015
 3.8000e+000 104240 -2.7791e+001 -2.3046e+001  1.7299e+001 34019 103989,104145,104119
 3.8000e+000 104217 -2.5341e+001 -2.2574e+001  9.5054e+000 34019 104015,104067,104041
 3.8000e+000 104194 -3.2944e+001 -2.6006e+001  1.2931e+001 34019 104015,104119,104067
 3.8000e+000 104171 -2.0274e+001 -2.1993e+001  8.7819e+000 34019 104067,104119,104093
 3.8000e+000 104641 -4.0344e+001 -7.4954e+001  1.5570e+001 33351 104419,104497,104445
 3.8000e+000 104618 -3.0298e+001 -2.1479e+001  4.8111e+001 33351 104393,104497,104419
 3.8000e+000 104595 -8.2856e+001 -5.5923e+001  8.6312e+000 33351 104367,104497,104393
 3.8000e+000 104572 -2.7578e+001 -4.5260e+001  2.5851e+000 33351 104445,104497,104471
 3.8000e+000 104549 -8.2745e+001 -2.9609e+000  1.4983e+001 33351 104367,104523,104497
 3.8000e+000 105019 -5.1559e+001 -7.8808e+001  5.0605e+001 32861 104823,104901,104875
 3.8000e+000 104996 -6.8430e+001 -9.3933e+001  4.2555e+001 32861 104745,104901,104823
 3.8000e+000 104973 -7.2658e+001 -8.8357e+001  4.6836e+001 32861 104823,104875,104849
 3.8000e+000 104950 -6.5211e+001 -7.6198e+001  6.0379e+001 32861 104745,104823,104797
 3.8000e+000 104927 -7.5513e+001 -4.1664e+001  5.7923e+001 32861 104745,104797,104771
 3.8000e+000 105397 -1.1346e+001 -2.1182e+001  8.8129e+000 32457 105149,105253,105175
 3.8000e+000 105374 -2.1451e+001 -2.7381e+001  1.1397e+001 32457 105149,105279,105253
 3.8000e+000 105351 -4.5324e+000 -2.5312e+001  1.1502e+001 32457 105123,105279,105149
 3.8000e+000 105328 -2.2431e+001 -2.2975e+000  1.1582e+001 32457 105175,105227,105201
 3.8000e+000 105305 -2.4169e+001 -2.7054e+001  5.6087e+000 32457 105175,105253,105227
 3.8000e+000 105726 -1.9244e+001 -2.5468e+001  1.3073e+001 32003 105527,105605,105553
 3.8000e+000 105703 -2.3986e+001 -2.5928e+001  1.1727e+001 32003 105501,105605,105527
 3.8000e+000 105680 -2.4373e+001 -2.5382e+001  1.0271e+001 32003 105501,105631,105605
 3.8000e+000 105657 -1.3275e+001 -2.1955e+001  8.4672e+000 32003 105553,105605,105579
 3.8000e+000 106104 -3.9599e+001 -4.6282e+001 -2.5022e+001 31492 106127,105908,105856
 3.8000e+000 106081 -1.8464e+001 -3.7425e+001 -2.4505e+001 31492 106127,105856,105830
 3.8000e+000 106058 -1.5778e+001 -4.1569e+001 -2.8850e+001 31492 105856,105908,105882
 3.8000e+000 106035  2.6339e+001 -1.3115e+001 -1.4985e+001 31492 105830,105986,105960
 3.8000e+000 106012 -3.8517e+000 -1.9643e+001  1.0113e+001 31492 105908,105960,105934
 3.8000e+000 106153 -4.7774e+001 -3.8786e+001 -1.2377e+001 31492 105960,105908,106127
 3.8000e+000 106176 -3.5722e+001 -3.3804e+001 -1.1750e+001 31492 105960,106127,105830
 3.8000e+000 106375 -2.8022e+001 -6.7954e+000  8.2971e+000 30788 106398,106277,106251
 3.8000e+000 106352 -1.7035e+001 -3.7741e+001  2.5036e+001 30788 106398,106251,106225
 3.8000e+000 106329 -4.5781e+001 -4.3157e+001  3.4700e+001 30788 106600,106199,106303
 3.8000e+000 106424 -6.5279e+001 -3.9997e+001  7.0272e+000 30788 106470,106398,106303
 3.8000e+000 106447 -3.4575e+001 -4.6455e+001  2.8762e+001 30788 106600,106303,106398
 3.8000e+000 106496 -1.6361e+001 -1.8982e+001  8.1446e+000 30788 106277,106398,106470
 3.8000e+000 106626 -5.2079e+001 -5.0289e+001  4.0184e+001 30788 106225,106199,106600
 3.8000e+000 106649 -4.4921e+001 -5.4593e+001  3.4040e+001 30788 106225,106600,106398
 3.8000e+000 106799 -5.9551e+001 -3.9018e+001 -3.0962e+001 30426 106698,106750,106724
 3.8000e+000 106776 -2.0052e+001 -4.6536e+001 -1.6887e+001 30426 106672,106750,106698
 3.8000e+000 107356 -4.3226e+001 -7.2675e+001  4.4365e+001 29972 107010,107166,107114
 3.8000e+000 107333 -3.8819e+001 -7.5596e+001  3.9548e+001 29972 106984,107166,107010
 3.8000e+000 107310 -3.7833e+001 -8.1130e+001  4.8809e+001 29972 107010,107114,107088
 3.8000e+000 107287 -6.9839e+001 -1.1396e+002  2.9315e+001 29972 107114,107166,107140
 3.8000e+000 107264 -4.3469e+001 -4.7744e+001  2.0281e+001 29972 106984,107192,107166
 3.8000e+000 107241 -9.7265e+001 -1.4226e+002  8.1242e+001 29972 107010,107088,107036
 3.8000e+000 107218 -8.5200e+001 -1.3734e+002  7.4186e+001 29972 107036,107088,107062
 3.8000e+000 107783 -4.8609e+001 -5.7819e+001  4.0779e+001 29724 107878,107806,107590
 3.8000e+000 107760 -7.5016e+001 -7.2895e+001  3.8963e+001 29724 107806,107512,107486
 3.8000e+000 107737 -4.5430e+001 -6.0493e+001  3.7348e+001 29724 107878,107590,107538
 3.8000e+000 107714 -5.3903e+001 -7.7865e+001  4.9900e+001 29724 107950,107460,107616
 3.8000e+000 107691 -5.6264e+001 -7.8853e+001  5.0071e+001 29724 107460,107642,107616
 3.8000e+000 107668 -4.0960e+001 -4.4260e+001  4.1866e+001 29724 107538,107590,107564
 3.8000e+000 107832 -3.7353e+001 -6.2679e+001  5.5498e+001 29724 107616,107590,107806
 3.8000e+000 107855 -5.4433e+001 -7.8516e+001  4.8936e+001 29724 107950,107616,107806
 3.8000e+000 107904 -5.6403e+001 -6.3836e+001  4.7280e+001 29724 107512,107806,107878
 3.8000e+000 107927 -4.4250e+001 -6.3688e+001  4.4533e+001 29724 107512,107878,107538
 3.8000e+000 107976 -3.3526e+001 -7.7851e+001  5.4434e+001 29724 107486,107460,107950
 3.8000e+000 107999 -5.1717e+001 -8.3839e+001  4.8137e+001 29724 107486,107950,107806
 3.8000e+000 108296 -7.9587e+001 -4.1292e+001  3.5847e+001 29206 108319,108100,108048
 3.8000e+000 108273 -4.2519e+001 -3.1151e+001  4.4402e+001 29206 108319,108048,108022
 3.8000e+000 108250 -1.8360e+001 -4.4430e+001  5.8463e+001 29206 108391,108152,108126
 3.8000e+000 108227 -7.7332e+001 -2.7008e+001  3.5129e+001 29206 108048,108100,108074
 3.8000e+000 108204 -2.5752e+001 -6.6505e+001  4.8697e+001 29206 108022,108178,108152
 3.8000e+000 108345 -6.0927e+001 -1.8961e+001  5.9042e+001 29206 108126,108100,108319
 3.8000e+000 108368 -2.9461e+001 -3.0179e+001  6.6583e+001 29206 108391,108126,108319
 3.8000e+000 108417 -4.1763e+001 -6.1666e+001  5.0030e+001 29206 108022,108152,108391
 3.8000e+000 108440 -4.9895e+001 -4.9509e+001  5.8427e+001 29206 108022,108391,108319
 3.8000e+000 108688 -1.9230e+001 -2.8748e+001  2.9420e+001 28595 108711,108541,108515
 3.8000e+000 108665 -3.1357e+001 -3.0668e+001  3.4297e+001 28595 108783,108711,108515
 3.8000e+000 108642 -2.9773e+001 -3.6812e+001  3.3190e+001 28595 108783,108515,108489
 3.8000e+000 108619  4.9841e+000 -4.6260e+001  2.1169e+000 28595 108463,108593,108489
 3.8000e+000 108737 -1.3327e+001 -2.0847e+001  1.5252e+001 28595 108567,108541,108711
 3.8000e+000 108760 -2.7742e+001 -2.9807e+001  2.5584e+001 28595 108567,108711,108593
 3.8000e+000 108809 -2.7346e+001 -4.1747e+001  3.3728e+001 28595 108593,108711,108783
 3.8000e+000 108832 -3.0035e+001 -5.2699e+001  3.1190e+001 28595 108593,108783,108489
 3.8000e+000 109033 -1.3632e+001  1.0384e+000  5.1498e+000 28091 108909,108961,108935
 3.8000e+000 109010 -1.2475e+001 -1.5356e+001  3.4109e+000 28091 108857,108961,108909
 3.8000e+000 108987 -1.3515e+001 -1.5094e+001  4.6674e+000 28091 108857,108909,108883
 3.8000e+000 109136 -5.0361e+001 -1.1769e+002  2.2706e+001 27587 109058,109110,109084
 3.8000e+000 109695  1.0037e+001 -6.9290e+001  7.9981e+000 26969 109718,109375,109323
 3.8000e+000 109672 -2.1106e+001 -1.0410e+002  3.4426e+001 26969 109718,109323,109505
 3.8000e+000 109649 -3.8066e+001 -3.7799e+001  3.7957e+001 26969 109790,109453,109427
 3.8000e+000 109626 -7.1517e+001 -4.3383e+001 -1.3069e+001 26969 109323,109375,109349
 3.8000e+000 109603 -1.4345e+001 -5.5652e+001 -2.2491e+000 26969 109323,109531,109505
 3.8000e+000 109580 -9.6718e+001 -1.0120e+002  1.5346e+001 26969 109375,109427,109401
 3.8000e+000 109557 -5.1378e+001 -7.7773e+001  4.2169e+001 26969 109453,109505,109479
 3.8000e+000 109744 -3.8975e+001 -8.5380e+001  1.2637e+001 26969 109427,109375,109718
 3.8000e+000 109767 -2.2461e+001 -5.8822e+001  3.7892e+001 26969 109790,109427,109718
 3.8000e+000 109816 -4.3582e+001 -5.9760e+001  4.9028e+001 26969 109505,109453,109790
 3.8000e+000 109839 -3.3334e+001 -8.3459e+001  5.2022e+001 26969 109505,109790,109718
 3.8000e+000 110266 -2.6970e+001 -7.5733e+001 -2.2302e+001 26515 110361,110289,110099
 3.8000e+000 110243 -2.3630e+001 -5.2012e+001 -3.0218e+001 26515 110289,109995,109943
 3.8000e+000 110220 -4.9272e+001 -8.5156e+001 -2.3441e+001 26515 110361,110099,110021
 3.8000e+000 110197 -9.2222e+001 -1.4764e+002 -1.0552e+001 26515 110047,110099,110073
 3.8000e+000 110174 -4.9542e+001 -1.2285e+002 -3.9336e+001 26515 110021,110099,110047
 3.8000e+000 110151 -1.4145e+001 -3.1648e+001 -2.6746e+001 26515 109943,109995,109969
 3.8000e+000 110315  1.7057e+001 -4.4198e+001 -3.6284e+001 26515 110125,110099,110289
 3.8000e+000 110338 -3.6058e+001 -4.2216e+001 -2.1498e+001 26515 110125,110289,109943
 3.8000e+000 110387 -4.4007e+001 -6.9775e+001 -4.8313e+001 26515 109995,110289,110361
 3.8000e+000 110410 -6.2655e+001 -7.6304e+001 -4.7678e+001 26515 109995,110361,110021
 3.8000e+000 110609 -8.2788e+000 -6.5512e+001  2.2163e+001 25789 110906,110762,110632
 3.8000e+000 110586 -6.2189e+000 -8.6478e+001  2.9038e+001 25789 110762,110433,110537
 3.8000e+000 110563 -3.8960e+001 -9.1956e+001  5.6300e+001 25789 110834,110459,110433
 3.8000e+000 110658 -1.4886e+001 -6.3379e+001  2.6101e+001 25789 110906,110632,110834
 3.8000e+000 110788  1.3131e+000 -3.3267e+001  8.3207e+000 25789 110511,110632,110762
 3.8000e+000 110811 -9.5153e+000 -6.1480e+001  2.5546e+001 25789 110511,110762,110537
 3.8000e+000 110860 -4.5841e+000 -6.8539e+001  2.7947e+001 25789 110485,110459,110834
 3.8000e+000 110883 -9.4991e+000 -2.5192e+001  7.6356e+000 25789 110485,110834,110632
 3.8000e+000 110932 -2.0230e+001 -6.9291e+001  2.2376e+001 25789 110433,110762,110906
 3.8000e+000 110955 -2.5468e+001 -6.5891e+001  2.5434e+001 25789 110433,110906,110834
 3.8000e+000 111350 -1.9593e+001 -6.0050e+001  5.3754e+001 25228 111445,111373,111186
 3.8000e+000 111327 -1.6141e+001 -7.6502e+001  5.7718e+000 25228 110978,111186,111004
 3.8000e+000 111304 -2.4631e+001 -8.8039e+001  5.7017e+001 25228 111373,111108,111082
 3.8000e+000 111281 -5.2717e+000 -4.8238e+001  6.2333e+000 25228 111134,111186,111160
 3.8000e+000 111258 -2.1444e+001 -3.9171e+001  1.6567e+001 25228 111445,111186,111134
 3.8000e+000 111235 -3.1083e+001 -1.6360e+001  2.5117e+001 25228 111517,111030,111004
 3.8000e+000 111212 -3.4548e+001 -2.7285e+001  2.3092e+001 25228 111030,111082,111056
 3.8000e+000 111399 -3.4670e+001 -8.5063e+001  4.6622e+001 25228 111004,111186,111373
 3.8000e+000 111422 -1.9951e+001 -3.0545e+001  4.6242e+001 25228 111517,111004,111373
 3.8000e+000 111471  3.3557e+001 -3.2787e+001  2.9303e+001 25228 111108,111373,111445
 3.8000e+000 111494  3.1720e+001 -9.2030e+000 -8.1907e+000 25228 111108,111445,111134
 3.8000e+000 111543 -6.4117e+001 -2.6243e+001  3.9898e+001 25228 111082,111030,111517
 3.8000e+000 111566 -5.3484e+001 -4.5553e+001  6.1614e+001 25228 111082,111517,111373
 3.8000e+000 112074  2.0737e+000 -1.5684e+000  1.9185e+000 24338 112097,111907,111881
 3.8000e+000 112051 -1.3834e+000 -1.0304e+000 -2.6704e+000 24338 112097,111881,111829
 3.8000e+000 112028  3.4375e+000 -2.1128e+000 -3.0755e+000 24338 111829,111881,111855
 3.8000e+000 112005 -3.2799e+000 -5.5455e+000  2.1421e+000 24338 111777,111933,111829
 3.8000e+000 111982 -2.2956e+001 -1.2114e+000 -3.0810e+000 24338 111751,111933,111777
 3.8000e+000 111959 -6.8680e+000 -1.2959e+000 -1.4419e+000 24338 111777,111829,111803
 3.8000e+000 112123 -2.6832e+000 -1.4103e+001  1.9035e+000 24338 111933,111907,112097
 3.8000e+000 112146 -1.0817e+000 -4.1182e+000 -1.7898e+000 24338 111933,112097,111829
 3.8000e+000 112443 -5.0263e+000 -1.3023e+001  5.2265e+000 23998 112466,112299,112247
 3.8000e+000 112420 -2.3087e+001 -4.4960e+001  1.2590e+001 23998 112466,112247,112221
 3.8000e+000 112397 -2.3801e+001 -3.4543e+001  2.8153e+001 23998 112169,112325,112221
 3.8000e+000 112374 -2.3346e+001 -6.6254e+001  4.1613e+001 23998 112169,112221,112195
 3.8000e+000 112351 -7.4539e+000 -7.9464e+000  5.8034e+000 23998 112247,112299,112273
 3.8000e+000 112492 -1.9964e+001 -2.1240e+001  2.4100e+001 23998 112325,112299,112466
 3.8000e+000 112515 -2.6800e+001 -3.5349e+001  2.6796e+001 23998 112325,112466,112221
 3.8000e+000 113200 -5.7026e+001 -7.3054e+001  5.6115e+001 23480 112779,112961,112805
 3.8000e+000 113177 -5.5457e+001 -5.3123e+001  2.4209e+001 23480 112779,112987,112961
 3.8000e+000 113154 -2.1094e+001 -2.0059e+001  3.9112e+001 23480 112805,112961,112883
 3.8000e+000 113131 -1.2594e+001 -4.6340e+001  3.6946e+001 23480 112883,112935,112909
 3.8000e+000 113108 -4.2739e+001 -2.9420e+001  3.8137e+001 23480 112883,112961,112935
 3.8000e+000 113085 -9.3920e+000 -5.5923e+000  2.5918e+001 23480 112831,112883,112857
 3.8000e+000 113062 -2.8897e+001 -3.0169e+001  3.4774e+001 23480 112805,112883,112831
 3.8000e+000 113039 -6.5836e+001 -5.0051e+001  2.6358e+001 23480 112779,113013,112987
 3.8000e+000 113676 -7.1788e+001 -4.4179e+000  6.3322e+001 23018 113699,113434,113356
 3.8000e+000 113653 -5.3962e+001 -5.3249e+000  2.2168e+001 23018 113771,113699,113356
 3.8000e+000 113630 -4.1050e+001 -3.5516e+001  1.1127e+001 23018 113771,113356,113512
 3.8000e+000 113607 -2.4728e+001 -5.5290e+001  2.8459e+001 23018 113330,113512,113356
 3.8000e+000 113584 -1.5780e+002 -6.7618e+001  9.5251e+001 23018 113356,113434,113382
 3.8000e+000 113561 -1.5608e+001 -5.1953e+001  2.9653e+001 23018 113304,113512,113330
 3.8000e+000 113538 -1.0577e+002  1.5778e+001  2.4048e+001 23018 113382,113434,113408
 3.8000e+000 113725 -8.5454e+001 -3.6377e+001  6.3174e+001 23018 113460,113434,113699
 3.8000e+000 113748 -1.0895e+002 -5.3796e+001  2.7614e+001 23018 113460,113699,113486
 3.8000e+000 113797 -8.5443e+001 -4.7653e+001  3.6673e+001 23018 113486,113699,113771
 3.8000e+000 113820 -5.3946e+001 -5.3218e+001  1.9125e+001 23018 113486,113771,113512
 3.8000e+000 114424 -8.6937e+000 -3.8682e+001 -1.0246e+001 22514 114447,114133,114029
 3.8000e+000 114401 -7.0888e+000 -3.0437e+001 -1.1152e+001 22514 114447,114029,114237
 3.8000e+000 114378 -1.2683e+000 -5.0028e+001  4.9687e+000 22514 114133,114211,114185
 3.8000e+000 114355 -1.4750e+001 -4.3915e+001 -7.6554e+000 22514 114133,114185,114159
 3.8000e+000 114332 -3.7971e+000 -3.2546e+001  7.2947e-001 22514 114003,114237,114029
 3.8000e+000 114309 -3.6883e+001 -7.7459e+001 -2.5787e+001 22514 114029,114133,114055
 3.8000e+000 114286 -1.5591e+001 -8.7279e+001 -3.4918e+001 22514 114055,114133,114107
 3.8000e+000 114263 -2.7350e+001 -3.4903e+001 -7.2653e-001 22514 114055,114107,114081
 3.8000e+000 114473 -5.0064e+000 -4.3469e+001 -1.3023e+001 22514 114211,114133,114447
 3.8000e+000 114496 -4.9958e+000 -3.7354e+001 -1.3624e+001 22514 114211,114447,114237
 3.8000e+000 114597 -2.7950e+001 -6.4995e+001  1.1156e+001 22316 114620,114571,114545
 3.8000e+000 114646 -2.7950e+001 -6.4995e+001  1.1156e+001 22316 114519,114571,114620
 3.8000e+000 115127  2.0462e+000 -4.9411e+001 -3.9299e+000 21612 115150,114905,114879
 3.8000e+000 115104  1.7633e+001 -3.8766e+001  1.5151e+000 21612 115150,114879,114853
 3.8000e+000 115081 -2.5334e+001 -6.5522e+000  1.5268e+001 21612 115222,114931,114905
 3.8000e+000 115058 -9.0987e+000 -3.7245e+001  1.5032e+001 21612 115222,114905,115009
 3.8000e+000 115035 -3.5117e+001 -8.1050e+001  4.5523e+001 21612 114957,115009,114983
 3.8000e+000 115176 -9.1888e+000 -3.2492e+001  5.9298e+000 21612 115009,114905,115150
 3.8000e+000 115199  6.7776e+000 -2.0980e+001  1.1987e+001 21612 115009,115150,114853
 3.8000e+000 115248 -3.8256e+001 -2.6780e+001  2.0961e+001 21612 114957,114931,115222
 3.8000e+000 115271 -1.9802e+001 -5.4414e+001  1.9775e+001 21612 114957,115222,115009
 3.8000e+000 115519 -5.0608e+000 -2.3641e+001  7.0391e+000 21208 115542,115372,115320
 3.8000e+000 115496 -1.3008e+001 -2.6238e+001 -2.8930e+000 21208 115542,115320,115294
 3.8000e+000 115473  3.5597e-001  1.0329e+000 -2.0907e-001 21208 115320,115372,115346
 3.8000e+000 115450  4.9119e+000 -4.7034e+001 -8.6744e+000 21208 115294,115424,115398
 3.8000e+000 115568 -4.9477e-001 -3.4342e+001 -2.9977e+000 21208 115398,115372,115542
 3.8000e+000 115591 -1.0995e+001 -4.8174e+001 -1.2187e+001 21208 115398,115542,115294
 3.8000e+000 115839 -2.0107e+001 -9.8766e+000  1.5527e+001 20668 115862,115640,115614
 3.8000e+000 115816  1.0622e+001 -2.0363e+001  1.5045e+000 20668 115862,115614,115744
 3.8000e+000 115793  6.5759e+001  2.1241e+001  8.2418e+000 20668 115640,115718,115692
 3.8000e+000 115770 -3.7104e+001 -1.3970e+001  9.4332e+000 20668 115640,115692,115666
 3.8000e+000 115888  1.5309e+001 -5.4215e+000  2.0285e+001 20668 115718,115640,115862
 3.8000e+000 115911  3.7837e+001 -1.9067e+001  1.8268e-001 20668 115718,115862,115744
 3.8000e+000 116134 -5.8071e+001 -4.8374e+001  4.2250e+001 20264 115958,116036,115984
 3.8000e+000 116111 -1.0046e+001 -2.3966e+001  3.1442e+001 20264 115958,116062,116036
 3.8000e+000 116088 -2.4252e+001 -5.7480e+001  4.5607e+001 20264 115984,116036,116010
 3.8000e+000 116384 -5.7158e+001 -5.4730e+001  5.8621e+001 19924 116407,116211,116159
 3.8000e+000 116361 -5.8366e+001 -9.3496e+001  5.6779e+001 19924 116407,116159,116263
 3.8000e+000 116338 -5.2083e+001 -2.2425e+001  4.9350e+001 19924 116159,116211,116185
 3.8000e+000 116315 -3.2632e+001 -6.5428e+001  2.9026e+001 19924 116159,116289,116263
 3.8000e+000 116433 -6.5561e+001 -2.8210e+001  6.5961e+001 19924 116237,116211,116407
 3.8000e+000 116456 -5.7234e+001 -5.6615e+001  6.7866e+001 19924 116237,116407,116263
 3.8000e+000 116608  2.1955e+001  1.1745e+001  5.9411e+000 19520 116703,116631,116533
 3.8000e+000 116585 -1.7880e+001  5.2193e+000  6.1457e+000 19520 116631,116507,116481
 3.8000e+000 116657  8.0618e+001  4.1158e+000  1.4239e+001 19520 116559,116533,116631
 3.8000e+000 116680  2.6495e+001 -1.6098e+001  2.9132e+000 19520 116559,116631,116481
 3.8000e+000 116729  2.1955e+001  1.1745e+001  5.9411e+000 19520 116507,116631,116703
 3.8000e+000 116952 -7.8134e+001 -4.9490e+001  8.1531e+001 19208 116975,116802,116776
 3.8000e+000 116929 -8.9392e+001 -9.8954e+001  4.4857e+001 19208 116975,116776,116880
 3.8000e+000 116906 -8.4601e+001 -3.6333e+001  5.8531e+001 19208 116802,116854,116828
 3.8000e+000 117001 -6.1984e+001 -4.2976e+001  8.3559e+001 19208 116854,116802,116975
 3.8000e+000 117024 -2.3581e+001 -5.6586e+001  6.6189e+001 19208 116854,116975,116880
 3.8000e+000 117428 -3.1588e+001 -1.2198e+001  2.4016e+001 18796 117154,117206,117180
 3.8000e+000 117405 -2.4203e+001 -2.7202e+001  2.4940e+001 18796 117154,117284,117206
 3.8000e+000 117382 -1.5371e+001 -2.4777e+001  2.1906e+001 18796 117154,117310,117284
 3.8000e+000 117359 -1.9821e+001 -2.4182e+001  2.8378e+001 18796 117206,117284,117258
 3.8000e+000 117336 -4.8478e-001  5.0395e-001  4.0778e+001 18796 117206,117258,117232
 3.8000e+000 117529  4.2760e+000  8.2299e+000 -5.2136e+000 18228 117810,117552,117477
 3.8000e+000 117578 -5.0327e+001 -8.0941e+000  3.1664e+001 18228 117682,117552,117503
 3.8000e+000 117708  6.5097e-001  2.2728e+001 -8.3489e+000 18228 117477,117552,117682
 3.8000e+000 117836 -1.7099e+001 -3.4213e+000  1.7879e+001 18228 117451,117552,117810
 3.8000e+000 118364 -1.6919e+001 -5.3145e+000  1.3216e+001 17722 118067,118223,118093
 3.8000e+000 118341 -2.5747e+001 -2.9287e+000  4.3700e+000 17722 118041,118223,118067
 3.8000e+000 118318 -8.3619e+000 -3.1747e+001  1.8690e+001 17722 118093,118223,118197
 3.8000e+000 118295 -1.4726e+002 -1.3961e+002  8.9275e+001 17722 118119,118197,118171
 3.8000e+000 118272  1.3226e+001  6.9024e+000  2.7758e+001 17722 118093,118197,118119
 3.8000e+000 118249 -1.3936e+002 -1.4687e+001  4.0259e+001 17722 118119,118171,118145
 3.8000e+000 118514 -1.0108e+002 -4.2754e+001  4.0979e+001 17268 118387,118439,118413
 3.8000e+000 118491 -1.6746e+001 -6.6373e+001  6.0422e+001 17268 118387,118465,118439
 3.8000e+000 118916  2.3119e+001  1.2587e+001  6.3439e-001 16828 118668,118772,118694
 3.8000e+000 118893  1.2737e+001  1.7427e-001 -5.1438e+000 16828 118668,118798,118772
 3.8000e+000 118870  1.1531e+000 -4.5060e-001  7.7246e+000 16828 118642,118798,118668
 3.8000e+000 118847 -8.8630e+000 -2.0341e+000  1.5361e+001 16828 118694,118746,118720
 3.8000e+000 118824  1.1815e+001 -5.8280e+000  5.5350e+000 16828 118694,118772,118746
 3.8000e+000 119316 -1.5035e+000  1.3691e+000 -2.8766e-001 16422 119042,119172,119094
 3.8000e+000 119293 -6.8756e-001  2.9010e-001 -1.1869e+000 16422 119042,119198,119172
 3.8000e+000 119270  6.5894e-002  2.4646e+000 -1.1844e+000 16422 119042,119094,119068
 3.8000e+000 119247  1.2655e+001  9.1441e+000  9.7316e-001 16422 119094,119146,119120
 3.8000e+000 119224 -2.2576e+000  8.8616e-001 -1.1775e+000 16422 119094,119172,119146
 3.8000e+000 119466 -9.6137e-002  3.3715e+000 -1.0273e+000 16010 119339,119391,119365
 3.8000e+000 119443  1.0178e+000  1.8262e+000 -8.8699e-002 16010 119339,119417,119391
 3.8000e+000 119616  5.2986e+000  4.7593e+000  2.1043e-001 15547 119515,119567,119541
 3.8000e+000 119593  3.1646e+001  6.9395e+001  9.2045e+001 15547 119489,119567,119515
 3.8000e+000 119719 -1.3794e+002 -5.7037e+001  3.8110e+001 421 119641,119693,119667
 3.9000e+000 69562 -1.6660e+002 -6.8919e+001 -5.9394e+001 69254 69484,69536,69510
 3.9000e+000 70009 -1.0949e+002 -8.3242e+001  1.8174e+001 68942 69686,69842,69816
 3.9000e+000 69986 -1.1001e+002 -7.8028e+001 -1.2363e+000 68942 69686,69868,69842
 3.9000e+000 69963 -1.5254e+002 -6.5372e+001  6.9811e+000 68942 69686,69816,69712
 3.9000e+000 69940 -1.3982e+002 -6.0063e+001  1.7233e+001 68942 69712,69790,69738
 3.9000e+000 69917 -1.7177e+002 -1.1441e+002  3.7077e+000 68942 69712,69816,69790
 3.9000e+000 69894 -1.1329e+002 -5.9018e+001 -1.2394e+001 68942 69738,69790,69764
 3.9000e+000 70110 -2.3204e+002 -9.9284e+001  1.9679e+001 68766 70032,70084,70058
 3.9000e+000 70746 -2.2543e+002 -7.0626e+001  2.2040e+001 68448 70400,70556,70426
 3.9000e+000 70723 -2.1759e+002 -9.3381e+001  2.9107e+001 68448 70374,70556,70400
 3.9000e+000 70700 -1.8664e+002 -5.1707e+001  1.5237e+001 68448 70426,70556,70478
 3.9000e+000 70677 -1.6613e+002 -6.4582e+001  1.2091e+001 68448 70478,70556,70504
 3.9000e+000 70654 -2.0453e+002 -3.4727e+001  2.6180e+001 68448 70426,70478,70452
 3.9000e+000 70631 -2.0677e+002 -6.4093e+001  3.2544e+001 68448 70374,70582,70556
 3.9000e+000 70608 -1.6859e+002 -7.2282e+001  1.6180e+001 68448 70504,70556,70530
 3.9000e+000 70896 -2.7198e+002 -1.0651e+002 -2.8947e+001 68250 70795,70847,70821
 3.9000e+000 70873 -2.4991e+002 -1.0631e+002 -3.4051e+000 68250 70769,70847,70795
 3.9000e+000 70997 -1.5869e+002 -6.7096e+001  5.4827e+001 68052 70919,70971,70945
 3.9000e+000 71367 -6.9102e+001 -1.0162e+002  9.6466e+000 67740 71096,71226,71200
 3.9000e+000 71344 -4.9267e+001 -7.3255e+001  1.8385e+001 67740 71044,71226,71096
 3.9000e+000 71321  2.2722e-001 -2.2722e-001  4.5879e+001 67740 71044,71096,71070
 3.9000e+000 71298 -8.1184e+001 -1.1222e+002  2.8462e+001 67740 71096,71200,71174
 3.9000e+000 71275 -5.2275e+001 -1.2062e+002 -3.0597e+001 67740 71096,71148,71122
 3.9000e+000 71252 -5.5423e+001 -9.0986e+001  1.5588e+001 67740 71096,71174,71148
 3.9000e+000 71519 -3.9556e+001 -1.6573e+001  1.0369e+001 67542 71418,71470,71444
 3.9000e+000 71496  2.5647e+001  5.8881e+001  5.1377e+001 67542 71392,71470,71418
 3.9000e+000 71923 -1.8732e+001 -7.9031e+000  2.1984e+001 67230 71649,71779,71675
 3.9000e+000 71900 -1.6475e+001 -2.1700e+001  1.8621e+001 67230 71649,71805,71779
 3.9000e+000 71877 -4.3571e+001 -1.8778e+001  3.5523e+001 67230 71675,71727,71701
 3.9000e+000 71854 -4.8404e+001 -7.0043e+001  3.9060e+001 67230 71675,71753,71727
 3.9000e+000 71831 -3.8335e+001 -3.5907e+001  3.1446e+001 67230 71675,71779,71753
 3.9000e+000 72433 -1.3841e+002 -4.9379e+001  1.3458e+001 67032 72038,72246,72220
 3.9000e+000 72410 -4.0980e+001 -1.7705e+001  3.7376e+001 67032 72012,72246,72038
 3.9000e+000 72387 -1.9490e+002 -1.0034e+002  1.6747e+001 67032 72064,72194,72168
 3.9000e+000 72364 -1.7795e+002 -7.5972e+001  9.4168e+000 67032 72038,72194,72064
 3.9000e+000 72341 -1.4300e+002 -5.6781e+001  3.9036e+001 67032 72038,72220,72194
 3.9000e+000 72318 -1.8800e+002 -7.6517e+001  2.5574e+001 67032 72090,72168,72142
 3.9000e+000 72295 -2.5679e+002 -1.1044e+002  4.9919e+001 67032 72064,72168,72090
 3.9000e+000 72272 -1.8445e+002 -7.8986e+001  2.4613e+001 67032 72090,72142,72116
 3.9000e+000 72933 -6.4774e+001 -4.7690e+001  4.9516e+001 66628 72956,72665,72613
 3.9000e+000 72910 -8.3138e+001 -4.9358e+001  4.3731e+001 66628 73100,72956,72613
 3.9000e+000 72887 -3.5629e+001 -5.2072e+001  2.9819e+001 66628 73028,72691,72665
 3.9000e+000 72864 -8.5247e+001 -5.4145e+001  4.3062e+001 66628 73100,72613,72587
 3.9000e+000 72841 -5.5736e+001 -4.2438e+001  2.2880e+001 66628 72613,72665,72639
 3.9000e+000 72818 -8.6358e+001 -3.7604e+001  5.0955e+001 66628 72587,72769,72743
 3.9000e+000 72795 -1.3658e+002 -1.5802e+002  2.1594e+001 66628 72561,72769,72587
 3.9000e+000 72982 -4.8246e+001 -4.8989e+001  4.6027e+001 66628 73028,72665,72956
 3.9000e+000 73005 -6.7801e+001 -2.9341e+001  4.2692e+001 66628 72717,72956,72743
 3.9000e+000 73054 -6.6727e+001 -6.2119e+001  2.9143e+001 66628 72717,72691,73028
 3.9000e+000 73077 -7.2390e+001 -5.8566e+001  4.3507e+001 66628 72717,73028,72956
 3.9000e+000 73126 -8.2229e+001 -4.8954e+001  4.9088e+001 66628 72743,72956,73100
 3.9000e+000 73149 -8.4206e+001 -5.2889e+001  4.8295e+001 66628 72743,73100,72587
 3.9000e+000 73606 -9.5737e+001 -7.1730e+001  6.4462e+001 66281 73332,73384,73358
 3.9000e+000 73583 -1.2440e+002 -5.7091e+001  3.1895e+001 66281 73332,73462,73384
 3.9000e+000 73560 -1.2090e+002 -5.8492e+001  3.0993e+001 66281 73384,73462,73436
 3.9000e+000 73537 -1.7023e+002 -1.1912e+002  5.2449e+001 66281 73332,73488,73462
 3.9000e+000 73514 -1.4425e+002 -6.4985e+001  1.1637e+001 66281 73384,73436,73410
 3.9000e+000 73984 -1.7353e+002 -4.6592e+001  1.6770e+001 65969 73736,73814,73788
 3.9000e+000 73961 -1.3199e+002 -4.7730e+001  3.9108e+001 65969 73736,73866,73814
 3.9000e+000 73938 -1.1241e+002 -4.3475e+001  2.3111e+001 65969 73814,73866,73840
 3.9000e+000 73915 -1.5814e+002 -7.1480e+001  2.9150e+001 65969 73710,73866,73736
 3.9000e+000 73892 -2.1456e+002 -3.7197e+001  6.4922e+001 65969 73736,73788,73762
 3.9000e+000 74232 -1.5214e+002 -7.0579e+001  3.7019e+001 65572 74255,74085,74033
 3.9000e+000 74209 -1.6393e+002 -6.4472e+001  4.6075e+001 65572 74327,74255,74033
 3.9000e+000 74186 -1.7477e+002 -5.8117e+001  4.2420e+001 65572 74327,74033,74007
 3.9000e+000 74163 -1.4201e+002 -4.9582e+001  2.7423e+001 65572 74033,74085,74059
 3.9000e+000 74281 -1.4851e+002 -5.8627e+001  3.8995e+001 65572 74111,74085,74255
 3.9000e+000 74304 -1.3926e+002 -5.0774e+001  5.2726e+001 65572 74111,74255,74137
 3.9000e+000 74353 -1.4718e+002 -6.0514e+001  4.3668e+001 65572 74137,74255,74327
 3.9000e+000 74376 -1.6020e+002 -5.5771e+001  4.1178e+001 65572 74137,74327,74007
 3.9000e+000 74884 -1.2124e+002 -5.0136e+001  3.7619e+001 65174 74587,74717,74613
 3.9000e+000 74861 -1.4968e+002 -7.6243e+001  1.6130e+001 65174 74561,74717,74587
 3.9000e+000 74838 -1.2869e+002 -7.3729e+001  1.8017e+001 65174 74613,74691,74639
 3.9000e+000 74815 -1.1673e+002 -6.0230e+001  3.6805e+001 65174 74613,74717,74691
 3.9000e+000 74792 -6.6083e+001 -6.7994e+001  3.0931e+001 65174 74639,74691,74665
 3.9000e+000 74769 -1.9870e+002 -5.5189e+001  2.1368e+001 65174 74561,74743,74717
 3.9000e+000 75412 -6.5824e+000 -1.7322e+001  7.0828e+001 64770 75167,75245,75219
 3.9000e+000 75389 -4.0381e+001 -6.1999e+001  5.0512e+001 64770 75115,75245,75167
 3.9000e+000 75366 -4.2112e+001 -7.7356e+001  6.3782e+001 64770 75089,75245,75115
 3.9000e+000 75343 -6.2671e+001 -2.3217e+001  4.7168e+001 64770 75167,75219,75193
 3.9000e+000 75320 -4.0004e+001 -6.0626e+001  4.6005e+001 64770 75115,75167,75141
 3.9000e+000 75297 -4.7035e+001 -1.1087e+002  5.5352e+001 64770 75089,75271,75245
 3.9000e+000 75861 -2.4866e+002 -1.0427e+002  4.8550e+000 64316 75538,75694,75564
 3.9000e+000 75838 -2.6442e+002 -1.1312e+002 -1.2948e+001 64316 75538,75720,75694
 3.9000e+000 75815 -1.9150e+002 -6.5627e+001  1.8519e+001 64316 75590,75694,75642
 3.9000e+000 75792 -2.1769e+002 -1.1198e+002  7.4097e+000 64316 75564,75694,75590
 3.9000e+000 75769 -1.9613e+002 -6.6230e+001  1.8088e+001 64316 75590,75642,75616
 3.9000e+000 75746 -1.4514e+002 -6.1981e+001  4.0429e+000 64316 75642,75694,75668
 3.9000e+000 76239 -1.5831e+002 -8.1117e+001  2.4416e+001 64018 76262,76095,76043
 3.9000e+000 76216 -1.5861e+002 -7.5178e+001  2.3496e+001 64018 76262,76043,76017
 3.9000e+000 76193 -1.4742e+002 -5.5155e+001 -4.1056e+000 64018 75991,76121,76017
 3.9000e+000 76170 -1.4259e+002 -4.3449e+001  2.2807e+001 64018 76043,76095,76069
 3.9000e+000 76147 -6.7964e+001 -2.5339e+001 -1.5487e+000 64018 75965,76121,75991
 3.9000e+000 76288 -1.5885e+002 -8.9143e+001  2.4865e+001 64018 76121,76095,76262
 3.9000e+000 76311 -1.5783e+002 -8.0688e+001  2.4185e+001 64018 76121,76262,76017
 3.9000e+000 76866 -4.3910e+001 -3.8990e+001  3.8655e+001 63728 76520,76676,76546
 3.9000e+000 76843 -4.4411e+001 -4.2810e+001  2.8684e+001 63728 76520,76702,76676
 3.9000e+000 76820 -3.8683e+001 -4.6433e+001  4.2790e+001 63728 76546,76650,76572
 3.9000e+000 76797 -6.0236e+001 -6.4920e+001  3.1608e+001 63728 76546,76676,76650
 3.9000e+000 76774 -5.8122e+001 -1.2751e+001  1.9999e+001 63728 76572,76650,76624
 3.9000e+000 76751 -5.0486e+001 -3.4334e+001  2.8753e+001 63728 76494,76702,76520
 3.9000e+000 76728 -1.6130e+001 -2.4917e+001  1.9526e+001 63728 76572,76624,76598
 3.9000e+000 77065 -1.5898e+002 -4.8424e+001  8.8059e+000 63288 77088,76941,76915
 3.9000e+000 77042 -1.7189e+002 -5.5367e+001  1.2720e+001 63288 77088,76915,76993
 3.9000e+000 77019 -1.8141e+002 -7.6276e+001  3.8419e+000 63288 76889,76993,76915
 3.9000e+000 77114 -1.5448e+002 -3.2391e+001  1.0124e+001 63288 76967,76941,77088
 3.9000e+000 77137 -2.0392e+002 -7.4604e+001 -1.1277e+001 63288 77160,77088,76993
 3.9000e+000 77186 -1.2557e+002 -3.3900e+001  4.4698e+000 63288 76967,77088,77160
 3.9000e+000 77417 -1.8818e+002 -7.1639e+001  2.9940e+001 62884 77440,77342,77316
 3.9000e+000 77394 -2.3221e+002 -7.7253e+001  1.2561e+001 62884 77770,77440,77316
 3.9000e+000 77466 -1.5501e+002 -6.1445e+001  6.6480e+000 62884 77512,77440,77368
 3.9000e+000 77489 -1.9364e+002 -8.7293e+001  1.0244e+001 62884 77642,77440,77290
 3.9000e+000 77538 -1.8865e+002 -8.6621e+001  1.7718e+001 62884 77342,77440,77512
 3.9000e+000 77668 -1.7671e+002 -5.0554e+001  1.4525e+001 62884 77368,77440,77642
 3.9000e+000 77796 -1.8614e+002 -5.4996e+001  5.3350e+000 62884 77290,77440,77770
 3.9000e+000 78479 -1.8752e+002 -8.7635e+001  4.3442e+001 62480 78084,78240,78214
 3.9000e+000 78456 -1.9288e+002 -9.2201e+001  2.8145e+001 62480 78084,78266,78240
 3.9000e+000 78433 -2.2912e+002 -8.8789e+001  3.0282e+001 62480 78110,78214,78136
 3.9000e+000 78410 -1.6180e+002 -6.0058e+001  3.2432e+001 62480 78084,78214,78110
 3.9000e+000 78387 -1.5139e+002 -1.0654e+002  3.8766e+001 62480 78136,78214,78188
 3.9000e+000 78364 -1.5140e+002 -6.6798e+001  4.0505e+001 62480 78058,78266,78084
 3.9000e+000 78341 -2.6118e+002 -1.4363e+002 -2.3396e+000 62480 78136,78188,78162
 3.9000e+000 78318 -2.8859e+002 -1.0623e+002  1.4657e+000 62480 78058,78292,78266
 3.9000e+000 78678 -1.2459e+002 -8.2124e+001  4.7300e+001 61926 78528,78606,78554
 3.9000e+000 78655 -8.5883e+001 -8.2731e+001  6.6938e+001 61926 78502,78606,78528
 3.9000e+000 78632 -9.8587e+001 -3.7740e+001  2.8598e+001 61926 78554,78606,78580
 3.9000e+000 79058 -1.0755e+002 -6.4637e+001  4.8067e+001 61614 78836,78914,78862
 3.9000e+000 79035 -1.6788e+002 -7.8694e+001  4.3504e+001 61614 78810,78914,78836
 3.9000e+000 79012 -1.4604e+002 -6.9877e+001  4.0333e+001 61614 78784,78914,78810
 3.9000e+000 78989 -1.0487e+002 -6.4370e+001  5.5425e+001 61614 78862,78914,78888
 3.9000e+000 78966 -1.6885e+002 -5.7045e+001  3.7845e+001 61614 78784,78940,78914
 3.9000e+000 79208 -8.4420e+001 -1.9480e+002 -2.1195e+001 61366 79081,79133,79107
 3.9000e+000 79185 -2.5433e+001 -4.3815e+001 -1.8652e+001 61366 79081,79159,79133
 3.9000e+000 79358  4.0440e+000 -1.6801e+001  4.0194e+000 60962 79231,79283,79257
 3.9000e+000 79335 -3.0487e+001 -7.1264e+001  1.9732e+001 60962 79231,79309,79283
 3.9000e+000 79608 -8.8203e+001 -1.0154e+002 -2.8975e+001 60508 79631,79435,79409
 3.9000e+000 79585 -6.6653e+001 -8.9595e+001 -2.3575e+001 60508 79703,79631,79409
 3.9000e+000 79562 -6.0279e+001 -7.1314e+001 -1.9166e+001 60508 79703,79409,79383
 3.9000e+000 79539 -1.1950e+002 -9.8311e+001 -1.6344e+001 60508 79435,79487,79461
 3.9000e+000 79657 -8.5675e+001 -9.4542e+001 -9.5473e+000 60508 79487,79435,79631
 3.9000e+000 79680 -6.7112e+001 -8.6086e+001 -1.2489e+001 60508 79487,79631,79513
 3.9000e+000 79729 -6.5992e+001 -7.4406e+001 -2.7459e+001 60508 79513,79631,79703
 3.9000e+000 79752 -6.9437e+001 -7.4899e+001 -2.9254e+001 60508 79513,79703,79383
 3.9000e+000 80390 -1.0512e+002 -7.1238e+001  4.4360e+001 59997 80413,80096,80018
 3.9000e+000 80367 -1.6105e+002 -8.3440e+001  5.9974e+001 59997 80413,80018,80226
 3.9000e+000 80344 -7.2273e+001 -3.1006e+001  2.8815e+001 59997 80096,80174,80148
 3.9000e+000 80321 -2.0413e+002 -8.5261e+001  5.2979e+001 59997 80018,80096,80070
 3.9000e+000 80298 -7.6786e+001 -6.7058e+001  1.1009e+001 59997 80096,80148,80122
 3.9000e+000 80275 -1.2822e+002 -6.3598e+001  5.5129e+001 59997 80174,80226,80200
 3.9000e+000 80252 -2.1199e+002 -3.8004e+001  7.6195e+001 59997 80018,80070,80044
 3.9000e+000 80439 -8.8509e+001 -7.5648e+001  2.9743e+001 59997 80174,80096,80413
 3.9000e+000 80462 -1.1115e+002 -5.3626e+001  3.7756e+001 59997 80174,80413,80226
 3.9000e+000 80840 -6.6545e+001 -5.5887e+001  2.8756e+001 59443 80863,80644,80618
 3.9000e+000 80817 -2.9960e+001 -4.2324e+001  3.4077e+001 59443 80863,80618,80566
 3.9000e+000 80794 -3.1842e+001 -3.5769e+001  3.9205e+001 59443 81007,80935,80670
 3.9000e+000 80771 -4.5022e+001 -4.4031e+001  4.1386e+001 59443 80566,80722,80696
 3.9000e+000 80748 -4.8196e+001 -7.3516e+001  4.8510e+001 59443 80566,80618,80592
 3.9000e+000 80889 -7.3614e+001 -4.7425e+001  4.3044e+001 59443 80935,80644,80863
 3.9000e+000 80912 -5.2992e+001 -4.7439e+001  3.8774e+001 59443 80696,80863,80566
 3.9000e+000 80961 -4.8381e+001 -3.9933e+001  4.4471e+001 59443 80696,80670,80935
 3.9000e+000 80984 -4.7086e+001 -3.6361e+001  4.1906e+001 59443 80696,80935,80863
 3.9000e+000 81033 -6.1159e+001 -6.0406e+001  5.2800e+001 59443 80644,80935,81007
 3.9000e+000 81360 -1.6650e+002 -8.7487e+001 -1.3320e+001 59031 81383,81187,81161
 3.9000e+000 81337 -1.0506e+002 -6.5394e+001 -1.5746e+001 59031 81455,81383,81161
 3.9000e+000 81314 -5.7660e+001 -6.5612e+001 -7.5123e+000 59031 81455,81161,81135
 3.9000e+000 81291 -2.1702e+002 -1.0283e+002 -4.3838e+000 59031 81187,81239,81213
 3.9000e+000 81409 -1.5238e+002 -7.6738e+001  1.1852e+001 59031 81239,81187,81383
 3.9000e+000 81432 -1.7529e+002 -8.0014e+001 -7.0737e+000 59031 81239,81383,81265
 3.9000e+000 81481 -1.5914e+002 -5.3413e+001 -2.7708e-001 59031 81265,81383,81455
 3.9000e+000 81504 -1.3029e+002 -6.7078e+001 -4.9605e-001 59031 81265,81455,81135
 3.9000e+000 81835 -8.1764e+001 -4.4128e+001  1.8782e+001 58577 81610,81714,81636
 3.9000e+000 81812 -7.5543e+001 -4.8263e+001  1.9548e+001 58577 81610,81740,81714
 3.9000e+000 81789 -8.8311e+001 -4.7084e+001 -5.1694e+000 58577 81636,81714,81688
 3.9000e+000 81766 -1.0494e+002 -8.2910e+001  9.3393e-003 58577 81636,81688,81662
 3.9000e+000 81985 -1.0237e+001 -2.3966e+001  1.5590e+001 58030 81884,81936,81910
 3.9000e+000 81962 -1.8925e+001 -7.2930e+000  1.1380e+001 58030 81858,81936,81884
 3.9000e+000 82414 -8.7530e+000 -1.9247e+001  1.4137e+001 57690 82437,82169,82117
 3.9000e+000 82391 -1.4382e+001 -1.8963e+001  1.5810e+001 57690 82437,82117,82247
 3.9000e+000 82368 -2.3680e+000 -5.8505e+000  2.6512e+001 57690 82195,82247,82221
 3.9000e+000 82345 -9.2586e+000 -1.6995e+001  1.3718e+001 57690 82091,82247,82117
 3.9000e+000 82322 -1.4542e+001 -1.8419e+001  1.0193e+001 57690 82117,82169,82143
 3.9000e+000 82299 -1.1310e+001 -2.5270e+001  1.7651e+001 57690 82091,82273,82247
 3.9000e+000 82463 -1.3591e+001 -2.0649e+001  1.4137e+001 57690 82195,82169,82437
 3.9000e+000 82486 -1.6721e+001 -1.8621e+001  1.5915e+001 57690 82195,82437,82247
 3.9000e+000 83041 -1.1079e+002 -5.1160e+001  4.3826e+001 57172 83064,82721,82695
 3.9000e+000 83018 -1.0960e+002 -5.6357e+001  3.3576e+001 57172 83064,82695,82851
 3.9000e+000 82995 -1.5426e+002 -8.3391e+001  4.6367e+001 57172 82669,82851,82695
 3.9000e+000 82972 -1.0451e+002 -4.6119e+001  4.4991e+001 57172 82773,82851,82825
 3.9000e+000 82949 -7.0343e+001 -3.3769e+001  4.9722e+001 57172 82773,82825,82799
 3.9000e+000 82926 -7.7749e+001 -2.1566e+001  4.4156e+001 57172 82721,82773,82747
 3.9000e+000 82903 -1.9463e+002 -8.2709e+001  1.0095e+002 57172 82669,82877,82851
 3.9000e+000 83090 -9.3209e+001 -4.6708e+001  5.0846e+001 57172 82773,82721,83064
 3.9000e+000 83113 -1.0273e+002 -5.5171e+001  4.0633e+001 57172 82773,83064,82851
 3.9000e+000 83747 -6.7475e+001 -4.6310e+001  2.6462e+001 56554 83770,83427,83401
 3.9000e+000 83724 -6.2901e+001 -5.2669e+001  2.9497e+001 56554 83842,83770,83401
 3.9000e+000 83701 -4.2647e+001 -5.0507e+001  1.4263e+001 56554 83842,83401,83583
 3.9000e+000 83678 -1.0658e+002 -6.7568e+001  4.6288e+001 56554 83914,83531,83505
 3.9000e+000 83655 -9.6217e+001 -6.5654e+001  2.7100e+001 56554 83531,83583,83557
 3.9000e+000 83632 -2.4676e+001 -3.5013e+001  2.1776e+001 56554 83375,83583,83401
 3.9000e+000 83609 -6.2589e+001 -3.7051e+001  2.7939e+001 56554 83427,83479,83453
 3.9000e+000 83796 -6.3790e+001 -3.8394e+001  2.9723e+001 56554 83479,83427,83770
 3.9000e+000 83819 -6.0756e+001 -4.6063e+001  2.8585e+001 56554 83479,83770,83505
 3.9000e+000 83868 -6.1323e+001 -4.6424e+001  2.8300e+001 56554 83505,83770,83842
 3.9000e+000 83891 -8.5066e+001 -5.6105e+001  3.2269e+001 56554 83914,83505,83842
 3.9000e+000 83940 -7.2520e+001 -6.5700e+001  3.0768e+001 56554 83583,83531,83914
 3.9000e+000 83963 -5.1965e+001 -6.5539e+001  2.3248e+001 56554 83583,83914,83842
 3.9000e+000 84341 -1.5836e+002 -1.0903e+002  1.3868e+001 56192 84067,84145,84119
 3.9000e+000 84318 -1.7117e+002 -1.0059e+002  1.7466e+001 56192 84067,84223,84145
 3.9000e+000 84295 -1.6162e+002 -7.7357e+001  1.7400e+001 56192 84145,84223,84197
 3.9000e+000 84272 -1.8369e+002 -1.0642e+002 -2.2365e+001 56192 84067,84119,84093
 3.9000e+000 84249 -1.1876e+002 -4.1191e+001  3.4013e+001 56192 84145,84197,84171
 3.9000e+000 84611 -4.0252e+001 -9.3840e+001 -2.6019e+001 55538 84386,84490,84412
 3.9000e+000 84588 -3.4371e+001 -4.3180e+001 -3.9833e+001 55538 84386,84516,84490
 3.9000e+000 84565 -8.5468e+001 -1.1523e+002 -3.5721e+001 55538 84412,84490,84464
 3.9000e+000 84542 -6.7806e+001 -1.5876e+002 -5.2786e+001 55538 84412,84464,84438
 3.9000e+000 84942 -1.1742e+002 -5.4406e+001  4.4584e+001 55084 84769,84847,84795
 3.9000e+000 84919 -1.3541e+002 -6.8478e+001  3.7115e+001 55084 84717,84847,84769
 3.9000e+000 84896 -1.3593e+002 -1.0288e+002  5.3760e+001 55084 84717,84769,84743
 3.9000e+000 84873 -1.2202e+002 -3.8693e+001  4.0384e+001 55084 84795,84847,84821
 3.9000e+000 85271 -3.9538e+001 -2.4006e+001  1.3997e+001 54580 85294,85098,85072
 3.9000e+000 85248 -6.0147e+001 -4.6756e+001  2.3092e+001 54580 85294,85072,85176
 3.9000e+000 85225 -7.3566e+001 -2.5289e+001  1.3883e+001 54580 85124,85176,85150
 3.9000e+000 85202 -1.9860e+001 -3.7841e+001  1.3514e+001 54580 85046,85176,85072
 3.9000e+000 85320 -6.1714e+001 -1.7064e+001  2.1986e+001 54580 85124,85098,85294
 3.9000e+000 85343 -7.0554e+001 -2.9018e+001  2.5996e+001 54580 85124,85294,85176
 3.9000e+000 85542 -1.0560e+002 -9.1718e+001 -2.1639e+001 53976 85565,85444,85418
 3.9000e+000 85519 -1.1133e+002 -8.8536e+001 -2.7265e+001 53976 85565,85418,85366
 3.9000e+000 85496 -1.0439e+002 -1.4156e+002 -7.2964e+001 53976 85366,85418,85392
 3.9000e+000 85591 -9.8144e+001 -8.9135e+001 -2.1025e+001 53976 85470,85444,85565
 3.9000e+000 85614 -1.0309e+002 -8.6487e+001 -2.8425e+001 53976 85470,85565,85366
 3.9000e+000 85960 -1.7595e+002 -1.3729e+002 -1.1400e+001 53572 85663,85715,85689
 3.9000e+000 85937 -1.4996e+002 -1.1713e+002 -8.2479e+000 53572 85983,85715,85663
 3.9000e+000 85914 -1.4832e+002 -1.0072e+002 -1.5452e+001 53572 86055,85983,85663
 3.9000e+000 85891 -1.3445e+002 -9.5099e+001 -9.7564e+000 53572 86055,85663,85637
 3.9000e+000 85868 -1.1090e+002 -5.9735e+001  2.2112e+000 53572 85637,85793,85767
 3.9000e+000 85845 -1.5505e+002 -7.7530e+001  1.2795e+001 53572 85637,85819,85793
 3.9000e+000 86009 -1.3898e+002 -1.5639e+002 -1.5361e+001 53572 85741,85715,85983
 3.9000e+000 86032 -1.4027e+002 -1.1175e+002 -1.6199e+001 53572 85741,85983,85767
 3.9000e+000 86081 -1.3644e+002 -9.6085e+001  2.0548e+000 53572 85767,85983,86055
 3.9000e+000 86104 -1.2154e+002 -9.4793e+001  5.6247e+000 53572 85767,86055,85637
 3.9000e+000 86693 -2.3881e+002 -1.1035e+002  4.5864e+001 52946 86474,86526,86500
 3.9000e+000 86670 -1.4784e+002 -1.0058e+002  2.2536e+001 52946 86396,86526,86474
 3.9000e+000 86647 -1.8854e+002 -1.3307e+002  3.6563e+001 52946 86370,86526,86396
 3.9000e+000 86624 -1.0272e+002 -1.0657e+002  9.2894e+000 52946 86422,86474,86448
 3.9000e+000 86601 -1.4332e+002 -5.7716e+001  9.9901e+000 52946 86396,86474,86422
 3.9000e+000 86578 -1.2708e+002 -6.2956e+001  9.0999e+001 52946 86370,86552,86526
 3.9000e+000 87376 -1.4622e+002 -1.0853e+002  2.8798e+001 52420 87007,87085,87033
 3.9000e+000 87353 -1.2767e+002 -9.9313e+001  2.5764e+001 52420 87007,87163,87085
 3.9000e+000 87330 -8.5862e+001 -9.0569e+001  2.5737e+001 52420 87007,87189,87163
 3.9000e+000 87307 -1.5831e+002 -9.4369e+001  4.4182e+001 52420 87033,87085,87059
 3.9000e+000 87284 -1.4266e+002 -1.0659e+002  1.2568e+001 52420 87085,87137,87111
 3.9000e+000 87261 -1.2339e+002 -1.1098e+002  1.2398e+001 52420 87085,87163,87137
 3.9000e+000 87238 -7.4148e+001 -6.8228e+001  3.0466e+001 52420 86955,87189,87007
 3.9000e+000 87215 -6.8555e+001 -5.6672e+001  2.8219e+001 52420 86955,87007,86981
 3.9000e+000 87624 -5.5803e+001 -1.1112e+002 -5.2551e+001 51916 87451,87503,87477
 3.9000e+000 87601 -4.5238e+001 -7.9829e+001 -4.8164e+001 51916 87425,87503,87451
 3.9000e+000 87578 -1.5973e+001 -7.0329e+001 -4.7277e+001 51916 87425,87529,87503
 3.9000e+000 87555 -3.0428e+001 -7.0055e+001 -6.0717e+001 51916 87399,87529,87425
 3.9000e+000 88053 -9.5109e+001 -6.2752e+001  3.1130e+001 51568 87782,87834,87808
 3.9000e+000 88030 -9.8682e+001 -6.9005e+001  2.5961e+001 51568 88076,87782,87886
 3.9000e+000 88007 -1.0272e+002 -7.8474e+001  2.5933e+001 51568 88076,87886,87860
 3.9000e+000 87984 -9.6043e+001 -8.8582e+001  2.6123e+001 51568 87756,87886,87782
 3.9000e+000 87961 -7.2097e+001 -7.4284e+001  4.3816e+001 51568 87756,87912,87886
 3.9000e+000 87938 -8.3345e+001 -9.0367e+001  3.9343e+001 51568 87730,87912,87756
 3.9000e+000 88102 -1.0207e+002 -6.3830e+001  3.1290e+001 51568 87834,87782,88076
 3.9000e+000 88125 -1.0454e+002 -6.9989e+001  3.1277e+001 51568 87834,88076,87860
 3.9000e+000 88324 -3.6260e+001 -4.6543e+001  1.6536e+001 51164 88419,88347,88200
 3.9000e+000 88301 -1.8681e+001 -3.6137e+001  1.8993e+001 51164 88347,88148,88252
 3.9000e+000 88278 -4.9653e+001 -5.1965e+001  1.9641e+000 51164 88419,88200,88174
 3.9000e+000 88373 -1.9516e+001 -5.5361e+001  1.8645e+001 51164 88226,88200,88347
 3.9000e+000 88396 -4.1136e+000 -4.2568e+001  1.3156e+001 51164 88226,88347,88252
 3.9000e+000 88445 -1.6745e+001 -3.8324e+001  1.7765e+001 51164 88148,88347,88419
 3.9000e+000 88468 -1.6694e+001 -3.6365e+001  7.6990e+000 51164 88148,88419,88174
 3.9000e+000 88738 -2.1109e+001 -4.1959e+001  4.4233e+000 50560 88513,88617,88539
 3.9000e+000 88715 -2.2068e+001 -5.1505e+001  5.2065e+000 50560 88513,88643,88617
 3.9000e+000 88692 -1.8610e+001 -3.0422e+000  8.0709e-001 50560 88539,88591,88565
 3.9000e+000 88669 -1.4332e+001 -3.3568e+001  7.6472e+000 50560 88539,88617,88591
 3.9000e+000 88939 -6.3649e+001 -3.9409e+001  2.1833e+001 50106 88962,88789,88763
 3.9000e+000 88916 -6.2244e+001 -5.3682e+001  2.2234e+001 50106 88962,88763,88841
 3.9000e+000 88893 -7.1156e+001 -6.0023e+001  3.2803e+001 50106 88763,88867,88841
 3.9000e+000 88988 -5.9793e+001 -3.9104e+001  2.1243e+001 50106 88815,88789,88962
 3.9000e+000 89011 -7.4050e+001 -4.4846e+001  2.4405e+001 50106 89034,88962,88841
 3.9000e+000 89060 -4.4448e+001 -2.6443e+001  1.0980e+001 50106 88815,88962,89034
 3.9000e+000 89472 -4.5643e+001 -3.8245e+001  2.4800e+001 49666 89273,89351,89325
 3.9000e+000 89449 -2.9472e+001 -5.1197e+001  2.1202e+001 49666 89273,89377,89351
 3.9000e+000 89426 -3.5270e+001 -3.3780e+001  2.5479e+001 49666 89273,89325,89299
 3.9000e+000 89403 -3.1811e+001 -2.2282e+001  2.9707e+001 49666 89247,89377,89273
 3.9000e+000 89978 -1.4629e+002 -1.0014e+002  1.0177e+000 49205 89681,89837,89733
 3.9000e+000 89955 -9.7251e+001 -8.2081e+001  6.3938e+000 49205 89655,89837,89681
 3.9000e+000 89932 -2.1927e+002 -5.0377e+001  2.3987e+001 49205 89785,89837,89811
 3.9000e+000 89909 -1.3736e+002 -7.8633e+001  2.1871e+000 49205 89733,89837,89785
 3.9000e+000 89886 -1.7693e+002 -1.0718e+002 -2.6408e+001 49205 89733,89785,89759
 3.9000e+000 89863 -1.4046e+002 -7.5476e+001 -1.2030e+001 49205 89681,89733,89707
 3.9000e+000 90177 -9.8919e+001 -2.5381e+001  1.8934e+001 48865 90530,90200,90053
 3.9000e+000 90154 -9.1250e+001 -6.7795e+001  4.2992e+000 48865 90402,90200,90001
 3.9000e+000 90131 -1.1698e+002  5.9732e+000  1.6858e+001 48865 90530,90053,90027
 3.9000e+000 90226 -1.2074e+002 -6.2669e+001  3.0556e+001 48865 90079,90053,90200
 3.9000e+000 90249 -1.2891e+002 -1.1805e+002 -2.6641e+000 48865 90272,90200,90105
 3.9000e+000 90298 -6.7375e+001 -3.8635e+001  2.5136e+001 48865 90079,90200,90272
 3.9000e+000 90428 -1.1563e+002 -8.9754e+001  1.3972e+001 48865 90105,90200,90402
 3.9000e+000 90556 -1.0821e+002 -6.8219e+001  1.5391e+001 48865 90001,90200,90530
 3.9000e+000 90579 -1.2126e+002 -2.7028e+001  4.2943e+000 48865 90001,90530,90027
 3.9000e+000 90827 -7.9913e+001 -5.3082e+001  3.1255e+001 48404 90850,90654,90628
 3.9000e+000 90804 -7.8586e+001 -5.4632e+001  4.0106e+001 48404 90850,90628,90732
 3.9000e+000 90781 -5.4043e+001 -4.9282e+001  2.1850e+001 48404 90680,90732,90706
 3.9000e+000 90758 -8.6458e+001 -2.8430e+001  4.1768e+001 48404 90602,90732,90628
 3.9000e+000 90876 -7.6951e+001 -4.0389e+001  3.0233e+001 48404 90680,90654,90850
 3.9000e+000 90899 -7.7509e+001 -4.9113e+001  3.7564e+001 48404 90680,90850,90732
 3.9000e+000 91000 -4.4220e+001 -1.0355e+002 -7.0360e+001 48156 90922,90974,90948
 3.9000e+000 91250 -4.8661e+001 -1.1433e+002 -6.0111e+001 47752 91051,91103,91077
 3.9000e+000 91227 -6.6342e+001 -1.4625e+002 -4.8590e+001 47752 91025,91103,91051
 3.9000e+000 91204 -6.7336e+001 -1.1189e+002 -4.3734e+001 47752 91025,91155,91103
 3.9000e+000 91181 -7.0430e+001 -7.7933e+001 -5.8261e+001 47752 91103,91155,91129
 3.9000e+000 91402 -9.0374e+001 -3.7229e+001  1.7641e+001 47191 91425,91301,91275
 3.9000e+000 91379 -7.6153e+001 -3.1588e+001  1.0657e+001 47191 91497,91425,91275
 3.9000e+000 91451 -9.6206e+001 -4.0811e+001  1.0628e+001 47191 91327,91301,91425
 3.9000e+000 91474 -8.8223e+001 -5.5608e+001  2.5859e+001 47191 91327,91425,91353
 3.9000e+000 91523 -1.0360e+002 -1.1121e+002  1.9303e+001 47191 91353,91425,91497
 3.9000e+000 91854 -2.9578e+001 -1.1433e+002 -4.6918e+001 46744 91949,91877,91707
 3.9000e+000 91831 -3.9387e+000 -1.0625e+002 -2.9376e+001 46744 91877,91655,91629
 3.9000e+000 91808 -3.1885e+001 -1.1123e+002 -4.9006e+001 46744 91949,91707,91681
 3.9000e+000 91785 -7.8925e+001 -6.9630e+001 -8.4426e+000 46744 91629,91759,91733
 3.9000e+000 91903 -8.0269e+001 -9.1472e+001 -3.0504e+001 46744 91733,91707,91877
 3.9000e+000 91926 -3.3153e+001 -5.0398e+001 -1.1630e+001 46744 91733,91877,91629
 3.9000e+000 91975 -3.2050e+001 -1.2297e+002 -4.6859e+001 46744 91655,91877,91949
 3.9000e+000 91998 -3.2941e+001 -1.1823e+002 -4.9934e+001 46744 91655,91949,91681
 3.9000e+000 92378 -1.2523e+001 -2.7083e-001  4.1489e+000 46090 92130,92208,92182
 3.9000e+000 92355 -2.5246e+001 -4.8553e+000  7.4730e+000 46090 92104,92208,92130
 3.9000e+000 92332 -6.5348e+000 -9.2152e+000  5.6102e+000 46090 92104,92260,92208
 3.9000e+000 92309 -2.9914e+000  7.2228e+000  3.5620e+000 46090 92208,92260,92234
 3.9000e+000 92286 -2.8619e+001 -1.0046e+001  8.4633e+000 46090 92130,92182,92156
 3.9000e+000 92626 -5.3495e+001 -6.6227e+001  8.1939e+000 45693 92721,92649,92505
 3.9000e+000 92603 -6.9929e+001 -6.6597e+001  3.6035e+001 45693 92649,92453,92427
 3.9000e+000 92580 -5.3026e+001 -6.2445e+001  8.4718e+000 45693 92721,92505,92479
 3.9000e+000 92557 -1.2303e+002 -8.7782e+001  4.3504e+001 45693 92401,92531,92427
 3.9000e+000 92675 -9.2035e+001 -6.8362e+001  1.2619e+001 45693 92531,92505,92649
 3.9000e+000 92698 -1.0240e+002 -7.7469e+001  4.9797e+001 45693 92531,92649,92427
 3.9000e+000 92747 -6.5713e+001 -5.8339e+001  1.1186e+001 45693 92453,92649,92721
 3.9000e+000 92770 -4.4549e+001 -3.1531e+001  2.0787e+001 45693 92453,92721,92479
 3.9000e+000 93172 -1.3715e+001 -2.0241e+001  1.8596e+001 45331 92898,93028,92924
 3.9000e+000 93149 -4.3942e+000 -1.0377e+001  1.0886e+001 45331 92898,93054,93028
 3.9000e+000 93126 -1.8289e+001 -9.2921e+000  1.9640e+001 45331 92924,93002,92976
 3.9000e+000 93103 -7.3481e+000 -1.7218e+001  1.7722e+001 45331 92924,93028,93002
 3.9000e+000 93080 -1.7731e+001 -2.3476e+001  2.4147e+001 45331 92924,92976,92950
 3.9000e+000 93518 -1.6765e+002 -1.3309e+002 -2.1733e+001 44820 93613,93273,93247
 3.9000e+000 93495 -1.6233e+002 -1.0004e+002  1.4817e+001 44820 93685,93541,93247
 3.9000e+000 93472 -1.3428e+002 -9.2124e+001  1.0804e+001 44820 93541,93195,93377
 3.9000e+000 93449 -1.8495e+002 -7.8882e+001 -1.1833e+001 44820 93685,93247,93221
 3.9000e+000 93426 -1.3218e+002 -7.9181e+001  3.3810e+001 44820 93299,93377,93351
 3.9000e+000 93403 -6.2963e+001 -4.4724e+001  5.7554e+001 44820 93299,93351,93325
 3.9000e+000 93567 -1.4667e+002 -1.0780e+002  1.3614e+001 44820 93613,93247,93541
 3.9000e+000 93590 -1.3236e+002 -8.6425e+001  1.2862e+001 44820 93299,93541,93377
 3.9000e+000 93639 -1.4236e+002 -8.6417e+001  4.9868e+000 44820 93299,93273,93613
 3.9000e+000 93662 -1.3907e+002 -8.9301e+001  1.4320e+001 44820 93299,93613,93541
 3.9000e+000 93711 -1.1554e+002 -6.8491e+001  4.8533e-001 44820 93195,93541,93685
 3.9000e+000 93734 -1.1608e+002 -2.2180e+001 -3.6450e+001 44820 93195,93685,93221
 3.9000e+000 94163 -5.2962e+001 -4.8402e+001  1.8467e+001 44237 94258,94186,93996
 3.9000e+000 94140 -5.2646e+001 -6.7869e+001  7.6630e+000 44237 94330,94022,93996
 3.9000e+000 94117 -5.8616e+001 -4.1126e+001  1.0444e+001 44237 94186,93918,93866
 3.9000e+000 94094 -5.2905e+001 -3.4058e+001  8.4611e+000 44237 94258,93996,93970
 3.9000e+000 94071 -5.3690e+001 -3.8509e+000  1.5408e+001 44237 94402,93944,93918
 3.9000e+000 94048 -3.2621e+001 -1.8706e+001 -3.9306e+000 44237 93866,93918,93892
 3.9000e+000 94212 -5.3136e+001 -6.8150e+001  8.6485e+000 44237 94330,93996,94186
 3.9000e+000 94235 -4.9997e+001 -4.4258e+001  7.9500e+000 44237 93840,94186,93866
 3.9000e+000 94284 -5.2295e+001 -2.9924e+001  6.6610e+000 44237 93918,94186,94258
 3.9000e+000 94307 -5.2406e+001 -8.3035e+000  9.8245e+000 44237 94402,93918,94258
 3.9000e+000 94356 -7.2639e+001 -6.5013e+001  7.0681e+000 44237 93840,94022,94330
 3.9000e+000 94379 -5.2429e+001 -6.5210e+001  1.0232e+001 44237 93840,94330,94186
 3.9000e+000 94428 -4.0203e+001 -2.0467e+001  1.4224e+001 44237 93970,93944,94402
 3.9000e+000 94451 -4.8080e+001 -3.0088e+001  5.4712e+000 44237 93970,94402,94258
 3.9000e+000 94908 -1.3389e+002 -9.9089e+001 -1.2261e+001 43890 94660,94790,94712
 3.9000e+000 94885 -8.8344e+001 -6.8356e+001  3.3379e+000 43890 94634,94790,94660
 3.9000e+000 94862 -1.4129e+002 -1.1640e+002 -1.8882e+001 43890 94712,94764,94738
 3.9000e+000 94839 -1.0803e+002 -4.0215e+001 -2.6639e+000 43890 94712,94790,94764
 3.9000e+000 94816 -8.9000e+001 -7.2381e+001 -2.5268e+001 43890 94660,94712,94686
 3.9000e+000 95414 -3.7731e+001 -1.4685e+001  3.7424e+000 43186 95437,95143,95117
 3.9000e+000 95391 -3.5232e+001 -3.4980e+001  1.4264e+001 43186 95437,95117,95091
 3.9000e+000 95368 -3.3236e+001 -1.7227e+001  5.6566e+000 43186 95143,95221,95195
 3.9000e+000 95345 -6.3526e+001 -4.6541e+001  2.5508e+001 43186 95091,95273,95221
 3.9000e+000 95322 -5.2673e+001 -3.5300e+001  7.1289e+000 43186 95221,95273,95247
 3.9000e+000 95299 -2.9249e+001 -2.3519e+000  4.8834e+000 43186 95143,95195,95169
 3.9000e+000 95463 -4.6184e+001 -2.8623e+001  1.2518e+001 43186 95221,95143,95437
 3.9000e+000 95486 -4.1296e+001 -4.5013e+001  2.3025e+001 43186 95221,95437,95091
 3.9000e+000 96041 -2.9703e+001 -2.9883e+001  2.9825e+000 42782 95695,95851,95799
 3.9000e+000 96018 -2.4020e+001 -3.7518e+001  4.5113e+000 42782 95669,95851,95695
 3.9000e+000 95995 -4.3001e+001 -1.0659e+001  3.3198e+000 42782 95695,95747,95721
 3.9000e+000 95972 -2.8442e+001 -2.9344e+001  2.7825e+000 42782 95695,95799,95747
 3.9000e+000 95949 -1.9620e+001 -8.6029e+000  3.5951e+000 42782 95747,95799,95773
 3.9000e+000 95926 -4.4836e+001 -4.3521e+001  1.2362e+001 42782 95799,95851,95825
 3.9000e+000 95903 -2.2790e+001 -3.8206e+001  7.0201e+000 42782 95669,95877,95851
 3.9000e+000 96370 -8.9483e+001 -9.5023e+001  5.7840e+001 42420 96197,96275,96223
 3.9000e+000 96347 -9.3970e+001 -8.3549e+001  4.5489e+001 42420 96145,96275,96197
 3.9000e+000 96324 -8.2195e+001 -5.7444e+001  3.8843e+001 42420 96145,96197,96171
 3.9000e+000 96301 -5.9850e+001 -8.0298e+001  3.3217e+001 42420 96223,96275,96249
 3.9000e+000 96699 -3.1006e+001 -7.7159e+001 -4.4441e+001 41816 96474,96578,96526
 3.9000e+000 96676  2.1526e+001 -7.4977e+001 -2.3506e+001 41816 96474,96604,96578
 3.9000e+000 96653 -3.8045e+001 -1.2348e+002 -6.0689e+001 41816 96526,96578,96552
 3.9000e+000 96630 -3.0835e+001 -8.8423e+001 -5.0872e+001 41816 96474,96526,96500
 3.9000e+000 96947 -2.6771e+001 -6.4306e+001 -7.7449e+001 41212 96722,96800,96748
 3.9000e+000 96924 -6.8861e+001 -1.0040e+002 -5.9360e+001 41212 96722,96826,96800
 3.9000e+000 96901 -7.4790e+001 -1.1124e+002 -4.8112e+001 41212 96722,96852,96826
 3.9000e+000 96878 -1.2350e+002 -9.3543e+001 -4.3559e+001 41212 96748,96800,96774
 3.9000e+000 97097 -1.5921e+001  1.6714e+000  1.2845e+001 40793 97120,97022,96996
 3.9000e+000 97074 -3.1261e+001 -3.5933e+001  7.6170e+000 40793 97192,97120,96996
 3.9000e+000 97146 -1.2611e+001 -2.9534e+001  1.2641e+001 40793 97324,97120,97048
 3.9000e+000 97169 -9.6742e+000 -5.2651e+001  1.3069e+001 40793 97048,97120,96970
 3.9000e+000 97218 -3.0549e+000 -2.3838e+001  8.1599e+000 40793 96970,97120,97192
 3.9000e+000 97350 -1.2611e+001 -2.9534e+001  1.2641e+001 40793 97022,97120,97324
 3.9000e+000 97878 -2.7765e+001 -4.0124e+001  7.1819e+000 40446 97901,97607,97555
 3.9000e+000 97855 -2.1617e+001 -3.4571e+001  4.5089e+000 40446 97973,97901,97555
 3.9000e+000 97832 -2.3810e+001 -3.3728e+001  3.1600e+000 40446 97973,97555,97737
 3.9000e+000 97809 -1.8234e+001 -1.6418e+001 -4.5234e+000 40446 97633,97685,97659
 3.9000e+000 97786 -1.0173e+001 -2.2627e+001  1.2826e+000 40446 97633,97711,97685
 3.9000e+000 97763 -2.1382e+001 -4.1668e+001  1.3788e+001 40446 97555,97607,97581
 3.9000e+000 97927 -2.2529e+001 -4.4522e+001  9.7272e-001 40446 97633,97607,97901
 3.9000e+000 97950 -1.6902e+001 -3.3957e+001 -2.5943e+000 40446 97633,97901,97711
 3.9000e+000 97999 -2.3658e+001 -3.8285e+001  3.6401e+000 40446 97711,97901,97973
 3.9000e+000 98022 -2.4539e+001 -3.5480e+001  2.9000e+000 40446 97711,97973,97737
 3.9000e+000 98449 -1.0798e+001  1.5756e+001  1.1238e+001 39935 98152,98204,98178
 3.9000e+000 98426 -1.9654e+001 -1.3443e+001  8.4009e+000 39935 98152,98230,98204
 3.9000e+000 98403 -2.1573e+001 -5.5423e+000  1.2007e+001 39935 98152,98256,98230
 3.9000e+000 98380 -2.2802e+001 -4.9961e+000  1.1741e+001 39935 98126,98256,98152
 3.9000e+000 98357 -2.0785e+001 -1.4178e+001  7.1285e+000 39935 98126,98282,98256
 3.9000e+000 98334 -2.9601e+001 -6.0214e+001  2.6294e+001 39935 98126,98308,98282
 3.9000e+000 98746 -1.1869e+002 -7.4377e+001  1.5498e+001 39531 98498,98602,98524
 3.9000e+000 98723 -6.7066e+001 -5.7898e+001  1.9542e+001 39531 98472,98602,98498
 3.9000e+000 98700 -1.0758e+002 -3.7639e+001  1.4544e+001 39531 98524,98602,98576
 3.9000e+000 98677 -6.6118e+001 -7.5568e+001  3.0491e+001 39531 98472,98628,98602
 3.9000e+000 98654 -1.4091e+002 -5.0647e+001  1.4340e+001 39531 98524,98576,98550
 3.9000e+000 99224 -2.8593e+001 -7.2796e+001 -3.8080e+001 39027 99247,98956,98930
 3.9000e+000 99201 -4.3801e+001 -8.4595e+001 -1.1998e+001 39027 99247,98930,98878
 3.9000e+000 99178 -5.6773e+001 -7.4660e+001 -4.0957e+000 39027 99319,98982,98956
 3.9000e+000 99155 -1.6493e+001 -6.2253e+001  2.9654e+000 39027 98852,99060,98878
 3.9000e+000 99132 -1.8678e+001 -5.4065e+001 -2.7448e+001 39027 98878,98930,98904
 3.9000e+000 99109 -8.2610e+001 -4.3612e+001 -1.5196e+001 39027 98982,99060,99034
 3.9000e+000 99086 -7.1439e+001 -1.5382e+001 -4.9453e+001 39027 98982,99034,99008
 3.9000e+000 99273 -6.6787e+001 -8.8920e+001 -1.6217e+001 39027 99319,98956,99247
 3.9000e+000 99296 -4.8863e+001 -8.5667e+001 -8.5413e+000 39027 99060,99247,98878
 3.9000e+000 99345 -4.8328e+001 -6.7067e+001  2.3417e-001 39027 99060,98982,99319
 3.9000e+000 99368 -4.2021e+001 -6.9670e+001 -7.9109e+000 39027 99060,99319,99247
 3.9000e+000 99923 -4.2942e+001 -3.5896e+001  1.4001e+001 38523 99946,99655,99603
 3.9000e+000 99900 -4.6997e+001 -3.6606e+001  1.5735e+001 38523 99946,99603,99759
 3.9000e+000 99877 -4.5690e+001 -4.3970e+001  1.4383e+001 38523 100018,99707,99681
 3.9000e+000 99854 -4.2448e+001 -2.5405e+001  1.7506e+001 38523 99551,99759,99603
 3.9000e+000 99831 -4.0996e+001 -2.2812e+001  1.6835e+001 38523 99551,99603,99577
 3.9000e+000 99808 -4.5991e+001 -6.2540e+001  1.7499e+001 38523 99707,99759,99733
 3.9000e+000 99785 -2.3633e+001 -1.5932e+001  5.8626e+000 38523 99603,99655,99629
 3.9000e+000 99972 -3.8610e+001 -2.1232e+001  6.9247e+000 38523 99681,99655,99946
 3.9000e+000 99995 -4.3948e+001 -3.2105e+001  1.4083e+001 38523 100018,99681,99946
 3.9000e+000 100044 -4.3547e+001 -4.7048e+001  8.5468e+000 38523 99759,99707,100018
 3.9000e+000 100067 -4.6962e+001 -4.3837e+001  9.5250e+000 38523 99759,100018,99946
 3.9000e+000 100467 -4.1587e+001 -3.2721e+001 -1.5145e+001 38125 100219,100349,100323
 3.9000e+000 100444 -3.4577e+001 -7.9862e+001 -2.1381e+000 38125 100193,100349,100219
 3.9000e+000 100421 -2.8682e+001 -1.7358e+001 -2.9157e+001 38125 100245,100323,100297
 3.9000e+000 100398 -8.6639e+000 -2.0231e+001 -2.2504e+001 38125 100219,100323,100245
 3.9000e+000 100375 -4.0202e+001 -3.5150e+001 -5.5735e+001 38125 100245,100297,100271
 3.9000e+000 100666 -5.8470e+001 -1.0883e+002  2.5678e+001 37607 100689,100568,100542
 3.9000e+000 100643 -4.3480e+001 -7.0127e+001  2.4327e+001 37607 100689,100542,100490
 3.9000e+000 100620 -2.7180e+000 -7.6888e+001  5.0438e+000 37607 100490,100542,100516
 3.9000e+000 100715 -5.0251e+001 -7.0698e+001  1.8317e+001 37607 100594,100568,100689
 3.9000e+000 100738 -5.3840e+001 -5.9437e+001  1.8897e+001 37607 100594,100689,100490
 3.9000e+000 100937 -3.6984e+001 -8.1179e+001 -1.3598e+001 37017 100960,100813,100787
 3.9000e+000 100914 -3.5253e+000 -6.8049e+001 -1.4202e+001 37017 100960,100787,100761
 3.9000e+000 100891 -9.0895e+001 -4.9028e+001  1.2978e+001 37017 100813,100865,100839
 3.9000e+000 100986 -7.2470e+001 -7.8665e+001  2.4974e+001 37017 100865,100813,100960
 3.9000e+000 101009 -8.6274e+000 -5.1622e+001  2.5466e+001 37017 100865,100960,100761
 3.9000e+000 101519 -9.8557e+000 -4.9463e+001 -3.6324e+001 36613 101222,101274,101248
 3.9000e+000 101496 -2.1390e+001 -4.7123e+001 -4.1240e+001 36613 101222,101352,101274
 3.9000e+000 101473 -3.9419e+001 -3.1803e+001 -1.9169e+001 36613 101274,101352,101326
 3.9000e+000 101450 -5.8686e+001 -6.3770e+001 -4.8925e+001 36613 101222,101378,101352
 3.9000e+000 101427 -2.3429e+001 -1.4874e+001 -8.5802e+000 36613 101274,101326,101300
 3.9000e+000 101404 -8.0285e+001 -1.0258e+002 -7.2105e+001 36613 101196,101378,101222
 3.9000e+000 101718 -3.6215e+001 -2.9656e+001  2.7330e+001 36308 101594,101646,101620
 3.9000e+000 101695 -4.4001e+001 -3.5517e+001  1.1465e+001 36308 101568,101646,101594
 3.9000e+000 101672 -2.6074e+001 -3.0024e+001  1.7103e+001 36308 101542,101646,101568
 3.9000e+000 102098 -2.1859e+001 -3.7953e+001  1.8087e+001 35918 102121,101954,101876
 3.9000e+000 102075 -3.7686e+000 -4.5888e+001  1.5285e+001 35918 102121,101876,101824
 3.9000e+000 102052 -7.7321e+000 -3.2681e+001  1.2664e+001 35918 101876,101954,101928
 3.9000e+000 102029 -1.6215e+001 -1.5663e+001  1.1768e+001 35918 101876,101928,101902
 3.9000e+000 102006  3.4851e+000 -2.6477e+001  9.8200e+000 35918 101824,101876,101850
 3.9000e+000 102147 -3.7941e+001 -4.5417e+001  2.0980e+001 35918 101980,101954,102121
 3.9000e+000 102170 -1.6681e+001 -5.1682e+001  1.8153e+001 35918 101980,102121,101824
 3.9000e+000 102489 -2.4967e+001 -5.6562e+001  1.9418e+001 35514 102241,102345,102267
 3.9000e+000 102466 -3.4565e+001 -6.1359e+001  2.0978e+001 35514 102215,102345,102241
 3.9000e+000 102443 -2.8528e+001 -6.6789e+001  2.2501e+001 35514 102215,102371,102345
 3.9000e+000 102420 -1.8993e+001 -4.2052e+001  2.2991e+001 35514 102267,102345,102293
 3.9000e+000 102397 -1.0028e+001 -2.4115e+001  2.7126e+001 35514 102293,102345,102319
 3.9000e+000 102820 -1.9482e+001 -3.8459e+001 -7.8805e+000 35224 102843,102699,102647
 3.9000e+000 102797  2.0155e+001 -4.9148e+001 -9.1400e+000 35224 102971,102725,102699
 3.9000e+000 102774  1.9642e+001 -2.8744e+001  4.3983e-001 35224 102595,102725,102621
 3.9000e+000 102751 -4.4082e+000 -5.2814e+001 -6.8864e+000 35224 102647,102699,102673
 3.9000e+000 102869 -1.2751e+001 -3.6609e+001 -1.4008e+001 35224 102971,102699,102843
 3.9000e+000 102997 -1.1448e+001 -5.0077e+001 -1.4772e+001 35224 102621,102725,102971
 3.9000e+000 103020 -5.6538e+001 -5.0713e+001 -2.5707e+001 35224 102621,102971,102843
 3.9000e+000 103349 -3.1102e+001 -4.2450e+001  9.9623e+000 34820 103150,103228,103176
 3.9000e+000 103326 -3.1430e+001 -4.3686e+001  9.5542e+000 34820 103124,103228,103150
 3.9000e+000 103303 -1.6872e+001 -1.2811e+001  1.4352e+001 34820 103176,103228,103202
 3.9000e+000 103280 -1.8174e+001 -3.4613e+001  3.0992e+001 34820 103124,103254,103228
 3.9000e+000 103806 -2.1469e+001 -4.0707e+001  5.4140e+000 34530 103558,103662,103636
 3.9000e+000 103783 -1.3139e+001 -3.1019e+001  1.3091e+001 34530 103558,103688,103662
 3.9000e+000 103760 -1.1070e+001 -2.1714e+001  1.1916e+001 34530 103532,103688,103558
 3.9000e+000 103737 -1.5984e+001 -3.3315e+001 -5.2462e+000 34530 103584,103636,103610
 3.9000e+000 103714 -1.2579e+001 -2.6282e+001 -2.1045e+000 34530 103558,103636,103584
 3.9000e+000 104263 -4.1316e+000 -1.0894e+001  3.7719e+000 34019 103989,104119,104015
 3.9000e+000 104240 -2.0191e+001 -1.5104e+001  9.7346e+000 34019 103989,104145,104119
 3.9000e+000 104217 -6.6468e+000 -2.6046e+000 -5.5492e-002 34019 104015,104067,104041
 3.9000e+000 104194 -1.6263e+001 -6.7662e+000  1.0214e+000 34019 104015,104119,104067
 3.9000e+000 104171 -6.5413e+000 -3.8643e+000 -2.1245e+000 34019 104067,104119,104093
 3.9000e+000 104641 -4.6785e+001 -5.2998e+001  1.0241e+001 33351 104419,104497,104445
 3.9000e+000 104618 -3.7884e+001 -2.4930e+001  2.6860e+001 33351 104393,104497,104419
 3.9000e+000 104595 -8.4502e+001 -5.0968e+001  6.3805e+000 33351 104367,104497,104393
 3.9000e+000 104572 -3.9295e+001 -3.5966e+001 -4.4836e+000 33351 104445,104497,104471
 3.9000e+000 104549 -6.4580e+001 -2.0003e+001 -2.4899e+000 33351 104367,104523,104497
 3.9000e+000 105019 -2.8333e+001 -3.9288e+001  2.2750e+001 32861 104823,104901,104875
 3.9000e+000 104996 -3.2699e+001 -4.9586e+001  2.1249e+001 32861 104745,104901,104823
 3.9000e+000 104973 -3.4691e+001 -4.2247e+001  2.0851e+001 32861 104823,104875,104849
 3.9000e+000 104950 -3.2219e+001 -4.0736e+001  3.4315e+001 32861 104745,104823,104797
 3.9000e+000 104927 -4.1943e+001 -2.3345e+001  3.1344e+001 32861 104745,104797,104771
 3.9000e+000 105397 -2.0459e+001 -6.2869e+000 -4.5808e+000 32457 105149,105253,105175
 3.9000e+000 105374 -2.8866e+001 -2.0231e+001  2.1508e+000 32457 105149,105279,105253
 3.9000e+000 105351 -1.8838e+001 -1.4510e+001  4.6147e+000 32457 105123,105279,105149
 3.9000e+000 105328 -1.8814e+001  1.0127e+001  4.6000e+000 32457 105175,105227,105201
 3.9000e+000 105305 -1.2682e+001 -3.0359e+000 -5.3863e+000 32457 105175,105253,105227
 3.9000e+000 105726 -2.1517e+001  2.3861e+000 -3.9907e+000 32003 105527,105605,105553
 3.9000e+000 105703 -1.5180e+001 -7.8982e+000 -3.5989e+000 32003 105501,105605,105527
 3.9000e+000 105680 -3.3325e+001 -1.6446e+001 -1.2998e+000 32003 105501,105631,105605
 3.9000e+000 105657 -9.2781e+000 -5.7212e+000 -1.6160e+001 32003 105553,105605,105579
 3.9000e+000 106104 -7.4261e+000 -4.3789e+001 -1.5764e+001 31492 106127,105908,105856
 3.9000e+000 106081 -1.1875e+000 -4.1327e+001 -1.2066e+001 31492 106127,105856,105830
 3.9000e+000 106058 -3.0382e+001 -1.6714e+001 -2.0811e+001 31492 105856,105908,105882
 3.9000e+000 106035  9.3308e-001 -2.9068e+001 -1.1029e+001 31492 105830,105986,105960
 3.9000e+000 106012 -1.6116e+001 -4.6253e+001 -1.3500e+001 31492 105908,105960,105934
 3.9000e+000 106153 -9.5851e+000 -3.8554e+001 -1.0999e+001 31492 105960,105908,106127
 3.9000e+000 106176 -5.6401e+000 -3.5109e+001 -7.7582e+000 31492 105960,106127,105830
 3.9000e+000 106375 -5.8962e+000  1.4642e+001 -3.4364e+000 30788 106398,106277,106251
 3.9000e+000 106352 -7.2469e-001 -1.0478e+001  7.0482e+000 30788 106398,106251,106225
 3.9000e+000 106329 -2.6991e+001 -2.1231e+001  1.0493e+001 30788 106600,106199,106303
 3.9000e+000 106424 -3.3161e+000 -5.7825e+000  7.8247e-001 30788 106470,106398,106303
 3.9000e+000 106447 -6.5058e-001 -1.9758e+001  4.7691e+000 30788 106600,106303,106398
 3.9000e+000 106496 -1.4077e+000 -4.9995e+000 -6.7302e-001 30788 106277,106398,106470
 3.9000e+000 106626 -3.7408e+001 -2.2943e+001  2.5578e+001 30788 106225,106199,106600
 3.9000e+000 106649 -2.4282e+001 -2.6973e+001  1.7977e+001 30788 106225,106600,106398
 3.9000e+000 106799 -2.6766e+001 -1.6307e+001 -2.2247e+001 30426 106698,106750,106724
 3.9000e+000 106776 -6.3075e+000 -1.4441e+001 -1.4988e+001 30426 106672,106750,106698
 3.9000e+000 107356 -1.4078e+001 -3.9144e+001  1.7793e+001 29972 107010,107166,107114
 3.9000e+000 107333 -2.3244e+001 -4.3049e+001  1.6959e+001 29972 106984,107166,107010
 3.9000e+000 107310 -2.4340e+001 -3.7633e+001  1.6528e+001 29972 107010,107114,107088
 3.9000e+000 107287 -2.7264e+001 -6.5102e+001  1.3507e+001 29972 107114,107166,107140
 3.9000e+000 107264 -3.1922e+001 -3.2992e+001  8.8151e+000 29972 106984,107192,107166
 3.9000e+000 107241 -4.3797e+001 -5.2883e+001  2.8074e+001 29972 107010,107088,107036
 3.9000e+000 107218 -9.4665e+001 -7.5924e+001  4.9786e+001 29972 107036,107088,107062
 3.9000e+000 107783 -2.2347e+001 -2.3018e+001  1.7013e+001 29724 107878,107806,107590
 3.9000e+000 107760 -2.7236e+001 -3.5405e+001  1.8558e+001 29724 107806,107512,107486
 3.9000e+000 107737 -2.1965e+001 -2.2648e+001  1.7291e+001 29724 107878,107590,107538
 3.9000e+000 107714 -2.2266e+001 -3.8726e+001  2.6426e+001 29724 107950,107460,107616
 3.9000e+000 107691 -3.4113e+001 -4.3759e+001  2.6667e+001 29724 107460,107642,107616
 3.9000e+000 107668 -1.8267e+001 -2.0768e+001  1.8362e+001 29724 107538,107590,107564
 3.9000e+000 107832 -2.5385e+001 -2.9198e+001  2.5123e+001 29724 107616,107590,107806
 3.9000e+000 107855 -2.0474e+001 -3.9174e+001  2.3778e+001 29724 107950,107616,107806
 3.9000e+000 107904 -2.4462e+001 -2.2432e+001  1.9611e+001 29724 107512,107806,107878
 3.9000e+000 107927 -1.9741e+001 -2.0004e+001  2.0585e+001 29724 107512,107878,107538
 3.9000e+000 107976 -2.4173e+001 -4.7313e+001  3.2840e+001 29724 107486,107460,107950
 3.9000e+000 107999 -2.1691e+001 -4.4090e+001  2.4452e+001 29724 107486,107950,107806
 3.9000e+000 108296 -4.3029e+001 -1.8901e+001  1.8112e+001 29206 108319,108100,108048
 3.9000e+000 108273 -2.2861e+001 -1.1593e+001  1.9501e+001 29206 108319,108048,108022
 3.9000e+000 108250 -8.9308e+000 -2.1486e+001  2.8450e+001 29206 108391,108152,108126
 3.9000e+000 108227 -3.5263e+001 -1.0619e+001  1.4588e+001 29206 108048,108100,108074
 3.9000e+000 108204 -1.4537e+001 -3.7185e+001  2.2849e+001 29206 108022,108178,108152
 3.9000e+000 108345 -3.4409e+001 -1.1050e+001  3.1699e+001 29206 108126,108100,108319
 3.9000e+000 108368 -1.5738e+001 -1.2258e+001  3.3421e+001 29206 108391,108126,108319
 3.9000e+000 108417 -2.3151e+001 -3.2408e+001  2.2991e+001 29206 108022,108152,108391
 3.9000e+000 108440 -2.8251e+001 -2.4715e+001  2.8210e+001 29206 108022,108391,108319
 3.9000e+000 108688 -8.3137e+000 -2.0753e+001  4.0092e+000 28595 108711,108541,108515
 3.9000e+000 108665 -1.5291e+001 -1.4365e+001  2.0581e+001 28595 108783,108711,108515
 3.9000e+000 108642 -1.5185e+001 -1.6062e+001  2.0171e+001 28595 108783,108515,108489
 3.9000e+000 108619  1.2486e+001 -1.4352e+001  2.8883e+000 28595 108463,108593,108489
 3.9000e+000 108737  5.8080e+000  6.7867e+000 -9.4377e+000 28595 108567,108541,108711
 3.9000e+000 108760 -1.5344e+001 -7.9579e+000  1.0610e+001 28595 108567,108711,108593
 3.9000e+000 108809 -1.3204e+001 -1.7661e+001  2.0215e+001 28595 108593,108711,108783
 3.9000e+000 108832 -1.4525e+001 -2.0884e+001  1.9323e+001 28595 108593,108783,108489
 3.9000e+000 109033 -1.9363e+001 -1.5717e+001 -3.7235e-001 28091 108909,108961,108935
 3.9000e+000 109010 -1.7619e+001 -3.7264e+000  1.4885e+000 28091 108857,108961,108909
 3.9000e+000 108987 -1.8727e+001 -7.9073e+000  3.8612e-001 28091 108857,108909,108883
 3.9000e+000 109136 -2.6312e+001 -6.1441e+001  1.1896e+001 27587 109058,109110,109084
 3.9000e+000 109695 -7.1076e+000 -2.2327e+001 -2.5293e+000 26969 109718,109375,109323
 3.9000e+000 109672 -6.9090e+000 -3.0822e+001 -7.2903e+000 26969 109718,109323,109505
 3.9000e+000 109649 -1.1138e+001 -1.1443e+001 -8.0718e+000 26969 109790,109453,109427
 3.9000e+000 109626 -1.9285e+001 -1.8237e+001 -5.6503e+000 26969 109323,109375,109349
 3.9000e+000 109603  2.2709e+000 -2.2792e+001 -1.1961e+001 26969 109323,109531,109505
 3.9000e+000 109580 -1.3963e+001 -7.9899e+000 -7.7407e+000 26969 109375,109427,109401
 3.9000e+000 109557 -3.4477e+001 -4.3403e+001  1.1015e+001 26969 109453,109505,109479
 3.9000e+000 109744 -1.4550e+000 -1.8168e+001  4.5706e-001 26969 109427,109375,109718
 3.9000e+000 109767 -2.5574e+000 -1.7834e+001 -7.0418e+000 26969 109790,109427,109718
 3.9000e+000 109816 -1.6542e+001 -1.7828e+001 -5.0788e+000 26969 109505,109453,109790
 3.9000e+000 109839 -1.0724e+001 -2.5757e+001 -3.0232e+000 26969 109505,109790,109718
 3.9000e+000 110266 -1.6126e+001 -2.9550e+001 -1.6527e+001 26515 110361,110289,110099
 3.9000e+000 110243 -1.7994e+001 -2.6318e+001 -1.9601e+001 26515 110289,109995,109943
 3.9000e+000 110220 -2.5818e+001 -3.3354e+001 -1.9488e+001 26515 110361,110099,110021
 3.9000e+000 110197 -7.0448e+001 -6.0652e+001 -4.3579e+001 26515 110047,110099,110073
 3.9000e+000 110174 -2.1132e+001 -4.1084e+001 -2.2384e+001 26515 110021,110099,110047
 3.9000e+000 110151 -1.2649e+001 -2.7984e+001 -1.5710e+001 26515 109943,109995,109969
 3.9000e+000 110315  9.1575e+000 -2.2056e+001 -2.0257e+001 26515 110125,110099,110289
 3.9000e+000 110338 -1.9757e+001 -2.8522e+001 -1.8531e+001 26515 110125,110289,109943
 3.9000e+000 110387 -2.4686e+001 -3.2815e+001 -2.6623e+001 26515 109995,110289,110361
 3.9000e+000 110410 -3.1827e+001 -3.2890e+001 -2.8566e+001 26515 109995,110361,110021
 3.9000e+000 110609 -5.4342e+000 -2.7927e+001  1.0846e+001 25789 110906,110762,110632
 3.9000e+000 110586 -4.6178e+000 -5.3859e+001  1.4026e+001 25789 110762,110433,110537
 3.9000e+000 110563 -2.3736e+001 -2.7082e+001  1.9614e+001 25789 110834,110459,110433
 3.9000e+000 110658 -1.2065e+001 -1.9942e+001  1.5282e+001 25789 110906,110632,110834
 3.9000e+000 110788 -1.0534e+000 -1.2359e+001  3.0016e+000 25789 110511,110632,110762
 3.9000e+000 110811 -2.7553e-001 -2.9466e+001  1.4633e+001 25789 110511,110762,110537
 3.9000e+000 110860 -1.3596e+001 -2.2215e+001  1.7512e+001 25789 110485,110459,110834
 3.9000e+000 110883 -1.5537e+001 -1.5191e+001  1.2754e+001 25789 110485,110834,110632
 3.9000e+000 110932 -1.7152e+001 -3.5759e+001  6.8837e+000 25789 110433,110762,110906
 3.9000e+000 110955 -2.3974e+001 -2.9520e+001  1.0973e+001 25789 110433,110906,110834
 3.9000e+000 111350 -7.8722e+000 -1.4472e+001  9.1741e+000 25228 111445,111373,111186
 3.9000e+000 111327 -5.4059e+000 -1.2071e+001 -3.0465e+000 25228 110978,111186,111004
 3.9000e+000 111304 -5.4596e+000 -2.6766e+001  1.1202e+001 25228 111373,111108,111082
 3.9000e+000 111281 -1.6285e+001 -2.2965e+001  1.0060e+001 25228 111134,111186,111160
 3.9000e+000 111258 -8.8627e+000 -1.5326e+001  6.7468e+000 25228 111445,111186,111134
 3.9000e+000 111235  2.7037e-001 -4.2152e+000  2.0642e-001 25228 111517,111030,111004
 3.9000e+000 111212 -4.6166e+000 -2.7486e+000  7.4421e+000 25228 111030,111082,111056
 3.9000e+000 111399 -5.6349e+000 -1.1169e+001  1.0189e+001 25228 111004,111186,111373
 3.9000e+000 111422  1.6590e+000 -1.0281e+001  5.2643e+000 25228 111517,111004,111373
 3.9000e+000 111471 -3.8366e+000 -1.2980e+001  1.1110e+001 25228 111108,111373,111445
 3.9000e+000 111494 -5.0243e+000 -1.4172e+001  8.6169e+000 25228 111108,111445,111134
 3.9000e+000 111543 -6.9010e+000 -4.5888e+000  8.6959e+000 25228 111082,111030,111517
 3.9000e+000 111566 -6.4049e+000 -1.3724e+001  1.3746e+001 25228 111082,111517,111373
 3.9000e+000 112074  1.2405e+000 -8.8792e+000  9.6344e-001 24338 112097,111907,111881
 3.9000e+000 112051 -3.8543e+000 -1.0825e+001  3.5117e-001 24338 112097,111881,111829
 3.9000e+000 112028 -2.1044e+001 -7.5944e+000  1.7071e+000 24338 111829,111881,111855
 3.9000e+000 112005 -1.0835e+001 -9.6378e+000  3.3933e+000 24338 111777,111933,111829
 3.9000e+000 111982 -1.7607e+001 -8.6268e+000  1.5471e+000 24338 111751,111933,111777
 3.9000e+000 111959 -6.2766e+000 -2.6828e+000 -8.2079e-001 24338 111777,111829,111803
 3.9000e+000 112123 -1.5128e+000 -7.1030e+000 -3.9894e+000 24338 111933,111907,112097
 3.9000e+000 112146 -7.7877e+000 -8.7460e+000 -3.0843e+000 24338 111933,112097,111829
 3.9000e+000 112443  7.2952e+000  4.6890e+000 -4.1488e+000 23998 112466,112299,112247
 3.9000e+000 112420 -9.8253e+000 -9.9968e+000  4.5723e+000 23998 112466,112247,112221
 3.9000e+000 112397 -1.0663e+001 -1.4361e+001  1.1384e+001 23998 112169,112325,112221
 3.9000e+000 112374 -1.4607e+001 -8.7652e+000  6.7945e+000 23998 112169,112221,112195
 3.9000e+000 112351  1.2626e+001  5.8683e+000 -2.7813e+000 23998 112247,112299,112273
 3.9000e+000 112492 -9.5865e+000 -3.2586e+000  4.0601e+000 23998 112325,112299,112466
 3.9000e+000 112515 -1.3471e+001 -6.4372e+000  1.0904e+001 23998 112325,112466,112221
 3.9000e+000 113200 -1.9103e+001 -3.3161e+001  2.3890e+001 23480 112779,112961,112805
 3.9000e+000 113177 -1.6814e+001 -1.9818e+001  6.1914e+000 23480 112779,112987,112961
 3.9000e+000 113154 -7.3558e+000 -2.6150e+000  1.6204e+001 23480 112805,112961,112883
 3.9000e+000 113131 -1.4699e+001 -1.0839e+001  1.1093e+001 23480 112883,112935,112909
 3.9000e+000 113108 -1.5379e+001 -7.9984e+000  1.0815e+001 23480 112883,112961,112935
 3.9000e+000 113085 -4.1942e+000 -1.8215e+000  1.2394e+001 23480 112831,112883,112857
 3.9000e+000 113062 -1.1512e+001 -1.5411e+001  1.6330e+001 23480 112805,112883,112831
 3.9000e+000 113039 -3.0611e+001 -2.5186e+001  1.0398e+001 23480 112779,113013,112987
 3.9000e+000 113676 -3.4537e+001  2.6408e+000  3.2957e+001 23018 113699,113434,113356
 3.9000e+000 113653 -2.4499e+001  2.0698e+000  1.0041e+001 23018 113771,113699,113356
 3.9000e+000 113630 -1.7250e+001 -1.3462e+001  4.4574e+000 23018 113771,113356,113512
 3.9000e+000 113607 -8.0105e+000 -2.0571e+001  1.3583e+001 23018 113330,113512,113356
 3.9000e+000 113584 -7.5306e+001 -3.0939e+001  4.8278e+001 23018 113356,113434,113382
 3.9000e+000 113561 -6.6186e+000 -2.1849e+001  1.2853e+001 23018 113304,113512,113330
 3.9000e+000 113538 -6.6039e+001  2.1057e+000  1.5043e+001 23018 113382,113434,113408
 3.9000e+000 113725 -4.1837e+001 -1.4300e+001  3.2649e+001 23018 113460,113434,113699
 3.9000e+000 113748 -5.7949e+001 -2.5573e+001  1.2096e+001 23018 113460,113699,113486
 3.9000e+000 113797 -4.2024e+001 -1.9526e+001  1.8359e+001 23018 113486,113699,113771
 3.9000e+000 113820 -2.4400e+001 -2.1902e+001  9.4523e+000 23018 113486,113771,113512
 3.9000e+000 114424 -1.4360e+000 -1.4241e+001 -8.5404e+000 22514 114447,114133,114029
 3.9000e+000 114401  1.7039e+000  1.6082e+000 -1.0555e+001 22514 114447,114029,114237
 3.9000e+000 114378 -6.1936e-001 -3.3450e+001  3.6528e+000 22514 114133,114211,114185
 3.9000e+000 114355 -1.2366e+001 -2.8339e+001 -8.0088e+000 22514 114133,114185,114159
 3.9000e+000 114332  9.2745e+000  2.4066e+000 -8.2582e-001 22514 114003,114237,114029
 3.9000e+000 114309 -2.0651e+001 -3.7084e+001 -2.0945e+001 22514 114029,114133,114055
 3.9000e+000 114286 -2.3611e+001 -3.1728e+001 -2.2529e+001 22514 114055,114133,114107
 3.9000e+000 114263 -7.1407e+001 -3.7202e+001 -1.0459e+001 22514 114055,114107,114081
 3.9000e+000 114473  5.6862e+000 -2.3935e+001 -1.3669e+001 22514 114211,114133,114447
 3.9000e+000 114496  5.8693e+000 -1.2048e+001 -1.5073e+001 22514 114211,114447,114237
 3.9000e+000 114597 -4.8773e+000 -1.1115e+001 -7.3257e-001 22316 114620,114571,114545
 3.9000e+000 114646 -4.8773e+000 -1.1115e+001 -7.3257e-001 22316 114519,114571,114620
 3.9000e+000 115127  5.3342e+000 -1.7734e+001 -1.2918e-001 21612 115150,114905,114879
 3.9000e+000 115104  7.2885e+000 -1.0285e+001  1.3420e+000 21612 115150,114879,114853
 3.9000e+000 115081 -2.5044e+000 -5.4662e+000  2.6866e+000 21612 115222,114931,114905
 3.9000e+000 115058  3.4143e+000 -1.0251e+001  3.8012e+000 21612 115222,114905,115009
 3.9000e+000 115035 -1.5129e+000 -8.5667e+000  2.1949e+000 21612 114957,115009,114983
 3.9000e+000 115176  3.4863e+000 -9.7072e+000  2.0679e+000 21612 115009,114905,115150
 3.9000e+000 115199  6.1069e+000 -1.1975e+000  3.5540e+000 21612 115009,115150,114853
 3.9000e+000 115248 -7.4411e+000 -6.9677e+000  5.6972e+000 21612 114957,114931,115222
 3.9000e+000 115271 -9.6043e-001 -1.1100e+001  6.5369e+000 21612 114957,115222,115009
 3.9000e+000 115519 -7.9243e-001 -5.2910e+000  1.3408e-001 21208 115542,115372,115320
 3.9000e+000 115496  4.5247e+000 -2.8511e+000 -1.9545e+000 21208 115542,115320,115294
 3.9000e+000 115473 -1.0737e+000 -2.3015e+000 -5.9213e-001 21208 115320,115372,115346
 3.9000e+000 115450 -7.8155e-001 -4.8489e+000  3.1046e-001 21208 115294,115424,115398
 3.9000e+000 115568 -3.3903e+000 -5.0314e+000  2.9637e+000 21208 115398,115372,115542
 3.9000e+000 115591 -1.3893e-001 -5.5229e+000  1.6282e+000 21208 115398,115542,115294
 3.9000e+000 115839  7.7178e-001 -2.4601e+000  6.0423e+000 20668 115862,115640,115614
 3.9000e+000 115816  9.6585e+000 -4.4907e+000  2.0625e+000 20668 115862,115614,115744
 3.9000e+000 115793  4.7349e+001  1.4145e+001  1.6546e+000 20668 115640,115718,115692
 3.9000e+000 115770 -1.2826e+001 -5.0378e+000  5.7840e-001 20668 115640,115692,115666
 3.9000e+000 115888  1.1287e+001 -2.7347e+000  6.9692e+000 20668 115718,115640,115862
 3.9000e+000 115911  1.8320e+001 -4.9826e+000  1.1532e+000 20668 115718,115862,115744
 3.9000e+000 116134 -3.3735e+001 -1.8422e+001  1.9455e+001 20264 115958,116036,115984
 3.9000e+000 116111 -4.0809e-001 -1.1672e+000  1.1201e+001 20264 115958,116062,116036
 3.9000e+000 116088 -1.1612e+001 -2.7397e+001  2.1009e+001 20264 115984,116036,116010
 3.9000e+000 116384 -1.9480e+001 -6.4302e+000  1.8701e+001 19924 116407,116211,116159
 3.9000e+000 116361 -6.7265e+000 -2.3353e+001  1.1165e+001 19924 116407,116159,116263
 3.9000e+000 116338 -1.5712e+001 -5.7235e+000  2.3794e+001 19924 116159,116211,116185
 3.9000e+000 116315  3.5082e+000 -1.3481e+001  1.6980e+000 19924 116159,116289,116263
 3.9000e+000 116433 -7.6067e+000 -2.7907e+000  2.0950e+001 19924 116237,116211,116407
 3.9000e+000 116456  1.4448e+001 -1.2305e+001  1.6762e+001 19924 116237,116407,116263
 3.9000e+000 116608 -9.1594e-001  2.3918e-001  2.5615e+000 19520 116703,116631,116533
 3.9000e+000 116585 -1.8164e+000 -9.6401e-001  1.9446e+000 19520 116631,116507,116481
 3.9000e+000 116657  2.7329e+000 -9.2577e-001  3.5255e+000 19520 116559,116533,116631
 3.9000e+000 116680  8.9737e-002 -3.9703e+000  2.3160e+000 19520 116559,116631,116481
 3.9000e+000 116729 -9.1594e-001  2.3918e-001  2.5615e+000 19520 116507,116631,116703
 3.9000e+000 116952 -4.1398e+001 -2.4131e+001  4.1282e+001 19208 116975,116802,116776
 3.9000e+000 116929 -4.6124e+001 -4.7755e+001  2.2039e+001 19208 116975,116776,116880
 3.9000e+000 116906 -4.0124e+001 -1.7148e+001  2.9393e+001 19208 116802,116854,116828
 3.9000e+000 117001 -3.2175e+001 -2.1520e+001  4.1767e+001 19208 116854,116802,116975
 3.9000e+000 117024 -1.1837e+001 -2.7985e+001  3.2711e+001 19208 116854,116975,116880
 3.9000e+000 117428 -2.5466e+000 -5.6768e-001  4.2184e+000 18796 117154,117206,117180
 3.9000e+000 117405 -5.9894e+000 -8.2122e+000  6.3487e+000 18796 117154,117284,117206
 3.9000e+000 117382  6.0267e+000 -2.4818e+000  8.0975e+000 18796 117154,117310,117284
 3.9000e+000 117359 -5.2913e+000 -7.0263e+000  6.6705e+000 18796 117206,117284,117258
 3.9000e+000 117336 -4.3940e+000 -1.3385e+000  9.7653e+000 18796 117206,117258,117232
 3.9000e+000 117529 -9.2243e-001  2.6691e+000  4.6735e-001 18228 117810,117552,117477
 3.9000e+000 117578 -3.0066e+001  2.7574e+000  1.0459e+001 18228 117682,117552,117503
 3.9000e+000 117708 -3.2723e+000  1.6906e+001 -2.9567e+000 18228 117477,117552,117682
 3.9000e+000 117836 -1.7315e+000  1.6508e+000  1.0433e+000 18228 117451,117552,117810
 3.9000e+000 118364  3.5005e+001  1.5560e+001  4.6138e+000 17722 118067,118223,118093
 3.9000e+000 118341  2.4042e+001  1.6401e+000 -4.2391e-001 17722 118041,118223,118067
 3.9000e+000 118318  1.9615e-001 -1.2880e+001  1.6988e+001 17722 118093,118223,118197
 3.9000e+000 118295 -7.3136e+001 -7.0463e+001  4.0949e+001 17722 118119,118197,118171
 3.9000e+000 118272  3.4187e-001  5.7184e-001  1.1374e+001 17722 118093,118197,118119
 3.9000e+000 118249 -6.5312e+001 -1.1465e+001  2.2476e+001 17722 118119,118171,118145
 3.9000e+000 118514 -3.3464e+001 -1.4184e+001  1.9588e+001 17268 118387,118439,118413
 3.9000e+000 118491 -9.5584e+000 -3.6620e+001  3.4144e+001 17268 118387,118465,118439
 3.9000e+000 118916  2.2283e+000  1.7354e+000 -1.0665e+000 16828 118668,118772,118694
 3.9000e+000 118893  1.0491e+001 -3.1116e+000 -3.7141e+000 16828 118668,118798,118772
 3.9000e+000 118870 -7.0471e-002  3.0600e+000  1.0486e+001 16828 118642,118798,118668
 3.9000e+000 118847 -1.7973e+000 -2.2136e-001  2.8849e+000 16828 118694,118746,118720
 3.9000e+000 118824 -8.3954e-002 -2.7800e+000 -1.9566e-001 16828 118694,118772,118746
 3.9000e+000 119316 -4.0598e-001  3.0970e-001 -3.3097e-001 16422 119042,119172,119094
 3.9000e+000 119293 -5.3318e-001  3.2642e-001 -2.3178e-001 16422 119042,119198,119172
 3.9000e+000 119270  1.1025e+000  8.8526e-001 -5.4246e-001 16422 119042,119094,119068
 3.9000e+000 119247  1.6411e+001  8.8561e+000 -5.6370e-001 16422 119094,119146,119120
 3.9000e+000 119224 -1.1484e+000 -1.8505e-002 -1.3434e+000 16422 119094,119172,119146
 3.9000e+000 119466  3.3337e-001  1.5275e+000 -8.4832e-002 16010 119339,119391,119365
 3.9000e+000 119443 -1.8126e-001 -1.8034e-001 -1.5365e-001 16010 119339,119417,119391
 3.9000e+000 119616  4.0276e+000  2.2511e+000  1.9155e-001 15547 119515,119567,119541
 3.9000e+000 119593  1.5741e+001  3.4582e+001  4.5762e+001 15547 119489,119567,119515
 3.9000e+000 119719 -8.7024e+000 -2.0655e+000  1.3466e+001 421 119641,119693,119667
 4.0000e+000 69562 -1.0406e+002 -4.3477e+001 -1.0044e+002 69254 69484,69536,69510
 4.0000e+000 70009 -1.2407e+002 -8.3500e+001 -1.8920e+001 68942 69686,69842,69816
 4.0000e+000 69986 -1.1726e+002 -7.0072e+001 -1.1408e+001 68942 69686,69868,69842
 4.0000e+000 69963 -1.5211e+002 -6.5560e+001 -2.5886e+001 68942 69686,69816,69712
 4.0000e+000 69940 -1.4768e+002 -6.3572e+001 -2.2602e+001 68942 69712,69790,69738
 4.0000e+000 69917 -1.5833e+002 -8.1187e+001 -2.7142e+001 68942 69712,69816,69790
 4.0000e+000 69894 -1.1646e+002 -3.5731e+001 -4.6696e+001 68942 69738,69790,69764
 4.0000e+000 70110 -4.3253e+002 -1.8536e+002 -1.6537e+001 68766 70032,70084,70058
 4.0000e+000 70746 -2.5486e+002 -8.4694e+001  2.9484e+000 68448 70400,70556,70426
 4.0000e+000 70723 -1.9296e+002 -8.2790e+001 -2.0655e+000 68448 70374,70556,70400
 4.0000e+000 70700 -1.9316e+002 -5.6834e+001 -2.6486e+000 68448 70426,70556,70478
 4.0000e+000 70677 -2.1953e+002 -9.8236e+001 -1.8724e+001 68448 70478,70556,70504
 4.0000e+000 70654 -2.0102e+002 -4.5123e+001  2.2643e+000 68448 70426,70478,70452
 4.0000e+000 70631 -1.8258e+002 -8.2224e+001 -3.1082e+001 68448 70374,70582,70556
 4.0000e+000 70608 -2.0997e+002 -1.1838e+002  1.5986e+001 68448 70504,70556,70530
 4.0000e+000 70896 -2.1281e+002 -8.1730e+001 -3.1379e+001 68250 70795,70847,70821
 4.0000e+000 70873 -1.8419e+002 -7.8914e+001 -3.0666e+000 68250 70769,70847,70795
 4.0000e+000 70997 -7.1754e+001 -2.9367e+001 -1.4140e+001 68052 70919,70971,70945
 4.0000e+000 71367 -5.7665e+001 -6.7483e+001 -2.8222e+001 67740 71096,71226,71200
 4.0000e+000 71344 -2.9061e+001 -4.9676e+001 -1.3536e+001 67740 71044,71226,71096
 4.0000e+000 71321 -8.4748e-004  8.4748e-004 -2.7741e-001 67740 71044,71096,71070
 4.0000e+000 71298 -1.0279e+002 -8.4237e+001 -3.6549e+001 67740 71096,71200,71174
 4.0000e+000 71275 -5.2254e+001 -1.2284e+002 -8.7388e+001 67740 71096,71148,71122
 4.0000e+000 71252 -5.2390e+001 -7.3703e+001 -2.9412e+001 67740 71096,71174,71148
 4.0000e+000 71519 -4.7466e+001 -2.0337e+001 -4.3143e+000 67542 71418,71470,71444
 4.0000e+000 71496  2.8842e+000  6.7092e+000  6.1593e+000 67542 71392,71470,71418
 4.0000e+000 71923 -3.6841e+001 -1.5767e+001  7.9861e-001 67230 71649,71779,71675
 4.0000e+000 71900 -1.6590e+001 -1.3416e+001  4.3325e+000 67230 71649,71805,71779
 4.0000e+000 71877 -6.4485e+001 -2.7572e+001  7.3661e+000 67230 71675,71727,71701
 4.0000e+000 71854 -6.3779e+001 -5.2242e+001  1.1215e+001 67230 71675,71753,71727
 4.0000e+000 71831 -5.7528e+001 -3.3856e+001  8.5657e+000 67230 71675,71779,71753
 4.0000e+000 72433 -1.4437e+002 -5.2049e+001 -5.0328e+000 67032 72038,72246,72220
 4.0000e+000 72410 -4.0732e+001 -1.7342e+001  1.9711e+001 67032 72012,72246,72038
 4.0000e+000 72387 -1.8075e+002 -8.9066e+001 -8.2651e+000 67032 72064,72194,72168
 4.0000e+000 72364 -1.7925e+002 -7.6927e+001 -9.1561e+000 67032 72038,72194,72064
 4.0000e+000 72341 -1.5015e+002 -6.1676e+001  1.6443e+001 67032 72038,72220,72194
 4.0000e+000 72318 -1.9669e+002 -8.1265e+001  2.0486e+000 67032 72090,72168,72142
 4.0000e+000 72295 -1.3816e+002 -5.9168e+001  1.8213e+001 67032 72064,72168,72090
 4.0000e+000 72272 -2.0395e+002 -8.7400e+001 -6.0026e-001 67032 72090,72142,72116
 4.0000e+000 72933 -6.2362e+001 -4.5392e+001  2.6112e+001 66628 72956,72665,72613
 4.0000e+000 72910 -7.8953e+001 -3.6138e+001  2.1801e+001 66628 73100,72956,72613
 4.0000e+000 72887 -2.8952e+001 -3.0186e+001  7.3017e+000 66628 73028,72691,72665
 4.0000e+000 72864 -8.0599e+001 -4.0237e+001  2.2928e+001 66628 73100,72613,72587
 4.0000e+000 72841 -4.3584e+001 -3.6764e+001  7.6256e+000 66628 72613,72665,72639
 4.0000e+000 72818 -1.0549e+002 -4.5338e+001  2.1054e+001 66628 72587,72769,72743
 4.0000e+000 72795 -1.3448e+002 -1.1259e+002  2.0056e+001 66628 72561,72769,72587
 4.0000e+000 72982 -4.2491e+001 -3.6778e+001  2.0203e+001 66628 73028,72665,72956
 4.0000e+000 73005 -6.6327e+001 -2.8373e+001  1.9062e+001 66628 72717,72956,72743
 4.0000e+000 73054 -5.4120e+001 -4.5617e+001  1.4586e+001 66628 72717,72691,73028
 4.0000e+000 73077 -5.9677e+001 -4.5296e+001  2.5615e+001 66628 72717,73028,72956
 4.0000e+000 73126 -8.0756e+001 -3.6813e+001  2.6033e+001 66628 72743,72956,73100
 4.0000e+000 73149 -8.1538e+001 -3.9918e+001  2.7018e+001 66628 72743,73100,72587
 4.0000e+000 73606 -1.0166e+002 -6.3738e+001  3.3025e+001 66281 73332,73384,73358
 4.0000e+000 73583 -1.1548e+002 -4.2311e+001  1.2110e+001 66281 73332,73462,73384
 4.0000e+000 73560 -1.0272e+002 -5.5742e+001  4.4958e+000 66281 73384,73462,73436
 4.0000e+000 73537 -1.3633e+002 -9.8916e+001  2.5370e+001 66281 73332,73488,73462
 4.0000e+000 73514 -1.4147e+002 -7.0886e+001 -3.1889e+000 66281 73384,73436,73410
 4.0000e+000 73984 -2.0510e+002 -5.3032e+001 -6.6577e+000 65969 73736,73814,73788
 4.0000e+000 73961 -1.7687e+002 -6.5228e+001  2.4570e+001 65969 73736,73866,73814
 4.0000e+000 73938 -1.3699e+002 -5.5949e+001 -7.2226e+000 65969 73814,73866,73840
 4.0000e+000 73915 -2.4591e+002 -1.0453e+002  2.8313e+000 65969 73710,73866,73736
 4.0000e+000 73892 -2.5457e+002 -8.3589e+001  3.4795e+001 65969 73736,73788,73762
 4.0000e+000 74232 -1.6666e+002 -7.0304e+001  8.4181e+000 65572 74255,74085,74033
 4.0000e+000 74209 -1.8360e+002 -6.6850e+001  1.6278e+001 65572 74327,74255,74033
 4.0000e+000 74186 -1.9478e+002 -6.3276e+001  1.2253e+001 65572 74327,74033,74007
 4.0000e+000 74163 -1.7145e+002 -5.5378e+001  1.1892e+000 65572 74033,74085,74059
 4.0000e+000 74281 -1.5919e+002 -5.9722e+001  3.2438e+000 65572 74111,74085,74255
 4.0000e+000 74304 -1.5985e+002 -5.5461e+001  1.7856e+001 65572 74111,74255,74137
 4.0000e+000 74353 -1.6564e+002 -6.6418e+001  1.5157e+001 65572 74137,74255,74327
 4.0000e+000 74376 -1.7851e+002 -6.3819e+001  1.2263e+001 65572 74137,74327,74007
 4.0000e+000 74884 -1.2253e+002 -4.6036e+001  1.2987e+001 65174 74587,74717,74613
 4.0000e+000 74861 -1.5403e+002 -6.9573e+001 -2.9246e+000 65174 74561,74717,74587
 4.0000e+000 74838 -1.3447e+002 -7.5244e+001 -7.7811e+000 65174 74613,74691,74639
 4.0000e+000 74815 -1.1898e+002 -5.9796e+001  1.1410e+001 65174 74613,74717,74691
 4.0000e+000 74792 -9.0530e+001 -4.2835e+001  7.3162e+000 65174 74639,74691,74665
 4.0000e+000 74769 -1.7968e+002 -5.2040e+001 -1.8263e+000 65174 74561,74743,74717
 4.0000e+000 75412 -1.4370e+001 -3.3798e+001  1.8232e+001 64770 75167,75245,75219
 4.0000e+000 75389 -3.5477e+001 -4.9032e+001  1.1548e+001 64770 75115,75245,75167
 4.0000e+000 75366 -2.5988e+001 -4.8579e+001  1.3913e+001 64770 75089,75245,75115
 4.0000e+000 75343 -2.0666e+001 -2.9915e+001  8.4103e+000 64770 75167,75219,75193
 4.0000e+000 75320 -3.4426e+001 -4.6477e+001  9.9254e+000 64770 75115,75167,75141
 4.0000e+000 75297 -1.9556e+001 -4.5668e+001  7.7202e+000 64770 75089,75271,75245
 4.0000e+000 75861 -1.9858e+002 -8.5118e+001 -2.9495e+001 64316 75538,75694,75564
 4.0000e+000 75838 -2.4266e+002 -1.0467e+002 -3.5114e+001 64316 75538,75720,75694
 4.0000e+000 75815 -1.6755e+002 -6.4537e+001 -1.7352e+001 64316 75590,75694,75642
 4.0000e+000 75792 -1.9281e+002 -9.9327e+001 -3.2336e+001 64316 75564,75694,75590
 4.0000e+000 75769 -1.7638e+002 -4.9385e+001 -1.1916e+001 64316 75590,75642,75616
 4.0000e+000 75746 -1.2109e+002 -5.2063e+001 -3.2504e+001 64316 75642,75694,75668
 4.0000e+000 76239 -1.3946e+002 -6.1286e+001 -2.4547e+001 64018 76262,76095,76043
 4.0000e+000 76216 -1.2878e+002 -6.8822e+001 -2.5800e+001 64018 76262,76043,76017
 4.0000e+000 76193 -1.2224e+002 -6.4440e+001 -2.3852e+001 64018 75991,76121,76017
 4.0000e+000 76170 -1.2526e+002 -2.4537e+001 -2.3402e+001 64018 76043,76095,76069
 4.0000e+000 76147 -1.5452e+002 -5.5792e+001 -3.8224e+000 64018 75965,76121,75991
 4.0000e+000 76288 -1.3030e+002 -5.4948e+001 -1.9738e+001 64018 76121,76095,76262
 4.0000e+000 76311 -1.2285e+002 -6.6313e+001 -2.2845e+001 64018 76121,76262,76017
 4.0000e+000 76866 -3.7046e+001 -4.0324e+001  1.1391e+001 63728 76520,76676,76546
 4.0000e+000 76843 -4.8924e+001 -4.4685e+001  1.2757e+001 63728 76520,76702,76676
 4.0000e+000 76820 -2.8141e+001 -4.2669e+001  1.6229e+001 63728 76546,76650,76572
 4.0000e+000 76797 -4.4462e+001 -5.6189e+001  8.3582e+000 63728 76546,76676,76650
 4.0000e+000 76774 -3.5555e+001 -4.7442e+001  1.1449e+001 63728 76572,76650,76624
 4.0000e+000 76751 -6.3792e+001 -2.5319e+001  1.2396e+001 63728 76494,76702,76520
 4.0000e+000 76728 -1.7082e+001 -2.7266e+001  1.9572e+001 63728 76572,76624,76598
 4.0000e+000 77065 -1.5562e+002 -5.0480e+001 -2.5896e+001 63288 77088,76941,76915
 4.0000e+000 77042 -1.7335e+002 -6.5442e+001 -8.7547e+000 63288 77088,76915,76993
 4.0000e+000 77019 -1.9360e+002 -7.8468e+001 -1.4640e+001 63288 76889,76993,76915
 4.0000e+000 77114 -1.6688e+002 -1.0997e+001 -3.5873e+001 63288 76967,76941,77088
 4.0000e+000 77137 -1.8362e+002 -4.5318e+001 -2.4739e+001 63288 77160,77088,76993
 4.0000e+000 77186 -1.8300e+002 -4.6523e+001 -2.5510e+001 63288 76967,77088,77160
 4.0000e+000 77417 -1.9157e+002 -6.9316e+001 -1.3506e+001 62884 77440,77342,77316
 4.0000e+000 77394 -1.8184e+002 -5.4668e+001 -9.1645e+000 62884 77770,77440,77316
 4.0000e+000 77466 -1.1741e+002 -3.0669e+001 -8.3753e+000 62884 77512,77440,77368
 4.0000e+000 77489 -1.7613e+002 -7.9330e+001 -1.4021e+000 62884 77642,77440,77290
 4.0000e+000 77538 -2.0230e+002 -6.9945e+001  7.5984e+000 62884 77342,77440,77512
 4.0000e+000 77668 -1.5096e+002 -1.9599e+001  1.3594e-001 62884 77368,77440,77642
 4.0000e+000 77796 -1.6351e+002 -4.7667e+001 -8.1631e+000 62884 77290,77440,77770
 4.0000e+000 78479 -1.2966e+002 -4.7312e+001  3.5460e+000 62480 78084,78240,78214
 4.0000e+000 78456 -1.6570e+002 -6.0370e+001  1.3591e+001 62480 78084,78266,78240
 4.0000e+000 78433 -1.9311e+002 -7.6657e+001  3.1580e+000 62480 78110,78214,78136
 4.0000e+000 78410 -9.8145e+001 -3.7026e+001 -3.0005e+000 62480 78084,78214,78110
 4.0000e+000 78387 -1.2791e+002 -9.0436e+001  1.1072e+001 62480 78136,78214,78188
 4.0000e+000 78364 -1.2599e+002 -2.9323e+001  2.7298e+001 62480 78058,78266,78084
 4.0000e+000 78341 -2.7899e+002 -1.4625e+002 -2.8900e+001 62480 78136,78188,78162
 4.0000e+000 78318 -2.0874e+002 -4.7185e+001 -1.2701e+001 62480 78058,78292,78266
 4.0000e+000 78678 -1.5861e+002 -5.3353e+001  2.3450e+001 61926 78528,78606,78554
 4.0000e+000 78655 -1.6810e+002 -8.6454e+001  2.0290e+001 61926 78502,78606,78528
 4.0000e+000 78632 -1.3733e+002 -3.0388e+001 -4.4349e+000 61926 78554,78606,78580
 4.0000e+000 79058 -1.2111e+002 -6.4559e+001  2.6398e+001 61614 78836,78914,78862
 4.0000e+000 79035 -1.8543e+002 -6.2643e+001  2.9535e+001 61614 78810,78914,78836
 4.0000e+000 79012 -1.7555e+002 -6.0263e+001  1.8591e+001 61614 78784,78914,78810
 4.0000e+000 78989 -1.0644e+002 -3.2418e+001  3.0228e+001 61614 78862,78914,78888
 4.0000e+000 78966 -1.6160e+002 -5.2715e+001  1.4922e+001 61614 78784,78940,78914
 4.0000e+000 79208 -5.8236e+001 -1.3375e+002 -2.4884e+001 61366 79081,79133,79107
 4.0000e+000 79185 -1.7357e+001 -4.9260e+000 -3.6189e+000 61366 79081,79159,79133
 4.0000e+000 79358 -1.7615e+001 -6.8389e+001  7.8640e+000 60962 79231,79283,79257
 4.0000e+000 79335 -2.7464e+001 -6.4183e+001  1.7758e+001 60962 79231,79309,79283
 4.0000e+000 79608 -9.8045e+001 -8.2818e+001 -5.5313e+001 60508 79631,79435,79409
 4.0000e+000 79585 -8.6410e+001 -7.1395e+001 -4.5391e+001 60508 79703,79631,79409
 4.0000e+000 79562 -1.2575e+002 -1.0442e+002 -6.0185e+001 60508 79703,79409,79383
 4.0000e+000 79539 -1.4051e+002 -7.9570e+001 -4.2808e+001 60508 79435,79487,79461
 4.0000e+000 79657 -9.6313e+001 -7.7654e+001 -3.4588e+001 60508 79487,79435,79631
 4.0000e+000 79680 -5.5239e+001 -6.9249e+001 -1.6020e+001 60508 79487,79631,79513
 4.0000e+000 79729 -7.1716e+001 -9.2922e+001 -4.2192e+001 60508 79513,79631,79703
 4.0000e+000 79752 -7.1279e+001 -8.1904e+001 -4.2796e+001 60508 79513,79703,79383
 4.0000e+000 80390 -1.1014e+002 -6.1131e+001  9.0492e+000 59997 80413,80096,80018
 4.0000e+000 80367 -1.3776e+002 -6.6171e+001  1.7950e+001 59997 80413,80018,80226
 4.0000e+000 80344 -8.5667e+001 -3.2699e+001  1.0211e+001 59997 80096,80174,80148
 4.0000e+000 80321 -1.4661e+002 -5.6880e+001  8.1365e+000 59997 80018,80096,80070
 4.0000e+000 80298 -6.8033e+001 -4.8598e+001  1.7923e+000 59997 80096,80148,80122
 4.0000e+000 80275 -1.4966e+002 -6.6592e+001  2.3641e+001 59997 80174,80226,80200
 4.0000e+000 80252 -1.6972e+002 -6.8280e+000  4.6028e+001 59997 80018,80070,80044
 4.0000e+000 80439 -1.0217e+002 -6.1753e+001  2.5200e+000 59997 80174,80096,80413
 4.0000e+000 80462 -1.1323e+002 -4.8786e+001  7.1139e+000 59997 80174,80413,80226
 4.0000e+000 80840 -4.2016e+001 -4.0708e+001  1.8806e+001 59443 80863,80644,80618
 4.0000e+000 80817 -3.9548e+001 -3.9986e+001  1.9035e+001 59443 80863,80618,80566
 4.0000e+000 80794 -2.4745e+001 -4.2828e+001  1.7280e+001 59443 81007,80935,80670
 4.0000e+000 80771 -4.5216e+001 -4.4322e+001  2.4393e+001 59443 80566,80722,80696
 4.0000e+000 80748 -5.2672e+001 -5.6711e+001  3.5355e+001 59443 80566,80618,80592
 4.0000e+000 80889 -4.4099e+001 -4.1976e+001  2.1088e+001 59443 80935,80644,80863
 4.0000e+000 80912 -3.9597e+001 -4.1956e+001  1.9555e+001 59443 80696,80863,80566
 4.0000e+000 80961 -4.1141e+001 -5.1737e+001  1.2771e+001 59443 80696,80670,80935
 4.0000e+000 80984 -3.4563e+001 -3.8413e+001  2.1376e+001 59443 80696,80935,80863
 4.0000e+000 81033 -3.7588e+001 -3.2286e+001  2.4003e+001 59443 80644,80935,81007
 4.0000e+000 81360 -1.5574e+002 -8.1064e+001 -4.6700e+001 59031 81383,81187,81161
 4.0000e+000 81337 -1.0830e+002 -5.7763e+001 -3.9417e+001 59031 81455,81383,81161
 4.0000e+000 81314 -8.8120e+001 -4.8632e+001 -3.3690e+001 59031 81455,81161,81135
 4.0000e+000 81291 -1.8755e+002 -1.0769e+002 -2.8663e+001 59031 81187,81239,81213
 4.0000e+000 81409 -1.3947e+002 -7.2484e+001 -1.2180e+001 59031 81239,81187,81383
 4.0000e+000 81432 -1.1912e+002 -6.1124e+001 -2.1170e+001 59031 81239,81383,81265
 4.0000e+000 81481 -1.3052e+002 -3.8212e+001 -3.4848e+001 59031 81265,81383,81455
 4.0000e+000 81504 -1.2177e+002 -3.9435e+001 -3.3981e+001 59031 81265,81455,81135
 4.0000e+000 81835 -1.7369e+002 -6.3857e+001  1.1825e+001 58577 81610,81714,81636
 4.0000e+000 81812 -1.3610e+002 -4.4785e+001  2.4005e+000 58577 81610,81740,81714
 4.0000e+000 81789 -1.2413e+002 -4.2795e+001  2.9048e+000 58577 81636,81714,81688
 4.0000e+000 81766 -1.4542e+002 -8.5883e+001  1.4929e+001 58577 81636,81688,81662
 4.0000e+000 81985 -8.8420e+000 -2.0668e+001  1.1101e+001 58030 81884,81936,81910
 4.0000e+000 81962 -2.5861e+001 -2.4703e+001  3.3815e+000 58030 81858,81936,81884
 4.0000e+000 82414 -1.3685e+001 -3.9263e+001  1.0459e+001 57690 82437,82169,82117
 4.0000e+000 82391 -1.8472e+001 -2.7121e+001  1.0599e+001 57690 82437,82117,82247
 4.0000e+000 82368 -1.4504e+001 -3.3959e+001  1.1311e+001 57690 82195,82247,82221
 4.0000e+000 82345 -2.2293e+001 -2.9789e+001  1.0786e+000 57690 82091,82247,82117
 4.0000e+000 82322 -9.0130e+000 -4.0916e+001  1.3816e+001 57690 82117,82169,82143
 4.0000e+000 82299 -1.4402e+001 -3.6233e+001  4.4798e+000 57690 82091,82273,82247
 4.0000e+000 82463 -1.5488e+001 -4.6363e+001  5.1101e+000 57690 82195,82169,82437
 4.0000e+000 82486 -1.8484e+001 -3.4852e+001  7.4008e+000 57690 82195,82437,82247
 4.0000e+000 83041 -1.1436e+002 -5.8529e+001  2.4740e+001 57172 83064,82721,82695
 4.0000e+000 83018 -1.0817e+002 -5.6533e+001  8.9697e+000 57172 83064,82695,82851
 4.0000e+000 82995 -1.0606e+002 -5.8704e+001  9.4894e+000 57172 82669,82851,82695
 4.0000e+000 82972 -9.4016e+001 -4.7922e+001  1.4423e+001 57172 82773,82851,82825
 4.0000e+000 82949 -6.9960e+001 -3.7361e+001  1.2505e+001 57172 82773,82825,82799
 4.0000e+000 82926 -9.3751e+001 -2.1148e+001  2.9762e+001 57172 82721,82773,82747
 4.0000e+000 82903 -1.3135e+002 -5.3091e+001  4.4870e+001 57172 82669,82877,82851
 4.0000e+000 83090 -8.8731e+001 -4.8741e+001  2.6882e+001 57172 82773,82721,83064
 4.0000e+000 83113 -9.9538e+001 -5.3540e+001  1.1890e+001 57172 82773,83064,82851
 4.0000e+000 83747 -6.9273e+001 -3.7382e+001  2.0069e+001 56554 83770,83427,83401
 4.0000e+000 83724 -6.4863e+001 -4.2443e+001  2.2513e+001 56554 83842,83770,83401
 4.0000e+000 83701 -7.1397e+001 -4.8612e+001  1.3982e+001 56554 83842,83401,83583
 4.0000e+000 83678 -7.9932e+001 -5.9708e+001  1.6528e+001 56554 83914,83531,83505
 4.0000e+000 83655 -9.6045e+001 -6.9174e+001  9.4529e+000 56554 83531,83583,83557
 4.0000e+000 83632 -4.1866e+001 -3.4415e+001  2.5937e+001 56554 83375,83583,83401
 4.0000e+000 83609 -6.8272e+001 -3.0247e+001  2.1247e+001 56554 83427,83479,83453
 4.0000e+000 83796 -6.7416e+001 -3.0637e+001  2.2802e+001 56554 83479,83427,83770
 4.0000e+000 83819 -5.3751e+001 -3.7031e+001  1.7270e+001 56554 83479,83770,83505
 4.0000e+000 83868 -7.1553e+001 -4.5665e+001  1.4354e+001 56554 83505,83770,83842
 4.0000e+000 83891 -7.5552e+001 -4.7759e+001  1.5202e+001 56554 83914,83505,83842
 4.0000e+000 83940 -7.3551e+001 -6.2758e+001  8.5880e+000 56554 83583,83531,83914
 4.0000e+000 83963 -7.3638e+001 -5.8947e+001  8.3814e+000 56554 83583,83914,83842
 4.0000e+000 84341 -1.5969e+002 -7.9797e+001 -1.8861e+001 56192 84067,84145,84119
 4.0000e+000 84318 -1.7207e+002 -1.0251e+002 -1.2892e+001 56192 84067,84223,84145
 4.0000e+000 84295 -1.5844e+002 -6.5730e+001 -2.0128e+001 56192 84145,84223,84197
 4.0000e+000 84272 -1.6455e+002 -1.1081e+002 -9.2482e+000 56192 84067,84119,84093
 4.0000e+000 84249 -1.3503e+002 -6.8650e+001 -1.3343e+001 56192 84145,84197,84171
 4.0000e+000 84611 -3.5006e+001 -8.2517e+001 -5.6715e+001 55538 84386,84490,84412
 4.0000e+000 84588 -6.3671e+001 -5.3509e+001 -5.9796e+001 55538 84386,84516,84490
 4.0000e+000 84565 -5.0226e+001 -9.0093e+001 -6.0885e+001 55538 84412,84490,84464
 4.0000e+000 84542 -4.6978e+001 -1.1069e+002 -6.5714e+001 55538 84412,84464,84438
 4.0000e+000 84942 -1.2437e+002 -4.1158e+001  2.5550e+001 55084 84769,84847,84795
 4.0000e+000 84919 -1.4263e+002 -5.2328e+001  2.0666e+001 55084 84717,84847,84769
 4.0000e+000 84896 -1.3363e+002 -5.0463e+001  3.2054e+001 55084 84717,84769,84743
 4.0000e+000 84873 -1.1531e+002 -4.3081e+001  3.1525e+001 55084 84795,84847,84821
 4.0000e+000 85271 -4.9401e+001 -2.3788e+001  5.9013e+000 54580 85294,85098,85072
 4.0000e+000 85248 -4.7218e+001 -4.6945e+001  1.3015e+001 54580 85294,85072,85176
 4.0000e+000 85225 -5.4665e+001 -3.9606e+001  1.5367e+001 54580 85124,85176,85150
 4.0000e+000 85202 -3.1808e+001 -4.8609e+001  2.1198e+000 54580 85046,85176,85072
 4.0000e+000 85320 -5.4277e+001 -1.1132e+001  1.5039e+001 54580 85124,85098,85294
 4.0000e+000 85343 -5.0445e+001 -3.0720e+001  1.6569e+001 54580 85124,85294,85176
 4.0000e+000 85542 -1.0696e+002 -8.1966e+001 -5.1763e+001 53976 85565,85444,85418
 4.0000e+000 85519 -9.4884e+001 -8.6513e+001 -4.0351e+001 53976 85565,85418,85366
 4.0000e+000 85496 -8.3328e+001 -1.3462e+002 -8.9612e+001 53976 85366,85418,85392
 4.0000e+000 85591 -1.2673e+002 -8.8002e+001 -5.6953e+001 53976 85470,85444,85565
 4.0000e+000 85614 -1.1199e+002 -8.3748e+001 -4.0666e+001 53976 85470,85565,85366
 4.0000e+000 85960 -2.0378e+002 -8.8678e+001  1.1383e+001 53572 85663,85715,85689
 4.0000e+000 85937 -1.6700e+002 -8.9340e+001 -2.8838e+001 53572 85983,85715,85663
 4.0000e+000 85914 -1.0963e+002 -6.1147e+001 -4.1009e+001 53572 86055,85983,85663
 4.0000e+000 85891 -1.0027e+002 -5.6637e+001 -4.9556e+001 53572 86055,85663,85637
 4.0000e+000 85868 -1.1776e+002 -4.1022e+001 -1.4718e+001 53572 85637,85793,85767
 4.0000e+000 85845 -1.1004e+002 -5.5451e+001 -9.2960e+000 53572 85637,85819,85793
 4.0000e+000 86009 -1.0580e+002 -1.3028e+002 -2.7390e+001 53572 85741,85715,85983
 4.0000e+000 86032 -6.9163e+001 -9.1728e+001 -4.3171e+001 53572 85741,85983,85767
 4.0000e+000 86081 -1.0951e+002 -8.8852e+001 -2.0841e+001 53572 85767,85983,86055
 4.0000e+000 86104 -9.0789e+001 -7.2571e+001 -3.0858e+001 53572 85767,86055,85637
 4.0000e+000 86693 -1.9743e+002 -9.0985e+001  1.0902e+001 52946 86474,86526,86500
 4.0000e+000 86670 -1.6511e+002 -9.0136e+001  2.7635e-001 52946 86396,86526,86474
 4.0000e+000 86647 -1.5309e+002 -8.7067e+001 -1.2956e+000 52946 86370,86526,86396
 4.0000e+000 86624 -1.3810e+002 -3.7677e+001 -8.4292e+000 52946 86422,86474,86448
 4.0000e+000 86601 -1.5188e+002 -4.3072e+001 -4.3711e+000 52946 86396,86474,86422
 4.0000e+000 86578 -1.0380e+002 -5.8423e+001  6.2420e+001 52946 86370,86552,86526
 4.0000e+000 87376 -1.4357e+002 -1.1205e+002  2.0208e+001 52420 87007,87085,87033
 4.0000e+000 87353 -1.3671e+002 -1.0250e+002  1.1175e+001 52420 87007,87163,87085
 4.0000e+000 87330 -1.0241e+002 -9.8269e+001  9.4893e+000 52420 87007,87189,87163
 4.0000e+000 87307 -1.6055e+002 -9.9672e+001  3.4851e+001 52420 87033,87085,87059
 4.0000e+000 87284 -1.4728e+002 -1.1000e+002  1.3743e+001 52420 87085,87137,87111
 4.0000e+000 87261 -1.4211e+002 -1.1401e+002  1.2567e+001 52420 87085,87163,87137
 4.0000e+000 87238 -7.4162e+001 -4.6867e+001  2.3183e+001 52420 86955,87189,87007
 4.0000e+000 87215 -6.8056e+001 -3.4917e+001  2.0302e+001 52420 86955,87007,86981
 4.0000e+000 87624 -9.2689e+001 -8.0914e+001 -6.0738e+001 51916 87451,87503,87477
 4.0000e+000 87601 -7.7451e+001 -5.1876e+001 -5.4167e+001 51916 87425,87503,87451
 4.0000e+000 87578 -1.6721e+001 -3.0216e+001 -5.0668e+001 51916 87425,87529,87503
 4.0000e+000 87555 -3.0538e+001 -6.9902e+001 -5.1101e+001 51916 87399,87529,87425
 4.0000e+000 88053 -7.9278e+001 -5.0181e+001  1.9612e+001 51568 87782,87834,87808
 4.0000e+000 88030 -8.7634e+001 -5.4744e+001  1.4385e+001 51568 88076,87782,87886
 4.0000e+000 88007 -9.1301e+001 -6.4955e+001  7.4044e+000 51568 88076,87886,87860
 4.0000e+000 87984 -8.5490e+001 -6.9241e+001  1.4633e+001 51568 87756,87886,87782
 4.0000e+000 87961 -9.1244e+001 -7.1823e+001  1.3651e+001 51568 87756,87912,87886
 4.0000e+000 87938 -5.6013e+001 -6.7294e+001  2.8433e+001 51568 87730,87912,87756
 4.0000e+000 88102 -8.4666e+001 -4.8948e+001  1.8570e+001 51568 87834,87782,88076
 4.0000e+000 88125 -8.3864e+001 -5.5205e+001  1.2443e+001 51568 87834,88076,87860
 4.0000e+000 88324 -2.5504e+001 -4.8229e+001  1.1893e+001 51164 88419,88347,88200
 4.0000e+000 88301 -1.1095e+001 -2.6884e+001  1.6284e+001 51164 88347,88148,88252
 4.0000e+000 88278 -3.8353e+001 -5.0259e+001 -3.7632e+000 51164 88419,88200,88174
 4.0000e+000 88373 -1.0664e+001 -6.2083e+001  1.2747e+001 51164 88226,88200,88347
 4.0000e+000 88396 -9.8310e+000 -4.2985e+001  6.1094e+000 51164 88226,88347,88252
 4.0000e+000 88445 -3.6168e+000 -3.9014e+001  1.1063e+001 51164 88148,88347,88419
 4.0000e+000 88468 -3.6684e+000 -3.7294e+001  1.3823e-001 51164 88148,88419,88174
 4.0000e+000 88738 -8.7048e+000 -3.2965e+001 -1.7323e+000 50560 88513,88617,88539
 4.0000e+000 88715 -1.6928e+001 -3.9504e+001  1.6562e+000 50560 88513,88643,88617
 4.0000e+000 88692 -2.0582e+001 -1.8184e+001 -5.3992e+000 50560 88539,88591,88565
 4.0000e+000 88669 -1.4347e+001 -3.3583e+001 -2.5594e+000 50560 88539,88617,88591
 4.0000e+000 88939 -7.0061e+001 -4.4274e+001  2.0122e+001 50106 88962,88789,88763
 4.0000e+000 88916 -6.5042e+001 -5.3827e+001  1.8987e+001 50106 88962,88763,88841
 4.0000e+000 88893 -8.2229e+001 -5.8743e+001  9.2484e+000 50106 88763,88867,88841
 4.0000e+000 88988 -6.1964e+001 -3.9895e+001  2.1769e+001 50106 88815,88789,88962
 4.0000e+000 89011 -7.8139e+001 -5.1020e+001  1.8969e+001 50106 89034,88962,88841
 4.0000e+000 89060 -4.9433e+001 -3.5915e+001  1.1689e+001 50106 88815,88962,89034
 4.0000e+000 89472 -4.0350e+001 -3.1904e+001  2.3612e+001 49666 89273,89351,89325
 4.0000e+000 89449 -3.5666e+001 -5.6232e+001  1.5332e+001 49666 89273,89377,89351
 4.0000e+000 89426 -3.2926e+001 -3.2689e+001  1.7805e+001 49666 89273,89325,89299
 4.0000e+000 89403 -3.9680e+001 -3.4145e+001  2.3532e+001 49666 89247,89377,89273
 4.0000e+000 89978 -1.6386e+002 -1.2345e+002 -2.8559e+001 49205 89681,89837,89733
 4.0000e+000 89955 -1.3519e+002 -1.2377e+002 -3.1767e+001 49205 89655,89837,89681
 4.0000e+000 89932 -2.1194e+002 -6.6717e+001 -1.2815e+001 49205 89785,89837,89811
 4.0000e+000 89909 -1.5515e+002 -1.0811e+002 -2.4878e+001 49205 89733,89837,89785
 4.0000e+000 89886 -1.8434e+002 -1.3981e+002 -6.9007e+001 49205 89733,89785,89759
 4.0000e+000 89863 -1.4576e+002 -1.0645e+002 -3.6934e+001 49205 89681,89733,89707
 4.0000e+000 90177 -8.2292e+001 -2.5273e+001  1.0873e+001 48865 90530,90200,90053
 4.0000e+000 90154 -7.6338e+001 -6.0156e+001 -2.3429e+000 48865 90402,90200,90001
 4.0000e+000 90131 -8.9272e+001 -8.5671e+000  8.9631e+000 48865 90530,90053,90027
 4.0000e+000 90226 -1.0131e+002 -5.7125e+001  2.1127e+001 48865 90079,90053,90200
 4.0000e+000 90249 -1.0488e+002 -1.1301e+002 -6.9571e+000 48865 90272,90200,90105
 4.0000e+000 90298 -4.6605e+001 -3.5094e+001  1.9716e+001 48865 90079,90200,90272
 4.0000e+000 90428 -9.5295e+001 -9.2170e+001  6.8520e+000 48865 90105,90200,90402
 4.0000e+000 90556 -8.3302e+001 -5.4924e+001  1.1133e+001 48865 90001,90200,90530
 4.0000e+000 90579 -8.1122e+001 -2.7854e+001  2.4189e+000 48865 90001,90530,90027
 4.0000e+000 90827 -7.4774e+001 -4.9459e+001  2.0802e+001 48404 90850,90654,90628
 4.0000e+000 90804 -8.7485e+001 -5.7329e+001  3.2114e+001 48404 90850,90628,90732
 4.0000e+000 90781 -7.0816e+001 -4.6364e+001  1.0189e+001 48404 90680,90732,90706
 4.0000e+000 90758 -9.9932e+001 -2.2374e+001  3.3443e+001 48404 90602,90732,90628
 4.0000e+000 90876 -7.9110e+001 -3.2647e+001  1.1612e+001 48404 90680,90654,90850
 4.0000e+000 90899 -8.7822e+001 -4.6385e+001  2.1337e+001 48404 90680,90850,90732
 4.0000e+000 91000 -2.7309e+001 -6.7488e+001 -1.1988e+002 48156 90922,90974,90948
 4.0000e+000 91250 -4.0550e+001 -9.6392e+001 -7.9522e+001 47752 91051,91103,91077
 4.0000e+000 91227 -3.1221e+001 -1.3921e+002 -6.6757e+001 47752 91025,91103,91051
 4.0000e+000 91204 -4.3535e+001 -9.8691e+001 -5.4176e+001 47752 91025,91155,91103
 4.0000e+000 91181 -2.0298e+001 -6.8610e+001 -2.0719e+001 47752 91103,91155,91129
 4.0000e+000 91402 -1.0032e+002 -3.1320e+001 -9.6816e+000 47191 91425,91301,91275
 4.0000e+000 91379 -6.4621e+001 -1.6888e+001 -1.9749e+001 47191 91497,91425,91275
 4.0000e+000 91451 -9.8283e+001 -3.8586e+001 -1.9433e+000 47191 91327,91301,91425
 4.0000e+000 91474 -9.8454e+001 -4.4734e+001  3.4819e+000 47191 91327,91425,91353
 4.0000e+000 91523 -1.0827e+002 -7.9820e+001 -5.9034e-001 47191 91353,91425,91497
 4.0000e+000 91854 -2.5087e+001 -8.9059e+001 -3.8143e+001 46744 91949,91877,91707
 4.0000e+000 91831 -1.4922e+001 -1.1356e+002 -1.8570e+001 46744 91877,91655,91629
 4.0000e+000 91808 -3.2927e+001 -7.9318e+001 -4.4918e+001 46744 91949,91707,91681
 4.0000e+000 91785 -6.4176e+001 -7.3622e+001 -1.6539e+001 46744 91629,91759,91733
 4.0000e+000 91903 -7.6130e+001 -9.3338e+001 -2.0112e+001 46744 91733,91707,91877
 4.0000e+000 91926 -2.8626e+001 -6.6675e+001 -9.2982e+000 46744 91733,91877,91629
 4.0000e+000 91975 -3.0250e+001 -1.2425e+002 -3.3623e+001 46744 91655,91877,91949
 4.0000e+000 91998 -2.6146e+001 -1.0426e+002 -4.5275e+001 46744 91655,91949,91681
 4.0000e+000 92378  5.8526e-002 -2.6324e+000 -1.4432e+000 46090 92130,92208,92182
 4.0000e+000 92355 -1.5094e+001 -7.6622e+000  4.0359e+000 46090 92104,92208,92130
 4.0000e+000 92332  8.4489e-002 -3.0416e+000  5.3087e-001 46090 92104,92260,92208
 4.0000e+000 92309 -5.0955e-001 -5.3932e+000  7.1336e-001 46090 92208,92260,92234
 4.0000e+000 92286 -2.6446e+001 -4.7026e+000 -2.1581e-001 46090 92130,92182,92156
 4.0000e+000 92626 -7.3946e+001 -6.2545e+001  8.0072e+000 45693 92721,92649,92505
 4.0000e+000 92603 -8.9151e+001 -6.3909e+001  1.9284e+001 45693 92649,92453,92427
 4.0000e+000 92580 -7.1853e+001 -6.2698e+001  8.8953e+000 45693 92721,92505,92479
 4.0000e+000 92557 -1.1904e+002 -7.5500e+001  2.0084e+001 45693 92401,92531,92427
 4.0000e+000 92675 -9.6292e+001 -6.6337e+001  8.8025e+000 45693 92531,92505,92649
 4.0000e+000 92698 -9.9667e+001 -6.6912e+001  2.5840e+001 45693 92531,92649,92427
 4.0000e+000 92747 -8.6720e+001 -5.8947e+001  1.1527e+001 45693 92453,92649,92721
 4.0000e+000 92770 -6.7903e+001 -4.2734e+001  2.0712e+001 45693 92453,92721,92479
 4.0000e+000 93172 -8.1168e+000 -1.0694e+001  6.1177e+000 45331 92898,93028,92924
 4.0000e+000 93149 -3.8886e+000 -9.1551e+000  1.1360e+000 45331 92898,93054,93028
 4.0000e+000 93126 -8.8043e+000 -1.2670e+000  6.2126e+000 45331 92924,93002,92976
 4.0000e+000 93103 -3.8110e+000 -8.8648e+000  5.8867e+000 45331 92924,93028,93002
 4.0000e+000 93080 -7.2327e+000 -1.5774e+001  1.1768e+001 45331 92924,92976,92950
 4.0000e+000 93518 -8.0189e+001 -7.4734e+001 -4.9887e+000 44820 93613,93273,93247
 4.0000e+000 93495 -1.6873e+002 -1.1056e+002 -1.3961e+001 44820 93685,93541,93247
 4.0000e+000 93472 -1.3100e+002 -1.1778e+002 -1.6478e+001 44820 93541,93195,93377
 4.0000e+000 93449 -1.8637e+002 -9.5834e+001 -3.4479e+001 44820 93685,93247,93221
 4.0000e+000 93426 -1.0700e+002 -7.8487e+001 -2.7332e+001 44820 93299,93377,93351
 4.0000e+000 93403 -9.7238e+001 -5.6122e+001 -2.0999e+001 44820 93299,93351,93325
 4.0000e+000 93567 -1.3818e+002 -9.8656e+001 -7.4114e+000 44820 93613,93247,93541
 4.0000e+000 93590 -1.2045e+002 -1.0444e+002 -1.1217e+001 44820 93299,93541,93377
 4.0000e+000 93639 -1.4058e+002 -9.5508e+001 -1.0730e+001 44820 93299,93273,93613
 4.0000e+000 93662 -1.4126e+002 -9.4701e+001 -1.3610e+001 44820 93299,93613,93541
 4.0000e+000 93711 -1.2224e+002 -9.3303e+001 -1.7732e+001 44820 93195,93541,93685
 4.0000e+000 93734 -1.2994e+002 -7.3573e+001 -4.8765e+001 44820 93195,93685,93221
 4.0000e+000 94163 -5.0889e+001 -4.1774e+001  1.5774e+001 44237 94258,94186,93996
 4.0000e+000 94140 -5.0357e+001 -5.4665e+001  8.1473e+000 44237 94330,94022,93996
 4.0000e+000 94117 -5.4864e+001 -3.9308e+001  8.5424e+000 44237 94186,93918,93866
 4.0000e+000 94094 -4.9807e+001 -2.8869e+001  8.4966e+000 44237 94258,93996,93970
 4.0000e+000 94071 -5.0024e+001 -1.1730e+001  1.0251e+001 44237 94402,93944,93918
 4.0000e+000 94048 -6.1600e+001 -3.3298e+001 -4.5438e-001 44237 93866,93918,93892
 4.0000e+000 94212 -5.0649e+001 -5.4864e+001  9.2906e+000 44237 94330,93996,94186
 4.0000e+000 94235 -4.7595e+001 -3.9105e+001  8.0659e+000 44237 93840,94186,93866
 4.0000e+000 94284 -4.9151e+001 -2.7397e+001  6.6992e+000 44237 93918,94186,94258
 4.0000e+000 94307 -5.0817e+001 -1.3749e+001  8.2582e+000 44237 94402,93918,94258
 4.0000e+000 94356 -5.5436e+001 -4.6756e+001  5.0702e+000 44237 93840,94022,94330
 4.0000e+000 94379 -4.9854e+001 -5.2545e+001  9.8017e+000 44237 93840,94330,94186
 4.0000e+000 94428 -3.8918e+001 -1.9195e+001  8.4137e+000 44237 93970,93944,94402
 4.0000e+000 94451 -4.6047e+001 -2.4717e+001  4.6381e+000 44237 93970,94402,94258
 4.0000e+000 94908 -1.2747e+002 -7.9995e+001 -1.1938e+001 43890 94660,94790,94712
 4.0000e+000 94885 -1.3395e+002 -7.9851e+001 -1.3336e+001 43890 94634,94790,94660
 4.0000e+000 94862 -1.3103e+002 -9.7531e+001 -2.2099e+001 43890 94712,94764,94738
 4.0000e+000 94839 -1.1295e+002 -4.6105e+001 -1.2963e+001 43890 94712,94790,94764
 4.0000e+000 94816 -5.2209e+001 -4.4804e+001 -2.1463e+001 43890 94660,94712,94686
 4.0000e+000 95414 -3.7734e+001 -1.6845e+001  2.1740e-001 43186 95437,95143,95117
 4.0000e+000 95391 -3.6561e+001 -3.2707e+001  7.6493e+000 43186 95437,95117,95091
 4.0000e+000 95368 -3.2675e+001 -2.3972e+001  7.4818e-001 43186 95143,95221,95195
 4.0000e+000 95345 -6.1019e+001 -4.6266e+001  1.3996e+001 43186 95091,95273,95221
 4.0000e+000 95322 -4.9157e+001 -3.7197e+001  2.6513e+000 43186 95221,95273,95247
 4.0000e+000 95299 -2.1148e+001  9.7396e-001  4.6334e+000 43186 95143,95195,95169
 4.0000e+000 95463 -4.3446e+001 -2.7689e+001  7.2392e+000 43186 95221,95143,95437
 4.0000e+000 95486 -4.0372e+001 -4.0376e+001  1.4714e+001 43186 95221,95437,95091
 4.0000e+000 96041 -9.9895e+000 -1.9930e+001 -8.0090e-001 42782 95695,95851,95799
 4.0000e+000 96018 -1.4010e+001 -2.5121e+001 -2.5523e+000 42782 95669,95851,95695
 4.0000e+000 95995 -7.9510e+000 -8.8134e+000 -1.9198e+000 42782 95695,95747,95721
 4.0000e+000 95972 -1.0320e+001 -2.0032e+001  4.5736e-001 42782 95695,95799,95747
 4.0000e+000 95949 -1.0285e+001 -1.0633e+001 -7.9256e+000 42782 95747,95799,95773
 4.0000e+000 95926 -1.3778e+001 -2.8352e+001  2.7735e-001 42782 95799,95851,95825
 4.0000e+000 95903 -2.4165e+001 -2.9770e+001 -1.6367e+000 42782 95669,95877,95851
 4.0000e+000 96370 -9.1135e+001 -8.2330e+001  3.6579e+001 42420 96197,96275,96223
 4.0000e+000 96347 -9.2734e+001 -6.3925e+001  2.4093e+001 42420 96145,96275,96197
 4.0000e+000 96324 -7.0346e+001 -5.2269e+001  1.5110e+001 42420 96145,96197,96171
 4.0000e+000 96301 -7.4776e+001 -6.9489e+001  2.4727e+001 42420 96223,96275,96249
 4.0000e+000 96699 -3.9271e+001 -9.0475e+001 -6.3932e+001 41816 96474,96578,96526
 4.0000e+000 96676  1.1020e+001 -9.9541e+001 -2.9048e+001 41816 96474,96604,96578
 4.0000e+000 96653 -3.6559e+001 -1.1365e+002 -7.1392e+001 41816 96526,96578,96552
 4.0000e+000 96630 -4.4609e+001 -8.0393e+001 -5.0838e+001 41816 96474,96526,96500
 4.0000e+000 96947 -2.1096e+001 -5.2283e+001 -9.6846e+001 41212 96722,96800,96748
 4.0000e+000 96924 -8.0240e+001 -1.0880e+002 -7.1395e+001 41212 96722,96826,96800
 4.0000e+000 96901 -7.6178e+001 -1.1742e+002 -5.8078e+001 41212 96722,96852,96826
 4.0000e+000 96878 -1.5347e+002 -9.3745e+001 -5.6018e+001 41212 96748,96800,96774
 4.0000e+000 97097 -2.3670e+000  3.7969e-001 -1.2497e+000 40793 97120,97022,96996
 4.0000e+000 97074  1.0813e+000 -2.0351e+001  2.8627e+000 40793 97192,97120,96996
 4.0000e+000 97146 -7.8078e+000 -1.8270e+001  1.5047e+000 40793 97324,97120,97048
 4.0000e+000 97169 -2.3950e+000 -3.8498e+001  3.0304e+000 40793 97048,97120,96970
 4.0000e+000 97218 -6.9579e-001 -2.1172e+001  7.5915e-001 40793 96970,97120,97192
 4.0000e+000 97350 -7.8078e+000 -1.8270e+001  1.5047e+000 40793 97022,97120,97324
 4.0000e+000 97878 -1.8698e+001 -2.3774e+001  2.2616e+000 40446 97901,97607,97555
 4.0000e+000 97855 -1.4457e+001 -2.3683e+001  4.2633e-001 40446 97973,97901,97555
 4.0000e+000 97832 -1.1654e+001 -2.3679e+001  1.2170e+000 40446 97973,97555,97737
 4.0000e+000 97809 -2.2165e+001 -1.3242e+001 -2.2215e+000 40446 97633,97685,97659
 4.0000e+000 97786 -1.1619e+001 -1.4757e+001  7.4275e-001 40446 97633,97711,97685
 4.0000e+000 97763 -9.3677e+000 -2.4356e+001  1.1395e+001 40446 97555,97607,97581
 4.0000e+000 97927 -1.3552e+001 -2.3698e+001  6.0990e-001 40446 97633,97607,97901
 4.0000e+000 97950 -1.2097e+001 -2.1597e+001 -1.0574e+000 40446 97633,97901,97711
 4.0000e+000 97999 -1.1510e+001 -2.1986e+001  1.7493e+000 40446 97711,97901,97973
 4.0000e+000 98022 -9.9754e+000 -2.3509e+001  2.0635e+000 40446 97711,97973,97737
 4.0000e+000 98449 -5.3927e+001 -1.8221e+001 -2.2976e+000 39935 98152,98204,98178
 4.0000e+000 98426 -5.0425e+001 -1.2984e+001 -8.4277e-001 39935 98152,98230,98204
 4.0000e+000 98403 -5.3734e+001 -9.2049e+000  2.8638e+000 39935 98152,98256,98230
 4.0000e+000 98380 -2.4544e+001 -2.2863e+001  9.0943e+000 39935 98126,98256,98152
 4.0000e+000 98357 -2.2056e+001 -1.5114e+001  8.9394e+000 39935 98126,98282,98256
 4.0000e+000 98334 -4.1391e+001 -5.2282e+001  2.4710e+001 39935 98126,98308,98282
 4.0000e+000 98746 -1.1620e+002 -4.7906e+001  6.1650e+000 39531 98498,98602,98524
 4.0000e+000 98723 -1.0968e+002 -6.8121e+001 -6.6374e+000 39531 98472,98602,98498
 4.0000e+000 98700 -9.6881e+001 -3.0664e+001  2.0062e+001 39531 98524,98602,98576
 4.0000e+000 98677 -8.6133e+001 -7.4323e+001  2.3561e-001 39531 98472,98628,98602
 4.0000e+000 98654 -1.3678e+002 -7.2117e+001  3.8954e+000 39531 98524,98576,98550
 4.0000e+000 99224 -7.7872e+001 -7.9529e+001 -3.1569e+001 39027 99247,98956,98930
 4.0000e+000 99201 -8.7135e+001 -1.0741e+002 -3.6013e+001 39027 99247,98930,98878
 4.0000e+000 99178 -7.6196e+001 -8.2919e+001 -1.5411e+001 39027 99319,98982,98956
 4.0000e+000 99155 -3.4386e+001 -7.1963e+001 -6.3807e+000 39027 98852,99060,98878
 4.0000e+000 99132 -4.2431e+001 -8.6836e+001 -4.3921e+001 39027 98878,98930,98904
 4.0000e+000 99109 -5.8604e+001 -3.5703e+001 -2.3616e+001 39027 98982,99060,99034
 4.0000e+000 99086 -5.9263e+001 -3.0408e+000 -2.4908e+001 39027 98982,99034,99008
 4.0000e+000 99273 -9.0251e+001 -1.0769e+002 -2.6924e+001 39027 99319,98956,99247
 4.0000e+000 99296 -8.0921e+001 -1.0050e+002 -2.2166e+001 39027 99060,99247,98878
 4.0000e+000 99345 -7.2054e+001 -7.0224e+001 -5.3162e+000 39027 99060,98982,99319
 4.0000e+000 99368 -6.7092e+001 -7.5840e+001 -1.2962e+001 39027 99060,99319,99247
 4.0000e+000 99923 -4.8039e+001 -3.0191e+001  8.6831e+000 38523 99946,99655,99603
 4.0000e+000 99900 -5.1628e+001 -3.0364e+001  1.1026e+001 38523 99946,99603,99759
 4.0000e+000 99877 -4.4513e+001 -2.9276e+001  7.2909e+000 38523 100018,99707,99681
 4.0000e+000 99854 -4.2706e+001 -1.8842e+001  1.4970e+001 38523 99551,99759,99603
 4.0000e+000 99831 -3.7577e+001 -1.7016e+001  1.0257e+001 38523 99551,99603,99577
 4.0000e+000 99808 -4.6645e+001 -3.5390e+001  1.1028e+001 38523 99707,99759,99733
 4.0000e+000 99785 -3.5459e+001 -2.4465e+001  5.6391e+000 38523 99603,99655,99629
 4.0000e+000 99972 -4.7169e+001 -2.7025e+001  6.8381e+000 38523 99681,99655,99946
 4.0000e+000 99995 -4.7074e+001 -2.9265e+001  8.5857e+000 38523 100018,99681,99946
 4.0000e+000 100044 -4.8074e+001 -3.0257e+001  7.8365e+000 38523 99759,99707,100018
 4.0000e+000 100067 -4.9978e+001 -2.9361e+001  8.4284e+000 38523 99759,100018,99946
 4.0000e+000 100467 -5.1200e+001 -3.1204e+001 -1.4116e+001 38125 100219,100349,100323
 4.0000e+000 100444 -5.0261e+001 -1.1644e+002  1.1515e+000 38125 100193,100349,100219
 4.0000e+000 100421 -3.9754e+001 -5.4117e+001 -4.1082e+001 38125 100245,100323,100297
 4.0000e+000 100398 -6.2766e+000 -1.4734e+001 -2.6852e+001 38125 100219,100323,100245
 4.0000e+000 100375 -4.3226e+001 -5.6680e+001 -4.3379e+001 38125 100245,100297,100271
 4.0000e+000 100666 -6.2237e+001 -7.0725e+001 -1.2656e+000 37607 100689,100568,100542
 4.0000e+000 100643 -4.6997e+001 -4.0060e+001  4.2976e+000 37607 100689,100542,100490
 4.0000e+000 100620 -5.6965e+001 -6.0522e+001  7.8908e+000 37607 100490,100542,100516
 4.0000e+000 100715 -6.7219e+001 -3.8282e+001 -4.5640e+000 37607 100594,100568,100689
 4.0000e+000 100738 -6.1233e+001 -2.8790e+001 -1.7321e+000 37607 100594,100689,100490
 4.0000e+000 100937 -4.9483e+001 -7.3909e+001 -3.5030e+001 37017 100960,100813,100787
 4.0000e+000 100914 -2.3383e+001 -6.8017e+001 -4.4208e+001 37017 100960,100787,100761
 4.0000e+000 100891 -8.6077e+001 -9.3757e+001 -8.1779e+000 37017 100813,100865,100839
 4.0000e+000 100986 -7.9955e+001 -8.1883e+001 -6.3521e+000 37017 100865,100813,100960
 4.0000e+000 101009 -3.0731e+001 -6.3463e+001 -1.5412e+001 37017 100865,100960,100761
 4.0000e+000 101519 -4.3530e+001 -7.2079e+001 -3.5988e+001 36613 101222,101274,101248
 4.0000e+000 101496 -3.5342e+001 -4.5114e+001 -5.7530e+001 36613 101222,101352,101274
 4.0000e+000 101473 -6.5681e+001 -4.6446e+001 -2.9595e+001 36613 101274,101352,101326
 4.0000e+000 101450 -8.3512e+001 -9.6747e+001 -7.9278e+001 36613 101222,101378,101352
 4.0000e+000 101427 -5.5686e+001 -1.8563e+001 -2.3403e+001 36613 101274,101326,101300
 4.0000e+000 101404 -1.0288e+002 -1.4558e+002 -7.0378e+001 36613 101196,101378,101222
 4.0000e+000 101718 -6.0105e+001 -4.1089e+001  3.0366e+000 36308 101594,101646,101620
 4.0000e+000 101695 -6.7226e+001 -5.9950e+001  4.6004e+000 36308 101568,101646,101594
 4.0000e+000 101672 -4.3989e+001 -6.9920e+001  9.7749e+000 36308 101542,101646,101568
 4.0000e+000 102098 -2.3987e+001 -3.8798e+001  1.9322e+001 35918 102121,101954,101876
 4.0000e+000 102075 -2.2068e+000 -3.4670e+001  2.1578e+001 35918 102121,101876,101824
 4.0000e+000 102052 -3.2645e+001 -4.3020e+001  1.5858e+001 35918 101876,101954,101928
 4.0000e+000 102029 -2.4842e+000 -5.3426e+001  1.0687e+001 35918 101876,101928,101902
 4.0000e+000 102006  1.1486e+001  1.4819e+000  6.4553e+000 35918 101824,101876,101850
 4.0000e+000 102147 -5.5396e+001 -3.5711e+001  1.5019e+001 35918 101980,101954,102121
 4.0000e+000 102170 -2.5881e+001 -2.5493e+001  1.9500e+001 35918 101980,102121,101824
 4.0000e+000 102489  1.0114e+000 -8.8772e+000 -9.6617e-001 35514 102241,102345,102267
 4.0000e+000 102466 -7.0755e+000 -1.2554e+001 -1.2997e-002 35514 102215,102345,102241
 4.0000e+000 102443 -9.1565e+000 -2.1412e+001  3.2525e+000 35514 102215,102371,102345
 4.0000e+000 102420  7.5194e-001  3.3300e+000  6.5042e-001 35514 102267,102345,102293
 4.0000e+000 102397  1.7104e+000  3.5360e+000  3.0601e+000 35514 102293,102345,102319
 4.0000e+000 102820 -3.3640e+001 -4.1475e+001 -1.1756e+001 35224 102843,102699,102647
 4.0000e+000 102797  9.8525e+000 -6.0824e+001 -2.5215e+001 35224 102971,102725,102699
 4.0000e+000 102774 -2.8787e+000 -3.9014e+001 -2.3358e+000 35224 102595,102725,102621
 4.0000e+000 102751 -2.4951e+001 -7.2982e+001 -1.4907e+001 35224 102647,102699,102673
 4.0000e+000 102869 -2.6283e+001 -4.2192e+001 -3.2927e+001 35224 102971,102699,102843
 4.0000e+000 102997 -2.3044e+001 -6.5688e+001 -3.2123e+001 35224 102621,102725,102971
 4.0000e+000 103020 -7.4090e+001 -6.3885e+001 -4.7061e+001 35224 102621,102971,102843
 4.0000e+000 103349 -3.4992e+001 -3.6009e+001  2.7485e+000 34820 103150,103228,103176
 4.0000e+000 103326 -2.1942e+001 -3.7103e+001  4.0762e+000 34820 103124,103228,103150
 4.0000e+000 103303 -2.1165e+001 -1.5116e+001  1.2729e+001 34820 103176,103228,103202
 4.0000e+000 103280 -1.8468e+001 -3.2654e+001  2.1807e+001 34820 103124,103254,103228
 4.0000e+000 103806 -2.7823e+001 -5.7564e+001 -2.2923e+001 34530 103558,103662,103636
 4.0000e+000 103783 -4.0837e+001 -5.7823e+001 -1.8152e+001 34530 103558,103688,103662
 4.0000e+000 103760 -4.9953e+001 -3.3762e+001 -5.0263e+001 34530 103532,103688,103558
 4.0000e+000 103737 -2.5478e+001 -7.0229e+001 -3.0131e+001 34530 103584,103636,103610
 4.0000e+000 103714 -2.6239e+001 -5.5772e+001 -2.3815e+001 34530 103558,103636,103584
 4.0000e+000 104263 -1.0502e+000 -9.7528e+000  2.4262e+000 34019 103989,104119,104015
 4.0000e+000 104240 -8.8294e+000 -1.1295e+001  6.4460e+000 34019 103989,104145,104119
 4.0000e+000 104217  1.3219e+000 -7.0479e-001  2.9230e+000 34019 104015,104067,104041
 4.0000e+000 104194 -9.0349e+000 -5.0574e+000  8.4320e-001 34019 104015,104119,104067
 4.0000e+000 104171 -5.8666e+000 -2.4147e+000 -3.9123e-001 34019 104067,104119,104093
 4.0000e+000 104641 -7.5675e+001 -7.0130e+001 -1.0341e+001 33351 104419,104497,104445
 4.0000e+000 104618 -3.8708e+001 -4.2142e+001  2.5034e+000 33351 104393,104497,104419
 4.0000e+000 104595 -7.2044e+001 -5.9876e+001 -8.5083e+000 33351 104367,104497,104393
 4.0000e+000 104572 -8.3409e+001 -8.0455e+001  1.5029e+001 33351 104445,104497,104471
 4.0000e+000 104549 -7.2325e+001  2.8432e+000 -1.3562e+000 33351 104367,104523,104497
 4.0000e+000 105019 -6.3997e+000 -5.2282e+000 -6.2266e-001 32861 104823,104901,104875
 4.0000e+000 104996  1.5002e+000 -1.2888e+001  4.5689e+000 32861 104745,104901,104823
 4.0000e+000 104973  8.3774e+000  7.9199e-001 -2.4292e+000 32861 104823,104875,104849
 4.0000e+000 104950  7.5340e-001 -1.3190e+001  6.9763e+000 32861 104745,104823,104797
 4.0000e+000 104927 -5.5055e+000 -3.7359e+000  5.0262e+000 32861 104745,104797,104771
 4.0000e+000 105397 -3.2855e+001 -1.1106e+001 -9.7689e-001 32457 105149,105253,105175
 4.0000e+000 105374 -3.1057e+001 -1.0235e+001 -1.3749e+000 32457 105149,105279,105253
 4.0000e+000 105351 -1.8094e+000 -8.0723e-002  2.2697e+000 32457 105123,105279,105149
 4.0000e+000 105328 -3.7502e+001 -1.3867e+001  6.7093e+000 32457 105175,105227,105201
 4.0000e+000 105305 -2.6441e+001 -8.4641e+000 -1.8912e+000 32457 105175,105253,105227
 4.0000e+000 105726 -2.1354e+001  1.5696e+000 -4.3557e+000 32003 105527,105605,105553
 4.0000e+000 105703 -9.6244e+000 -4.6038e-001 -1.3693e+000 32003 105501,105605,105527
 4.0000e+000 105680 -4.3085e+001 -1.1833e+001 -5.5929e+000 32003 105501,105631,105605
 4.0000e+000 105657 -1.8872e+001 -4.1841e+000 -8.2316e+000 32003 105553,105605,105579
 4.0000e+000 106104 -2.6208e+001 -3.1397e+001 -1.8885e+001 31492 106127,105908,105856
 4.0000e+000 106081 -3.2597e+001 -3.4438e+001 -2.4696e+001 31492 106127,105856,105830
 4.0000e+000 106058 -2.0714e+001 -2.7002e+001 -2.0608e+001 31492 105856,105908,105882
 4.0000e+000 106035 -7.5873e+000 -4.5115e+001 -2.3672e+001 31492 105830,105986,105960
 4.0000e+000 106012 -4.1651e+001 -6.6042e+001 -3.1090e+001 31492 105908,105960,105934
 4.0000e+000 106153 -2.4230e+001 -3.8614e+001 -2.4100e+001 31492 105960,105908,106127
 4.0000e+000 106176 -2.8250e+001 -4.3504e+001 -2.9088e+001 31492 105960,106127,105830
 4.0000e+000 106375 -1.8410e+001 -2.3615e+001 -5.2341e+000 30788 106398,106277,106251
 4.0000e+000 106352 -1.1024e+001 -1.6407e+001 -7.4357e-001 30788 106398,106251,106225
 4.0000e+000 106329 -1.5384e+001 -9.8245e+000  1.4593e+000 30788 106600,106199,106303
 4.0000e+000 106424 -2.6553e+001 -1.5861e+001 -5.1284e+000 30788 106470,106398,106303
 4.0000e+000 106447 -1.9524e+001 -1.3499e+001 -6.8646e-001 30788 106600,106303,106398
 4.0000e+000 106496 -2.3035e+001 -1.4382e+001 -6.0352e+000 30788 106277,106398,106470
 4.0000e+000 106626 -1.5394e+001 -1.5237e+001 -1.7146e+000 30788 106225,106199,106600
 4.0000e+000 106649 -1.6017e+001 -1.6824e+001 -3.0444e+000 30788 106225,106600,106398
 4.0000e+000 106799 -9.3684e+000 -3.7940e+000 -2.2892e+001 30426 106698,106750,106724
 4.0000e+000 106776 -5.9089e+000 -1.3611e+001 -2.2554e+001 30426 106672,106750,106698
 4.0000e+000 107356 -3.5933e+001 -6.1015e+001 -3.5789e+000 29972 107010,107166,107114
 4.0000e+000 107333 -1.4255e+001 -5.2912e+001 -2.8953e+000 29972 106984,107166,107010
 4.0000e+000 107310 -4.7960e+001 -6.7048e+001 -1.1742e+000 29972 107010,107114,107088
 4.0000e+000 107287 -2.8180e+001 -6.0678e+001  7.8537e+000 29972 107114,107166,107140
 4.0000e+000 107264 -2.7116e+001 -4.9282e+001 -7.5625e+000 29972 106984,107192,107166
 4.0000e+000 107241 -4.2030e+001 -5.8676e+001 -4.0490e+000 29972 107010,107088,107036
 4.0000e+000 107218 -4.4460e+001 -6.0019e+001 -1.7008e+001 29972 107036,107088,107062
 4.0000e+000 107783  3.8077e+000  5.4489e+000 -2.9557e+000 29724 107878,107806,107590
 4.0000e+000 107760  1.3504e+001 -5.3673e+000  1.1351e+000 29724 107806,107512,107486
 4.0000e+000 107737  3.7501e+000  5.3050e+000 -3.0232e+000 29724 107878,107590,107538
 4.0000e+000 107714  5.9233e+000 -5.0047e+000  6.9003e+000 29724 107950,107460,107616
 4.0000e+000 107691 -6.4299e+000 -1.0297e+001  7.3845e+000 29724 107460,107642,107616
 4.0000e+000 107668  2.1079e+000  2.5217e+000 -3.9335e+000 29724 107538,107590,107564
 4.0000e+000 107832 -8.8678e+000 -1.2623e+000 -8.2256e-002 29724 107616,107590,107806
 4.0000e+000 107855  9.7305e+000 -5.5006e+000  2.3362e+000 29724 107950,107616,107806
 4.0000e+000 107904  4.1392e+000  5.3231e+000 -3.4245e+000 29724 107512,107806,107878
 4.0000e+000 107927  3.3449e+000  4.7207e+000 -3.6237e+000 29724 107512,107878,107538
 4.0000e+000 107976 -9.9693e+000 -2.1536e+001  1.6547e+001 29724 107486,107460,107950
 4.0000e+000 107999  5.7377e+000 -1.1770e+001  4.1138e+000 29724 107486,107950,107806
 4.0000e+000 108296 -1.6297e+000  2.7364e+000  2.1134e+000 29206 108319,108100,108048
 4.0000e+000 108273 -1.7596e+000  3.5587e+000  3.5201e-001 29206 108319,108048,108022
 4.0000e+000 108250 -8.1525e-002 -5.4647e-001  5.2251e-001 29206 108391,108152,108126
 4.0000e+000 108227  4.1313e+000  2.1194e+000 -6.6004e-001 29206 108048,108100,108074
 4.0000e+000 108204 -4.1825e+000 -1.3150e+001 -1.9904e-001 29206 108022,108178,108152
 4.0000e+000 108345 -8.2928e-001  5.3051e+000  1.2128e+000 29206 108126,108100,108319
 4.0000e+000 108368 -1.2584e+000  4.1710e+000  1.7191e+000 29206 108391,108126,108319
 4.0000e+000 108417 -2.6937e+000 -5.0984e+000 -2.4452e+000 29206 108022,108152,108391
 4.0000e+000 108440 -4.2360e+000 -2.3062e+000 -7.6414e-001 29206 108022,108391,108319
 4.0000e+000 108688 -2.3263e+000 -1.7273e+001 -4.7623e+000 28595 108711,108541,108515
 4.0000e+000 108665  1.5400e+001 -9.7416e+000 -4.4780e+000 28595 108783,108711,108515
 4.0000e+000 108642  2.1335e+001 -1.1343e+001 -3.7011e+000 28595 108783,108515,108489
 4.0000e+000 108619  1.5365e+001 -4.0026e+000 -3.8916e+000 28595 108463,108593,108489
 4.0000e+000 108737 -2.9076e+000 -1.3653e+001  5.4672e+000 28595 108567,108541,108711
 4.0000e+000 108760 -7.7062e-001 -1.1460e+001  1.6105e+000 28595 108567,108711,108593
 4.0000e+000 108809  9.9793e-001 -5.4371e+000  2.6151e-001 28595 108593,108711,108783
 4.0000e+000 108832  1.2826e+001 -2.5646e+000  3.5279e+000 28595 108593,108783,108489
 4.0000e+000 109033 -1.4521e+001 -4.0656e+001 -5.9388e+000 28091 108909,108961,108935
 4.0000e+000 109010 -1.4501e+001 -2.2657e+001 -4.0335e+000 28091 108857,108961,108909
 4.0000e+000 108987 -1.1570e+001 -3.2258e+001 -1.3359e+001 28091 108857,108909,108883
 4.0000e+000 109136 -5.8312e+000 -1.3608e+001  2.5886e+000 27587 109058,109110,109084
 4.0000e+000 109695 -3.5107e+001 -1.5259e+001 -2.1103e+001 26969 109718,109375,109323
 4.0000e+000 109672 -2.7538e+001 -2.5203e+001 -3.6143e+001 26969 109718,109323,109505
 4.0000e+000 109649 -2.4308e+001 -4.5379e+001 -2.4205e+001 26969 109790,109453,109427
 4.0000e+000 109626 -9.6443e+000 -4.0781e+001 -1.5433e+001 26969 109323,109375,109349
 4.0000e+000 109603 -1.0316e+001 -4.1377e+001 -1.8050e+001 26969 109323,109531,109505
 4.0000e+000 109580  2.2801e+000  2.9467e+000 -1.2425e+000 26969 109375,109427,109401
 4.0000e+000 109557 -2.0059e+001 -6.4847e+000 -1.8869e+001 26969 109453,109505,109479
 4.0000e+000 109744 -1.0740e+001  5.5175e+000 -4.7732e+000 26969 109427,109375,109718
 4.0000e+000 109767 -2.9856e+001 -3.3275e+001 -2.3799e+001 26969 109790,109427,109718
 4.0000e+000 109816 -2.4516e+001 -3.2774e+001 -3.1316e+001 26969 109505,109453,109790
 4.0000e+000 109839 -2.7901e+001 -1.9974e+001 -3.2514e+001 26969 109505,109790,109718
 4.0000e+000 110266 -1.1544e+001  2.1720e+000 -8.0953e+000 26515 110361,110289,110099
 4.0000e+000 110243 -9.8658e+000 -2.3993e+001 -1.4230e+001 26515 110289,109995,109943
 4.0000e+000 110220 -1.8578e+001  8.6583e-001 -2.1486e+001 26515 110361,110099,110021
 4.0000e+000 110197 -7.4642e+001 -5.6227e+001 -4.7649e+001 26515 110047,110099,110073
 4.0000e+000 110174 -2.0152e+001 -2.2763e+001 -3.1179e+001 26515 110021,110099,110047
 4.0000e+000 110151 -1.8240e+001 -4.1044e+001 -1.7107e+001 26515 109943,109995,109969
 4.0000e+000 110315 -6.9687e+000 -2.2382e+001  1.8804e+000 26515 110125,110099,110289
 4.0000e+000 110338 -1.1413e+001 -4.4591e+001 -1.5251e+001 26515 110125,110289,109943
 4.0000e+000 110387 -2.3378e+001 -2.7063e+001 -9.4360e+000 26515 109995,110289,110361
 4.0000e+000 110410 -2.3983e+001 -1.4212e+001 -2.1062e+001 26515 109995,110361,110021
 4.0000e+000 110609 -3.5220e+000 -1.0948e+001  2.7257e+000 25789 110906,110762,110632
 4.0000e+000 110586 -4.6174e+000 -2.3702e+001  2.5203e+000 25789 110762,110433,110537
 4.0000e+000 110563 -1.4395e+001 -3.3790e+000  2.3243e+000 25789 110834,110459,110433
 4.0000e+000 110658 -8.8057e+000 -4.9894e+000  6.1684e+000 25789 110906,110632,110834
 4.0000e+000 110788 -3.6080e+000 -1.0695e+001  1.8176e+000 25789 110511,110632,110762
 4.0000e+000 110811  1.5895e+000 -1.4423e+001  5.1967e+000 25789 110511,110762,110537
 4.0000e+000 110860 -1.2908e+001 -4.7348e+000  9.0964e+000 25789 110485,110459,110834
 4.0000e+000 110883 -1.4711e+001 -1.4213e+001  1.0453e+001 25789 110485,110834,110632
 4.0000e+000 110932 -1.2758e+001 -1.6904e+001 -1.7012e-001 25789 110433,110762,110906
 4.0000e+000 110955 -1.8101e+001 -1.2155e+001  2.9702e+000 25789 110433,110906,110834
 4.0000e+000 111350  3.8175e+000 -1.3360e+001  3.0809e+000 25228 111445,111373,111186
 4.0000e+000 111327 -4.3983e+000 -8.8865e+000  1.1019e+000 25228 110978,111186,111004
 4.0000e+000 111304  4.6890e+000 -8.6009e+000  9.3433e-001 25228 111373,111108,111082
 4.0000e+000 111281 -6.0488e+000 -1.8959e+001  1.1376e+001 25228 111134,111186,111160
 4.0000e+000 111258  4.2866e+000 -1.3986e+001  6.2818e+000 25228 111445,111186,111134
 4.0000e+000 111235  3.6486e-001 -2.0405e+001  2.9892e+000 25228 111517,111030,111004
 4.0000e+000 111212 -2.7621e+000 -3.7485e+001 -7.3302e+000 25228 111030,111082,111056
 4.0000e+000 111399  7.6089e+000 -2.6480e+000  5.1904e+000 25228 111004,111186,111373
 4.0000e+000 111422  3.6957e+000 -1.6598e+001  5.6637e+000 25228 111517,111004,111373
 4.0000e+000 111471 -1.0356e+000 -1.5424e+001  3.4536e+000 25228 111108,111373,111445
 4.0000e+000 111494 -4.8147e-001 -1.6051e+001  6.7084e+000 25228 111108,111445,111134
 4.0000e+000 111543 -5.1730e+000 -2.5407e+001 -5.0975e+000 25228 111082,111030,111517
 4.0000e+000 111566 -2.7999e-001 -1.8455e+001 -2.0654e+000 25228 111082,111517,111373
 4.0000e+000 112074 -1.4256e+001 -2.7184e+001 -1.2141e+001 24338 112097,111907,111881
 4.0000e+000 112051 -6.5454e+000 -2.5940e+001 -7.7849e+000 24338 112097,111881,111829
 4.0000e+000 112028 -1.2418e+001 -3.5395e+001 -1.1742e+001 24338 111829,111881,111855
 4.0000e+000 112005 -9.9930e+000 -3.7895e+001 -2.7303e+000 24338 111777,111933,111829
 4.0000e+000 111982  2.9497e+000 -2.9322e+000  4.8041e+000 24338 111751,111933,111777
 4.0000e+000 111959 -7.5028e+000 -2.2248e+001 -1.3397e+001 24338 111777,111829,111803
 4.0000e+000 112123 -7.9392e+000 -1.8353e+001 -7.7747e+000 24338 111933,111907,112097
 4.0000e+000 112146 -3.4985e+000 -2.5169e+001 -5.5084e+000 24338 111933,112097,111829
 4.0000e+000 112443 -2.4822e+000 -3.0517e+001 -2.9790e+000 23998 112466,112299,112247
 4.0000e+000 112420  2.9197e+000 -2.4148e+001 -5.4489e+000 23998 112466,112247,112221
 4.0000e+000 112397  4.3344e+000 -1.6539e+001 -7.0011e+000 23998 112169,112325,112221
 4.0000e+000 112374 -7.1349e+000 -2.5593e+001 -1.4674e+001 23998 112169,112221,112195
 4.0000e+000 112351 -5.1681e+000 -5.1711e+001 -7.3499e+000 23998 112247,112299,112273
 4.0000e+000 112492  2.2730e+000 -2.8152e+001 -6.6419e+000 23998 112325,112299,112466
 4.0000e+000 112515  3.8629e+000 -2.6026e+001 -8.2121e+000 23998 112325,112466,112221
 4.0000e+000 113200  1.7498e+001  1.4730e+001 -7.0423e+000 23480 112779,112961,112805
 4.0000e+000 113177  1.3538e+001  4.3509e+000 -5.0202e+000 23480 112779,112987,112961
 4.0000e+000 113154  3.4731e+000  2.3926e+000 -1.6961e+000 23480 112805,112961,112883
 4.0000e+000 113131  1.2990e+001  1.6047e+001 -1.8655e+001 23480 112883,112935,112909
 4.0000e+000 113108  1.4164e+001  1.5070e+000 -1.4866e+001 23480 112883,112961,112935
 4.0000e+000 113085  7.3106e+000  8.1843e+000 -1.3505e+001 23480 112831,112883,112857
 4.0000e+000 113062 -1.1328e+000  1.5728e+001 -1.1082e+001 23480 112805,112883,112831
 4.0000e+000 113039  5.6854e+000  2.1030e-001 -2.4855e+000 23480 112779,113013,112987
 4.0000e+000 113676  2.3457e+000  5.1464e-001  9.5792e-001 23018 113699,113434,113356
 4.0000e+000 113653  2.9064e+000  5.4191e-001 -1.9014e-001 23018 113771,113699,113356
 4.0000e+000 113630  3.5077e+000  2.3483e-002 -4.0215e-001 23018 113771,113356,113512
 4.0000e+000 113607  4.1109e+000  2.6801e+000 -4.2078e-001 23018 113330,113512,113356
 4.0000e+000 113584  5.7769e+000  1.9514e+000 -6.0505e-001 23018 113356,113434,113382
 4.0000e+000 113561  1.8250e+000  4.3897e-001 -1.4245e+000 23018 113304,113512,113330
 4.0000e+000 113538  1.1316e+001  4.0970e+000 -1.3334e+000 23018 113382,113434,113408
 4.0000e+000 113725  2.2601e+000  6.8852e-001  2.3865e-001 23018 113460,113434,113699
 4.0000e+000 113748 -2.3723e+000 -1.5914e+000 -9.0763e-001 23018 113460,113699,113486
 4.0000e+000 113797  1.4906e+000 -1.7609e-001  6.0642e-001 23018 113486,113699,113771
 4.0000e+000 113820  2.9619e+000  1.0803e-001  2.9214e-001 23018 113486,113771,113512
 4.0000e+000 114424 -4.2604e+000 -1.7450e+001 -1.1616e+001 22514 114447,114133,114029
 4.0000e+000 114401 -9.0409e+000 -1.1999e-001 -1.1217e+001 22514 114447,114029,114237
 4.0000e+000 114378 -9.5530e+000 -3.6114e+001  1.9901e+000 22514 114133,114211,114185
 4.0000e+000 114355 -2.2608e+001 -3.0605e+001 -1.1746e+001 22514 114133,114185,114159
 4.0000e+000 114332 -2.4463e+001 -7.6727e+000 -6.9323e+000 22514 114003,114237,114029
 4.0000e+000 114309 -2.2662e+001 -3.7685e+001 -2.4695e+001 22514 114029,114133,114055
 4.0000e+000 114286 -2.6886e+001 -2.7661e+001 -2.6416e+001 22514 114055,114133,114107
 4.0000e+000 114263 -8.0187e+001 -3.9171e+001 -2.0499e+001 22514 114055,114107,114081
 4.0000e+000 114473 -4.1471e+000 -2.7381e+001 -1.6360e+001 22514 114211,114133,114447
 4.0000e+000 114496 -1.1842e+001 -1.3730e+001 -1.5978e+001 22514 114211,114447,114237
 4.0000e+000 114597  1.2696e+000  3.1800e+000 -1.1475e+001 22316 114620,114571,114545
 4.0000e+000 114646  1.2696e+000  3.1800e+000 -1.1475e+001 22316 114519,114571,114620
 4.0000e+000 115127 -1.1154e+000 -5.9764e+001 -5.2894e+000 21612 115150,114905,114879
 4.0000e+000 115104 -2.3667e+000 -1.7107e+001 -4.6073e-001 21612 115150,114879,114853
 4.0000e+000 115081  5.7817e+000 -4.8243e+001 -2.2091e+000 21612 115222,114931,114905
 4.0000e+000 115058  1.2033e+000 -1.2430e+001  8.8783e-001 21612 115222,114905,115009
 4.0000e+000 115035  5.6858e+000  1.3381e+001  3.4754e+000 21612 114957,115009,114983
 4.0000e+000 115176 -2.0248e+000 -1.9963e+001 -3.4597e-001 21612 115009,114905,115150
 4.0000e+000 115199  2.7134e-001  2.8118e+001  3.5912e+000 21612 115009,115150,114853
 4.0000e+000 115248  1.0559e+001 -1.8535e+001 -1.6059e+000 21612 114957,114931,115222
 4.0000e+000 115271  3.9444e+000  1.4160e+001  2.1104e+000 21612 114957,115222,115009
 4.0000e+000 115519  3.0350e+000 -6.5881e-001 -3.9212e+000 21208 115542,115372,115320
 4.0000e+000 115496  4.9305e+000  1.5772e-001 -4.1017e+000 21208 115542,115320,115294
 4.0000e+000 115473  1.9691e+000  4.7885e+000 -5.1903e+000 21208 115320,115372,115346
 4.0000e+000 115450  1.5198e+000 -2.5500e+000 -7.2079e-001 21208 115294,115424,115398
 4.0000e+000 115568  1.8496e+000 -9.4939e-002 -2.6191e+000 21208 115398,115372,115542
 4.0000e+000 115591  3.3441e+000  4.6196e-001 -2.5939e+000 21208 115398,115542,115294
 4.0000e+000 115839 -6.4799e-001 -6.4927e+000 -2.6509e-001 20668 115862,115640,115614
 4.0000e+000 115816 -4.1349e-001  1.0983e+000 -4.1598e-001 20668 115862,115614,115744
 4.0000e+000 115793  4.6768e+000 -1.0585e+001 -1.7040e+001 20668 115640,115718,115692
 4.0000e+000 115770  1.8326e+001  7.8244e+000 -3.1379e+001 20668 115640,115692,115666
 4.0000e+000 115888  1.1170e+000 -1.8972e+001 -3.8276e+000 20668 115718,115640,115862
 4.0000e+000 115911  5.0983e+000 -5.7997e+000 -4.4045e+000 20668 115718,115862,115744
 4.0000e+000 116134 -1.1530e+000  4.0584e-001  1.6195e-001 20264 115958,116036,115984
 4.0000e+000 116111  7.2583e-001  1.5237e+000 -3.9564e-001 20264 115958,116062,116036
 4.0000e+000 116088 -8.1644e-002 -3.3449e-001  1.7772e-001 20264 115984,116036,116010
 4.0000e+000 116384  4.9764e+000  8.4861e-001 -4.0279e+000 19924 116407,116211,116159
 4.0000e+000 116361  1.4607e+000  4.1370e+000 -1.9808e+000 19924 116407,116159,116263
 4.0000e+000 116338  2.5433e+000 -2.5374e+000 -5.4238e+000 19924 116159,116211,116185
 4.0000e+000 116315  1.9579e+000  2.4545e+000  9.7596e-001 19924 116159,116289,116263
 4.0000e+000 116433  1.4539e+000  9.7018e-001 -4.4722e+000 19924 116237,116211,116407
 4.0000e+000 116456 -4.3876e+000  2.5473e+000 -3.1826e+000 19924 116237,116407,116263
 4.0000e+000 116608  1.0363e+000  4.9807e-001 -4.2521e+000 19520 116703,116631,116533
 4.0000e+000 116585  3.4515e+000  1.6992e+000 -3.7928e+000 19520 116631,116507,116481
 4.0000e+000 116657 -4.0090e+000  1.7188e+000 -5.3666e+000 19520 116559,116533,116631
 4.0000e+000 116680  1.2198e-001  4.8723e+000 -3.9797e+000 19520 116559,116631,116481
 4.0000e+000 116729  1.0363e+000  4.9807e-001 -4.2521e+000 19520 116507,116631,116703
 4.0000e+000 116952  4.2542e-001  3.5602e-002 -1.1032e-001 19208 116975,116802,116776
 4.0000e+000 116929  1.2544e-001 -3.7519e-001 -6.2775e-002 19208 116975,116776,116880
 4.0000e+000 116906  4.8606e+000  2.1808e+000 -2.8911e-003 19208 116802,116854,116828
 4.0000e+000 117001  2.0636e-001  1.9632e-001 -2.3310e-002 19208 116854,116802,116975
 4.0000e+000 117024  2.5106e-002  7.6836e-002  1.6120e-002 19208 116854,116975,116880
 4.0000e+000 117428  2.6016e+001  1.1143e+001 -5.6066e+000 18796 117154,117206,117180
 4.0000e+000 117405  8.7505e+000  4.7379e+000 -7.6527e-001 18796 117154,117284,117206
 4.0000e+000 117382  1.8629e+001  3.5369e+000 -1.2298e+001 18796 117154,117310,117284
 4.0000e+000 117359  2.5833e+000  6.2553e+000 -7.9710e+000 18796 117206,117284,117258
 4.0000e+000 117336  1.5605e+001  6.8543e+000 -8.7539e+000 18796 117206,117258,117232
 4.0000e+000 117529  5.6957e-001  1.5391e-001  1.1863e+000 18228 117810,117552,117477
 4.0000e+000 117578  5.3888e+000  3.8799e+000 -9.2941e-001 18228 117682,117552,117503
 4.0000e+000 117708  6.4288e-001  1.5198e+000  8.1649e-001 18228 117477,117552,117682
 4.0000e+000 117836  1.0761e+000 -4.2096e-001  2.8753e-001 18228 117451,117552,117810
 4.0000e+000 118364  3.6018e+000  1.5878e+000 -7.8612e+000 17722 118067,118223,118093
 4.0000e+000 118341  3.9707e-001 -1.3832e+001 -3.3698e+000 17722 118041,118223,118067
 4.0000e+000 118318 -3.5091e+000 -1.0504e+001 -3.6120e+000 17722 118093,118223,118197
 4.0000e+000 118295  2.6338e+000 -1.5198e+000 -2.8105e+000 17722 118119,118197,118171
 4.0000e+000 118272  6.5258e-001  3.5766e-001 -3.3484e+000 17722 118093,118197,118119
 4.0000e+000 118249  2.5240e+000  1.1258e+000 -4.1374e+000 17722 118119,118171,118145
 4.0000e+000 118514  7.0772e+000  3.0363e+000 -1.2339e+000 17268 118387,118439,118413
 4.0000e+000 118491  1.3444e+000 -1.7914e+000  1.0124e+000 17268 118387,118465,118439
 4.0000e+000 118916  3.7714e-001  2.6012e-001  5.4707e-002 16828 118668,118772,118694
 4.0000e+000 118893  1.8780e+000 -2.4077e-001 -2.7113e-001 16828 118668,118798,118772
 4.0000e+000 118870 -3.1199e-001 -5.8845e-002  3.6176e-001 16828 118642,118798,118668
 4.0000e+000 118847  1.9957e+000  8.3317e-001  2.2936e-001 16828 118694,118746,118720
 4.0000e+000 118824  7.0569e-001  4.1995e-001 -1.2093e-001 16828 118694,118772,118746
 4.0000e+000 119316  1.6610e+000  1.1053e+000 -1.0542e+000 16422 119042,119172,119094
 4.0000e+000 119293  2.1208e+000  1.4763e+000 -8.0990e-001 16422 119042,119198,119172
 4.0000e+000 119270  1.7040e+000  4.7608e-001 -2.9829e-001 16422 119042,119094,119068
 4.0000e+000 119247  4.4817e+000  3.0767e+000 -1.2542e+000 16422 119094,119146,119120
 4.0000e+000 119224  1.1083e+000  2.9440e-001 -1.4626e+000 16422 119094,119172,119146
 4.0000e+000 119466  1.0462e-001  7.7543e-001  1.8378e-001 16010 119339,119391,119365
 4.0000e+000 119443 -2.5779e-003 -6.1117e-001 -2.3643e-001 16010 119339,119417,119391
 4.0000e+000 119616 -1.2434e+000 -6.5381e-001 -1.3632e+000 15547 119515,119567,119541
 4.0000e+000 119593  7.7626e-001  4.2312e-001 -1.2960e-001 15547 119489,119567,119515
 4.0000e+000 119719 -3.2026e+000  1.1356e-002 -1.1614e+001 421 119641,119693,119667
