time zIndex S11 S22 S12 block gridPoints
f i f f f i l
 1.0000e-001 66230 -4.7303e+000  8.2180e+000  1.0023e+000 65954 66152,66204,66178
 1.0000e-001 66429 -9.9282e-001  1.1315e+001  1.6183e+000 65642 66279,66331,66305
 1.0000e-001 66406  1.3850e+000  1.5933e+001  7.5021e-001 65642 66279,66357,66331
 1.0000e-001 66383  5.0083e+000  1.1804e+001  1.4888e+000 65642 66253,66357,66279
 1.0000e-001 66628 -9.1494e-001  1.1982e+001 -1.8306e-001 65444 66452,66530,66478
 1.0000e-001 66605  2.9899e-001  1.1212e+001 -4.1496e-001 65444 66452,66556,66530
 1.0000e-001 66582 -2.4675e+000  1.1928e+001  2.2182e-001 65444 66478,66530,66504
 1.0000e-001 67006  7.5185e-001  6.0592e+000  5.9468e-001 65246 66732,66810,66758
 1.0000e-001 66983  3.6072e-001  5.3647e+000  3.6801e-001 65246 66732,66836,66810
 1.0000e-001 66960  8.2790e-001  5.9038e+000  8.1588e-001 65246 66732,66862,66836
 1.0000e-001 66937  1.6981e+000  8.3082e+000  3.3308e-001 65246 66758,66810,66784
 1.0000e-001 66914 -2.0352e-001  5.9736e+000  1.8113e+000 65246 66732,66888,66862
 1.0000e-001 67107 -2.1841e+000  2.2844e+000  8.3728e-001 64934 67029,67081,67055
 1.0000e-001 67306 -1.6889e+000  7.4686e+000 -8.7536e-001 64736 67156,67208,67182
 1.0000e-001 67283 -7.0960e-001  1.0379e+001 -1.7388e+000 64736 67130,67208,67156
 1.0000e-001 67260  1.7174e+000  1.0806e+001 -5.1056e-001 64736 67130,67234,67208
 1.0000e-001 67507 -2.8351e+000  8.1734e+000  8.4622e-001 64389 67357,67409,67383
 1.0000e-001 67484 -1.2271e+000  9.0084e+000  1.5435e+000 64389 67357,67435,67409
 1.0000e-001 67461  8.0306e-001  9.7956e+000  1.1028e+000 64389 67331,67435,67357
 1.0000e-001 67708  1.6553e-002  7.5472e+000 -1.7687e+000 63985 67731,67584,67558
 1.0000e-001 67685 -2.2537e-001  5.2788e+000 -1.2016e+000 63985 67731,67558,67636
 1.0000e-001 67662  4.6487e-001  7.2196e+000  7.4120e-001 63985 67532,67636,67558
 1.0000e-001 67757 -3.4900e-001  8.9493e+000 -1.9505e+000 63985 67610,67584,67731
 1.0000e-001 67780 -9.1491e-002  7.3460e+000 -1.3933e+000 63985 67610,67731,67636
 1.0000e-001 67981 -1.3555e+000  6.4613e+000  5.3058e-001 63787 67857,67909,67883
 1.0000e-001 67958  1.5431e+000  8.6495e+000 -4.2824e-001 63787 67831,67909,67857
 1.0000e-001 67935  2.9394e+000  9.1849e+000  4.8671e-001 63787 67805,67909,67831
 1.0000e-001 68231  1.0316e+000  5.2922e+000  4.7963e-001 63589 68254,68084,68032
 1.0000e-001 68208  1.2702e+000  6.7094e+000  5.8016e-001 63589 68254,68032,68006
 1.0000e-001 68185  7.5642e-001  6.5993e+000  1.2762e-001 63589 68326,68136,68110
 1.0000e-001 68162  1.1840e+000  5.3474e+000  5.0575e-001 63589 68032,68084,68058
 1.0000e-001 68280  1.3610e+000  6.4372e+000  3.7822e-001 63589 68110,68084,68254
 1.0000e-001 68303  8.2498e-001  6.6439e+000  4.7221e-001 63589 68326,68110,68254
 1.0000e-001 68352  1.0978e+000  7.3711e+000  6.6615e-002 63589 68006,68136,68326
 1.0000e-001 68375  1.0716e+000  7.2137e+000  4.2535e-001 63589 68006,68326,68254
 1.0000e-001 68836 -2.8955e+000  5.9893e+000 -2.2187e-001 63128 68859,68588,68562
 1.0000e-001 68813  1.5512e+000  8.4430e+000 -1.2280e+000 63128 68859,68562,68692
 1.0000e-001 68790  4.3290e+000  6.9316e+000  1.4390e+000 63128 68614,68692,68666
 1.0000e-001 68767  4.3344e+000  7.0143e+000 -1.1752e+000 63128 68562,68718,68692
 1.0000e-001 68744  3.8830e+000  5.9114e+000  1.5578e+000 63128 68614,68666,68640
 1.0000e-001 68885 -3.7662e+000  4.3397e+000  4.0929e+000 63128 68614,68588,68859
 1.0000e-001 68908  3.7726e-001  6.8427e+000  3.0211e+000 63128 68614,68859,68692
 1.0000e-001 69237  1.2758e-001  4.4906e+000  7.0762e-002 62731 69064,69116,69090
 1.0000e-001 69214  2.2792e-001  4.2187e+000  4.7825e-002 62731 69064,69142,69116
 1.0000e-001 69191  6.8264e-001  7.5866e+000  3.9183e-001 62731 69038,69142,69064
 1.0000e-001 69168 -5.7899e-001  5.8180e+000 -1.6821e-001 62731 69012,69142,69038
 1.0000e-001 69539  3.8154e-001  1.3330e-001  3.8655e-001 62433 69389,69467,69441
 1.0000e-001 69516  1.1010e+000 -1.9495e+000  6.9156e-001 62433 69363,69467,69389
 1.0000e-001 69493  2.5534e-001  1.4400e-001  1.9003e-001 62433 69389,69441,69415
 1.0000e-001 69966 -4.2376e+000  1.2999e+001 -4.2813e-001 62235 69989,69773,69721
 1.0000e-001 69943  4.1206e+000  1.5860e+001 -2.3285e-001 62235 70061,69989,69721
 1.0000e-001 69920  5.8784e+000  1.6564e+001  7.4254e-001 62235 70061,69721,69643
 1.0000e-001 69897 -2.2604e+000  1.6428e+001 -1.5790e+000 62235 69721,69773,69747
 1.0000e-001 69874  7.6999e+000  2.6024e+001  3.5378e+000 62235 69643,69721,69695
 1.0000e-001 69851 -3.7900e-001  1.9220e+001 -2.4726e+000 62235 69643,69695,69669
 1.0000e-001 70015 -7.7715e+000  1.3227e+001  6.5035e+000 62235 69799,69773,69989
 1.0000e-001 70038  3.3885e+000  1.7529e+001  5.1646e+000 62235 69799,69989,69825
 1.0000e-001 70087  1.1107e+000  1.7440e+001  5.1891e-004 62235 69825,69989,70061
 1.0000e-001 70110  3.3634e+000  1.8168e+001  5.9537e-001 62235 69825,70061,69643
 1.0000e-001 70260  5.9397e-002  7.1229e+000 -2.7605e+000 62037 70133,70185,70159
 1.0000e-001 70237  9.4412e-001  1.0314e+001 -2.6523e+000 62037 70133,70211,70185
 1.0000e-001 70640 -1.2236e+000  6.0262e+000 -3.5498e+000 61583 70735,70663,70418
 1.0000e-001 70617  2.9137e+000  1.1045e+001 -2.7401e+000 61583 70663,70366,70522
 1.0000e-001 70594 -1.8387e+000  5.8182e+000 -4.4638e+000 61583 70735,70418,70392
 1.0000e-001 70571 -1.7667e+000  3.4783e+000 -3.3883e+000 61583 70418,70496,70444
 1.0000e-001 70548  1.0500e+000  8.3297e-001 -3.0313e+000 61583 70444,70496,70470
 1.0000e-001 70689  2.0105e+000  5.0047e+000 -2.6736e+000 61583 70496,70418,70663
 1.0000e-001 70712  3.3452e+000  5.6945e+000 -3.1887e+000 61583 70496,70663,70522
 1.0000e-001 70761  1.0486e+000  6.6919e+000 -2.5860e+000 61583 70366,70663,70735
 1.0000e-001 70784 -3.4367e-001  6.1467e+000 -3.4731e+000 61583 70366,70735,70392
 1.0000e-001 71054 -1.0469e+000  6.7862e+000 -2.5535e+000 61313 71077,70881,70855
 1.0000e-001 71031 -3.0966e+000  3.1556e+000 -3.5071e+000 61313 71077,70855,70829
 1.0000e-001 71008  1.1932e+000  1.2126e+000 -2.2959e+000 61313 70829,70959,70933
 1.0000e-001 70985 -1.3192e+000  2.7686e+000  4.1603e-001 61313 70881,70933,70907
 1.0000e-001 71103  3.5230e-001  4.9966e+000 -3.6446e-001 61313 70933,70881,71077
 1.0000e-001 71126 -1.1330e+000  2.9180e+000 -1.1213e+000 61313 70933,71077,70829
 1.0000e-001 71604  2.0322e+000  5.6152e+000  3.9930e-001 60909 71627,71232,71414
 1.0000e-001 71581  2.0714e+000  7.4269e+000 -1.5412e+000 60909 71232,71440,71414
 1.0000e-001 71558  1.4593e+000  4.8523e+000  1.4856e-001 60909 71627,71414,71336
 1.0000e-001 71535 -4.7023e-001  6.7480e+000  4.4235e-002 60909 71362,71414,71388
 1.0000e-001 71512  1.9238e+000  6.4632e+000  5.5494e-001 60909 71336,71414,71362
 1.0000e-001 71489  1.7168e+000  4.7005e+000 -4.6500e-001 60909 71258,71336,71310
 1.0000e-001 71466  5.0169e+000  4.9868e+000 -1.6434e-002 60909 71258,71310,71284
 1.0000e-001 71653  2.2103e+000  4.8773e+000  1.7191e-001 60909 71258,71232,71627
 1.0000e-001 71676  1.9336e+000  4.4897e+000  2.3899e-002 60909 71258,71627,71336
 1.0000e-001 71875  1.4580e+000  7.8122e+000 -2.2474e+000 60611 71898,71725,71699
 1.0000e-001 71852  3.8900e+000  7.6480e+000 -2.7827e+000 60611 71898,71699,71803
 1.0000e-001 71829  1.0539e+000  8.0545e+000 -1.4903e+000 60611 71970,71751,71725
 1.0000e-001 71924  8.6676e-001  7.8101e+000 -1.7934e+000 60611 71970,71725,71898
 1.0000e-001 71947  1.1986e+000  3.8454e+000 -1.4701e+000 60611 71777,71898,71803
 1.0000e-001 71996  1.4210e+000  7.7770e+000 -1.4739e+000 60611 71777,71751,71970
 1.0000e-001 72019  1.4797e+000  7.8337e+000 -1.7204e+000 60611 71777,71970,71898
 1.0000e-001 72576  8.3835e+000  2.0223e+001 -2.4813e+000 60142 72599,72256,72230
 1.0000e-001 72553  7.5287e+000  1.6198e+001 -2.9674e+000 60142 72671,72599,72230
 1.0000e-001 72530  6.0646e+000  1.1872e+001 -2.2614e-001 60142 72671,72230,72204
 1.0000e-001 72507  7.5335e+000  2.2358e+001 -3.4800e+000 60142 72743,72360,72334
 1.0000e-001 72484  1.4623e+001  2.0792e+001 -5.7386e+000 60142 72815,72282,72256
 1.0000e-001 72461  2.7405e+000  2.0270e+001 -2.0489e+000 60142 72887,72308,72282
 1.0000e-001 72438  6.4842e+000  1.9654e+001 -1.1702e+000 60142 72204,72412,72386
 1.0000e-001 72625  1.1063e+001  2.0379e+001 -1.8894e+000 60142 72815,72256,72599
 1.0000e-001 72648  8.4527e+000  2.1449e+001 -3.5790e+000 60142 72743,72334,72599
 1.0000e-001 72697  6.5931e+000  2.0005e+001 -3.3531e+000 60142 72386,72599,72671
 1.0000e-001 72720  7.6719e+000  1.7196e+001 -1.7489e+000 60142 72386,72671,72204
 1.0000e-001 72769  5.9064e+000  2.1150e+001 -2.6518e+000 60142 72386,72360,72743
 1.0000e-001 72792  7.6570e+000  2.0480e+001 -3.1428e+000 60142 72386,72743,72599
 1.0000e-001 72841  8.3424e+000  2.2455e+001 -4.1034e+000 60142 72887,72282,72815
 1.0000e-001 72864  8.1341e+000  1.9585e+001 -2.2489e+000 60142 72334,72815,72599
 1.0000e-001 72913  9.5702e+000  1.6749e+001 -3.7015e-002 60142 72334,72308,72887
 1.0000e-001 72936  1.0999e+001  1.7293e+001 -1.4061e+000 60142 72334,72887,72815
 1.0000e-001 73491  1.3933e+000  6.7511e+000  1.9473e+000 59738 73145,73327,73171
 1.0000e-001 73468  1.5899e-001  4.3437e+000  1.3412e+000 59738 73119,73327,73145
 1.0000e-001 73445  1.5216e+000  3.3651e+000  1.5170e-001 59738 73171,73327,73301
 1.0000e-001 73422  4.8628e-001  5.0817e+000  5.4345e-002 59738 73514,73275,73249
 1.0000e-001 73399  1.2497e+000  5.3742e+000 -1.2447e-001 59738 73586,73514,73249
 1.0000e-001 73376  2.4171e+000  5.1081e+000 -8.8700e-001 59738 73197,73249,73223
 1.0000e-001 73353  7.5244e-001  5.4219e+000 -7.9565e-001 59738 73586,73249,73197
 1.0000e-001 73540  1.0503e+000  5.6598e+000  2.9742e-001 59738 73301,73275,73514
 1.0000e-001 73563  1.2490e+000  4.7504e+000 -9.6448e-002 59738 73301,73514,73171
 1.0000e-001 73612  6.0129e-001  4.1997e+000 -4.7539e-001 59738 73171,73514,73586
 1.0000e-001 73635  4.1506e-001  4.5736e+000 -1.0787e+000 59738 73171,73586,73197
 1.0000e-001 73964  5.0066e+000  1.3070e+001 -1.1321e+000 59334 73791,73843,73817
 1.0000e-001 73941  1.7770e+000  1.3142e+001 -9.9448e-001 59334 73791,73869,73843
 1.0000e-001 73918  5.0886e+000  2.0684e+001 -3.4761e-001 59334 73739,73869,73791
 1.0000e-001 73895 -7.5272e+000  2.6396e+001  3.6638e-002 59334 73739,73791,73765
 1.0000e-001 74261 -3.8183e+000  9.4076e+000  1.6043e+000 58630 74065,74117,74091
 1.0000e-001 74238 -8.5583e-001  4.7868e+000 -2.4286e+000 58630 74356,74284,74065
 1.0000e-001 74215 -4.2509e-001  3.5568e-001 -1.8985e+000 58630 74284,74013,73987
 1.0000e-001 74192 -1.2151e+000  5.2298e+000 -4.3877e+000 58630 74356,74065,74039
 1.0000e-001 74169 -1.3143e+000  4.1531e+000  2.9168e-001 58630 73987,74143,74117
 1.0000e-001 74310 -1.1672e+000  6.3571e+000 -2.6066e+000 58630 74117,74065,74284
 1.0000e-001 74333 -1.8220e+000  4.1755e+000 -1.8000e+000 58630 74117,74284,73987
 1.0000e-001 74382  2.3809e+000  5.3813e+000 -3.1648e+000 58630 74013,74284,74356
 1.0000e-001 74405  2.2091e+000  6.0077e+000 -5.1533e+000 58630 74013,74356,74039
 1.0000e-001 74815  6.5016e-001  8.6186e+000  1.2929e+000 58226 74590,74642,74616
 1.0000e-001 74792  3.3679e+000  8.2781e+000 -7.6787e-001 58226 74590,74694,74642
 1.0000e-001 74769  5.9860e+000  9.9888e+000 -1.5090e+000 58226 74590,74720,74694
 1.0000e-001 74746  7.8499e+000  6.6801e+000  8.6963e-001 58226 74642,74694,74668
 1.0000e-001 75014  4.9619e+000  5.1720e+000 -2.7768e+000 57786 75037,74864,74838
 1.0000e-001 74991  2.3128e+000  3.9769e+000 -7.5339e-001 57786 75037,74838,74916
 1.0000e-001 74968  2.3964e+000  3.4039e+000  2.9910e-001 57786 74838,74942,74916
 1.0000e-001 75063  1.3309e+000  7.5038e+000 -2.5648e+000 57786 74890,74864,75037
 1.0000e-001 75086 -1.1277e+000  6.1852e+000 -3.6218e-001 57786 74890,75037,74916
 1.0000e-001 75368  2.1194e+000  4.7901e+000  4.4130e-001 57496 75192,75270,75218
 1.0000e-001 75345  5.6856e-001  3.5277e+000 -6.4811e-001 57496 75192,75296,75270
 1.0000e-001 75322  2.6080e+000  6.6559e+000  4.3673e-001 57496 75218,75270,75244
 1.0000e-001 75648  5.8194e+000  6.8589e+000 -1.7583e+000 57206 75472,75550,75498
 1.0000e-001 75625  3.8088e+000  6.2974e+000 -5.4197e-001 57206 75472,75576,75550
 1.0000e-001 75602 -4.2739e-001  4.4474e+000 -1.6016e+000 57206 75671,75550,75524
 1.0000e-001 75697  2.9153e+000  5.5547e+000 -7.7598e-001 57206 75498,75550,75671
 1.0000e-001 76154  2.0000e+000  8.0962e+000  5.6514e-001 56802 75958,76010,75984
 1.0000e-001 76131  1.0734e+000  9.9201e+000  1.4151e+000 56802 75932,76010,75958
 1.0000e-001 76108  1.8419e+000  1.4362e+001  1.0122e-001 56802 75906,76010,75932
 1.0000e-001 76085 -4.1377e-001  7.9966e+000 -1.1558e+000 56802 75880,76010,75906
 1.0000e-001 76062 -7.9860e+000  3.1784e+000 -5.9332e+000 56802 75880,76036,76010
 1.0000e-001 76505  2.9162e+000  2.2870e+001  3.2432e-001 56504 76306,76384,76332
 1.0000e-001 76482  9.5770e+000  1.8017e+001  2.1512e+000 56504 76306,76410,76384
 1.0000e-001 76459  7.1365e+000  1.7234e+001 -6.2189e+000 56504 76332,76384,76358
 1.0000e-001 76436 -4.4000e+000  8.0444e+000 -2.9821e+000 56504 76280,76410,76306
 1.0000e-001 77011  5.7191e-001  4.5810e+000  5.4271e-001 56050 76740,76818,76792
 1.0000e-001 76988  2.2807e+000  5.5153e+000 -1.9814e-001 56050 76714,76818,76740
 1.0000e-001 76965  1.9386e+000  4.9463e+000 -2.0687e-002 56050 76688,76818,76714
 1.0000e-001 76942  1.7665e+000  5.9334e+000 -6.5140e-001 56050 76688,76844,76818
 1.0000e-001 76919  4.3768e+000  7.9370e+000 -9.1579e-001 56050 76740,76792,76766
 1.0000e-001 76896  7.6408e-001  6.1677e+000  5.6054e-001 56050 76688,76870,76844
 1.0000e-001 77517  1.7888e+000  5.8058e+000  3.5420e-001 55738 77220,77350,77324
 1.0000e-001 77494  1.3476e+000  5.1673e+000 -7.5030e-002 55738 77220,77376,77350
 1.0000e-001 77471  9.2985e-001  5.1290e+000 -4.6610e-001 55738 77194,77376,77220
 1.0000e-001 77448  1.6221e+000  4.3228e+000 -4.6181e-001 55738 77220,77298,77246
 1.0000e-001 77425 -3.2623e-002  4.5279e+000  9.9615e-001 55738 77220,77324,77298
 1.0000e-001 77402  6.3486e+000  5.0963e+000 -1.2993e+001 55738 77246,77298,77272
 1.0000e-001 78064  6.0471e+000  2.1946e+001 -8.2539e-001 55227 78231,78087,77773
 1.0000e-001 78041  3.0011e+000  2.3149e+001  1.5831e+000 55227 78087,77695,77643
 1.0000e-001 78018  7.6283e+000  2.7123e+001 -3.3278e+000 55227 78159,77799,77773
 1.0000e-001 77995  5.6965e+000  2.0514e+001 -7.0308e-001 55227 78231,77773,77721
 1.0000e-001 77972  6.3085e+000  1.4705e+001 -4.3642e-001 55227 77643,77695,77669
 1.0000e-001 77949 -4.4332e-001  2.6217e+001 -2.1940e+000 55227 77643,77877,77851
 1.0000e-001 77926  8.7214e+000  3.1048e+001 -7.4149e+000 55227 77799,77851,77825
 1.0000e-001 77903  5.5174e+000  1.7872e+001  9.5783e-001 55227 77721,77773,77747
 1.0000e-001 78113  7.4705e+000  2.5923e+001 -3.3876e+000 55227 78159,77773,78087
 1.0000e-001 78136  3.6092e+000  2.4736e+001 -1.4171e+000 55227 77851,78087,77643
 1.0000e-001 78185  7.9877e+000  2.5036e+001 -2.6505e+000 55227 77851,77799,78159
 1.0000e-001 78208  8.0134e+000  2.4097e+001 -2.6784e+000 55227 77851,78159,78087
 1.0000e-001 78257  4.5888e+000  2.4927e+001  9.0944e-002 55227 77695,78087,78231
 1.0000e-001 78280  3.7689e+000  2.2837e+001  5.0415e-001 55227 77695,78231,77721
 1.0000e-001 78737  1.5304e+000  4.7104e+000  3.1864e+000 54773 78463,78541,78515
 1.0000e-001 78714  5.8404e+000  9.6097e+000  1.2463e+000 54773 78463,78619,78541
 1.0000e-001 78691  4.0859e+000  9.7056e+000  4.7362e-001 54773 78463,78515,78489
 1.0000e-001 78668  6.6122e+000  4.0687e+000  1.8269e+000 54773 78541,78593,78567
 1.0000e-001 78645  3.5381e+000  5.0370e+000  2.2385e+000 54773 78541,78619,78593
 1.0000e-001 78838  4.5320e+000  2.5689e+001  2.1472e+000 54211 78760,78812,78786
 1.0000e-001 79297  7.4710e+000  1.6039e+001 -2.3905e-001 53814 79520,79153,79049
 1.0000e-001 79274  5.3532e+000  1.4090e+001  1.1908e+000 53814 79520,79049,79023
 1.0000e-001 79251  1.0182e+001  2.2646e+001 -1.2116e+000 53814 79320,79101,79049
 1.0000e-001 79228  7.4919e+000  1.6250e+001 -2.7164e-001 53814 79320,79049,79153
 1.0000e-001 79205  5.1335e+000  2.4022e+001 -1.8570e+000 53814 79049,79101,79075
 1.0000e-001 79346  7.8587e+000  1.5596e+001  2.9802e+000 53814 79392,79320,79127
 1.0000e-001 79369  6.0159e+000  1.5355e+001  3.9438e+000 53814 79127,79320,79153
 1.0000e-001 79418  1.1159e+001  2.2772e+001  4.9434e+000 53814 79101,79320,79392
 1.0000e-001 79546  9.7995e+000  2.0362e+001 -4.7047e+000 53814 79179,79153,79520
 1.0000e-001 79569  1.2436e+000  1.5467e+001 -2.3664e+000 53814 79179,79520,79023
 1.0000e-001 80075  3.3208e-001  4.9262e+000 -1.8401e+000 53039 80098,79908,79830
 1.0000e-001 80052 -3.3044e-002  5.0630e+000 -3.1309e+000 53039 80098,79830,79804
 1.0000e-001 80029 -2.1727e-001  6.0975e+000 -2.7504e+000 53039 79752,79934,79804
 1.0000e-001 80006 -8.8977e-003  5.4347e-001  1.1833e+000 53039 79856,79908,79882
 1.0000e-001 79983  2.8824e+000  9.3000e+000 -5.6275e-001 53039 79830,79908,79856
 1.0000e-001 79960  3.4540e+000  1.1394e+001 -7.1783e-001 53039 79752,79804,79778
 1.0000e-001 80124  2.3572e+000  5.9094e+000 -1.5342e+000 53039 79934,79908,80098
 1.0000e-001 80147  8.4892e-001  5.5149e+000 -2.9009e+000 53039 79934,80098,79804
 1.0000e-001 80555  5.4603e+000  1.1687e+001  5.6117e-001 52699 80356,80434,80408
 1.0000e-001 80532 -1.2506e+000  1.1409e+001  1.9635e+000 52699 80356,80460,80434
 1.0000e-001 80509 -7.1267e+000  1.1743e+001  3.7753e+000 52699 80330,80460,80356
 1.0000e-001 80486  4.1267e+000  1.2508e+001  2.5426e+000 52699 80356,80408,80382
 1.0000e-001 80776  1.9691e+000  5.7068e+000  4.1945e-002 52295 80600,80678,80626
 1.0000e-001 80753  4.0443e-001  4.4610e+000  5.8280e-001 52295 80600,80704,80678
 1.0000e-001 80730  1.5910e+000  5.6098e+000  3.2570e-001 52295 80626,80678,80652
 1.0000e-001 81156  9.0676e+000  1.7787e+001 -3.2033e+000 51891 81179,80960,80908
 1.0000e-001 81133  8.5884e+000  1.6774e+001 -2.7729e+000 51891 81179,80908,81012
 1.0000e-001 81110  9.8045e+000  1.6979e+001 -2.8379e+000 51891 80882,81012,80908
 1.0000e-001 81087  6.5846e+000  2.3301e+001 -2.6724e+000 51891 80908,80960,80934
 1.0000e-001 81064  9.9113e+000  1.6305e+001 -3.6359e+000 51891 80882,81038,81012
 1.0000e-001 81205  8.5601e+000  1.7915e+001 -2.4299e+000 51891 80986,80960,81179
 1.0000e-001 81228  8.3209e+000  1.6812e+001 -2.0525e+000 51891 80986,81179,81012
 1.0000e-001 81606  4.1840e+000  1.5450e+001  1.1521e+000 51544 81410,81462,81436
 1.0000e-001 81583  3.0936e+000  1.0977e+001 -1.2668e-002 51544 81384,81462,81410
 1.0000e-001 81560  2.3350e+000  9.4586e+000 -4.1026e-001 51544 81358,81462,81384
 1.0000e-001 81537 -3.8427e+000  7.1673e+000 -7.8816e-001 51544 81358,81488,81462
 1.0000e-001 81514 -5.4859e+000  1.3817e+001 -1.8891e+000 51544 81332,81488,81358
 1.0000e-001 81854  4.0997e+000  1.4013e+001 -1.3693e-001 51004 81877,81655,81629
 1.0000e-001 81831  3.3517e+000  1.4114e+001 -9.1268e-003 51004 81877,81629,81759
 1.0000e-001 81808 -5.3424e-002  1.1513e+001 -2.0000e+000 51004 81655,81707,81681
 1.0000e-001 81785 -3.6507e-001  1.7187e+001  2.1424e+000 51004 81707,81759,81733
 1.0000e-001 81903  3.4089e+000  1.4452e+001 -4.4847e-001 51004 81707,81655,81877
 1.0000e-001 81926  2.3128e+000  1.4214e+001 -4.9768e-001 51004 81707,81877,81759
 1.0000e-001 82257  2.0809e+000  6.4834e+000 -9.0033e-002 50642 82058,82136,82110
 1.0000e-001 82234  2.0463e+000  5.7758e+000  1.2211e-001 50642 82058,82162,82136
 1.0000e-001 82211  3.4208e+000  8.3049e+000 -2.0303e+000 50642 82058,82110,82084
 1.0000e-001 82188  1.4029e+000  5.5091e+000  1.1180e-002 50642 82032,82162,82058
 1.0000e-001 82684  1.6909e+000  7.9794e+000  2.4367e-002 49931 82779,82707,82465
 1.0000e-001 82661  3.0701e+000  9.3935e+000 -9.7611e-001 49931 82707,82413,82361
 1.0000e-001 82638  1.3931e+000  7.2706e+000  1.5664e+000 49931 82779,82465,82439
 1.0000e-001 82615  3.5729e+000  1.0197e+001 -1.0421e+000 49931 82465,82543,82491
 1.0000e-001 82592  2.8687e+000  9.8408e+000 -1.4742e+000 49931 82361,82413,82387
 1.0000e-001 82569  2.4379e+000  8.1510e+000 -5.2102e-001 49931 82491,82543,82517
 1.0000e-001 82733  3.0267e+000  8.8915e+000 -4.1592e-001 49931 82543,82465,82707
 1.0000e-001 82756  2.4299e+000  7.8589e+000 -7.2572e-001 49931 82543,82707,82361
 1.0000e-001 82805  2.5237e+000  1.0103e+001 -4.5367e-001 49931 82413,82707,82779
 1.0000e-001 82828  2.4165e+000  9.2952e+000  9.8283e-001 49931 82413,82779,82439
 1.0000e-001 83255  7.3049e+000  1.9628e+001  8.3262e-001 49327 82984,83114,83036
 1.0000e-001 83232  7.7049e+000  2.0367e+001  2.7067e+000 49327 82958,83114,82984
 1.0000e-001 83209  5.5194e+000  2.2099e+001  1.2527e-001 49327 83036,83114,83088
 1.0000e-001 83186  7.1747e+000  1.9273e+001  6.2600e-001 49327 82984,83036,83010
 1.0000e-001 83163  8.2227e+000  1.9098e+001  2.0161e+000 49327 82932,83114,82958
 1.0000e-001 83140  2.7346e+000  2.3889e+001  2.7002e+000 49327 83036,83088,83062
 1.0000e-001 83938  8.2151e+000  1.8918e+001 -7.4955e-001 48965 83961,83673,83647
 1.0000e-001 83915  6.8667e+000  1.7124e+001 -1.2932e-002 48965 83961,83647,83543
 1.0000e-001 83892  5.1723e+000  1.5396e+001  2.1943e-001 48965 83517,83725,83543
 1.0000e-001 83869  3.2807e+000  1.4490e+001  1.7773e+000 48965 83673,83725,83699
 1.0000e-001 83846  7.1210e-001  1.4187e+001  8.9744e-001 48965 83543,83647,83621
 1.0000e-001 83823  2.7003e+000  1.5516e+001  3.1541e-002 48965 83543,83621,83569
 1.0000e-001 83800 -3.8657e+000  1.1261e+001 -9.8854e-001 48965 83517,83751,83725
 1.0000e-001 83777  2.5877e+000  1.2619e+001 -7.1204e+000 48965 83569,83621,83595
 1.0000e-001 83987  6.6872e+000  1.8024e+001  3.3003e-001 48965 83725,83673,83961
 1.0000e-001 84010  6.5057e+000  1.7646e+001  8.3611e-001 48965 83725,83961,83543
 1.0000e-001 84258  6.1165e+000  1.6392e+001 -4.1493e+000 48447 84281,84059,84033
 1.0000e-001 84235  4.9176e+000  1.3503e+001 -3.8040e+000 48447 84281,84033,84163
 1.0000e-001 84212  3.9117e+000  1.4780e+001 -1.6997e+000 48447 84059,84111,84085
 1.0000e-001 84189  4.5634e+000  1.3594e+001 -1.8468e+000 48447 84111,84163,84137
 1.0000e-001 84307  5.4340e+000  1.6139e+001 -2.2765e+000 48447 84111,84059,84281
 1.0000e-001 84330  4.5171e+000  1.4379e+001 -1.8660e+000 48447 84111,84281,84163
 1.0000e-001 84529  5.7505e+000  1.2700e+001 -7.5240e-001 47993 84552,84405,84379
 1.0000e-001 84506  8.9973e+000  1.3873e+001 -7.8131e-001 47993 84552,84379,84353
 1.0000e-001 84483  5.5058e+000  1.3077e+001 -1.1737e-001 47993 84624,84457,84431
 1.0000e-001 84578  5.6723e+000  1.3590e+001 -3.1976e-001 47993 84431,84405,84552
 1.0000e-001 84601  5.8856e+000  1.3633e+001 -4.1280e-001 47993 84624,84431,84552
 1.0000e-001 84650  5.8233e+000  1.2624e+001  1.7122e-001 47993 84353,84457,84624
 1.0000e-001 84673  5.9849e+000  1.2713e+001 -1.4621e-001 47993 84353,84624,84552
 1.0000e-001 85104  4.0100e+000  1.1496e+001 -1.3003e+000 47588 85199,85127,84885
 1.0000e-001 85081  3.2947e+000  1.1901e+001 -1.5866e+000 47588 85127,84781,84963
 1.0000e-001 85058  2.8437e+000  1.1645e+001  6.5445e-002 47588 85199,84885,84807
 1.0000e-001 85035  5.8823e+000  9.0848e+000 -3.1390e+000 47588 84885,84937,84911
 1.0000e-001 85012  3.3805e+000  9.6589e+000  5.4588e-001 47588 84807,84885,84833
 1.0000e-001 84989  2.4924e+000  9.2913e+000  1.3310e+000 47588 84833,84885,84859
 1.0000e-001 85153  3.7068e+000  1.0880e+001 -1.4000e+000 47588 84937,84885,85127
 1.0000e-001 85176  3.8653e+000  1.1117e+001 -1.5396e+000 47588 84937,85127,84963
 1.0000e-001 85225  1.8115e+000  1.0744e+001 -1.0811e+000 47588 84781,85127,85199
 1.0000e-001 85248  1.0474e+000  1.0861e+001  4.5784e-001 47588 84781,85199,84807
 1.0000e-001 85518  1.2471e+000  8.7023e+000 -1.8778e-001 47226 85293,85397,85319
 1.0000e-001 85495  1.7327e+000  9.1642e+000 -4.8747e-001 47226 85293,85423,85397
 1.0000e-001 85472  1.5058e+000  8.7990e+000 -2.0943e-001 47226 85319,85397,85345
 1.0000e-001 85449  8.4008e-001  7.1026e+000 -3.9693e-001 47226 85345,85397,85371
 1.0000e-001 85849  3.5689e+000  1.2548e+001  5.1595e-001 46572 85624,85702,85650
 1.0000e-001 85826  4.2726e+000  1.3522e+001  2.2852e-003 46572 85624,85754,85702
 1.0000e-001 85803  3.4246e+000  1.2588e+001 -3.5402e-001 46572 85702,85754,85728
 1.0000e-001 85780  2.1666e+000  1.2504e+001 -1.0320e+000 46572 85650,85702,85676
 1.0000e-001 86070  1.2799e+001  4.0815e+001  2.6299e+000 46374 85920,85972,85946
 1.0000e-001 86047  7.8732e+000  2.8522e+001 -2.3857e-001 46374 85920,85998,85972
 1.0000e-001 86024  3.4921e+000  2.5708e+001 -2.9417e+000 46374 85894,85998,85920
 1.0000e-001 86401  7.2417e+000  1.5585e+001 -1.2176e+000 46034 86424,86280,86228
 1.0000e-001 86378  6.8720e+000  1.6566e+001 -9.6883e-001 46034 86424,86228,86176
 1.0000e-001 86355  7.9875e+000  1.5912e+001  2.0003e+000 46034 86176,86228,86202
 1.0000e-001 86332  4.0497e+000  1.4215e+001 -1.3549e+000 46034 86228,86280,86254
 1.0000e-001 86450  7.4379e+000  1.6592e+001 -1.4259e+000 46034 86306,86280,86424
 1.0000e-001 86473  6.9365e+000  1.7348e+001 -9.6234e-001 46034 86306,86424,86176
 1.0000e-001 87058  7.1783e+000  2.1752e+001 -6.2406e-001 45516 86813,86917,86865
 1.0000e-001 87035  9.8119e+000  2.8628e+001 -1.2046e-001 45516 86787,86917,86813
 1.0000e-001 87012  8.3966e+000  3.3409e+001 -1.4891e+000 45516 86735,86917,86787
 1.0000e-001 86989  4.1490e+000  1.9838e+001  2.1624e-001 45516 86865,86917,86891
 1.0000e-001 86966  6.5620e+000  2.1987e+001 -7.4447e-001 45516 86813,86865,86839
 1.0000e-001 86943  6.0294e+000  3.8110e+001  2.8514e+000 45516 86735,86787,86761
 1.0000e-001 87208  9.7362e+000  2.3750e+001 -1.6125e+000 45226 87231,87133,87107
 1.0000e-001 87185  4.9472e+000  1.5501e+001 -1.9256e+000 45226 87081,87159,87133
 1.0000e-001 87257  4.4246e+000  1.6402e+001  7.1670e-001 45226 87081,87133,87231
 1.0000e-001 87537  6.8438e+000  1.6637e+001 -4.7409e-002 44772 87387,87439,87413
 1.0000e-001 87514  6.0575e+000  1.6790e+001 -8.9382e-001 44772 87361,87439,87387
 1.0000e-001 87491  4.1479e+000  1.6958e+001 -4.7751e-001 44772 87361,87465,87439
 1.0000e-001 87996  3.2998e+000  8.1971e+000 -1.4877e-001 44425 87748,87878,87852
 1.0000e-001 87973  1.4061e+000  7.3075e+000  1.3099e+000 44425 87722,87878,87748
 1.0000e-001 87950 -2.6971e-001  8.4840e+000  5.9035e-001 44425 87800,87852,87826
 1.0000e-001 87927  3.4978e+000  8.9101e+000 -3.7562e-001 44425 87748,87852,87800
 1.0000e-001 87904  9.9292e-001  1.1610e+001 -2.9590e+000 44425 87748,87800,87774
 1.0000e-001 88423  4.1358e+000  1.2567e+001  2.4082e-001 44078 88590,88230,88204
 1.0000e-001 88400  4.7933e+000  1.3084e+001 -6.5413e-001 44078 88518,88446,88204
 1.0000e-001 88377  5.3403e+000  1.2795e+001 -5.9114e-001 44078 88446,88126,88282
 1.0000e-001 88354  5.1555e+000  1.3224e+001 -7.0434e-001 44078 88518,88204,88178
 1.0000e-001 88331  3.8257e+000  1.4716e+001 -1.5522e+000 44078 88100,88282,88126
 1.0000e-001 88308  4.9016e+000  9.5933e+000 -5.1977e+000 44078 88126,88178,88152
 1.0000e-001 88472  4.0876e+000  1.2596e+001 -2.0704e-001 44078 88590,88204,88446
 1.0000e-001 88495  5.2348e+000  1.2764e+001 -4.5366e-001 44078 88256,88446,88282
 1.0000e-001 88544  5.1726e+000  1.2731e+001 -4.6007e-001 44078 88126,88446,88518
 1.0000e-001 88567  5.5763e+000  1.2922e+001 -5.7165e-001 44078 88126,88518,88178
 1.0000e-001 88616  8.2247e+000  1.3228e+001  1.8474e+000 44078 88256,88230,88590
 1.0000e-001 88639  5.1303e+000  1.3070e+001 -3.2678e-001 44078 88256,88590,88446
 1.0000e-001 89039  7.5623e-001  7.5714e+000  2.2481e-001 43716 88791,88921,88895
 1.0000e-001 89016  3.2788e-001  9.3782e+000  5.1918e-001 43716 88765,88921,88791
 1.0000e-001 88993  1.9776e+000  8.5247e+000 -6.8239e-001 43716 88817,88895,88869
 1.0000e-001 88970  5.4786e+000  9.7517e+000 -3.4692e-001 43716 88791,88895,88817
 1.0000e-001 88947  1.5312e-001  7.1197e+000  1.0332e-001 43716 88817,88869,88843
 1.0000e-001 89496  8.6011e+000  3.2544e+001  3.9318e+000 43162 89519,89274,89248
 1.0000e-001 89473  6.7334e+000  2.6955e+001  2.5796e+000 43162 89519,89248,89222
 1.0000e-001 89450  8.9920e+000  2.4064e+001  5.7158e+000 43162 89326,89378,89352
 1.0000e-001 89427  1.0219e+001  2.8214e+001  2.3961e+000 43162 89274,89378,89326
 1.0000e-001 89404  1.1798e+001  2.5529e+001  2.1625e+000 43162 89274,89326,89300
 1.0000e-001 89545  9.6612e+000  2.7128e+001  2.0701e+000 43162 89378,89274,89519
 1.0000e-001 89568  7.3845e+000  2.1065e+001  6.1092e-001 43162 89378,89519,89222
 1.0000e-001 89946  3.0233e+000  1.1100e+001  1.3082e-001 42594 90041,89969,89750
 1.0000e-001 89923  1.5264e+000  9.2876e+000  6.8153e-001 42594 89969,89698,89828
 1.0000e-001 89900  3.9205e+000  1.0942e+001  1.9042e-001 42594 90041,89750,89724
 1.0000e-001 89877  4.5436e+000  1.2104e+001 -4.0452e-001 42594 89750,89802,89776
 1.0000e-001 89854  1.7372e+000  6.5698e+000  1.0819e+000 42594 89672,89828,89698
 1.0000e-001 89995  3.7197e+000  1.0048e+001 -4.6319e-001 42594 89802,89750,89969
 1.0000e-001 90018  2.1116e+000  9.0595e+000 -8.9675e-001 42594 89802,89969,89828
 1.0000e-001 90067  4.0155e+000  1.0345e+001  4.6306e-001 42594 89698,89969,90041
 1.0000e-001 90090  5.8215e+000  1.0978e+001 -6.6109e-003 42594 89698,90041,89724
 1.0000e-001 90517  6.5029e+000  1.8163e+001  5.1999e-002 42140 90540,90220,90194
 1.0000e-001 90494  8.1160e+000  2.5060e+001 -7.1318e-001 42140 90540,90194,90376
 1.0000e-001 90471  5.8295e+000  1.7199e+001 -6.5418e-001 42140 90612,90350,90272
 1.0000e-001 90448  6.5550e+000  2.0512e+001 -3.6773e-001 42140 90272,90350,90298
 1.0000e-001 90425  5.6055e+000  1.8523e+001 -8.0597e-002 42140 90298,90350,90324
 1.0000e-001 90402  9.6037e+000  1.8741e+001  3.4509e+000 42140 90220,90272,90246
 1.0000e-001 90566  6.9678e+000  1.8063e+001  1.8389e-001 42140 90272,90220,90540
 1.0000e-001 90589  6.5500e+000  1.8939e+001  4.3596e-001 42140 90612,90272,90540
 1.0000e-001 90638  5.4550e+000  1.5616e+001 -1.7395e+000 42140 90376,90350,90612
 1.0000e-001 90661  4.6419e+000  1.7049e+001 -1.1194e+000 42140 90376,90612,90540
 1.0000e-001 91167  5.1940e+000  1.1243e+001 -1.5158e-001 41636 91190,90870,90844
 1.0000e-001 91144  5.2490e+000  1.3476e+001 -1.6011e-001 41636 91190,90844,91026
 1.0000e-001 91121  3.0156e+000  1.2047e+001  3.1382e+000 41636 90870,90922,90896
 1.0000e-001 91098  5.8955e+000  1.3630e+001 -1.4933e+000 41636 90922,91026,90948
 1.0000e-001 91075  3.9608e+000  1.1613e+001 -1.3169e-001 41636 90948,91026,91000
 1.0000e-001 91052  2.7218e+000  1.3120e+001  1.3367e+000 41636 90948,91000,90974
 1.0000e-001 91216  5.3725e+000  1.0653e+001 -2.0045e-001 41636 90922,90870,91190
 1.0000e-001 91239  4.3481e+000  1.1438e+001 -5.4746e-001 41636 90922,91190,91026
 1.0000e-001 91696  5.9374e+000  1.1695e+001  5.5964e-001 40449 91448,91526,91474
 1.0000e-001 91673  5.6362e+000  1.2265e+001 -8.3884e-001 40449 91448,91578,91526
 1.0000e-001 91650  1.7906e+000  1.0836e+001 -1.4534e+000 40449 91474,91526,91500
 1.0000e-001 91627  4.1771e+000  1.3632e+001  4.3343e-001 40449 91422,91578,91448
 1.0000e-001 91604  6.9340e+000  1.1064e+001 -8.6330e-001 40449 91526,91578,91552
 1.0000e-001 92123  2.9000e+000  8.8730e+000  1.5828e-001 39995 92146,91904,91826
 1.0000e-001 92100  1.1202e+000  8.3588e+000  1.8534e+000 39995 92146,91826,91800
 1.0000e-001 92077  3.4152e+000  8.8708e+000  1.1156e-001 39995 91826,91904,91852
 1.0000e-001 92054  4.3826e+000  1.2979e+001 -3.4318e-001 39995 91904,91982,91930
 1.0000e-001 92031  7.6114e-001  8.0881e+000  9.3019e-001 39995 91852,91904,91878
 1.0000e-001 92008  2.8097e+000  9.7136e+000  2.2530e-001 39995 91930,91982,91956
 1.0000e-001 92172  3.4464e+000  9.5872e+000 -1.4443e-001 39995 91982,91904,92146
 1.0000e-001 92195  2.8442e+000  1.1220e+001  1.1248e+000 39995 91982,92146,91800
 1.0000e-001 92652  8.8740e+000  1.4390e+001  7.6781e-001 39633 92404,92534,92456
 1.0000e-001 92629  5.7770e+000  1.1517e+001 -4.8951e-001 39633 92378,92534,92404
 1.0000e-001 92606  2.2338e+000  1.1585e+001  9.6847e-001 39633 92404,92456,92430
 1.0000e-001 92583  8.8581e+000  1.0950e+001 -9.8901e-002 39633 92456,92534,92508
 1.0000e-001 92560  1.2693e+001  1.1636e+001  1.8402e+000 39633 92456,92508,92482
 1.0000e-001 93079  8.5366e+000  1.5657e+001  3.3508e-001 39093 93102,92808,92756
 1.0000e-001 93056  7.9431e+000  1.4932e+001  7.9546e-001 39093 93102,92756,92938
 1.0000e-001 93033  8.6530e+000  1.6233e+001 -4.3354e-001 39093 93174,92912,92834
 1.0000e-001 93010  1.0038e+001  1.5485e+001 -8.4220e-001 39093 92834,92912,92860
 1.0000e-001 92987  8.7883e+000  1.9265e+001  1.1528e+000 39093 92756,92808,92782
 1.0000e-001 92964  1.1130e+001  2.0322e+001  1.4403e+000 39093 92860,92912,92886
 1.0000e-001 93128  8.0891e+000  1.5899e+001  2.1239e-001 39093 92834,92808,93102
 1.0000e-001 93151  8.6496e+000  1.5984e+001  2.9048e-002 39093 93174,92834,93102
 1.0000e-001 93200  8.2570e+000  1.5941e+001 -7.7259e-002 39093 92938,92912,93174
 1.0000e-001 93223  7.7584e+000  1.5690e+001  3.6126e-001 39093 92938,93174,93102
 1.0000e-001 93680  4.6208e+000  1.4263e+001 -1.1073e+000 38639 93703,93536,93484
 1.0000e-001 93657  5.5560e+000  1.4192e+001 -1.3717e+000 38639 93703,93484,93432
 1.0000e-001 93634  1.2759e+000  1.5730e+001 -4.9410e+000 38639 93432,93484,93458
 1.0000e-001 93611  5.2102e+000  1.5834e+001 -5.8365e-001 38639 93484,93536,93510
 1.0000e-001 93588  8.5555e+000  1.2490e+001 -5.8048e-001 38639 93406,93562,93432
 1.0000e-001 93729  5.4999e+000  1.3323e+001 -1.0335e+000 38639 93562,93536,93703
 1.0000e-001 93752  7.3813e+000  1.4241e+001 -1.6874e+000 38639 93562,93703,93432
 1.0000e-001 94160  3.6579e+000  8.5926e+000  1.2900e+000 38292 93935,94039,93961
 1.0000e-001 94137  2.9415e+000  8.7040e+000 -9.9396e-001 38292 93935,94065,94039
 1.0000e-001 94114  6.0450e+000  1.4327e+001 -8.6446e-001 38292 93961,94013,93987
 1.0000e-001 94091  7.2000e+000  7.5792e+000  1.2978e-001 38292 93961,94039,94013
 1.0000e-001 94408  3.5030e+000  9.2653e+000 -6.0392e-001 37880 94431,94261,94235
 1.0000e-001 94385  3.5791e+000  9.4064e+000 -5.7110e-001 37880 94431,94235,94313
 1.0000e-001 94362  3.7048e+000  9.4327e+000 -7.3169e-001 37880 94209,94313,94235
 1.0000e-001 94339  3.9981e+000  1.0582e+001 -1.4917e+000 37880 94183,94313,94209
 1.0000e-001 94457  3.3818e+000  9.4021e+000 -6.3451e-001 37880 94287,94261,94431
 1.0000e-001 94480  3.4639e+000  9.5258e+000 -5.8825e-001 37880 94287,94431,94313
 1.0000e-001 94728  2.2131e+000  7.9730e+000  1.3643e-001 37426 94529,94607,94555
 1.0000e-001 94705  2.8246e+000  1.0835e+001 -6.1534e-002 37426 94529,94633,94607
 1.0000e-001 94682 -1.3454e+000  1.1419e+001  1.8504e-001 37426 94503,94633,94529
 1.0000e-001 94659  2.7598e+000  4.2781e+000  2.0319e+000 37426 94555,94607,94581
 1.0000e-001 95257  4.4767e+000  1.2597e+001 -2.4980e-001 36722 95496,95280,94862
 1.0000e-001 95234  1.0400e+000  1.1088e+001 -5.4470e-001 36722 95496,94862,94836
 1.0000e-001 95211  4.5722e+000  1.2481e+001 -6.2937e-001 36722 95352,95280,95070
 1.0000e-001 95188  4.5203e+000  1.1153e+001 -1.0975e+000 36722 95352,95070,95044
 1.0000e-001 95165  1.6043e+000  1.5685e+001  1.3207e+000 36722 95424,94888,94862
 1.0000e-001 95142  3.0961e+000  1.0455e+001 -9.9287e-001 36722 94914,94966,94940
 1.0000e-001 95119  5.6185e+000  1.4444e+001 -1.8459e+000 36722 94966,95044,95018
 1.0000e-001 95096  5.0091e+000  1.6195e+001 -3.5875e+000 36722 94966,95018,94992
 1.0000e-001 95306  4.5044e+000  1.2399e+001 -1.1920e-001 36722 95424,94862,95280
 1.0000e-001 95329  5.3816e+000  1.2118e+001  2.3330e-001 36722 94914,95280,94966
 1.0000e-001 95378  4.8900e+000  1.2976e+001 -4.2202e-002 36722 94966,95280,95352
 1.0000e-001 95401  5.2925e+000  1.2426e+001 -5.0695e-001 36722 94966,95352,95044
 1.0000e-001 95450  6.3876e+000  1.5544e+001  2.9334e+000 36722 94914,94888,95424
 1.0000e-001 95473  7.2917e+000  1.4627e+001  1.3962e+000 36722 94914,95424,95280
 1.0000e-001 95522  4.8607e+000  1.2115e+001 -4.0322e-001 36722 95070,95280,95496
 1.0000e-001 95545  4.7762e+000  1.2294e+001 -2.8434e-001 36722 95070,95496,94836
 1.0000e-001 96130  1.0047e+001  1.3985e+001 -1.0805e+000 36268 96153,95911,95859
 1.0000e-001 96107  1.0374e+001  1.6240e+001 -9.1688e-001 36268 96153,95859,95807
 1.0000e-001 96084  1.1047e+001  2.0681e+001  1.7968e+000 36268 95807,95859,95833
 1.0000e-001 96061  1.1651e+001  2.0544e+001 -2.9082e+000 36268 95911,95989,95937
 1.0000e-001 96038  1.0930e+001  1.4359e+001 -1.0796e+000 36268 95859,95911,95885
 1.0000e-001 96015  9.2500e+000  1.9425e+001 -2.5019e+000 36268 95937,95989,95963
 1.0000e-001 96179  8.9040e+000  1.5994e+001 -1.6031e+000 36268 95989,95911,96153
 1.0000e-001 96202  9.6787e+000  1.8881e+001 -1.3492e+000 36268 95989,96153,95807
 1.0000e-001 96531  1.3073e+000  9.8579e+000 -8.9301e-002 35728 96358,96410,96384
 1.0000e-001 96508  4.7645e+000  1.2171e+001 -1.0917e+000 35728 96332,96410,96358
 1.0000e-001 96485  2.7665e+000  8.7683e+000  5.6268e-005 35728 96332,96436,96410
 1.0000e-001 96462  1.6842e+000  7.5087e+000  9.1391e-001 35728 96306,96436,96332
 1.0000e-001 96860  5.1983e+000  1.1239e+001  4.4209e-001 35324 96687,96765,96713
 1.0000e-001 96837  7.1349e+000  1.5447e+001 -3.8362e-001 35324 96661,96765,96687
 1.0000e-001 96814  7.5474e+000  1.3537e+001 -6.2834e-001 35324 96713,96765,96739
 1.0000e-001 96791  6.8058e+000  1.8497e+001  4.2005e-001 35324 96635,96765,96661
 1.0000e-001 97366  7.7772e+000  1.4466e+001 -6.6349e-001 34920 97389,97069,97043
 1.0000e-001 97343  7.4892e+000  1.3265e+001 -5.1328e-001 34920 97389,97043,97199
 1.0000e-001 97320  7.4748e+000  1.4070e+001 -3.2925e-001 34920 97043,97225,97199
 1.0000e-001 97297  5.8627e+000  1.5127e+001  1.1326e+000 34920 97069,97121,97095
 1.0000e-001 97274  8.8158e+000  1.1273e+001  7.8988e-001 34920 97121,97199,97173
 1.0000e-001 97251  9.4337e+000  1.1166e+001  9.9970e-001 34920 97121,97173,97147
 1.0000e-001 97415  8.3477e+000  1.4356e+001  8.8779e-001 34920 97121,97069,97389
 1.0000e-001 97438  7.2890e+000  1.1732e+001  1.0422e+000 34920 97121,97389,97199
 1.0000e-001 97708  6.4208e+000  1.9988e+001  2.2333e-001 34722 97509,97587,97535
 1.0000e-001 97685  1.1566e+000  2.1305e+001  1.0021e+000 34722 97509,97613,97587
 1.0000e-001 97662  8.2944e+000  2.5160e+001  2.6828e+000 34722 97483,97613,97509
 1.0000e-001 97639  5.4734e+000  1.5666e+001 -7.2484e+000 34722 97535,97587,97561
 1.0000e-001 98216  4.7477e+000  1.3079e+001 -6.0938e-001 34318 97971,98075,97997
 1.0000e-001 98193  4.2855e+000  1.2569e+001 -9.8744e-001 34318 97893,98075,97971
 1.0000e-001 98170  3.1781e+000  1.0865e+001 -5.1022e-001 34318 97893,97971,97919
 1.0000e-001 98147  4.4488e+000  1.1850e+001 -7.0563e-001 34318 97997,98075,98049
 1.0000e-001 98124  4.0201e+000  9.3745e+000  2.8054e-001 34318 97919,97971,97945
 1.0000e-001 98101  4.2006e+000  1.1169e+001 -9.3939e-001 34318 97997,98049,98023
 1.0000e-001 98594  1.2944e+001  2.0793e+001 -2.5365e-001 33814 98961,98617,98424
 1.0000e-001 98571  1.2342e+001  2.1985e+001 -4.7410e-001 33814 98689,98617,98372
 1.0000e-001 98548  1.2234e+001  1.9000e+001 -1.3732e-001 33814 99033,98689,98372
 1.0000e-001 98525  1.4524e+001  1.7689e+001 -5.0109e-002 33814 98761,98476,98450
 1.0000e-001 98502  1.4348e+001  1.9538e+001  8.9080e-002 33814 98961,98424,98398
 1.0000e-001 98643  1.4870e+001  2.2024e+001  4.6663e-001 33814 98450,98424,98617
 1.0000e-001 98666  1.2336e+001  1.6681e+001 -3.2925e-001 33814 98761,98450,98617
 1.0000e-001 98715  1.4175e+001  2.0567e+001 -8.4427e-001 33814 99161,98689,98320
 1.0000e-001 98738  1.2885e+001  2.4318e+001 -1.2420e+000 33814 98320,98689,98346
 1.0000e-001 98787  1.5152e+001  1.9249e+001 -1.7635e+000 33814 98833,98761,98320
 1.0000e-001 98810  1.4056e+001  2.0352e+001 -5.8396e-001 33814 99161,98320,98761
 1.0000e-001 98859  1.2847e+001  1.3127e+001  1.6480e-001 33814 98476,98761,98833
 1.0000e-001 98987  1.1382e+001  1.9681e+001  3.0350e-001 33814 98372,98617,98961
 1.0000e-001 99010  1.2419e+001  1.7945e+001  8.7970e-001 33814 98372,98961,98398
 1.0000e-001 99059  1.6955e+001  2.8405e+001  2.6718e+000 33814 98346,98689,99033
 1.0000e-001 99187  1.4207e+001  2.1113e+001 -1.2572e+000 33814 98617,98689,99161
 1.0000e-001 99210  1.3793e+001  2.0723e+001 -9.4735e-001 33814 98617,99161,98761
 1.0000e-001 99588  7.3355e+000  1.3433e+001 -6.4269e-001 33566 99366,99444,99392
 1.0000e-001 99565  4.3985e+000  1.4923e+001 -9.8095e-001 33566 99314,99444,99366
 1.0000e-001 99542  3.5495e+000  1.8412e+001  1.7449e+000 33566 99314,99366,99340
 1.0000e-001 99519  2.1309e+000  1.7027e+001 -5.1333e+000 33566 99314,99470,99444
 1.0000e-001 99496  7.8256e+000  1.3667e+001 -1.0905e+000 33566 99392,99444,99418
 1.0000e-001 99787  2.8822e+000  9.9276e+000  2.3041e-002 33105 99637,99689,99663
 1.0000e-001 99764  2.3793e+000  9.6135e+000  2.2033e-001 33105 99611,99689,99637
 1.0000e-001 99741  3.1064e+000  9.6369e+000 -3.1844e-001 33105 99611,99715,99689
 1.0000e-001 100167  7.5391e+000  1.2936e+001 -1.3956e+000 32651 100190,99971,99919
 1.0000e-001 100144  6.1503e+000  1.1752e+001 -8.7280e-001 32651 100262,100190,99919
 1.0000e-001 100121  6.1956e+000  1.1608e+001 -6.8699e-001 32651 100262,99919,100049
 1.0000e-001 100098  4.1625e+000  1.0682e+001  6.9842e-001 32651 99893,100049,99919
 1.0000e-001 100075  4.7871e+000  1.3647e+001 -3.3131e+000 32651 99919,99971,99945
 1.0000e-001 100216  6.0348e+000  1.2794e+001 -8.6316e-001 32651 99997,99971,100190
 1.0000e-001 100239  5.9386e+000  1.2886e+001 -7.1212e-001 32651 99997,100190,100023
 1.0000e-001 100288  5.7792e+000  1.2768e+001 -8.0207e-001 32651 100023,100190,100262
 1.0000e-001 100311  4.7065e+000  1.1930e+001 -1.3872e-001 32651 100023,100262,100049
 1.0000e-001 100608  3.7332e+000  9.9815e+000  1.5852e-001 32254 100386,100490,100464
 1.0000e-001 100585  3.9695e+000  1.0283e+001  2.8732e-001 32254 100360,100490,100386
 1.0000e-001 100562  2.7535e+000  9.3442e+000 -1.1663e-001 32254 100386,100464,100412
 1.0000e-001 100539  6.3401e-001  9.1319e+000  7.1507e-001 32254 100334,100490,100360
 1.0000e-001 100516  4.2279e+000  8.2661e+000  1.2146e+000 32254 100412,100464,100438
 1.0000e-001 100758  4.4104e+000  7.5849e+000 -1.6876e+000 31914 100985,100781,100683
 1.0000e-001 100735  8.2226e+000  1.0534e+001  1.3997e-001 31914 100853,100781,100657
 1.0000e-001 100807  5.1308e+000  1.1334e+001 -1.3949e+000 31914 100709,100683,100781
 1.0000e-001 100830  1.4317e+000  1.0024e+001 -5.3826e-001 31914 100709,100781,100631
 1.0000e-001 100879  2.5358e+000  8.5727e+000  2.4136e+000 31914 100631,100781,100853
 1.0000e-001 101011  7.1012e+000  9.8843e+000 -2.0739e-001 31914 100657,100781,100985
 1.0000e-001 101191  3.3888e+000  1.2757e+001 -1.1572e+000 31418 101113,101165,101139
 1.0000e-001 101341  7.9147e+000  3.0157e+001  1.0212e+000 31106 101214,101266,101240
 1.0000e-001 101318  7.0059e+000  2.8540e+001  1.5618e+000 31106 101214,101292,101266
 1.0000e-001 101591  6.0696e+000  1.4093e+001 -1.1477e+000 30552 101614,101470,101444
 1.0000e-001 101568  4.2372e+000  1.4016e+001 -8.6757e-001 30552 101366,101496,101470
 1.0000e-001 101545  5.7831e+000  1.3855e+001 -9.4551e-001 30552 101614,101444,101392
 1.0000e-001 101522  1.0174e+000  1.3268e+001 -1.3904e+000 30552 101392,101444,101418
 1.0000e-001 101640  5.6660e+000  1.4261e+001 -8.6282e-001 30552 101366,101470,101614
 1.0000e-001 101663  5.4193e+000  1.4064e+001 -6.6687e-001 30552 101366,101614,101392
 1.0000e-001 102301  1.2606e+001  2.3524e+001 -4.8581e-001 30042 102396,102324,102059
 1.0000e-001 102278  1.2460e+001  2.3000e+001  4.9831e-001 30042 102324,101981,101955
 1.0000e-001 102255  1.3452e+001  2.3063e+001 -1.3139e+000 30042 102396,102059,102033
 1.0000e-001 102232  8.6154e+000  1.8091e+001 -2.1794e+000 30042 101929,102111,101955
 1.0000e-001 102209  1.0530e+001  1.9145e+001 -1.4468e-001 30042 102059,102111,102085
 1.0000e-001 102186  5.1178e+000  1.8537e+001 -6.7001e+000 30042 101929,102137,102111
 1.0000e-001 102163  1.5357e+000  1.6696e+001 -7.5926e-002 30042 101981,102033,102007
 1.0000e-001 102350  1.1272e+001  2.2957e+001 -4.4299e-001 30042 102111,102059,102324
 1.0000e-001 102373  1.1746e+001  2.2962e+001  6.3405e-002 30042 102111,102324,101955
 1.0000e-001 102422  1.1385e+001  2.1839e+001  5.3263e-002 30042 101981,102324,102396
 1.0000e-001 102445  1.2273e+001  2.1393e+001 -7.8990e-001 30042 101981,102396,102033
 1.0000e-001 103000  7.4784e+000  1.6220e+001  1.1865e-001 29730 103023,102706,102654
 1.0000e-001 102977  8.6192e+000  1.5833e+001  8.5381e-001 29730 103023,102654,102810
 1.0000e-001 102954  1.0931e+001  2.2708e+001  1.0475e+000 29730 102732,102810,102784
 1.0000e-001 102931  1.0570e+001  1.6617e+001  1.3202e+000 29730 102628,102810,102654
 1.0000e-001 102908  7.3757e+000  1.7943e+001  5.8369e-001 29730 102654,102706,102680
 1.0000e-001 102885  9.5905e+000  1.6909e+001  3.3093e+000 29730 102732,102784,102758
 1.0000e-001 102862  1.2003e+001  1.7387e+001  7.5320e-001 29730 102628,102836,102810
 1.0000e-001 103049  8.2646e+000  1.7331e+001  5.2441e-001 29730 102732,102706,103023
 1.0000e-001 103072  8.9178e+000  1.6220e+001  1.1047e+000 29730 102732,103023,102810
 1.0000e-001 103222  2.8383e+000  9.8232e+000  1.5656e-001 29226 103095,103147,103121
 1.0000e-001 103199  3.0283e+000  9.8165e+000  1.5201e-001 29226 103095,103173,103147
 1.0000e-001 103730  7.6119e+000  1.7477e+001  2.0317e+000 28822 103537,103589,103563
 1.0000e-001 103707  9.0270e+000  1.9811e+001  1.4385e+000 28822 103433,103589,103537
 1.0000e-001 103684  1.4028e+001  2.1390e+001  2.1795e+000 28822 103433,103537,103459
 1.0000e-001 103661  1.0228e+001  1.6969e+001  1.7185e+000 28822 103407,103589,103433
 1.0000e-001 103638  6.1627e+000  1.7495e+001 -1.3689e+000 28822 103459,103511,103485
 1.0000e-001 103615  8.7434e+000  1.5659e+001 -5.0062e-001 28822 103459,103537,103511
 1.0000e-001 103880  5.5214e+000  1.6508e+001 -1.0711e+000 28368 103975,103903,103779
 1.0000e-001 103857  7.0571e+000  1.9848e+001  3.1387e-001 28368 103903,103753,103831
 1.0000e-001 103929  7.2036e+000  1.7187e+001 -1.7345e-001 28368 103805,103779,103903
 1.0000e-001 103952  6.1479e+000  1.7525e+001 -2.8762e-002 28368 104105,103903,103831
 1.0000e-001 104001  7.2408e+000  1.8108e+001  4.9763e-001 28368 103753,103903,103975
 1.0000e-001 104131  8.4605e+000  1.8115e+001 -5.9337e-001 28368 103805,103903,104105
 1.0000e-001 104539  5.1768e+000  1.0707e+001  5.5367e-001 28028 104562,104340,104314
 1.0000e-001 104516  6.3094e+000  8.7657e+000 -6.6510e-001 28028 104634,104562,104314
 1.0000e-001 104493  5.9649e+000  1.0887e+001  1.4009e+000 28028 104762,104366,104340
 1.0000e-001 104470  4.4618e+000  9.9756e+000  2.5070e+000 28028 104366,104418,104392
 1.0000e-001 104588  6.5251e+000  1.1506e+001  9.9971e-001 28028 104762,104340,104562
 1.0000e-001 104611  8.6687e+000  9.9849e+000  3.2617e-001 28028 104418,104562,104444
 1.0000e-001 104660  9.6005e+000  1.0409e+001  5.4137e-001 28028 104444,104562,104634
 1.0000e-001 104788  6.8792e+000  1.0118e+001  1.4396e+000 28028 104418,104366,104762
 1.0000e-001 104811  7.2193e+000  1.0512e+001  1.0800e+000 28028 104418,104762,104562
 1.0000e-001 105010  3.5349e+000  1.2414e+001 -1.1123e+000 27324 105033,104886,104860
 1.0000e-001 104987  4.2487e+000  1.3033e+001 -2.3367e-001 27324 105033,104860,104834
 1.0000e-001 104964  4.8819e+000  1.4624e+001 -8.0960e-001 27324 105105,104912,104886
 1.0000e-001 105059  4.3291e+000  1.4244e+001 -1.0051e+000 27324 105105,104886,105033
 1.0000e-001 105082  4.3277e+000  1.2089e+001 -6.0010e-001 27324 104938,105033,104834
 1.0000e-001 105131  6.7910e+000  1.4245e+001  2.7939e-001 27324 104938,104912,105105
 1.0000e-001 105154  5.5718e+000  1.2880e+001 -2.3674e-001 27324 104938,105105,105033
 1.0000e-001 105402  3.2074e+000  9.8432e+000 -1.1202e-001 27012 105229,105281,105255
 1.0000e-001 105379  3.1206e+000  1.0148e+001 -1.9901e-001 27012 105229,105307,105281
 1.0000e-001 105356  4.3779e+000  9.8436e+000 -3.1686e-001 27012 105177,105307,105229
 1.0000e-001 105333  4.1955e+000  1.1103e+001 -1.0291e+000 27012 105177,105229,105203
 1.0000e-001 105603  3.6195e+000  1.1436e+001 -8.9554e-001 26508 105626,105453,105427
 1.0000e-001 105580  3.2086e+000  1.0458e+001 -6.2277e-001 26508 105626,105427,105505
 1.0000e-001 105557  2.4303e+000  1.0156e+001 -5.3114e-001 26508 105427,105531,105505
 1.0000e-001 105652  3.2182e+000  1.1239e+001 -3.5035e-001 26508 105479,105453,105626
 1.0000e-001 105675  3.0057e+000  1.0832e+001 -1.0728e-001 26508 105479,105626,105505
 1.0000e-001 106057  2.3275e+000  8.8588e+000 -2.1447e-001 25947 106080,105887,105861
 1.0000e-001 106034  2.5305e+000  8.5269e+000 -1.5012e+000 25947 106080,105861,105783
 1.0000e-001 106011  4.8944e+000  6.4259e+000 -2.3441e+000 25947 105783,105835,105809
 1.0000e-001 105988  2.3412e+000  9.8684e+000 -1.6491e+000 25947 105783,105861,105835
 1.0000e-001 105965  1.9801e+000  7.6624e+000  5.1530e-001 25947 105887,105939,105913
 1.0000e-001 106106  3.0633e+000  9.1195e+000 -1.0575e-001 25947 105939,105887,106080
 1.0000e-001 106129  4.1313e+000  9.0568e+000 -1.4774e+000 25947 105939,106080,105783
 1.0000e-001 106714  8.4863e+000  9.8966e+000 -4.5765e-001 25557 106809,106737,106547
 1.0000e-001 106691  8.4381e+000  9.5666e+000  1.6321e+000 25557 106737,106417,106391
 1.0000e-001 106668  9.1701e+000  9.2252e+000 -1.5591e-001 25557 106809,106547,106495
 1.0000e-001 106645  9.2638e+000  1.0395e+001  1.0264e-001 25557 106417,106495,106469
 1.0000e-001 106622  8.3889e+000  8.3863e+000 -9.1086e-001 25557 106495,106547,106521
 1.0000e-001 106599  8.8892e+000  1.2415e+001  1.1406e-001 25557 106417,106469,106443
 1.0000e-001 106763  9.7875e+000  1.2438e+001 -9.2400e-001 25557 106573,106547,106737
 1.0000e-001 106786  9.5175e+000  1.2045e+001  1.4997e+000 25557 106573,106737,106391
 1.0000e-001 106835  9.0902e+000  1.1644e+001 -1.4890e-001 25557 106417,106737,106809
 1.0000e-001 106858  9.1677e+000  1.0165e+001 -1.3849e-001 25557 106417,106809,106495
 1.0000e-001 107364  3.4739e+000  9.9792e+000  7.9076e-001 25153 107459,107387,107171
 1.0000e-001 107341  6.4118e+000  1.0479e+001  3.9041e-001 25153 107387,107119,107067
 1.0000e-001 107318  2.9427e+000  8.7909e+000 -2.7666e-001 25153 107459,107171,107145
 1.0000e-001 107295  2.6380e+000  1.0025e+001  1.0567e+000 25153 107531,107223,107197
 1.0000e-001 107272  5.3572e+000  7.9247e+000  3.6911e-001 25153 107067,107119,107093
 1.0000e-001 107249 -6.3069e-001  1.3479e+001  1.5239e+000 25153 107041,107223,107067
 1.0000e-001 107413  6.5267e+000  1.1754e+001  1.6722e-002 25153 107197,107171,107387
 1.0000e-001 107436  3.5489e+000  1.1105e+001 -5.0701e-002 25153 107531,107197,107387
 1.0000e-001 107485  2.9165e+000  8.2460e+000 -7.5654e-001 25153 107119,107387,107459
 1.0000e-001 107508  1.2990e+000  6.8136e+000 -1.9969e+000 25153 107119,107459,107145
 1.0000e-001 107557  1.7800e+000  9.1101e+000  1.9308e+000 25153 107067,107223,107531
 1.0000e-001 107580  2.4199e+000  9.3560e+000  8.9042e-001 25153 107067,107531,107387
 1.0000e-001 107958  4.8952e+000  1.2355e+001 -6.2511e-001 24741 107736,107814,107788
 1.0000e-001 107935  6.6406e+000  1.3833e+001  3.1347e-001 24741 107736,107840,107814
 1.0000e-001 107912  7.3648e+000  1.5085e+001  6.1401e-001 24741 107684,107840,107736
 1.0000e-001 107889  1.5961e+000  1.4737e+001 -1.2792e+000 24741 107736,107788,107762
 1.0000e-001 107866  6.4554e+000  1.6261e+001  3.1067e+000 24741 107684,107736,107710
 1.0000e-001 108157  2.9576e+000  1.0480e+001 -3.7679e-001 24237 108180,108059,108007
 1.0000e-001 108134  3.2627e+000  1.0666e+001 -2.9492e-001 24237 108180,108007,107981
 1.0000e-001 108111  1.0646e+000  1.2455e+001 -4.7013e-001 24237 108007,108059,108033
 1.0000e-001 108206  3.0570e+000  1.0583e+001 -1.0168e-001 24237 108085,108059,108180
 1.0000e-001 108229  3.3502e+000  1.0764e+001 -2.1064e-002 24237 108085,108180,107981
 1.0000e-001 108658  5.5158e+000  1.2623e+001  1.4170e+000 23776 108361,108413,108387
 1.0000e-001 108635  3.2366e+000  8.6059e+000  8.3287e-001 23776 108753,108681,108361
 1.0000e-001 108612  1.2212e+000  8.4414e+000  2.8047e+000 23776 108681,108465,108439
 1.0000e-001 108589  4.3098e+000  8.4004e+000  1.2958e+000 23776 108753,108361,108335
 1.0000e-001 108566  6.0474e+000  1.0537e+001 -7.0594e-002 23776 108335,108517,108465
 1.0000e-001 108543  8.9682e+000  9.9756e+000  1.7235e+000 23776 108465,108517,108491
 1.0000e-001 108707  3.7959e+000  9.7205e+000  5.8614e-001 23776 108413,108361,108681
 1.0000e-001 108730  3.3291e+000  1.1698e+001  1.8361e+000 23776 108413,108681,108439
 1.0000e-001 108779  4.2768e+000  9.9321e+000  1.3222e+000 23776 108465,108681,108753
 1.0000e-001 108802  4.7782e+000  8.8141e+000  1.5168e+000 23776 108465,108753,108335
 1.0000e-001 109023  3.3595e+000  1.0709e+001  1.4212e-001 23414 108873,108925,108899
 1.0000e-001 109000  3.1043e+000  1.0612e+001  1.3129e-001 23414 108847,108925,108873
 1.0000e-001 108977  3.2103e+000  1.0955e+001  2.2573e-001 23414 108847,108951,108925
 1.0000e-001 109474  4.4716e+000  1.8322e+001 -2.0743e+000 23024 109151,109307,109177
 1.0000e-001 109451  2.3603e+000  2.4385e+001 -1.9811e+000 23024 109151,109333,109307
 1.0000e-001 109428  9.9365e+000  2.4083e+001  3.5634e-001 23024 109177,109281,109203
 1.0000e-001 109405  1.5245e+001  2.4633e+001  5.3681e-001 23024 109177,109307,109281
 1.0000e-001 109382  9.5398e+000  2.2935e+001 -3.1782e-001 23024 109203,109281,109229
 1.0000e-001 109359  8.0638e+000  2.5407e+001 -1.4682e+000 23024 109229,109281,109255
 1.0000e-001 109820  8.9214e+000  1.4686e+001 -9.0317e-001 22506 109843,109601,109523
 1.0000e-001 109797  7.0720e+000  1.3669e+001 -4.4808e-001 22506 109843,109523,109497
 1.0000e-001 109774  6.9554e+000  1.5584e+001 -8.9707e-001 22506 109915,109653,109627
 1.0000e-001 109751  7.1905e+000  1.4648e+001 -4.8459e-001 22506 109497,109679,109653
 1.0000e-001 109728  9.5728e+000  1.6378e+001  1.6494e+000 22506 109523,109601,109575
 1.0000e-001 109705  9.2957e+000  2.1195e+001  1.4817e+000 22506 109523,109575,109549
 1.0000e-001 109869  6.8335e+000  1.3733e+001 -1.3371e+000 22506 109627,109601,109843
 1.0000e-001 109892  6.6105e+000  1.4868e+001 -1.0253e+000 22506 109915,109627,109843
 1.0000e-001 109941  7.1595e+000  1.4894e+001 -4.0450e-001 22506 109497,109653,109915
 1.0000e-001 109964  7.1397e+000  1.4864e+001 -4.4952e-001 22506 109497,109915,109843
 1.0000e-001 110163  6.7800e+000  1.3697e+001 -6.1521e-001 21936 110186,110039,110013
 1.0000e-001 110140  7.4696e+000  1.4647e+001 -1.2249e-001 21936 110390,110186,110013
 1.0000e-001 110117  7.9313e+000  1.3897e+001  3.9760e-001 21936 110390,110013,109987
 1.0000e-001 110212  7.5173e+000  1.5910e+001  5.6572e-001 21936 110065,110039,110186
 1.0000e-001 110235  5.6999e+000  1.1774e+001 -3.9840e-001 21936 110258,110186,110091
 1.0000e-001 110284  1.1442e+001  1.6010e+001  1.4785e+000 21936 110065,110186,110258
 1.0000e-001 110416  6.4573e+000  1.4006e+001  1.5929e-001 21936 110091,110186,110390
 1.0000e-001 110439  7.1755e+000  1.3421e+001  6.0900e-001 21936 110091,110390,109987
 1.0000e-001 110709  8.9812e+000  2.0535e+001 -3.1591e-001 21338 110510,110614,110588
 1.0000e-001 110686  1.0129e+001  2.3223e+001  3.6746e-001 21338 110484,110614,110510
 1.0000e-001 110663  1.0612e+001  2.1856e+001  4.4540e-001 21338 110510,110562,110536
 1.0000e-001 110640  1.0016e+001  2.0408e+001  2.7798e-001 21338 110510,110588,110562
 1.0000e-001 111296  9.6341e+000  1.9360e+001  9.2371e-001 20934 111025,111155,111103
 1.0000e-001 111273  1.1885e+001  2.7175e+001  5.9390e-001 20934 110999,111155,111025
 1.0000e-001 111250  4.5747e+000  1.7089e+001  1.4463e+000 20934 111103,111155,111129
 1.0000e-001 111227  1.2499e+001  2.4144e+001  3.3171e+000 20934 111051,111103,111077
 1.0000e-001 111204  1.3100e+001  2.2829e+001  2.4145e+000 20934 111025,111103,111051
 1.0000e-001 111181  6.8295e+000  2.4785e+001 -1.6270e+000 20934 110973,111155,110999
 1.0000e-001 111930  7.5498e+000  1.1428e+001  1.4574e+000 20494 111662,111714,111688
 1.0000e-001 111907  6.2909e+000  1.0377e+001  1.0072e+000 20494 111584,111714,111662
 1.0000e-001 111884  9.1543e+000  1.0616e+001  9.5555e-001 20494 111584,111766,111714
 1.0000e-001 111861  7.7017e+000  1.6297e+001 -2.2502e+000 20494 111584,111636,111610
 1.0000e-001 111838  9.5418e+000  1.2970e+001 -8.7031e-001 20494 111584,111662,111636
 1.0000e-001 111815  8.1919e+000  1.0147e+001  8.0743e-001 20494 111558,111766,111584
 1.0000e-001 111792  8.9197e+000  1.0547e+001  1.8193e+000 20494 111714,111766,111740
 1.0000e-001 112249  4.4619e+000  1.2632e+001 -8.7635e-001 19940 111975,112053,112001
 1.0000e-001 112226  2.8857e+000  1.0007e+001 -3.2666e-002 19940 111975,112131,112053
 1.0000e-001 112203  2.8588e+000  1.1731e+001  0.0000e+000 19940 112053,112105,112079
 1.0000e-001 112180  2.9980e+000  1.0883e+001 -4.2614e-001 19940 112053,112131,112105
 1.0000e-001 112157  2.8375e+000  1.1560e+001 -3.3198e-001 19940 112001,112053,112027
 1.0000e-001 112757  6.6320e+000  1.7648e+001  2.3266e+000 19486 112780,112538,112486
 1.0000e-001 112734  7.9095e+000  2.0380e+001  8.5845e-001 19486 112780,112486,112460
 1.0000e-001 112711  8.4754e+000  1.7099e+001 -3.4076e-001 19486 112852,112616,112590
 1.0000e-001 112688  2.9423e+000  2.2166e+001  3.6009e+000 19486 112486,112538,112512
 1.0000e-001 112665  1.0386e+001  2.1200e+001  7.7597e-001 19486 112434,112616,112460
 1.0000e-001 112642  1.0556e+001  1.6850e+001  1.6463e+000 19486 112538,112590,112564
 1.0000e-001 112806  1.0132e+001  1.9321e+001  1.7667e+000 19486 112590,112538,112780
 1.0000e-001 112829  7.7619e+000  1.8108e+001  2.6819e-001 19486 112852,112590,112780
 1.0000e-001 112878  8.6015e+000  1.8654e+001 -4.2685e-001 19486 112460,112616,112852
 1.0000e-001 112901  8.1318e+000  2.0032e+001 -9.3613e-002 19486 112460,112852,112780
 1.0000e-001 113252  1.5997e+001  2.2115e+001  1.2007e+000 19096 113105,113157,113131
 1.0000e-001 113229  1.4548e+001  1.7739e+001  7.1740e-001 19096 113053,113157,113105
 1.0000e-001 113206  1.3194e+001  1.6704e+001  1.4664e-001 19096 113027,113157,113053
 1.0000e-001 113183  1.7724e+001  2.4465e+001 -2.7806e-001 19096 113053,113105,113079
 1.0000e-001 113451  4.4208e+000  1.4080e+001 -2.8575e+000 18642 113327,113379,113353
 1.0000e-001 113428  5.2638e+000  1.2832e+001  3.0400e-001 18642 113301,113379,113327
 1.0000e-001 113405  4.2983e+000  1.2247e+001  4.1191e-002 18642 113275,113379,113301
 1.0000e-001 113699  7.0230e+000  1.7091e+001  3.3707e-001 18138 113474,113552,113526
 1.0000e-001 113676  6.2025e+000  1.6125e+001  7.0422e-001 18138 113474,113578,113552
 1.0000e-001 113653  6.8142e+000  1.7742e+001  3.9813e-001 18138 113474,113604,113578
 1.0000e-001 113630  4.7366e+000  1.6215e+001 -9.4587e-001 18138 113474,113526,113500
 1.0000e-001 113851  8.7996e+000  1.9121e+001  4.4329e-001 17682 113750,113802,113776
 1.0000e-001 113828  7.0806e+000  1.8970e+001  3.8757e-001 17682 113724,113802,113750
 1.0000e-001 114383  7.9464e+000  1.1643e+001  5.7615e-001 17106 114086,114242,114164
 1.0000e-001 114360  9.2308e+000  1.2230e+001  9.9128e-001 17106 114060,114242,114086
 1.0000e-001 114337  9.6295e+000  1.3938e+001 -1.8910e-001 17106 114086,114164,114138
 1.0000e-001 114314  5.7589e+000  1.8147e+001  1.7075e+000 17106 114190,114242,114216
 1.0000e-001 114291  8.9424e+000  1.4835e+001  7.5881e-001 17106 114164,114242,114190
 1.0000e-001 114268  1.0189e+001  1.5862e+001 -2.0948e-001 17106 114086,114138,114112
 1.0000e-001 114680  5.9638e+000  1.4106e+001  5.6138e-001 16766 114703,114432,114406
 1.0000e-001 114657  5.7410e+000  1.4778e+001  2.4945e-001 16766 114703,114406,114510
 1.0000e-001 114634  5.5518e+000  1.4495e+001  3.4144e-001 16766 114406,114536,114510
 1.0000e-001 114611  6.8527e+000  1.4681e+001  6.1613e-001 16766 114432,114484,114458
 1.0000e-001 114588  2.7423e+000  1.4403e+001 -2.3693e+000 16766 114406,114562,114536
 1.0000e-001 114729  6.9555e+000  1.4712e+001  2.9675e-001 16766 114484,114432,114703
 1.0000e-001 114752  5.9838e+000  1.4958e+001  1.7070e-001 16766 114484,114703,114510
 1.0000e-001 114902  4.8278e+000  1.3009e+001  4.0771e-001 16362 114775,114827,114801
 1.0000e-001 114879  3.1191e+000  1.3051e+001  6.0221e-001 16362 114775,114853,114827
 1.0000e-001 115054  5.6602e+000  1.4224e+001 -8.6286e-001 15908 114953,115005,114979
 1.0000e-001 115031  8.3424e+000  2.0332e+001  4.5726e-001 15908 114927,115005,114953
 1.0000e-001 115326  9.4088e+000  2.1907e+001 -9.2266e-001 15251 115101,115179,115153
 1.0000e-001 115303  8.8501e+000  2.1235e+001  7.3184e-001 15251 115101,115231,115179
 1.0000e-001 115280  8.8517e+000  2.1222e+001  7.2466e-001 15251 115179,115231,115205
 1.0000e-001 115257  8.7591e+000  2.7670e+001 -2.5140e+000 15251 115101,115153,115127
 1.0000e-001 115429  8.2077e+000  1.5118e+001 -8.4151e-001 421 115351,115403,115377
 2.0000e-001 66230 -4.9112e+000  5.2869e+000  1.4935e+000 65954 66152,66204,66178
 2.0000e-001 66429 -3.0829e-001  1.2586e+001  1.2353e+000 65642 66279,66331,66305
 2.0000e-001 66406 -7.2593e-001  1.1658e+001  1.3298e+000 65642 66279,66357,66331
 2.0000e-001 66383  3.6751e+000  1.0943e+001  1.0014e+000 65642 66253,66357,66279
 2.0000e-001 66628 -1.0348e+000  2.1165e+001  1.0425e-002 65444 66452,66530,66478
 2.0000e-001 66605 -2.1484e-002  1.9270e+001 -6.5248e-001 65444 66452,66556,66530
 2.0000e-001 66582 -7.0560e+000  2.0144e+001  1.7010e+000 65444 66478,66530,66504
 2.0000e-001 67006  1.1442e+000  1.1343e+001  1.5384e+000 65246 66732,66810,66758
 2.0000e-001 66983  3.3770e+000  1.1989e+001  2.0673e+000 65246 66732,66836,66810
 2.0000e-001 66960  1.6098e+000  1.0293e+001  1.3071e-001 65246 66732,66862,66836
 2.0000e-001 66937  3.2420e+000  1.8639e+001  1.4226e+000 65246 66758,66810,66784
 2.0000e-001 66914 -1.0038e+000  1.2302e+001  3.2100e+000 65246 66732,66888,66862
 2.0000e-001 67107 -4.5803e+000  5.1476e+000  1.6387e+000 64934 67029,67081,67055
 2.0000e-001 67306 -7.2952e+000  1.7382e+001  1.6681e-001 64736 67156,67208,67182
 2.0000e-001 67283 -2.9088e-001  2.0215e+001 -1.6287e+000 64736 67130,67208,67156
 2.0000e-001 67260  4.2820e+000  1.9058e+001  7.9440e-001 64736 67130,67234,67208
 2.0000e-001 67507 -6.6142e+000  1.6210e+001  8.8969e-001 64389 67357,67409,67383
 2.0000e-001 67484 -2.0214e+000  1.5877e+001  2.8725e+000 64389 67357,67435,67409
 2.0000e-001 67461 -4.0569e-001  1.7976e+001  2.0590e+000 64389 67331,67435,67357
 2.0000e-001 67708  2.0370e+000  7.7455e+000 -1.2453e-001 63985 67731,67584,67558
 2.0000e-001 67685 -2.7078e-001  7.0478e+000  4.2704e-001 63985 67731,67558,67636
 2.0000e-001 67662 -2.4667e+000  8.7701e+000  3.2959e+000 63985 67532,67636,67558
 2.0000e-001 67757  3.0679e-001  8.8207e+000 -9.2035e-001 63985 67610,67584,67731
 2.0000e-001 67780 -1.6635e+000  8.3704e+000 -6.4111e-001 63985 67610,67731,67636
 2.0000e-001 67981 -2.3828e-001  6.5427e+000  6.7003e-001 63787 67857,67909,67883
 2.0000e-001 67958  4.8014e-001  8.9283e+000 -4.3046e-001 63787 67831,67909,67857
 2.0000e-001 67935  2.6504e+000  8.7801e+000  1.1738e+000 63787 67805,67909,67831
 2.0000e-001 68231  1.7352e+000  5.9675e+000  2.2632e+000 63589 68254,68084,68032
 2.0000e-001 68208  1.8781e+000  8.7638e+000  2.3176e+000 63589 68254,68032,68006
 2.0000e-001 68185 -1.1509e-001  6.9417e+000 -2.0613e-001 63589 68326,68136,68110
 2.0000e-001 68162 -8.0568e-002  4.8452e+000  3.3886e+000 63589 68032,68084,68058
 2.0000e-001 68280  4.5491e+000  7.8721e+000  8.9771e-001 63589 68110,68084,68254
 2.0000e-001 68303  7.6165e-001  7.3567e+000  6.8719e-001 63589 68326,68110,68254
 2.0000e-001 68352  2.6614e-001  8.8318e+000  1.4253e+000 63589 68006,68136,68326
 2.0000e-001 68375  1.3415e+000  8.9134e+000  2.3082e+000 63589 68006,68326,68254
 2.0000e-001 68836 -1.8526e+000  7.3782e+000  6.7631e-001 63128 68859,68588,68562
 2.0000e-001 68813  8.4912e-001  9.0051e+000 -9.4125e-002 63128 68859,68562,68692
 2.0000e-001 68790  2.9092e+000  6.3439e+000  1.4709e+000 63128 68614,68692,68666
 2.0000e-001 68767  4.2095e+000  5.2889e+000 -5.3202e-001 63128 68562,68718,68692
 2.0000e-001 68744  3.1789e+000  6.4869e+000 -1.1066e+000 63128 68614,68666,68640
 2.0000e-001 68885 -2.4923e+000  6.1338e+000  3.3798e+000 63128 68614,68588,68859
 2.0000e-001 68908  4.1248e-002  7.8433e+000  2.5739e+000 63128 68614,68859,68692
 2.0000e-001 69237 -1.9537e-001  8.6064e+000 -4.2027e-001 62731 69064,69116,69090
 2.0000e-001 69214  6.3215e-001  1.0185e+001  3.8625e-002 62731 69064,69142,69116
 2.0000e-001 69191  1.9067e+000  1.5605e+001  1.7894e-001 62731 69038,69142,69064
 2.0000e-001 69168 -7.6551e-001  1.3451e+001 -8.8657e-001 62731 69012,69142,69038
 2.0000e-001 69539  8.2113e-001  7.3106e+000 -2.4612e-001 62433 69389,69467,69441
 2.0000e-001 69516  6.8457e-001  3.1669e+000  6.5971e-001 62433 69363,69467,69389
 2.0000e-001 69493 -1.3285e+000  2.0866e-001  6.4781e-001 62433 69389,69441,69415
 2.0000e-001 69966 -4.6798e+000  1.3941e+001  3.9475e-001 62235 69989,69773,69721
 2.0000e-001 69943  3.6170e+000  1.6064e+001 -6.9290e-002 62235 70061,69989,69721
 2.0000e-001 69920  5.5762e+000  1.5630e+001  1.1510e+000 62235 70061,69721,69643
 2.0000e-001 69897 -2.7524e+000  1.8037e+001 -9.1327e-001 62235 69721,69773,69747
 2.0000e-001 69874  8.1681e+000  2.8865e+001  4.9918e+000 62235 69643,69721,69695
 2.0000e-001 69851 -1.9534e+000  1.3142e+001  2.4303e-002 62235 69643,69695,69669
 2.0000e-001 70015 -8.1517e+000  1.3410e+001  6.6101e+000 62235 69799,69773,69989
 2.0000e-001 70038  1.7626e+000  1.7037e+001  4.7580e+000 62235 69799,69989,69825
 2.0000e-001 70087 -2.3604e-001  1.6618e+001  5.3865e-001 62235 69825,69989,70061
 2.0000e-001 70110  2.7785e+000  1.6767e+001  1.1697e+000 62235 69825,70061,69643
 2.0000e-001 70260 -5.7696e-001  1.4411e+001 -5.1128e+000 62037 70133,70185,70159
 2.0000e-001 70237  1.7320e+000  1.8696e+001 -4.2180e+000 62037 70133,70211,70185
 2.0000e-001 70640 -4.5285e+000  2.7395e+000 -3.3730e+000 61583 70735,70663,70418
 2.0000e-001 70617 -2.9093e-001  1.1723e+001 -1.0746e+000 61583 70663,70366,70522
 2.0000e-001 70594 -5.1647e+000  8.7799e-001 -3.2025e+000 61583 70735,70418,70392
 2.0000e-001 70571 -5.6329e+000  1.0799e+000 -3.0352e+000 61583 70418,70496,70444
 2.0000e-001 70548 -1.2424e+001  6.7661e+000 -4.0017e+000 61583 70444,70496,70470
 2.0000e-001 70689 -1.7432e+000  2.6804e+000 -2.5327e+000 61583 70496,70418,70663
 2.0000e-001 70712 -1.7619e+000  2.4711e+000 -2.5128e+000 61583 70496,70663,70522
 2.0000e-001 70761 -4.3943e+000  2.0437e+000 -8.5235e-001 61583 70366,70663,70735
 2.0000e-001 70784 -4.7757e+000  3.2378e-001 -8.2406e-001 61583 70366,70735,70392
 2.0000e-001 71054  1.0547e+000  1.0793e+001 -4.0457e+000 61313 71077,70881,70855
 2.0000e-001 71031  4.0922e-002  7.2259e+000 -3.5488e+000 61313 71077,70855,70829
 2.0000e-001 71008  2.0497e+000  6.4892e+000 -1.8585e+000 61313 70829,70959,70933
 2.0000e-001 70985 -4.9284e+000  9.5322e+000  1.6431e+000 61313 70881,70933,70907
 2.0000e-001 71103  6.0225e-001  8.7249e+000 -2.1722e+000 61313 70933,70881,71077
 2.0000e-001 71126  4.8395e-001  6.5882e+000 -1.6645e+000 61313 70933,71077,70829
 2.0000e-001 71604 -5.7485e-001  4.0131e+000  2.4248e-001 60909 71627,71232,71414
 2.0000e-001 71581 -1.4620e+000  8.0510e+000 -4.4451e+000 60909 71232,71440,71414
 2.0000e-001 71558 -7.1903e-001  3.9019e+000  1.8468e-001 60909 71627,71414,71336
 2.0000e-001 71535  1.7059e+000  4.5263e+000  2.0212e+000 60909 71362,71414,71388
 2.0000e-001 71512 -9.6234e-001  4.7999e+000  1.4810e+000 60909 71336,71414,71362
 2.0000e-001 71489  2.0696e+000  6.4161e+000 -2.4080e+000 60909 71258,71336,71310
 2.0000e-001 71466  5.8798e+000  3.2425e+000  7.5503e-001 60909 71258,71310,71284
 2.0000e-001 71653 -5.0201e-001  3.8726e+000  1.7338e-001 60909 71258,71232,71627
 2.0000e-001 71676 -5.9083e-001  3.8232e+000  1.4938e-001 60909 71258,71627,71336
 2.0000e-001 71875  5.0362e+000  1.7741e+001  5.3842e-001 60611 71898,71725,71699
 2.0000e-001 71852  6.9456e+000  1.5232e+001 -1.5578e+000 60611 71898,71699,71803
 2.0000e-001 71829  4.4321e+000  1.2269e+001 -4.9987e-001 60611 71970,71751,71725
 2.0000e-001 71924  5.2344e+000  1.4092e+001 -3.7504e-001 60611 71970,71725,71898
 2.0000e-001 71947  3.7202e+000  7.4610e+000 -7.7719e-001 60611 71777,71898,71803
 2.0000e-001 71996  4.2129e+000  1.4389e+001 -1.0082e+000 60611 71777,71751,71970
 2.0000e-001 72019  4.5058e+000  1.5044e+001 -1.1063e+000 60611 71777,71970,71898
 2.0000e-001 72576  6.8571e+000  1.7251e+001  1.0478e+000 60142 72599,72256,72230
 2.0000e-001 72553  7.3050e+000  1.1430e+001 -1.3275e+000 60142 72671,72599,72230
 2.0000e-001 72530  4.4958e+000  7.4469e+000  9.6227e-001 60142 72671,72230,72204
 2.0000e-001 72507  4.4345e+000  3.1003e+001 -2.2794e+000 60142 72743,72360,72334
 2.0000e-001 72484  1.1685e+001  2.0542e+001 -3.1810e+000 60142 72815,72282,72256
 2.0000e-001 72461 -2.3706e-001  2.0180e+001  1.0014e+000 60142 72887,72308,72282
 2.0000e-001 72438  8.4273e+000  6.4240e+000 -2.3654e+000 60142 72204,72412,72386
 2.0000e-001 72625  8.1010e+000  1.8687e+001  1.1650e-001 60142 72815,72256,72599
 2.0000e-001 72648  8.5253e+000  2.5200e+001 -3.1613e+000 60142 72743,72334,72599
 2.0000e-001 72697  5.2206e+000  1.4235e+001 -2.2175e+000 60142 72386,72599,72671
 2.0000e-001 72720  5.6524e+000  1.2105e+001 -1.0255e+000 60142 72386,72671,72204
 2.0000e-001 72769  4.3376e+000  2.4834e+001  6.3848e+000 60142 72386,72360,72743
 2.0000e-001 72792  8.1212e+000  1.5821e+001  1.2522e+000 60142 72386,72743,72599
 2.0000e-001 72841  5.4141e+000  2.2341e+001 -1.4706e+000 60142 72887,72282,72815
 2.0000e-001 72864  7.1534e+000  1.9081e+001  2.7788e-001 60142 72334,72815,72599
 2.0000e-001 72913  6.6202e+000  1.6083e+001  2.9826e+000 60142 72334,72308,72887
 2.0000e-001 72936  7.9709e+000  1.6573e+001  1.2630e+000 60142 72334,72887,72815
 2.0000e-001 73491  1.2136e+000  7.3388e+000  9.2602e-001 59738 73145,73327,73171
 2.0000e-001 73468  7.9632e+000  7.6527e+000  3.1673e+000 59738 73119,73327,73145
 2.0000e-001 73445  1.7770e+000  3.7332e+000 -1.5378e+000 59738 73171,73327,73301
 2.0000e-001 73422 -9.6615e-002  8.7524e+000 -7.6747e-002 59738 73514,73275,73249
 2.0000e-001 73399  5.6342e-001  9.5199e+000 -3.7322e-001 59738 73586,73514,73249
 2.0000e-001 73376  3.9137e+000  1.0128e+001 -2.3387e+000 59738 73197,73249,73223
 2.0000e-001 73353 -3.2352e+000  8.9324e+000 -2.9793e+000 59738 73586,73249,73197
 2.0000e-001 73540 -2.5556e-001  9.5199e+000  2.0570e-001 59738 73301,73275,73514
 2.0000e-001 73563  1.6763e+000  7.6700e+000 -1.8788e+000 59738 73301,73514,73171
 2.0000e-001 73612 -2.8211e+000  4.8035e+000 -3.3644e+000 59738 73171,73514,73586
 2.0000e-001 73635 -4.2323e+000  6.0218e+000 -5.7426e+000 59738 73171,73586,73197
 2.0000e-001 73964 -1.8020e+000  1.6492e+000 -3.5248e+000 59334 73791,73843,73817
 2.0000e-001 73941 -9.6874e-001 -1.7615e+000 -5.1900e+000 59334 73791,73869,73843
 2.0000e-001 73918  3.1957e-003 -2.8383e-001 -2.8768e+000 59334 73739,73869,73791
 2.0000e-001 73895 -1.9962e+000 -1.4507e+000 -2.2868e+000 59334 73739,73791,73765
 2.0000e-001 74261 -5.0759e-001  1.1051e+001  9.9725e-002 58630 74065,74117,74091
 2.0000e-001 74238  1.2216e+000  5.5337e+000 -2.1203e+000 58630 74356,74284,74065
 2.0000e-001 74215 -1.8241e+000 -8.6192e-001 -1.6787e+000 58630 74284,74013,73987
 2.0000e-001 74192  1.3891e+000  6.7937e+000 -3.4258e+000 58630 74356,74065,74039
 2.0000e-001 74169 -4.5723e+000  4.5783e+000  4.6006e+000 58630 73987,74143,74117
 2.0000e-001 74310 -1.4895e+000  7.3974e+000 -3.4246e+000 58630 74117,74065,74284
 2.0000e-001 74333 -6.1873e+000  4.7225e+000 -2.1797e+000 58630 74117,74284,73987
 2.0000e-001 74382  3.5969e+000  4.8992e+000 -3.9928e+000 58630 74013,74284,74356
 2.0000e-001 74405  3.9654e+000  6.4604e+000 -5.3277e+000 58630 74013,74356,74039
 2.0000e-001 74815  5.9107e+000  1.1437e+000 -4.8794e-001 58226 74590,74642,74616
 2.0000e-001 74792  5.5798e+000  3.1547e+000  1.3595e-001 58226 74590,74694,74642
 2.0000e-001 74769  9.4896e+000  2.0931e+000  7.3974e-001 58226 74590,74720,74694
 2.0000e-001 74746  8.8381e+000  5.2967e+000  1.4653e+000 58226 74642,74694,74668
 2.0000e-001 75014  9.3703e+000  9.4955e+000 -3.2699e+000 57786 75037,74864,74838
 2.0000e-001 74991  3.1257e+000  7.2374e+000  1.6542e+000 57786 75037,74838,74916
 2.0000e-001 74968  3.9636e+000  5.9317e+000  4.4956e+000 57786 74838,74942,74916
 2.0000e-001 75063  5.9895e-001  1.4510e+001 -2.9365e+000 57786 74890,74864,75037
 2.0000e-001 75086 -5.1419e+000  1.2028e+001  2.4299e+000 57786 74890,75037,74916
 2.0000e-001 75368  3.4216e+000  1.1001e+001  1.0224e+000 57496 75192,75270,75218
 2.0000e-001 75345  6.5469e+000  1.1165e+001 -7.5594e-001 57496 75192,75296,75270
 2.0000e-001 75322  7.8287e+000  1.7677e+001  3.0020e+000 57496 75218,75270,75244
 2.0000e-001 75648  1.3260e+001  1.3923e+001 -2.6331e+000 57206 75472,75550,75498
 2.0000e-001 75625  1.0935e+001  1.6323e+001 -8.1248e-001 57206 75472,75576,75550
 2.0000e-001 75602  9.8763e+000  8.4716e+000 -2.3867e-001 57206 75671,75550,75524
 2.0000e-001 75697  8.1461e+000  1.1562e+001  1.7503e-001 57206 75498,75550,75671
 2.0000e-001 76154  8.8206e+000  2.2950e+001  3.8236e+000 56802 75958,76010,75984
 2.0000e-001 76131  4.9673e+000  1.9218e+001  5.7964e+000 56802 75932,76010,75958
 2.0000e-001 76108  6.5839e+000  2.5261e+001  4.8173e+000 56802 75906,76010,75932
 2.0000e-001 76085  6.3113e+000  2.3078e+001  4.5545e+000 56802 75880,76010,75906
 2.0000e-001 76062  3.2575e+000  2.3174e+001  8.4402e+000 56802 75880,76036,76010
 2.0000e-001 76505  2.8918e+000  2.8681e+001 -6.3436e-001 56504 76306,76384,76332
 2.0000e-001 76482  8.4597e+000  2.0637e+001  2.5171e+000 56504 76306,76410,76384
 2.0000e-001 76459  7.7651e+000  2.2713e+001 -7.6805e+000 56504 76332,76384,76358
 2.0000e-001 76436 -7.5665e+000  8.3742e+000 -4.1394e+000 56504 76280,76410,76306
 2.0000e-001 77011 -1.4665e+000  8.2259e+000  1.4167e+000 56050 76740,76818,76792
 2.0000e-001 76988  4.2221e+000  1.1138e+001 -3.6947e-001 56050 76714,76818,76740
 2.0000e-001 76965  2.3357e+000  8.8021e+000  4.6593e-001 56050 76688,76818,76714
 2.0000e-001 76942  2.5794e+000  1.2889e+001 -1.0028e+000 56050 76688,76844,76818
 2.0000e-001 76919  8.4352e+000  1.5656e+001 -2.1767e+000 56050 76740,76792,76766
 2.0000e-001 76896 -6.5765e-001  1.3793e+001  2.9714e+000 56050 76688,76870,76844
 2.0000e-001 77517  1.0461e+000  1.2123e+001  8.7936e-002 55738 77220,77350,77324
 2.0000e-001 77494 -2.7625e+000  9.7280e+000 -9.7854e-001 55738 77220,77376,77350
 2.0000e-001 77471 -2.9821e+000  1.4475e+001 -2.6883e+000 55738 77194,77376,77220
 2.0000e-001 77448 -2.5314e+000  8.4456e+000  2.9732e-001 55738 77220,77298,77246
 2.0000e-001 77425 -5.3764e+000  7.4867e+000  2.4703e+000 55738 77220,77324,77298
 2.0000e-001 77402 -4.7711e-001  9.2510e+000 -3.9177e-001 55738 77246,77298,77272
 2.0000e-001 78064  5.6740e+000  2.5443e+001 -1.2591e+000 55227 78231,78087,77773
 2.0000e-001 78041  1.8944e+000  2.5819e+001  2.5787e+000 55227 78087,77695,77643
 2.0000e-001 78018  7.2846e+000  3.4237e+001 -4.7453e+000 55227 78159,77799,77773
 2.0000e-001 77995  5.2474e+000  2.3772e+001 -1.1079e+000 55227 78231,77773,77721
 2.0000e-001 77972  7.2649e+000  1.3930e+001 -1.7911e-001 55227 77643,77695,77669
 2.0000e-001 77949 -1.7292e+000  2.4508e+001  8.4065e-001 55227 77643,77877,77851
 2.0000e-001 77926  8.1353e+000  4.0751e+001 -1.1759e+001 55227 77799,77851,77825
 2.0000e-001 77903  4.3969e+000  2.0485e+001  8.7496e-001 55227 77721,77773,77747
 2.0000e-001 78113  7.8424e+000  3.1326e+001 -4.4671e+000 55227 78159,77773,78087
 2.0000e-001 78136  3.1372e+000  2.8922e+001 -1.1128e+000 55227 77851,78087,77643
 2.0000e-001 78185  6.7626e+000  2.9885e+001 -3.2350e+000 55227 77851,77799,78159
 2.0000e-001 78208  7.7419e+000  2.7526e+001 -2.9546e+000 55227 77851,78159,78087
 2.0000e-001 78257  4.0072e+000  2.8835e+001 -2.1717e-001 55227 77695,78087,78231
 2.0000e-001 78280  3.0447e+000  2.6416e+001  2.6599e-001 55227 77695,78231,77721
 2.0000e-001 78737  8.2423e+000  1.1023e+001  4.1710e+000 54773 78463,78541,78515
 2.0000e-001 78714  1.0356e+001  1.9605e+001  1.3226e+000 54773 78463,78619,78541
 2.0000e-001 78691  7.9004e+000  1.1499e+001  7.6070e+000 54773 78463,78515,78489
 2.0000e-001 78668  1.3508e+001  9.7856e+000  2.2687e+000 54773 78541,78593,78567
 2.0000e-001 78645  6.5055e+000  1.2357e+001  3.3622e+000 54773 78541,78619,78593
 2.0000e-001 78838  5.5050e+000  2.8951e+001  1.1100e+000 54211 78760,78812,78786
 2.0000e-001 79297  7.9979e+000  1.9669e+001 -9.1385e-001 53814 79520,79153,79049
 2.0000e-001 79274  4.5118e+000  1.4765e+001  3.5050e+000 53814 79520,79049,79023
 2.0000e-001 79251  1.0699e+001  3.0714e+001 -1.0155e+000 53814 79320,79101,79049
 2.0000e-001 79228  7.0155e+000  2.2106e+001 -9.5063e-001 53814 79320,79049,79153
 2.0000e-001 79205  2.8433e+000  3.1124e+001 -2.3926e+000 53814 79049,79101,79075
 2.0000e-001 79346  7.8467e+000  2.1451e+001  3.8510e+000 53814 79392,79320,79127
 2.0000e-001 79369  7.6107e+000  2.2057e+001  4.0158e+000 53814 79127,79320,79153
 2.0000e-001 79418  1.2504e+001  3.1135e+001  6.5464e+000 53814 79101,79320,79392
 2.0000e-001 79546  1.3466e+001  3.0190e+001 -9.7568e+000 53814 79179,79153,79520
 2.0000e-001 79569 -2.6933e+000  1.9520e+001 -3.2796e+000 53814 79179,79520,79023
 2.0000e-001 80075 -3.6534e+000  5.1563e+000 -4.4743e+000 53039 80098,79908,79830
 2.0000e-001 80052 -5.0426e+000  4.1367e+000 -7.4209e+000 53039 80098,79830,79804
 2.0000e-001 80029 -3.0387e+000  8.0948e+000 -4.7506e+000 53039 79752,79934,79804
 2.0000e-001 80006  6.1236e+000  6.0301e+000 -3.1143e+000 53039 79856,79908,79882
 2.0000e-001 79983  3.0205e+000  7.9019e+000 -2.3185e+000 53039 79830,79908,79856
 2.0000e-001 79960  8.7597e-001  1.4556e+001 -2.9061e+000 53039 79752,79804,79778
 2.0000e-001 80124  1.0846e+000  8.3388e+000 -2.4065e+000 53039 79934,79908,80098
 2.0000e-001 80147 -3.0854e+000  5.6133e+000 -5.6497e+000 53039 79934,80098,79804
 2.0000e-001 80555  1.9844e+000  1.7634e+001  4.0653e+000 52699 80356,80434,80408
 2.0000e-001 80532 -4.0007e+000  1.1369e+001  6.5152e+000 52699 80356,80460,80434
 2.0000e-001 80509 -1.5236e+001  7.9031e+000  6.4447e+000 52699 80330,80460,80356
 2.0000e-001 80486 -2.1091e-001  1.5757e+001  5.9004e+000 52699 80356,80408,80382
 2.0000e-001 80776  3.8588e+000  1.3213e+001  2.0018e-001 52295 80600,80678,80626
 2.0000e-001 80753 -2.5813e+000  9.2279e+000  1.9622e+000 52295 80600,80704,80678
 2.0000e-001 80730  9.5770e-001  1.2108e+001  7.5753e-001 52295 80626,80678,80652
 2.0000e-001 81156  1.1680e+001  8.7354e+000  2.7240e-003 51891 81179,80960,80908
 2.0000e-001 81133  1.1379e+001  8.4654e+000  1.7139e+000 51891 81179,80908,81012
 2.0000e-001 81110  7.6031e+000  1.0275e+001  7.5925e-001 51891 80882,81012,80908
 2.0000e-001 81087  1.5159e+001  7.1588e+000  4.3280e-001 51891 80908,80960,80934
 2.0000e-001 81064  1.1001e+001  1.3843e+001 -3.3230e+000 51891 80882,81038,81012
 2.0000e-001 81205  9.5881e+000  7.8479e+000 -6.5729e-002 51891 80986,80960,81179
 2.0000e-001 81228  1.0663e+001  8.1606e+000  1.7094e+000 51891 80986,81179,81012
 2.0000e-001 81606  4.1182e+000  2.6330e+001  4.2799e+000 51544 81410,81462,81436
 2.0000e-001 81583  3.9734e+000  2.1041e+001  9.3787e-001 51544 81384,81462,81410
 2.0000e-001 81560 -5.1607e+000  1.2174e+001 -2.7364e+000 51544 81358,81462,81384
 2.0000e-001 81537  5.4611e-001  1.3794e+001 -1.4165e+000 51544 81358,81488,81462
 2.0000e-001 81514 -2.1678e+000  1.1664e+001 -2.6741e+000 51544 81332,81488,81358
 2.0000e-001 81854  1.4042e+001  7.2574e+000  4.9985e+000 51004 81877,81655,81629
 2.0000e-001 81831  1.2902e+001  7.7002e+000  5.1336e+000 51004 81877,81629,81759
 2.0000e-001 81808  8.5129e+000  8.3844e+000  6.1814e+000 51004 81655,81707,81681
 2.0000e-001 81785  1.0146e+001  9.5657e-001  3.8986e+000 51004 81707,81759,81733
 2.0000e-001 81903  1.3024e+001  7.5445e+000  4.5407e+000 51004 81707,81655,81877
 2.0000e-001 81926  1.1233e+001  7.2841e+000  4.3601e+000 51004 81707,81877,81759
 2.0000e-001 82257  2.5958e+000  1.3625e+001 -4.2238e-001 50642 82058,82136,82110
 2.0000e-001 82234  1.6476e+000  1.1510e+001  3.0634e-001 50642 82058,82162,82136
 2.0000e-001 82211  5.3652e+000  1.7529e+001 -4.2342e+000 50642 82058,82110,82084
 2.0000e-001 82188 -1.0924e-001  1.0765e+001  2.1975e-001 50642 82032,82162,82058
 2.0000e-001 82684  1.5464e+000  1.5322e+001  2.3362e-001 49931 82779,82707,82465
 2.0000e-001 82661  3.4101e+000  1.8382e+001 -1.5134e+000 49931 82707,82413,82361
 2.0000e-001 82638  8.7887e-001  1.3878e+001  3.3092e+000 49931 82779,82465,82439
 2.0000e-001 82615  5.9801e+000  2.0868e+001 -2.6594e+000 49931 82465,82543,82491
 2.0000e-001 82592  2.9934e+000  1.9760e+001 -2.7736e+000 49931 82361,82413,82387
 2.0000e-001 82569  2.6958e+000  1.6029e+001 -1.2036e+000 49931 82491,82543,82517
 2.0000e-001 82733  4.4987e+000  1.7316e+001 -7.3455e-001 49931 82543,82465,82707
 2.0000e-001 82756  2.8190e+000  1.6195e+001 -1.3183e+000 49931 82543,82707,82361
 2.0000e-001 82805  3.1722e+000  1.9495e+001 -7.7540e-001 49931 82413,82707,82779
 2.0000e-001 82828  2.9154e+000  1.7866e+001  2.0916e+000 49931 82413,82779,82439
 2.0000e-001 83255  2.6294e+000  1.7420e+001  5.2538e+000 49327 82984,83114,83036
 2.0000e-001 83232  3.2565e+000  1.8958e+001  4.5151e+000 49327 82958,83114,82984
 2.0000e-001 83209  1.0806e+001  1.3798e+001  5.8863e+000 49327 83036,83114,83088
 2.0000e-001 83186  6.9825e-001  2.2755e+001  8.8609e+000 49327 82984,83036,83010
 2.0000e-001 83163  4.5220e+000  1.6108e+001  2.9621e+000 49327 82932,83114,82958
 2.0000e-001 83140  1.0928e+001  3.1464e+000  3.4879e+000 49327 83036,83088,83062
 2.0000e-001 83938  7.5714e+000  2.3148e+001  4.4636e-001 48965 83961,83673,83647
 2.0000e-001 83915  6.6250e+000  2.3122e+001  1.3528e+000 48965 83961,83647,83543
 2.0000e-001 83892  2.0647e+000  1.6811e+001 -5.0919e-001 48965 83517,83725,83543
 2.0000e-001 83869  3.7830e+000  1.5348e+001  1.5166e+000 48965 83673,83725,83699
 2.0000e-001 83846 -4.2963e+000  1.8765e+001  2.1913e+000 48965 83543,83647,83621
 2.0000e-001 83823 -2.1781e+000  2.2459e+001  1.2657e+000 48965 83543,83621,83569
 2.0000e-001 83800 -1.0958e+001  1.1223e+001 -8.8682e-001 48965 83517,83751,83725
 2.0000e-001 83777 -6.1882e+000  1.7504e+001 -6.9969e+000 48965 83569,83621,83595
 2.0000e-001 83987  5.9218e+000  2.2455e+001  4.2108e-001 48965 83725,83673,83961
 2.0000e-001 84010  6.0641e+000  2.2867e+001  1.2923e+000 48965 83725,83961,83543
 2.0000e-001 84258  1.5237e+001  1.1915e+001 -2.1866e+000 48447 84281,84059,84033
 2.0000e-001 84235  2.0670e+001  2.3236e+001  3.5617e+000 48447 84281,84033,84163
 2.0000e-001 84212  2.0002e+001  4.9985e+000 -6.3784e+000 48447 84059,84111,84085
 2.0000e-001 84189  8.0106e+000  2.4395e+001 -5.4885e+000 48447 84111,84163,84137
 2.0000e-001 84307  1.3604e+001  1.1080e+001 -8.1750e+000 48447 84111,84059,84281
 2.0000e-001 84330  1.3364e+001  1.6709e+001 -3.1736e+000 48447 84111,84281,84163
 2.0000e-001 84529  1.6168e+001  2.5185e+001 -3.6024e+000 47993 84552,84405,84379
 2.0000e-001 84506  1.5232e+001  2.4649e+001 -3.8448e+000 47993 84552,84379,84353
 2.0000e-001 84483  1.8301e+001  2.4538e+001 -8.6813e-001 47993 84624,84457,84431
 2.0000e-001 84578  1.6380e+001  2.5528e+001 -3.7042e+000 47993 84431,84405,84552
 2.0000e-001 84601  1.7907e+001  2.6813e+001 -2.3061e+000 47993 84624,84431,84552
 2.0000e-001 84650  1.7528e+001  2.3246e+001 -1.1895e+000 47993 84353,84457,84624
 2.0000e-001 84673  1.5598e+001  2.2541e+001 -3.1877e+000 47993 84353,84624,84552
 2.0000e-001 85104  5.9787e+000  2.1218e+001 -2.0380e+000 47588 85199,85127,84885
 2.0000e-001 85081  4.4749e+000  2.2448e+001 -2.1124e+000 47588 85127,84781,84963
 2.0000e-001 85058  3.8661e+000  2.1183e+001  3.1643e-001 47588 85199,84885,84807
 2.0000e-001 85035  9.8506e+000  1.8627e+001 -5.7730e+000 47588 84885,84937,84911
 2.0000e-001 85012  6.4223e+000  1.7122e+001  1.1125e+000 47588 84807,84885,84833
 2.0000e-001 84989  7.1406e+000  1.7431e+001  1.2177e+000 47588 84833,84885,84859
 2.0000e-001 85153  5.4810e+000  2.1748e+001 -2.6363e+000 47588 84937,84885,85127
 2.0000e-001 85176  4.1278e+000  2.1070e+001 -2.3919e+000 47588 84937,85127,84963
 2.0000e-001 85225  2.1272e+000  2.0171e+001 -1.1753e+000 47588 84781,85127,85199
 2.0000e-001 85248  5.3492e-001  1.9713e+001  1.4983e+000 47588 84781,85199,84807
 2.0000e-001 85518  3.8482e-001  1.8407e+001 -8.0463e-001 47226 85293,85397,85319
 2.0000e-001 85495  1.0788e+000  1.9123e+001 -1.2896e+000 47226 85293,85423,85397
 2.0000e-001 85472  4.7976e-001  1.8485e+001 -7.1260e-001 47226 85319,85397,85345
 2.0000e-001 85449 -1.2367e+000  1.4549e+001 -1.2627e+000 47226 85345,85397,85371
 2.0000e-001 85849 -6.8447e+000  1.1908e+001  6.1082e+000 46572 85624,85702,85650
 2.0000e-001 85826 -7.6729e-001  2.1877e+001  2.6344e+000 46572 85624,85754,85702
 2.0000e-001 85803  2.4300e+000  1.7474e+001  2.3989e+000 46572 85702,85754,85728
 2.0000e-001 85780 -3.5258e-001  1.6019e+001  2.0663e+000 46572 85650,85702,85676
 2.0000e-001 86070  2.0172e+001  7.1906e+001  5.8284e+000 46374 85920,85972,85946
 2.0000e-001 86047  7.0335e+000  3.9607e+001  2.2732e-002 46374 85920,85998,85972
 2.0000e-001 86024  2.4741e+000  3.5206e+001 -2.5050e+000 46374 85894,85998,85920
 2.0000e-001 86401  3.0513e+001  3.3281e+001 -2.4509e-001 46034 86424,86280,86228
 2.0000e-001 86378  2.8301e+001  3.7644e+001  7.9769e-001 46034 86424,86228,86176
 2.0000e-001 86355  2.7094e+001  3.4655e+001  8.1942e-001 46034 86176,86228,86202
 2.0000e-001 86332  3.1639e+001  3.3776e+001  6.8696e-001 46034 86228,86280,86254
 2.0000e-001 86450  3.2562e+001  3.7580e+001 -1.4267e+000 46034 86306,86280,86424
 2.0000e-001 86473  2.9171e+001  4.0532e+001  5.0037e-001 46034 86306,86424,86176
 2.0000e-001 87058  6.9424e+000  2.5073e+001 -3.2920e-001 45516 86813,86917,86865
 2.0000e-001 87035  1.0951e+001  3.5752e+001  6.5193e-001 45516 86787,86917,86813
 2.0000e-001 87012  8.3211e+000  3.9699e+001 -1.3546e+000 45516 86735,86917,86787
 2.0000e-001 86989  3.9154e+000  2.3599e+001  3.2656e-001 45516 86865,86917,86891
 2.0000e-001 86966  6.2756e+000  2.6901e+001 -2.2450e-001 45516 86813,86865,86839
 2.0000e-001 86943  7.2192e+000  5.1434e+001  4.2632e+000 45516 86735,86787,86761
 2.0000e-001 87208  9.6615e+000  3.5632e+001  7.0517e-001 45226 87231,87133,87107
 2.0000e-001 87185  2.2114e+000  2.3677e+001  5.3045e+000 45226 87081,87159,87133
 2.0000e-001 87257  1.4775e+000  2.1204e+001  4.4318e+000 45226 87081,87133,87231
 2.0000e-001 87537  8.8644e+000  3.2854e+001 -1.0218e-001 44772 87387,87439,87413
 2.0000e-001 87514  5.5660e+000  3.2332e+001 -1.5484e+000 44772 87361,87439,87387
 2.0000e-001 87491 -8.7044e-001  3.6815e+001 -8.0480e-001 44772 87361,87465,87439
 2.0000e-001 87996  5.3439e+000  1.6384e+001 -8.9246e-001 44425 87748,87878,87852
 2.0000e-001 87973 -3.4566e-001  1.3744e+001  2.9050e+000 44425 87722,87878,87748
 2.0000e-001 87950 -3.1309e+000  1.6829e+001  7.7795e-001 44425 87800,87852,87826
 2.0000e-001 87927  5.4588e+000  1.7884e+001 -1.3332e+000 44425 87748,87852,87800
 2.0000e-001 87904  5.3629e-001  2.1235e+001 -5.9768e+000 44425 87748,87800,87774
 2.0000e-001 88423  1.1146e+001  2.2786e+001  1.1944e+000 44078 88590,88230,88204
 2.0000e-001 88400  9.4514e+000  2.2707e+001  1.8523e+000 44078 88518,88446,88204
 2.0000e-001 88377  9.7934e+000  2.4020e+001 -7.7130e-001 44078 88446,88126,88282
 2.0000e-001 88354  9.4593e+000  2.2228e+001  2.1098e+000 44078 88518,88204,88178
 2.0000e-001 88331  6.2451e-001  2.8563e+001 -6.0798e+000 44078 88100,88282,88126
 2.0000e-001 88308  4.5633e+000  1.4108e+001  5.7124e+000 44078 88126,88178,88152
 2.0000e-001 88472  1.1083e+001  2.2825e+001  5.9918e-001 44078 88590,88204,88446
 2.0000e-001 88495  8.3785e+000  1.8450e+001 -1.8257e+000 44078 88256,88446,88282
 2.0000e-001 88544  9.2730e+000  2.3958e+001  1.7260e+000 44078 88126,88446,88518
 2.0000e-001 88567  8.9754e+000  2.3064e+001  1.9860e+000 44078 88126,88518,88178
 2.0000e-001 88616  1.6463e+001  2.2726e+001  3.2522e+000 44078 88256,88230,88590
 2.0000e-001 88639  1.2604e+001  2.3537e+001  3.5946e-001 44078 88256,88590,88446
 2.0000e-001 89039 -1.0221e+000  1.4913e+001  3.3128e-001 43716 88791,88921,88895
 2.0000e-001 89016 -2.7656e+000  1.8696e+001  7.8495e-001 43716 88765,88921,88791
 2.0000e-001 88993  1.8130e+000  1.7688e+001 -1.8905e+000 43716 88817,88895,88869
 2.0000e-001 88970  1.0369e+001  2.0362e+001 -1.2707e+000 43716 88791,88895,88817
 2.0000e-001 88947 -3.5624e+000  1.4920e+001 -9.1438e-001 43716 88817,88869,88843
 2.0000e-001 89496  9.0417e+000  4.8533e+001  6.7309e+000 43162 89519,89274,89248
 2.0000e-001 89473  6.7124e+000  3.9367e+001  4.6881e+000 43162 89519,89248,89222
 2.0000e-001 89450  1.4545e+001  3.5121e+001  9.5207e+000 43162 89326,89378,89352
 2.0000e-001 89427  1.0346e+001  3.9603e+001  4.4367e+000 43162 89274,89378,89326
 2.0000e-001 89404  1.3696e+001  3.9120e+001  4.9998e+000 43162 89274,89326,89300
 2.0000e-001 89545  1.0263e+001  3.9681e+001  4.0716e+000 43162 89378,89274,89519
 2.0000e-001 89568  7.2861e+000  2.9741e+001  1.8761e+000 43162 89378,89519,89222
 2.0000e-001 89946  3.6325e+000  2.0930e+001 -1.6565e+000 42594 90041,89969,89750
 2.0000e-001 89923 -1.1832e+000  1.3201e+001  1.6438e+000 42594 89969,89698,89828
 2.0000e-001 89900  4.7149e+000  2.1536e+001 -1.9229e+000 42594 90041,89750,89724
 2.0000e-001 89877  6.6967e+000  2.3282e+001 -2.5673e+000 42594 89750,89802,89776
 2.0000e-001 89854  1.8305e+000  9.0331e+000  3.8369e+000 42594 89672,89828,89698
 2.0000e-001 89995  4.1288e+000  1.6555e+001 -2.5779e+000 42594 89802,89750,89969
 2.0000e-001 90018  1.7212e+000  1.6174e+001 -2.2712e+000 42594 89802,89969,89828
 2.0000e-001 90067  5.3114e+000  1.5865e+001 -1.2797e+000 42594 89698,89969,90041
 2.0000e-001 90090  1.0199e+001  2.0507e+001 -3.1826e+000 42594 89698,90041,89724
 2.0000e-001 90517  5.9008e+000  2.9969e+001  6.6364e-001 42140 90540,90220,90194
 2.0000e-001 90494  9.4690e+000  4.5359e+001 -1.0339e+000 42140 90540,90194,90376
 2.0000e-001 90471  3.8967e+000  2.8974e+001  1.1105e-001 42140 90612,90350,90272
 2.0000e-001 90448  1.7247e+000  3.3144e+001 -9.3343e-001 42140 90272,90350,90298
 2.0000e-001 90425 -4.3578e-001  3.0121e+001  8.4790e-001 42140 90298,90350,90324
 2.0000e-001 90402  1.1824e+001  3.0297e+001  1.9888e+000 42140 90220,90272,90246
 2.0000e-001 90566  6.5683e+000  2.8235e+001  6.9111e-001 42140 90272,90220,90540
 2.0000e-001 90589  5.0438e+000  3.1734e+001  1.6237e+000 42140 90612,90272,90540
 2.0000e-001 90638  3.5703e+000  2.6416e+001 -1.6949e+000 42140 90376,90350,90612
 2.0000e-001 90661  2.6923e+000  2.8923e+001 -9.2914e-001 42140 90376,90612,90540
 2.0000e-001 91167  2.1554e+000  1.8235e+001  5.2808e+000 41636 91190,90870,90844
 2.0000e-001 91144  3.2514e+000  2.0203e+001  4.8057e+000 41636 91190,90844,91026
 2.0000e-001 91121 -8.1574e+000  1.8474e+001  1.3713e+001 41636 90870,90922,90896
 2.0000e-001 91098  1.0610e+000  1.0169e+001  4.6604e+000 41636 90922,91026,90948
 2.0000e-001 91075  6.3257e+000  1.2155e+001  4.4206e+000 41636 90948,91026,91000
 2.0000e-001 91052  5.6345e+000  5.0186e-001  1.9608e+000 41636 90948,91000,90974
 2.0000e-001 91216  3.2891e+000  1.7117e+001  5.3824e+000 41636 90922,90870,91190
 2.0000e-001 91239  3.6718e+000  1.7967e+001  5.0099e+000 41636 90922,91190,91026
 2.0000e-001 91696  4.6333e+000  1.3216e+001 -3.6839e+000 40449 91448,91526,91474
 2.0000e-001 91673  7.6944e+000  1.3304e+001 -1.3622e+000 40449 91448,91578,91526
 2.0000e-001 91650 -2.2743e+000  2.0263e+001 -7.3758e+000 40449 91474,91526,91500
 2.0000e-001 91627  1.1292e+001  1.1683e+001 -3.2217e+000 40449 91422,91578,91448
 2.0000e-001 91604  8.9684e+000  1.3085e+001 -1.5762e+000 40449 91526,91578,91552
 2.0000e-001 92123  2.7442e+000  1.6635e+001 -1.3055e+000 39995 92146,91904,91826
 2.0000e-001 92100 -7.5633e-001  1.5632e+001  2.0864e+000 39995 92146,91826,91800
 2.0000e-001 92077  3.9271e+000  1.7562e+001 -1.7092e+000 39995 91826,91904,91852
 2.0000e-001 92054  6.5347e+000  2.7583e+001 -2.3174e+000 39995 91904,91982,91930
 2.0000e-001 92031 -1.2588e+000  1.5822e+001 -6.5395e-001 39995 91852,91904,91878
 2.0000e-001 92008  3.2495e+000  1.9471e+001 -1.3031e+000 39995 91930,91982,91956
 2.0000e-001 92172  3.8181e+000  1.8131e+001 -1.8714e+000 39995 91982,91904,92146
 2.0000e-001 92195  2.6545e+000  2.1412e+001  6.7114e-001 39995 91982,92146,91800
 2.0000e-001 92652  9.1714e+000  1.9687e+001  1.0090e+000 39633 92404,92534,92456
 2.0000e-001 92629  4.8540e+000  1.4545e+001 -8.3774e-001 39633 92378,92534,92404
 2.0000e-001 92606 -1.6895e+000  1.4914e+001  1.2337e-002 39633 92404,92456,92430
 2.0000e-001 92583  9.1304e+000  1.4569e+001 -2.6462e-001 39633 92456,92534,92508
 2.0000e-001 92560  1.6008e+001  1.4787e+001  3.2684e+000 39633 92456,92508,92482
 2.0000e-001 93079  1.5095e+001  2.9010e+001 -1.8892e+000 39093 93102,92808,92756
 2.0000e-001 93056  1.6867e+001  3.3030e+001 -4.8179e+000 39093 93102,92756,92938
 2.0000e-001 93033  1.1802e+001  2.3276e+001  1.5400e+000 39093 93174,92912,92834
 2.0000e-001 93010  2.3398e+001  3.0098e+001  4.4514e+000 39093 92834,92912,92860
 2.0000e-001 92987  1.6273e+001  3.5095e+001 -1.2038e+000 39093 92756,92808,92782
 2.0000e-001 92964  2.6542e+001  4.4883e+001  1.1953e+001 39093 92860,92912,92886
 2.0000e-001 93128  1.6368e+001  2.9309e+001 -1.4524e+000 39093 92834,92808,93102
 2.0000e-001 93151  1.3114e+001  2.7299e+001 -2.4131e-001 39093 93174,92834,93102
 2.0000e-001 93200  1.3508e+001  2.5203e+001 -1.8703e+000 39093 92938,92912,93174
 2.0000e-001 93223  1.6154e+001  2.7711e+001 -3.7710e+000 39093 92938,93174,93102
 2.0000e-001 93680  3.3703e+000  2.3933e+001 -4.4747e+000 38639 93703,93536,93484
 2.0000e-001 93657  5.2031e+000  2.3101e+001 -4.9130e+000 38639 93703,93484,93432
 2.0000e-001 93634 -4.9337e+000  2.4427e+001 -1.0672e+001 38639 93432,93484,93458
 2.0000e-001 93611  3.1893e+000  2.3036e+001 -5.7873e+000 38639 93484,93536,93510
 2.0000e-001 93588  9.1875e+000  1.7977e+001 -3.2512e+000 38639 93406,93562,93432
 2.0000e-001 93729  4.9260e+000  2.3408e+001 -4.1692e+000 38639 93562,93536,93703
 2.0000e-001 93752  7.9246e+000  2.3603e+001 -5.0659e+000 38639 93562,93703,93432
 2.0000e-001 94160  1.6726e+001  1.9064e+001 -7.4088e-001 38292 93935,94039,93961
 2.0000e-001 94137  1.6881e+001  1.8924e+001 -1.0438e-001 38292 93935,94065,94039
 2.0000e-001 94114  2.3177e+001  1.6487e+001 -1.2121e-001 38292 93961,94013,93987
 2.0000e-001 94091  2.0040e+001  1.9994e+001 -1.9543e+000 38292 93961,94039,94013
 2.0000e-001 94408  1.8332e+000  1.5950e+001 -1.7373e+000 37880 94431,94261,94235
 2.0000e-001 94385  1.0658e+000  1.6944e+001 -2.0949e+000 37880 94431,94235,94313
 2.0000e-001 94362 -8.6728e-001  1.6626e+001  4.2354e-001 37880 94209,94313,94235
 2.0000e-001 94339 -2.6968e-001  2.2127e+001 -6.3992e+000 37880 94183,94313,94209
 2.0000e-001 94457  3.3579e+000  1.6613e+001 -2.0931e+000 37880 94287,94261,94431
 2.0000e-001 94480  1.7174e+000  1.6907e+001 -2.1712e+000 37880 94287,94431,94313
 2.0000e-001 94728 -6.2979e-001  1.6130e+001  7.5919e-001 37426 94529,94607,94555
 2.0000e-001 94705  1.8097e+000  2.2558e+001 -2.0292e-001 37426 94529,94633,94607
 2.0000e-001 94682 -8.2798e+000  2.2475e+001 -2.5739e-001 37426 94503,94633,94529
 2.0000e-001 94659  3.2462e+000  7.6148e+000  5.2601e+000 37426 94555,94607,94581
 2.0000e-001 95257  1.0978e+001  3.6535e+001  5.6384e+000 36722 95496,95280,94862
 2.0000e-001 95234  1.7341e+001  3.8000e+001 -3.0001e+000 36722 95496,94862,94836
 2.0000e-001 95211  4.6456e+000  2.2984e+001  4.3959e+000 36722 95352,95280,95070
 2.0000e-001 95188  5.4341e+000  2.5193e+001  4.3839e+000 36722 95352,95070,95044
 2.0000e-001 95165  1.8021e+001  2.8430e-001  1.1862e+001 36722 95424,94888,94862
 2.0000e-001 95142  1.1136e+001  2.0530e+001  6.0481e-001 36722 94914,94966,94940
 2.0000e-001 95119  8.4511e+000  4.6949e+001 -1.4761e+001 36722 94966,95044,95018
 2.0000e-001 95096  9.1415e+000  3.8539e+001 -9.4105e+000 36722 94966,95018,94992
 2.0000e-001 95306  1.6487e+001  2.6073e+001  1.3115e+001 36722 95424,94862,95280
 2.0000e-001 95329  1.1120e+001  2.2002e+001  2.9425e+000 36722 94914,95280,94966
 2.0000e-001 95378  5.4396e+000  2.2481e+001  3.1143e+000 36722 94966,95280,95352
 2.0000e-001 95401  5.3351e+000  2.2995e+001  3.3241e+000 36722 94966,95352,95044
 2.0000e-001 95450  1.1723e+001  1.3019e+001 -2.3597e+000 36722 94914,94888,95424
 2.0000e-001 95473  8.2812e+000  1.4712e+001  2.6542e+000 36722 94914,95424,95280
 2.0000e-001 95522  9.5314e+000  3.2127e+001  6.3054e+000 36722 95070,95280,95496
 2.0000e-001 95545  1.1641e+001  3.0053e+001  4.8024e+000 36722 95070,95496,94836
 2.0000e-001 96130  1.5784e+001  1.8310e+001 -7.0941e-001 36268 96153,95911,95859
 2.0000e-001 96107  1.3324e+001  2.2243e+001 -1.6990e+000 36268 96153,95859,95807
 2.0000e-001 96084  1.6286e+001  3.3225e+001  1.9505e+000 36268 95807,95859,95833
 2.0000e-001 96061  1.5319e+001  1.5843e+001 -1.7196e+000 36268 95911,95989,95937
 2.0000e-001 96038  1.5855e+001  1.9086e+001  2.7529e+000 36268 95859,95911,95885
 2.0000e-001 96015  9.1417e+000  4.0090e+001 -1.6999e+001 36268 95937,95989,95963
 2.0000e-001 96179  1.6951e+001  2.0735e+001 -1.5824e+000 36268 95989,95911,96153
 2.0000e-001 96202  1.5135e+001  2.5450e+001 -2.7212e+000 36268 95989,96153,95807
 2.0000e-001 96531 -2.2224e+000  2.4580e+001 -3.4985e+000 35728 96358,96410,96384
 2.0000e-001 96508  5.7800e+000  2.6310e+001 -3.9412e+000 35728 96332,96410,96358
 2.0000e-001 96485  8.6273e-001  1.7959e+001 -1.2376e+000 35728 96332,96436,96410
 2.0000e-001 96462 -1.1273e+000  1.4789e+001  1.3153e+000 35728 96306,96436,96332
 2.0000e-001 96860  1.5159e+001  2.6138e+001  2.7701e+000 35324 96687,96765,96713
 2.0000e-001 96837  1.9068e+001  3.4260e+001  2.0986e-001 35324 96661,96765,96687
 2.0000e-001 96814  2.1118e+001  3.0503e+001  8.3945e-001 35324 96713,96765,96739
 2.0000e-001 96791  1.1974e+001  4.2540e+001  1.5962e+000 35324 96635,96765,96661
 2.0000e-001 97366  1.5296e+001  2.2115e+001  2.2214e+000 34920 97389,97069,97043
 2.0000e-001 97343  1.3978e+001  2.2320e+001  6.6992e-001 34920 97389,97043,97199
 2.0000e-001 97320  1.7612e+001  3.5363e+001  6.4347e-001 34920 97043,97225,97199
 2.0000e-001 97297  1.9898e+001  2.0924e+001  2.2842e+000 34920 97069,97121,97095
 2.0000e-001 97274  1.7335e+001  1.9821e+001 -1.0022e+000 34920 97121,97199,97173
 2.0000e-001 97251  1.6908e+001  2.0598e+001 -1.6860e+000 34920 97121,97173,97147
 2.0000e-001 97415  1.6727e+001  2.2676e+001  2.4203e+000 34920 97121,97069,97389
 2.0000e-001 97438  1.6433e+001  2.3214e+001  6.1564e-001 34920 97121,97389,97199
 2.0000e-001 97708  5.9142e+000  2.9708e+001  6.1868e-001 34722 97509,97587,97535
 2.0000e-001 97685 -4.0576e+000  3.2718e+001  1.9927e+000 34722 97509,97613,97587
 2.0000e-001 97662  9.1069e+000  3.9979e+001  5.3288e+000 34722 97483,97613,97509
 2.0000e-001 97639  2.3662e+000  2.1257e+001 -1.2725e+001 34722 97535,97587,97561
 2.0000e-001 98216  5.6015e+000  2.6577e+001 -5.3138e+000 34318 97971,98075,97997
 2.0000e-001 98193  7.6978e+000  2.9489e+001 -3.9195e+000 34318 97893,98075,97971
 2.0000e-001 98170  3.4284e+000  1.9464e+001 -2.2616e+000 34318 97893,97971,97919
 2.0000e-001 98147  4.6658e+000  3.3218e+001 -2.3481e+000 34318 97997,98075,98049
 2.0000e-001 98124  8.9946e+000  2.2303e+001 -3.4299e+000 34318 97919,97971,97945
 2.0000e-001 98101  1.2105e+001  5.3313e+001  4.0407e+000 34318 97997,98049,98023
 2.0000e-001 98594  1.8383e+001  3.3072e+001 -1.9426e+000 33814 98961,98617,98424
 2.0000e-001 98571  1.5779e+001  3.4851e+001 -3.7417e+000 33814 98689,98617,98372
 2.0000e-001 98548  1.8839e+001  2.9186e+001 -4.1001e+000 33814 99033,98689,98372
 2.0000e-001 98525  2.0729e+001  2.5858e+001 -2.5724e+000 33814 98761,98476,98450
 2.0000e-001 98502  2.0934e+001  3.1591e+001 -1.2491e+000 33814 98961,98424,98398
 2.0000e-001 98643  2.2957e+001  3.6068e+001 -1.2745e-001 33814 98450,98424,98617
 2.0000e-001 98666  1.7132e+001  2.4973e+001 -2.2585e+000 33814 98761,98450,98617
 2.0000e-001 98715  2.1668e+001  3.3007e+001 -2.9978e+000 33814 99161,98689,98320
 2.0000e-001 98738  1.9001e+001  3.8112e+001 -3.3387e+000 33814 98320,98689,98346
 2.0000e-001 98787  2.2800e+001  2.9595e+001 -4.9922e+000 33814 98833,98761,98320
 2.0000e-001 98810  2.1140e+001  3.2353e+001 -2.3045e+000 33814 99161,98320,98761
 2.0000e-001 98859  1.8374e+001  1.8099e+001 -1.3585e+000 33814 98476,98761,98833
 2.0000e-001 98987  1.4892e+001  3.2562e+001 -1.0057e+000 33814 98372,98617,98961
 2.0000e-001 99010  1.7160e+001  3.0725e+001  1.7837e-001 33814 98372,98961,98398
 2.0000e-001 99059  2.7930e+001  4.5933e+001  3.4616e+000 33814 98346,98689,99033
 2.0000e-001 99187  2.1785e+001  3.4937e+001 -4.4475e+000 33814 98617,98689,99161
 2.0000e-001 99210  2.0237e+001  3.3695e+001 -3.5751e+000 33814 98617,99161,98761
 2.0000e-001 99588  8.1026e+000  1.9133e+001  2.3354e-001 33566 99366,99444,99392
 2.0000e-001 99565  5.9778e-001  1.9949e+001 -1.1973e+000 33566 99314,99444,99366
 2.0000e-001 99542 -1.9691e-001  2.8745e+001  3.9558e+000 33566 99314,99366,99340
 2.0000e-001 99519  1.5551e-001  2.5758e+001 -9.5721e+000 33566 99314,99470,99444
 2.0000e-001 99496  6.8982e+000  1.5789e+001  2.7488e-001 33566 99392,99444,99418
 2.0000e-001 99787  3.5374e+000  1.9292e+001  9.0404e-001 33105 99637,99689,99663
 2.0000e-001 99764 -9.0670e-001  1.7474e+001  1.0116e+000 33105 99611,99689,99637
 2.0000e-001 99741  1.9993e+000  1.7800e+001 -1.0957e+000 33105 99611,99715,99689
 2.0000e-001 100167  9.8235e+000  1.3998e+001 -4.8315e-001 32651 100190,99971,99919
 2.0000e-001 100144  6.5533e+000  1.7393e+001 -2.8287e-001 32651 100262,100190,99919
 2.0000e-001 100121  8.2846e+000  1.7236e+001  6.1908e-001 32651 100262,99919,100049
 2.0000e-001 100098  5.2773e+000  1.5854e+001  3.0045e+000 32651 99893,100049,99919
 2.0000e-001 100075  1.3114e+001  1.1987e+001  1.9802e+000 32651 99919,99971,99945
 2.0000e-001 100216  7.6433e+000  1.0817e+001 -3.5311e+000 32651 99997,99971,100190
 2.0000e-001 100239  7.2938e+000  1.5503e+001 -1.1516e+000 32651 99997,100190,100023
 2.0000e-001 100288  9.4715e+000  1.7314e+001  4.1372e-001 32651 100023,100190,100262
 2.0000e-001 100311  1.5405e+001  1.9381e+001  7.9574e-001 32651 100023,100262,100049
 2.0000e-001 100608  2.0810e+000  1.5241e+001 -2.7019e-001 32254 100386,100490,100464
 2.0000e-001 100585  8.7797e-001  1.2216e+001 -4.9801e-001 32254 100360,100490,100386
 2.0000e-001 100562  9.2456e-001  1.3513e+001 -1.1841e+000 32254 100386,100464,100412
 2.0000e-001 100539  2.2423e+000  2.1118e+001  1.6915e+001 32254 100334,100490,100360
 2.0000e-001 100516  4.6365e+000  1.2957e+001  1.7318e+000 32254 100412,100464,100438
 2.0000e-001 100758  1.1694e+001  1.4276e+001 -3.1845e+000 31914 100985,100781,100683
 2.0000e-001 100735  1.4853e+001  1.9200e+001  1.0406e+000 31914 100853,100781,100657
 2.0000e-001 100807  1.6411e+001  2.1706e+001 -5.2815e+000 31914 100709,100683,100781
 2.0000e-001 100830  6.6883e+000  1.8767e+001 -1.2964e+000 31914 100709,100781,100631
 2.0000e-001 100879  7.9690e+000  1.4605e+001  3.8727e+000 31914 100631,100781,100853
 2.0000e-001 101011  1.5217e+001  1.7901e+001 -1.3474e+000 31914 100657,100781,100985
 2.0000e-001 101191  2.6706e+000  2.4829e+001 -2.6287e+000 31418 101113,101165,101139
 2.0000e-001 101341  7.4762e+000  5.8537e+001  2.3392e+000 31106 101214,101266,101240
 2.0000e-001 101318  3.2958e+000  4.9963e+001  3.8265e+000 31106 101214,101292,101266
 2.0000e-001 101591  1.6248e+000  1.8856e+001  2.1111e+000 30552 101614,101470,101444
 2.0000e-001 101568  1.2093e+001  1.6431e+001  4.1287e+000 30552 101366,101496,101470
 2.0000e-001 101545  1.7464e+000  1.9378e+001  2.1590e+000 30552 101614,101444,101392
 2.0000e-001 101522 -3.4408e+000  2.3949e+001 -2.0851e+000 30552 101392,101444,101418
 2.0000e-001 101640  1.7317e+000  1.8544e+001  1.7807e+000 30552 101366,101470,101614
 2.0000e-001 101663  1.8519e+000  1.9044e+001  1.8407e+000 30552 101366,101614,101392
 2.0000e-001 102301  2.8348e+001  4.5039e+001 -2.3071e-001 30042 102396,102324,102059
 2.0000e-001 102278  3.1152e+001  4.4190e+001  6.9228e+000 30042 102324,101981,101955
 2.0000e-001 102255  3.3395e+001  4.1790e+001 -5.7093e+000 30042 102396,102059,102033
 2.0000e-001 102232  1.3480e+001  3.1978e+001 -4.1222e+000 30042 101929,102111,101955
 2.0000e-001 102209  1.8243e+001  3.5295e+001 -2.0113e+000 30042 102059,102111,102085
 2.0000e-001 102186  8.8795e+000  3.3142e+001 -1.1434e+001 30042 101929,102137,102111
 2.0000e-001 102163  2.9699e+001  3.1353e+001 -1.8193e+000 30042 101981,102033,102007
 2.0000e-001 102350  1.9033e+001  4.2059e+001 -2.3067e+000 30042 102111,102059,102324
 2.0000e-001 102373  2.3230e+001  4.4150e+001  1.4225e+000 30042 102111,102324,101955
 2.0000e-001 102422  2.1180e+001  3.3678e+001  2.8318e+000 30042 101981,102324,102396
 2.0000e-001 102445  2.6423e+001  3.0486e+001 -2.7642e+000 30042 101981,102396,102033
 2.0000e-001 103000  1.4298e+001  2.8345e+001  3.4760e-002 29730 103023,102706,102654
 2.0000e-001 102977  1.6641e+001  2.7814e+001  1.2895e+000 29730 103023,102654,102810
 2.0000e-001 102954  1.8361e+001  3.4540e+001  2.5234e+000 29730 102732,102810,102784
 2.0000e-001 102931  1.8988e+001  2.6894e+001  1.3359e+000 29730 102628,102810,102654
 2.0000e-001 102908  1.4518e+001  2.7105e+001 -4.1556e-001 29730 102654,102706,102680
 2.0000e-001 102885  2.2119e+001  3.5587e+001  9.8503e+000 29730 102732,102784,102758
 2.0000e-001 102862  1.8561e+001  2.6774e+001  1.1332e+000 29730 102628,102836,102810
 2.0000e-001 103049  1.5883e+001  3.0330e+001  9.3050e-001 29730 102732,102706,103023
 2.0000e-001 103072  1.7263e+001  2.8482e+001  1.9092e+000 29730 102732,103023,102810
 2.0000e-001 103222  3.2797e+000  1.7268e+001  4.5388e-002 29226 103095,103147,103121
 2.0000e-001 103199  1.4938e+000  1.6039e+001  5.8703e-001 29226 103095,103173,103147
 2.0000e-001 103730  4.9959e+000  2.9207e+001  4.6114e+000 28822 103537,103589,103563
 2.0000e-001 103707  8.2924e+000  3.1442e+001  2.8709e+000 28822 103433,103589,103537
 2.0000e-001 103684  1.8159e+001  3.2798e+001  7.5064e+000 28822 103433,103537,103459
 2.0000e-001 103661  6.5579e+000  2.9180e+001  2.1159e+000 28822 103407,103589,103433
 2.0000e-001 103638  1.2914e+001  2.4163e+001 -4.3163e-001 28822 103459,103511,103485
 2.0000e-001 103615  1.0814e+001  2.0181e+001  1.3521e+000 28822 103459,103537,103511
 2.0000e-001 103880  8.5695e+000  2.6628e+001 -1.1590e+000 28368 103975,103903,103779
 2.0000e-001 103857  8.2760e+000  3.3112e+001  6.9542e-002 28368 103903,103753,103831
 2.0000e-001 103929  9.1550e+000  2.6284e+001 -7.9341e-001 28368 103805,103779,103903
 2.0000e-001 103952  4.5336e+000  2.7833e+001 -1.5687e+000 28368 104105,103903,103831
 2.0000e-001 104001  1.0567e+001  2.8166e+001  1.1579e-001 28368 103753,103903,103975
 2.0000e-001 104131  8.1823e+000  2.9338e+001 -1.4653e+000 28368 103805,103903,104105
 2.0000e-001 104539  1.8982e+001  2.4073e+001 -3.1599e+000 28028 104562,104340,104314
 2.0000e-001 104516  1.5118e+001  1.7393e+001 -1.5893e+000 28028 104634,104562,104314
 2.0000e-001 104493  4.3493e+000  2.0751e+001 -5.1187e-001 28028 104762,104366,104340
 2.0000e-001 104470  1.5481e+001  2.2323e+001  3.2259e+000 28028 104366,104418,104392
 2.0000e-001 104588  1.0570e+001  2.2482e+001 -3.1088e-001 28028 104762,104340,104562
 2.0000e-001 104611  1.9767e+001  2.1297e+001  5.6573e-001 28028 104418,104562,104444
 2.0000e-001 104660  1.8225e+001  2.0535e+001 -3.1029e-001 28028 104444,104562,104634
 2.0000e-001 104788  1.2191e+001  1.9350e+001  8.2736e-001 28028 104418,104366,104762
 2.0000e-001 104811  1.7759e+001  2.0897e+001  1.5578e+000 28028 104418,104762,104562
 2.0000e-001 105010  1.1264e+001  2.6315e+001 -3.5562e+000 27324 105033,104886,104860
 2.0000e-001 104987  1.8771e+001  3.0621e+001 -3.2007e-001 27324 105033,104860,104834
 2.0000e-001 104964  1.4749e+001  3.1867e+001  4.1237e-001 27324 105105,104912,104886
 2.0000e-001 105059  1.5212e+001  3.1350e+001  4.4758e-001 27324 105105,104886,105033
 2.0000e-001 105082  1.6134e+001  3.2688e+001  2.8276e+000 27324 104938,105033,104834
 2.0000e-001 105131  1.4834e+001  3.1328e+001  1.0113e+000 27324 104938,104912,105105
 2.0000e-001 105154  1.4951e+001  3.0287e+001  9.7966e-001 27324 104938,105105,105033
 2.0000e-001 105402  2.2220e+000  1.8782e+001 -1.0064e+000 27012 105229,105281,105255
 2.0000e-001 105379  2.3599e+000  1.7828e+001 -7.2134e-001 27012 105229,105307,105281
 2.0000e-001 105356  5.3531e+000  1.6384e+001 -1.3071e+000 27012 105177,105307,105229
 2.0000e-001 105333  3.3452e+000  1.9222e+001 -4.7236e+000 27012 105177,105229,105203
 2.0000e-001 105603  2.1001e+000  1.8942e+001 -2.2100e+000 26508 105626,105453,105427
 2.0000e-001 105580  2.4521e+000  1.9750e+001 -2.0170e+000 26508 105626,105427,105505
 2.0000e-001 105557  1.7386e+000  1.9031e+001 -1.6571e+000 26508 105427,105531,105505
 2.0000e-001 105652  2.1048e+000  1.8963e+001 -2.6179e+000 26508 105479,105453,105626
 2.0000e-001 105675  2.2214e+000  1.9305e+001 -2.4371e+000 26508 105479,105626,105505
 2.0000e-001 106057  3.7490e+000  1.4766e+001 -1.0924e+000 25947 106080,105887,105861
 2.0000e-001 106034  3.0927e+000  1.2634e+001 -2.0058e+000 25947 106080,105861,105783
 2.0000e-001 106011  8.4544e+000  9.2418e+000 -3.8734e+000 25947 105783,105835,105809
 2.0000e-001 105988  4.4689e+000  1.6247e+001 -2.8862e+000 25947 105783,105861,105835
 2.0000e-001 105965 -1.1255e-001  9.8558e+000  2.5316e+000 25947 105887,105939,105913
 2.0000e-001 106106  4.6350e+000  1.4483e+001  5.3814e-001 25947 105939,105887,106080
 2.0000e-001 106129  4.1590e+000  1.1396e+001 -2.8949e-001 25947 105939,106080,105783
 2.0000e-001 106714  1.7231e+001  1.9991e+001 -2.6575e-001 25557 106809,106737,106547
 2.0000e-001 106691  1.6471e+001  1.7739e+001  3.4353e+000 25557 106737,106417,106391
 2.0000e-001 106668  1.8306e+001  1.9387e+001  7.6626e-003 25557 106809,106547,106495
 2.0000e-001 106645  1.7968e+001  1.8704e+001  1.2008e+000 25557 106417,106495,106469
 2.0000e-001 106622  1.7970e+001  1.9072e+001 -2.5369e-001 25557 106495,106547,106521
 2.0000e-001 106599  2.1051e+001  1.6879e+001  2.1346e+000 25557 106417,106469,106443
 2.0000e-001 106763  1.9153e+001  2.3018e+001 -1.1140e+000 25557 106573,106547,106737
 2.0000e-001 106786  1.8597e+001  2.2349e+001  2.6340e+000 25557 106573,106737,106391
 2.0000e-001 106835  1.8305e+001  2.1710e+001  2.1670e-001 25557 106417,106737,106809
 2.0000e-001 106858  1.8598e+001  2.0154e+001  1.4239e-001 25557 106417,106809,106495
 2.0000e-001 107364  5.5626e+000  1.9900e+001  3.9539e-001 25153 107459,107387,107171
 2.0000e-001 107341  1.4001e+001  2.1037e+001 -1.2352e+000 25153 107387,107119,107067
 2.0000e-001 107318  3.9710e+000  1.8087e+001 -9.4828e-001 25153 107459,107171,107145
 2.0000e-001 107295  5.4937e+000  2.0672e+001  1.2177e+000 25153 107531,107223,107197
 2.0000e-001 107272  1.2412e+001  1.7749e+001 -6.1282e-001 25153 107067,107119,107093
 2.0000e-001 107249  1.5089e+000  2.2465e+001  1.9829e+000 25153 107041,107223,107067
 2.0000e-001 107413  8.8674e+000  2.2948e+001 -1.6524e+000 25153 107197,107171,107387
 2.0000e-001 107436  6.9262e+000  2.2969e+001 -1.4303e+000 25153 107531,107197,107387
 2.0000e-001 107485  5.2311e+000  1.8018e+001 -3.5996e+000 25153 107119,107387,107459
 2.0000e-001 107508  7.0954e-001  1.5210e+001 -5.2251e+000 25153 107119,107459,107145
 2.0000e-001 107557  3.9042e+000  1.8364e+001  2.4069e+000 25153 107067,107223,107531
 2.0000e-001 107580  4.5607e+000  1.8578e+001 -1.3570e-001 25153 107067,107531,107387
 2.0000e-001 107958  8.8647e+000  2.2769e+001 -1.4244e+000 24741 107736,107814,107788
 2.0000e-001 107935  7.6532e+000  2.2929e+001 -8.0433e-001 24741 107736,107840,107814
 2.0000e-001 107912  1.2431e+001  2.9856e+001  1.2863e+000 24741 107684,107840,107736
 2.0000e-001 107889  6.0689e-001  2.6409e+001 -2.2293e+000 24741 107736,107788,107762
 2.0000e-001 107866  8.7663e+000  2.7393e+001  6.1434e+000 24741 107684,107736,107710
 2.0000e-001 108157  7.7532e-001  2.0606e+001 -1.4402e+000 24237 108180,108059,108007
 2.0000e-001 108134  1.5606e+000  2.0695e+001 -1.5898e+000 24237 108180,108007,107981
 2.0000e-001 108111 -4.6820e+000  2.8078e+001 -2.0972e+000 24237 108007,108059,108033
 2.0000e-001 108206  8.3570e-001  2.0467e+001 -8.5057e-001 24237 108085,108059,108180
 2.0000e-001 108229  1.5944e+000  2.0544e+001 -1.0013e+000 24237 108085,108180,107981
 2.0000e-001 108658  1.0127e+001  2.4480e+001  3.3718e+000 23776 108361,108413,108387
 2.0000e-001 108635  6.5471e+000  1.5610e+001  3.7965e+000 23776 108753,108681,108361
 2.0000e-001 108612  2.9755e+000  1.6365e+001  7.4400e+000 23776 108681,108465,108439
 2.0000e-001 108589  8.3749e+000  1.4893e+001  4.9033e+000 23776 108753,108361,108335
 2.0000e-001 108566  8.8362e+000  1.6238e+001  5.1198e+000 23776 108335,108517,108465
 2.0000e-001 108543  1.1920e+001  1.6012e+001  6.9737e+000 23776 108465,108517,108491
 2.0000e-001 108707  7.8794e+000  1.8752e+001  3.2054e+000 23776 108413,108361,108681
 2.0000e-001 108730  6.7303e+000  2.3069e+001  5.9504e+000 23776 108413,108681,108439
 2.0000e-001 108779  8.3076e+000  1.9016e+001  4.4643e+000 23776 108465,108681,108753
 2.0000e-001 108802  8.8416e+000  1.6207e+001  5.0667e+000 23776 108465,108753,108335
 2.0000e-001 109023  2.2668e+000  2.1684e+001  1.1672e+000 23414 108873,108925,108899
 2.0000e-001 109000  4.5253e-001  2.0860e+001  9.5040e-001 23414 108847,108925,108873
 2.0000e-001 108977  3.5860e-002  1.9605e+001  6.7682e-001 23414 108847,108951,108925
 2.0000e-001 109474 -1.1222e+001  2.3666e+001 -6.1911e+000 23024 109151,109307,109177
 2.0000e-001 109451 -2.4472e+001  2.7046e+001 -2.3370e+000 23024 109151,109333,109307
 2.0000e-001 109428  1.0321e+001  2.0394e+001 -3.1729e+000 23024 109177,109281,109203
 2.0000e-001 109405  9.6619e+000  2.6429e+001 -6.7024e+000 23024 109177,109307,109281
 2.0000e-001 109382  1.8936e+001  2.6387e+001 -4.9947e-001 23024 109203,109281,109229
 2.0000e-001 109359  8.9440e+000  4.0556e+000 -4.0510e+000 23024 109229,109281,109255
 2.0000e-001 109820  1.4990e+001  2.2416e+001 -3.2146e+000 22506 109843,109601,109523
 2.0000e-001 109797  1.0220e+001  2.1436e+001 -2.7045e+000 22506 109843,109523,109497
 2.0000e-001 109774  9.2836e+000  2.3526e+001 -2.4181e+000 22506 109915,109653,109627
 2.0000e-001 109751  1.0936e+001  2.1162e+001 -2.4844e+000 22506 109497,109679,109653
 2.0000e-001 109728  1.4747e+001  2.2000e+001 -1.0284e+000 22506 109523,109601,109575
 2.0000e-001 109705  1.9013e+001  2.9269e+001  8.2192e-001 22506 109523,109575,109549
 2.0000e-001 109869  9.6502e+000  1.9216e+001 -4.6341e+000 22506 109627,109601,109843
 2.0000e-001 109892  8.5156e+000  2.2560e+001 -3.4019e+000 22506 109915,109627,109843
 2.0000e-001 109941  1.0600e+001  2.2929e+001 -1.8195e+000 22506 109497,109653,109915
 2.0000e-001 109964  1.0546e+001  2.3088e+001 -2.5955e+000 22506 109497,109915,109843
 2.0000e-001 110163  9.9957e+000  2.1815e+001 -2.1745e+000 21936 110186,110039,110013
 2.0000e-001 110140  1.2163e+001  2.4116e+001 -1.0348e+000 21936 110390,110186,110013
 2.0000e-001 110117  1.3343e+001  2.2290e+001  2.7513e-001 21936 110390,110013,109987
 2.0000e-001 110212  1.1778e+001  2.7014e+001  3.1405e-001 21936 110065,110039,110186
 2.0000e-001 110235  8.0214e+000  1.8213e+001 -1.5022e+000 21936 110258,110186,110091
 2.0000e-001 110284  1.9368e+001  2.6929e+001  2.3160e+000 21936 110065,110186,110258
 2.0000e-001 110416  9.5057e+000  2.2615e+001 -3.7208e-001 21936 110091,110186,110390
 2.0000e-001 110439  1.1333e+001  2.1209e+001  7.6531e-001 21936 110091,110390,109987
 2.0000e-001 110709  1.1043e+001  3.0223e+001 -7.3767e-001 21338 110510,110614,110588
 2.0000e-001 110686  9.6979e+000  3.3704e+001 -5.8654e-001 21338 110484,110614,110510
 2.0000e-001 110663  1.2347e+001  3.5533e+001  6.7858e-001 21338 110510,110562,110536
 2.0000e-001 110640  9.2941e+000  2.8380e+001  7.0501e-001 21338 110510,110588,110562
 2.0000e-001 111296  1.4262e+001  2.4962e+001  3.9845e+000 20934 111025,111155,111103
 2.0000e-001 111273  9.8987e+000  1.6131e+001  5.5685e+000 20934 110999,111155,111025
 2.0000e-001 111250 -6.0735e+000  1.5439e+001  7.6294e+000 20934 111103,111155,111129
 2.0000e-001 111227  1.6475e+001  2.9192e+001  3.4649e+000 20934 111051,111103,111077
 2.0000e-001 111204  1.3979e+001  2.2456e+001  3.8251e+000 20934 111025,111103,111051
 2.0000e-001 111181  1.5535e+001  1.4339e+001  8.0610e+000 20934 110973,111155,110999
 2.0000e-001 111930  1.6005e+001  2.3227e+001  7.2017e-001 20494 111662,111714,111688
 2.0000e-001 111907  1.8044e+001  2.0260e+001  6.2565e-003 20494 111584,111714,111662
 2.0000e-001 111884  1.9955e+001  1.9881e+001  2.2185e-001 20494 111584,111766,111714
 2.0000e-001 111861  2.6063e+001  2.1927e+001  1.2769e+000 20494 111584,111636,111610
 2.0000e-001 111838  2.0776e+001  2.1554e+001 -1.7356e+000 20494 111584,111662,111636
 2.0000e-001 111815  2.2263e+001  2.0375e+001 -4.0665e-001 20494 111558,111766,111584
 2.0000e-001 111792  1.9852e+001  1.9928e+001  7.4093e-001 20494 111714,111766,111740
 2.0000e-001 112249  2.2995e+000  1.8705e+001 -2.8766e+000 19940 111975,112053,112001
 2.0000e-001 112226 -6.1309e-001  1.5780e+001 -2.1293e-001 19940 111975,112131,112053
 2.0000e-001 112203 -1.2958e-001  2.2285e+001  0.0000e+000 19940 112053,112105,112079
 2.0000e-001 112180 -5.4741e-001  1.8458e+001 -1.8807e+000 19940 112053,112131,112105
 2.0000e-001 112157  5.4305e+000  3.4889e+001 -1.8783e+001 19940 112001,112053,112027
 2.0000e-001 112757  8.4007e+000  2.7911e+001  4.5586e+000 19486 112780,112538,112486
 2.0000e-001 112734  1.0105e+001  3.1466e+001  2.0728e+000 19486 112780,112486,112460
 2.0000e-001 112711  1.1843e+001  2.6164e+001  5.7937e-001 19486 112852,112616,112590
 2.0000e-001 112688 -5.1495e-001  3.6322e+001  6.7801e+000 19486 112486,112538,112512
 2.0000e-001 112665  1.8138e+001  3.4411e+001  4.9832e+000 19486 112434,112616,112460
 2.0000e-001 112642  1.5215e+001  2.5208e+001  3.3093e+000 19486 112538,112590,112564
 2.0000e-001 112806  1.3439e+001  3.0247e+001  3.9266e+000 19486 112590,112538,112780
 2.0000e-001 112829  9.7689e+000  2.7901e+001  1.6936e+000 19486 112852,112590,112780
 2.0000e-001 112878  1.2722e+001  2.8731e+001  1.6525e-001 19486 112460,112616,112852
 2.0000e-001 112901  1.1439e+001  3.1410e+001  7.6872e-001 19486 112460,112852,112780
 2.0000e-001 113252  3.0620e+001  3.8774e+001  1.6346e+000 19096 113105,113157,113131
 2.0000e-001 113229  2.6278e+001  3.1202e+001 -1.7658e-001 19096 113053,113157,113105
 2.0000e-001 113206  2.3169e+001  2.9633e+001 -7.1106e-001 19096 113027,113157,113053
 2.0000e-001 113183  3.0491e+001  4.2795e+001 -8.3630e-001 19096 113053,113105,113079
 2.0000e-001 113451 -1.5917e+000  2.9971e+001  7.4773e+000 18642 113327,113379,113353
 2.0000e-001 113428 -4.0920e+000  2.7559e+001  3.9504e+000 18642 113301,113379,113327
 2.0000e-001 113405  3.8806e+000  2.2496e+001  2.3511e+000 18642 113275,113379,113301
 2.0000e-001 113699  1.0032e+001  2.8476e+001 -3.3622e-001 18138 113474,113552,113526
 2.0000e-001 113676  8.8113e+000  2.6572e+001  1.8900e-001 18138 113474,113578,113552
 2.0000e-001 113653  1.0185e+001  2.6917e+001 -3.3784e-001 18138 113474,113604,113578
 2.0000e-001 113630  2.8866e+000  2.6701e+001 -4.4543e+000 18138 113474,113526,113500
 2.0000e-001 113851  1.5382e+001  3.6993e+001  8.3506e-002 17682 113750,113802,113776
 2.0000e-001 113828  7.5793e+000  3.3943e+001 -1.2232e+000 17682 113724,113802,113750
 2.0000e-001 114383  1.4854e+001  2.1694e+001  3.1930e+000 17106 114086,114242,114164
 2.0000e-001 114360  1.8934e+001  2.3196e+001  4.9169e-001 17106 114060,114242,114086
 2.0000e-001 114337  1.9930e+001  3.1157e+001  5.2091e-001 17106 114086,114164,114138
 2.0000e-001 114314  1.3416e+001  8.0359e+000  9.5332e+000 17106 114190,114242,114216
 2.0000e-001 114291  2.1169e+001  3.7699e+001  4.9900e+000 17106 114164,114242,114190
 2.0000e-001 114268  1.7877e+001  2.9169e+001 -7.3351e-001 17106 114086,114138,114112
 2.0000e-001 114680  7.6189e+000  2.2875e+001  5.5260e-001 16766 114703,114432,114406
 2.0000e-001 114657  7.1203e+000  2.3511e+001  3.6230e-002 16766 114703,114406,114510
 2.0000e-001 114634  6.0215e+000  2.3583e+001  1.0786e+000 16766 114406,114536,114510
 2.0000e-001 114611  9.8720e+000  2.4444e+001  1.0416e+000 16766 114432,114484,114458
 2.0000e-001 114588  4.6184e+000  2.4302e+001 -2.2130e+000 16766 114406,114562,114536
 2.0000e-001 114729  9.6440e+000  2.3545e+001  5.0620e-001 16766 114484,114432,114703
 2.0000e-001 114752  7.8221e+000  2.3331e+001  1.2406e-001 16766 114484,114703,114510
 2.0000e-001 114902  2.8763e+001  3.2982e+001  4.3516e-001 16362 114775,114827,114801
 2.0000e-001 114879  1.9960e+001  3.3398e+001  1.3822e+000 16362 114775,114853,114827
 2.0000e-001 115054  1.6502e+001  3.4117e+001 -1.3205e+000 15908 114953,115005,114979
 2.0000e-001 115031  1.6807e+001  3.9236e+001 -9.1231e-001 15908 114927,115005,114953
 2.0000e-001 115326  1.0244e+001  3.2117e+001 -2.3230e+000 15251 115101,115179,115153
 2.0000e-001 115303  1.2222e+001  3.2352e+001 -4.2702e-002 15251 115101,115231,115179
 2.0000e-001 115280  1.2331e+001  3.2727e+001 -1.4023e-002 15251 115179,115231,115205
 2.0000e-001 115257  1.0145e+001  4.7316e+001 -5.3357e+000 15251 115101,115153,115127
 2.0000e-001 115429  1.2935e+001  2.6504e+001 -1.7767e+000 421 115351,115403,115377
 3.0000e-001 66230 -1.0847e+001  7.7504e+000  1.6510e+000 65954 66152,66204,66178
 3.0000e-001 66429 -3.0017e+000  1.6435e+001  1.6287e+000 65642 66279,66331,66305
 3.0000e-001 66406 -2.7381e+000  2.0326e+001  3.2161e+000 65642 66279,66357,66331
 3.0000e-001 66383  7.2760e+000  1.9838e+001  2.1437e+000 65642 66253,66357,66279
 3.0000e-001 66628 -9.6800e-001  2.6726e+001 -3.5425e-001 65444 66452,66530,66478
 3.0000e-001 66605  1.6332e+000  2.5661e+001 -6.3248e-001 65444 66452,66556,66530
 3.0000e-001 66582 -9.2289e+000  2.4575e+001  2.0744e+000 65444 66478,66530,66504
 3.0000e-001 67006  1.7907e+000  1.4921e+001  2.0519e+000 65246 66732,66810,66758
 3.0000e-001 66983  4.4919e+000  1.5243e+001  2.5857e+000 65246 66732,66836,66810
 3.0000e-001 66960  1.8828e+000  1.3183e+001 -5.8581e-001 65246 66732,66862,66836
 3.0000e-001 66937  4.5573e+000  2.4030e+001  1.7962e+000 65246 66758,66810,66784
 3.0000e-001 66914 -1.3854e+000  1.6396e+001  3.4777e+000 65246 66732,66888,66862
 3.0000e-001 67107 -6.1805e+000  7.1417e+000  2.1731e+000 64934 67029,67081,67055
 3.0000e-001 67306 -8.5943e+000  2.2505e+001 -2.2935e-001 64736 67156,67208,67182
 3.0000e-001 67283 -5.6974e-001  2.4754e+001 -2.0428e+000 64736 67130,67208,67156
 3.0000e-001 67260  4.5281e+000  2.3806e+001  6.4122e-001 64736 67130,67234,67208
 3.0000e-001 67507 -8.3823e+000  2.0923e+001  1.2435e+000 64389 67357,67409,67383
 3.0000e-001 67484 -2.7570e+000  2.0384e+001  3.6715e+000 64389 67357,67435,67409
 3.0000e-001 67461  1.7536e+000  2.3598e+001  2.2315e+000 64389 67331,67435,67357
 3.0000e-001 67708  3.8673e+000  9.1729e+000 -9.3220e-002 63985 67731,67584,67558
 3.0000e-001 67685  5.5803e-001  8.8967e+000  5.2954e-001 63985 67731,67558,67636
 3.0000e-001 67662 -3.8892e+000  1.0326e+001  3.9784e+000 63985 67532,67636,67558
 3.0000e-001 67757  1.4473e+000  1.0262e+001 -1.2020e+000 63985 67610,67584,67731
 3.0000e-001 67780 -1.5349e+000  1.0126e+001 -9.7442e-001 63985 67610,67731,67636
 3.0000e-001 67981 -2.4861e+000  1.1831e+001  1.6216e+000 63787 67857,67909,67883
 3.0000e-001 67958  1.7421e+000  1.6113e+001 -2.8700e-001 63787 67831,67909,67857
 3.0000e-001 67935  3.6777e+000  1.5880e+001  1.1638e+000 63787 67805,67909,67831
 3.0000e-001 68231  2.7694e+000  7.7794e+000  2.3019e+000 63589 68254,68084,68032
 3.0000e-001 68208  3.3707e+000  1.1288e+001  2.5560e+000 63589 68254,68032,68006
 3.0000e-001 68185  4.0712e-001  9.0717e+000 -6.3267e-001 63589 68326,68136,68110
 3.0000e-001 68162  6.1944e-002  6.2335e+000  3.5843e+000 63589 68032,68084,68058
 3.0000e-001 68280  6.3299e+000  1.0301e+001  5.8134e-001 63589 68110,68084,68254
 3.0000e-001 68303  1.5787e+000  9.6150e+000  2.9923e-001 63589 68326,68110,68254
 3.0000e-001 68352  6.0095e-001  1.0979e+001  1.7597e+000 63589 68006,68136,68326
 3.0000e-001 68375  2.1511e+000  1.1248e+001  2.6627e+000 63589 68006,68326,68254
 3.0000e-001 68836  1.2219e+000  1.1850e+001  1.5672e+000 63128 68859,68588,68562
 3.0000e-001 68813  1.8178e+000  1.4036e+001 -7.3192e-001 63128 68859,68562,68692
 3.0000e-001 68790  2.9064e+000  1.3462e+001 -2.8907e-001 63128 68614,68692,68666
 3.0000e-001 68767  6.4393e+000  9.5042e+000 -1.1916e+000 63128 68562,68718,68692
 3.0000e-001 68744  2.1821e+000  1.1300e+001 -2.8145e+000 63128 68614,68666,68640
 3.0000e-001 68885 -2.3298e-001  8.5815e+000  2.9545e+000 63128 68614,68588,68859
 3.0000e-001 68908  5.7051e-001  1.1504e+001  6.9763e-001 63128 68614,68859,68692
 3.0000e-001 69237 -4.5455e-001  1.1154e+001 -3.4053e-001 62731 69064,69116,69090
 3.0000e-001 69214  2.3314e-001  1.2932e+001  1.1997e-001 62731 69064,69142,69116
 3.0000e-001 69191  2.1069e+000  1.9935e+001  1.2847e-001 62731 69038,69142,69064
 3.0000e-001 69168 -4.0585e-001  1.7391e+001 -9.1262e-001 62731 69012,69142,69038
 3.0000e-001 69539  2.6980e+000  1.3527e+001  4.1925e-001 62433 69389,69467,69441
 3.0000e-001 69516  2.2266e+000  5.8712e+000  2.1329e+000 62433 69363,69467,69389
 3.0000e-001 69493 -2.4972e+000  7.6473e-001  8.5536e-003 62433 69389,69441,69415
 3.0000e-001 69966 -1.8379e+000  1.7016e+001  1.4253e+000 62235 69989,69773,69721
 3.0000e-001 69943  4.7022e+000  1.9162e+001  1.4935e+000 62235 70061,69989,69721
 3.0000e-001 69920  6.5454e+000  2.1209e+001  2.3743e+000 62235 70061,69721,69643
 3.0000e-001 69897 -5.8639e+000  1.7537e+001  1.9244e+000 62235 69721,69773,69747
 3.0000e-001 69874  1.1036e+001  3.9522e+001  6.3140e+000 62235 69643,69721,69695
 3.0000e-001 69851 -2.1538e+000  2.2830e+001 -1.5097e+000 62235 69643,69695,69669
 3.0000e-001 70015 -4.1339e+000  1.7684e+001  6.3237e+000 62235 69799,69773,69989
 3.0000e-001 70038  2.2022e+000  1.9763e+001  4.3133e+000 62235 69799,69989,69825
 3.0000e-001 70087  1.9428e+000  2.2255e+001  1.3594e+000 62235 69825,69989,70061
 3.0000e-001 70110  3.7412e+000  2.3706e+001  2.0090e+000 62235 69825,70061,69643
 3.0000e-001 70260 -9.1650e-001  1.7818e+001 -5.9555e+000 62037 70133,70185,70159
 3.0000e-001 70237  2.1510e+000  2.2689e+001 -4.6414e+000 62037 70133,70211,70185
 3.0000e-001 70640 -6.7295e+000  1.5807e+000 -4.0936e+000 61583 70735,70663,70418
 3.0000e-001 70617 -1.8748e+000  1.3048e+001 -8.9167e-001 61583 70663,70366,70522
 3.0000e-001 70594 -7.5904e+000 -1.7807e+000 -3.2922e+000 61583 70735,70418,70392
 3.0000e-001 70571 -9.7950e+000  5.5678e-001 -3.4652e+000 61583 70418,70496,70444
 3.0000e-001 70548 -1.9857e+001  8.1557e+000 -5.0179e+000 61583 70444,70496,70470
 3.0000e-001 70689 -3.5591e+000  3.1599e+000 -2.9658e+000 61583 70496,70418,70663
 3.0000e-001 70712 -3.8230e+000  1.2154e+000 -2.7495e+000 61583 70496,70663,70522
 3.0000e-001 70761 -7.6920e+000 -7.6713e-002  1.1003e-001 61583 70366,70663,70735
 3.0000e-001 70784 -7.6679e+000 -2.9971e+000  6.3229e-001 61583 70366,70735,70392
 3.0000e-001 71054  5.4400e+000  2.2330e+001 -1.2005e+001 61313 71077,70881,70855
 3.0000e-001 71031  4.5070e+000  1.0538e+001 -6.8893e+000 61313 71077,70855,70829
 3.0000e-001 71008  4.0739e+000  7.4361e+000 -1.9410e+000 61313 70829,70959,70933
 3.0000e-001 70985 -9.6976e+000  1.5832e+001  1.8524e-001 61313 70881,70933,70907
 3.0000e-001 71103  6.8526e-002  1.4899e+001 -6.4671e+000 61313 70933,70881,71077
 3.0000e-001 71126  2.9753e+000  7.6598e+000 -1.7177e+000 61313 70933,71077,70829
 3.0000e-001 71604  1.7790e-001  5.4743e+000  4.9112e-002 60909 71627,71232,71414
 3.0000e-001 71581 -2.2066e+000  1.0007e+001 -5.7308e+000 60909 71232,71440,71414
 3.0000e-001 71558 -1.1387e-001  4.9555e+000 -8.7098e-002 60909 71627,71414,71336
 3.0000e-001 71535  2.7652e+000  6.0864e+000  2.2939e+000 60909 71362,71414,71388
 3.0000e-001 71512 -3.6663e-001  6.3746e+000  1.6810e+000 60909 71336,71414,71362
 3.0000e-001 71489  3.4158e+000  8.0422e+000 -3.5843e+000 60909 71258,71336,71310
 3.0000e-001 71466  8.6692e+000  3.2430e+000  1.0978e+000 60909 71258,71310,71284
 3.0000e-001 71653  2.6232e-001  4.9514e+000 -8.4252e-002 60909 71258,71232,71627
 3.0000e-001 71676  1.9411e-001  4.7083e+000 -1.6698e-001 60909 71258,71627,71336
 3.0000e-001 71875  7.8725e+000  2.8542e+001  3.0621e+000 60611 71898,71725,71699
 3.0000e-001 71852  9.5381e+000  2.2968e+001 -1.1496e+000 60611 71898,71699,71803
 3.0000e-001 71829  5.2646e+000  1.2910e+001  2.8773e+000 60611 71970,71751,71725
 3.0000e-001 71924  7.3303e+000  1.8757e+001  1.4404e+000 60611 71970,71725,71898
 3.0000e-001 71947  5.9646e+000  1.0584e+001 -1.2149e+000 60611 71777,71898,71803
 3.0000e-001 71996  6.7600e+000  1.9989e+001  8.5157e-001 60611 71777,71751,71970
 3.0000e-001 72019  8.2749e+000  2.2879e+001 -1.1367e+000 60611 71777,71970,71898
 3.0000e-001 72576  7.8763e+000  1.4402e+001 -3.5235e+000 60142 72599,72256,72230
 3.0000e-001 72553  9.8671e+000  1.2650e+001 -6.0924e+000 60142 72671,72599,72230
 3.0000e-001 72530  4.0667e+000  1.0381e+001 -5.4777e+000 60142 72671,72230,72204
 3.0000e-001 72507  7.3231e+000  1.5132e+001 -5.2281e+000 60142 72743,72360,72334
 3.0000e-001 72484  1.8659e+001  2.1090e+001 -4.4099e+000 60142 72815,72282,72256
 3.0000e-001 72461  1.5708e+001  2.4257e+001 -1.3803e+000 60142 72887,72308,72282
 3.0000e-001 72438  1.9510e+001  2.2514e+001 -1.5241e+001 60142 72204,72412,72386
 3.0000e-001 72625  1.6017e+001  1.6578e+001 -3.2272e+000 60142 72815,72256,72599
 3.0000e-001 72648  8.6454e+000  1.4354e+001 -5.2332e+000 60142 72743,72334,72599
 3.0000e-001 72697  5.2740e+000  1.2779e+001 -8.0715e+000 60142 72386,72599,72671
 3.0000e-001 72720  4.0770e+000  1.3098e+001 -8.3326e+000 60142 72386,72671,72204
 3.0000e-001 72769  3.6149e+000  1.3487e+001 -4.8950e+000 60142 72386,72360,72743
 3.0000e-001 72792  6.8124e+000  1.3740e+001 -4.9894e+000 60142 72386,72743,72599
 3.0000e-001 72841  1.5470e+001  2.4059e+001 -2.3234e+000 60142 72887,72282,72815
 3.0000e-001 72864  1.2523e+001  2.0617e+001 -1.5318e+000 60142 72334,72815,72599
 3.0000e-001 72913  1.5245e+001  2.2893e+001 -1.6418e+000 60142 72334,72308,72887
 3.0000e-001 72936  1.4976e+001  2.2737e+001 -2.4465e+000 60142 72334,72887,72815
 3.0000e-001 73491  1.9438e+000  9.4655e+000  8.1896e-001 59738 73145,73327,73171
 3.0000e-001 73468  1.0344e+001  9.9711e+000  3.6178e+000 59738 73119,73327,73145
 3.0000e-001 73445  2.4229e+000  4.9122e+000 -1.9906e+000 59738 73171,73327,73301
 3.0000e-001 73422 -4.5214e-001  1.1034e+001 -5.6468e-002 59738 73514,73275,73249
 3.0000e-001 73399  7.4390e-001  1.1992e+001 -4.7440e-001 59738 73586,73514,73249
 3.0000e-001 73376  3.9859e+000  1.3411e+001 -2.7765e+000 59738 73197,73249,73223
 3.0000e-001 73353 -4.1529e+000  1.1236e+001 -3.8369e+000 59738 73586,73249,73197
 3.0000e-001 73540 -2.4802e-001  1.2197e+001  3.9105e-001 59738 73301,73275,73514
 3.0000e-001 73563  2.3097e+000  9.6353e+000 -2.3960e+000 59738 73301,73514,73171
 3.0000e-001 73612 -3.5807e+000  5.9371e+000 -4.2742e+000 59738 73171,73514,73586
 3.0000e-001 73635 -5.4401e+000  7.4928e+000 -7.3411e+000 59738 73171,73586,73197
 3.0000e-001 73964 -8.1485e+000 -4.3615e+000 -2.3841e+000 59334 73791,73843,73817
 3.0000e-001 73941 -7.2875e+000 -7.4208e+000 -3.8794e+000 59334 73791,73869,73843
 3.0000e-001 73918 -3.8221e+000  1.0362e+000 -4.8446e+000 59334 73739,73869,73791
 3.0000e-001 73895 -2.3447e+000 -4.2358e+000 -3.7017e+000 59334 73739,73791,73765
 3.0000e-001 74261  1.2971e+000  1.6407e+001 -2.5673e+000 58630 74065,74117,74091
 3.0000e-001 74238  2.9888e+000  6.9388e+000 -4.5050e+000 58630 74356,74284,74065
 3.0000e-001 74215 -1.2080e+000 -6.0597e-001 -2.9975e+000 58630 74284,74013,73987
 3.0000e-001 74192  3.0218e+000  7.5948e+000 -5.3780e+000 58630 74356,74065,74039
 3.0000e-001 74169 -5.4002e+000  5.5749e+000  4.6914e+000 58630 73987,74143,74117
 3.0000e-001 74310 -5.2743e-001  1.2307e+001 -6.2596e+000 58630 74117,74065,74284
 3.0000e-001 74333 -7.1386e+000  6.3948e+000 -3.7550e+000 58630 74117,74284,73987
 3.0000e-001 74382  4.5322e+000  6.7139e+000 -5.4888e+000 58630 74013,74284,74356
 3.0000e-001 74405  4.6852e+000  7.5368e+000 -6.3796e+000 58630 74013,74356,74039
 3.0000e-001 74815  1.1535e+001 -3.4390e+000 -2.8575e+000 58226 74590,74642,74616
 3.0000e-001 74792  7.7384e+000  3.3592e+000  1.2163e+000 58226 74590,74694,74642
 3.0000e-001 74769  1.2485e+001 -1.3695e+000  3.5751e+000 58226 74590,74720,74694
 3.0000e-001 74746  8.9090e+000  8.6392e+000  1.8827e+000 58226 74642,74694,74668
 3.0000e-001 75014  1.2491e+001  1.2080e+001 -4.9532e+000 57786 75037,74864,74838
 3.0000e-001 74991  4.2644e+000  9.1268e+000  1.5392e+000 57786 75037,74838,74916
 3.0000e-001 74968  8.5233e+000  8.3601e+000  5.7970e+000 57786 74838,74942,74916
 3.0000e-001 75063  9.4897e-001  1.8688e+001 -4.5162e+000 57786 74890,74864,75037
 3.0000e-001 75086 -6.6197e+000  1.5438e+001  2.5609e+000 57786 74890,75037,74916
 3.0000e-001 75368  4.2751e+000  1.4024e+001  1.0210e+000 57496 75192,75270,75218
 3.0000e-001 75345  8.4091e+000  1.4284e+001 -1.2575e+000 57496 75192,75296,75270
 3.0000e-001 75322  1.0425e+001  2.2756e+001  3.8999e+000 57496 75218,75270,75244
 3.0000e-001 75648  1.7830e+001  1.8085e+001 -3.4499e+000 57206 75472,75550,75498
 3.0000e-001 75625  1.5427e+001  2.1556e+001 -1.4337e+000 57206 75472,75576,75550
 3.0000e-001 75602  1.2710e+001  1.1446e+001 -9.5664e-001 57206 75671,75550,75524
 3.0000e-001 75697  1.0867e+001  1.4922e+001 -4.7403e-001 57206 75498,75550,75671
 3.0000e-001 76154  7.8480e+000  2.1071e+001  4.8385e+000 56802 75958,76010,75984
 3.0000e-001 76131  2.3244e+000  9.5256e+000  6.8192e+000 56802 75932,76010,75958
 3.0000e-001 76108  1.9461e+000  1.6582e+001  2.4150e+000 56802 75906,76010,75932
 3.0000e-001 76085 -6.9002e+000  1.2662e+001 -8.5790e-001 56802 75880,76010,75906
 3.0000e-001 76062 -2.1450e+000  1.0870e+001 -1.1494e+001 56802 75880,76036,76010
 3.0000e-001 76505  3.9640e+000  2.7900e+001 -1.4772e+000 56504 76306,76384,76332
 3.0000e-001 76482  9.1398e+000  2.2364e+001  6.6224e-001 56504 76306,76410,76384
 3.0000e-001 76459  9.0447e+000  2.2894e+001 -7.6778e+000 56504 76332,76384,76358
 3.0000e-001 76436 -1.1245e+001  9.6168e+000 -5.1453e+000 56504 76280,76410,76306
 3.0000e-001 77011 -5.2575e-001  1.0670e+001  1.9176e+000 56050 76740,76818,76792
 3.0000e-001 76988  4.1609e+000  1.3228e+001 -9.5958e-002 56050 76714,76818,76740
 3.0000e-001 76965  2.7728e+000  1.0314e+001  7.3157e-001 56050 76688,76818,76714
 3.0000e-001 76942  2.8526e+000  1.5599e+001 -1.4480e+000 56050 76688,76844,76818
 3.0000e-001 76919  9.7004e+000  1.9154e+001 -1.9195e+000 56050 76740,76792,76766
 3.0000e-001 76896 -1.4080e+000  1.5846e+001  3.4120e+000 56050 76688,76870,76844
 3.0000e-001 77517  1.4273e+000  1.5585e+001 -1.1221e-001 55738 77220,77350,77324
 3.0000e-001 77494 -4.2843e+000  1.2398e+001 -1.3691e+000 55738 77220,77376,77350
 3.0000e-001 77471 -5.1943e+000  1.8543e+001 -4.1872e+000 55738 77194,77376,77220
 3.0000e-001 77448 -4.1873e+000  1.0585e+001  1.4551e-001 55738 77220,77298,77246
 3.0000e-001 77425 -7.7411e+000  9.4261e+000  2.8699e+000 55738 77220,77324,77298
 3.0000e-001 77402 -3.1462e+000  1.0908e+001 -1.0217e+000 55738 77246,77298,77272
 3.0000e-001 78064  4.2724e+000  1.3789e+001  1.3434e+000 55227 78231,78087,77773
 3.0000e-001 78041  2.8845e+000  1.4118e+001  3.4485e+000 55227 78087,77695,77643
 3.0000e-001 78018  7.7920e+000  1.6478e+001  4.2737e-001 55227 78159,77799,77773
 3.0000e-001 77995  3.8838e+000  1.3120e+001  1.5090e+000 55227 78231,77773,77721
 3.0000e-001 77972  7.1469e+000  7.5529e+000  2.0808e+000 55227 77643,77695,77669
 3.0000e-001 77949  2.5265e+000  2.0550e+001 -3.7982e+000 55227 77643,77877,77851
 3.0000e-001 77926  1.2109e+001  1.0669e+001  3.8857e+000 55227 77799,77851,77825
 3.0000e-001 77903  1.4134e+000  1.0507e+001  2.8469e+000 55227 77721,77773,77747
 3.0000e-001 78113  5.2181e+000  1.6526e+001 -7.2932e-001 55227 78159,77773,78087
 3.0000e-001 78136  2.5291e+000  1.3512e+001 -5.1546e-001 55227 77851,78087,77643
 3.0000e-001 78185  1.2744e+001  1.5255e+001  4.6348e-001 55227 77851,77799,78159
 3.0000e-001 78208  1.0260e+001  1.5518e+001 -4.7589e-001 55227 77851,78159,78087
 3.0000e-001 78257  3.0925e+000  1.5485e+001  1.8397e+000 55227 77695,78087,78231
 3.0000e-001 78280  2.3386e+000  1.4365e+001  2.1753e+000 55227 77695,78231,77721
 3.0000e-001 78737  4.4551e+000  1.3186e+001  5.4444e+000 54773 78463,78541,78515
 3.0000e-001 78714  8.2775e+000  2.6718e+001  8.9983e-001 54773 78463,78619,78541
 3.0000e-001 78691  1.9878e+000  8.0803e+000  7.2666e+000 54773 78463,78515,78489
 3.0000e-001 78668  1.6042e+001  9.1797e+000  2.9864e+000 54773 78541,78593,78567
 3.0000e-001 78645  1.0648e+000  1.3040e+001  4.6192e+000 54773 78541,78619,78593
 3.0000e-001 78838  4.9480e+000  1.7899e+001 -4.4027e-001 54211 78760,78812,78786
 3.0000e-001 79297  6.8903e+000  1.0592e+001  9.2133e-001 53814 79520,79153,79049
 3.0000e-001 79274  4.2638e+000  2.7777e+000  9.2710e+000 53814 79520,79049,79023
 3.0000e-001 79251  8.2597e+000  7.1761e+000  2.2019e+000 53814 79320,79101,79049
 3.0000e-001 79228  1.0258e+001  1.2124e+001 -2.0698e-001 53814 79320,79049,79153
 3.0000e-001 79205  1.3178e+001  4.3784e+000  2.5218e+000 53814 79049,79101,79075
 3.0000e-001 79346  8.8983e+000  1.3153e+001 -1.7588e+000 53814 79392,79320,79127
 3.0000e-001 79369  8.0929e+000  1.1272e+001 -1.4538e+000 53814 79127,79320,79153
 3.0000e-001 79418  1.3796e+001  9.7066e+000 -1.1738e+000 53814 79101,79320,79392
 3.0000e-001 79546  1.4724e+001  2.6292e+001 -9.2271e+000 53814 79179,79153,79520
 3.0000e-001 79569 -2.2829e+000  1.2026e+001  1.9800e+000 53814 79179,79520,79023
 3.0000e-001 80075 -4.4050e+000  6.7785e+000 -7.8856e+000 53039 80098,79908,79830
 3.0000e-001 80052 -6.7064e+000  4.8675e+000 -1.2483e+001 53039 80098,79830,79804
 3.0000e-001 80029 -3.0275e+000  9.9613e+000 -8.3875e+000 53039 79752,79934,79804
 3.0000e-001 80006  6.6851e+000  7.1750e+000 -4.9489e+000 53039 79856,79908,79882
 3.0000e-001 79983  4.4703e+000  1.2394e+001 -4.7509e+000 53039 79830,79908,79856
 3.0000e-001 79960  1.3979e+000  1.4309e+001 -5.1209e+000 53039 79752,79804,79778
 3.0000e-001 80124  3.0071e+000  1.1986e+001 -4.2999e+000 53039 79934,79908,80098
 3.0000e-001 80147 -3.6753e+000  7.2870e+000 -9.3898e+000 53039 79934,80098,79804
 3.0000e-001 80555 -8.4661e+000  1.4887e+001  6.5418e+000 52699 80356,80434,80408
 3.0000e-001 80532 -1.1712e+001  5.9653e+000  8.9768e+000 52699 80356,80460,80434
 3.0000e-001 80509 -2.3793e+001  4.9364e+000  1.1204e+001 52699 80330,80460,80356
 3.0000e-001 80486 -1.1062e+001  8.5142e+000  6.8867e+000 52699 80356,80408,80382
 3.0000e-001 80776  4.1775e+000  1.5735e+001  5.9001e-001 52295 80600,80678,80626
 3.0000e-001 80753 -3.2817e+000  1.1351e+001  2.5370e+000 52295 80600,80704,80678
 3.0000e-001 80730  1.7753e+000  1.4839e+001  1.1391e+000 52295 80626,80678,80652
 3.0000e-001 81156  9.2449e+000  6.6155e+000 -4.1636e-001 51891 81179,80960,80908
 3.0000e-001 81133  7.4976e+000  3.5203e+000  3.5007e+000 51891 81179,80908,81012
 3.0000e-001 81110  8.7488e+000  1.1239e+001 -1.1511e-001 51891 80882,81012,80908
 3.0000e-001 81087  1.0798e+001  5.1603e+000 -3.6684e-001 51891 80908,80960,80934
 3.0000e-001 81064  1.4270e+001  1.6977e+001 -6.8126e+000 51891 80882,81038,81012
 3.0000e-001 81205  4.5268e+000  5.5395e+000  1.5509e+000 51891 80986,80960,81179
 3.0000e-001 81228  5.6407e+000  3.1396e+000  5.4336e+000 51891 80986,81179,81012
 3.0000e-001 81606  7.2990e+000  3.9370e+001 -1.4299e-001 51544 81410,81462,81436
 3.0000e-001 81583  5.8916e+000  3.4258e+001 -1.2001e+000 51544 81384,81462,81410
 3.0000e-001 81560 -1.2326e+001  1.4179e+001 -8.8099e+000 51544 81358,81462,81384
 3.0000e-001 81537  4.2320e+000  1.8441e+001 -4.1419e+000 51544 81358,81488,81462
 3.0000e-001 81514 -1.6680e+000  9.0049e+000 -6.6698e+000 51544 81332,81488,81358
 3.0000e-001 81854  9.1147e+000  7.8820e+000  7.3912e+000 51004 81877,81655,81629
 3.0000e-001 81831  1.0458e+001  5.9144e+000  7.5271e+000 51004 81877,81629,81759
 3.0000e-001 81808  4.9525e+000  1.0681e+001  1.1198e+001 51004 81655,81707,81681
 3.0000e-001 81785  1.5374e+001  1.5322e+000  5.5918e+000 51004 81707,81759,81733
 3.0000e-001 81903  1.0282e+001  7.9619e+000  7.9140e+000 51004 81707,81655,81877
 3.0000e-001 81926  1.2967e+001  7.7398e+000  8.6626e+000 51004 81707,81877,81759
 3.0000e-001 82257  3.6870e+000  1.6049e+001 -1.3998e-001 50642 82058,82136,82110
 3.0000e-001 82234  2.7999e+000  1.3826e+001  6.1386e-001 50642 82058,82162,82136
 3.0000e-001 82211  6.7543e+000  2.0805e+001 -3.7525e+000 50642 82058,82110,82084
 3.0000e-001 82188  3.6853e-002  1.2647e+001  5.6324e-001 50642 82032,82162,82058
 3.0000e-001 82684  1.7845e+000  1.7620e+001  1.4109e+000 49931 82779,82707,82465
 3.0000e-001 82661  3.4325e+000  2.1930e+001 -5.2721e-001 49931 82707,82413,82361
 3.0000e-001 82638  1.8135e+000  1.5824e+001  6.1730e+000 49931 82779,82465,82439
 3.0000e-001 82615  7.1479e+000  2.3019e+001 -2.4270e+000 49931 82465,82543,82491
 3.0000e-001 82592  2.3692e+000  2.4795e+001 -3.4113e+000 49931 82361,82413,82387
 3.0000e-001 82569  4.4213e+000  1.7838e+001 -1.1623e+000 49931 82491,82543,82517
 3.0000e-001 82733  5.9905e+000  2.0193e+001  9.1235e-002 49931 82543,82465,82707
 3.0000e-001 82756  3.5711e+000  1.8535e+001 -7.5631e-001 49931 82543,82707,82361
 3.0000e-001 82805  4.5020e+000  2.4218e+001  7.8617e-001 49931 82413,82707,82779
 3.0000e-001 82828  4.6472e+000  2.1908e+001  5.2333e+000 49931 82413,82779,82439
 3.0000e-001 83255 -1.1508e+001  1.8164e+001  1.0097e+001 49327 82984,83114,83036
 3.0000e-001 83232 -1.1979e+001  1.7520e+001  5.4609e+000 49327 82958,83114,82984
 3.0000e-001 83209  2.2661e-001  7.8617e+000  1.2754e+001 49327 83036,83114,83088
 3.0000e-001 83186 -1.7965e+001  2.6256e+001  1.6010e+001 49327 82984,83036,83010
 3.0000e-001 83163 -5.9595e+000  1.5013e+001  3.8170e+000 49327 82932,83114,82958
 3.0000e-001 83140 -1.2711e+000 -4.8301e+000  1.1188e+001 49327 83036,83088,83062
 3.0000e-001 83938  1.6168e+001  2.8215e+001  1.7731e+000 48965 83961,83673,83647
 3.0000e-001 83915  1.5165e+001  2.8290e+001  2.7654e+000 48965 83961,83647,83543
 3.0000e-001 83892  1.5178e+001  1.9296e+001  2.2359e+000 48965 83517,83725,83543
 3.0000e-001 83869  1.1133e+001  1.5478e+001  3.3858e+000 48965 83673,83725,83699
 3.0000e-001 83846  5.6830e+000  2.4912e+001  3.1258e+000 48965 83543,83647,83621
 3.0000e-001 83823  7.4035e+000  2.7152e+001  2.3751e+000 48965 83543,83621,83569
 3.0000e-001 83800  1.4242e+001  1.8961e+001  2.4608e+000 48965 83517,83751,83725
 3.0000e-001 83777  8.5689e-001  2.1957e+001 -3.8373e+000 48965 83569,83621,83595
 3.0000e-001 83987  1.4423e+001  2.7503e+001  1.6581e+000 48965 83725,83673,83961
 3.0000e-001 84010  1.4585e+001  2.7969e+001  2.6284e+000 48965 83725,83961,83543
 3.0000e-001 84258  1.4976e+001  1.7153e+001 -1.0513e+000 48447 84281,84059,84033
 3.0000e-001 84235  2.5846e+001  4.0003e+001  9.6901e+000 48447 84281,84033,84163
 3.0000e-001 84212  2.6114e+001  4.6995e+000 -1.0245e+001 48447 84059,84111,84085
 3.0000e-001 84189 -1.6394e+000  3.8789e+001 -1.0004e+001 48447 84111,84163,84137
 3.0000e-001 84307  1.2151e+001  1.5660e+001 -1.3343e+001 48447 84111,84059,84281
 3.0000e-001 84330  1.2150e+001  2.7192e+001 -4.0413e+000 48447 84111,84281,84163
 3.0000e-001 84529  2.7277e+001  4.3922e+001 -9.4367e+000 47993 84552,84405,84379
 3.0000e-001 84506  2.0141e+001  4.1410e+001 -9.2903e+000 47993 84552,84379,84353
 3.0000e-001 84483  3.5353e+001  4.4797e+001 -6.2774e+000 47993 84624,84457,84431
 3.0000e-001 84578  2.4851e+001  4.1749e+001 -7.5901e+000 47993 84431,84405,84552
 3.0000e-001 84601  3.1510e+001  4.4850e+001 -6.7570e+000 47993 84624,84431,84552
 3.0000e-001 84650  3.1384e+001  4.5895e+001 -9.1610e+000 47993 84353,84457,84624
 3.0000e-001 84673  2.6225e+001  4.3772e+001 -1.0579e+001 47993 84353,84624,84552
 3.0000e-001 85104  4.5736e+000  2.8314e+001 -4.0116e+000 47588 85199,85127,84885
 3.0000e-001 85081  3.5486e+000  2.8451e+001 -3.5062e+000 47588 85127,84781,84963
 3.0000e-001 85058  8.1463e-001  2.8182e+001  1.5511e-001 47588 85199,84885,84807
 3.0000e-001 85035  1.3487e+001  3.0704e+001 -5.3425e+000 47588 84885,84937,84911
 3.0000e-001 85012  4.5323e+000  2.5731e+001  3.5464e-001 47588 84807,84885,84833
 3.0000e-001 84989  5.7509e+000  2.6266e+001  1.2454e+000 47588 84833,84885,84859
 3.0000e-001 85153  4.4586e+000  2.9551e+001 -4.4639e+000 47588 84937,84885,85127
 3.0000e-001 85176  5.5146e+000  2.7809e+001 -3.0654e+000 47588 84937,85127,84963
 3.0000e-001 85225 -2.1508e+000  2.6570e+001 -2.3506e+000 47588 84781,85127,85199
 3.0000e-001 85248 -5.0330e+000  2.5594e+001  2.3807e+000 47588 84781,85199,84807
 3.0000e-001 85518  2.5169e+000  2.0635e+001 -1.2571e-001 47226 85293,85397,85319
 3.0000e-001 85495  2.9527e+000  2.1343e+001 -6.8824e-001 47226 85293,85423,85397
 3.0000e-001 85472  2.8154e+000  2.0747e+001 -1.4865e-001 47226 85319,85397,85345
 3.0000e-001 85449  1.2607e+000  1.6986e+001 -6.1715e-001 47226 85345,85397,85371
 3.0000e-001 85849 -1.1647e+001  1.7673e+001  1.0608e+001 46572 85624,85702,85650
 3.0000e-001 85826 -1.0108e+000  3.2547e+001  2.9250e+000 46572 85624,85754,85702
 3.0000e-001 85803  8.1133e+000  2.7530e+001  3.7495e+000 46572 85702,85754,85728
 3.0000e-001 85780 -4.3647e+000  2.3396e+001  2.9453e+000 46572 85650,85702,85676
 3.0000e-001 86070  1.6204e+001  6.5512e+001  4.5015e+000 46374 85920,85972,85946
 3.0000e-001 86047  7.5322e+000  4.4022e+001  1.4810e-001 46374 85920,85998,85972
 3.0000e-001 86024 -7.8665e-001  3.8813e+001 -5.0120e+000 46374 85894,85998,85920
 3.0000e-001 86401  4.0962e+001  5.3451e+001 -4.0018e+000 46034 86424,86280,86228
 3.0000e-001 86378  4.1925e+001  6.0564e+001 -1.7955e+000 46034 86424,86228,86176
 3.0000e-001 86355  4.1924e+001  5.8237e+001  2.4653e-001 46034 86176,86228,86202
 3.0000e-001 86332  3.5795e+001  5.1323e+001  1.7782e+000 46034 86228,86280,86254
 3.0000e-001 86450  3.5705e+001  6.1641e+001 -4.0412e+000 46034 86306,86280,86424
 3.0000e-001 86473  3.9138e+001  6.9512e+001  6.7346e-002 46034 86306,86424,86176
 3.0000e-001 87058  7.0105e+000  2.8931e+001 -1.4210e+000 45516 86813,86917,86865
 3.0000e-001 87035  1.2127e+001  4.2564e+001 -1.6389e-001 45516 86787,86917,86813
 3.0000e-001 87012  7.8793e+000  4.9398e+001 -3.4564e+000 45516 86735,86917,86787
 3.0000e-001 86989  6.2010e+000  3.0030e+001 -1.8725e+000 45516 86865,86917,86891
 3.0000e-001 86966  8.0983e+000  3.3460e+001 -4.6961e-001 45516 86813,86865,86839
 3.0000e-001 86943  3.3480e+000  6.1858e+001  6.1547e+000 45516 86735,86787,86761
 3.0000e-001 87208  7.3157e+000  4.3381e+001  6.2995e+000 45226 87231,87133,87107
 3.0000e-001 87185 -8.6364e-002  3.6484e+001  1.3205e+001 45226 87081,87159,87133
 3.0000e-001 87257 -4.1656e+000  2.5248e+001  1.1436e+001 45226 87081,87133,87231
 3.0000e-001 87537  5.6907e+000  4.5993e+001 -2.9505e+000 44772 87387,87439,87413
 3.0000e-001 87514 -7.0350e+000  4.2025e+001 -4.9891e+000 44772 87361,87439,87387
 3.0000e-001 87491 -2.5332e+001  6.0070e+001 -3.7719e+000 44772 87361,87465,87439
 3.0000e-001 87996  7.3453e+000  1.8585e+001 -2.2065e-001 44425 87748,87878,87852
 3.0000e-001 87973  1.6939e+000  1.5980e+001  3.2249e+000 44425 87722,87878,87748
 3.0000e-001 87950 -3.4861e-001  1.7892e+001  6.4525e-001 44425 87800,87852,87826
 3.0000e-001 87927  7.5199e+000  1.9563e+001 -5.2011e-001 44425 87748,87852,87800
 3.0000e-001 87904  3.6076e+000  2.3631e+001 -4.5221e+000 44425 87748,87800,87774
 3.0000e-001 88423  1.4355e+001  3.6532e+001  1.1365e+000 44078 88590,88230,88204
 3.0000e-001 88400  8.7701e+000  3.1199e+001  2.4592e+000 44078 88518,88446,88204
 3.0000e-001 88377  1.1243e+001  4.1419e+001 -3.9197e+000 44078 88446,88126,88282
 3.0000e-001 88354  1.2597e+001  2.6540e+001  5.2235e+000 44078 88518,88204,88178
 3.0000e-001 88331 -5.2408e-001  5.3023e+001 -1.1146e+001 44078 88100,88282,88126
 3.0000e-001 88308  6.8444e+000  2.1290e+001  5.4361e+000 44078 88126,88178,88152
 3.0000e-001 88472  1.4054e+001  3.6363e+001 -5.6026e-001 44078 88590,88204,88446
 3.0000e-001 88495  7.2725e+000  2.7561e+001 -5.8907e+000 44078 88256,88446,88282
 3.0000e-001 88544  1.1041e+001  4.1787e+001  3.2135e+000 44078 88126,88446,88518
 3.0000e-001 88567  1.1707e+001  3.2639e+001  5.2636e+000 44078 88126,88518,88178
 3.0000e-001 88616  2.9841e+001  3.7171e+001  7.1460e+000 44078 88256,88230,88590
 3.0000e-001 88639  1.8380e+001  3.8378e+001 -1.2161e+000 44078 88256,88590,88446
 3.0000e-001 89039  1.5667e+000  1.7468e+001  4.4292e-001 43716 88791,88921,88895
 3.0000e-001 89016  1.1304e+000  2.1276e+001  1.1527e+000 43716 88765,88921,88791
 3.0000e-001 88993  4.3319e+000  2.1055e+001 -1.9501e+000 43716 88817,88895,88869
 3.0000e-001 88970  1.3548e+001  2.3477e+001 -1.5666e+000 43716 88791,88895,88817
 3.0000e-001 88947 -8.9488e-001  1.9596e+001 -2.2035e+000 43716 88817,88869,88843
 3.0000e-001 89496  9.0303e+000  5.5966e+001  7.4849e+000 43162 89519,89274,89248
 3.0000e-001 89473  6.2851e+000  4.4007e+001  4.8900e+000 43162 89519,89248,89222
 3.0000e-001 89450  1.3893e+001  3.8662e+001  9.9883e+000 43162 89326,89378,89352
 3.0000e-001 89427  1.0165e+001  4.3254e+001  4.9483e+000 43162 89274,89378,89326
 3.0000e-001 89404  1.3641e+001  4.2825e+001  5.5482e+000 43162 89274,89326,89300
 3.0000e-001 89545  1.0494e+001  4.4637e+001  4.1591e+000 43162 89378,89274,89519
 3.0000e-001 89568  6.9142e+000  3.1673e+001  1.3760e+000 43162 89378,89519,89222
 3.0000e-001 89946  2.6631e+000  2.4837e+001  1.2074e+000 42594 90041,89969,89750
 3.0000e-001 89923 -4.5278e+000  1.3383e+001  4.7309e+000 42594 89969,89698,89828
 3.0000e-001 89900  1.7478e+000  2.6726e+001  4.1285e-001 42594 90041,89750,89724
 3.0000e-001 89877  7.0656e+000  2.3335e+001  1.4652e-001 42594 89750,89802,89776
 3.0000e-001 89854  1.4507e+000  9.0430e+000  8.6769e+000 42594 89672,89828,89698
 3.0000e-001 89995  4.3538e+000  1.8000e+001 -8.2476e-001 42594 89802,89750,89969
 3.0000e-001 90018 -9.0953e-001  1.6209e+001 -9.8776e-001 42594 89802,89969,89828
 3.0000e-001 90067  2.6873e+000  1.6318e+001  7.9856e-001 42594 89698,89969,90041
 3.0000e-001 90090  6.8626e+000  2.4264e+001 -1.6825e+000 42594 89698,90041,89724
 3.0000e-001 90517  7.1182e+000  3.2713e+001  6.7956e-001 42140 90540,90220,90194
 3.0000e-001 90494  6.7367e+000  4.2432e+001  7.0689e-001 42140 90540,90194,90376
 3.0000e-001 90471  1.2971e+000  3.2718e+001  1.1622e+000 42140 90612,90350,90272
 3.0000e-001 90448 -5.0413e+000  4.2104e+001 -1.8596e+000 42140 90272,90350,90298
 3.0000e-001 90425 -7.0574e+000  3.7297e+001 -1.6892e+000 42140 90298,90350,90324
 3.0000e-001 90402  1.1505e+001  3.5020e+001  2.6273e+000 42140 90220,90272,90246
 3.0000e-001 90566  5.0878e+000  3.2633e+001  4.9121e-002 42140 90272,90220,90540
 3.0000e-001 90589  2.0478e+000  3.4498e+001  1.6652e+000 42140 90612,90272,90540
 3.0000e-001 90638  1.9151e+000  3.0646e+001 -4.6294e-001 42140 90376,90350,90612
 3.0000e-001 90661  2.3673e+000  3.2978e+001 -4.9420e-001 42140 90376,90612,90540
 3.0000e-001 91167 -4.1198e+000  2.5361e+001  1.1146e+001 41636 91190,90870,90844
 3.0000e-001 91144  2.1771e+000  3.4426e+001  8.4007e+000 41636 91190,90844,91026
 3.0000e-001 91121 -5.4421e-001  2.2495e+001  1.7259e+001 41636 90870,90922,90896
 3.0000e-001 91098  5.8763e+000  1.4614e+001  5.0915e+000 41636 90922,91026,90948
 3.0000e-001 91075  1.3873e+001  1.6728e+001  5.6160e+000 41636 90948,91026,91000
 3.0000e-001 91052  1.1628e+001  1.2279e+000  3.4766e+000 41636 90948,91000,90974
 3.0000e-001 91216  2.1876e+000  1.9815e+001  1.1805e+001 41636 90922,90870,91190
 3.0000e-001 91239  5.5683e+000  2.4006e+001  9.9746e+000 41636 90922,91190,91026
 3.0000e-001 91696 -3.1227e-001  1.2785e+001 -3.9323e+000 40449 91448,91526,91474
 3.0000e-001 91673  3.6426e+000  1.2752e+001 -6.4654e-001 40449 91448,91578,91526
 3.0000e-001 91650 -3.9808e+000  2.1305e+001 -6.0761e+000 40449 91474,91526,91500
 3.0000e-001 91627  9.9511e+000  1.1047e+001 -3.0821e+000 40449 91422,91578,91448
 3.0000e-001 91604  5.9677e+000  9.4969e+000 -4.7363e-001 40449 91526,91578,91552
 3.0000e-001 92123  8.1433e+000  1.9670e+001 -1.2047e+000 39995 92146,91904,91826
 3.0000e-001 92100  3.1763e+000  1.8142e+001  2.8996e+000 39995 92146,91826,91800
 3.0000e-001 92077  1.1778e+001  2.3176e+001 -2.6541e+000 39995 91826,91904,91852
 3.0000e-001 92054  1.1131e+001  3.1360e+001 -4.3987e+000 39995 91904,91982,91930
 3.0000e-001 92031  2.2740e+000  1.9243e+001 -2.6523e+000 39995 91852,91904,91878
 3.0000e-001 92008  7.9923e+000  2.5964e+001 -3.1142e+000 39995 91930,91982,91956
 3.0000e-001 92172  9.7963e+000  2.1192e+001 -2.3240e+000 39995 91982,91904,92146
 3.0000e-001 92195  7.8704e+000  2.4962e+001  7.0276e-001 39995 91982,92146,91800
 3.0000e-001 92652  8.0725e+000  1.8226e+001  4.9323e-001 39633 92404,92534,92456
 3.0000e-001 92629  2.0015e+000  1.0802e+001 -2.1196e+000 39633 92378,92534,92404
 3.0000e-001 92606 -3.4613e+000  1.2980e+001 -1.8338e+000 39633 92404,92456,92430
 3.0000e-001 92583  7.9292e+000  1.1617e+001 -1.0722e+000 39633 92456,92534,92508
 3.0000e-001 92560  1.4562e+001  1.1837e+001  2.3372e+000 39633 92456,92508,92482
 3.0000e-001 93079  1.6549e+001  3.2652e+001 -3.5118e+000 39093 93102,92808,92756
 3.0000e-001 93056  1.6646e+001  4.0713e+001 -1.0257e+001 39093 93102,92756,92938
 3.0000e-001 93033  1.0448e+001  1.6458e+001 -6.4185e+000 39093 93174,92912,92834
 3.0000e-001 93010  2.0365e+001  2.1464e+001 -4.3241e+000 39093 92834,92912,92860
 3.0000e-001 92987  1.7594e+001  4.4368e+001 -1.0841e+000 39093 92756,92808,92782
 3.0000e-001 92964  1.9454e+001  1.8037e+001 -5.5805e+000 39093 92860,92912,92886
 3.0000e-001 93128  1.7980e+001  3.6048e+001 -2.7519e+000 39093 92834,92808,93102
 3.0000e-001 93151  1.7854e+001  3.1831e+001 -2.2995e+000 39093 93174,92834,93102
 3.0000e-001 93200  9.3014e+000  1.9309e+001 -1.5880e+001 39093 92938,92912,93174
 3.0000e-001 93223  8.6933e+000  2.5266e+001 -1.3060e+001 39093 92938,93174,93102
 3.0000e-001 93680  6.1190e-001  2.5642e+001 -5.8761e+000 38639 93703,93536,93484
 3.0000e-001 93657  2.5256e+000  2.4994e+001 -6.3574e+000 38639 93703,93484,93432
 3.0000e-001 93634 -7.8579e+000  2.8545e+001 -1.4829e+001 38639 93432,93484,93458
 3.0000e-001 93611  2.0218e-001  2.2377e+001 -1.2159e+001 38639 93484,93536,93510
 3.0000e-001 93588  8.6471e+000  1.9224e+001 -3.5700e+000 38639 93406,93562,93432
 3.0000e-001 93729  2.2738e+000  2.4611e+001 -5.6199e+000 38639 93562,93536,93703
 3.0000e-001 93752  5.6434e+000  2.5357e+001 -6.6861e+000 38639 93562,93703,93432
 3.0000e-001 94160  1.9183e+001  2.0707e+001  5.0032e+000 38292 93935,94039,93961
 3.0000e-001 94137  2.2105e+001  2.9450e+001  2.8442e+000 38292 93935,94065,94039
 3.0000e-001 94114  2.4654e+001  2.1791e+001  7.4868e+000 38292 93961,94013,93987
 3.0000e-001 94091  1.9463e+001  2.4879e+001  4.6265e+000 38292 93961,94039,94013
 3.0000e-001 94408 -9.6032e-001  1.3887e+001 -3.1662e+000 37880 94431,94261,94235
 3.0000e-001 94385  3.1306e-001  1.2350e+001 -2.5752e+000 37880 94431,94235,94313
 3.0000e-001 94362 -1.4288e+000  1.1196e+001 -7.5863e-001 37880 94209,94313,94235
 3.0000e-001 94339  2.3746e-001  1.6527e+001 -3.0505e+000 37880 94183,94313,94209
 3.0000e-001 94457 -3.5145e+000  1.2840e+001 -2.5895e+000 37880 94287,94261,94431
 3.0000e-001 94480 -8.2888e-001  1.2424e+001 -2.4433e+000 37880 94287,94431,94313
 3.0000e-001 94728  7.2340e-001  3.4199e+001 -1.3076e+000 37426 94529,94607,94555
 3.0000e-001 94705  9.6481e-001  3.1310e+001 -1.5244e+000 37426 94529,94633,94607
 3.0000e-001 94682 -4.8308e+000  3.0776e+001 -1.7667e+000 37426 94503,94633,94529
 3.0000e-001 94659 -1.3517e+000  8.0447e+000  1.1847e+001 37426 94555,94607,94581
 3.0000e-001 95257  3.6410e+000  7.9525e+000  1.6791e+000 36722 95496,95280,94862
 3.0000e-001 95234  2.2459e+001  1.5351e+001 -2.5885e+000 36722 95496,94862,94836
 3.0000e-001 95211  4.1527e+000  9.5182e+000  4.6047e+000 36722 95352,95280,95070
 3.0000e-001 95188 -6.8211e-001  7.2325e+000  9.1438e+000 36722 95352,95070,95044
 3.0000e-001 95165  2.2794e+001  2.2527e+001 -9.8853e+000 36722 95424,94888,94862
 3.0000e-001 95142 -1.3490e+001  1.1264e+001  9.7093e+000 36722 94914,94966,94940
 3.0000e-001 95119 -7.6662e+000  1.2155e+001  6.8199e+000 36722 94966,95044,95018
 3.0000e-001 95096 -2.1924e+000  1.6325e+001  1.2156e+001 36722 94966,95018,94992
 3.0000e-001 95306  2.4308e+000  1.1251e+001 -5.9451e-001 36722 95424,94862,95280
 3.0000e-001 95329 -3.9346e+000  1.2395e+001  5.5984e+000 36722 94914,95280,94966
 3.0000e-001 95378 -4.1986e+000  7.9117e+000  7.2107e+000 36722 94966,95280,95352
 3.0000e-001 95401 -7.5850e+000  9.1268e+000  1.0302e+001 36722 94966,95352,95044
 3.0000e-001 95450 -5.2749e+000  5.4635e+000 -2.2852e+000 36722 94914,94888,95424
 3.0000e-001 95473 -7.4644e+000  1.0081e+001  2.5126e+000 36722 94914,95424,95280
 3.0000e-001 95522  8.3138e-001  6.8051e+000  2.8685e+000 36722 95070,95280,95496
 3.0000e-001 95545  2.4951e+000  4.8539e+000  1.4871e+000 36722 95070,95496,94836
 3.0000e-001 96130  1.1578e+001  1.7898e+001  9.8247e-001 36268 96153,95911,95859
 3.0000e-001 96107  8.4291e+000  1.5447e+001 -3.7250e-001 36268 96153,95859,95807
 3.0000e-001 96084  1.2338e+001  3.2099e+001  6.4839e+000 36268 95807,95859,95833
 3.0000e-001 96061  1.7862e+001  1.5145e+001 -6.3925e-001 36268 95911,95989,95937
 3.0000e-001 96038  1.7488e+001  2.0590e+001  1.8380e+000 36268 95859,95911,95885
 3.0000e-001 96015  2.5619e+001  8.0666e+000  4.5580e+000 36268 95937,95989,95963
 3.0000e-001 96179  1.5769e+001  1.4699e+001  1.5994e+000 36268 95989,95911,96153
 3.0000e-001 96202  1.2005e+001  1.1256e+001 -1.3855e-001 36268 95989,96153,95807
 3.0000e-001 96531  4.5001e+000  3.5909e+001 -8.9031e+000 35728 96358,96410,96384
 3.0000e-001 96508  1.1521e+001  3.5095e+001 -8.0872e+000 35728 96332,96410,96358
 3.0000e-001 96485  1.1627e+001  3.4159e+001 -8.8678e+000 35728 96332,96436,96410
 3.0000e-001 96462  2.4311e+000  2.4717e+001 -2.3877e+000 35728 96306,96436,96332
 3.0000e-001 96860  1.8437e+001  1.7355e+001  4.0260e+000 35324 96687,96765,96713
 3.0000e-001 96837  1.9443e+001  1.9239e+001  2.8466e+000 35324 96661,96765,96687
 3.0000e-001 96814  1.8494e+001  1.1787e+001  7.0006e+000 35324 96713,96765,96739
 3.0000e-001 96791  3.2354e+001  9.0110e+000  1.6047e+000 35324 96635,96765,96661
 3.0000e-001 97366  1.7658e+001  2.7408e+001  1.8158e-001 34920 97389,97069,97043
 3.0000e-001 97343  1.5850e+001  2.7014e+001 -1.6774e+000 34920 97389,97043,97199
 3.0000e-001 97320  1.8096e+001  3.6897e+001 -1.2967e+000 34920 97043,97225,97199
 3.0000e-001 97297  2.3759e+001  2.8784e+001  4.2421e-001 34920 97069,97121,97095
 3.0000e-001 97274  1.4201e+001  2.2387e+001 -3.0583e+000 34920 97121,97199,97173
 3.0000e-001 97251  9.9462e+000  2.5896e+001 -6.6112e+000 34920 97121,97173,97147
 3.0000e-001 97415  1.9702e+001  2.8017e+001  1.2940e+000 34920 97121,97069,97389
 3.0000e-001 97438  1.8751e+001  2.7254e+001 -8.7729e-001 34920 97121,97389,97199
 3.0000e-001 97708  1.6498e+000  3.8186e+001  4.0620e+000 34722 97509,97587,97535
 3.0000e-001 97685 -3.1507e+000  3.9859e+001  4.6795e+000 34722 97509,97613,97587
 3.0000e-001 97662  1.0864e+001  4.6694e+001  6.8475e+000 34722 97483,97613,97509
 3.0000e-001 97639  2.2501e+001  4.4177e+001 -4.4078e-001 34722 97535,97587,97561
 3.0000e-001 98216  6.3184e+000  2.8354e+001 -8.2795e+000 34318 97971,98075,97997
 3.0000e-001 98193  8.6630e+000  3.3665e+001 -7.8145e+000 34318 97893,98075,97971
 3.0000e-001 98170  8.9447e-001  2.4091e+001 -4.3401e+000 34318 97893,97971,97919
 3.0000e-001 98147  7.4444e+000  3.2158e+001 -8.1722e+000 34318 97997,98075,98049
 3.0000e-001 98124  1.2046e+001  2.7553e+001 -5.5631e+000 34318 97919,97971,97945
 3.0000e-001 98101  1.1591e+001  4.0349e+001 -1.1959e+001 34318 97997,98049,98023
 3.0000e-001 98594  2.0284e+001  3.6407e+001 -2.6810e+000 33814 98961,98617,98424
 3.0000e-001 98571  1.5917e+001  3.9622e+001 -2.7549e+000 33814 98689,98617,98372
 3.0000e-001 98548  1.3792e+001  2.9003e+001 -1.0177e+000 33814 99033,98689,98372
 3.0000e-001 98525  1.8897e+001  2.6247e+001 -4.1655e+000 33814 98761,98476,98450
 3.0000e-001 98502  2.4888e+001  3.3472e+001 -1.4486e+000 33814 98961,98424,98398
 3.0000e-001 98643  2.2449e+001  3.8048e+001 -1.4992e+000 33814 98450,98424,98617
 3.0000e-001 98666  1.6880e+001  2.6458e+001 -3.2848e+000 33814 98761,98450,98617
 3.0000e-001 98715  1.9062e+001  3.7130e+001 -3.9919e+000 33814 99161,98689,98320
 3.0000e-001 98738  2.1639e+001  4.6388e+001 -6.2374e+000 33814 98320,98689,98346
 3.0000e-001 98787  2.3435e+001  3.3427e+001 -7.6908e+000 33814 98833,98761,98320
 3.0000e-001 98810  1.8957e+001  3.6914e+001 -3.7208e+000 33814 99161,98320,98761
 3.0000e-001 98859  1.6205e+001  1.6647e+001 -2.2756e+000 33814 98476,98761,98833
 3.0000e-001 98987  1.4060e+001  3.5150e+001 -9.5875e-001 33814 98372,98617,98961
 3.0000e-001 99010  1.8066e+001  3.1448e+001  1.1540e+000 33814 98372,98961,98398
 3.0000e-001 99059  2.4826e+001  5.3094e+001  2.2787e+000 33814 98346,98689,99033
 3.0000e-001 99187  1.9132e+001  3.7714e+001 -4.3559e+000 33814 98617,98689,99161
 3.0000e-001 99210  1.8761e+001  3.7333e+001 -4.0365e+000 33814 98617,99161,98761
 3.0000e-001 99588  3.2936e+000  1.8142e+001  2.0110e+000 33566 99366,99444,99392
 3.0000e-001 99565 -6.6194e+000  1.6166e+001 -4.6059e-001 33566 99314,99444,99366
 3.0000e-001 99542 -8.2092e+000  2.8338e+001  7.2784e+000 33566 99314,99366,99340
 3.0000e-001 99519 -6.6679e+000  2.1674e+001 -8.2266e+000 33566 99314,99470,99444
 3.0000e-001 99496  4.4675e+000  1.6114e+001 -4.5542e-002 33566 99392,99444,99418
 3.0000e-001 99787  9.7285e-001  3.5439e+001 -1.6454e+001 33105 99637,99689,99663
 3.0000e-001 99764 -6.8507e+000  2.3484e+001 -1.3511e+000 33105 99611,99689,99637
 3.0000e-001 99741 -5.5494e+000  2.3521e+001 -2.3154e+000 33105 99611,99715,99689
 3.0000e-001 100167  3.2459e+001  1.8473e+001 -8.7596e+000 32651 100190,99971,99919
 3.0000e-001 100144  1.5300e+001  1.7248e+001 -4.5164e+000 32651 100262,100190,99919
 3.0000e-001 100121  1.7949e+001  1.6246e+001 -2.2655e+000 32651 100262,99919,100049
 3.0000e-001 100098  3.1585e+001  2.2074e+001 -1.9470e+000 32651 99893,100049,99919
 3.0000e-001 100075  3.0551e+001  1.3216e+001 -9.2519e+000 32651 99919,99971,99945
 3.0000e-001 100216  1.6363e+001  1.0828e+001 -1.0934e+001 32651 99997,99971,100190
 3.0000e-001 100239  1.4529e+001  2.0348e+001 -4.7546e+000 32651 99997,100190,100023
 3.0000e-001 100288  1.7292e+001  2.2367e+001 -3.2178e+000 32651 100023,100190,100262
 3.0000e-001 100311  1.9833e+001  2.0789e+001  8.0819e-001 32651 100023,100262,100049
 3.0000e-001 100608  1.1129e+001  2.0128e+001 -8.9062e+000 32254 100386,100490,100464
 3.0000e-001 100585  1.0995e+001  1.5507e+001 -7.7052e+000 32254 100360,100490,100386
 3.0000e-001 100562  1.3764e+001  1.0527e+001 -1.5014e+001 32254 100386,100464,100412
 3.0000e-001 100539  3.4303e+000  1.4871e+001 -2.5761e+000 32254 100334,100490,100360
 3.0000e-001 100516  5.0906e+000  1.1237e+001 -2.1695e+001 32254 100412,100464,100438
 3.0000e-001 100758  2.1333e+001  1.4756e+001 -2.9375e+000 31914 100985,100781,100683
 3.0000e-001 100735  1.7134e+001  1.9096e+001  1.0044e+000 31914 100853,100781,100657
 3.0000e-001 100807  2.5633e+001  1.9986e+001 -5.2106e+000 31914 100709,100683,100781
 3.0000e-001 100830  2.6890e+001  2.3019e+001  3.4619e+000 31914 100709,100781,100631
 3.0000e-001 100879  2.1691e+001  1.5733e+001 -6.2214e-001 31914 100631,100781,100853
 3.0000e-001 101011  1.8817e+001  1.6172e+001 -4.9102e+000 31914 100657,100781,100985
 3.0000e-001 101191 -4.0977e+000  3.6920e+001 -3.9355e+000 31418 101113,101165,101139
 3.0000e-001 101341 -5.3565e+001 -9.0094e+000 -6.4498e+000 31106 101214,101266,101240
 3.0000e-001 101318 -2.4857e+001  7.8072e+001  8.2136e+000 31106 101214,101292,101266
 3.0000e-001 101591 -2.4881e+001  1.7471e+001  1.1500e+001 30552 101614,101470,101444
 3.0000e-001 101568 -1.0119e+001  2.0900e+001  1.8431e+001 30552 101366,101496,101470
 3.0000e-001 101545 -2.1895e+001  9.3083e+000  6.0109e+000 30552 101614,101444,101392
 3.0000e-001 101522 -1.6312e+001  2.2536e+001 -2.5194e+000 30552 101392,101444,101418
 3.0000e-001 101640 -1.9592e+001  2.3679e+001  1.5784e+001 30552 101366,101470,101614
 3.0000e-001 101663 -1.7298e+001  1.5416e+001  1.0096e+001 30552 101366,101614,101392
 3.0000e-001 102301  3.0415e+001  3.8881e+001 -1.4674e+001 30042 102396,102324,102059
 3.0000e-001 102278  2.2874e+001  1.8455e+001 -1.2240e+001 30042 102324,101981,101955
 3.0000e-001 102255  3.5573e+001  3.8196e+001 -1.7390e+001 30042 102396,102059,102033
 3.0000e-001 102232  1.9787e+001  3.6615e+001  1.8542e+001 30042 101929,102111,101955
 3.0000e-001 102209  2.0752e+001  3.7018e+001  2.5529e+000 30042 102059,102111,102085
 3.0000e-001 102186  7.0736e+000  4.5938e+001 -1.6761e+001 30042 101929,102137,102111
 3.0000e-001 102163  2.7809e+001  3.3827e+001 -9.2675e+000 30042 101981,102033,102007
 3.0000e-001 102350  2.6852e+001  3.1483e+001 -2.1542e-001 30042 102111,102059,102324
 3.0000e-001 102373  2.4167e+001  9.0570e+000  5.2630e+000 30042 102111,102324,101955
 3.0000e-001 102422  2.1414e+001  3.5637e+001 -1.0059e+001 30042 101981,102324,102396
 3.0000e-001 102445  2.7237e+001  3.5287e+001 -1.2730e+001 30042 101981,102396,102033
 3.0000e-001 103000  1.5614e+001  2.8252e+001 -6.5444e-001 29730 103023,102706,102654
 3.0000e-001 102977  2.0717e+001  2.7270e+001  1.9122e+000 29730 103023,102654,102810
 3.0000e-001 102954  1.9433e+001  3.1113e+001  6.2954e+000 29730 102732,102810,102784
 3.0000e-001 102931  2.1926e+001  2.9439e+001  2.6658e+000 29730 102628,102810,102654
 3.0000e-001 102908  1.7356e+001  2.6870e+001 -2.3413e+000 29730 102654,102706,102680
 3.0000e-001 102885  3.2254e+001  4.7371e+001  1.9878e+001 29730 102732,102784,102758
 3.0000e-001 102862  2.3847e+001  3.0208e+001  2.7949e+000 29730 102628,102836,102810
 3.0000e-001 103049  1.9055e+001  3.2254e+001  1.3862e+000 29730 102732,102706,103023
 3.0000e-001 103072  2.2052e+001  2.8486e+001  3.3900e+000 29730 102732,103023,102810
 3.0000e-001 103222 -1.9339e+001  3.8154e+001 -5.1284e+000 29226 103095,103147,103121
 3.0000e-001 103199 -3.0635e+001  1.5079e+001  4.1855e+000 29226 103095,103173,103147
 3.0000e-001 103730 -1.6828e+000  2.8887e+001  9.5178e+000 28822 103537,103589,103563
 3.0000e-001 103707  3.4145e+000  2.8875e+001  6.4429e+000 28822 103433,103589,103537
 3.0000e-001 103684  1.5788e+001  3.2724e+001  8.3948e+000 28822 103433,103537,103459
 3.0000e-001 103661  4.4248e+000  2.9587e+001  6.8499e+000 28822 103407,103589,103433
 3.0000e-001 103638  1.4356e+001  2.3819e+001 -9.9562e-001 28822 103459,103511,103485
 3.0000e-001 103615  7.3409e+000  1.8357e+001  1.3969e+000 28822 103459,103537,103511
 3.0000e-001 103880  7.2622e+000  2.5512e+001 -2.7285e+000 28368 103975,103903,103779
 3.0000e-001 103857  5.6959e+000  3.8005e+001  8.7392e-001 28368 103903,103753,103831
 3.0000e-001 103929  7.7605e+000  2.3789e+001 -2.2858e+000 28368 103805,103779,103903
 3.0000e-001 103952  1.4010e+000  3.0720e+001 -9.4039e-001 28368 104105,103903,103831
 3.0000e-001 104001  8.6969e+000  2.8486e+001  1.3512e+000 28368 103753,103903,103975
 3.0000e-001 104131  5.4710e+000  3.0684e+001 -3.7927e+000 28368 103805,103903,104105
 3.0000e-001 104539  2.2948e+001  3.3718e+001 -6.3801e+000 28028 104562,104340,104314
 3.0000e-001 104516  1.5433e+001  1.9515e+001 -3.5632e+000 28028 104634,104562,104314
 3.0000e-001 104493  1.3941e+000  2.8397e+001 -3.5926e-001 28028 104762,104366,104340
 3.0000e-001 104470  1.7347e+001  3.1713e+001  7.5443e+000 28028 104366,104418,104392
 3.0000e-001 104588  9.5845e+000  3.1686e+001 -1.0116e+000 28028 104762,104340,104562
 3.0000e-001 104611  2.4175e+001  3.1330e+001 -1.1230e+000 28028 104418,104562,104444
 3.0000e-001 104660  2.0913e+001  2.9966e+001 -8.6932e-001 28028 104444,104562,104634
 3.0000e-001 104788  1.2150e+001  2.5200e+001  1.2230e+000 28028 104418,104366,104762
 3.0000e-001 104811  1.9136e+001  2.7797e+001  1.2509e+000 28028 104418,104762,104562
 3.0000e-001 105010  2.6225e+001  4.4514e+001 -9.1724e+000 27324 105033,104886,104860
 3.0000e-001 104987  4.0445e+001  5.0048e+001 -1.0184e+001 27324 105033,104860,104834
 3.0000e-001 104964  2.5067e+001  5.1735e+001 -4.2523e+000 27324 105105,104912,104886
 3.0000e-001 105059  3.0920e+001  4.9093e+001 -3.2094e+000 27324 105105,104886,105033
 3.0000e-001 105082  3.2185e+001  4.8091e+001 -2.9090e+000 27324 104938,105033,104834
 3.0000e-001 105131  1.7900e+001  4.9018e+001 -3.9764e+000 27324 104938,104912,105105
 3.0000e-001 105154  2.3754e+001  4.6270e+001 -2.1443e+000 27324 104938,105105,105033
 3.0000e-001 105402 -4.2389e+001 -1.0092e+001 -3.9925e+000 27012 105229,105281,105255
 3.0000e-001 105379 -3.5140e+001 -1.6239e+001 -2.7695e+000 27012 105229,105307,105281
 3.0000e-001 105356 -2.3406e+001 -2.6305e+001 -6.9416e+000 27012 105177,105307,105229
 3.0000e-001 105333 -1.9332e+001 -1.3278e+001 -7.5335e+000 27012 105177,105229,105203
 3.0000e-001 105603  1.8001e+001  1.9972e+001 -1.7636e+000 26508 105626,105453,105427
 3.0000e-001 105580  1.5196e+001  1.3680e+001 -5.2263e+000 26508 105626,105427,105505
 3.0000e-001 105557  2.8187e+001  9.9943e+000 -1.3045e+000 26508 105427,105531,105505
 3.0000e-001 105652  1.9540e+001  2.0486e+001  1.2113e+000 26508 105479,105453,105626
 3.0000e-001 105675  1.8908e+001  1.7809e+001 -1.9785e+000 26508 105479,105626,105505
 3.0000e-001 106057  1.0018e+001  1.6500e+001 -2.7440e+000 25947 106080,105887,105861
 3.0000e-001 106034  1.1030e+001  1.8357e+001 -3.6101e+000 25947 106080,105861,105783
 3.0000e-001 106011  1.7284e+001  1.7470e+001 -6.3309e+000 25947 105783,105835,105809
 3.0000e-001 105988  9.6977e+000  2.3261e+001 -3.9823e+000 25947 105783,105861,105835
 3.0000e-001 105965  7.3866e+000  1.7443e+001 -4.4079e+000 25947 105887,105939,105913
 3.0000e-001 106106  1.0088e+001  1.7166e+001 -4.3401e+000 25947 105939,105887,106080
 3.0000e-001 106129  1.2147e+001  2.0438e+001 -5.4202e+000 25947 105939,106080,105783
 3.0000e-001 106714  2.0157e+001  2.4624e+001 -1.1957e+000 25557 106809,106737,106547
 3.0000e-001 106691  1.8854e+001  2.4236e+001  1.8102e+000 25557 106737,106417,106391
 3.0000e-001 106668  2.2480e+001  2.3679e+001 -7.6659e-001 25557 106809,106547,106495
 3.0000e-001 106645  2.4655e+001  2.7844e+001  9.8182e-001 25557 106417,106495,106469
 3.0000e-001 106622  2.3788e+001  2.6159e+001  1.9979e+000 25557 106495,106547,106521
 3.0000e-001 106599  3.0758e+001  2.4805e+001  2.8652e+000 25557 106417,106469,106443
 3.0000e-001 106763  2.3189e+001  2.8108e+001 -2.8188e+000 25557 106573,106547,106737
 3.0000e-001 106786  2.0313e+001  2.6593e+001 -3.6098e-001 25557 106573,106737,106391
 3.0000e-001 106835  2.2573e+001  2.7509e+001 -1.5743e-001 25557 106417,106737,106809
 3.0000e-001 106858  2.3344e+001  2.4764e+001 -3.9140e-001 25557 106417,106809,106495
 3.0000e-001 107364  1.3339e+001  1.2366e+001  5.6836e+000 25153 107459,107387,107171
 3.0000e-001 107341  1.3527e+001  1.7531e+001  6.0372e+000 25153 107387,107119,107067
 3.0000e-001 107318  1.3195e+001  1.4390e+001  7.8863e+000 25153 107459,107171,107145
 3.0000e-001 107295  1.0011e+001  1.4362e+001 -4.0476e-001 25153 107531,107223,107197
 3.0000e-001 107272  1.4763e+001  2.0623e+001  6.1788e+000 25153 107067,107119,107093
 3.0000e-001 107249  6.6397e+000  2.6869e+001  1.3523e+000 25153 107041,107223,107067
 3.0000e-001 107413  2.2629e+001  1.6801e+001  4.3685e+000 25153 107197,107171,107387
 3.0000e-001 107436  1.1379e+001  1.2598e+001  3.0704e+000 25153 107531,107197,107387
 3.0000e-001 107485  1.4980e+001  1.6318e+001  6.0869e+000 25153 107119,107387,107459
 3.0000e-001 107508  1.4948e+001  1.7906e+001  8.5564e+000 25153 107119,107459,107145
 3.0000e-001 107557  1.0216e+001  1.7907e+001  1.7315e+000 25153 107067,107223,107531
 3.0000e-001 107580  1.3125e+001  1.9244e+001  5.3026e+000 25153 107067,107531,107387
 3.0000e-001 107958  1.5358e+001  2.6560e+001 -5.9380e+000 24741 107736,107814,107788
 3.0000e-001 107935 -2.9154e+000  1.7711e+001 -8.6613e+000 24741 107736,107840,107814
 3.0000e-001 107912  1.5402e+001  4.4005e+001 -6.2558e-001 24741 107684,107840,107736
 3.0000e-001 107889  2.9492e+000  2.2100e+001 -3.6015e+000 24741 107736,107788,107762
 3.0000e-001 107866  5.5561e+000  2.8493e+001  6.0076e+000 24741 107684,107736,107710
 3.0000e-001 108157 -5.5113e+000  5.2939e+000  6.3240e+000 24237 108180,108059,108007
 3.0000e-001 108134 -6.0262e+000  1.3965e+001  1.4540e+001 24237 108180,108007,107981
 3.0000e-001 108111 -5.9228e+000  6.6683e+000  6.0950e+000 24237 108007,108059,108033
 3.0000e-001 108206 -1.2876e+000  1.4423e+001  8.0305e+000 24237 108085,108059,108180
 3.0000e-001 108229 -1.8575e+000  2.3106e+001  1.6200e+001 24237 108085,108180,107981
 3.0000e-001 108658  1.1295e+001  1.8312e+001 -4.4739e-001 23776 108361,108413,108387
 3.0000e-001 108635  4.6264e+000  2.8298e+000  2.7403e+000 23776 108753,108681,108361
 3.0000e-001 108612  3.5782e+000  1.1785e+001  3.7380e+000 23776 108681,108465,108439
 3.0000e-001 108589  6.2404e+000  9.3229e-002  5.5429e+000 23776 108753,108361,108335
 3.0000e-001 108566  7.2857e+000  1.2653e+001  5.2498e+000 23776 108335,108517,108465
 3.0000e-001 108543  8.6922e+000  1.2902e+001  6.0592e+000 23776 108465,108517,108491
 3.0000e-001 108707  9.4891e+000  1.1201e+001  6.0626e-001 23776 108413,108361,108681
 3.0000e-001 108730  4.7615e+000  1.5322e+001  3.6415e+000 23776 108413,108681,108439
 3.0000e-001 108779  5.9634e+000  1.2997e+001  2.2039e+000 23776 108465,108681,108753
 3.0000e-001 108802  4.5342e+000  5.2714e+000  4.3168e+000 23776 108465,108753,108335
 3.0000e-001 109023 -8.3357e+000  1.4682e+001  2.1158e+000 23414 108873,108925,108899
 3.0000e-001 109000 -1.3958e+001  1.3149e+001  2.4852e+000 23414 108847,108925,108873
 3.0000e-001 108977 -3.9806e+000  3.7770e+001  3.0825e+000 23414 108847,108951,108925
 3.0000e-001 109474 -1.9562e+001  3.8121e+001 -8.8541e+000 23024 109151,109307,109177
 3.0000e-001 109451 -3.4011e+001  1.5711e+001 -2.1808e+000 23024 109151,109333,109307
 3.0000e-001 109428  1.2008e+001  2.3982e+001 -3.4956e+000 23024 109177,109281,109203
 3.0000e-001 109405  1.4156e+001  3.8891e+001 -1.1856e+001 23024 109177,109307,109281
 3.0000e-001 109382  2.3908e+001  3.5119e+001  1.9990e+000 23024 109203,109281,109229
 3.0000e-001 109359  8.4164e+000  3.5126e+000 -3.8337e+000 23024 109229,109281,109255
 3.0000e-001 109820  1.3749e+001  2.1026e+001 -6.4904e+000 22506 109843,109601,109523
 3.0000e-001 109797  8.1791e+000  2.0238e+001 -6.0407e+000 22506 109843,109523,109497
 3.0000e-001 109774  6.7758e+000  2.2754e+001 -4.4759e+000 22506 109915,109653,109627
 3.0000e-001 109751  1.1125e+001  2.3427e+001 -3.9379e+000 22506 109497,109679,109653
 3.0000e-001 109728  1.2488e+001  1.8203e+001 -4.8241e+000 22506 109523,109601,109575
 3.0000e-001 109705  1.8355e+001  2.1635e+001 -2.2165e+000 22506 109523,109575,109549
 3.0000e-001 109869  6.9997e+000  1.5651e+001 -8.8231e+000 22506 109627,109601,109843
 3.0000e-001 109892  5.1159e+000  2.0869e+001 -6.8282e+000 22506 109915,109627,109843
 3.0000e-001 109941  1.0014e+001  2.1882e+001 -3.4010e+000 22506 109497,109653,109915
 3.0000e-001 109964  9.8753e+000  2.2244e+001 -5.2895e+000 22506 109497,109915,109843
 3.0000e-001 110163  1.0739e+001  2.1218e+001 -3.3313e+000 21936 110186,110039,110013
 3.0000e-001 110140  1.2999e+001  2.3526e+001 -2.1976e+000 21936 110390,110186,110013
 3.0000e-001 110117  1.5159e+001  2.1513e+001 -8.4623e-002 21936 110390,110013,109987
 3.0000e-001 110212  1.2024e+001  2.5050e+001 -1.3389e+000 21936 110065,110039,110186
 3.0000e-001 110235  7.1909e+000  1.8142e+001 -3.7511e+000 21936 110258,110186,110091
 3.0000e-001 110284  1.8554e+001  2.5756e+001 -2.7851e-001 21936 110065,110186,110258
 3.0000e-001 110416  8.2429e+000  2.2276e+001 -1.6127e+000 21936 110091,110186,110390
 3.0000e-001 110439  1.1417e+001  2.0916e+001  2.7272e-001 21936 110091,110390,109987
 3.0000e-001 110709  1.0776e+001  3.6457e+001 -1.7530e-001 21338 110510,110614,110588
 3.0000e-001 110686  8.4596e+000  3.6036e+001 -8.3597e-001 21338 110484,110614,110510
 3.0000e-001 110663  1.1494e+001  4.1018e+001  9.0750e-001 21338 110510,110562,110536
 3.0000e-001 110640  9.2794e+000  3.5620e+001  1.7926e-001 21338 110510,110588,110562
 3.0000e-001 111296  8.2623e+000  2.0165e+001  3.0656e+000 20934 111025,111155,111103
 3.0000e-001 111273  1.5558e+000  1.4161e+001  6.6285e+000 20934 110999,111155,111025
 3.0000e-001 111250 -1.5238e+001  8.7559e+000  8.8571e+000 20934 111103,111155,111129
 3.0000e-001 111227  1.4880e+001  2.7128e+001  1.9724e-001 20934 111051,111103,111077
 3.0000e-001 111204  8.7499e+000  1.8346e+001  3.2365e+000 20934 111025,111103,111051
 3.0000e-001 111181  8.6611e+000  1.0533e+001  9.7715e+000 20934 110973,111155,110999
 3.0000e-001 111930  1.4535e+001  1.9499e+001 -9.7310e+000 20494 111662,111714,111688
 3.0000e-001 111907  2.7217e+001  1.7886e+001 -8.9609e+000 20494 111584,111714,111662
 3.0000e-001 111884  2.0460e+001  1.4107e+001 -7.3421e+000 20494 111584,111766,111714
 3.0000e-001 111861  2.7069e+001  1.6648e+001 -4.6183e+000 20494 111584,111636,111610
 3.0000e-001 111838  2.3504e+001  1.6022e+001 -6.6135e+000 20494 111584,111662,111636
 3.0000e-001 111815  2.8077e+001  1.7021e+001 -7.4116e+000 20494 111558,111766,111584
 3.0000e-001 111792  2.1485e+001  1.6766e+001 -6.9214e+000 20494 111714,111766,111740
 3.0000e-001 112249  6.8423e+000  1.3044e+001  2.4035e+000 19940 111975,112053,112001
 3.0000e-001 112226  6.0462e+000  1.9765e+001  7.4394e+000 19940 111975,112131,112053
 3.0000e-001 112203 -3.1614e+000  1.7649e+001  0.0000e+000 19940 112053,112105,112079
 3.0000e-001 112180  3.6936e+000  2.2101e+001  1.9214e+000 19940 112053,112131,112105
 3.0000e-001 112157  1.8251e+001  1.4750e+001  4.7379e+000 19940 112001,112053,112027
 3.0000e-001 112757  1.9024e+000  3.3616e+001  7.1874e+000 19486 112780,112538,112486
 3.0000e-001 112734  3.1257e+000  3.5785e+001  3.1637e+000 19486 112780,112486,112460
 3.0000e-001 112711  7.1045e+000  3.2021e+001  3.0025e+000 19486 112852,112616,112590
 3.0000e-001 112688 -1.2604e+001  4.5357e+001  1.0135e+001 19486 112486,112538,112512
 3.0000e-001 112665  1.8879e+001  4.3365e+001  1.0402e+001 19486 112434,112616,112460
 3.0000e-001 112642  1.2665e+001  2.8753e+001  4.7353e+000 19486 112538,112590,112564
 3.0000e-001 112806  7.2319e+000  3.5972e+001  6.7957e+000 19486 112590,112538,112780
 3.0000e-001 112829  2.9689e+000  3.3526e+001  4.1501e+000 19486 112852,112590,112780
 3.0000e-001 112878  9.5964e+000  3.3984e+001  1.9467e+000 19486 112460,112616,112852
 3.0000e-001 112901  7.1461e+000  3.7138e+001  2.5426e+000 19486 112460,112852,112780
 3.0000e-001 113252  4.0184e+001  4.9524e+001  1.8181e+000 19096 113105,113157,113131
 3.0000e-001 113229  3.2406e+001  3.7973e+001 -1.5574e+000 19096 113053,113157,113105
 3.0000e-001 113206  2.7114e+001  3.6320e+001 -1.4896e+000 19096 113027,113157,113053
 3.0000e-001 113183  3.8751e+001  5.7315e+001 -2.0833e+000 19096 113053,113105,113079
 3.0000e-001 113451  1.2262e+000  2.3703e+001  5.8455e+000 18642 113327,113379,113353
 3.0000e-001 113428 -2.0103e+000  1.9355e+001  2.4580e+000 18642 113301,113379,113327
 3.0000e-001 113405  6.4003e+000  1.8189e+001  2.3614e+000 18642 113275,113379,113301
 3.0000e-001 113699  9.2242e+000  3.0520e+001 -1.8463e+000 18138 113474,113552,113526
 3.0000e-001 113676  7.9551e+000  2.6031e+001 -1.4122e+000 18138 113474,113578,113552
 3.0000e-001 113653  1.1265e+001  2.5357e+001 -2.6085e+000 18138 113474,113604,113578
 3.0000e-001 113630 -3.2935e+000  2.9886e+001 -9.3406e+000 18138 113474,113526,113500
 3.0000e-001 113851  1.6726e+001  4.6669e+001 -6.9353e-001 17682 113750,113802,113776
 3.0000e-001 113828  1.0352e+000  4.0333e+001 -3.4119e+000 17682 113724,113802,113750
 3.0000e-001 114383  9.8526e+000  6.6039e+000  2.9835e-001 17106 114086,114242,114164
 3.0000e-001 114360  1.0338e+001  6.7704e+000 -1.5920e-001 17106 114060,114242,114086
 3.0000e-001 114337  9.4531e+000  3.1401e+000  8.9757e-001 17106 114086,114164,114138
 3.0000e-001 114314  5.0891e+000  3.7248e+000  4.4294e-001 17106 114190,114242,114216
 3.0000e-001 114291  7.8702e+000  3.3244e+000 -5.3077e-001 17106 114164,114242,114190
 3.0000e-001 114268  9.4212e+000  6.1449e+000  8.1743e-002 17106 114086,114138,114112
 3.0000e-001 114680  9.5169e+000  2.1409e+001 -5.0128e-001 16766 114703,114432,114406
 3.0000e-001 114657  9.8580e+000  2.1183e+001 -1.9199e-001 16766 114703,114406,114510
 3.0000e-001 114634  9.5282e+000  1.9827e+001 -2.8769e-001 16766 114406,114536,114510
 3.0000e-001 114611  9.2882e+000  2.4772e+001  8.6129e-001 16766 114432,114484,114458
 3.0000e-001 114588  2.0089e+001  2.5462e+001 -3.5319e+000 16766 114406,114562,114536
 3.0000e-001 114729  8.1673e+000  2.1124e+001 -6.1132e-001 16766 114484,114432,114703
 3.0000e-001 114752  9.3338e+000  2.1463e+001 -3.2290e-001 16766 114484,114703,114510
 3.0000e-001 114902  3.0487e+001  2.1393e+001 -1.4900e+000 16362 114775,114827,114801
 3.0000e-001 114879  4.2868e+001  2.4969e+001 -4.0029e+000 16362 114775,114853,114827
 3.0000e-001 115054  3.8123e+000 -4.0532e-001  2.2845e+000 15908 114953,115005,114979
 3.0000e-001 115031  2.5653e+000  6.8809e+000  2.2589e+000 15908 114927,115005,114953
 3.0000e-001 115326  8.7558e+000  3.8963e+001 -2.5097e+000 15251 115101,115179,115153
 3.0000e-001 115303  9.2877e+000  3.8235e+001  1.1209e+000 15251 115101,115231,115179
 3.0000e-001 115280  1.0386e+001  4.0854e+001  9.2921e-001 15251 115179,115231,115205
 3.0000e-001 115257  7.7167e+000  5.4917e+001 -6.3414e+000 15251 115101,115153,115127
 3.0000e-001 115429  1.3463e+001  2.7774e+001 -2.0650e+000 421 115351,115403,115377
 4.0000e-001 66230 -8.7152e+000  1.0348e+001  2.5867e+000 65954 66152,66204,66178
 4.0000e-001 66429 -4.6237e+000  1.3761e+001  1.6657e+000 65642 66279,66331,66305
 4.0000e-001 66406 -3.7094e+000  1.7490e+001  2.3055e+000 65642 66279,66357,66331
 4.0000e-001 66383  7.6214e+000  1.5661e+001  1.4581e+000 65642 66253,66357,66279
 4.0000e-001 66628 -9.4805e-001  3.1614e+001 -1.3750e-001 65444 66452,66530,66478
 4.0000e-001 66605 -5.1310e-001  2.8177e+001 -1.4025e+000 65444 66452,66556,66530
 4.0000e-001 66582 -1.1548e+001  2.8653e+001  3.0050e+000 65444 66478,66530,66504
 4.0000e-001 67006  1.3435e+000  1.6924e+001  2.2306e+000 65246 66732,66810,66758
 4.0000e-001 66983  3.9654e+000  1.7080e+001  2.7130e+000 65246 66732,66836,66810
 4.0000e-001 66960  1.8511e+000  1.4681e+001  6.5472e-001 65246 66732,66862,66836
 4.0000e-001 66937  4.8892e+000  2.7061e+001  1.5927e+000 65246 66758,66810,66784
 4.0000e-001 66914 -1.3987e+000  1.9410e+001  5.1615e+000 65246 66732,66888,66862
 4.0000e-001 67107 -7.1861e+000  7.9633e+000  2.2701e+000 64934 67029,67081,67055
 4.0000e-001 67306 -9.8481e+000  2.8299e+001 -2.0982e-001 64736 67156,67208,67182
 4.0000e-001 67283 -7.8358e-001  3.0144e+001 -2.0837e+000 64736 67130,67208,67156
 4.0000e-001 67260  6.5560e+000  2.6968e+001  1.8908e+000 64736 67130,67234,67208
 4.0000e-001 67507 -9.4794e+000  2.4055e+001  1.4825e+000 64389 67357,67409,67383
 4.0000e-001 67484 -2.5836e+000  2.4002e+001  4.4631e+000 64389 67357,67435,67409
 4.0000e-001 67461  1.5708e-002  2.6256e+001  3.5071e+000 64389 67331,67435,67357
 4.0000e-001 67708  5.6756e+000  7.2135e+000  1.0019e+000 63985 67731,67584,67558
 4.0000e-001 67685  2.0928e-001  9.0219e+000  1.5013e+000 63985 67731,67558,67636
 4.0000e-001 67662 -4.4145e+000  1.1042e+001  5.6894e+000 63985 67532,67636,67558
 4.0000e-001 67757  1.8728e+000  7.6588e+000 -7.2968e-001 63985 67610,67584,67731
 4.0000e-001 67780 -3.5368e+000  9.0340e+000 -9.0079e-001 63985 67610,67731,67636
 4.0000e-001 67981 -1.5075e+000  1.2607e+001  2.0930e+000 63787 67857,67909,67883
 4.0000e-001 67958  1.2744e+000  1.6757e+001  2.1366e-001 63787 67831,67909,67857
 4.0000e-001 67935  3.9917e+000  1.8308e+001  1.9047e+000 63787 67805,67909,67831
 4.0000e-001 68231  2.5302e+000  6.1691e+000  2.4291e+000 63589 68254,68084,68032
 4.0000e-001 68208  4.1647e+000  1.1535e+001  3.1313e+000 63589 68254,68032,68006
 4.0000e-001 68185  1.4560e-001  9.7068e+000 -3.9535e-001 63589 68326,68136,68110
 4.0000e-001 68162 -6.1025e-001  4.2862e+000  4.2032e+000 63589 68032,68084,68058
 4.0000e-001 68280  5.1904e+000  1.0568e+001  1.3030e+000 63589 68110,68084,68254
 4.0000e-001 68303  1.2083e+000  1.0233e+001  1.1717e+000 63589 68326,68110,68254
 4.0000e-001 68352  1.1518e+000  1.3082e+001  1.2375e+000 63589 68006,68136,68326
 4.0000e-001 68375  2.2574e+000  1.2893e+001  2.8181e+000 63589 68006,68326,68254
 4.0000e-001 68836  2.6910e+000  1.0573e+001  5.1992e+000 63128 68859,68588,68562
 4.0000e-001 68813  2.3577e+000  1.3874e+001  1.2106e+000 63128 68859,68562,68692
 4.0000e-001 68790  4.6168e+000  9.5385e+000  6.5594e-001 63128 68614,68692,68666
 4.0000e-001 68767  5.5786e+000  6.9467e+000 -6.3813e-002 63128 68562,68718,68692
 4.0000e-001 68744  1.3932e+000  1.6916e+000 -1.0188e+000 63128 68614,68666,68640
 4.0000e-001 68885  2.0094e-001  4.8584e+000  6.2410e+000 63128 68614,68588,68859
 4.0000e-001 68908  3.7051e-001  9.5326e+000  2.3515e+000 63128 68614,68859,68692
 4.0000e-001 69237 -1.7294e-001  1.2148e+001 -6.4814e-001 62731 69064,69116,69090
 4.0000e-001 69214  7.8823e-001  1.4953e+001  4.9622e-002 62731 69064,69142,69116
 4.0000e-001 69191  2.8736e+000  2.2086e+001 -7.6712e-002 62731 69038,69142,69064
 4.0000e-001 69168 -1.1048e+000  2.0915e+001 -1.5091e+000 62731 69012,69142,69038
 4.0000e-001 69539  2.2232e+000  1.1968e+001  7.1770e-001 62433 69389,69467,69441
 4.0000e-001 69516  1.6565e+000  4.8975e+000  2.3236e+000 62433 69363,69467,69389
 4.0000e-001 69493 -2.6677e+000  1.5138e+000 -5.7858e-001 62433 69389,69441,69415
 4.0000e-001 69966 -4.2987e+000  1.6909e+001  5.0995e+000 62235 69989,69773,69721
 4.0000e-001 69943  1.8525e+000  1.6832e+001  3.2387e+000 62235 70061,69989,69721
 4.0000e-001 69920  3.4541e+000  1.8340e+001  4.0335e+000 62235 70061,69721,69643
 4.0000e-001 69897 -1.2181e+001  2.1859e+001  5.1103e+000 62235 69721,69773,69747
 4.0000e-001 69874  8.3681e+000  3.9511e+001  9.0108e+000 62235 69643,69721,69695
 4.0000e-001 69851 -9.8653e+000  1.1752e+001 -1.3740e-001 62235 69643,69695,69669
 4.0000e-001 70015 -7.5211e+000  1.4906e+001  9.7095e+000 62235 69799,69773,69989
 4.0000e-001 70038 -4.6465e-001  1.6754e+001  5.8738e+000 62235 69799,69989,69825
 4.0000e-001 70087 -6.0343e-001  1.9252e+001  3.1890e+000 62235 69825,69989,70061
 4.0000e-001 70110  1.0758e+000  2.0370e+001  3.7481e+000 62235 69825,70061,69643
 4.0000e-001 70260 -1.4865e-001  2.1860e+001 -7.3959e+000 62037 70133,70185,70159
 4.0000e-001 70237  3.3099e+000  2.7941e+001 -6.0043e+000 62037 70133,70211,70185
 4.0000e-001 70640 -8.6512e+000 -1.1174e+000 -3.6786e+000 61583 70735,70663,70418
 4.0000e-001 70617 -4.5551e+000  1.2471e+001 -3.2870e-001 61583 70663,70366,70522
 4.0000e-001 70594 -9.2444e+000 -5.1320e+000 -1.9663e+000 61583 70735,70418,70392
 4.0000e-001 70571 -9.1219e+000 -2.0136e+000 -3.6527e+000 61583 70418,70496,70444
 4.0000e-001 70548 -1.7605e+001  5.2600e+000 -4.8509e+000 61583 70444,70496,70470
 4.0000e-001 70689 -6.0876e+000 -8.1088e-001 -2.8654e+000 61583 70496,70418,70663
 4.0000e-001 70712 -6.8261e+000 -1.8309e+000 -2.5399e+000 61583 70496,70663,70522
 4.0000e-001 70761 -1.1680e+001 -3.7072e+000  7.8032e-001 61583 70366,70663,70735
 4.0000e-001 70784 -1.0566e+001 -6.9120e+000  2.1257e+000 61583 70366,70735,70392
 4.0000e-001 71054  5.4644e+000  3.0226e+001 -1.5840e+001 61313 71077,70881,70855
 4.0000e-001 71031  3.1663e+000  1.4341e+001 -1.0446e+001 61313 71077,70855,70829
 4.0000e-001 71008  3.0286e+000  9.0969e+000 -4.1045e+000 61313 70829,70959,70933
 4.0000e-001 70985 -1.5597e+001  1.9619e+001  2.0898e+000 61313 70881,70933,70907
 4.0000e-001 71103 -3.6949e-002  2.0550e+001 -8.1450e+000 61313 70933,70881,71077
 4.0000e-001 71126  2.4391e+000  1.0834e+001 -3.0699e+000 61313 70933,71077,70829
 4.0000e-001 71604 -7.9617e-001  5.9465e+000  4.2313e-001 60909 71627,71232,71414
 4.0000e-001 71581 -3.4106e+000  1.1301e+001 -6.3361e+000 60909 71232,71440,71414
 4.0000e-001 71558 -1.3793e+000  4.9859e+000  1.5596e-001 60909 71627,71414,71336
 4.0000e-001 71535  6.2026e-001  5.5053e+000  3.1195e+000 60909 71362,71414,71388
 4.0000e-001 71512 -1.8363e+000  6.3050e+000  2.2681e+000 60909 71336,71414,71362
 4.0000e-001 71489  1.6887e+000  7.1899e+000 -2.7373e+000 60909 71258,71336,71310
 4.0000e-001 71466  6.4111e+000  2.6767e+000  1.6286e+000 60909 71258,71310,71284
 4.0000e-001 71653 -6.8468e-001  4.9726e+000  2.0556e-001 60909 71258,71232,71627
 4.0000e-001 71676 -8.9131e-001  4.4998e+000  3.7700e-002 60909 71258,71627,71336
 4.0000e-001 71875  1.0198e+001  4.3844e+001  9.2150e+000 60611 71898,71725,71699
 4.0000e-001 71852  9.5698e+000  3.2120e+001  1.0681e+000 60611 71898,71699,71803
 4.0000e-001 71829  8.0298e+000  1.4135e+001  3.8145e+000 60611 71970,71751,71725
 4.0000e-001 71924  1.2353e+001  2.4559e+001  3.5665e+000 60611 71970,71725,71898
 4.0000e-001 71947  5.2390e+000  8.4048e+000 -1.1551e+000 60611 71777,71898,71803
 4.0000e-001 71996  7.8933e+000  2.6424e+001  6.8774e-001 60611 71777,71751,71970
 4.0000e-001 72019  9.8583e+000  3.0546e+001 -7.5072e-001 60611 71777,71970,71898
 4.0000e-001 72576  1.2010e+001  2.0710e+001 -2.6612e+000 60142 72599,72256,72230
 4.0000e-001 72553  1.2461e+001  1.4923e+001 -5.0288e+000 60142 72671,72599,72230
 4.0000e-001 72530  9.0126e+000  1.4339e+001 -5.1932e+000 60142 72671,72230,72204
 4.0000e-001 72507  1.4514e+001  1.1980e+001 -1.8414e+000 60142 72743,72360,72334
 4.0000e-001 72484  1.5524e+001  2.2058e+001  4.4909e-001 60142 72815,72282,72256
 4.0000e-001 72461  1.6958e+001  2.3839e+001  9.5777e-001 60142 72887,72308,72282
 4.0000e-001 72438  2.1249e+001  2.0052e+001 -1.2399e+001 60142 72204,72412,72386
 4.0000e-001 72625  1.4898e+001  1.8770e+001 -1.5063e-001 60142 72815,72256,72599
 4.0000e-001 72648  1.0759e+001  1.4977e+001 -1.6282e+000 60142 72743,72334,72599
 4.0000e-001 72697  9.6570e+000  1.4052e+001 -6.2423e+000 60142 72386,72599,72671
 4.0000e-001 72720  8.5985e+000  1.4758e+001 -6.7051e+000 60142 72386,72671,72204
 4.0000e-001 72769  2.4258e+001  1.6633e+001 -3.1891e+000 60142 72386,72360,72743
 4.0000e-001 72792  1.5412e+001  1.6892e+001 -2.4150e+000 60142 72386,72743,72599
 4.0000e-001 72841  1.5410e+001  2.3196e+001  1.1331e+000 60142 72887,72282,72815
 4.0000e-001 72864  1.4632e+001  2.1949e+001  1.2000e+000 60142 72334,72815,72599
 4.0000e-001 72913  1.4989e+001  2.4199e+001  3.2609e-001 60142 72334,72308,72887
 4.0000e-001 72936  1.4516e+001  2.3999e+001  3.7880e-001 60142 72334,72887,72815
 4.0000e-001 73491  1.0275e+000  1.0034e+001  1.2862e+000 59738 73145,73327,73171
 4.0000e-001 73468  1.0302e+001  1.0357e+001  4.3573e+000 59738 73119,73327,73145
 4.0000e-001 73445  1.6874e+000  5.3986e+000 -1.7954e+000 59738 73171,73327,73301
 4.0000e-001 73422 -9.6916e-002  1.0936e+001 -8.9328e-002 59738 73514,73275,73249
 4.0000e-001 73399  6.6031e-001  1.1301e+001 -2.8710e-001 59738 73586,73514,73249
 4.0000e-001 73376  4.1905e+000  1.2001e+001 -2.4363e+000 59738 73197,73249,73223
 4.0000e-001 73353 -4.2342e+000  1.0401e+001 -3.2690e+000 59738 73586,73249,73197
 4.0000e-001 73540 -3.6369e-001  1.2871e+001  6.2842e-001 59738 73301,73275,73514
 4.0000e-001 73563  1.8260e+000  9.5952e+000 -2.0264e+000 59738 73301,73514,73171
 4.0000e-001 73612 -3.4659e+000  5.8688e+000 -4.1961e+000 59738 73171,73514,73586
 4.0000e-001 73635 -5.2761e+000  7.1969e+000 -6.9290e+000 59738 73171,73586,73197
 4.0000e-001 73964 -7.5757e+000 -7.7800e+000  2.8346e+000 59334 73791,73843,73817
 4.0000e-001 73941 -1.7368e+001 -2.0752e+001 -3.0862e+000 59334 73791,73869,73843
 4.0000e-001 73918 -9.0712e+000 -1.4451e+000 -2.6552e+000 59334 73739,73869,73791
 4.0000e-001 73895 -1.4680e+001 -3.6354e+000 -1.2794e+000 59334 73739,73791,73765
 4.0000e-001 74261  7.5620e-001  8.4063e+000 -2.7419e+000 58630 74065,74117,74091
 4.0000e-001 74238  2.2960e+000  3.8966e+000 -3.1707e+000 58630 74356,74284,74065
 4.0000e-001 74215 -2.4211e+000 -3.7507e+000 -2.9989e+000 58630 74284,74013,73987
 4.0000e-001 74192  2.7974e+000  5.6214e+000 -3.9866e+000 58630 74356,74065,74039
 4.0000e-001 74169 -6.0031e+000  1.9742e+000  5.1842e+000 58630 73987,74143,74117
 4.0000e-001 74310 -1.6061e+000  5.4406e+000 -5.0303e+000 58630 74117,74065,74284
 4.0000e-001 74333 -7.8431e+000  2.7614e+000 -3.6857e+000 58630 74117,74284,73987
 4.0000e-001 74382  4.0682e+000  2.4697e+000 -5.7446e+000 58630 74013,74284,74356
 4.0000e-001 74405  4.7731e+000  4.5661e+000 -6.5895e+000 58630 74013,74356,74039
 4.0000e-001 74815  2.2914e+001 -3.0215e-002 -6.6480e+000 58226 74590,74642,74616
 4.0000e-001 74792  1.0450e+001  3.7380e-001  2.5450e+000 58226 74590,74694,74642
 4.0000e-001 74769  1.6154e+001 -7.8508e+000  6.5979e+000 58226 74590,74720,74694
 4.0000e-001 74746  9.7257e+000  4.7961e+000  2.4505e+000 58226 74642,74694,74668
 4.0000e-001 75014  1.0544e+001  7.5971e+000 -4.7744e+000 57786 75037,74864,74838
 4.0000e-001 74991  2.7963e+000  7.2992e+000  2.0069e+000 57786 75037,74838,74916
 4.0000e-001 74968  5.5535e+000  6.7913e+000  4.7913e+000 57786 74838,74942,74916
 4.0000e-001 75063 -6.2600e-001  1.1205e+001 -5.1446e+000 57786 74890,74864,75037
 4.0000e-001 75086 -7.4297e+000  1.1002e+001  2.2497e+000 57786 74890,75037,74916
 4.0000e-001 75368  3.8864e+000  1.3166e+001  1.4376e+000 57496 75192,75270,75218
 4.0000e-001 75345  8.3595e+000  1.3682e+001 -6.3472e-001 57496 75192,75296,75270
 4.0000e-001 75322  9.7433e+000  2.0479e+001  4.3801e+000 57496 75218,75270,75244
 4.0000e-001 75648  1.4406e+001  1.3876e+001 -3.5327e+000 57206 75472,75550,75498
 4.0000e-001 75625  1.1595e+001  1.8442e+001 -1.1099e+000 57206 75472,75576,75550
 4.0000e-001 75602  7.9709e+000  7.9918e+000 -1.4655e+000 57206 75671,75550,75524
 4.0000e-001 75697  6.5155e+000  1.0357e+001 -1.1732e+000 57206 75498,75550,75671
 4.0000e-001 76154  8.5900e+000  2.6305e+000 -2.2659e+000 56802 75958,76010,75984
 4.0000e-001 76131 -1.7890e+001 -2.0630e+001  1.1615e+001 56802 75932,76010,75958
 4.0000e-001 76108 -7.5831e+000  1.2886e+001  8.0996e+000 56802 75906,76010,75932
 4.0000e-001 76085 -1.8489e+001  1.7000e+000  3.5745e+000 56802 75880,76010,75906
 4.0000e-001 76062 -9.7806e+000  4.4621e+000  1.1465e+000 56802 75880,76036,76010
 4.0000e-001 76505 -4.0182e+000  2.6939e+001 -2.2219e+000 56504 76306,76384,76332
 4.0000e-001 76482  1.5506e+000  1.7499e+001  1.5011e+000 56504 76306,76410,76384
 4.0000e-001 76459  3.5486e+000  2.2445e+001 -8.6867e+000 56504 76332,76384,76358
 4.0000e-001 76436 -2.2021e+001  1.2718e+000 -6.5978e+000 56504 76280,76410,76306
 4.0000e-001 77011 -5.6892e-001  8.0329e+000  1.4364e+000 56050 76740,76818,76792
 4.0000e-001 76988  4.9900e+000  1.0765e+001  7.9471e-002 56050 76714,76818,76740
 4.0000e-001 76965  2.2909e+000  9.0474e+000  9.8500e-001 56050 76688,76818,76714
 4.0000e-001 76942  2.1986e+000  1.3163e+001 -8.9785e-001 56050 76688,76844,76818
 4.0000e-001 76919  8.1177e+000  1.3708e+001 -1.5848e+000 56050 76740,76792,76766
 4.0000e-001 76896 -1.3885e+000  1.5449e+001  4.0096e+000 56050 76688,76870,76844
 4.0000e-001 77517  7.4397e-001  1.2548e+001  4.2471e-002 55738 77220,77350,77324
 4.0000e-001 77494 -3.7469e+000  1.0050e+001 -9.3879e-001 55738 77220,77376,77350
 4.0000e-001 77471 -4.0651e+000  1.6616e+001 -3.3220e+000 55738 77194,77376,77220
 4.0000e-001 77448 -4.2154e+000  5.9551e+000  8.9674e-002 55738 77220,77298,77246
 4.0000e-001 77425 -7.0498e+000  7.0896e+000  2.7818e+000 55738 77220,77324,77298
 4.0000e-001 77402 -2.5722e+000  6.5628e+000 -8.0381e-001 55738 77246,77298,77272
 4.0000e-001 78064 -4.8489e+000 -2.9438e+000  1.4866e+000 55227 78231,78087,77773
 4.0000e-001 78041 -1.1504e+001 -3.0194e+000  3.6904e+000 55227 78087,77695,77643
 4.0000e-001 78018 -2.4415e+000 -1.5457e+001  1.4762e+000 55227 78159,77799,77773
 4.0000e-001 77995 -5.5465e+000 -4.0592e+000  1.7868e+000 55227 78231,77773,77721
 4.0000e-001 77972 -3.2071e+000 -3.5076e+000  4.5421e+000 55227 77643,77695,77669
 4.0000e-001 77949 -2.8180e+000  1.2969e+001 -2.5618e+000 55227 77643,77877,77851
 4.0000e-001 77926  7.5436e+000  1.1796e+000 -2.1245e+000 55227 77799,77851,77825
 4.0000e-001 77903 -1.2345e+001 -9.5131e+000  4.3610e+000 55227 77721,77773,77747
 4.0000e-001 78113 -6.9014e+000 -7.2162e+000 -5.9562e-001 55227 78159,77773,78087
 4.0000e-001 78136 -7.4153e+000  6.7194e+000  2.5725e-001 55227 77851,78087,77643
 4.0000e-001 78185  4.8052e+000 -5.0086e+000 -2.5939e+000 55227 77851,77799,78159
 4.0000e-001 78208 -7.1635e-001  1.9459e+000 -4.4109e+000 55227 77851,78159,78087
 4.0000e-001 78257 -6.7556e+000 -1.6613e-001  2.3022e+000 55227 77695,78087,78231
 4.0000e-001 78280 -8.0579e+000 -2.0214e+000  2.8777e+000 55227 77695,78231,77721
 4.0000e-001 78737  8.9069e+000  5.1577e+000 -7.5522e+000 54773 78463,78541,78515
 4.0000e-001 78714  4.6177e+000  1.9898e+000 -6.1458e+000 54773 78463,78619,78541
 4.0000e-001 78691  1.3843e+000 -1.4192e+001 -1.1993e+001 54773 78463,78515,78489
 4.0000e-001 78668  1.1169e+001  7.8223e+000  6.5345e-001 54773 78541,78593,78567
 4.0000e-001 78645  4.3532e+000  9.0628e+000  1.1637e+000 54773 78541,78619,78593
 4.0000e-001 78838 -4.8913e+000  5.4746e+000 -1.4280e+000 54211 78760,78812,78786
 4.0000e-001 79297  1.4790e+001  2.4036e+001 -4.5025e+000 53814 79520,79153,79049
 4.0000e-001 79274  1.7464e+001  1.4561e+001  8.1849e+000 53814 79520,79049,79023
 4.0000e-001 79251  1.4067e+001  9.1971e+000 -5.9513e-001 53814 79320,79101,79049
 4.0000e-001 79228  1.6067e+001  1.4227e+001 -3.6135e+000 53814 79320,79049,79153
 4.0000e-001 79205  1.8548e+001  7.4198e+000 -1.4091e-001 53814 79049,79101,79075
 4.0000e-001 79346  1.4615e+001  7.3303e+000 -7.1173e+000 53814 79392,79320,79127
 4.0000e-001 79369  2.2964e+001  1.7634e+001 -1.0880e+001 53814 79127,79320,79153
 4.0000e-001 79418  1.7932e+001  1.1101e+001 -5.7122e+000 53814 79101,79320,79392
 4.0000e-001 79546  2.2597e+001  4.1161e+001 -9.0265e+000 53814 79179,79153,79520
 4.0000e-001 79569  1.9243e+001  2.9178e+001  6.3257e+000 53814 79179,79520,79023
 4.0000e-001 80075 -4.9225e+000  2.6159e+000 -7.2701e+000 53039 80098,79908,79830
 4.0000e-001 80052 -7.0503e+000  1.0187e+000 -1.1761e+001 53039 80098,79830,79804
 4.0000e-001 80029 -2.0779e+000  7.2403e+000 -7.4680e+000 53039 79752,79934,79804
 4.0000e-001 80006  7.9718e-001  2.2636e+000 -3.9082e+000 53039 79856,79908,79882
 4.0000e-001 79983  1.9901e+000  7.3981e+000 -4.7710e+000 53039 79830,79908,79856
 4.0000e-001 79960 -6.9671e-001  7.5825e+000 -6.0396e+000 53039 79752,79804,79778
 4.0000e-001 80124  2.2805e+000  7.5006e+000 -4.0615e+000 53039 79934,79908,80098
 4.0000e-001 80147 -4.0890e+000  3.2855e+000 -9.0087e+000 53039 79934,80098,79804
 4.0000e-001 80555 -2.3576e+001  1.8439e+001  1.1672e+001 52699 80356,80434,80408
 4.0000e-001 80532 -5.4505e+001  1.8276e+000  2.1183e+001 52699 80356,80460,80434
 4.0000e-001 80509 -3.3225e+001  1.9649e+001  3.0977e+001 52699 80330,80460,80356
 4.0000e-001 80486 -3.0789e+001  4.4232e+000  1.4250e+001 52699 80356,80408,80382
 4.0000e-001 80776  4.1172e+000  1.3845e+001  9.6397e-001 52295 80600,80678,80626
 4.0000e-001 80753 -2.6998e+000  1.0674e+001  2.4041e+000 52295 80600,80704,80678
 4.0000e-001 80730  1.3443e+000  1.2685e+001  1.0287e+000 52295 80626,80678,80652
 4.0000e-001 81156 -2.9859e-001  3.6263e-001 -6.3340e+000 51891 81179,80960,80908
 4.0000e-001 81133 -9.7154e-001  1.1148e+000  2.5965e+000 51891 81179,80908,81012
 4.0000e-001 81110  3.3666e+000  5.4525e+000  6.5621e-001 51891 80882,81012,80908
 4.0000e-001 81087 -9.4129e+000  4.4846e+000 -7.4828e+000 51891 80908,80960,80934
 4.0000e-001 81064  5.7323e+000  6.2746e+000 -3.5813e+000 51891 80882,81038,81012
 4.0000e-001 81205 -1.1327e+001 -5.0791e+000 -8.4401e+000 51891 80986,80960,81179
 4.0000e-001 81228 -4.5743e+000 -7.5453e-001  9.8914e-001 51891 80986,81179,81012
 4.0000e-001 81606  6.9486e+000  2.7622e+001 -2.1776e+000 51544 81410,81462,81436
 4.0000e-001 81583  2.7272e+000  1.2961e+001 -4.8653e+000 51544 81384,81462,81410
 4.0000e-001 81560  1.9045e-002  1.0630e+001 -5.9200e+000 51544 81358,81462,81384
 4.0000e-001 81537  4.3975e+000  1.1011e+001 -3.2165e+000 51544 81358,81488,81462
 4.0000e-001 81514  5.3655e-001  2.4595e+000 -4.7642e+000 51544 81332,81488,81358
 4.0000e-001 81854  5.0338e+001  3.1185e+001  1.1078e+001 51004 81877,81655,81629
 4.0000e-001 81831  4.3892e+001  4.1599e+001  1.0238e+001 51004 81877,81629,81759
 4.0000e-001 81808  3.8016e+001  2.5307e+001  6.7173e+000 51004 81655,81707,81681
 4.0000e-001 81785  4.4731e+001  2.6496e+001 -5.6394e+000 51004 81707,81759,81733
 4.0000e-001 81903  4.5401e+001  3.0113e+001  8.8737e+000 51004 81707,81655,81877
 4.0000e-001 81926  3.2082e+001  3.1512e+001  4.9336e+000 51004 81707,81877,81759
 4.0000e-001 82257  2.8407e+000  1.1708e+001 -2.3406e-003 50642 82058,82136,82110
 4.0000e-001 82234  2.1473e+000  1.1065e+001  2.6457e-001 50642 82058,82162,82136
 4.0000e-001 82211  5.4205e+000  1.5616e+001 -3.1680e+000 50642 82058,82110,82084
 4.0000e-001 82188  4.7894e-001  1.0338e+001  4.3799e-001 50642 82032,82162,82058
 4.0000e-001 82684  9.6424e-001  1.1389e+001  1.3390e+000 49931 82779,82707,82465
 4.0000e-001 82661  2.5426e+000  1.5054e+001 -2.7701e-001 49931 82707,82413,82361
 4.0000e-001 82638  3.0888e-002  9.8314e+000  4.4295e+000 49931 82779,82465,82439
 4.0000e-001 82615  4.4089e+000  1.5764e+001 -1.1386e+000 49931 82465,82543,82491
 4.0000e-001 82592  2.3229e+000  1.9252e+001 -2.7036e+000 49931 82361,82413,82387
 4.0000e-001 82569  2.8791e+000  1.3412e+001 -4.5576e-001 49931 82491,82543,82517
 4.0000e-001 82733  3.7064e+000  1.4056e+001  2.5790e-001 49931 82543,82465,82707
 4.0000e-001 82756  2.0819e+000  1.4405e+001 -7.5501e-002 49931 82543,82707,82361
 4.0000e-001 82805  2.5546e+000  1.5576e+001  5.2894e-002 49931 82413,82707,82779
 4.0000e-001 82828  2.1860e+000  1.3899e+001  2.9291e+000 49931 82413,82779,82439
 4.0000e-001 83255 -2.3517e+001 -1.1713e+001 -7.7485e+000 49327 82984,83114,83036
 4.0000e-001 83232 -2.4044e+001 -1.3120e+001 -6.0828e+000 49327 82958,83114,82984
 4.0000e-001 83209 -2.3721e+001  4.6364e-001 -1.1861e+001 49327 83036,83114,83088
 4.0000e-001 83186 -6.9090e+000 -1.6797e+001 -1.3122e+001 49327 82984,83036,83010
 4.0000e-001 83163 -1.8832e+001 -9.3582e+000 -4.4289e+000 49327 82932,83114,82958
 4.0000e-001 83140 -9.0051e+000  8.6398e+000 -2.1639e+001 49327 83036,83088,83062
 4.0000e-001 83938  1.1594e+001  4.7845e+000 -2.0863e-001 48965 83961,83673,83647
 4.0000e-001 83915  1.6197e+001  1.4637e+001 -1.5434e+000 48965 83961,83647,83543
 4.0000e-001 83892  8.6697e+000  5.9852e+000 -9.5604e+000 48965 83517,83725,83543
 4.0000e-001 83869  2.0957e+001 -1.8901e+000 -8.1765e+000 48965 83673,83725,83699
 4.0000e-001 83846  1.6065e+001  1.2756e+001  1.2661e-001 48965 83543,83647,83621
 4.0000e-001 83823  1.3008e+001  1.1586e+001  1.4567e+000 48965 83543,83621,83569
 4.0000e-001 83800  1.7265e+001  8.8257e+000 -1.2466e+001 48965 83517,83751,83725
 4.0000e-001 83777  1.1677e+001  1.1569e+001  2.8469e+000 48965 83569,83621,83595
 4.0000e-001 83987  1.5212e+001  7.7254e+000 -6.3164e+000 48965 83725,83673,83961
 4.0000e-001 84010  1.6619e+001  1.0997e+001 -6.4672e+000 48965 83725,83961,83543
 4.0000e-001 84258  2.3929e+001  2.3965e+001  1.4819e+001 48447 84281,84059,84033
 4.0000e-001 84235  3.5094e+001  4.9016e+001  1.9428e+001 48447 84281,84033,84163
 4.0000e-001 84212  3.2950e+001  1.9375e+001  1.1389e+000 48447 84059,84111,84085
 4.0000e-001 84189  8.9189e+000  4.4781e+001 -5.4100e+000 48447 84111,84163,84137
 4.0000e-001 84307  2.5349e+001  2.4183e+001 -1.3932e-001 48447 84111,84059,84281
 4.0000e-001 84330  2.9135e+001  3.8002e+001  3.4065e+000 48447 84111,84281,84163
 4.0000e-001 84529  1.2423e+001  3.5112e+001  6.2618e+000 47993 84552,84405,84379
 4.0000e-001 84506 -1.0635e+001  2.4578e+001  3.6688e+000 47993 84552,84379,84353
 4.0000e-001 84483  1.5872e+001  2.9666e+001 -2.5856e+000 47993 84624,84457,84431
 4.0000e-001 84578  9.5574e+000  2.3563e+001  4.9669e+000 47993 84431,84405,84552
 4.0000e-001 84601  1.1759e+001  2.2663e+001  1.2213e+000 47993 84624,84431,84552
 4.0000e-001 84650  1.2651e+001  3.5220e+001 -5.6803e+000 47993 84353,84457,84624
 4.0000e-001 84673  1.1521e+001  3.4490e+001 -1.4382e+000 47993 84353,84624,84552
 4.0000e-001 85104 -2.9149e+000  1.8847e+001 -3.6887e+000 47588 85199,85127,84885
 4.0000e-001 85081 -2.3852e+000  2.1308e+001 -3.6988e+000 47588 85127,84781,84963
 4.0000e-001 85058 -4.3440e+000  1.8433e+001 -2.2550e+000 47588 85199,84885,84807
 4.0000e-001 85035  5.5846e+000  1.7305e+001 -3.6640e+000 47588 84885,84937,84911
 4.0000e-001 85012 -4.6857e+000  1.4371e+001 -1.0848e+000 47588 84807,84885,84833
 4.0000e-001 84989 -3.5152e+000  1.4881e+001 -5.4739e-001 47588 84833,84885,84859
 4.0000e-001 85153 -2.1258e+000  1.6968e+001 -2.4430e+000 47588 84937,84885,85127
 4.0000e-001 85176  9.3701e-001  1.8725e+001 -3.1528e+000 47588 84937,85127,84963
 4.0000e-001 85225 -5.1897e+000  1.8571e+001 -2.5742e+000 47588 84781,85127,85199
 4.0000e-001 85248 -6.5043e+000  1.7463e+001 -9.3111e-001 47588 84781,85199,84807
 4.0000e-001 85518  1.9074e+000  1.4582e+001  6.2160e-002 47226 85293,85397,85319
 4.0000e-001 85495  1.9165e+000  1.5709e+001 -1.0601e+000 47226 85293,85423,85397
 4.0000e-001 85472  1.5438e+000  1.4147e+001 -5.9749e-001 47226 85319,85397,85345
 4.0000e-001 85449  5.1915e-002  1.0315e+001 -1.0128e+000 47226 85345,85397,85371
 4.0000e-001 85849  7.3723e+000  1.8406e+001  3.0997e+000 46572 85624,85702,85650
 4.0000e-001 85826  1.3161e+001  3.1793e+001  2.1853e+000 46572 85624,85754,85702
 4.0000e-001 85803  1.1550e+001  1.8149e+001 -8.4517e-001 46572 85702,85754,85728
 4.0000e-001 85780  1.6584e+001  2.2330e+001  2.8460e+000 46572 85650,85702,85676
 4.0000e-001 86070  6.1994e+000  2.4717e+001  1.2242e+000 46374 85920,85972,85946
 4.0000e-001 86047  7.3885e+000  2.6898e+001 -8.0793e-001 46374 85920,85998,85972
 4.0000e-001 86024 -9.5680e+000  1.9737e+001 -1.2008e+001 46374 85894,85998,85920
 4.0000e-001 86401  1.2957e+001  8.1998e+000 -1.2942e+001 46034 86424,86280,86228
 4.0000e-001 86378  3.2863e+000  8.0236e+000 -1.4056e+001 46034 86424,86228,86176
 4.0000e-001 86355  3.0370e+000  1.7803e+001 -2.3101e+001 46034 86176,86228,86202
 4.0000e-001 86332  8.5478e+000  6.3630e+000 -6.7351e+000 46034 86228,86280,86254
 4.0000e-001 86450  3.1477e+001  5.2823e+000 -1.6973e+001 46034 86306,86280,86424
 4.0000e-001 86473  1.2339e+001 -1.4869e+000 -1.9158e+001 46034 86306,86424,86176
 4.0000e-001 87058  3.3153e-001  1.8247e+001 -3.9732e+000 45516 86813,86917,86865
 4.0000e-001 87035  7.6685e+000  3.7258e+001 -2.7154e+000 45516 86787,86917,86813
 4.0000e-001 87012  2.9138e+000  5.3588e+001 -7.3466e+000 45516 86735,86917,86787
 4.0000e-001 86989  1.6046e+001  3.6390e+001 -1.1776e+001 45516 86865,86917,86891
 4.0000e-001 86966  7.0384e+000  2.5586e+001 -1.1820e+000 45516 86813,86865,86839
 4.0000e-001 86943 -1.1976e+001  5.0869e+001  7.7873e+000 45516 86735,86787,86761
 4.0000e-001 87208  1.8475e+000  8.6306e+000  7.0351e+000 45226 87231,87133,87107
 4.0000e-001 87185  9.7161e-001  1.5010e+001  1.6497e+001 45226 87081,87159,87133
 4.0000e-001 87257  7.0502e-001  7.0914e+000  7.5342e+000 45226 87081,87133,87231
 4.0000e-001 87537  9.8268e+000  2.0178e+001 -1.4385e+000 44772 87387,87439,87413
 4.0000e-001 87514  3.5074e+000  2.0650e+001 -6.8571e+000 44772 87361,87439,87387
 4.0000e-001 87491  8.9794e+000  4.2848e+001 -1.1841e+001 44772 87361,87465,87439
 4.0000e-001 87996  3.5998e+000  1.2364e+001 -4.0886e-001 44425 87748,87878,87852
 4.0000e-001 87973  1.8545e+000  1.1485e+001  2.0655e+000 44425 87722,87878,87748
 4.0000e-001 87950 -2.0904e+000  1.0655e+001 -8.5972e-001 44425 87800,87852,87826
 4.0000e-001 87927  5.5066e+000  1.3266e+001 -8.9552e-001 44425 87748,87852,87800
 4.0000e-001 87904  2.7862e+000  1.5500e+001 -3.5473e+000 44425 87748,87800,87774
 4.0000e-001 88423  3.3069e+000  5.8957e-001 -2.1113e+000 44078 88590,88230,88204
 4.0000e-001 88400  8.4474e-001 -1.9989e-001 -8.6866e-001 44078 88518,88446,88204
 4.0000e-001 88377 -3.3991e+000  1.0533e+000  1.0120e+000 44078 88446,88126,88282
 4.0000e-001 88354  1.8578e+000 -1.6216e+000 -3.2777e-002 44078 88518,88204,88178
 4.0000e-001 88331  3.2886e+000  5.7515e-001  4.6886e+000 44078 88100,88282,88126
 4.0000e-001 88308  1.2695e+000  2.7807e-002  4.7418e-001 44078 88126,88178,88152
 4.0000e-001 88472  3.2962e+000  7.0940e-001 -2.5872e+000 44078 88590,88204,88446
 4.0000e-001 88495 -6.5296e-001  3.3013e+000 -1.7328e+000 44078 88256,88446,88282
 4.0000e-001 88544  1.3738e+000  2.9786e+000 -7.1872e-001 44078 88126,88446,88518
 4.0000e-001 88567  1.4432e+000  2.1821e-001 -7.5492e-002 44078 88126,88518,88178
 4.0000e-001 88616  8.3365e+000  3.1762e+000 -5.6267e-002 44078 88256,88230,88590
 4.0000e-001 88639  4.3337e+000  1.1374e+000 -2.5645e+000 44078 88256,88590,88446
 4.0000e-001 89039  1.4376e+000  1.2512e+001 -2.4941e-001 43716 88791,88921,88895
 4.0000e-001 89016  1.5408e+000  1.5865e+001  4.6888e-001 43716 88765,88921,88791
 4.0000e-001 88993  2.2585e+000  1.4722e+001 -2.3478e+000 43716 88817,88895,88869
 4.0000e-001 88970  1.0959e+001  1.7268e+001 -1.8246e+000 43716 88791,88895,88817
 4.0000e-001 88947 -3.9204e+000  1.2770e+001 -2.4266e+000 43716 88817,88869,88843
 4.0000e-001 89496  2.1328e+000  2.2104e+001  2.9313e+000 43162 89519,89274,89248
 4.0000e-001 89473 -1.0510e+000  1.5921e+001  1.1682e+000 43162 89519,89248,89222
 4.0000e-001 89450  7.5266e+000  1.3018e+001  3.0313e+000 43162 89326,89378,89352
 4.0000e-001 89427  3.7736e+000  1.4030e+001  1.1655e+000 43162 89274,89378,89326
 4.0000e-001 89404  6.3644e+000  1.5075e+001  1.8884e+000 43162 89274,89326,89300
 4.0000e-001 89545  3.9827e+000  1.5260e+001  1.9886e-001 43162 89378,89274,89519
 4.0000e-001 89568  2.7674e-001  8.5006e+000 -1.7302e+000 43162 89378,89519,89222
 4.0000e-001 89946  8.7977e-002  1.1534e+001 -1.9100e+000 42594 90041,89969,89750
 4.0000e-001 89923 -3.2890e+000  7.1041e+000  1.2265e+000 42594 89969,89698,89828
 4.0000e-001 89900  2.1588e+000  1.1243e+001 -1.8029e+000 42594 90041,89750,89724
 4.0000e-001 89877  3.0786e+000  1.3417e+001 -6.0401e-001 42594 89750,89802,89776
 4.0000e-001 89854  1.9465e+000  5.5330e+000  4.4643e+000 42594 89672,89828,89698
 4.0000e-001 89995  3.3692e-001  9.4432e+000 -2.3572e+000 42594 89802,89750,89969
 4.0000e-001 90018 -9.0077e-001  1.0149e+001 -1.4154e+000 42594 89802,89969,89828
 4.0000e-001 90067  2.3757e+000  9.4313e+000 -1.1608e+000 42594 89698,89969,90041
 4.0000e-001 90090  6.7437e+000  1.1209e+001 -2.3499e+000 42594 89698,90041,89724
 4.0000e-001 90517  1.0606e+001  1.2792e+001  8.8625e-001 42140 90540,90220,90194
 4.0000e-001 90494  7.0007e+000  1.2157e+001  2.4028e+000 42140 90540,90194,90376
 4.0000e-001 90471  6.9049e+000  1.5733e+001  2.1122e+000 42140 90612,90350,90272
 4.0000e-001 90448 -2.3367e+000  1.0510e+001 -2.0181e+000 42140 90272,90350,90298
 4.0000e-001 90425 -5.4920e-001  1.1854e+001 -4.3711e+000 42140 90298,90350,90324
 4.0000e-001 90402  1.0041e+001  8.7192e+000  4.6026e+000 42140 90220,90272,90246
 4.0000e-001 90566  7.5200e+000  8.3478e+000 -5.1219e-001 42140 90272,90220,90540
 4.0000e-001 90589  5.9073e+000  1.3325e+001  5.3709e-001 42140 90612,90272,90540
 4.0000e-001 90638  7.4453e+000  1.7900e+001  3.5945e+000 42140 90376,90350,90612
 4.0000e-001 90661  8.6877e+000  1.5980e+001  2.6740e+000 42140 90376,90612,90540
 4.0000e-001 91167  2.0952e+001  4.6709e+000 -3.0777e+000 41636 91190,90870,90844
 4.0000e-001 91144  1.7215e+001  2.7945e+000 -1.4266e+000 41636 91190,90844,91026
 4.0000e-001 91121  1.4971e+001  3.6473e+000 -7.0967e+000 41636 90870,90922,90896
 4.0000e-001 91098  1.0985e+001  7.1255e+000  1.1247e+000 41636 90922,91026,90948
 4.0000e-001 91075  1.2525e+001  6.6745e+000  2.0792e+000 41636 90948,91026,91000
 4.0000e-001 91052  8.8887e+000  1.3712e+000  3.8239e+000 41636 90948,91000,90974
 4.0000e-001 91216  1.7455e+001  7.0338e+000 -3.5701e+000 41636 90922,90870,91190
 4.0000e-001 91239  1.3723e+001  5.7530e+000 -3.0180e+000 41636 90922,91190,91026
 4.0000e-001 91696 -4.8736e+000  4.5776e+000 -2.8877e+000 40449 91448,91526,91474
 4.0000e-001 91673  4.7224e-001  6.0421e+000 -1.4704e+000 40449 91448,91578,91526
 4.0000e-001 91650 -1.0741e+001  7.2661e+000 -5.8986e+000 40449 91474,91526,91500
 4.0000e-001 91627 -5.4073e-001  4.4412e+000 -2.4467e+000 40449 91422,91578,91448
 4.0000e-001 91604 -2.0217e+000  5.9427e+000 -9.4824e-001 40449 91526,91578,91552
 4.0000e-001 92123  5.5275e+000  1.4503e+001 -3.6591e+000 39995 92146,91904,91826
 4.0000e-001 92100  4.5030e+000  1.4429e+001 -1.1560e+000 39995 92146,91826,91800
 4.0000e-001 92077  7.5072e+000  1.7499e+001 -4.7939e+000 39995 91826,91904,91852
 4.0000e-001 92054  7.0707e+000  2.3921e+001 -4.2134e+000 39995 91904,91982,91930
 4.0000e-001 92031 -1.1491e+000  1.4178e+001 -4.1163e+000 39995 91852,91904,91878
 4.0000e-001 92008  3.2134e+000  2.0207e+001 -2.2432e+000 39995 91930,91982,91956
 4.0000e-001 92172  5.5605e+000  1.6226e+001 -3.1451e+000 39995 91982,91904,92146
 4.0000e-001 92195  5.8049e+000  1.9071e+001 -1.1624e+000 39995 91982,92146,91800
 4.0000e-001 92652  2.1845e+000  1.0745e+001  7.1407e-001 39633 92404,92534,92456
 4.0000e-001 92629 -1.9291e-001  6.9307e+000 -3.8407e-001 39633 92378,92534,92404
 4.0000e-001 92606 -9.8514e+000  5.1355e+000 -2.6964e+000 39633 92404,92456,92430
 4.0000e-001 92583  1.9982e+000  7.5030e+000  4.3827e-002 39633 92456,92534,92508
 4.0000e-001 92560  7.4185e+000  7.7022e+000  2.8275e+000 39633 92456,92508,92482
 4.0000e-001 93079  4.6763e+000  9.4981e+000 -1.1958e+000 39093 93102,92808,92756
 4.0000e-001 93056  9.2000e+000  1.5472e+001 -5.0759e+000 39093 93102,92756,92938
 4.0000e-001 93033  8.1157e+000  4.7906e+000 -6.7760e-001 39093 93174,92912,92834
 4.0000e-001 93010  5.8608e+000  3.5289e+000 -1.2074e+000 39093 92834,92912,92860
 4.0000e-001 92987  1.2753e+001  1.5872e+001 -6.7595e+000 39093 92756,92808,92782
 4.0000e-001 92964  3.7212e+000  1.3012e-001  6.2787e-001 39093 92860,92912,92886
 4.0000e-001 93128  9.2631e+000  5.9725e+000 -3.4005e-002 39093 92834,92808,93102
 4.0000e-001 93151  9.6170e+000  8.1635e+000 -3.5471e-001 39093 93174,92834,93102
 4.0000e-001 93200  8.2610e+000  5.6521e+000 -2.9106e+000 39093 92938,92912,93174
 4.0000e-001 93223  8.7120e+000  7.1741e+000 -2.8319e+000 39093 92938,93174,93102
 4.0000e-001 93680  3.1968e+000  2.1327e+001 -2.7325e+000 38639 93703,93536,93484
 4.0000e-001 93657  5.5292e+000  2.0349e+001 -3.3000e+000 38639 93703,93484,93432
 4.0000e-001 93634 -4.8316e+000  2.1016e+001 -8.3836e+000 38639 93432,93484,93458
 4.0000e-001 93611 -5.8531e-001  1.4938e+001  4.2378e+000 38639 93484,93536,93510
 4.0000e-001 93588  8.5303e+000  1.6651e+001 -3.2304e+000 38639 93406,93562,93432
 4.0000e-001 93729  5.2080e+000  2.0512e+001 -2.3586e+000 38639 93562,93536,93703
 4.0000e-001 93752  9.1069e+000  2.0948e+001 -3.5460e+000 38639 93562,93703,93432
 4.0000e-001 94160  7.8286e+000  6.9756e+000  6.0937e-001 38292 93935,94039,93961
 4.0000e-001 94137  8.8708e+000  6.7555e+000  4.0340e+000 38292 93935,94065,94039
 4.0000e-001 94114  3.1403e+000  1.8565e+000 -3.4141e-002 38292 93961,94013,93987
 4.0000e-001 94091  6.1689e+000  1.1677e+000  1.5859e+000 38292 93961,94039,94013
 4.0000e-001 94408 -2.3838e+000  8.2316e+000 -5.3009e+000 37880 94431,94261,94235
 4.0000e-001 94385 -9.7341e-001  9.7253e+000 -4.6801e+000 37880 94431,94235,94313
 4.0000e-001 94362 -2.0869e+000  4.5276e+000 -5.8594e+000 37880 94209,94313,94235
 4.0000e-001 94339  5.2389e-001  1.1167e+001 -6.6246e+000 37880 94183,94313,94209
 4.0000e-001 94457 -4.7789e+000  1.0012e+001 -5.6193e+000 37880 94287,94261,94431
 4.0000e-001 94480 -2.8717e+000  1.1601e+001 -4.9380e+000 37880 94287,94431,94313
 4.0000e-001 94728 -1.0967e+000  3.1339e+001 -3.2546e+000 37426 94529,94607,94555
 4.0000e-001 94705 -3.2323e+000  2.6401e+001 -2.3883e+000 37426 94529,94633,94607
 4.0000e-001 94682 -7.2504e+000  2.6100e+001 -2.5263e+000 37426 94503,94633,94529
 4.0000e-001 94659 -1.2850e+001 -3.8566e+000  1.4017e+001 37426 94555,94607,94581
 4.0000e-001 95257  6.6308e+000  1.4696e+001 -4.9367e+000 36722 95496,95280,94862
 4.0000e-001 95234  1.9890e+000  1.2896e+001 -3.5971e+000 36722 95496,94862,94836
 4.0000e-001 95211  1.2570e+001  1.6515e+001 -2.0394e+000 36722 95352,95280,95070
 4.0000e-001 95188  1.0439e+001  1.0716e+001 -1.9404e+000 36722 95352,95070,95044
 4.0000e-001 95165  1.3550e+001  2.4265e+001 -1.5389e+001 36722 95424,94888,94862
 4.0000e-001 95142 -7.5978e+000  3.4024e+001  1.1006e+001 36722 94914,94966,94940
 4.0000e-001 95119  1.0245e+001  9.8078e+000  6.9726e+000 36722 94966,95044,95018
 4.0000e-001 95096  1.2777e+001  1.5169e+001  7.6683e+000 36722 94966,95018,94992
 4.0000e-001 95306  3.4626e-001  2.0165e+001 -9.2948e+000 36722 95424,94862,95280
 4.0000e-001 95329  2.4474e+000  2.9405e+001 -2.4896e+000 36722 94914,95280,94966
 4.0000e-001 95378  1.0398e+001  1.7720e+001  1.1940e+000 36722 94966,95280,95352
 4.0000e-001 95401  1.0540e+001  1.6226e+001  7.1912e-001 36722 94966,95352,95044
 4.0000e-001 95450 -5.0829e+000  1.4941e+001 -1.2259e+001 36722 94914,94888,95424
 4.0000e-001 95473 -6.9158e+000  1.8068e+001 -8.5771e+000 36722 94914,95424,95280
 4.0000e-001 95522  7.2281e+000  1.4935e+001 -5.1876e+000 36722 95070,95280,95496
 4.0000e-001 95545  6.7425e+000  1.5558e+001 -4.7531e+000 36722 95070,95496,94836
 4.0000e-001 96130  8.6414e+000  2.1170e+001  7.3497e+000 36268 96153,95911,95859
 4.0000e-001 96107  5.7708e+000  2.1580e+001  6.1483e+000 36268 96153,95859,95807
 4.0000e-001 96084  1.0180e+001  3.4885e+001  8.6443e+000 36268 95807,95859,95833
 4.0000e-001 96061  8.6329e+000  9.1938e+000  5.8961e+000 36268 95911,95989,95937
 4.0000e-001 96038 -3.4561e+000  1.6539e+001  9.6691e+000 36268 95859,95911,95885
 4.0000e-001 96015  7.5846e+000  1.0535e+001  4.9652e+000 36268 95937,95989,95963
 4.0000e-001 96179  1.1467e+001  2.0479e+001  7.2971e+000 36268 95989,95911,96153
 4.0000e-001 96202  8.5488e+000  2.0695e+001  5.8161e+000 36268 95989,96153,95807
 4.0000e-001 96531  1.9829e+000  2.4782e+001 -9.2563e+000 35728 96358,96410,96384
 4.0000e-001 96508  6.3012e+000  2.6774e+001 -1.0043e+001 35728 96332,96410,96358
 4.0000e-001 96485  6.8135e+000  2.8663e+001 -9.6651e+000 35728 96332,96436,96410
 4.0000e-001 96462 -1.9594e+000  1.9954e+001 -3.7861e+000 35728 96306,96436,96332
 4.0000e-001 96860  4.2856e+000  8.4375e+000  3.6809e-001 35324 96687,96765,96713
 4.0000e-001 96837  5.1780e+000  7.6823e+000 -6.4430e+000 35324 96661,96765,96687
 4.0000e-001 96814  1.2278e+001  1.3035e+001 -1.5478e+000 35324 96713,96765,96739
 4.0000e-001 96791  1.1541e+001  8.0592e+000 -5.5241e+000 35324 96635,96765,96661
 4.0000e-001 97366  1.3599e+001  3.1477e+001 -9.2828e+000 34920 97389,97069,97043
 4.0000e-001 97343  1.5252e+001  2.6745e+001 -5.5741e+000 34920 97389,97043,97199
 4.0000e-001 97320  1.8596e+001  3.2592e+001 -6.9219e+000 34920 97043,97225,97199
 4.0000e-001 97297 -2.9392e+000  2.9645e+001 -1.4980e+000 34920 97069,97121,97095
 4.0000e-001 97274  1.2534e+001  1.5380e+001 -2.0491e+000 34920 97121,97199,97173
 4.0000e-001 97251  1.1810e+001  1.3880e+001 -1.0547e+000 34920 97121,97173,97147
 4.0000e-001 97415  1.2806e+001  3.0010e+001 -4.2517e+000 34920 97121,97069,97389
 4.0000e-001 97438  9.6334e+000  1.9577e+001 -8.5461e-003 34920 97121,97389,97199
 4.0000e-001 97708 -3.6864e+000  2.8655e+001  4.5927e+000 34722 97509,97587,97535
 4.0000e-001 97685 -7.9262e+000  3.1100e+001  4.9442e+000 34722 97509,97613,97587
 4.0000e-001 97662  7.3275e+000  3.8583e+001  7.3722e+000 34722 97483,97613,97509
 4.0000e-001 97639  1.6473e+001  3.4867e+001  1.0413e+000 34722 97535,97587,97561
 4.0000e-001 98216  3.3070e-001  2.0370e+001 -7.2301e+000 34318 97971,98075,97997
 4.0000e-001 98193  1.1609e+000  2.7119e+001 -9.6625e+000 34318 97893,98075,97971
 4.0000e-001 98170 -9.6534e+000  1.8113e+001 -4.6004e+000 34318 97893,97971,97919
 4.0000e-001 98147  2.2486e+000  2.5048e+001 -7.6102e+000 34318 97997,98075,98049
 4.0000e-001 98124  7.1902e-001  1.7708e+001 -3.9077e+000 34318 97919,97971,97945
 4.0000e-001 98101  5.4830e+000  3.1903e+001 -9.4281e+000 34318 97997,98049,98023
 4.0000e-001 98594  1.1001e+001  2.7492e+001 -1.3468e+000 33814 98961,98617,98424
 4.0000e-001 98571  9.8408e+000  3.1856e+001 -3.1702e+000 33814 98689,98617,98372
 4.0000e-001 98548  9.5070e+000  2.1680e+001 -2.0259e+000 33814 99033,98689,98372
 4.0000e-001 98525  1.4809e+001  2.1824e+001 -5.8399e+000 33814 98761,98476,98450
 4.0000e-001 98502  1.3552e+001  2.5721e+001 -6.7742e-001 33814 98961,98424,98398
 4.0000e-001 98643  1.6354e+001  2.8507e+001 -2.8499e+000 33814 98450,98424,98617
 4.0000e-001 98666  1.1461e+001  2.1356e+001 -5.1924e+000 33814 98761,98450,98617
 4.0000e-001 98715  1.5388e+001  3.1154e+001 -4.9695e+000 33814 99161,98689,98320
 4.0000e-001 98738  1.8425e+001  3.8906e+001 -7.0415e+000 33814 98320,98689,98346
 4.0000e-001 98787  1.9580e+001  2.8267e+001 -9.9132e+000 33814 98833,98761,98320
 4.0000e-001 98810  1.4791e+001  3.1590e+001 -6.0005e+000 33814 99161,98320,98761
 4.0000e-001 98859  1.1858e+001  1.2766e+001 -4.7662e+000 33814 98476,98761,98833
 4.0000e-001 98987  7.6474e+000  2.6520e+001 -3.7231e-001 33814 98372,98617,98961
 4.0000e-001 99010  9.7990e+000  2.4232e+001  7.7423e-001 33814 98372,98961,98398
 4.0000e-001 99059  2.0350e+001  4.5155e+001  1.5240e+000 33814 98346,98689,99033
 4.0000e-001 99187  1.4644e+001  2.9587e+001 -5.1983e+000 33814 98617,98689,99161
 4.0000e-001 99210  1.4047e+001  3.0186e+001 -6.2756e+000 33814 98617,99161,98761
 4.0000e-001 99588 -2.6579e+000  1.0589e+001 -6.8559e-002 33566 99366,99444,99392
 4.0000e-001 99565 -5.5958e+000  1.3557e+001 -1.3005e-001 33566 99314,99444,99366
 4.0000e-001 99542 -5.4881e+000  2.2699e+001  4.0286e+000 33566 99314,99366,99340
 4.0000e-001 99519 -1.0959e+001  1.7997e+001 -9.2050e+000 33566 99314,99470,99444
 4.0000e-001 99496  1.6385e+000  2.3594e+001  1.9237e-001 33566 99392,99444,99418
 4.0000e-001 99787 -1.2273e+001  3.5333e+001 -2.5001e+001 33105 99637,99689,99663
 4.0000e-001 99764 -9.9539e+000  2.4529e+001 -5.0332e+000 33105 99611,99689,99637
 4.0000e-001 99741 -1.6062e+001  1.9779e+001 -1.4095e+000 33105 99611,99715,99689
 4.0000e-001 100167  2.4344e+001  2.9501e+001 -5.5642e-001 32651 100190,99971,99919
 4.0000e-001 100144  2.5602e+001  2.9726e+001 -8.8847e-001 32651 100262,100190,99919
 4.0000e-001 100121  2.2964e+001  2.9839e+001 -2.1163e+000 32651 100262,99919,100049
 4.0000e-001 100098  2.2395e+001  2.9392e+001  3.1860e+000 32651 99893,100049,99919
 4.0000e-001 100075  3.2091e+001  2.9056e+001  4.6150e+000 32651 99919,99971,99945
 4.0000e-001 100216  2.4411e+001  2.8378e+001 -2.0281e+000 32651 99997,99971,100190
 4.0000e-001 100239  2.7375e+001  3.1591e+001 -4.1510e+000 32651 99997,100190,100023
 4.0000e-001 100288  2.1005e+001  3.0486e+001 -1.8886e+000 32651 100023,100190,100262
 4.0000e-001 100311  1.1355e+001  2.6824e+001 -2.0409e+000 32651 100023,100262,100049
 4.0000e-001 100608  1.3658e+001  2.5327e+001 -1.0714e+001 32254 100386,100490,100464
 4.0000e-001 100585  1.1872e+001  1.9785e+001 -1.0752e+001 32254 100360,100490,100386
 4.0000e-001 100562  1.2615e+001  1.0238e+001 -1.9731e+001 32254 100386,100464,100412
 4.0000e-001 100539  1.0987e+000  1.9002e+001 -3.2127e+000 32254 100334,100490,100360
 4.0000e-001 100516  9.7864e-001  1.0429e+001 -2.8538e+001 32254 100412,100464,100438
 4.0000e-001 100758  3.3201e+001  3.3549e+001 -3.4904e+000 31914 100985,100781,100683
 4.0000e-001 100735  3.2904e+001  4.5832e+001 -6.8006e+000 31914 100853,100781,100657
 4.0000e-001 100807  5.1356e+001  4.2993e+001 -1.6044e+001 31914 100709,100683,100781
 4.0000e-001 100830  2.4717e+001  3.2692e+001 -1.2962e+001 31914 100709,100781,100631
 4.0000e-001 100879  2.8116e+001  2.8943e+001 -4.3245e+000 31914 100631,100781,100853
 4.0000e-001 101011  3.6072e+001  4.8763e+001 -4.0064e+000 31914 100657,100781,100985
 4.0000e-001 101191 -1.3820e+001  3.6699e+001 -4.9377e+000 31418 101113,101165,101139
 4.0000e-001 101341 -6.0386e+001 -1.0635e+001 -4.6452e+000 31106 101214,101266,101240
 4.0000e-001 101318 -3.3302e+001  7.1691e+001  9.3614e+000 31106 101214,101292,101266
 4.0000e-001 101591 -2.1614e+001 -1.3291e+000  2.2115e+000 30552 101614,101470,101444
 4.0000e-001 101568 -2.2632e+001  9.3786e+000  3.5661e+000 30552 101366,101496,101470
 4.0000e-001 101545 -2.9099e+001 -6.3020e+000  7.8876e+000 30552 101614,101444,101392
 4.0000e-001 101522 -4.1758e+000  1.0625e+001  2.1955e-001 30552 101392,101444,101418
 4.0000e-001 101640 -3.1957e+001  9.7282e-001  7.5779e+000 30552 101366,101470,101614
 4.0000e-001 101663 -3.8453e+001 -3.0889e+000  1.3145e+001 30552 101366,101614,101392
 4.0000e-001 102301  2.5646e+001  3.6954e+001 -1.3655e+001 30042 102396,102324,102059
 4.0000e-001 102278  1.8811e+001  1.7426e+001 -1.1096e+001 30042 102324,101981,101955
 4.0000e-001 102255  3.0695e+001  3.6104e+001 -1.6510e+001 30042 102396,102059,102033
 4.0000e-001 102232  1.6848e+001  3.4137e+001  1.7579e+001 30042 101929,102111,101955
 4.0000e-001 102209  1.5682e+001  3.7928e+001  3.0923e+000 30042 102059,102111,102085
 4.0000e-001 102186  5.0446e+000  4.2567e+001 -1.4652e+001 30042 101929,102137,102111
 4.0000e-001 102163  2.2707e+001  3.1054e+001 -9.0374e+000 30042 101981,102033,102007
 4.0000e-001 102350  2.2246e+001  2.9914e+001  9.6469e-002 30042 102111,102059,102324
 4.0000e-001 102373  1.9613e+001  8.4907e+000  5.2573e+000 30042 102111,102324,101955
 4.0000e-001 102422  1.6949e+001  3.3044e+001 -9.2509e+000 30042 101981,102324,102396
 4.0000e-001 102445  2.2610e+001  3.2498e+001 -1.2075e+001 30042 101981,102396,102033
 4.0000e-001 103000  1.8569e+001  1.1528e+001 -2.5706e+000 29730 103023,102706,102654
 4.0000e-001 102977  2.5115e+001  1.6743e+001 -5.5494e+000 29730 103023,102654,102810
 4.0000e-001 102954  2.4171e+001 -1.2655e+001 -5.0967e+000 29730 102732,102810,102784
 4.0000e-001 102931  1.1876e+001  9.4064e+000 -9.2759e+000 29730 102628,102810,102654
 4.0000e-001 102908  1.9189e+001  2.1389e+001 -8.7742e-001 29730 102654,102706,102680
 4.0000e-001 102885  3.1139e+001  6.1327e+000 -6.6706e+000 29730 102732,102784,102758
 4.0000e-001 102862  2.5595e+000  9.5751e+000 -2.3099e+001 29730 102628,102836,102810
 4.0000e-001 103049  2.1543e+001  5.9313e+000  2.0001e+000 29730 102732,102706,103023
 4.0000e-001 103072  2.5876e+001  1.1247e+001 -4.5958e-001 29730 102732,103023,102810
 4.0000e-001 103222 -3.6515e+001  4.4422e+001 -7.1211e+000 29226 103095,103147,103121
 4.0000e-001 103199 -4.6071e+001  1.7880e+001  3.4583e+000 29226 103095,103173,103147
 4.0000e-001 103730 -5.0491e+000  2.3324e+001  7.7075e+000 28822 103537,103589,103563
 4.0000e-001 103707 -2.2552e-001  2.4588e+001  4.9389e+000 28822 103433,103589,103537
 4.0000e-001 103684  1.1467e+001  2.6555e+001  9.8005e+000 28822 103433,103537,103459
 4.0000e-001 103661 -1.5359e+000  2.8757e+001  4.6880e+000 28822 103407,103589,103433
 4.0000e-001 103638  8.4949e+000  1.8597e+001  1.2252e+000 28822 103459,103511,103485
 4.0000e-001 103615  5.4199e+000  1.3662e+001  3.4314e+000 28822 103459,103537,103511
 4.0000e-001 103880  4.3170e+000  1.8008e+001 -6.6438e-001 28368 103975,103903,103779
 4.0000e-001 103857  5.8623e+000  3.2154e+001 -5.1988e-001 28368 103903,103753,103831
 4.0000e-001 103929  6.4224e+000  1.5653e+001  7.5517e-001 28368 103805,103779,103903
 4.0000e-001 103952  1.2718e+000  1.8563e+001 -2.1498e+000 28368 104105,103903,103831
 4.0000e-001 104001  7.2642e+000  1.9999e+001  7.3942e-001 28368 103753,103903,103975
 4.0000e-001 104131  3.3740e+000  2.0565e+001 -1.2200e-001 28368 103805,103903,104105
 4.0000e-001 104539 -2.8146e+000  1.2453e+001  5.7897e+000 28028 104562,104340,104314
 4.0000e-001 104516  7.0885e+000  1.8824e+001 -3.1430e-001 28028 104634,104562,104314
 4.0000e-001 104493  9.4041e+000  1.2831e+001  3.0598e+000 28028 104762,104366,104340
 4.0000e-001 104470  1.2253e+001  7.2016e+000 -3.3414e+000 28028 104366,104418,104392
 4.0000e-001 104588  8.9346e+000  1.4455e+001  1.4544e+000 28028 104762,104340,104562
 4.0000e-001 104611  1.3455e+001  1.3998e+001 -1.3153e+000 28028 104418,104562,104444
 4.0000e-001 104660  1.6688e+001  1.5840e+001  2.5271e+000 28028 104444,104562,104634
 4.0000e-001 104788  9.6537e+000  1.0553e+001  2.6686e+000 28028 104418,104366,104762
 4.0000e-001 104811  8.6165e+000  1.1402e+001  9.9858e-001 28028 104418,104762,104562
 4.0000e-001 105010  3.4173e+001  1.9919e+001  4.3693e-001 27324 105033,104886,104860
 4.0000e-001 104987  2.6649e+001  1.1294e+001 -1.4435e+001 27324 105033,104860,104834
 4.0000e-001 104964  1.7325e+001  8.8574e+000 -7.9148e+000 27324 105105,104912,104886
 4.0000e-001 105059  2.5690e+001  6.6566e+000 -6.1504e+000 27324 105105,104886,105033
 4.0000e-001 105082  2.3867e+001  2.7169e-001 -1.5183e+001 27324 104938,105033,104834
 4.0000e-001 105131  4.1437e+000  6.4765e+000 -1.0214e+001 27324 104938,104912,105105
 4.0000e-001 105154  1.4109e+001  6.5273e+000 -6.7367e+000 27324 104938,105105,105033
 4.0000e-001 105402 -6.2449e+001 -1.9041e+001 -5.5731e+000 27012 105229,105281,105255
 4.0000e-001 105379 -5.3007e+001 -2.7115e+001 -3.9589e+000 27012 105229,105307,105281
 4.0000e-001 105356 -3.9771e+001 -3.7716e+001 -8.3433e+000 27012 105177,105307,105229
 4.0000e-001 105333 -3.4717e+001 -1.9298e+001 -9.9842e+000 27012 105177,105229,105203
 4.0000e-001 105603  1.4448e+001  1.3053e+001 -7.2984e+000 26508 105626,105453,105427
 4.0000e-001 105580  1.2473e+001  8.5916e+000 -9.3030e+000 26508 105626,105427,105505
 4.0000e-001 105557  2.7979e+001  3.8115e+000 -4.3843e+000 26508 105427,105531,105505
 4.0000e-001 105652  1.5166e+001  1.3255e+001 -5.1214e+000 26508 105479,105453,105626
 4.0000e-001 105675  1.4663e+001  1.1382e+001 -6.9747e+000 26508 105479,105626,105505
 4.0000e-001 106057  5.5984e+000  1.5865e+001 -1.0541e+001 25947 106080,105887,105861
 4.0000e-001 106034  5.3307e+000  1.5556e+001 -1.0022e+001 25947 106080,105861,105783
 4.0000e-001 106011  7.6041e+000  1.1970e+001 -1.1209e+001 25947 105783,105835,105809
 4.0000e-001 105988  3.9235e+000  2.0936e+001 -1.0446e+001 25947 105783,105861,105835
 4.0000e-001 105965  6.0112e-001  1.7368e+001 -1.0868e+001 25947 105887,105939,105913
 4.0000e-001 106106  5.3738e+000  1.5652e+001 -1.0238e+001 25947 105939,105887,106080
 4.0000e-001 106129  4.6601e+000  1.4978e+001 -9.6515e+000 25947 105939,106080,105783
 4.0000e-001 106714  1.8169e+001  1.5986e+001 -9.4282e+000 25557 106809,106737,106547
 4.0000e-001 106691  1.7561e+001  1.4793e+001 -3.6404e+000 25557 106737,106417,106391
 4.0000e-001 106668  1.9478e+001  1.4102e+001 -8.5874e+000 25557 106809,106547,106495
 4.0000e-001 106645  1.6689e+001  1.1316e+001 -7.0183e+000 25557 106417,106495,106469
 4.0000e-001 106622  1.8182e+001  1.3431e+001 -8.8394e+000 25557 106495,106547,106521
 4.0000e-001 106599  1.6295e+001  1.1100e+001 -7.1687e+000 25557 106417,106469,106443
 4.0000e-001 106763  2.2525e+001  2.3272e+001 -1.1257e+001 25557 106573,106547,106737
 4.0000e-001 106786  2.0579e+001  2.1627e+001 -4.2027e+000 25557 106573,106737,106391
 4.0000e-001 106835  1.9175e+001  2.0753e+001 -8.8224e+000 25557 106417,106737,106809
 4.0000e-001 106858  1.9098e+001  1.6908e+001 -8.6864e+000 25557 106417,106809,106495
 4.0000e-001 107364  5.7962e+000  4.5403e+000 -1.6446e+000 25153 107459,107387,107171
 4.0000e-001 107341  8.2160e+000  9.0549e+000 -2.3744e+000 25153 107387,107119,107067
 4.0000e-001 107318  4.9699e+000  5.3324e+000 -4.9887e-001 25153 107459,107171,107145
 4.0000e-001 107295  4.2723e+000  8.4718e+000 -4.2323e+000 25153 107531,107223,107197
 4.0000e-001 107272  8.9127e+000  9.5595e+000 -3.7451e+000 25153 107067,107119,107093
 4.0000e-001 107249 -3.2242e+000  1.6919e+001 -4.8189e+000 25153 107041,107223,107067
 4.0000e-001 107413  1.2069e+001  9.0294e+000 -4.1347e+000 25153 107197,107171,107387
 4.0000e-001 107436  5.1294e+000  8.4647e+000 -3.7209e+000 25153 107531,107197,107387
 4.0000e-001 107485  6.9439e+000  6.8397e+000 -3.0712e+000 25153 107119,107387,107459
 4.0000e-001 107508  4.9303e+000  6.8586e+000 -1.8366e+000 25153 107119,107459,107145
 4.0000e-001 107557  3.9314e+000  9.1053e+000 -3.1793e+000 25153 107067,107223,107531
 4.0000e-001 107580  5.1203e+000  9.6289e+000 -2.6059e+000 25153 107067,107531,107387
 4.0000e-001 107958 -1.0899e+001  1.3128e+001 -9.1910e+000 24741 107736,107814,107788
 4.0000e-001 107935 -1.4313e+001  1.0922e+001 -1.0293e+001 24741 107736,107840,107814
 4.0000e-001 107912 -5.7491e+000  1.2318e+001 -5.6616e+000 24741 107684,107840,107736
 4.0000e-001 107889 -4.3262e+001  2.7869e+001 -1.2471e+001 24741 107736,107788,107762
 4.0000e-001 107866 -5.0444e+000  9.4513e+000 -9.0147e+000 24741 107684,107736,107710
 4.0000e-001 108157 -1.9796e+001 -1.7998e+000  5.4408e+000 24237 108180,108059,108007
 4.0000e-001 108134 -1.9629e+001  9.0154e+000  1.5448e+001 24237 108180,108007,107981
 4.0000e-001 108111 -1.7679e+001  3.4412e+000  3.9068e+000 24237 108007,108059,108033
 4.0000e-001 108206 -1.4504e+001  9.3664e+000  8.1371e+000 24237 108085,108059,108180
 4.0000e-001 108229 -1.4438e+001  2.0177e+001  1.8085e+001 24237 108085,108180,107981
 4.0000e-001 108658  2.7718e+001  1.5813e+001 -1.2755e+000 23776 108361,108413,108387
 4.0000e-001 108635  1.5498e+001  9.9050e+000  2.5203e+000 23776 108753,108681,108361
 4.0000e-001 108612  8.9182e+000  1.2259e+001  4.6618e+000 23776 108681,108465,108439
 4.0000e-001 108589  1.0267e+001  8.0271e+000  2.7746e+000 23776 108753,108361,108335
 4.0000e-001 108566  4.5561e+000  5.3327e+000 -6.5588e+000 23776 108335,108517,108465
 4.0000e-001 108543  9.4104e+000  4.0065e+000 -3.5485e+000 23776 108465,108517,108491
 4.0000e-001 108707  2.6321e+001  1.3860e+001 -2.1400e+000 23776 108413,108361,108681
 4.0000e-001 108730  1.3977e+001  1.8002e+001  1.7896e+000 23776 108413,108681,108439
 4.0000e-001 108779  1.0142e+001  1.3566e+001 -1.4197e+000 23776 108465,108681,108753
 4.0000e-001 108802  5.0620e+000  1.1789e+001 -1.8242e-001 23776 108465,108753,108335
 4.0000e-001 109023 -2.2336e+001  8.6456e+000  4.0159e+000 23414 108873,108925,108899
 4.0000e-001 109000 -3.1599e+001  5.7255e+000  4.2239e+000 23414 108847,108925,108873
 4.0000e-001 108977 -1.9056e+001  3.5481e+001  3.6637e+000 23414 108847,108951,108925
 4.0000e-001 109474 -2.6762e+001  3.1269e+001 -9.0445e+000 23024 109151,109307,109177
 4.0000e-001 109451 -3.9274e+001  1.6861e+001 -3.7432e+000 23024 109151,109333,109307
 4.0000e-001 109428  5.3794e+000  1.9734e+001 -3.3547e+000 23024 109177,109281,109203
 4.0000e-001 109405  8.3279e+000  3.3792e+001 -1.1152e+001 23024 109177,109307,109281
 4.0000e-001 109382  1.6117e+001  3.0323e+001  1.9441e+000 23024 109203,109281,109229
 4.0000e-001 109359  4.3879e+000  1.5003e+000 -1.9382e+000 23024 109229,109281,109255
 4.0000e-001 109820  1.2340e+001  2.1706e+001 -5.8198e+000 22506 109843,109601,109523
 4.0000e-001 109797  5.9709e+000  2.0032e+001 -4.9932e+000 22506 109843,109523,109497
 4.0000e-001 109774  4.4388e+000  2.3391e+001 -4.0273e+000 22506 109915,109653,109627
 4.0000e-001 109751  3.8823e+000  2.3150e+001 -3.6401e-001 22506 109497,109679,109653
 4.0000e-001 109728  1.0949e+001  1.8595e+001 -3.9165e+000 22506 109523,109601,109575
 4.0000e-001 109705  1.6874e+001  2.4808e+001 -1.3078e+000 22506 109523,109575,109549
 4.0000e-001 109869  4.8590e+000  1.7185e+001 -7.8242e+000 22506 109627,109601,109843
 4.0000e-001 109892  3.0147e+000  2.1694e+001 -5.9593e+000 22506 109915,109627,109843
 4.0000e-001 109941  7.0958e+000  2.2546e+001 -3.0574e+000 22506 109497,109653,109915
 4.0000e-001 109964  6.9675e+000  2.2805e+001 -4.5976e+000 22506 109497,109915,109843
 4.0000e-001 110163  1.6710e+001  2.6763e+001 -2.4005e+000 21936 110186,110039,110013
 4.0000e-001 110140  2.6766e+001  3.5247e+001  1.5802e+000 21936 110390,110186,110013
 4.0000e-001 110117  2.4125e+001  3.0779e+001  4.8386e-001 21936 110390,110013,109987
 4.0000e-001 110212  2.2928e+001  4.5465e+001  7.7515e+000 21936 110065,110039,110186
 4.0000e-001 110235  2.9610e+001  2.8687e+001  1.2313e+001 21936 110258,110186,110091
 4.0000e-001 110284  3.7252e+001  3.9501e+001  1.6444e+001 21936 110065,110186,110258
 4.0000e-001 110416  3.2207e+001  2.8755e+001  4.2334e+000 21936 110091,110186,110390
 4.0000e-001 110439  2.9216e+001  2.4072e+001  2.9528e+000 21936 110091,110390,109987
 4.0000e-001 110709  2.4356e+000  3.4647e+001 -2.4840e-001 21338 110510,110614,110588
 4.0000e-001 110686  1.1092e+000  3.5067e+001 -5.3182e-001 21338 110484,110614,110510
 4.0000e-001 110663  4.1760e-001  3.2875e+001  7.4003e-001 21338 110510,110562,110536
 4.0000e-001 110640  8.5934e-001  3.3726e+001  1.7142e-001 21338 110510,110588,110562
 4.0000e-001 111296  2.2638e+000  1.5225e+001  3.9234e+000 20934 111025,111155,111103
 4.0000e-001 111273 -3.3632e+000  1.0867e+001  7.0141e+000 20934 110999,111155,111025
 4.0000e-001 111250 -2.1321e+001  3.8340e+000  9.5030e+000 20934 111103,111155,111129
 4.0000e-001 111227  7.7627e+000  2.1890e+001  3.2199e+000 20934 111051,111103,111077
 4.0000e-001 111204  4.1370e+000  1.5563e+001  4.7034e+000 20934 111025,111103,111051
 4.0000e-001 111181  2.6343e+000  5.7369e+000  9.6737e+000 20934 110973,111155,110999
 4.0000e-001 111930  1.2041e+001  1.7657e+001 -1.1339e+001 20494 111662,111714,111688
 4.0000e-001 111907  2.4167e+001  1.6955e+001 -1.0349e+001 20494 111584,111714,111662
 4.0000e-001 111884  1.8603e+001  1.6771e+001 -1.0376e+001 20494 111584,111766,111714
 4.0000e-001 111861  3.0267e+001  1.9522e+001 -4.4677e+000 20494 111584,111636,111610
 4.0000e-001 111838  2.2367e+001  1.7926e+001 -8.8631e+000 20494 111584,111662,111636
 4.0000e-001 111815  1.5961e+001  1.4665e+001 -1.2065e+001 20494 111558,111766,111584
 4.0000e-001 111792  1.7290e+001  1.3228e+001 -1.1165e+001 20494 111714,111766,111740
 4.0000e-001 112249 -9.7220e+000  1.8014e+000  5.9349e-001 19940 111975,112053,112001
 4.0000e-001 112226 -1.2399e+001  3.8250e+000  5.7432e+000 19940 111975,112131,112053
 4.0000e-001 112203 -1.9100e+001  5.2238e+000  0.0000e+000 19940 112053,112105,112079
 4.0000e-001 112180 -1.4468e+001  6.5364e+000  4.5731e-001 19940 112053,112131,112105
 4.0000e-001 112157  3.3558e-001  4.4827e+000  1.4021e+000 19940 112001,112053,112027
 4.0000e-001 112757 -4.4962e+000  3.4075e+001  8.2540e+000 19486 112780,112538,112486
 4.0000e-001 112734 -3.3520e+000  3.5875e+001  3.1374e+000 19486 112780,112486,112460
 4.0000e-001 112711  1.5366e+000  3.2464e+001  3.5428e+000 19486 112852,112616,112590
 4.0000e-001 112688 -2.3251e+001  4.6322e+001  1.1065e+001 19486 112486,112538,112512
 4.0000e-001 112665  1.2207e+001  4.1264e+001  9.7001e+000 19486 112434,112616,112460
 4.0000e-001 112642  8.0711e+000  3.1139e+001  5.7262e+000 19486 112538,112590,112564
 4.0000e-001 112806  1.9765e+000  3.6805e+001  8.0908e+000 19486 112590,112538,112780
 4.0000e-001 112829 -3.3257e+000  3.3991e+001  4.7589e+000 19486 112852,112590,112780
 4.0000e-001 112878  4.5738e+000  3.4388e+001  2.2663e+000 19486 112460,112616,112852
 4.0000e-001 112901  1.7092e+000  3.7825e+001  2.8922e+000 19486 112460,112852,112780
 4.0000e-001 113252  3.5559e+001  5.0577e+001  1.4354e+000 19096 113105,113157,113131
 4.0000e-001 113229  2.8254e+001  3.7337e+001 -1.5783e+000 19096 113053,113157,113105
 4.0000e-001 113206  1.9816e+001  3.4068e+001 -2.0774e+000 19096 113027,113157,113053
 4.0000e-001 113183  3.7099e+001  6.0591e+001 -3.2285e+000 19096 113053,113105,113079
 4.0000e-001 113451  1.0903e+001  3.3707e+001  6.8311e+000 18642 113327,113379,113353
 4.0000e-001 113428  6.5110e+000  2.7444e+001  2.5805e+000 18642 113301,113379,113327
 4.0000e-001 113405  2.3084e+001  2.6953e+001  3.0755e+000 18642 113275,113379,113301
 4.0000e-001 113699  1.2839e+001  3.1908e+001 -3.0616e+000 18138 113474,113552,113526
 4.0000e-001 113676  9.7126e+000  2.6218e+001 -1.7530e+000 18138 113474,113578,113552
 4.0000e-001 113653  1.2808e+001  2.4544e+001 -2.8212e+000 18138 113474,113604,113578
 4.0000e-001 113630 -4.5337e-002  3.4311e+001 -1.1117e+001 18138 113474,113526,113500
 4.0000e-001 113851  1.4620e+001  4.8802e+001 -1.4831e+000 17682 113750,113802,113776
 4.0000e-001 113828 -6.8195e-001  4.3496e+001 -3.7447e+000 17682 113724,113802,113750
 4.0000e-001 114383  8.8491e+000  7.6642e+000 -2.0236e+000 17106 114086,114242,114164
 4.0000e-001 114360  9.4662e+000  7.6866e+000 -4.7398e+000 17106 114060,114242,114086
 4.0000e-001 114337  8.7327e+000  8.8888e+000 -2.1683e+000 17106 114086,114164,114138
 4.0000e-001 114314  4.3813e+000  2.5834e+000 -1.0071e+000 17106 114190,114242,114216
 4.0000e-001 114291  7.6685e+000  4.1147e+000 -2.2760e+000 17106 114164,114242,114190
 4.0000e-001 114268  5.6713e+000  1.1666e+001 -5.5427e+000 17106 114086,114138,114112
 4.0000e-001 114680 -3.5552e+000  1.8839e+001  6.9481e+000 16766 114703,114432,114406
 4.0000e-001 114657 -8.5183e+000  2.7575e+001  1.3213e+000 16766 114703,114406,114510
 4.0000e-001 114634 -1.0765e+001  3.0332e+001  4.2295e+000 16766 114406,114536,114510
 4.0000e-001 114611  1.7136e+001  2.5143e+001  5.4128e-002 16766 114432,114484,114458
 4.0000e-001 114588 -2.2022e+001  2.6096e+001  3.1436e+000 16766 114406,114562,114536
 4.0000e-001 114729  1.6827e+001  2.7542e+001  4.7715e+000 16766 114484,114432,114703
 4.0000e-001 114752 -2.1126e+000  2.7710e+001  1.3216e+000 16766 114484,114703,114510
 4.0000e-001 114902  3.5625e+001  2.9487e+001 -1.0143e+000 16362 114775,114827,114801
 4.0000e-001 114879  3.8036e+001  3.1756e+001 -1.9514e+000 16362 114775,114853,114827
 4.0000e-001 115054  1.4089e+001  1.9262e+001  7.1216e-001 15908 114953,115005,114979
 4.0000e-001 115031  1.3426e+001  2.3887e+001  7.4458e-001 15908 114927,115005,114953
 4.0000e-001 115326  5.9161e-001  3.9248e+001 -1.5973e+000 15251 115101,115179,115153
 4.0000e-001 115303  3.1310e+000  3.9561e+001  1.3426e+000 15251 115101,115231,115179
 4.0000e-001 115280  2.4854e+000  3.8211e+001  1.5329e+000 15251 115179,115231,115205
 4.0000e-001 115257 -4.7989e+000  4.7208e+001 -7.0709e+000 15251 115101,115153,115127
 4.0000e-001 115429  2.0026e+001  2.8885e+001 -5.3385e+000 421 115351,115403,115377
 5.0000e-001 66230 -9.7621e+000  9.9375e+000  3.1611e+000 65954 66152,66204,66178
 5.0000e-001 66429 -7.7393e+000  1.0378e+001  2.5600e+000 65642 66279,66331,66305
 5.0000e-001 66406 -5.4056e+000  1.8301e+001  3.3992e+000 65642 66279,66357,66331
 5.0000e-001 66383  7.0830e+000  1.5820e+001  2.5952e+000 65642 66253,66357,66279
 5.0000e-001 66628 -1.9475e-001  3.7748e+001 -1.4792e+000 65444 66452,66530,66478
 5.0000e-001 66605 -7.1104e-001  3.5436e+001 -2.3664e+000 65444 66452,66556,66530
 5.0000e-001 66582 -1.2924e+001  3.4575e+001  2.2341e+000 65444 66478,66530,66504
 5.0000e-001 67006  1.3015e+000  2.1215e+001  2.9025e+000 65246 66732,66810,66758
 5.0000e-001 66983  4.8017e+000  2.0894e+001  3.4250e+000 65246 66732,66836,66810
 5.0000e-001 66960  2.2188e+000  1.7639e+001  1.1378e+000 65246 66732,66862,66836
 5.0000e-001 66937  6.2212e+000  3.3031e+001  1.5654e+000 65246 66758,66810,66784
 5.0000e-001 66914 -2.0109e+000  2.3819e+001  7.0109e+000 65246 66732,66888,66862
 5.0000e-001 67107 -9.5324e+000  9.5996e+000  3.1507e+000 64934 67029,67081,67055
 5.0000e-001 67306 -8.2875e+000  3.0478e+001 -1.7061e+000 64736 67156,67208,67182
 5.0000e-001 67283  2.4755e-001  3.1781e+001 -3.3629e+000 64736 67130,67208,67156
 5.0000e-001 67260  5.9357e+000  3.2983e+001 -4.8562e-001 64736 67130,67234,67208
 5.0000e-001 67507 -1.1780e+001  2.9114e+001  1.9502e+000 64389 67357,67409,67383
 5.0000e-001 67484 -3.8573e+000  3.0020e+001  5.3802e+000 64389 67357,67435,67409
 5.0000e-001 67461  1.3911e+000  3.2540e+001  4.0887e+000 64389 67331,67435,67357
 5.0000e-001 67708  3.6367e+000  1.0874e+001 -1.5673e+000 63985 67731,67584,67558
 5.0000e-001 67685 -1.3105e+000  8.5577e+000 -1.9656e-001 63985 67731,67558,67636
 5.0000e-001 67662 -7.1612e+000  1.1693e+001  5.7534e+000 63985 67532,67636,67558
 5.0000e-001 67757 -2.1560e-001  1.3660e+001 -3.3514e+000 63985 67610,67584,67731
 5.0000e-001 67780 -4.2477e+000  1.2123e+001 -2.5622e+000 63985 67610,67731,67636
 5.0000e-001 67981 -2.9833e+000  1.3557e+001  2.2291e+000 63787 67857,67909,67883
 5.0000e-001 67958  1.8151e+000  1.8345e+001  9.6699e-002 63787 67831,67909,67857
 5.0000e-001 67935  2.8410e+000  1.8603e+001  8.0153e-001 63787 67805,67909,67831
 5.0000e-001 68231  1.6577e+000  9.9271e+000  1.5418e+000 63589 68254,68084,68032
 5.0000e-001 68208  2.7155e+000  1.4123e+001  1.9926e+000 63589 68254,68032,68006
 5.0000e-001 68185 -9.0003e-002  1.2834e+001 -5.8850e-001 63589 68326,68136,68110
 5.0000e-001 68162 -1.4346e+000  8.2971e+000  2.5918e+000 63589 68032,68084,68058
 5.0000e-001 68280  3.9276e+000  1.3359e+001  5.6063e-001 63589 68110,68084,68254
 5.0000e-001 68303  6.7377e-001  1.3212e+001  5.0826e-001 63589 68326,68110,68254
 5.0000e-001 68352  5.6743e-001  1.5163e+001  6.7438e-001 63589 68006,68136,68326
 5.0000e-001 68375  1.3914e+000  1.5053e+001  1.7784e+000 63589 68006,68326,68254
 5.0000e-001 68836  3.4663e+000  1.3337e+001  6.3628e+000 63128 68859,68588,68562
 5.0000e-001 68813  2.6719e+000  1.7468e+001  1.2141e+000 63128 68859,68562,68692
 5.0000e-001 68790  5.1028e+000  1.4369e+001  3.6277e-001 63128 68614,68692,68666
 5.0000e-001 68767  6.4649e+000  1.0033e+001 -1.0472e-001 63128 68562,68718,68692
 5.0000e-001 68744 -9.6684e-002  1.8150e+000 -1.8052e+000 63128 68614,68666,68640
 5.0000e-001 68885  2.9708e-001  6.0380e+000  7.4072e+000 63128 68614,68588,68859
 5.0000e-001 68908  1.8455e-001  1.1966e+001  2.3930e+000 63128 68614,68859,68692
 5.0000e-001 69237  5.4679e-002  1.4214e+001 -7.1185e-001 62731 69064,69116,69090
 5.0000e-001 69214  9.8333e-001  1.7839e+001  1.1733e-001 62731 69064,69142,69116
 5.0000e-001 69191  2.6727e+000  2.5595e+001  4.1962e-001 62731 69038,69142,69064
 5.0000e-001 69168 -2.8282e+000  2.5317e+001 -1.4599e+000 62731 69012,69142,69038
 5.0000e-001 69539  2.7901e+000  2.1112e+001  1.3190e+000 62433 69389,69467,69441
 5.0000e-001 69516  1.7698e+000  1.1321e+001  3.5849e+000 62433 69363,69467,69389
 5.0000e-001 69493 -6.2608e+000  2.4565e+000 -1.4824e+000 62433 69389,69441,69415
 5.0000e-001 69966 -6.2491e+000  1.7788e+001  6.0463e+000 62235 69989,69773,69721
 5.0000e-001 69943  4.1207e-001  1.7822e+001  4.1404e+000 62235 70061,69989,69721
 5.0000e-001 69920  2.2542e+000  1.9773e+001  5.0312e+000 62235 70061,69721,69643
 5.0000e-001 69897 -1.6254e+001  2.4590e+001  5.9330e+000 62235 69721,69773,69747
 5.0000e-001 69874  8.3886e+000  4.4982e+001  1.0526e+001 62235 69643,69721,69695
 5.0000e-001 69851 -1.4608e+001  9.8261e+000 -9.6086e-001 62235 69643,69695,69669
 5.0000e-001 70015 -9.5959e+000  1.5831e+001  1.0927e+001 62235 69799,69773,69989
 5.0000e-001 70038 -2.4880e+000  1.7595e+001  6.7254e+000 62235 69799,69989,69825
 5.0000e-001 70087 -2.3455e+000  2.0787e+001  4.0321e+000 62235 69825,69989,70061
 5.0000e-001 70110 -5.0250e-001  2.2191e+001  4.6813e+000 62235 69825,70061,69643
 5.0000e-001 70260  4.0090e-002  2.2185e+001 -7.6945e+000 62037 70133,70185,70159
 5.0000e-001 70237  3.6361e+000  3.0963e+001 -6.6243e+000 62037 70133,70211,70185
 5.0000e-001 70640 -5.7436e+000  1.9722e-001 -6.3989e+000 61583 70735,70663,70418
 5.0000e-001 70617 -2.6183e+000  1.4792e+001 -2.5901e+000 61583 70663,70366,70522
 5.0000e-001 70594 -6.3863e+000 -5.9383e+000 -3.3345e+000 61583 70735,70418,70392
 5.0000e-001 70571 -6.9013e+000  1.7539e+000 -6.4644e+000 61583 70418,70496,70444
 5.0000e-001 70548 -1.2771e+001  7.5467e+000 -7.1833e+000 61583 70444,70496,70470
 5.0000e-001 70689 -3.7382e+000  2.9903e+000 -5.4993e+000 61583 70496,70418,70663
 5.0000e-001 70712 -4.7502e+000 -8.1967e-001 -4.8988e+000 61583 70496,70663,70522
 5.0000e-001 70761 -1.1458e+001 -4.1262e+000  9.9979e-002 61583 70366,70663,70735
 5.0000e-001 70784 -9.1082e+000 -8.8584e+000  2.5839e+000 61583 70366,70735,70392
 5.0000e-001 71054  4.2922e+000  3.5043e+001 -1.6240e+001 61313 71077,70881,70855
 5.0000e-001 71031  1.3622e+000  1.9214e+001 -1.1789e+001 61313 71077,70855,70829
 5.0000e-001 71008  3.2393e+000  1.5960e+001 -4.3033e+000 61313 70829,70959,70933
 5.0000e-001 70985 -1.8365e+001  2.5961e+001  3.9223e+000 61313 70881,70933,70907
 5.0000e-001 71103  1.0554e-002  2.5610e+001 -8.3952e+000 61313 70933,70881,71077
 5.0000e-001 71126  1.6206e+000  1.5991e+001 -4.1434e+000 61313 70933,71077,70829
 5.0000e-001 71604 -1.8689e+000  7.3099e+000  6.5868e-001 60909 71627,71232,71414
 5.0000e-001 71581 -5.1223e+000  1.3807e+001 -7.5801e+000 60909 71232,71440,71414
 5.0000e-001 71558 -1.3986e+000  6.8345e+000  7.9297e-001 60909 71627,71414,71336
 5.0000e-001 71535  6.0098e-001  7.3412e+000  4.2832e+000 60909 71362,71414,71388
 5.0000e-001 71512 -2.4572e+000  7.5978e+000  3.6988e+000 60909 71336,71414,71362
 5.0000e-001 71489  1.9077e-001  8.2942e+000 -3.0316e-001 60909 71258,71336,71310
 5.0000e-001 71466  4.0921e+000  5.3237e+000  2.7341e+000 60909 71258,71310,71284
 5.0000e-001 71653 -2.3088e+000  7.0759e+000  9.1529e-001 60909 71258,71232,71627
 5.0000e-001 71676 -1.7084e+000  6.8254e+000  8.9493e-001 60909 71258,71627,71336
 5.0000e-001 71875  1.3504e+001  5.4147e+001  1.4613e+001 60611 71898,71725,71699
 5.0000e-001 71852  1.1407e+001  3.8659e+001  4.0480e+000 60611 71898,71699,71803
 5.0000e-001 71829  1.0395e+001  1.3867e+001  7.8525e+000 60611 71970,71751,71725
 5.0000e-001 71924  1.6235e+001  2.8199e+001  7.1298e+000 60611 71970,71725,71898
 5.0000e-001 71947  7.2276e+000  9.3647e+000  3.0413e-001 60611 71777,71898,71803
 5.0000e-001 71996  1.0676e+001  3.0821e+001  3.4751e+000 60611 71777,71751,71970
 5.0000e-001 72019  1.3496e+001  3.6655e+001  1.1510e+000 60611 71777,71970,71898
 5.0000e-001 72576  1.2351e+001  2.2108e+001 -2.5465e+000 60142 72599,72256,72230
 5.0000e-001 72553  1.3229e+001  1.6446e+001 -5.2966e+000 60142 72671,72599,72230
 5.0000e-001 72530  7.8865e+000  1.5769e+001 -5.7076e+000 60142 72671,72230,72204
 5.0000e-001 72507  1.5142e+001  1.2665e+001 -2.1436e+000 60142 72743,72360,72334
 5.0000e-001 72484  1.6829e+001  2.4208e+001  7.6575e-001 60142 72815,72282,72256
 5.0000e-001 72461  1.7976e+001  2.6376e+001  1.6037e+000 60142 72887,72308,72282
 5.0000e-001 72438  2.2565e+001  2.1329e+001 -1.4970e+001 60142 72204,72412,72386
 5.0000e-001 72625  1.5967e+001  2.0190e+001  1.4339e-001 60142 72815,72256,72599
 5.0000e-001 72648  1.0992e+001  1.5949e+001 -1.9162e+000 60142 72743,72334,72599
 5.0000e-001 72697  8.8497e+000  1.4900e+001 -7.1927e+000 60142 72386,72599,72671
 5.0000e-001 72720  7.1637e+000  1.6196e+001 -8.0232e+000 60142 72386,72671,72204
 5.0000e-001 72769  2.5452e+001  1.7822e+001 -3.8993e+000 60142 72386,72360,72743
 5.0000e-001 72792  1.5947e+001  1.8360e+001 -2.9290e+000 60142 72386,72743,72599
 5.0000e-001 72841  1.6373e+001  2.5700e+001  1.6941e+000 60142 72887,72282,72815
 5.0000e-001 72864  1.5668e+001  2.4116e+001  1.8112e+000 60142 72334,72815,72599
 5.0000e-001 72913  1.5904e+001  2.6602e+001  9.2671e-001 60142 72334,72308,72887
 5.0000e-001 72936  1.5401e+001  2.6386e+001  9.0559e-001 60142 72334,72887,72815
 5.0000e-001 73491  1.5853e+000  1.1766e+001  1.8929e+000 59738 73145,73327,73171
 5.0000e-001 73468  1.2721e+001  1.2371e+001  5.5983e+000 59738 73119,73327,73145
 5.0000e-001 73445  2.2130e+000  6.7212e+000 -1.3424e+000 59738 73171,73327,73301
 5.0000e-001 73422  2.6454e-001  1.1486e+001 -8.6566e-002 59738 73514,73275,73249
 5.0000e-001 73399  7.5272e-001  1.1159e+001 -5.9288e-002 59738 73586,73514,73249
 5.0000e-001 73376  4.8602e+000  1.2275e+001 -1.4802e+000 59738 73197,73249,73223
 5.0000e-001 73353 -4.2428e+000  1.0045e+001 -2.5849e+000 59738 73586,73249,73197
 5.0000e-001 73540 -2.0272e-001  1.4189e+001  9.1196e-001 59738 73301,73275,73514
 5.0000e-001 73563  1.8622e+000  1.0286e+001 -1.7932e+000 59738 73301,73514,73171
 5.0000e-001 73612 -3.1500e+000  6.5021e+000 -4.1518e+000 59738 73171,73514,73586
 5.0000e-001 73635 -4.9649e+000  7.5348e+000 -6.4860e+000 59738 73171,73586,73197
 5.0000e-001 73964 -1.7581e+001 -7.3037e+000  7.7896e+000 59334 73791,73843,73817
 5.0000e-001 73941 -2.3328e+001 -2.4401e+001 -2.3757e-001 59334 73791,73869,73843
 5.0000e-001 73918 -1.3519e+001 -5.9420e-001 -2.5865e+000 59334 73739,73869,73791
 5.0000e-001 73895 -2.1466e+001 -1.1568e+000 -1.2888e+000 59334 73739,73791,73765
 5.0000e-001 74261 -6.3711e+000  1.1677e+001  4.2024e-002 58630 74065,74117,74091
 5.0000e-001 74238 -2.0213e+000  9.2811e+000 -3.3090e+000 58630 74356,74284,74065
 5.0000e-001 74215 -4.5401e+000 -4.1987e+000 -4.4858e+000 58630 74284,74013,73987
 5.0000e-001 74192 -1.5221e+000  1.2611e+001 -6.6032e+000 58630 74356,74065,74039
 5.0000e-001 74169 -7.2927e+000  4.0115e+000  3.1834e+000 58630 73987,74143,74117
 5.0000e-001 74310 -5.3910e+000  7.3978e+000 -4.8438e+000 58630 74117,74065,74284
 5.0000e-001 74333 -8.2117e+000  6.1076e+000 -4.2083e+000 58630 74117,74284,73987
 5.0000e-001 74382  4.1044e+000  7.5263e+000 -8.2615e+000 58630 74013,74284,74356
 5.0000e-001 74405  5.1177e+000  1.1642e+001 -1.1631e+001 58630 74013,74356,74039
 5.0000e-001 74815  3.5713e+001  1.4453e+000 -5.2940e+000 58226 74590,74642,74616
 5.0000e-001 74792  2.4234e+001  4.4241e+000  3.6758e+000 58226 74590,74694,74642
 5.0000e-001 74769  2.5051e+001 -7.2238e+000  9.2130e+000 58226 74590,74720,74694
 5.0000e-001 74746  1.7247e+001  9.5246e+000  1.2238e+000 58226 74642,74694,74668
 5.0000e-001 75014  7.2003e+000  8.7516e+000 -3.9546e+000 57786 75037,74864,74838
 5.0000e-001 74991  6.8309e-001  6.7063e+000  1.2554e+000 57786 75037,74838,74916
 5.0000e-001 74968  3.8430e+000  6.1175e+000  4.4651e+000 57786 74838,74942,74916
 5.0000e-001 75063 -1.9851e+000  1.3669e+001 -3.7123e+000 57786 74890,74864,75037
 5.0000e-001 75086 -7.9402e+000  1.1435e+001  1.9673e+000 57786 74890,75037,74916
 5.0000e-001 75368  5.8978e+000  1.4261e+001  2.5056e+000 57496 75192,75270,75218
 5.0000e-001 75345  9.3150e+000  1.4257e+001  2.6089e-001 57496 75192,75296,75270
 5.0000e-001 75322  1.0682e+001  2.0177e+001  4.9208e+000 57496 75218,75270,75244
 5.0000e-001 75648  9.5984e+000  1.2321e+001 -2.6043e+000 57206 75472,75550,75498
 5.0000e-001 75625  5.9631e+000  1.6764e+001  3.2741e-001 57206 75472,75576,75550
 5.0000e-001 75602  2.9538e+000  5.5754e+000 -1.0636e+000 57206 75671,75550,75524
 5.0000e-001 75697  3.7378e+000  9.6577e+000  5.1209e-003 57206 75498,75550,75671
 5.0000e-001 76154 -1.6298e+001  6.6727e+000  7.7946e+000 56802 75958,76010,75984
 5.0000e-001 76131 -2.6335e+001 -3.4415e+000  1.2879e+001 56802 75932,76010,75958
 5.0000e-001 76108 -1.8979e+001  2.1696e+001  9.6992e+000 56802 75906,76010,75932
 5.0000e-001 76085 -2.9274e+001  4.4263e+000  4.9029e+000 56802 75880,76010,75906
 5.0000e-001 76062 -1.5354e+001  8.0536e+000 -1.2465e+000 56802 75880,76036,76010
 5.0000e-001 76505 -6.9552e+000  2.8605e+001 -2.6415e+000 56504 76306,76384,76332
 5.0000e-001 76482  1.1897e-001  1.9069e+001  1.0898e+000 56504 76306,76410,76384
 5.0000e-001 76459  2.0655e+000  2.3725e+001 -9.9027e+000 56504 76332,76384,76358
 5.0000e-001 76436 -2.7689e+001  6.3834e-001 -7.7988e+000 56504 76280,76410,76306
 5.0000e-001 77011  1.8043e+000  6.9359e+000  9.6813e-001 56050 76740,76818,76792
 5.0000e-001 76988  6.8832e+000  9.2389e+000  3.8778e-001 56050 76714,76818,76740
 5.0000e-001 76965  3.2596e+000  8.3372e+000  1.3526e+000 56050 76688,76818,76714
 5.0000e-001 76942  2.9928e+000  1.1703e+001 -4.1677e-001 56050 76688,76844,76818
 5.0000e-001 76919  7.8380e+000  8.4891e+000 -7.5857e-001 56050 76740,76792,76766
 5.0000e-001 76896 -2.7329e-001  1.5409e+001  4.6878e+000 56050 76688,76870,76844
 5.0000e-001 77517  1.3495e+000  1.0750e+001  5.3173e-001 55738 77220,77350,77324
 5.0000e-001 77494 -1.8098e+000  8.8550e+000 -2.7529e-001 55738 77220,77376,77350
 5.0000e-001 77471 -3.8531e-001  1.6306e+001 -1.2552e+000 55738 77194,77376,77220
 5.0000e-001 77448 -2.0824e+000  3.8170e+000  1.0770e+000 55738 77220,77298,77246
 5.0000e-001 77425 -3.4333e+000  6.6166e+000  2.9301e+000 55738 77220,77324,77298
 5.0000e-001 77402 -2.6751e+000  3.3937e+000 -5.3619e-001 55738 77246,77298,77272
 5.0000e-001 78064 -8.5137e+000 -7.0843e+000  1.7738e+000 55227 78231,78087,77773
 5.0000e-001 78041 -1.6733e+001 -7.4524e+000  4.3950e+000 55227 78087,77695,77643
 5.0000e-001 78018 -5.9900e+000 -2.3492e+001  2.0303e+000 55227 78159,77799,77773
 5.0000e-001 77995 -9.5189e+000 -8.3025e+000  2.2192e+000 55227 78231,77773,77721
 5.0000e-001 77972 -6.8957e+000 -7.2438e+000  5.6298e+000 55227 77643,77695,77669
 5.0000e-001 77949 -7.3993e+000  1.0687e+001 -1.4254e+000 55227 77643,77877,77851
 5.0000e-001 77926  5.2974e+000 -3.0637e+000 -3.3187e+000 55227 77799,77851,77825
 5.0000e-001 77903 -1.7871e+001 -1.4836e+001  5.2748e+000 55227 77721,77773,77747
 5.0000e-001 78113 -1.1290e+001 -1.3016e+001 -4.3449e-001 55227 78159,77773,78087
 5.0000e-001 78136 -1.1217e+001  5.6260e+000  8.5709e-001 55227 77851,78087,77643
 5.0000e-001 78185  2.4948e+000 -9.9716e+000 -3.1654e+000 55227 77851,77799,78159
 5.0000e-001 78208 -4.1748e+000 -1.1736e+000 -5.3387e+000 55227 77851,78159,78087
 5.0000e-001 78257 -1.1014e+001 -3.9677e+000  2.6635e+000 55227 77695,78087,78231
 5.0000e-001 78280 -1.2792e+001 -6.0862e+000  3.4264e+000 55227 77695,78231,77721
 5.0000e-001 78737  2.3321e+001  1.6081e+001 -4.5100e+000 54773 78463,78541,78515
 5.0000e-001 78714  1.9829e+001  1.1670e+001 -2.8010e+000 54773 78463,78619,78541
 5.0000e-001 78691  2.2137e+001  1.1649e+001 -8.8878e+000 54773 78463,78515,78489
 5.0000e-001 78668  1.5344e+001  1.0583e+001  4.5814e-001 54773 78541,78593,78567
 5.0000e-001 78645  1.8078e+001  1.1065e+001  6.7113e-001 54773 78541,78619,78593
 5.0000e-001 78838 -8.6688e+000  1.7372e+000 -1.8085e+000 54211 78760,78812,78786
 5.0000e-001 79297  1.8950e+001  3.0725e+001 -7.8584e+000 53814 79520,79153,79049
 5.0000e-001 79274  1.9918e+001  1.9233e+001  6.5302e+000 53814 79520,79049,79023
 5.0000e-001 79251  1.5602e+001  1.0569e+001 -1.7979e+000 53814 79320,79101,79049
 5.0000e-001 79228  1.8406e+001  1.7624e+001 -6.0460e+000 53814 79320,79049,79153
 5.0000e-001 79205  2.0225e+001  9.0664e+000 -1.2589e+000 53814 79049,79101,79075
 5.0000e-001 79346  1.6040e+001  5.7769e+000 -1.1532e+001 53814 79392,79320,79127
 5.0000e-001 79369  2.9265e+001  2.2991e+001 -1.7434e+001 53814 79127,79320,79153
 5.0000e-001 79418  2.1153e+001  1.3306e+001 -9.0807e+000 53814 79101,79320,79392
 5.0000e-001 79546  2.9040e+001  5.2193e+001 -1.6314e+001 53814 79179,79153,79520
 5.0000e-001 79569  1.8363e+001  3.5653e+001  1.6062e+000 53814 79179,79520,79023
 5.0000e-001 80075 -5.6030e+000  1.2527e+000 -5.2360e+000 53039 80098,79908,79830
 5.0000e-001 80052 -6.6644e+000  3.6473e-001 -7.3666e+000 53039 80098,79830,79804
 5.0000e-001 80029 -6.6376e+000  3.9974e+000 -5.1137e+000 53039 79752,79934,79804
 5.0000e-001 80006 -6.2093e-001 -5.1333e-001 -3.0210e+000 53039 79856,79908,79882
 5.0000e-001 79983 -4.5925e-001  3.9254e+000 -3.4953e+000 53039 79830,79908,79856
 5.0000e-001 79960 -2.5852e+000  1.0696e+001 -3.2051e+000 53039 79752,79804,79778
 5.0000e-001 80124 -2.1802e+000  3.6608e+000 -3.5814e+000 53039 79934,79908,80098
 5.0000e-001 80147 -5.2721e+000  1.4811e+000 -5.9407e+000 53039 79934,80098,79804
 5.0000e-001 80555 -2.8667e+001  1.6877e+001  1.3326e+001 52699 80356,80434,80408
 5.0000e-001 80532 -5.1599e+001  1.2076e+000  2.1051e+001 52699 80356,80460,80434
 5.0000e-001 80509 -4.9455e+001  1.6563e+001  3.3673e+001 52699 80330,80460,80356
 5.0000e-001 80486 -3.6370e+001 -1.4797e-001  1.5174e+001 52699 80356,80408,80382
 5.0000e-001 80776  5.6101e+000  1.2643e+001  1.4538e+000 52295 80600,80678,80626
 5.0000e-001 80753 -1.0844e+000  1.0846e+001  2.3333e+000 52295 80600,80704,80678
 5.0000e-001 80730  3.2702e+000  1.1519e+001  8.5702e-001 52295 80626,80678,80652
 5.0000e-001 81156  1.5378e+001  1.5422e+001 -3.5272e+000 51891 81179,80960,80908
 5.0000e-001 81133  1.9063e+001  2.3928e+001 -3.9693e+000 51891 81179,80908,81012
 5.0000e-001 81110  9.8347e+000  2.0779e+001 -2.7283e+000 51891 80882,81012,80908
 5.0000e-001 81087  1.8820e+001  1.0096e+001 -3.8072e+000 51891 80908,80960,80934
 5.0000e-001 81064  8.7914e+000  1.5848e+001 -4.7135e+000 51891 80882,81038,81012
 5.0000e-001 81205  1.5720e+001  1.2458e+001 -1.0601e+001 51891 80986,80960,81179
 5.0000e-001 81228  2.0005e+001  2.2938e+001 -1.0440e+001 51891 80986,81179,81012
 5.0000e-001 81606  9.3056e+000  1.5364e+001 -1.4029e+000 51544 81410,81462,81436
 5.0000e-001 81583 -5.8025e-001 -1.0875e+001 -2.2055e+000 51544 81384,81462,81410
 5.0000e-001 81560  1.0919e+001  1.0590e+001  3.6205e+000 51544 81358,81462,81384
 5.0000e-001 81537 -6.2264e+000  5.5696e+000 -9.2820e-002 51544 81358,81488,81462
 5.0000e-001 81514 -8.8547e+000  1.1319e+001 -1.6603e+000 51544 81332,81488,81358
 5.0000e-001 81854  2.8444e+001  2.0714e+001  7.5993e+000 51004 81877,81655,81629
 5.0000e-001 81831  2.2032e+001  3.8944e+001  5.1707e+000 51004 81877,81629,81759
 5.0000e-001 81808  1.9750e+001  1.8459e+001  8.8763e+000 51004 81655,81707,81681
 5.0000e-001 81785  1.7928e+001  1.5363e+001 -9.4090e+000 51004 81707,81759,81733
 5.0000e-001 81903  2.4482e+001  1.5922e+001  5.8641e+000 51004 81707,81655,81877
 5.0000e-001 81926  8.0543e+000  2.0178e+001 -9.4887e-001 51004 81707,81877,81759
 5.0000e-001 82257  4.7098e+000  8.8497e+000  2.1151e-001 50642 82058,82136,82110
 5.0000e-001 82234  4.0697e+000  9.3210e+000  1.4457e-001 50642 82058,82162,82136
 5.0000e-001 82211  5.8693e+000  1.0325e+001 -1.6089e+000 50642 82058,82110,82084
 5.0000e-001 82188  2.8978e+000  8.7820e+000  6.2569e-001 50642 82032,82162,82058
 5.0000e-001 82684  3.0607e+000  7.7505e+000  1.7364e-001 49931 82779,82707,82465
 5.0000e-001 82661  4.0700e+000  9.2964e+000 -9.6292e-001 49931 82707,82413,82361
 5.0000e-001 82638  1.3325e+000  6.8333e+000  7.0419e-001 49931 82779,82465,82439
 5.0000e-001 82615  5.2415e+000  1.0268e+001 -4.0429e-001 49931 82465,82543,82491
 5.0000e-001 82592  3.8358e+000  1.1124e+001 -2.2067e+000 49931 82361,82413,82387
 5.0000e-001 82569  4.8617e+000  9.8374e+000 -2.4226e-001 49931 82491,82543,82517
 5.0000e-001 82733  4.7187e+000  9.0483e+000 -4.0974e-001 49931 82543,82465,82707
 5.0000e-001 82756  3.3950e+000  9.8534e+000 -5.9767e-001 49931 82543,82707,82361
 5.0000e-001 82805  3.0496e+000  8.3034e+000 -1.4594e+000 49931 82413,82707,82779
 5.0000e-001 82828  2.2018e+000  7.7092e+000 -9.8099e-001 49931 82413,82779,82439
 5.0000e-001 83255 -3.0873e+001 -1.8318e+001 -5.9136e+000 49327 82984,83114,83036
 5.0000e-001 83232 -3.1954e+001 -2.0797e+001 -6.3207e+000 49327 82958,83114,82984
 5.0000e-001 83209 -2.8096e+001 -1.0180e+001 -8.8770e+000 49327 83036,83114,83088
 5.0000e-001 83186 -1.7709e+001 -2.1361e+001 -9.5581e+000 49327 82984,83036,83010
 5.0000e-001 83163 -2.4315e+001 -1.6337e+001 -4.4458e+000 49327 82932,83114,82958
 5.0000e-001 83140 -2.4545e+001 -3.1453e+000 -1.0138e+001 49327 83036,83088,83062
 5.0000e-001 83938  1.3784e+001  2.1838e+000 -1.0191e+000 48965 83961,83673,83647
 5.0000e-001 83915  1.9060e+001  1.3291e+001 -2.6064e+000 48965 83961,83647,83543
 5.0000e-001 83892  9.3594e+000  5.3298e+000 -1.1906e+001 48965 83517,83725,83543
 5.0000e-001 83869  2.8002e+001 -1.6503e+000 -1.1459e+001 48965 83673,83725,83699
 5.0000e-001 83846  2.1446e+001  1.2784e+001 -1.4670e+000 48965 83543,83647,83621
 5.0000e-001 83823  1.6794e+001  1.2374e+001  5.5847e-001 48965 83543,83621,83569
 5.0000e-001 83800  2.0206e+001  8.9244e+000 -1.5545e+001 48965 83517,83751,83725
 5.0000e-001 83777  1.6981e+001  1.3650e+001  3.6352e+000 48965 83569,83621,83595
 5.0000e-001 83987  1.7987e+001  5.5454e+000 -7.8533e+000 48965 83725,83673,83961
 5.0000e-001 84010  1.9582e+001  9.2490e+000 -8.1061e+000 48965 83725,83961,83543
 5.0000e-001 84258  2.9608e+001  1.6513e+001  1.7766e+000 48447 84281,84059,84033
 5.0000e-001 84235  2.8008e+001  1.4077e+001 -3.7705e+000 48447 84281,84033,84163
 5.0000e-001 84212  2.9058e+001  1.7834e+001  2.3502e+000 48447 84059,84111,84085
 5.0000e-001 84189  3.6977e+001  1.3814e+001 -2.0513e+000 48447 84111,84163,84137
 5.0000e-001 84307  3.2607e+001  1.7808e+001  2.1524e+000 48447 84111,84059,84281
 5.0000e-001 84330  3.4987e+001  1.7326e+001 -2.9233e+000 48447 84111,84281,84163
 5.0000e-001 84529 -5.6961e+000  1.2270e+000  8.6212e+000 47993 84552,84405,84379
 5.0000e-001 84506 -9.3715e-001  4.1921e-001  5.4120e+000 47993 84552,84379,84353
 5.0000e-001 84483 -6.4204e+000 -2.7631e+000  6.2907e+000 47993 84624,84457,84431
 5.0000e-001 84578 -7.1373e+000 -1.5481e+000  9.1410e+000 47993 84431,84405,84552
 5.0000e-001 84601 -5.6640e+000 -2.3903e+000  6.1514e+000 47993 84624,84431,84552
 5.0000e-001 84650 -5.6969e+000 -3.2092e+000  6.8596e+000 47993 84353,84457,84624
 5.0000e-001 84673 -4.9200e+000 -2.8747e+000  6.8262e+000 47993 84353,84624,84552
 5.0000e-001 85104 -5.2960e+000  3.7149e+000 -4.5960e+000 47588 85199,85127,84885
 5.0000e-001 85081 -3.3657e+000  1.2446e+001 -3.4312e+000 47588 85127,84781,84963
 5.0000e-001 85058 -5.6500e+000  1.7274e+000 -4.9800e+000 47588 85199,84885,84807
 5.0000e-001 85035 -5.0786e+000 -1.1166e+001 -1.1810e+001 47588 84885,84937,84911
 5.0000e-001 85012 -1.0929e+001 -2.1327e+000 -3.2389e+000 47588 84807,84885,84833
 5.0000e-001 84989 -8.4197e+000 -1.0455e+000 -2.5715e+000 47588 84833,84885,84859
 5.0000e-001 85153 -2.6031e+000  2.9002e+000 -1.9274e+000 47588 84937,84885,85127
 5.0000e-001 85176 -3.8533e-001  5.7272e+000 -3.5318e+000 47588 84937,85127,84963
 5.0000e-001 85225 -4.6745e+000  5.8429e+000 -1.2650e+000 47588 84781,85127,85199
 5.0000e-001 85248 -6.3150e+000  1.3359e+000 -1.5765e+000 47588 84781,85199,84807
 5.0000e-001 85518  4.2408e+000  1.0499e+001 -9.0940e-002 47226 85293,85397,85319
 5.0000e-001 85495  4.2034e+000  1.1329e+001 -9.3156e-001 47226 85293,85423,85397
 5.0000e-001 85472  3.4630e+000  9.9293e+000 -6.7143e-001 47226 85319,85397,85345
 5.0000e-001 85449  2.5886e+000  7.5321e+000 -8.9177e-001 47226 85345,85397,85371
 5.0000e-001 85849  1.6836e+001  6.2192e+000 -1.7093e+000 46572 85624,85702,85650
 5.0000e-001 85826  2.0199e+001  1.7898e+001  1.3751e-001 46572 85624,85754,85702
 5.0000e-001 85803  1.8518e+001  2.3360e+000 -3.2815e+000 46572 85702,85754,85728
 5.0000e-001 85780  1.3921e+001  4.0846e+000  9.6559e-001 46572 85650,85702,85676
 5.0000e-001 86070  2.0562e+000  1.0631e+001  6.0576e-001 46374 85920,85972,85946
 5.0000e-001 86047  5.1242e+000  1.7468e+001 -4.0669e-001 46374 85920,85998,85972
 5.0000e-001 86024 -1.6257e+001  8.7465e+000 -1.4594e+001 46374 85894,85998,85920
 5.0000e-001 86401  7.1609e+000  7.8435e+000 -1.0393e+001 46034 86424,86280,86228
 5.0000e-001 86378 -1.2050e+000  6.5535e+000 -1.1692e+001 46034 86424,86228,86176
 5.0000e-001 86355 -4.0309e-001  2.0015e+001 -2.1666e+001 46034 86176,86228,86202
 5.0000e-001 86332  4.8061e+000  6.8807e+000 -4.2861e+000 46034 86228,86280,86254
 5.0000e-001 86450  2.3712e+001  4.1041e+000 -1.3823e+001 46034 86306,86280,86424
 5.0000e-001 86473  6.9193e+000 -2.8960e+000 -1.6329e+001 46034 86306,86424,86176
 5.0000e-001 87058 -1.6528e+000  1.8583e+001 -5.3216e+000 45516 86813,86917,86865
 5.0000e-001 87035  5.1527e+000  3.6281e+001 -4.0851e+000 45516 86787,86917,86813
 5.0000e-001 87012  1.0608e+000  5.7759e+001 -8.8776e+000 45516 86735,86917,86787
 5.0000e-001 86989  1.7227e+001  3.8537e+001 -1.3922e+001 45516 86865,86917,86891
 5.0000e-001 86966  4.9485e+000  2.3254e+001 -2.9573e+000 45516 86813,86865,86839
 5.0000e-001 86943 -1.9992e+001  4.5359e+001  9.3016e+000 45516 86735,86787,86761
 5.0000e-001 87208 -1.0192e+000  2.6814e+000  1.0091e+001 45226 87231,87133,87107
 5.0000e-001 87185  6.2750e-001  1.4791e+001  2.0956e+001 45226 87081,87159,87133
 5.0000e-001 87257 -6.6944e-001  2.7783e+000  9.9543e+000 45226 87081,87133,87231
 5.0000e-001 87537  4.3044e+000  2.0466e+001 -2.0766e+000 44772 87387,87439,87413
 5.0000e-001 87514 -4.0179e+000  1.8789e+001 -5.0414e+000 44772 87361,87439,87387
 5.0000e-001 87491 -1.5658e+000  4.3283e+001 -9.6940e+000 44772 87361,87465,87439
 5.0000e-001 87996  3.9269e+000  9.3435e+000 -9.4536e-001 44425 87748,87878,87852
 5.0000e-001 87973  5.3556e+000  9.8832e+000  4.0500e-001 44425 87722,87878,87748
 5.0000e-001 87950 -1.9299e+000  9.1946e+000 -1.1322e+000 44425 87800,87852,87826
 5.0000e-001 87927  5.2910e+000  1.1234e+001 -1.6483e+000 44425 87748,87852,87800
 5.0000e-001 87904  2.3999e+000  1.2364e+001 -4.1894e+000 44425 87748,87800,87774
 5.0000e-001 88423  4.1669e+000  5.4400e+000  3.7197e+000 44078 88590,88230,88204
 5.0000e-001 88400  7.0123e+000  2.2256e+000  2.8048e+000 44078 88518,88446,88204
 5.0000e-001 88377  9.6818e+000  4.2638e+000  7.1851e+000 44078 88446,88126,88282
 5.0000e-001 88354  5.4491e+000  2.3526e+000  2.6232e+000 44078 88518,88204,88178
 5.0000e-001 88331  1.7121e+001  4.9706e+000  1.1204e+001 44078 88100,88282,88126
 5.0000e-001 88308  3.4886e+000  2.2403e-001  3.9853e-002 44078 88126,88178,88152
 5.0000e-001 88472  5.1553e+000  7.2682e+000  5.3325e+000 44078 88590,88204,88446
 5.0000e-001 88495  9.5881e+000  1.3206e+001  1.2259e+001 44078 88256,88446,88282
 5.0000e-001 88544  5.4784e+000  2.0914e+000  2.0644e+000 44078 88126,88446,88518
 5.0000e-001 88567  4.1415e+000  2.5877e+000  2.1638e+000 44078 88126,88518,88178
 5.0000e-001 88616 -1.1232e+000  3.3094e+001  2.5881e+000 44078 88256,88230,88590
 5.0000e-001 88639 -5.2734e-001  3.9920e+000  8.2755e+000 44078 88256,88590,88446
 5.0000e-001 89039  3.3405e+000  1.0593e+001 -8.0403e-001 43716 88791,88921,88895
 5.0000e-001 89016  4.7651e+000  1.2964e+001 -3.6998e-002 43716 88765,88921,88791
 5.0000e-001 88993  2.7308e+000  1.2709e+001 -2.5751e+000 43716 88817,88895,88869
 5.0000e-001 88970  1.0431e+001  1.4496e+001 -2.4001e+000 43716 88791,88895,88817
 5.0000e-001 88947 -3.4724e+000  9.6949e+000 -1.6244e+000 43716 88817,88869,88843
 5.0000e-001 89496 -2.5927e-001  1.3702e+001  1.9979e+000 43162 89519,89274,89248
 5.0000e-001 89473 -3.4626e+000  9.4451e+000  5.4214e-001 43162 89519,89248,89222
 5.0000e-001 89450  3.6040e+000  8.3345e+000  9.2545e-001 43162 89326,89378,89352
 5.0000e-001 89427  1.6935e+000  8.0126e+000  7.4405e-001 43162 89274,89378,89326
 5.0000e-001 89404  3.8566e+000  9.2658e+000  1.4247e+000 43162 89274,89326,89300
 5.0000e-001 89545  1.6753e+000  8.8414e+000 -4.0739e-001 43162 89378,89274,89519
 5.0000e-001 89568 -1.9242e+000  4.1719e+000 -2.0098e+000 43162 89378,89519,89222
 5.0000e-001 89946  2.3131e-002  1.1653e+001 -5.4690e+000 42594 90041,89969,89750
 5.0000e-001 89923 -5.6484e-001  6.9812e+000 -4.0578e+000 42594 89969,89698,89828
 5.0000e-001 89900  2.2792e+000  1.1513e+001 -5.4272e+000 42594 90041,89750,89724
 5.0000e-001 89877  7.4753e-001  1.2096e+001 -2.0778e+000 42594 89750,89802,89776
 5.0000e-001 89854 -1.0033e+001  8.3946e-001 -8.9995e+000 42594 89672,89828,89698
 5.0000e-001 89995 -2.2200e+000  8.6442e+000 -4.4352e+000 42594 89802,89750,89969
 5.0000e-001 90018  6.0918e-001  8.8263e+000 -5.0268e+000 42594 89802,89969,89828
 5.0000e-001 90067  2.6809e+000  8.3476e+000 -4.6401e+000 42594 89698,89969,90041
 5.0000e-001 90090  8.1369e+000  1.1234e+001 -6.2690e+000 42594 89698,90041,89724
 5.0000e-001 90517  1.1696e+001  8.1795e+000  1.5630e+000 42140 90540,90220,90194
 5.0000e-001 90494  7.1483e+000  7.3162e+000  3.4784e+000 42140 90540,90194,90376
 5.0000e-001 90471  6.9139e+000  1.2123e+001  3.3682e+000 42140 90612,90350,90272
 5.0000e-001 90448 -3.4914e+000  7.8586e+000 -1.2986e+000 42140 90272,90350,90298
 5.0000e-001 90425 -1.6247e+000  9.1796e+000 -3.8230e+000 42140 90298,90350,90324
 5.0000e-001 90402  8.7320e+000  2.4569e+000  8.1562e-001 42140 90220,90272,90246
 5.0000e-001 90566  7.6987e+000  2.1802e+000 -2.7372e-001 42140 90272,90220,90540
 5.0000e-001 90589  5.5026e+000  8.7222e+000  1.1473e+000 42140 90612,90272,90540
 5.0000e-001 90638  7.7026e+000  1.5066e+001  5.3738e+000 42140 90376,90350,90612
 5.0000e-001 90661  9.4807e+000  1.2411e+001  4.0635e+000 42140 90376,90612,90540
 5.0000e-001 91167  1.7585e+001  1.3995e+001  4.7392e-001 41636 91190,90870,90844
 5.0000e-001 91144  1.8943e+001  1.9208e+001 -1.0335e-001 41636 91190,90844,91026
 5.0000e-001 91121  1.6005e+001  7.0356e+000 -4.7831e+000 41636 90870,90922,90896
 5.0000e-001 91098  1.5002e+001  1.2907e+001  3.3438e+000 41636 90922,91026,90948
 5.0000e-001 91075  1.7549e+001  1.2675e+001  4.4190e+000 41636 90948,91026,91000
 5.0000e-001 91052  1.3473e+001  2.1012e+000  5.1709e+000 41636 90948,91000,90974
 5.0000e-001 91216  1.9177e+001  1.1948e+001  5.5115e-001 41636 90922,90870,91190
 5.0000e-001 91239  1.8292e+001  1.3964e+001 -3.4502e-001 41636 90922,91190,91026
 5.0000e-001 91696 -9.2823e+000  7.8458e+000 -7.6314e+000 40449 91448,91526,91474
 5.0000e-001 91673  9.8258e-001  1.1222e+001 -6.0494e+000 40449 91448,91578,91526
 5.0000e-001 91650 -1.3748e+001  1.1614e+001 -9.9966e+000 40449 91474,91526,91500
 5.0000e-001 91627 -3.4104e+000  9.4785e+000 -6.4995e+000 40449 91422,91578,91448
 5.0000e-001 91604  7.2821e-001  1.7605e+001 -7.2672e+000 40449 91526,91578,91552
 5.0000e-001 92123  4.5419e+000  1.5197e+001 -3.5130e+000 39995 92146,91904,91826
 5.0000e-001 92100  4.4333e+000  1.5275e+001 -2.6510e+000 39995 92146,91826,91800
 5.0000e-001 92077  5.0986e+000  1.6171e+001 -3.8741e+000 39995 91826,91904,91852
 5.0000e-001 92054  5.9454e+000  2.2533e+001 -3.8849e+000 39995 91904,91982,91930
 5.0000e-001 92031  6.4278e-001  1.5423e+001 -1.0359e+000 39995 91852,91904,91878
 5.0000e-001 92008  9.6059e-001  1.8630e+001 -1.2181e+000 39995 91930,91982,91956
 5.0000e-001 92172  4.4246e+000  1.5889e+001 -3.1800e+000 39995 91982,91904,92146
 5.0000e-001 92195  4.6798e+000  1.6934e+001 -2.4809e+000 39995 91982,92146,91800
 5.0000e-001 92652  1.8573e-001  7.4973e+000  7.6255e-001 39633 92404,92534,92456
 5.0000e-001 92629 -1.6464e+000  4.6040e+000 -7.9917e-002 39633 92378,92534,92404
 5.0000e-001 92606 -1.1461e+001  2.0906e+000 -2.3857e+000 39633 92404,92456,92430
 5.0000e-001 92583  2.1157e-001  5.8140e+000  3.0979e-001 39633 92456,92534,92508
 5.0000e-001 92560  5.0015e+000  5.0892e+000  2.8186e+000 39633 92456,92508,92482
 5.0000e-001 93079 -2.4359e+000  5.8815e+000 -1.0467e-001 39093 93102,92808,92756
 5.0000e-001 93056  7.0515e-002  1.0649e+001 -3.4699e+000 39093 93102,92756,92938
 5.0000e-001 93033 -9.9021e-001  3.5128e+000  8.5124e-001 39093 93174,92912,92834
 5.0000e-001 93010  6.2105e+000  1.3531e+000 -4.4952e-001 39093 92834,92912,92860
 5.0000e-001 92987  5.7046e+000  1.0212e+001 -6.3270e+000 39093 92756,92808,92782
 5.0000e-001 92964  5.4925e+000  5.6507e-001  5.2395e-001 39093 92860,92912,92886
 5.0000e-001 93128 -3.4508e-002  4.9986e-001  1.8612e-001 39093 92834,92808,93102
 5.0000e-001 93151 -7.5561e-001  4.5007e+000  3.0782e-002 39093 93174,92834,93102
 5.0000e-001 93200 -3.1169e-001  4.1474e+000 -1.2607e-001 39093 92938,92912,93174
 5.0000e-001 93223  7.0822e-001  4.8812e+000 -9.4679e-001 39093 92938,93174,93102
 5.0000e-001 93680  1.8162e+000  1.8744e+001 -1.3300e+000 38639 93703,93536,93484
 5.0000e-001 93657  4.1990e+000  1.8139e+001 -1.9557e+000 38639 93703,93484,93432
 5.0000e-001 93634 -6.7522e+000  1.7290e+001 -5.5193e+000 38639 93432,93484,93458
 5.0000e-001 93611 -1.6300e+000  1.2917e+001  5.0267e+000 38639 93484,93536,93510
 5.0000e-001 93588  7.3487e+000  1.5575e+001 -2.7029e+000 38639 93406,93562,93432
 5.0000e-001 93729  3.9588e+000  1.7109e+001 -1.0505e+000 38639 93562,93536,93703
 5.0000e-001 93752  8.3525e+000  1.8496e+001 -2.4922e+000 38639 93562,93703,93432
 5.0000e-001 94160  1.7858e+001  1.3260e+001  1.8922e+000 38292 93935,94039,93961
 5.0000e-001 94137  1.8311e+001  1.2283e+001  4.5121e+000 38292 93935,94065,94039
 5.0000e-001 94114  7.2936e+000  5.4088e+000  1.2019e+000 38292 93961,94013,93987
 5.0000e-001 94091  1.2908e+001  6.6466e+000  4.0617e+000 38292 93961,94039,94013
 5.0000e-001 94408 -5.3828e+000  1.4726e+001 -5.6722e+000 37880 94431,94261,94235
 5.0000e-001 94385 -5.3075e+000  1.5813e+001 -5.6506e+000 37880 94431,94235,94313
 5.0000e-001 94362 -6.7096e+000  1.4908e+001 -4.1812e+000 37880 94209,94313,94235
 5.0000e-001 94339 -7.1534e+000  1.8546e+001 -1.2062e+001 37880 94183,94313,94209
 5.0000e-001 94457 -5.4135e+000  1.5776e+001 -5.9959e+000 37880 94287,94261,94431
 5.0000e-001 94480 -5.6451e+000  1.6510e+001 -5.7955e+000 37880 94287,94431,94313
 5.0000e-001 94728  4.8230e+000  3.3412e+001 -6.9351e+000 37426 94529,94607,94555
 5.0000e-001 94705 -2.9845e+000  2.7105e+001 -3.3661e+000 37426 94529,94633,94607
 5.0000e-001 94682 -5.0265e+000  2.7616e+001 -3.1483e+000 37426 94503,94633,94529
 5.0000e-001 94659 -2.6353e+001 -1.7097e+001  1.7168e+001 37426 94555,94607,94581
 5.0000e-001 95257  7.3955e+000  1.4660e+001 -4.3463e+000 36722 95496,95280,94862
 5.0000e-001 95234  1.4776e+000  1.2257e+001 -3.4267e+000 36722 95496,94862,94836
 5.0000e-001 95211  1.5446e+001  1.8165e+001 -5.6964e-001 36722 95352,95280,95070
 5.0000e-001 95188  1.3779e+001  1.4644e+001 -9.1484e-002 36722 95352,95070,95044
 5.0000e-001 95165  1.1730e+001  2.3233e+001 -1.5369e+001 36722 95424,94888,94862
 5.0000e-001 95142 -5.4341e+000  3.7866e+001  1.2426e+001 36722 94914,94966,94940
 5.0000e-001 95119  1.3357e+001  1.2138e+001  8.4295e+000 36722 94966,95044,95018
 5.0000e-001 95096  1.6002e+001  1.8654e+001  8.6808e+000 36722 94966,95018,94992
 5.0000e-001 95306 -5.1817e-001  2.1284e+001 -9.6852e+000 36722 95424,94862,95280
 5.0000e-001 95329  3.2959e+000  3.1775e+001 -2.5349e+000 36722 94914,95280,94966
 5.0000e-001 95378  1.3412e+001  1.8710e+001  1.5270e+000 36722 94966,95280,95352
 5.0000e-001 95401  1.3187e+001  1.7985e+001  1.5384e+000 36722 94966,95352,95044
 5.0000e-001 95450 -5.7645e+000  1.5586e+001 -1.3493e+001 36722 94914,94888,95424
 5.0000e-001 95473 -7.6984e+000  1.8598e+001 -9.7498e+000 36722 94914,95424,95280
 5.0000e-001 95522  8.2114e+000  1.4776e+001 -4.6854e+000 36722 95070,95280,95496
 5.0000e-001 95545  7.7035e+000  1.5278e+001 -4.3228e+000 36722 95070,95496,94836
 5.0000e-001 96130  1.3771e+000  2.1347e+000  2.3823e+000 36268 96153,95911,95859
 5.0000e-001 96107  3.0807e+000  1.3089e+001  3.2266e+000 36268 96153,95859,95807
 5.0000e-001 96084  8.4750e+000  3.1662e+001  8.5048e+000 36268 95807,95859,95833
 5.0000e-001 96061 -7.6616e+000  1.5669e+001  5.3145e+000 36268 95911,95989,95937
 5.0000e-001 96038  4.6894e-001  4.7905e+000  1.6423e+001 36268 95859,95911,95885
 5.0000e-001 96015  1.1778e+001  1.4926e+001  7.9095e+000 36268 95937,95989,95963
 5.0000e-001 96179 -4.3153e+000  1.1986e+001 -1.5871e-001 36268 95989,95911,96153
 5.0000e-001 96202 -4.3850e-001  2.6010e+001  1.1405e+000 36268 95989,96153,95807
 5.0000e-001 96531  6.6051e+000  2.4345e+001 -8.4751e+000 35728 96358,96410,96384
 5.0000e-001 96508  5.4538e+000  2.5545e+001 -9.1628e+000 35728 96332,96410,96358
 5.0000e-001 96485  5.2733e+000  2.5980e+001 -8.5839e+000 35728 96332,96436,96410
 5.0000e-001 96462 -3.8913e+000  1.8429e+001 -4.0235e+000 35728 96306,96436,96332
 5.0000e-001 96860  1.9529e+001  2.3811e+001 -6.2486e+000 35324 96687,96765,96713
 5.0000e-001 96837  1.4888e+001  1.2251e+001 -7.8003e+000 35324 96661,96765,96687
 5.0000e-001 96814  1.7932e+001  2.0851e+001 -4.7701e+000 35324 96713,96765,96739
 5.0000e-001 96791  1.8773e+001  1.2131e+001 -7.3353e+000 35324 96635,96765,96661
 5.0000e-001 97366  5.3054e+000  5.4903e+000 -3.1377e+000 34920 97389,97069,97043
 5.0000e-001 97343  4.8383e+000  6.9369e+000 -4.2316e+000 34920 97389,97043,97199
 5.0000e-001 97320  1.1910e+001  2.5507e+001 -5.7547e+000 34920 97043,97225,97199
 5.0000e-001 97297  1.0476e+001  3.4247e+000 -4.9871e+000 34920 97069,97121,97095
 5.0000e-001 97274 -3.6054e+000  5.6533e-001 -9.7601e+000 34920 97121,97199,97173
 5.0000e-001 97251  2.7846e-001  4.5270e+000 -1.1992e+001 34920 97121,97173,97147
 5.0000e-001 97415  5.5092e+000  5.9343e+000 -4.7232e+000 34920 97121,97069,97389
 5.0000e-001 97438  6.5001e+000  9.1427e+000 -5.9712e+000 34920 97121,97389,97199
 5.0000e-001 97708 -5.5249e+000  2.5720e+001  4.9124e+000 34722 97509,97587,97535
 5.0000e-001 97685 -9.6086e+000  2.8237e+001  5.2186e+000 34722 97509,97613,97587
 5.0000e-001 97662  5.7322e+000  3.5759e+001  7.6537e+000 34722 97483,97613,97509
 5.0000e-001 97639  1.4522e+001  3.2845e+001  3.1862e+000 34722 97535,97587,97561
 5.0000e-001 98216 -3.5255e+000  1.7535e+001 -6.4975e+000 34318 97971,98075,97997
 5.0000e-001 98193 -3.6624e+000  2.0197e+001 -8.1109e+000 34318 97893,98075,97971
 5.0000e-001 98170 -7.7905e+000  4.8826e+000 -6.7994e+000 34318 97893,97971,97919
 5.0000e-001 98147 -1.4721e+000  2.0774e+001 -7.4556e+000 34318 97997,98075,98049
 5.0000e-001 98124  9.8521e+000  1.5379e+001 -1.1255e+001 34318 97919,97971,97945
 5.0000e-001 98101  2.9004e+000  3.0238e+001 -9.4269e+000 34318 97997,98049,98023
 5.0000e-001 98594  8.0660e+000  2.4354e+001 -1.1535e-001 33814 98961,98617,98424
 5.0000e-001 98571  6.2965e+000  2.8760e+001 -2.8417e+000 33814 98689,98617,98372
 5.0000e-001 98548  6.7413e+000  1.8963e+001 -1.9744e+000 33814 99033,98689,98372
 5.0000e-001 98525  1.2437e+001  1.8662e+001 -5.6237e+000 33814 98761,98476,98450
 5.0000e-001 98502  1.0733e+001  2.2815e+001  6.1167e-001 33814 98961,98424,98398
 5.0000e-001 98643  1.4128e+001  2.5589e+001 -1.6940e+000 33814 98450,98424,98617
 5.0000e-001 98666  8.9510e+000  1.8763e+001 -4.3602e+000 33814 98761,98450,98617
 5.0000e-001 98715  1.2481e+001  2.7889e+001 -4.8562e+000 33814 99161,98689,98320
 5.0000e-001 98738  1.5972e+001  3.5492e+001 -7.0002e+000 33814 98320,98689,98346
 5.0000e-001 98787  1.7305e+001  2.5065e+001 -9.4151e+000 33814 98833,98761,98320
 5.0000e-001 98810  1.2180e+001  2.8225e+001 -5.5559e+000 33814 99161,98320,98761
 5.0000e-001 98859  1.0041e+001  1.1398e+001 -4.8132e+000 33814 98476,98761,98833
 5.0000e-001 98987  4.3443e+000  2.3915e+001  8.6659e-001 33814 98372,98617,98961
 5.0000e-001 99010  6.7368e+000  2.2031e+001  2.1152e+000 33814 98372,98961,98398
 5.0000e-001 99059  1.7115e+001  4.1384e+001  1.4820e+000 33814 98346,98689,99033
 5.0000e-001 99187  1.2022e+001  2.6737e+001 -4.8325e+000 33814 98617,98689,99161
 5.0000e-001 99210  1.1835e+001  2.7237e+001 -5.5797e+000 33814 98617,99161,98761
 5.0000e-001 99588 -6.7945e+000  1.2034e+001  3.0170e+000 33566 99366,99444,99392
 5.0000e-001 99565 -8.3363e+000  1.1106e+001  2.5160e+000 33566 99314,99444,99366
 5.0000e-001 99542 -6.3632e+000  2.1731e+001  4.9972e+000 33566 99314,99366,99340
 5.0000e-001 99519 -9.0317e+000  1.7043e+001 -6.1717e+000 33566 99314,99470,99444
 5.0000e-001 99496 -5.5577e-001  3.5925e+001  5.3139e+000 33566 99392,99444,99418
 5.0000e-001 99787  4.6701e-001  5.8123e+001 -4.2422e+001 33105 99637,99689,99663
 5.0000e-001 99764 -5.9359e+000  3.7400e+001 -1.1406e+001 33105 99611,99689,99637
 5.0000e-001 99741 -2.4814e+001  2.3219e+001 -1.1475e-001 33105 99611,99715,99689
 5.0000e-001 100167  2.7973e+001  3.0279e+001  1.5799e+000 32651 100190,99971,99919
 5.0000e-001 100144  3.0363e+001  2.6734e+001  1.6154e+000 32651 100262,100190,99919
 5.0000e-001 100121  3.1481e+001  2.6513e+001  2.3405e+000 32651 100262,99919,100049
 5.0000e-001 100098  3.1146e+001  2.6431e+001  6.3207e-001 32651 99893,100049,99919
 5.0000e-001 100075  3.5169e+001  3.3203e+001  5.9057e+000 32651 99919,99971,99945
 5.0000e-001 100216  3.0455e+001  3.4184e+001  5.4019e+000 32651 99997,99971,100190
 5.0000e-001 100239  2.8751e+001  2.7717e+001  4.6919e+000 32651 99997,100190,100023
 5.0000e-001 100288  3.1912e+001  2.7350e+001  2.0907e+000 32651 100023,100190,100262
 5.0000e-001 100311  3.4890e+001  2.8053e+001  2.8160e+000 32651 100023,100262,100049
 5.0000e-001 100608  1.7677e+001  1.9014e+001 -1.7147e+001 32254 100386,100490,100464
 5.0000e-001 100585  2.3465e+001  2.3185e+001 -1.3073e+001 32254 100360,100490,100386
 5.0000e-001 100562  2.3925e+001  5.0612e+000 -2.6296e+001 32254 100386,100464,100412
 5.0000e-001 100539  5.8548e+000  2.0440e+001 -3.8318e+000 32254 100334,100490,100360
 5.0000e-001 100516  2.2960e+001 -2.5687e+000 -2.5495e+001 32254 100412,100464,100438
 5.0000e-001 100758  2.5289e+001  4.3326e+001 -3.8415e+000 31914 100985,100781,100683
 5.0000e-001 100735  1.0899e+001  5.7359e+001 -8.8703e+000 31914 100853,100781,100657
 5.0000e-001 100807  4.9433e+001  3.8745e+001 -2.4575e+001 31914 100709,100683,100781
 5.0000e-001 100830  3.3789e+001  3.5240e+001 -1.4067e+001 31914 100709,100781,100631
 5.0000e-001 100879  2.1832e+001  8.5539e-001 -1.1023e+001 31914 100631,100781,100853
 5.0000e-001 101011  3.9296e+001  7.4293e+001  7.5372e-001 31914 100657,100781,100985
 5.0000e-001 101191 -2.1299e+001  4.6988e+001 -6.9320e+000 31418 101113,101165,101139
 5.0000e-001 101341 -6.5709e+001 -1.2067e+001 -4.0232e+000 31106 101214,101266,101240
 5.0000e-001 101318 -3.9028e+001  6.9206e+001  9.9343e+000 31106 101214,101292,101266
 5.0000e-001 101591 -2.3812e+001 -2.6067e+000 -1.2415e-001 30552 101614,101470,101444
 5.0000e-001 101568 -2.2293e+001  5.2325e+000  1.8135e+000 30552 101366,101496,101470
 5.0000e-001 101545 -3.2428e+001 -5.7772e+000  7.2134e+000 30552 101614,101444,101392
 5.0000e-001 101522 -8.1880e+000  1.2468e+001 -1.5311e+000 30552 101392,101444,101418
 5.0000e-001 101640 -3.6001e+001 -1.6959e+000  4.4786e+000 30552 101366,101470,101614
 5.0000e-001 101663 -4.3407e+001 -3.8810e+000  1.1753e+001 30552 101366,101614,101392
 5.0000e-001 102301  2.3967e+001  3.7146e+001 -1.3453e+001 30042 102396,102324,102059
 5.0000e-001 102278  1.6481e+001  1.7038e+001 -1.0490e+001 30042 102324,101981,101955
 5.0000e-001 102255  2.9533e+001  3.5901e+001 -1.6938e+001 30042 102396,102059,102033
 5.0000e-001 102232  1.6093e+001  3.3328e+001  1.7776e+001 30042 101929,102111,101955
 5.0000e-001 102209  1.1857e+001  3.9028e+001  4.4571e+000 30042 102059,102111,102085
 5.0000e-001 102186  4.3924e+000  4.1236e+001 -1.3098e+001 30042 101929,102137,102111
 5.0000e-001 102163  1.9079e+001  2.8504e+001 -8.6030e+000 30042 101981,102033,102007
 5.0000e-001 102350  2.0192e+001  2.9806e+001  6.5988e-001 30042 102111,102059,102324
 5.0000e-001 102373  1.7446e+001  8.2313e+000  5.7580e+000 30042 102111,102324,101955
 5.0000e-001 102422  1.4575e+001  3.1902e+001 -8.7688e+000 30042 101981,102324,102396
 5.0000e-001 102445  2.0766e+001  3.0963e+001 -1.2239e+001 30042 101981,102396,102033
 5.0000e-001 103000  1.8186e+001  1.2443e+001 -1.8232e+000 29730 103023,102706,102654
 5.0000e-001 102977  2.4470e+001  1.8152e+001 -5.3637e+000 29730 103023,102654,102810
 5.0000e-001 102954  2.2121e+001 -1.2476e+001 -3.8896e+000 29730 102732,102810,102784
 5.0000e-001 102931  1.3210e+001  1.1234e+001 -8.7191e+000 29730 102628,102810,102654
 5.0000e-001 102908  2.0478e+001  2.4125e+001 -1.0485e+000 29730 102654,102706,102680
 5.0000e-001 102885  2.9595e+001  9.0504e+000 -6.8258e+000 29730 102732,102784,102758
 5.0000e-001 102862  1.6162e+000  1.2163e+001 -2.8250e+001 29730 102628,102836,102810
 5.0000e-001 103049  2.0863e+001  5.8782e+000  2.7612e+000 29730 102732,102706,103023
 5.0000e-001 103072  2.5082e+001  1.2085e+001 -1.4651e-001 29730 102732,103023,102810
 5.0000e-001 103222 -5.0780e+001 -4.3070e+000  1.7540e+000 29226 103095,103147,103121
 5.0000e-001 103199 -8.6548e+001 -2.0603e+001  9.3996e+000 29226 103095,103173,103147
 5.0000e-001 103730 -9.9735e+000  2.4645e+001  1.0080e+001 28822 103537,103589,103563
 5.0000e-001 103707 -2.5657e+000  2.6152e+001  5.7783e+000 28822 103433,103589,103537
 5.0000e-001 103684  9.9532e+000  2.8145e+001  1.1188e+001 28822 103433,103537,103459
 5.0000e-001 103661 -3.6250e+000  2.9964e+001  5.5998e+000 28822 103407,103589,103433
 5.0000e-001 103638  3.4136e+000  1.5475e+001  2.2725e+000 28822 103459,103511,103485
 5.0000e-001 103615  2.5291e+000  1.2655e+001  3.5455e+000 28822 103459,103537,103511
 5.0000e-001 103880  2.7104e+000  1.9828e+001 -7.7566e-001 28368 103975,103903,103779
 5.0000e-001 103857  4.4366e+000  3.7226e+001 -2.4662e-002 28368 103903,103753,103831
 5.0000e-001 103929  5.2616e+000  1.8831e+001  7.7390e-001 28368 103805,103779,103903
 5.0000e-001 103952 -2.5562e+000  2.0537e+001 -2.7229e+000 28368 104105,103903,103831
 5.0000e-001 104001  6.7824e+000  2.2661e+001  1.3035e+000 28368 103753,103903,103975
 5.0000e-001 104131  9.7890e-001  2.3572e+001  1.1345e-001 28368 103805,103903,104105
 5.0000e-001 104539  2.1301e+001  2.2262e+001  1.1301e+001 28028 104562,104340,104314
 5.0000e-001 104516  2.2773e+001  3.0532e+001  1.1808e+001 28028 104634,104562,104314
 5.0000e-001 104493  2.1742e+001  1.9902e+001  5.1594e+000 28028 104762,104366,104340
 5.0000e-001 104470  2.1829e+001  1.5213e+001 -3.5838e+000 28028 104366,104418,104392
 5.0000e-001 104588  2.1216e+001  1.8946e+001  5.8785e+000 28028 104762,104340,104562
 5.0000e-001 104611  2.3612e+001  2.9480e+001  4.6999e+000 28028 104418,104562,104444
 5.0000e-001 104660  1.7328e+001  2.7415e+001  9.7735e+000 28028 104444,104562,104634
 5.0000e-001 104788  2.0672e+001  2.1106e+001  5.1711e+000 28028 104418,104366,104762
 5.0000e-001 104811  2.0489e+001  2.0532e+001  5.8571e+000 28028 104418,104762,104562
 5.0000e-001 105010  3.1686e+001  2.0252e+001 -3.6222e-001 27324 105033,104886,104860
 5.0000e-001 104987  2.4522e+001  1.1835e+001 -1.5034e+001 27324 105033,104860,104834
 5.0000e-001 104964  1.6305e+001  8.7493e+000 -8.2864e+000 27324 105105,104912,104886
 5.0000e-001 105059  2.3304e+001  7.0376e+000 -6.7883e+000 27324 105105,104886,105033
 5.0000e-001 105082  2.1895e+001  4.2537e-001 -1.6044e+001 27324 104938,105033,104834
 5.0000e-001 105131  5.0170e+000  6.8873e+000 -1.0448e+001 27324 104938,104912,105105
 5.0000e-001 105154  1.3491e+001  7.2683e+000 -7.4653e+000 27324 104938,105105,105033
 5.0000e-001 105402 -8.1434e+001 -2.3186e+001 -5.2115e+000 27012 105229,105281,105255
 5.0000e-001 105379 -7.2036e+001 -3.1083e+001 -3.6489e+000 27012 105229,105307,105281
 5.0000e-001 105356 -4.7564e+001 -2.2327e+001  2.8511e-001 27012 105177,105307,105229
 5.0000e-001 105333 -5.7140e+001 -2.5052e+001 -9.4876e+000 27012 105177,105229,105203
 5.0000e-001 105603  2.4314e+001  2.4978e+001 -1.6909e+001 26508 105626,105453,105427
 5.0000e-001 105580  1.8589e+001  1.1524e+001 -1.5665e+001 26508 105626,105427,105505
 5.0000e-001 105557  3.9152e+001  2.5358e+000 -7.4909e+000 26508 105427,105531,105505
 5.0000e-001 105652  2.0750e+001  2.3100e+001 -9.6135e+000 26508 105479,105453,105626
 5.0000e-001 105675  1.8203e+001  1.7521e+001 -8.5536e+000 26508 105479,105626,105505
 5.0000e-001 106057 -7.3685e+000  5.1401e+000 -1.1895e+001 25947 106080,105887,105861
 5.0000e-001 106034 -5.3911e+000  6.4558e+000 -1.7220e+001 25947 106080,105861,105783
 5.0000e-001 106011  6.1252e+000  7.3546e+000 -2.3491e+001 25947 105783,105835,105809
 5.0000e-001 105988 -1.3510e+001  2.2080e+001 -1.7425e+001 25947 105783,105861,105835
 5.0000e-001 105965 -4.6575e+000  1.5360e+001 -1.7079e+001 25947 105887,105939,105913
 5.0000e-001 106106 -4.8532e+000  6.8378e+000 -1.3552e+001 25947 105939,105887,106080
 5.0000e-001 106129  1.2857e+000  1.0822e+001 -1.9428e+001 25947 105939,106080,105783
 5.0000e-001 106714  2.5647e+001  2.7444e+001 -8.2350e+000 25557 106809,106737,106547
 5.0000e-001 106691  2.4872e+001  2.4542e+001  2.4491e+000 25557 106737,106417,106391
 5.0000e-001 106668  2.9867e+001  2.4595e+001 -6.9513e+000 25557 106809,106547,106495
 5.0000e-001 106645  2.6628e+001  1.8948e+001 -5.9198e+000 25557 106417,106495,106469
 5.0000e-001 106622  2.7655e+001  2.2207e+001 -9.1095e+000 25557 106495,106547,106521
 5.0000e-001 106599  2.5945e+001  1.7980e+001 -6.2220e+000 25557 106417,106469,106443
 5.0000e-001 106763  3.1154e+001  3.8793e+001 -1.0077e+001 25557 106573,106547,106737
 5.0000e-001 106786  3.0496e+001  3.7210e+001  1.2713e+000 25557 106573,106737,106391
 5.0000e-001 106835  2.9716e+001  3.5325e+001 -6.3396e+000 25557 106417,106737,106809
 5.0000e-001 106858  3.0691e+001  2.8416e+001 -6.5381e+000 25557 106417,106809,106495
 5.0000e-001 107364  7.2649e+000  9.6985e+000  9.9982e-001 25153 107459,107387,107171
 5.0000e-001 107341  1.0312e+001  1.6607e+001  1.8550e+000 25153 107387,107119,107067
 5.0000e-001 107318  6.8141e+000  1.0223e+001  1.7227e+000 25153 107459,107171,107145
 5.0000e-001 107295  8.3295e-001  1.2718e+001 -3.8933e+000 25153 107531,107223,107197
 5.0000e-001 107272  9.4994e+000  1.4090e+001  1.1931e+000 25153 107067,107119,107093
 5.0000e-001 107249 -1.4034e+001  3.7900e+001 -1.5457e+000 25153 107041,107223,107067
 5.0000e-001 107413  2.2348e+001  1.7835e+001 -2.1401e+000 25153 107197,107171,107387
 5.0000e-001 107436  4.5969e+000  1.3471e+001 -2.8307e+000 25153 107531,107197,107387
 5.0000e-001 107485  7.9584e+000  1.1129e+001  2.9036e-001 25153 107119,107387,107459
 5.0000e-001 107508  6.9043e+000  1.1229e+001  1.0763e+000 25153 107119,107459,107145
 5.0000e-001 107557 -1.0672e+000  1.4348e+001  6.2832e-001 25153 107067,107223,107531
 5.0000e-001 107580  3.7162e+000  1.6431e+001  1.9628e+000 25153 107067,107531,107387
 5.0000e-001 107958 -1.5540e+001  1.4756e+001 -1.0161e+001 24741 107736,107814,107788
 5.0000e-001 107935 -1.6309e+001  1.4363e+001 -1.0298e+001 24741 107736,107840,107814
 5.0000e-001 107912 -8.7332e+000  1.3186e+001 -6.0048e+000 24741 107684,107840,107736
 5.0000e-001 107889 -5.4558e+001  3.5156e+001 -1.5040e+001 24741 107736,107788,107762
 5.0000e-001 107866 -8.5688e+000  8.4519e+000 -9.7230e+000 24741 107684,107736,107710
 5.0000e-001 108157 -2.6840e+001 -3.3234e+000  7.5374e+000 24237 108180,108059,108007
 5.0000e-001 108134 -2.6757e+001  1.1834e+001  2.1606e+001 24237 108180,108007,107981
 5.0000e-001 108111 -2.6976e+001  5.3647e+000  5.6588e+000 24237 108007,108059,108033
 5.0000e-001 108206 -1.9423e+001  1.2376e+001  1.1206e+001 24237 108085,108059,108180
 5.0000e-001 108229 -1.9486e+001  2.7517e+001  2.5188e+001 24237 108085,108180,107981
 5.0000e-001 108658  2.8964e+001  1.9255e+001 -5.8491e-001 23776 108361,108413,108387
 5.0000e-001 108635  1.9287e+001  1.3875e+001 -4.6003e-001 23776 108753,108681,108361
 5.0000e-001 108612  1.5113e+001  1.6053e+001  1.3339e+000 23776 108681,108465,108439
 5.0000e-001 108589  1.4828e+001  1.2410e+001 -3.6094e-001 23776 108753,108361,108335
 5.0000e-001 108566  1.0796e+001  1.0095e+001 -9.9558e+000 23776 108335,108517,108465
 5.0000e-001 108543  1.7042e+001  7.5593e+000 -5.9929e+000 23776 108465,108517,108491
 5.0000e-001 108707  2.6148e+001  1.7642e+001 -3.4200e+000 23776 108413,108361,108681
 5.0000e-001 108730  1.8227e+001  2.2189e+001  2.4969e-001 23776 108413,108681,108439
 5.0000e-001 108779  1.4742e+001  1.6548e+001 -3.7481e+000 23776 108465,108681,108753
 5.0000e-001 108802  1.0534e+001  1.5369e+001 -2.7951e+000 23776 108465,108753,108335
 5.0000e-001 109023 -2.9772e+001  1.2394e+001  4.5198e+000 23414 108873,108925,108899
 5.0000e-001 109000 -4.0678e+001  9.1204e+000  4.9330e+000 23414 108847,108925,108873
 5.0000e-001 108977 -2.4405e+001  4.8607e+001  5.1782e+000 23414 108847,108951,108925
 5.0000e-001 109474 -3.0708e+001  2.8330e+001 -9.2510e+000 23024 109151,109307,109177
 5.0000e-001 109451 -4.2774e+001  1.7187e+001 -4.4001e+000 23024 109151,109333,109307
 5.0000e-001 109428  2.7303e+000  1.8394e+001 -3.2773e+000 23024 109177,109281,109203
 5.0000e-001 109405  5.9687e+000  3.2049e+001 -1.0817e+001 23024 109177,109307,109281
 5.0000e-001 109382  1.3523e+001  2.9947e+001  2.6215e+000 23024 109203,109281,109229
 5.0000e-001 109359  2.2424e+000  9.9263e-001 -9.7760e-001 23024 109229,109281,109255
 5.0000e-001 109820  1.2000e+001  2.4781e+001 -5.8519e+000 22506 109843,109601,109523
 5.0000e-001 109797  4.5167e+000  2.3597e+001 -5.1969e+000 22506 109843,109523,109497
 5.0000e-001 109774  3.2611e+000  2.6709e+001 -4.9719e+000 22506 109915,109653,109627
 5.0000e-001 109751 -6.1150e-002  2.5666e+001  2.0687e-001 22506 109497,109679,109653
 5.0000e-001 109728  1.2250e+001  2.5491e+001 -4.1025e+000 22506 109523,109601,109575
 5.0000e-001 109705  1.6848e+001  2.5375e+001 -2.0290e+000 22506 109523,109575,109549
 5.0000e-001 109869  3.7377e+000  1.9297e+001 -8.2643e+000 22506 109627,109601,109843
 5.0000e-001 109892  2.0573e+000  2.5028e+001 -6.3303e+000 22506 109915,109627,109843
 5.0000e-001 109941  5.1687e+000  2.5636e+001 -3.9632e+000 22506 109497,109653,109915
 5.0000e-001 109964  5.0595e+000  2.5757e+001 -5.0000e+000 22506 109497,109915,109843
 5.0000e-001 110163  1.5589e+001  2.9822e+001 -3.2160e+000 21936 110186,110039,110013
 5.0000e-001 110140  2.6866e+001  4.0394e+001  1.8790e+000 21936 110390,110186,110013
 5.0000e-001 110117  2.4365e+001  3.4143e+001  1.2739e+000 21936 110390,110013,109987
 5.0000e-001 110212  2.3885e+001  5.3789e+001  7.9163e+000 21936 110065,110039,110186
 5.0000e-001 110235  2.8930e+001  3.0876e+001  1.3150e+001 21936 110258,110186,110091
 5.0000e-001 110284  4.1462e+001  4.5897e+001  1.9068e+001 21936 110065,110186,110258
 5.0000e-001 110416  3.1860e+001  3.1950e+001  5.3570e+000 21936 110091,110186,110390
 5.0000e-001 110439  2.9283e+001  2.5664e+001  4.4436e+000 21936 110091,110390,109987
 5.0000e-001 110709 -7.1878e-001  3.4259e+001 -3.4892e-001 21338 110510,110614,110588
 5.0000e-001 110686 -1.8040e+000  3.5909e+001 -3.9315e-001 21338 110484,110614,110510
 5.0000e-001 110663 -1.4675e+000  3.3289e+001  8.7134e-001 21338 110510,110562,110536
 5.0000e-001 110640 -1.3150e+000  3.3465e+001  3.3889e-001 21338 110510,110588,110562
 5.0000e-001 111296  1.8981e-001  1.5036e+001  4.1628e+000 20934 111025,111155,111103
 5.0000e-001 111273 -6.4440e+000  8.9579e+000  7.6663e+000 20934 110999,111155,111025
 5.0000e-001 111250 -2.5539e+001  2.6106e+000  1.0247e+001 20934 111103,111155,111129
 5.0000e-001 111227  3.8076e+000  2.2119e+001  4.5525e+000 20934 111051,111103,111077
 5.0000e-001 111204  1.3986e+000  1.4743e+001  4.6576e+000 20934 111025,111103,111051
 5.0000e-001 111181 -7.7866e-001  3.3967e+000  1.0181e+001 20934 110973,111155,110999
 5.0000e-001 111930  1.2316e+001  1.9409e+001 -1.8837e+001 20494 111662,111714,111688
 5.0000e-001 111907  3.3987e+001  2.1957e+001 -1.5885e+001 20494 111584,111714,111662
 5.0000e-001 111884  2.4759e+001  2.0095e+001 -1.5207e+001 20494 111584,111766,111714
 5.0000e-001 111861  3.6804e+001  2.0937e+001 -7.8044e+000 20494 111584,111636,111610
 5.0000e-001 111838  2.8578e+001  1.9544e+001 -1.2407e+001 20494 111584,111662,111636
 5.0000e-001 111815  2.2085e+001  1.8966e+001 -1.5347e+001 20494 111558,111766,111584
 5.0000e-001 111792  2.4038e+001  1.8020e+001 -1.5873e+001 20494 111714,111766,111740
 5.0000e-001 112249 -1.0455e+001  4.6329e+000  1.8011e+000 19940 111975,112053,112001
 5.0000e-001 112226 -1.3312e+001  1.0821e+001  9.6128e+000 19940 111975,112131,112053
 5.0000e-001 112203 -2.4241e+001  1.0682e+001  0.0000e+000 19940 112053,112105,112079
 5.0000e-001 112180 -1.6781e+001  1.4285e+001  1.4750e+000 19940 112053,112131,112105
 5.0000e-001 112157  3.0455e+000  8.4299e+000  2.6797e+000 19940 112001,112053,112027
 5.0000e-001 112757 -7.4865e+000  3.4526e+001  8.5482e+000 19486 112780,112538,112486
 5.0000e-001 112734 -6.3235e+000  3.6317e+001  3.1137e+000 19486 112780,112486,112460
 5.0000e-001 112711 -1.0245e+000  3.3096e+001  3.6223e+000 19486 112852,112616,112590
 5.0000e-001 112688 -2.7333e+001  4.8298e+001  1.1800e+001 19486 112486,112538,112512
 5.0000e-001 112665  1.0219e+001  4.1309e+001  1.0295e+001 19486 112434,112616,112460
 5.0000e-001 112642  6.6638e+000  3.2997e+001  5.2707e+000 19486 112538,112590,112564
 5.0000e-001 112806 -9.1509e-001  3.7345e+001  8.2692e+000 19486 112590,112538,112780
 5.0000e-001 112829 -6.3112e+000  3.4597e+001  4.8574e+000 19486 112852,112590,112780
 5.0000e-001 112878  2.3304e+000  3.4897e+001  2.2192e+000 19486 112460,112616,112852
 5.0000e-001 112901 -7.7232e-001  3.8460e+001  2.8523e+000 19486 112460,112852,112780
 5.0000e-001 113252  3.4335e+001  5.3214e+001  1.2979e+000 19096 113105,113157,113131
 5.0000e-001 113229  2.7211e+001  3.9774e+001 -1.6068e+000 19096 113053,113157,113105
 5.0000e-001 113206  1.5538e+001  3.5568e+001 -1.9935e+000 19096 113027,113157,113053
 5.0000e-001 113183  3.6147e+001  6.2815e+001 -3.3866e+000 19096 113053,113105,113079
 5.0000e-001 113451  1.4994e+001  3.6631e+001  6.8097e+000 18642 113327,113379,113353
 5.0000e-001 113428  1.3072e+001  3.5867e+001  3.0559e+000 18642 113301,113379,113327
 5.0000e-001 113405  2.7269e+001  3.1728e+001  2.0620e+000 18642 113275,113379,113301
 5.0000e-001 113699  1.2145e+001  3.3946e+001 -3.8340e+000 18138 113474,113552,113526
 5.0000e-001 113676  9.7403e+000  2.8487e+001 -2.8767e+000 18138 113474,113578,113552
 5.0000e-001 113653  1.3253e+001  2.8240e+001 -4.1694e+000 18138 113474,113604,113578
 5.0000e-001 113630 -1.3261e+000  3.6682e+001 -1.2280e+001 18138 113474,113526,113500
 5.0000e-001 113851  1.3166e+001  5.0365e+001 -2.1040e+000 17682 113750,113802,113776
 5.0000e-001 113828 -2.6140e+000  4.5701e+001 -4.0758e+000 17682 113724,113802,113750
 5.0000e-001 114383  8.8017e+000  6.6241e+000 -1.1788e+000 17106 114086,114242,114164
 5.0000e-001 114360  8.5650e+000  6.4205e+000 -2.3225e+000 17106 114060,114242,114086
 5.0000e-001 114337  8.1774e+000  6.2528e+000 -9.6361e-001 17106 114086,114164,114138
 5.0000e-001 114314  4.1019e+000  2.4928e+000 -3.1899e-001 17106 114190,114242,114216
 5.0000e-001 114291  7.4186e+000  2.8204e+000 -1.5280e+000 17106 114164,114242,114190
 5.0000e-001 114268  1.0307e+000  6.1388e+000 -7.1180e+000 17106 114086,114138,114112
 5.0000e-001 114680 -8.6942e+000  1.9476e+001  8.0132e+000 16766 114703,114432,114406
 5.0000e-001 114657 -1.4535e+001  3.0511e+001  1.2389e+000 16766 114703,114406,114510
 5.0000e-001 114634 -1.6505e+001  3.6400e+001  4.8222e+000 16766 114406,114536,114510
 5.0000e-001 114611  1.5466e+001  2.6562e+001 -6.0306e-001 16766 114432,114484,114458
 5.0000e-001 114588 -3.0098e+001  3.1293e+001  3.4883e+000 16766 114406,114562,114536
 5.0000e-001 114729  1.5486e+001  3.0312e+001  4.9865e+000 16766 114484,114432,114703
 5.0000e-001 114752 -7.1093e+000  3.1164e+001  1.0151e+000 16766 114484,114703,114510
 5.0000e-001 114902  4.3651e+001  3.4683e+001 -9.5852e-001 16362 114775,114827,114801
 5.0000e-001 114879  5.6877e+001  3.9569e+001 -3.9457e+000 16362 114775,114853,114827
 5.0000e-001 115054  1.6514e+001  1.8551e+001  3.9308e+000 15908 114953,115005,114979
 5.0000e-001 115031  1.7578e+001  2.2191e+001  4.5269e+000 15908 114927,115005,114953
 5.0000e-001 115326 -2.0217e+000  3.7978e+001 -1.9798e+000 15251 115101,115179,115153
 5.0000e-001 115303 -6.0778e-002  3.8009e+001  1.1303e+000 15251 115101,115231,115179
 5.0000e-001 115280  6.4967e-001  3.9794e+001  1.0439e+000 15251 115179,115231,115205
 5.0000e-001 115257 -6.8356e+000  4.8643e+001 -7.5232e+000 15251 115101,115153,115127
 5.0000e-001 115429  2.0384e+001  3.0735e+001 -6.1659e+000 421 115351,115403,115377
 6.0000e-001 66230 -7.1849e+000  4.2548e+000  2.4495e+000 65954 66152,66204,66178
 6.0000e-001 66429 -7.6880e+000  3.0437e+000  2.6619e+000 65642 66279,66331,66305
 6.0000e-001 66406 -6.3562e+000  7.2908e+000  3.0038e+000 65642 66279,66357,66331
 6.0000e-001 66383  3.4370e+000  7.6074e+000  1.7277e+000 65642 66253,66357,66279
 6.0000e-001 66628 -5.0916e-001  2.7748e+001 -1.5981e+000 65444 66452,66530,66478
 6.0000e-001 66605 -1.3041e+000  2.7366e+001 -1.7776e+000 65444 66452,66556,66530
 6.0000e-001 66582 -9.6019e+000  2.5931e+001  9.9209e-001 65444 66478,66530,66504
 6.0000e-001 67006  7.6782e-001  1.7920e+001  2.4394e+000 65246 66732,66810,66758
 6.0000e-001 66983  3.9200e+000  1.7557e+001  2.8929e+000 65246 66732,66836,66810
 6.0000e-001 66960  1.8383e+000  1.5129e+001  9.1310e-001 65246 66732,66862,66836
 6.0000e-001 66937  5.1307e+000  2.8454e+001  1.2650e+000 65246 66758,66810,66784
 6.0000e-001 66914 -1.6321e+000  2.0522e+001  5.8296e+000 65246 66732,66888,66862
 6.0000e-001 67107 -8.2338e+000  8.2288e+000  2.6145e+000 64934 67029,67081,67055
 6.0000e-001 67306 -4.9954e+000  1.9962e+001 -1.8125e+000 64736 67156,67208,67182
 6.0000e-001 67283  5.4134e-001  2.0811e+001 -2.8925e+000 64736 67130,67208,67156
 6.0000e-001 67260  2.8784e+000  2.4041e+001 -1.8650e+000 64736 67130,67234,67208
 6.0000e-001 67507 -1.0653e+001  2.5103e+001  1.0122e+000 64389 67357,67409,67383
 6.0000e-001 67484 -3.4596e+000  2.3856e+001  4.1196e+000 64389 67357,67435,67409
 6.0000e-001 67461  7.7966e-001  2.6758e+001  2.8035e+000 64389 67331,67435,67357
 6.0000e-001 67708 -1.3048e+000  8.2826e+000 -1.7978e+000 63985 67731,67584,67558
 6.0000e-001 67685 -3.5154e+000  3.8207e+000 -3.8929e-001 63985 67731,67558,67636
 6.0000e-001 67662 -7.3429e+000  6.3203e+000  4.0261e+000 63985 67532,67636,67558
 6.0000e-001 67757 -3.4158e+000  1.1641e+001 -2.7940e+000 63985 67610,67584,67731
 6.0000e-001 67780 -4.4554e+000  8.5540e+000 -1.6282e+000 63985 67610,67731,67636
 6.0000e-001 67981 -3.2405e+000  1.0018e+001  1.0508e+000 63787 67857,67909,67883
 6.0000e-001 67958  6.3725e-001  9.9820e+000  1.1530e+000 63787 67831,67909,67857
 6.0000e-001 67935  8.7223e-001  1.4026e+001  5.8920e-001 63787 67805,67909,67831
 6.0000e-001 68231 -2.2930e-001  8.0093e+000  1.5661e+000 63589 68254,68084,68032
 6.0000e-001 68208  1.2203e-002  1.0112e+001  1.6653e+000 63589 68254,68032,68006
 6.0000e-001 68185 -2.0698e+000  8.1661e+000 -9.3927e-001 63589 68326,68136,68110
 6.0000e-001 68162 -2.1141e+000  6.9235e+000  2.4912e+000 63589 68032,68084,68058
 6.0000e-001 68280  2.4479e+000  9.3619e+000  2.3931e-001 63589 68110,68084,68254
 6.0000e-001 68303 -1.1403e+000  8.6033e+000 -8.1130e-002 63589 68326,68110,68254
 6.0000e-001 68352 -1.8249e+000  9.8693e+000  9.0644e-001 63589 68006,68136,68326
 6.0000e-001 68375 -6.3547e-001  1.0017e+001  1.7466e+000 63589 68006,68326,68254
 6.0000e-001 68836  1.2172e+000  7.1267e+000  5.4887e+000 63128 68859,68588,68562
 6.0000e-001 68813  2.0648e+000  1.1393e+001  8.7828e-001 63128 68859,68562,68692
 6.0000e-001 68790  2.6472e+000  9.8254e+000  2.0037e+000 63128 68614,68692,68666
 6.0000e-001 68767  3.5062e+000  9.3670e+000  5.8025e-001 63128 68562,68718,68692
 6.0000e-001 68744 -2.9290e+000 -3.4840e+000  4.5113e-001 63128 68614,68666,68640
 6.0000e-001 68885 -1.7189e+000  4.8383e-001  7.8417e+000 63128 68614,68588,68859
 6.0000e-001 68908 -4.0776e-001  6.2583e+000  3.3220e+000 63128 68614,68859,68692
 6.0000e-001 69237 -2.9579e-001  1.2418e+001 -5.5785e-001 62731 69064,69116,69090
 6.0000e-001 69214  5.6044e-001  1.5407e+001  1.4695e-001 62731 69064,69142,69116
 6.0000e-001 69191  2.4173e+000  2.2712e+001  2.2962e-001 62731 69038,69142,69064
 6.0000e-001 69168 -2.0253e+000  2.2089e+001 -1.3181e+000 62731 69012,69142,69038
 6.0000e-001 69539  2.4448e+000  1.6145e+001  1.7031e+000 62433 69389,69467,69441
 6.0000e-001 69516  1.8305e+000  7.6322e+000  3.6142e+000 62433 69363,69467,69389
 6.0000e-001 69493 -5.7102e+000  6.2390e-002 -1.2389e+000 62433 69389,69441,69415
 6.0000e-001 69966 -8.1989e+000  7.7245e+000  5.0719e+000 62235 69989,69773,69721
 6.0000e-001 69943 -2.8446e+000  7.6998e+000  3.4874e+000 62235 70061,69989,69721
 6.0000e-001 69920 -1.7330e+000  1.0328e+001  3.8671e+000 62235 70061,69721,69643
 6.0000e-001 69897 -1.6061e+001  1.1925e+001  5.2681e+000 62235 69721,69773,69747
 6.0000e-001 69874  2.3732e+000  2.5796e+001  6.7191e+000 62235 69643,69721,69695
 6.0000e-001 69851 -1.2622e+001  6.8491e+000 -2.1841e+000 62235 69643,69695,69669
 6.0000e-001 70015 -1.1352e+001  5.9642e+000  9.7456e+000 62235 69799,69773,69989
 6.0000e-001 70038 -3.7658e+000  8.1181e+000  6.1784e+000 62235 69799,69989,69825
 6.0000e-001 70087 -3.9580e+000  1.1021e+001  2.9957e+000 62235 69825,69989,70061
 6.0000e-001 70110 -3.4573e+000  1.2645e+001  3.4218e+000 62235 69825,70061,69643
 6.0000e-001 70260  1.1235e-001  1.3213e+001 -4.7347e+000 62037 70133,70185,70159
 6.0000e-001 70237  1.5205e+000  1.9992e+001 -4.8215e+000 62037 70133,70211,70185
 6.0000e-001 70640 -3.5164e+000 -2.6630e-001 -4.8861e+000 61583 70735,70663,70418
 6.0000e-001 70617 -1.5542e+000  9.8023e+000 -2.2796e+000 61583 70663,70366,70522
 6.0000e-001 70594 -4.0033e+000 -5.0392e+000 -2.4923e+000 61583 70735,70418,70392
 6.0000e-001 70571 -4.6871e+000  1.3546e+000 -5.0042e+000 61583 70418,70496,70444
 6.0000e-001 70548 -9.1102e+000  6.0146e+000 -5.4960e+000 61583 70444,70496,70470
 6.0000e-001 70689 -2.1444e+000  2.3428e+000 -4.1977e+000 61583 70496,70418,70663
 6.0000e-001 70712 -2.6846e+000 -1.0808e+000 -3.7902e+000 61583 70496,70663,70522
 6.0000e-001 70761 -8.0149e+000 -3.6508e+000  1.2307e-001 61583 70366,70663,70735
 6.0000e-001 70784 -6.1613e+000 -7.3240e+000  2.0635e+000 61583 70366,70735,70392
 6.0000e-001 71054  2.6964e+000  2.3345e+001 -9.9899e+000 61313 71077,70881,70855
 6.0000e-001 71031  1.1513e+000  1.3121e+001 -6.6383e+000 61313 71077,70855,70829
 6.0000e-001 71008  1.5442e+000  1.0147e+001 -2.3960e+000 61313 70829,70959,70933
 6.0000e-001 70985 -1.2165e+001  1.7269e+001  2.6988e+000 61313 70881,70933,70907
 6.0000e-001 71103 -6.0910e-001  1.7188e+001 -5.0532e+000 61313 70933,70881,71077
 6.0000e-001 71126  8.9471e-001  1.0934e+001 -1.8910e+000 61313 70933,71077,70829
 6.0000e-001 71604 -3.1280e+000  4.3827e+000  4.2045e-003 60909 71627,71232,71414
 6.0000e-001 71581 -4.9372e+000  1.0469e+001 -7.2485e+000 60909 71232,71440,71414
 6.0000e-001 71558 -2.0243e+000  4.5868e+000  4.0481e-001 60909 71627,71414,71336
 6.0000e-001 71535  1.5315e-001  4.7783e+000  3.5232e+000 60909 71362,71414,71388
 6.0000e-001 71512 -2.9322e+000  5.1773e+000  2.8437e+000 60909 71336,71414,71362
 6.0000e-001 71489 -3.1606e-002  6.8744e+000 -6.6322e-001 60909 71258,71336,71310
 6.0000e-001 71466  3.2804e+000  4.6556e+000  1.6833e+000 60909 71258,71310,71284
 6.0000e-001 71653 -3.7936e+000  4.9046e+000  5.2185e-001 60909 71258,71232,71627
 6.0000e-001 71676 -2.8425e+000  4.9843e+000  6.3843e-001 60909 71258,71627,71336
 6.0000e-001 71875  8.4744e+000  3.6632e+001  1.2047e+001 60611 71898,71725,71699
 6.0000e-001 71852  5.6973e+000  2.5306e+001  4.5189e+000 60611 71898,71699,71803
 6.0000e-001 71829  6.4726e+000  6.8482e+000  7.0327e+000 60611 71970,71751,71725
 6.0000e-001 71924  1.0698e+001  1.7365e+001  6.3011e+000 60611 71970,71725,71898
 6.0000e-001 71947  4.0390e+000  5.0121e+000  8.7067e-001 60611 71777,71898,71803
 6.0000e-001 71996  6.9316e+000  1.9333e+001  3.7883e+000 60611 71777,71751,71970
 6.0000e-001 72019  9.0634e+000  2.3710e+001  1.8958e+000 60611 71777,71970,71898
 6.0000e-001 72576  7.5547e+000  1.5234e+001 -1.0250e+000 60142 72599,72256,72230
 6.0000e-001 72553  7.3153e+000  1.0107e+001 -2.4913e+000 60142 72671,72599,72230
 6.0000e-001 72530  3.7735e+000  1.0851e+001 -3.5828e+000 60142 72671,72230,72204
 6.0000e-001 72507  9.5204e+000  6.4236e+000 -7.5025e-001 60142 72743,72360,72334
 6.0000e-001 72484  8.7217e+000  1.2405e+001  2.3156e+000 60142 72815,72282,72256
 6.0000e-001 72461  6.6638e+000  1.2318e+001  3.8537e+000 60142 72887,72308,72282
 6.0000e-001 72438  1.2077e+001  1.1767e+001 -9.0775e+000 60142 72204,72412,72386
 6.0000e-001 72625  8.3255e+000  1.1567e+001  2.4289e+000 60142 72815,72256,72599
 6.0000e-001 72648  7.7031e+000  8.2022e+000 -5.6095e-001 60142 72743,72334,72599
 6.0000e-001 72697  4.3443e+000  7.8598e+000 -3.7800e+000 60142 72386,72599,72671
 6.0000e-001 72720  2.7695e+000  9.6239e+000 -4.8526e+000 60142 72386,72671,72204
 6.0000e-001 72769  1.2696e+001  8.8338e+000 -2.4444e+000 60142 72386,72360,72743
 6.0000e-001 72792  9.2752e+000  1.0193e+001 -1.4599e+000 60142 72386,72743,72599
 6.0000e-001 72841  7.9645e+000  1.2748e+001  2.5976e+000 60142 72887,72282,72815
 6.0000e-001 72864  1.0328e+001  1.1904e+001  2.5868e+000 60142 72334,72815,72599
 6.0000e-001 72913  8.0871e+000  1.0461e+001  4.1840e+000 60142 72334,72308,72887
 6.0000e-001 72936  8.2995e+000  1.0503e+001  3.2012e+000 60142 72334,72887,72815
 6.0000e-001 73491  4.9282e-001  9.4099e+000  1.6636e+000 59738 73145,73327,73171
 6.0000e-001 73468  9.9096e+000  1.0171e+001  4.8184e+000 59738 73119,73327,73145
 6.0000e-001 73445  1.2240e+000  4.8506e+000 -1.4736e+000 59738 73171,73327,73301
 6.0000e-001 73422 -4.0161e-001  9.3398e+000 -2.1561e-001 59738 73514,73275,73249
 6.0000e-001 73399  1.5908e-001  9.1820e+000 -2.4418e-001 59738 73586,73514,73249
 6.0000e-001 73376  3.5032e+000  9.7623e+000 -1.7270e+000 59738 73197,73249,73223
 6.0000e-001 73353 -4.1252e+000  8.2613e+000 -2.5033e+000 59738 73586,73249,73197
 6.0000e-001 73540 -6.5595e-001  1.1523e+001  5.9619e-001 59738 73301,73275,73514
 6.0000e-001 73563  1.1719e+000  8.2618e+000 -1.7508e+000 59738 73301,73514,73171
 6.0000e-001 73612 -3.2321e+000  5.0296e+000 -3.7130e+000 59738 73171,73514,73586
 6.0000e-001 73635 -4.8103e+000  5.9663e+000 -5.7951e+000 59738 73171,73586,73197
 6.0000e-001 73964 -1.8833e+001 -6.8822e+000  8.2263e+000 59334 73791,73843,73817
 6.0000e-001 73941 -1.9662e+001 -1.9530e+001  2.1628e+000 59334 73791,73869,73843
 6.0000e-001 73918 -1.2340e+001 -1.4819e+000 -3.3474e-001 59334 73739,73869,73791
 6.0000e-001 73895 -1.5238e+001 -7.8852e-001 -8.9889e-002 59334 73739,73791,73765
 6.0000e-001 74261 -6.7062e+000  7.8418e+000  8.0234e-001 58630 74065,74117,74091
 6.0000e-001 74238 -4.0045e+000  5.7668e+000 -7.7293e-001 58630 74356,74284,74065
 6.0000e-001 74215 -7.9657e+000 -6.0658e+000 -2.1418e+000 58630 74284,74013,73987
 6.0000e-001 74192 -3.1058e+000  8.6473e+000 -1.9073e+000 58630 74356,74065,74039
 6.0000e-001 74169 -1.0798e+001  7.1953e-001  3.2221e+000 58630 73987,74143,74117
 6.0000e-001 74310 -8.0838e+000  4.1279e+000 -2.6423e+000 58630 74117,74065,74284
 6.0000e-001 74333 -1.1229e+001  2.7016e+000 -1.9371e+000 58630 74117,74284,73987
 6.0000e-001 74382 -1.3741e+000  3.3014e+000 -5.0351e+000 58630 74013,74284,74356
 6.0000e-001 74405 -1.5555e-001  6.7867e+000 -6.2146e+000 58630 74013,74356,74039
 6.0000e-001 74815  2.6519e+001  2.3834e-001 -3.5178e+000 58226 74590,74642,74616
 6.0000e-001 74792  1.7512e+001  2.8295e+000  3.5918e+000 58226 74590,74694,74642
 6.0000e-001 74769  1.7333e+001 -5.5435e+000  7.5400e+000 58226 74590,74720,74694
 6.0000e-001 74746  1.1907e+001  6.8035e+000  1.6299e+000 58226 74642,74694,74668
 6.0000e-001 75014  3.2626e+000  6.0847e+000 -2.8942e+000 57786 75037,74864,74838
 6.0000e-001 74991 -2.2958e+000  3.1205e+000  1.2214e+000 57786 75037,74838,74916
 6.0000e-001 74968 -1.4979e+000  1.4025e+000  4.7612e+000 57786 74838,74942,74916
 6.0000e-001 75063 -4.4281e+000  1.1555e+001 -2.3044e+000 57786 74890,74864,75037
 6.0000e-001 75086 -9.6622e+000  8.2483e+000  2.1806e+000 57786 74890,75037,74916
 6.0000e-001 75368  4.0515e+000  1.1327e+001  2.0899e+000 57496 75192,75270,75218
 6.0000e-001 75345  6.6493e+000  1.1164e+001  1.1599e-001 57496 75192,75296,75270
 6.0000e-001 75322  7.9628e+000  1.6560e+001  3.9853e+000 57496 75218,75270,75244
 6.0000e-001 75648  6.2156e+000  8.9593e+000 -2.1566e+000 57206 75472,75550,75498
 6.0000e-001 75625  3.7823e+000  1.2150e+001 -1.6264e-001 57206 75472,75576,75550
 6.0000e-001 75602  1.2267e+000  3.3283e+000 -4.7598e-001 57206 75671,75550,75524
 6.0000e-001 75697  2.2217e+000  7.0870e+000  5.5591e-001 57206 75498,75550,75671
 6.0000e-001 76154 -1.6661e+001  3.5036e+000  8.7038e+000 56802 75958,76010,75984
 6.0000e-001 76131 -2.3635e+001 -4.9618e+000  1.2043e+001 56802 75932,76010,75958
 6.0000e-001 76108 -1.8103e+001  1.5017e+001  9.0879e+000 56802 75906,76010,75932
 6.0000e-001 76085 -2.5458e+001  8.2853e-002  5.4530e+000 56802 75880,76010,75906
 6.0000e-001 76062 -1.2688e+001  3.5828e+000  2.5807e-001 56802 75880,76036,76010
 6.0000e-001 76505 -9.5862e+000  1.2260e+001 -1.2456e+000 56504 76306,76384,76332
 6.0000e-001 76482 -5.2571e+000  6.4635e+000  1.0175e+000 56504 76306,76410,76384
 6.0000e-001 76459 -4.3801e+000  8.1983e+000 -6.5965e+000 56504 76332,76384,76358
 6.0000e-001 76436 -2.1498e+001 -4.4530e+000 -4.3193e+000 56504 76280,76410,76306
 6.0000e-001 77011 -6.3441e-001  4.4450e+000  7.0881e-001 56050 76740,76818,76792
 6.0000e-001 76988  4.3877e+000  6.7707e+000 -3.0817e-002 56050 76714,76818,76740
 6.0000e-001 76965  8.4647e-001  5.3052e+000  1.0164e+000 56050 76688,76818,76714
 6.0000e-001 76942  9.0667e-001  8.6585e+000 -3.5632e-001 56050 76688,76844,76818
 6.0000e-001 76919  5.9760e+000  7.2541e+000 -1.3553e+000 56050 76740,76792,76766
 6.0000e-001 76896 -1.7845e+000  1.1520e+001  3.7740e+000 56050 76688,76870,76844
 6.0000e-001 77517 -5.6998e-001  7.7919e+000  7.5677e-002 55738 77220,77350,77324
 6.0000e-001 77494 -4.0698e+000  5.4230e+000 -1.0463e+000 55738 77220,77376,77350
 6.0000e-001 77471 -2.3884e+000  1.1403e+001 -1.3114e+000 55738 77194,77376,77220
 6.0000e-001 77448 -3.7474e+000  2.7112e+000  6.9382e-001 55738 77220,77298,77246
 6.0000e-001 77425 -5.1088e+000  4.0487e+000  2.1871e+000 55738 77220,77324,77298
 6.0000e-001 77402 -4.4009e+000  2.2207e+000 -1.3317e+000 55738 77246,77298,77272
 6.0000e-001 78064 -1.2591e+001 -1.5879e+001  5.7739e-001 55227 78231,78087,77773
 6.0000e-001 78041 -1.9314e+001 -1.4831e+001  2.2436e+000 55227 78087,77695,77643
 6.0000e-001 78018 -1.1851e+001 -3.0291e+001  1.1723e+000 55227 78159,77799,77773
 6.0000e-001 77995 -1.3322e+001 -1.7596e+001  8.7371e-001 55227 78231,77773,77721
 6.0000e-001 77972 -1.1554e+001 -1.1849e+001  4.0252e+000 55227 77643,77695,77669
 6.0000e-001 77949 -1.1694e+001 -5.0229e-002  3.9599e-001 55227 77643,77877,77851
 6.0000e-001 77926 -3.7979e+000 -1.0207e+001 -2.5176e+000 55227 77799,77851,77825
 6.0000e-001 77903 -1.9416e+001 -2.3175e+001  3.6207e+000 55227 77721,77773,77747
 6.0000e-001 78113 -1.4986e+001 -2.1255e+001 -3.1086e-001 55227 78159,77773,78087
 6.0000e-001 78136 -1.3989e+001 -2.3559e+000  1.4270e+000 55227 77851,78087,77643
 6.0000e-001 78185 -7.2538e+000 -1.7759e+001 -3.3923e+000 55227 77851,77799,78159
 6.0000e-001 78208 -1.1632e+001 -1.0305e+001 -4.7485e+000 55227 77851,78159,78087
 6.0000e-001 78257 -1.4571e+001 -1.2556e+001  1.5743e+000 55227 77695,78087,78231
 6.0000e-001 78280 -1.5924e+001 -1.5073e+001  2.2048e+000 55227 77695,78231,77721
 6.0000e-001 78737  1.4361e+001  9.2771e+000 -9.8959e-001 54773 78463,78541,78515
 6.0000e-001 78714  1.3616e+001  9.3509e+000 -9.3687e-001 54773 78463,78619,78541
 6.0000e-001 78691  1.5827e+001  1.1400e+001 -4.5455e+000 54773 78463,78515,78489
 6.0000e-001 78668  9.7009e+000  5.4239e+000  9.0513e-001 54773 78541,78593,78567
 6.0000e-001 78645  1.1682e+001  7.5166e+000  1.8110e+000 54773 78541,78619,78593
 6.0000e-001 78838 -1.2620e+001 -6.6046e+000 -6.7994e-001 54211 78760,78812,78786
 6.0000e-001 79297  1.1762e+001  1.9971e+001 -4.5269e+000 53814 79520,79153,79049
 6.0000e-001 79274  1.1802e+001  1.1005e+001  6.3511e+000 53814 79520,79049,79023
 6.0000e-001 79251  9.5182e+000  7.3342e+000 -8.6882e-001 53814 79320,79101,79049
 6.0000e-001 79228  1.1323e+001  1.1861e+001 -3.3813e+000 53814 79320,79049,79153
 6.0000e-001 79205  1.2551e+001  5.2799e+000 -7.4623e-001 53814 79049,79101,79075
 6.0000e-001 79346  9.8920e+000  3.7565e+000 -7.1469e+000 53814 79392,79320,79127
 6.0000e-001 79369  1.8956e+001  1.5632e+001 -1.1187e+001 53814 79127,79320,79153
 6.0000e-001 79418  1.2346e+001  8.7908e+000 -5.7332e+000 53814 79101,79320,79392
 6.0000e-001 79546  1.9841e+001  3.6980e+001 -1.2115e+001 53814 79179,79153,79520
 6.0000e-001 79569  9.3285e+000  2.3376e+001  1.6289e+000 53814 79179,79520,79023
 6.0000e-001 80075 -7.0936e+000 -3.2913e-001 -4.4337e+000 53039 80098,79908,79830
 6.0000e-001 80052 -7.7497e+000 -1.0326e+000 -5.5468e+000 53039 80098,79830,79804
 6.0000e-001 80029 -9.1091e+000  1.0770e+000 -4.1639e+000 53039 79752,79934,79804
 6.0000e-001 80006 -2.7389e+000 -2.0448e+000 -2.7139e+000 53039 79856,79908,79882
 6.0000e-001 79983 -2.9154e+000  1.8129e+000 -3.0245e+000 53039 79830,79908,79856
 6.0000e-001 79960 -3.7762e+000  8.5127e+000 -1.1029e+000 53039 79752,79804,79778
 6.0000e-001 80124 -5.2907e+000  1.1018e+000 -3.3125e+000 53039 79934,79908,80098
 6.0000e-001 80147 -7.0408e+000 -3.6962e-001 -4.5673e+000 53039 79934,80098,79804
 6.0000e-001 80555 -2.8721e+001  1.6718e+001  1.4826e+001 52699 80356,80434,80408
 6.0000e-001 80532 -4.6171e+001 -1.4157e+000  2.1942e+001 52699 80356,80460,80434
 6.0000e-001 80509 -4.6230e+001  5.7288e+000  2.8097e+001 52699 80330,80460,80356
 6.0000e-001 80486 -3.6071e+001 -1.3956e-001  1.6318e+001 52699 80356,80408,80382
 6.0000e-001 80776  3.1501e+000  9.7516e+000  1.1264e+000 52295 80600,80678,80626
 6.0000e-001 80753 -2.3099e+000  8.1011e+000  1.9186e+000 52295 80600,80704,80678
 6.0000e-001 80730  1.1994e+000  8.8375e+000  7.3254e-001 52295 80626,80678,80652
 6.0000e-001 81156  9.4606e+000  1.0782e+001 -1.5456e+000 51891 81179,80960,80908
 6.0000e-001 81133  1.2117e+001  1.6897e+001 -1.9365e+000 51891 81179,80908,81012
 6.0000e-001 81110  2.6639e+000  1.2991e+001 -3.3747e-001 51891 80882,81012,80908
 6.0000e-001 81087  1.3013e+001  7.0480e+000 -1.5084e+000 51891 80908,80960,80934
 6.0000e-001 81064  2.0391e+000  8.8923e+000 -2.5064e+000 51891 80882,81038,81012
 6.0000e-001 81205  9.7748e+000  8.6982e+000 -6.6183e+000 51891 80986,80960,81179
 6.0000e-001 81228  1.2801e+001  1.6203e+001 -6.5786e+000 51891 80986,81179,81012
 6.0000e-001 81606  4.6203e+000  1.1347e+001 -6.4646e-001 51544 81410,81462,81436
 6.0000e-001 81583 -3.5802e+000 -9.5743e+000 -7.5337e-001 51544 81384,81462,81410
 6.0000e-001 81560  5.4521e+000  6.8934e+000  3.7818e+000 51544 81358,81462,81384
 6.0000e-001 81537 -8.9713e+000  2.9615e+000  1.1020e-001 51544 81358,81488,81462
 6.0000e-001 81514 -1.0685e+001  8.2281e+000 -9.7154e-001 51544 81332,81488,81358
 6.0000e-001 81854  9.9069e+000  1.1229e+001  1.2273e+001 51004 81877,81655,81629
 6.0000e-001 81831  7.2042e+000  2.9036e+001  9.2054e+000 51004 81877,81629,81759
 6.0000e-001 81808  1.2269e+001  5.9000e+000  1.2600e+001 51004 81655,81707,81681
 6.0000e-001 81785  5.9865e+000  3.2527e+000 -1.7849e+000 51004 81707,81759,81733
 6.0000e-001 81903  9.2347e+000  4.3302e+000  1.2027e+001 51004 81707,81655,81877
 6.0000e-001 81926 -1.7624e+000  9.8162e+000  5.4394e+000 51004 81707,81877,81759
 6.0000e-001 82257  1.8671e+000  6.5813e+000  2.8802e-002 50642 82058,82136,82110
 6.0000e-001 82234  1.3167e+000  6.6394e+000  7.3424e-002 50642 82058,82162,82136
 6.0000e-001 82211  3.1564e+000  8.1753e+000 -2.0614e+000 50642 82058,82110,82084
 6.0000e-001 82188  4.9483e-001  6.2614e+000  4.1180e-001 50642 82032,82162,82058
 6.0000e-001 82684 -4.9724e-001  5.9374e+000 -1.9458e-001 49931 82779,82707,82465
 6.0000e-001 82661  6.2485e-001  7.6890e+000 -1.4577e+000 49931 82707,82413,82361
 6.0000e-001 82638 -1.7494e+000  4.9592e+000  1.0165e+000 49931 82779,82465,82439
 6.0000e-001 82615  2.3915e+000  8.7523e+000 -8.9348e-001 49931 82465,82543,82491
 6.0000e-001 82592  6.3312e-002  8.2006e+000 -2.4754e+000 49931 82361,82413,82387
 6.0000e-001 82569  1.7181e+000  7.7010e+000 -5.9223e-001 49931 82491,82543,82517
 6.0000e-001 82733  1.7080e+000  7.1555e+000 -8.5709e-001 49931 82543,82465,82707
 6.0000e-001 82756  1.5724e-001  6.9976e+000 -1.2547e+000 49931 82543,82707,82361
 6.0000e-001 82805 -2.8660e-002  7.4976e+000 -1.4936e+000 49931 82413,82707,82779
 6.0000e-001 82828 -6.1831e-001  6.6665e+000 -3.7552e-001 49931 82413,82779,82439
 6.0000e-001 83255 -3.4533e+001 -2.2758e+001 -3.5374e-001 49327 82984,83114,83036
 6.0000e-001 83232 -3.7364e+001 -2.9150e+001 -2.3207e+000 49327 82958,83114,82984
 6.0000e-001 83209 -3.6013e+001 -2.9410e+001  2.0086e+000 49327 83036,83114,83088
 6.0000e-001 83186 -2.5992e+001 -2.4602e+001 -2.6318e+000 49327 82984,83036,83010
 6.0000e-001 83163 -2.7226e+001 -2.6793e+001 -1.6893e+000 49327 82932,83114,82958
 6.0000e-001 83140 -2.3731e+001 -8.6625e+000 -3.1132e+000 49327 83036,83088,83062
 6.0000e-001 83938  4.6247e+000 -9.6280e+000  1.5777e+000 48965 83961,83673,83647
 6.0000e-001 83915  9.8064e+000  8.6065e-001 -1.1480e-001 48965 83961,83647,83543
 6.0000e-001 83892  2.7478e+000 -2.5981e+000 -7.9968e+000 48965 83517,83725,83543
 6.0000e-001 83869  1.6246e+001 -1.3055e+001 -7.5228e+000 48965 83673,83725,83699
 6.0000e-001 83846  1.2105e+001  2.0434e+000 -5.3326e-001 48965 83543,83647,83621
 6.0000e-001 83823  7.5725e+000  4.6643e-001  1.4411e+000 48965 83543,83621,83569
 6.0000e-001 83800  1.1896e+001 -5.1184e-001 -1.4595e+001 48965 83517,83751,83725
 6.0000e-001 83777  7.4661e+000 -8.9611e-002  2.2845e-001 48965 83569,83621,83595
 6.0000e-001 83987  8.9718e+000 -6.2738e+000 -4.9607e+000 48965 83725,83673,83961
 6.0000e-001 84010  1.0399e+001 -2.9777e+000 -5.3840e+000 48965 83725,83961,83543
 6.0000e-001 84258  2.0136e+001  1.3132e+001  2.3826e+000 48447 84281,84059,84033
 6.0000e-001 84235  1.7727e+001  8.5030e+000 -1.7756e+000 48447 84281,84033,84163
 6.0000e-001 84212  2.0810e+001  1.5492e+001  3.9610e+000 48447 84059,84111,84085
 6.0000e-001 84189  2.4432e+001  8.2278e+000  1.3587e+000 48447 84111,84163,84137
 6.0000e-001 84307  2.1913e+001  1.3940e+001  4.4527e+000 48447 84111,84059,84281
 6.0000e-001 84330  2.2993e+001  1.1958e+001  7.3139e-001 48447 84111,84281,84163
 6.0000e-001 84529 -8.2742e+000 -6.6049e-001  7.5880e+000 47993 84552,84405,84379
 6.0000e-001 84506 -2.3673e+000 -2.8652e-001  5.3218e+000 47993 84552,84379,84353
 6.0000e-001 84483 -1.0430e+001 -3.5233e+000  5.8164e+000 47993 84624,84457,84431
 6.0000e-001 84578 -8.7112e+000 -1.7173e+000  7.6631e+000 47993 84431,84405,84552
 6.0000e-001 84601 -8.9561e+000 -2.8237e+000  5.5610e+000 47993 84624,84431,84552
 6.0000e-001 84650 -9.0141e+000 -4.3898e+000  6.9246e+000 47993 84353,84457,84624
 6.0000e-001 84673 -7.4844e+000 -3.7321e+000  6.8813e+000 47993 84353,84624,84552
 6.0000e-001 85104 -6.2426e+000  2.1670e+000 -4.4367e+000 47588 85199,85127,84885
 6.0000e-001 85081 -5.1636e+000  8.8280e+000 -3.1959e+000 47588 85127,84781,84963
 6.0000e-001 85058 -6.9220e+000  5.0294e-001 -4.3314e+000 47588 85199,84885,84807
 6.0000e-001 85035 -6.1494e+000 -1.0843e+001 -1.2806e+001 47588 84885,84937,84911
 6.0000e-001 85012 -9.6735e+000 -2.0625e+000 -3.2702e+000 47588 84807,84885,84833
 6.0000e-001 84989 -7.2360e+000 -9.9560e-001 -2.0086e+000 47588 84833,84885,84859
 6.0000e-001 85153 -4.3217e+000  3.0183e+000 -2.9414e+000 47588 84937,84885,85127
 6.0000e-001 85176 -4.0049e+000  3.9512e+000 -3.5413e+000 47588 84937,85127,84963
 6.0000e-001 85225 -6.4194e+000  3.7470e+000 -1.5063e+000 47588 84781,85127,85199
 6.0000e-001 85248 -8.0767e+000 -9.2171e-002 -1.2836e+000 47588 84781,85199,84807
 6.0000e-001 85518  1.0323e+000  8.4422e+000 -3.3945e-001 47226 85293,85397,85319
 6.0000e-001 85495  1.0519e+000  9.0657e+000 -9.5550e-001 47226 85293,85423,85397
 6.0000e-001 85472  1.9642e-001  7.9703e+000 -6.3777e-001 47226 85319,85397,85345
 6.0000e-001 85449 -5.6144e-001  5.3450e+000 -7.4498e-001 47226 85345,85397,85371
 6.0000e-001 85849  7.8567e+000  2.7534e+000 -3.5435e-001 46572 85624,85702,85650
 6.0000e-001 85826  1.1105e+001  1.2884e+001  7.3791e-001 46572 85624,85754,85702
 6.0000e-001 85803  1.1112e+001  1.3162e+000 -1.5581e+000 46572 85702,85754,85728
 6.0000e-001 85780  5.7895e+000  1.6736e+000  2.6149e-001 46572 85650,85702,85676
 6.0000e-001 86070 -1.3324e+001 -2.3230e+001 -1.3883e+000 46374 85920,85972,85946
 6.0000e-001 86047 -7.4626e+000 -9.3134e+000 -3.0838e-001 46374 85920,85998,85972
 6.0000e-001 86024 -1.9598e+001 -1.3521e+001 -8.4975e+000 46374 85894,85998,85920
 6.0000e-001 86401 -5.0507e-001  6.3220e+000 -6.0747e+000 46034 86424,86280,86228
 6.0000e-001 86378 -3.8310e+000  2.4779e+000 -7.5829e+000 46034 86424,86228,86176
 6.0000e-001 86355 -2.7964e+000  1.4859e+001 -1.6129e+001 46034 86176,86228,86202
 6.0000e-001 86332 -1.0558e+000  6.1470e+000  4.2345e-001 46034 86228,86280,86254
 6.0000e-001 86450  7.6799e+000  1.1687e+000 -7.2421e+000 46034 86306,86280,86424
 6.0000e-001 86473  2.7871e-001 -4.9989e+000 -1.0069e+001 46034 86306,86424,86176
 6.0000e-001 87058 -9.3830e+000 -9.4664e-001 -3.1026e+000 45516 86813,86917,86865
 6.0000e-001 87035 -6.3341e+000  6.4425e+000 -3.1034e+000 45516 86787,86917,86813
 6.0000e-001 87012 -8.0428e+000  2.0293e+001 -5.6336e+000 45516 86735,86917,86787
 6.0000e-001 86989  3.3410e+000  1.2178e+001 -8.7632e+000 45516 86865,86917,86891
 6.0000e-001 86966 -5.4611e+000  1.4018e+000 -1.7621e+000 45516 86813,86865,86839
 6.0000e-001 86943 -2.2831e+001  6.0857e+000  5.0629e+000 45516 86735,86787,86761
 6.0000e-001 87208 -1.1018e+001 -5.9314e+000  1.3091e+001 45226 87231,87133,87107
 6.0000e-001 87185 -6.4984e+000  7.3480e+000  2.2954e+001 45226 87081,87159,87133
 6.0000e-001 87257 -8.4978e+000 -6.1946e+000  1.2151e+001 45226 87081,87133,87231
 6.0000e-001 87537 -2.5648e+000  1.4164e+001 -7.6599e-001 44772 87387,87439,87413
 6.0000e-001 87514 -1.2287e+001  1.1037e+001 -2.1183e+000 44772 87361,87439,87387
 6.0000e-001 87491 -1.2752e+001  3.3735e+001 -5.7905e+000 44772 87361,87465,87439
 6.0000e-001 87996  7.1903e-001  7.0918e+000 -1.0009e+000 44425 87748,87878,87852
 6.0000e-001 87973  1.2590e+000  7.2379e+000  5.9134e-001 44425 87722,87878,87748
 6.0000e-001 87950 -5.9240e+000  7.0657e+000 -9.2079e-001 44425 87800,87852,87826
 6.0000e-001 87927  2.0804e+000  9.1023e+000 -1.7376e+000 44425 87748,87852,87800
 6.0000e-001 87904 -1.3469e+000  1.0294e+001 -4.7170e+000 44425 87748,87800,87774
 6.0000e-001 88423  1.0086e+000  5.1121e+000  4.3036e+000 44078 88590,88230,88204
 6.0000e-001 88400  3.7208e+000  3.4838e+000  3.6174e+000 44078 88518,88446,88204
 6.0000e-001 88377  5.9359e+000  3.5970e+000  7.3573e+000 44078 88446,88126,88282
 6.0000e-001 88354  1.6690e+000  4.4012e+000  2.9770e+000 44078 88518,88204,88178
 6.0000e-001 88331  1.3924e+001  4.1570e+000  1.1674e+001 44078 88100,88282,88126
 6.0000e-001 88308 -4.3422e-001  9.1006e-002 -3.0236e-003 44078 88126,88178,88152
 6.0000e-001 88472  1.9398e+000  6.8528e+000  5.7352e+000 44078 88590,88204,88446
 6.0000e-001 88495  5.7656e+000  1.0737e+001  1.1572e+001 44078 88256,88446,88282
 6.0000e-001 88544  1.9466e+000  1.5724e+000  2.8228e+000 44078 88126,88446,88518
 6.0000e-001 88567  6.3745e-001  3.5910e+000  2.5583e+000 44078 88126,88518,88178
 6.0000e-001 88616 -2.7632e+000  3.2311e+001  3.7801e+000 44078 88256,88230,88590
 6.0000e-001 88639 -3.2253e+000  3.8229e+000  8.5610e+000 44078 88256,88590,88446
 6.0000e-001 89039 -8.0339e-001  7.9848e+000 -6.0054e-001 43716 88791,88921,88895
 6.0000e-001 89016  5.7812e-001  1.0349e+001  1.5675e-001 43716 88765,88921,88791
 6.0000e-001 88993 -9.7106e-001  1.0292e+001 -2.4970e+000 43716 88817,88895,88869
 6.0000e-001 88970  7.1213e+000  1.2246e+001 -2.2662e+000 43716 88791,88895,88817
 6.0000e-001 88947 -7.5034e+000  7.2253e+000 -1.6006e+000 43716 88817,88869,88843
 6.0000e-001 89496 -9.9706e+000 -9.8966e+000 -3.2555e-001 43162 89519,89274,89248
 6.0000e-001 89473 -1.0908e+001 -9.8564e+000 -5.4348e-001 43162 89519,89248,89222
 6.0000e-001 89450 -7.1063e+000 -1.0053e+001  1.9417e+000 43162 89326,89378,89352
 6.0000e-001 89427 -8.3777e+000 -8.6460e+000  4.1766e-001 43162 89274,89378,89326
 6.0000e-001 89404 -8.6204e+000 -1.0493e+001 -5.3998e-003 43162 89274,89326,89300
 6.0000e-001 89545 -9.3334e+000 -9.9886e+000 -8.2011e-001 43162 89378,89274,89519
 6.0000e-001 89568 -1.0306e+001 -9.9621e+000 -1.0684e+000 43162 89378,89519,89222
 6.0000e-001 89946 -4.3990e+000  1.1522e+001 -5.0718e+000 42594 90041,89969,89750
 6.0000e-001 89923 -6.2317e+000  4.3892e+000 -3.7051e+000 42594 89969,89698,89828
 6.0000e-001 89900 -2.7544e+000  1.1974e+001 -5.2772e+000 42594 90041,89750,89724
 6.0000e-001 89877 -3.3407e+000  9.9511e+000 -2.3413e+000 42594 89750,89802,89776
 6.0000e-001 89854 -1.5047e+001 -2.2772e+000 -8.2072e+000 42594 89672,89828,89698
 6.0000e-001 89995 -6.1301e+000  6.7926e+000 -4.6042e+000 42594 89802,89750,89969
 6.0000e-001 90018 -4.7390e+000  5.7233e+000 -5.9038e+000 42594 89802,89969,89828
 6.0000e-001 90067 -2.1167e+000  6.1204e+000 -4.4855e+000 42594 89698,89969,90041
 6.0000e-001 90090  3.8060e+000  1.0993e+001 -6.6293e+000 42594 89698,90041,89724
 6.0000e-001 90517  8.1166e-001 -2.6838e+000  1.4406e+000 42140 90540,90220,90194
 6.0000e-001 90494 -4.6905e+000 -8.4346e+000  3.8189e+000 42140 90540,90194,90376
 6.0000e-001 90471 -4.7390e+000  1.1715e+000  4.2087e+000 42140 90612,90350,90272
 6.0000e-001 90448 -1.4712e+001 -1.4969e-002 -2.9786e-001 42140 90272,90350,90298
 6.0000e-001 90425 -1.3037e+001  5.3359e-001 -3.0454e+000 42140 90298,90350,90324
 6.0000e-001 90402 -3.1618e+000 -5.7566e+000 -1.2916e+000 42140 90220,90272,90246
 6.0000e-001 90566 -3.6319e+000 -6.0814e+000 -2.6472e-001 42140 90272,90220,90540
 6.0000e-001 90589 -6.3496e+000 -2.7255e+000  1.2689e+000 42140 90612,90272,90540
 6.0000e-001 90638 -3.2313e+000  4.1543e+000  6.1092e+000 42140 90376,90350,90612
 6.0000e-001 90661 -3.5266e-001  1.7065e+000  4.1729e+000 42140 90376,90612,90540
 6.0000e-001 91167  3.5262e+000  1.1881e+001  3.6584e+000 41636 91190,90870,90844
 6.0000e-001 91144  7.6450e+000  1.9028e+001  1.8687e+000 41636 91190,90844,91026
 6.0000e-001 91121  5.0456e+000  5.7274e+000  2.2153e+000 41636 90870,90922,90896
 6.0000e-001 91098  7.5060e+000  8.8353e+000  3.8233e+000 41636 90922,91026,90948
 6.0000e-001 91075  9.5366e+000  9.8505e+000  3.4834e+000 41636 90948,91026,91000
 6.0000e-001 91052  7.1225e+000  9.7432e-001  3.2401e+000 41636 90948,91000,90974
 6.0000e-001 91216  7.6383e+000  7.9971e+000  4.0666e+000 41636 90922,90870,91190
 6.0000e-001 91239  9.2747e+000  1.1178e+001  2.6692e+000 41636 90922,91190,91026
 6.0000e-001 91696 -1.1827e+001  5.6439e+000 -7.8665e+000 40449 91448,91526,91474
 6.0000e-001 91673 -2.5201e+000  8.3877e+000 -5.7945e+000 40449 91448,91578,91526
 6.0000e-001 91650 -1.8295e+001  1.1061e+001 -1.1285e+001 40449 91474,91526,91500
 6.0000e-001 91627 -6.4398e+000  7.5592e+000 -5.6652e+000 40449 91422,91578,91448
 6.0000e-001 91604 -5.5866e-001  1.4820e+001 -7.4663e+000 40449 91526,91578,91552
 6.0000e-001 92123 -1.2504e-001  1.1681e+001 -3.6267e+000 39995 92146,91904,91826
 6.0000e-001 92100 -1.0487e+000  1.1479e+001 -2.3016e+000 39995 92146,91826,91800
 6.0000e-001 92077  1.4123e+000  1.3090e+001 -4.2164e+000 39995 91826,91904,91852
 6.0000e-001 92054  1.9452e+000  2.0345e+001 -4.3613e+000 39995 91904,91982,91930
 6.0000e-001 92031 -4.1962e+000  1.1882e+001 -1.3346e+000 39995 91852,91904,91878
 6.0000e-001 92008 -3.2421e+000  1.5589e+001 -1.6795e+000 39995 91930,91982,91956
 6.0000e-001 92172  7.9757e-002  1.2448e+001 -3.5819e+000 39995 91982,91904,92146
 6.0000e-001 92195 -6.0996e-002  1.3850e+001 -2.5583e+000 39995 91982,92146,91800
 6.0000e-001 92652 -1.0352e+001 -7.0910e+000  7.8796e-001 39633 92404,92534,92456
 6.0000e-001 92629 -1.1511e+001 -6.6620e+000  4.4180e-001 39633 92378,92534,92404
 6.0000e-001 92606 -1.9292e+001 -1.1189e+001 -1.2571e+000 39633 92404,92456,92430
 6.0000e-001 92583 -1.0354e+001 -5.9228e+000  1.0891e+000 39633 92456,92534,92508
 6.0000e-001 92560 -8.9972e+000 -7.5541e+000  1.8788e+000 39633 92456,92508,92482
 6.0000e-001 93079 -7.5955e+000 -3.9154e-001  1.1726e+000 39093 93102,92808,92756
 6.0000e-001 93056 -8.2192e+000  5.4764e-001  2.3453e-001 39093 93102,92756,92938
 6.0000e-001 93033 -7.2159e+000 -1.1388e+000 -9.3779e-001 39093 93174,92912,92834
 6.0000e-001 93010 -1.0059e+000 -4.5544e-002 -6.1723e-001 39093 92834,92912,92860
 6.0000e-001 92987 -2.2019e+000  2.3375e+000 -2.9957e+000 39093 92756,92808,92782
 6.0000e-001 92964 -1.3101e+000 -3.4056e-001 -1.8333e-001 39093 92860,92912,92886
 6.0000e-001 93128 -7.7329e+000 -2.1901e+000  9.6808e-001 39093 92834,92808,93102
 6.0000e-001 93151 -6.4991e+000 -1.4462e-001  3.8569e-001 39093 93174,92834,93102
 6.0000e-001 93200 -8.0416e+000 -1.3955e+000 -1.1783e+000 39093 92938,92912,93174
 6.0000e-001 93223 -9.1068e+000 -1.3466e+000 -2.2753e-002 39093 92938,93174,93102
 6.0000e-001 93680 -1.0290e+001  5.5669e+000 -1.3837e+000 38639 93703,93536,93484
 6.0000e-001 93657 -7.8049e+000  4.8268e+000 -2.0245e+000 38639 93703,93484,93432
 6.0000e-001 93634 -1.3480e+001  6.2139e+000 -5.9912e+000 38639 93432,93484,93458
 6.0000e-001 93611 -1.3260e+001  4.6559e-001  3.8893e+000 38639 93484,93536,93510
 6.0000e-001 93588 -4.0619e+000  1.7629e+000 -2.3827e+000 38639 93406,93562,93432
 6.0000e-001 93729 -8.0781e+000  3.8843e+000 -1.0954e+000 38639 93562,93536,93703
 6.0000e-001 93752 -3.5206e+000  5.1977e+000 -2.5775e+000 38639 93562,93703,93432
 6.0000e-001 94160  1.2638e+001  1.0614e+001  1.6193e+000 38292 93935,94039,93961
 6.0000e-001 94137  1.3009e+001  1.0965e+001  2.2985e+000 38292 93935,94065,94039
 6.0000e-001 94114  7.4067e+000  6.3157e+000  1.5192e+000 38292 93961,94013,93987
 6.0000e-001 94091  9.9393e+000  7.5608e+000  2.7637e+000 38292 93961,94039,94013
 6.0000e-001 94408 -1.1503e+001  1.0011e+001 -5.8768e+000 37880 94431,94261,94235
 6.0000e-001 94385 -1.1528e+001  1.0076e+001 -5.8885e+000 37880 94431,94235,94313
 6.0000e-001 94362 -1.3130e+001  1.0170e+001 -3.6157e+000 37880 94209,94313,94235
 6.0000e-001 94339 -1.4110e+001  1.2956e+001 -1.2167e+001 37880 94183,94313,94209
 6.0000e-001 94457 -1.1451e+001  1.0070e+001 -5.9003e+000 37880 94287,94261,94431
 6.0000e-001 94480 -1.1514e+001  1.0101e+001 -5.8970e+000 37880 94287,94431,94313
 6.0000e-001 94728  6.2397e-001  3.0971e+001 -7.2600e+000 37426 94529,94607,94555
 6.0000e-001 94705 -7.7307e+000  2.4657e+001 -3.4261e+000 37426 94529,94633,94607
 6.0000e-001 94682 -9.0119e+000  2.5199e+001 -3.1936e+000 37426 94503,94633,94529
 6.0000e-001 94659 -3.2160e+001 -2.2370e+001  1.8207e+001 37426 94555,94607,94581
 6.0000e-001 95257 -6.1686e-001  9.1050e+000 -1.1151e+000 36722 95496,95280,94862
 6.0000e-001 95234 -1.8697e+000  8.1995e+000 -3.5239e+000 36722 95496,94862,94836
 6.0000e-001 95211  4.9997e+000  1.0837e+001  2.0305e+000 36722 95352,95280,95070
 6.0000e-001 95188  3.2096e+000  7.6199e+000  2.7669e+000 36722 95352,95070,95044
 6.0000e-001 95165  6.0698e+000  1.5212e+001 -1.0867e+001 36722 95424,94888,94862
 6.0000e-001 95142 -1.4015e+001  2.7014e+001  1.2975e+001 36722 94914,94966,94940
 6.0000e-001 95119  2.3069e+000  9.3806e+000  5.9637e+000 36722 94966,95044,95018
 6.0000e-001 95096  5.3959e+000  1.3598e+001  8.0169e+000 36722 94966,95018,94992
 6.0000e-001 95306 -6.4505e+000  1.3977e+001 -5.0317e+000 36722 95424,94862,95280
 6.0000e-001 95329 -4.8840e+000  2.2632e+001  4.2108e-001 36722 94914,95280,94966
 6.0000e-001 95378  2.6368e+000  1.1196e+001  4.0444e+000 36722 94966,95280,95352
 6.0000e-001 95401  2.2063e+000  1.0665e+001  4.2714e+000 36722 94966,95352,95044
 6.0000e-001 95450 -1.2124e+001  7.6496e+000 -9.2871e+000 36722 94914,94888,95424
 6.0000e-001 95473 -1.4112e+001  1.0905e+001 -5.3570e+000 36722 94914,95424,95280
 6.0000e-001 95522 -6.1825e-001  7.6651e+000 -1.0916e+000 36722 95070,95280,95496
 6.0000e-001 95545 -1.4789e-001  7.2764e+000 -1.3804e+000 36722 95070,95496,94836
 6.0000e-001 96130 -4.6296e+000 -2.4247e-001  2.7234e+000 36268 96153,95911,95859
 6.0000e-001 96107 -4.0330e+000  4.9230e+000  3.0356e+000 36268 96153,95859,95807
 6.0000e-001 96084 -2.3335e-001  1.9815e+001  8.5226e+000 36268 95807,95859,95833
 6.0000e-001 96061 -7.8240e+000  3.5346e+000  1.9100e+000 36268 95911,95989,95937
 6.0000e-001 96038 -6.1670e+000  1.0083e+000  1.1556e+001 36268 95859,95911,95885
 6.0000e-001 96015 -3.1661e-001  4.4225e+000  2.2087e+000 36268 95937,95989,95963
 6.0000e-001 96179 -7.1475e+000  4.4383e+000  1.4973e+000 36268 95989,95911,96153
 6.0000e-001 96202 -5.5156e+000  1.1060e+001  2.0099e+000 36268 95989,96153,95807
 6.0000e-001 96531  1.3830e+000  2.2790e+001 -9.3416e+000 35728 96358,96410,96384
 6.0000e-001 96508  9.6359e-001  2.3221e+001 -9.5893e+000 35728 96332,96410,96358
 6.0000e-001 96485  4.8311e-001  2.3075e+001 -8.8922e+000 35728 96332,96436,96410
 6.0000e-001 96462 -9.2063e+000  1.4997e+001 -3.9729e+000 35728 96306,96436,96332
 6.0000e-001 96860  1.4512e+001  1.9355e+001 -5.2959e+000 35324 96687,96765,96713
 6.0000e-001 96837  1.0455e+001  9.6767e+000 -5.6388e+000 35324 96661,96765,96687
 6.0000e-001 96814  1.2894e+001  1.5492e+001 -3.3361e+000 35324 96713,96765,96739
 6.0000e-001 96791  1.4574e+001  9.7213e+000 -5.1005e+000 35324 96635,96765,96661
 6.0000e-001 97366  1.2459e-001  2.9248e+000 -1.8046e+000 34920 97389,97069,97043
 6.0000e-001 97343 -8.4049e-001  3.9321e+000 -3.2810e+000 34920 97389,97043,97199
 6.0000e-001 97320  5.4178e+000  2.2251e+001 -4.2231e+000 34920 97043,97225,97199
 6.0000e-001 97297  5.4807e+000  1.6876e+000 -2.9933e+000 34920 97069,97121,97095
 6.0000e-001 97274 -6.3894e+000 -1.9867e+000 -7.7702e+000 34920 97121,97199,97173
 6.0000e-001 97251 -2.7002e+000  6.6412e-001 -9.0386e+000 34920 97121,97173,97147
 6.0000e-001 97415  9.7346e-001  3.4732e+000 -2.6383e+000 34920 97121,97069,97389
 6.0000e-001 97438  1.4233e+000  5.7076e+000 -4.3413e+000 34920 97121,97389,97199
 6.0000e-001 97708 -1.4922e+001  2.2423e+000  2.8017e+000 34722 97509,97587,97535
 6.0000e-001 97685 -1.9834e+001  4.1819e+000  3.3873e+000 34722 97509,97613,97587
 6.0000e-001 97662 -6.4011e+000  1.0838e+001  5.6272e+000 34722 97483,97613,97509
 6.0000e-001 97639 -6.0609e+000  4.1937e+000 -2.1746e-001 34722 97535,97587,97561
 6.0000e-001 98216 -9.1964e+000  1.4925e+001 -7.2054e+000 34318 97971,98075,97997
 6.0000e-001 98193 -8.8335e+000  1.8333e+001 -8.5127e+000 34318 97893,98075,97971
 6.0000e-001 98170 -1.3638e+001  2.3543e+000 -6.8916e+000 34318 97893,97971,97919
 6.0000e-001 98147 -7.3106e+000  1.8121e+001 -8.0164e+000 34318 97997,98075,98049
 6.0000e-001 98124  3.7196e+000  1.1523e+001 -1.0690e+001 34318 97919,97971,97945
 6.0000e-001 98101 -1.9080e+000  3.0277e+001 -9.3394e+000 34318 97997,98049,98023
 6.0000e-001 98594 -3.8693e+000  5.8980e+000 -1.6614e+000 33814 98961,98617,98424
 6.0000e-001 98571 -5.5525e+000  7.4435e+000 -3.1557e+000 33814 98689,98617,98372
 6.0000e-001 98548 -4.4048e+000  1.1210e+000 -2.8633e+000 33814 99033,98689,98372
 6.0000e-001 98525 -2.3441e+000  1.1716e+000 -4.8594e+000 33814 98761,98476,98450
 6.0000e-001 98502 -1.7077e+000  4.3408e+000 -1.1009e+000 33814 98961,98424,98398
 6.0000e-001 98643 -9.2972e-001  6.7675e+000 -2.0336e+000 33814 98450,98424,98617
 6.0000e-001 98666 -3.9753e+000  2.0596e+000 -3.4257e+000 33814 98761,98450,98617
 6.0000e-001 98715 -1.2701e+000  7.5157e+000 -3.8506e+000 33814 99161,98689,98320
 6.0000e-001 98738  1.5325e+000  1.1146e+001 -5.1224e+000 33814 98320,98689,98346
 6.0000e-001 98787  2.4245e+000  5.6869e+000 -6.8449e+000 33814 98833,98761,98320
 6.0000e-001 98810 -1.5263e+000  7.6705e+000 -4.2430e+000 33814 99161,98320,98761
 6.0000e-001 98859 -3.2312e+000 -2.4833e+000 -3.9093e+000 33814 98476,98761,98833
 6.0000e-001 98987 -6.5995e+000  4.8114e+000 -8.2099e-001 33814 98372,98617,98961
 6.0000e-001 99010 -4.8303e+000  2.7427e+000  1.2705e-001 33814 98372,98961,98398
 6.0000e-001 99059  1.6754e+000  1.4103e+001 -5.9622e-001 33814 98346,98689,99033
 6.0000e-001 99187 -1.5319e+000  6.9872e+000 -3.9511e+000 33814 98617,98689,99161
 6.0000e-001 99210 -1.7987e+000  7.1974e+000 -4.3565e+000 33814 98617,99161,98761
 6.0000e-001 99588 -1.6425e+001 -3.8808e+000 -1.3233e+000 33566 99366,99444,99392
 6.0000e-001 99565 -1.5494e+001 -2.6039e+000 -8.8555e-001 33566 99314,99444,99366
 6.0000e-001 99542 -1.5230e+001  4.1475e+000  1.9589e+000 33566 99314,99366,99340
 6.0000e-001 99519 -2.3155e+001 -2.6553e-001 -8.2184e+000 33566 99314,99470,99444
 6.0000e-001 99496 -9.2690e+000  8.2932e+000 -4.5135e+000 33566 99392,99444,99418
 6.0000e-001 99787 -4.8532e+000  5.6319e+001 -4.3419e+001 33105 99637,99689,99663
 6.0000e-001 99764 -1.1145e+001  3.5301e+001 -1.1825e+001 33105 99611,99689,99637
 6.0000e-001 99741 -3.0741e+001  2.0116e+001 -1.9541e-001 33105 99611,99715,99689
 6.0000e-001 100167  1.9570e+001  2.1956e+001  2.0367e+000 32651 100190,99971,99919
 6.0000e-001 100144  2.3515e+001  1.9804e+001  1.4724e+000 32651 100262,100190,99919
 6.0000e-001 100121  2.3972e+001  1.9731e+001  1.7470e+000 32651 100262,99919,100049
 6.0000e-001 100098  2.3230e+001  1.9455e+001  6.6178e-001 32651 99893,100049,99919
 6.0000e-001 100075  2.4336e+001  2.4404e+001  4.8241e+000 32651 99919,99971,99945
 6.0000e-001 100216  2.3408e+001  2.5398e+001  4.6318e+000 32651 99997,99971,100190
 6.0000e-001 100239  2.2835e+001  2.0368e+001  3.1957e+000 32651 99997,100190,100023
 6.0000e-001 100288  2.4194e+001  1.9958e+001  1.6620e+000 32651 100023,100190,100262
 6.0000e-001 100311  2.5531e+001  2.0335e+001  1.8876e+000 32651 100023,100262,100049
 6.0000e-001 100608  1.2146e+001  1.6466e+001 -1.7430e+001 32254 100386,100490,100464
 6.0000e-001 100585  1.7780e+001  1.9965e+001 -1.3303e+001 32254 100360,100490,100386
 6.0000e-001 100562  1.8671e+001  3.0079e+000 -2.6311e+001 32254 100386,100464,100412
 6.0000e-001 100539  2.3544e-001  1.7803e+001 -2.8960e+000 32254 100334,100490,100360
 6.0000e-001 100516  1.7867e+001 -5.5784e+000 -2.5198e+001 32254 100412,100464,100438
 6.0000e-001 100758  1.3481e+001  1.8653e+001 -6.5146e+000 31914 100985,100781,100683
 6.0000e-001 100735  9.1626e+000  3.4814e+001 -8.6049e+000 31914 100853,100781,100657
 6.0000e-001 100807  3.3946e+001  2.6448e+001 -2.1351e+001 31914 100709,100683,100781
 6.0000e-001 100830  1.3101e+001  2.0131e+001 -1.2928e+001 31914 100709,100781,100631
 6.0000e-001 100879  9.3256e+000  2.8967e+000 -7.4900e+000 31914 100631,100781,100853
 6.0000e-001 101011  2.1233e+001  4.1757e+001 -4.9496e+000 31914 100657,100781,100985
 6.0000e-001 101191 -2.6896e+001  4.5355e+001 -7.3744e+000 31418 101113,101165,101139
 6.0000e-001 101341 -4.6910e+001 -9.4938e+000  8.8056e-001 31106 101214,101266,101240
 6.0000e-001 101318 -3.5369e+001  2.4707e+001  6.0677e+000 31106 101214,101292,101266
 6.0000e-001 101591 -3.6152e+001 -1.0202e+001  9.8857e-001 30552 101614,101470,101444
 6.0000e-001 101568 -2.9596e+001 -2.8629e+000  3.8948e+000 30552 101366,101496,101470
 6.0000e-001 101545 -4.2080e+001 -1.4557e+001  5.3548e+000 30552 101614,101444,101392
 6.0000e-001 101522 -2.1804e+001  1.1565e+000 -2.2831e+000 30552 101392,101444,101418
 6.0000e-001 101640 -4.4270e+001 -8.1232e+000  5.4678e+000 30552 101366,101470,101614
 6.0000e-001 101663 -4.9425e+001 -1.1746e+001  9.7380e+000 30552 101366,101614,101392
 6.0000e-001 102301  2.7078e+000  1.2583e+001 -5.1419e+000 30042 102396,102324,102059
 6.0000e-001 102278 -1.6461e+000  4.8232e+000 -3.0452e+000 30042 102324,101981,101955
 6.0000e-001 102255  5.8984e+000  1.1251e+001 -7.8172e+000 30042 102396,102059,102033
 6.0000e-001 102232 -7.3670e-001  9.4209e+000  4.5548e+000 30042 101929,102111,101955
 6.0000e-001 102209 -4.2381e+000  1.2906e+001  1.7822e+000 30042 102059,102111,102085
 6.0000e-001 102186 -8.5643e+000  1.2175e+001 -9.8537e+000 30042 101929,102137,102111
 6.0000e-001 102163 -2.8635e+000  3.5524e+000 -3.4389e+000 30042 101981,102033,102007
 6.0000e-001 102350  1.1273e-001  9.4785e+000 -1.9772e-001 30042 102111,102059,102324
 6.0000e-001 102373 -8.1905e-001  2.6809e+000  1.3289e+000 30042 102111,102324,101955
 6.0000e-001 102422 -2.2772e+000  7.4268e+000 -2.8211e+000 30042 101981,102324,102396
 6.0000e-001 102445  1.1512e+000  6.1979e+000 -5.5288e+000 30042 101981,102396,102033
 6.0000e-001 103000  5.4329e+000  3.8022e+000 -3.3399e+000 29730 103023,102706,102654
 6.0000e-001 102977  1.2310e+001  7.9417e+000 -5.1689e+000 29730 103023,102654,102810
 6.0000e-001 102954  1.1005e+001 -1.6218e+001 -3.6013e+000 29730 102732,102810,102784
 6.0000e-001 102931 -9.7908e-001 -7.8453e-001 -9.2831e+000 29730 102628,102810,102654
 6.0000e-001 102908  4.6361e+000  1.1157e+001 -1.0759e+000 29730 102654,102706,102680
 6.0000e-001 102885  1.8515e+001  1.4737e+000 -2.9643e+000 29730 102732,102784,102758
 6.0000e-001 102862 -5.0249e+000  5.1271e-002 -1.7862e+001 29730 102628,102836,102810
 6.0000e-001 103049  8.8848e+000  2.4433e-001  1.0469e+000 29730 102732,102706,103023
 6.0000e-001 103072  1.3345e+001  3.7356e+000 -4.9861e-001 29730 102732,103023,102810
 6.0000e-001 103222 -5.7573e+001 -5.9397e+000  1.0667e+000 29226 103095,103147,103121
 6.0000e-001 103199 -9.3729e+001 -2.4143e+001  9.4624e+000 29226 103095,103173,103147
 6.0000e-001 103730 -1.4872e+001  5.7545e+000  4.9652e+000 28822 103537,103589,103563
 6.0000e-001 103707 -1.0743e+001  7.2995e+000  2.6441e+000 28822 103433,103589,103537
 6.0000e-001 103684 -4.4750e+000  7.7256e+000  6.3690e+000 28822 103433,103537,103459
 6.0000e-001 103661 -1.1936e+001  9.5909e+000  2.3361e+000 28822 103407,103589,103433
 6.0000e-001 103638 -8.9014e+000 -2.5445e+000  2.3531e+000 28822 103459,103511,103485
 6.0000e-001 103615 -7.2118e+000 -1.3039e+000  1.8122e+000 28822 103459,103537,103511
 6.0000e-001 103880 -6.9387e+000  7.0457e+000 -1.6556e+000 28368 103975,103903,103779
 6.0000e-001 103857 -5.8424e+000  1.5866e+001 -2.0772e+000 28368 103903,103753,103831
 6.0000e-001 103929 -5.4586e+000  5.7551e+000 -6.9360e-001 28368 103805,103779,103903
 6.0000e-001 103952 -7.6773e+000  6.5976e+000 -2.5261e+000 28368 104105,103903,103831
 6.0000e-001 104001 -7.1844e+000  7.5684e+000 -6.0238e-001 28368 103753,103903,103975
 6.0000e-001 104131 -7.2570e+000  7.6719e+000 -9.4998e-001 28368 103805,103903,104105
 6.0000e-001 104539  1.3453e+001  1.7139e+001  9.3875e+000 28028 104562,104340,104314
 6.0000e-001 104516  1.3806e+001  2.0644e+001  9.8050e+000 28028 104634,104562,104314
 6.0000e-001 104493  1.1550e+001  1.4395e+001  6.8604e+000 28028 104762,104366,104340
 6.0000e-001 104470  1.2330e+001  9.5093e+000  7.7161e-001 28028 104366,104418,104392
 6.0000e-001 104588  1.1919e+001  1.4833e+001  6.5684e+000 28028 104762,104340,104562
 6.0000e-001 104611  1.6585e+001  2.1879e+001  4.8614e+000 28028 104418,104562,104444
 6.0000e-001 104660  1.0590e+001  1.9782e+001  8.6900e+000 28028 104444,104562,104634
 6.0000e-001 104788  1.2162e+001  1.3864e+001  6.8834e+000 28028 104418,104366,104762
 6.0000e-001 104811  1.2378e+001  1.4142e+001  6.6176e+000 28028 104418,104762,104562
 6.0000e-001 105010  1.5497e+001  1.2450e+001 -4.3434e+000 27324 105033,104886,104860
 6.0000e-001 104987  1.7200e+001  9.4697e+000 -1.4353e+001 27324 105033,104860,104834
 6.0000e-001 104964  9.4406e+000  5.5460e+000 -6.4852e+000 27324 105105,104912,104886
 6.0000e-001 105059  1.1726e+001  5.0839e+000 -5.9875e+000 27324 105105,104886,105033
 6.0000e-001 105082  1.2662e+001 -7.9636e-001 -1.3200e+001 27324 104938,105033,104834
 6.0000e-001 105131  5.5059e+000  5.0257e+000 -7.3654e+000 27324 104938,104912,105105
 6.0000e-001 105154  8.3852e+000  5.4084e+000 -6.3396e+000 27324 104938,105105,105033
 6.0000e-001 105402 -8.8584e+001 -2.7267e+001 -5.2863e+000 27012 105229,105281,105255
 6.0000e-001 105379 -7.9262e+001 -3.5196e+001 -3.7063e+000 27012 105229,105307,105281
 6.0000e-001 105356 -5.4043e+001 -2.5951e+001  4.4204e-001 27012 105177,105307,105229
 6.0000e-001 105333 -6.3147e+001 -2.6668e+001 -9.6032e+000 27012 105177,105229,105203
 6.0000e-001 105603  1.7019e+001  2.1588e+001 -1.7015e+001 26508 105626,105453,105427
 6.0000e-001 105580  1.0907e+001  7.1871e+000 -1.5177e+001 26508 105626,105427,105505
 6.0000e-001 105557  3.2309e+001 -4.8649e-001 -7.7181e+000 26508 105427,105531,105505
 6.0000e-001 105652  1.2804e+001  1.9406e+001 -9.1367e+000 26508 105479,105453,105626
 6.0000e-001 105675  1.0013e+001  1.3457e+001 -7.5403e+000 26508 105479,105626,105505
 6.0000e-001 106057 -1.2536e+001  1.8346e+000 -1.1613e+001 25947 106080,105887,105861
 6.0000e-001 106034 -1.0362e+001  3.8025e+000 -1.6647e+001 25947 106080,105861,105783
 6.0000e-001 106011  1.1422e+000  3.9494e+000 -2.2724e+001 25947 105783,105835,105809
 6.0000e-001 105988 -1.8364e+001  1.7875e+001 -1.6655e+001 25947 105783,105861,105835
 6.0000e-001 105965 -1.1545e+001  1.1690e+001 -1.7087e+001 25947 105887,105939,105913
 6.0000e-001 106106 -1.0272e+001  3.6303e+000 -1.3777e+001 25947 105939,105887,106080
 6.0000e-001 106129 -3.9977e+000  8.5592e+000 -1.9389e+001 25947 105939,106080,105783
 6.0000e-001 106714  1.8189e+001  2.1443e+001 -7.0634e+000 25557 106809,106737,106547
 6.0000e-001 106691  1.7271e+001  1.9958e+001  2.6194e+000 25557 106737,106417,106391
 6.0000e-001 106668  2.2015e+001  1.8347e+001 -5.6715e+000 25557 106809,106547,106495
 6.0000e-001 106645  1.9256e+001  1.4987e+001 -4.7002e+000 25557 106417,106495,106469
 6.0000e-001 106622  1.9805e+001  1.6421e+001 -7.1866e+000 25557 106495,106547,106521
 6.0000e-001 106599  1.9482e+001  1.4427e+001 -4.6603e+000 25557 106417,106469,106443
 6.0000e-001 106763  2.4610e+001  3.3059e+001 -9.5669e+000 25557 106573,106547,106737
 6.0000e-001 106786  2.2199e+001  3.0808e+001  1.0923e+000 25557 106573,106737,106391
 6.0000e-001 106835  2.1841e+001  2.9744e+001 -5.3031e+000 25557 106417,106737,106809
 6.0000e-001 106858  2.2525e+001  2.2601e+001 -5.3786e+000 25557 106417,106809,106495
 6.0000e-001 107364 -4.1036e-001  6.0403e+000  1.4235e+000 25153 107459,107387,107171
 6.0000e-001 107341  2.8312e+000  1.1692e+001  2.7018e+000 25153 107387,107119,107067
 6.0000e-001 107318 -6.5556e-001  5.4135e+000  8.4704e-001 25153 107459,107171,107145
 6.0000e-001 107295 -7.6272e+000  7.2203e+000 -3.3921e+000 25153 107531,107223,107197
 6.0000e-001 107272  1.3350e+000  8.2592e+000  2.8926e+000 25153 107067,107119,107093
 6.0000e-001 107249 -2.2199e+001  3.2164e+001 -4.1086e-001 25153 107041,107223,107067
 6.0000e-001 107413  1.5318e+001  1.3734e+001 -1.0023e+000 25153 107197,107171,107387
 6.0000e-001 107436 -3.4661e+000  8.1259e+000 -2.3274e+000 25153 107531,107197,107387
 6.0000e-001 107485 -7.2527e-001  5.0987e+000  6.7416e-001 25153 107119,107387,107459
 6.0000e-001 107508 -1.4895e+000  4.3707e+000  7.8425e-003 25153 107119,107459,107145
 6.0000e-001 107557 -9.7959e+000  8.8604e+000  1.6073e+000 25153 107067,107223,107531
 6.0000e-001 107580 -4.5475e+000  1.1144e+001  2.9718e+000 25153 107067,107531,107387
 6.0000e-001 107958 -2.1740e+001  4.2468e+000 -8.4840e+000 24741 107736,107814,107788
 6.0000e-001 107935 -2.5720e+001  2.3214e-001 -1.1317e+001 24741 107736,107840,107814
 6.0000e-001 107912 -1.5515e+001  6.9988e+000 -6.2093e+000 24741 107684,107840,107736
 6.0000e-001 107889 -5.1405e+001  2.0175e+001 -1.2350e+001 24741 107736,107788,107762
 6.0000e-001 107866 -1.7183e+001  3.0080e+000 -6.0744e+000 24741 107684,107736,107710
 6.0000e-001 108157 -3.3660e+001 -7.9158e+000  6.8642e+000 24237 108180,108059,108007
 6.0000e-001 108134 -3.3127e+001  8.0640e+000  2.1562e+001 24237 108180,108007,107981
 6.0000e-001 108111 -3.4571e+001  3.7783e+000  4.4697e+000 24237 108007,108059,108033
 6.0000e-001 108206 -2.5827e+001  8.5127e+000  1.1050e+001 24237 108085,108059,108180
 6.0000e-001 108229 -2.5465e+001  2.4464e+001  2.5655e+001 24237 108085,108180,107981
 6.0000e-001 108658  1.4727e+001  9.7719e+000 -3.1495e-001 23776 108361,108413,108387
 6.0000e-001 108635  6.5307e+000 -3.7393e-001 -2.5555e+000 23776 108753,108681,108361
 6.0000e-001 108612  5.0368e+000  5.5226e+000 -1.0793e+000 23776 108681,108465,108439
 6.0000e-001 108589  5.7029e+000 -2.4125e+000 -1.0074e+000 23776 108753,108361,108335
 6.0000e-001 108566  4.3635e+000  1.9862e+000 -5.4475e+000 23776 108335,108517,108465
 6.0000e-001 108543  6.6313e+000  8.1607e-001 -3.9785e+000 23776 108465,108517,108491
 6.0000e-001 108707  1.0343e+001  6.1902e+000 -4.2277e+000 23776 108413,108361,108681
 6.0000e-001 108730  6.3327e+000  1.1251e+001 -6.9657e-001 23776 108413,108681,108439
 6.0000e-001 108779  5.5434e+000  6.1211e+000 -4.0811e+000 23776 108465,108681,108753
 6.0000e-001 108802  3.1724e+000  1.5023e+000 -2.5817e+000 23776 108465,108753,108335
 6.0000e-001 109023 -3.6280e+001  8.9807e+000  4.7439e+000 23414 108873,108925,108899
 6.0000e-001 109000 -4.7587e+001  5.5505e+000  5.1350e+000 23414 108847,108925,108873
 6.0000e-001 108977 -3.1119e+001  4.5464e+001  5.3328e+000 23414 108847,108951,108925
 6.0000e-001 109474 -2.7414e+001  2.6962e+000 -4.8290e+000 23024 109151,109307,109177
 6.0000e-001 109451 -3.0855e+001  1.0263e+001 -4.4623e+000 23024 109151,109333,109307
 6.0000e-001 109428 -1.2068e+001  7.5308e-001 -9.4472e-001 23024 109177,109281,109203
 6.0000e-001 109405 -6.8001e+000  7.3144e+000 -4.2219e+000 23024 109177,109307,109281
 6.0000e-001 109382 -7.8197e+000  3.8777e+000  4.8093e-001 23024 109203,109281,109229
 6.0000e-001 109359 -5.2831e+000 -1.5821e+000  2.5926e+000 23024 109229,109281,109255
 6.0000e-001 109820  1.0863e+000  8.2314e+000 -3.6718e+000 22506 109843,109601,109523
 6.0000e-001 109797 -4.8293e+000  7.7075e+000 -3.3191e+000 22506 109843,109523,109497
 6.0000e-001 109774 -5.2429e+000  9.8234e+000 -4.1170e+000 22506 109915,109653,109627
 6.0000e-001 109751 -8.7191e+000  8.9028e+000 -5.3938e-001 22506 109497,109679,109653
 6.0000e-001 109728 -5.5686e-001  4.5567e+000 -1.3755e+000 22506 109523,109601,109575
 6.0000e-001 109705  2.0787e+000  1.0955e+001 -2.4619e-001 22506 109523,109575,109549
 6.0000e-001 109869 -4.9258e+000  4.2047e+000 -5.4417e+000 22506 109627,109601,109843
 6.0000e-001 109892 -5.7229e+000  8.7874e+000 -4.2520e+000 22506 109915,109627,109843
 6.0000e-001 109941 -5.0609e+000  8.8801e+000 -3.4581e+000 22506 109497,109653,109915
 6.0000e-001 109964 -5.1259e+000  8.7393e+000 -3.4896e+000 22506 109497,109915,109843
 6.0000e-001 110163  3.5679e+000  1.3531e+001 -2.4441e+000 21936 110186,110039,110013
 6.0000e-001 110140  1.3057e+001  2.1506e+001  1.2947e+000 21936 110390,110186,110013
 6.0000e-001 110117  1.1534e+001  1.6907e+001  1.0953e+000 21936 110390,110013,109987
 6.0000e-001 110212  1.0511e+001  3.2974e+001  5.3292e+000 21936 110065,110039,110186
 6.0000e-001 110235  1.3347e+001  1.3141e+001  9.1799e+000 21936 110258,110186,110091
 6.0000e-001 110284  2.2349e+001  2.6142e+001  1.4129e+001 21936 110065,110186,110258
 6.0000e-001 110416  1.6049e+001  1.5495e+001  3.7739e+000 21936 110091,110186,110390
 6.0000e-001 110439  1.4581e+001  1.0944e+001  3.3342e+000 21936 110091,110390,109987
 6.0000e-001 110709 -1.3504e+001  6.7658e+000  5.2264e-001 21338 110510,110614,110588
 6.0000e-001 110686 -1.3578e+001  3.6797e+000  6.1178e-002 21338 110484,110614,110510
 6.0000e-001 110663 -1.5112e+001  3.7608e+000  1.0706e-001 21338 110510,110562,110536
 6.0000e-001 110640 -1.3380e+001  7.6213e+000 -4.4359e-001 21338 110510,110588,110562
 6.0000e-001 111296 -1.0416e+001 -1.4335e-001  4.1257e+000 20934 111025,111155,111103
 6.0000e-001 111273 -1.2962e+001 -2.9606e+000  5.3981e+000 20934 110999,111155,111025
 6.0000e-001 111250 -2.2520e+001 -5.9487e+000  6.8233e+000 20934 111103,111155,111129
 6.0000e-001 111227 -6.7504e+000  3.9285e+000  5.5924e+000 20934 111051,111103,111077
 6.0000e-001 111204 -7.7074e+000 -4.1827e-001  5.2399e+000 20934 111025,111103,111051
 6.0000e-001 111181 -1.2276e+001 -6.5922e+000  5.7140e+000 20934 110973,111155,110999
 6.0000e-001 111930  3.5704e+000  9.5095e+000 -1.8368e+001 20494 111662,111714,111688
 6.0000e-001 111907  2.4289e+001  1.2716e+001 -1.5306e+001 20494 111584,111714,111662
 6.0000e-001 111884  1.6348e+001  9.5317e+000 -1.3988e+001 20494 111584,111766,111714
 6.0000e-001 111861  2.4629e+001  1.2076e+001 -8.7860e+000 20494 111584,111636,111610
 6.0000e-001 111838  1.8780e+001  9.4726e+000 -1.1910e+001 20494 111584,111662,111636
 6.0000e-001 111815  1.5508e+001  9.6587e+000 -1.3280e+001 20494 111558,111766,111584
 6.0000e-001 111792  1.6837e+001  1.0862e+001 -1.3681e+001 20494 111714,111766,111740
 6.0000e-001 112249 -1.7230e+001 -1.6676e-001  1.4805e+000 19940 111975,112053,112001
 6.0000e-001 112226 -2.0511e+001  5.7213e+000  9.7527e+000 19940 111975,112131,112053
 6.0000e-001 112203 -3.1098e+001  5.9857e+000  0.0000e+000 19940 112053,112105,112079
 6.0000e-001 112180 -2.4227e+001  9.0996e+000  1.2571e+000 19940 112053,112131,112105
 6.0000e-001 112157 -5.0391e+000  4.1687e+000  1.3143e+000 19940 112001,112053,112027
 6.0000e-001 112757 -1.6795e+001  7.6758e+000  6.2744e+000 19486 112780,112538,112486
 6.0000e-001 112734 -1.6777e+001  6.9050e+000  1.5264e+000 19486 112780,112486,112460
 6.0000e-001 112711 -1.2408e+001  6.8485e+000  3.4208e+000 19486 112852,112616,112590
 6.0000e-001 112688 -3.1180e+001  1.6890e+001  8.3716e+000 19486 112486,112538,112512
 6.0000e-001 112665 -1.0074e+001  5.3979e+000  3.2166e+000 19486 112434,112616,112460
 6.0000e-001 112642 -9.5908e+000  5.6151e+000  6.4006e+000 19486 112538,112590,112564
 6.0000e-001 112806 -1.1417e+001  9.5592e+000  7.0617e+000 19486 112590,112538,112780
 6.0000e-001 112829 -1.6125e+001  7.4385e+000  4.0314e+000 19486 112852,112590,112780
 6.0000e-001 112878 -9.8679e+000  7.3901e+000  2.3778e+000 19486 112460,112616,112852
 6.0000e-001 112901 -1.2027e+001  9.3702e+000  2.6751e+000 19486 112460,112852,112780
 6.0000e-001 113252  1.5505e+001  2.3150e+001  4.5360e-001 19096 113105,113157,113131
 6.0000e-001 113229  1.0123e+001  1.4402e+001 -1.8325e+000 19096 113053,113157,113105
 6.0000e-001 113206  5.8802e+000  1.2636e+001 -2.2005e+000 19096 113027,113157,113053
 6.0000e-001 113183  1.4916e+001  2.8203e+001 -2.4293e+000 19096 113053,113105,113079
 6.0000e-001 113451  5.9817e+000  2.3330e+001  5.0467e+000 18642 113327,113379,113353
 6.0000e-001 113428  3.1820e+000  1.9606e+001  2.0788e+000 18642 113301,113379,113327
 6.0000e-001 113405  1.3866e+001  1.8478e+001  2.0892e+000 18642 113275,113379,113301
 6.0000e-001 113699  1.3679e+000  1.4440e+001 -3.2433e+000 18138 113474,113552,113526
 6.0000e-001 113676  3.9222e-001  1.0503e+001 -2.9325e+000 18138 113474,113578,113552
 6.0000e-001 113653  3.0028e+000  1.0755e+001 -3.9140e+000 18138 113474,113604,113578
 6.0000e-001 113630 -7.1579e+000  1.7949e+001 -8.7861e+000 18138 113474,113526,113500
 6.0000e-001 113851  1.6307e+000  2.5099e+001 -1.7578e+000 17682 113750,113802,113776
 6.0000e-001 113828 -7.1057e+000  2.2366e+001 -2.9168e+000 17682 113724,113802,113750
 6.0000e-001 114383  1.4078e+000 -4.1642e-001 -5.3597e-001 17106 114086,114242,114164
 6.0000e-001 114360  1.3072e+000 -4.7890e-001 -7.4944e-001 17106 114060,114242,114086
 6.0000e-001 114337  1.0700e-001 -1.1608e+000 -9.1754e-002 17106 114086,114164,114138
 6.0000e-001 114314 -2.3050e+000 -3.2100e+000  8.1966e-001 17106 114190,114242,114216
 6.0000e-001 114291  1.0964e+000 -2.3607e+000 -4.4983e-001 17106 114164,114242,114190
 6.0000e-001 114268 -8.7355e+000 -3.7758e+000 -7.0597e+000 17106 114086,114138,114112
 6.0000e-001 114680 -1.6606e+001  3.7467e+000  6.9733e+000 16766 114703,114432,114406
 6.0000e-001 114657 -2.1081e+001  1.3390e+001  1.5294e+000 16766 114703,114406,114510
 6.0000e-001 114634 -2.2973e+001  1.7330e+001  4.4577e+000 16766 114406,114536,114510
 6.0000e-001 114611  2.1712e+000  9.7274e+000 -8.4875e-001 16766 114432,114484,114458
 6.0000e-001 114588 -3.8333e+001  1.2602e+001  3.2288e-001 16766 114406,114562,114536
 6.0000e-001 114729  2.2272e+000  1.3012e+001  3.9006e+000 16766 114484,114432,114703
 6.0000e-001 114752 -1.5585e+001  1.4707e+001  9.8938e-001 16766 114484,114703,114510
 6.0000e-001 114902  3.0024e+001  2.3313e+001 -9.3996e-001 16362 114775,114827,114801
 6.0000e-001 114879  4.6478e+001  2.8653e+001 -4.4456e+000 16362 114775,114853,114827
 6.0000e-001 115054  7.4942e+000  9.5969e+000  4.7822e+000 15908 114953,115005,114979
 6.0000e-001 115031  5.7506e+000  1.1926e+001  4.2910e+000 15908 114927,115005,114953
 6.0000e-001 115326 -1.4525e+001  8.2165e+000 -4.9091e-001 15251 115101,115179,115153
 6.0000e-001 115303 -1.4519e+001  7.8869e+000  9.3165e-001 15251 115101,115231,115179
 6.0000e-001 115280 -1.3248e+001  1.0865e+001  6.8868e-001 15251 115179,115231,115205
 6.0000e-001 115257 -1.8254e+001  9.4158e+000 -3.3154e+000 15251 115101,115153,115127
 6.0000e-001 115429  6.8538e+000  1.2674e+001 -3.8366e+000 421 115351,115403,115377
 7.0000e-001 66230 -3.6910e+000  2.7598e+000  1.6880e+000 65954 66152,66204,66178
 7.0000e-001 66429 -5.3847e+000  2.0279e-001  1.4471e+000 65642 66279,66331,66305
 7.0000e-001 66406 -3.6560e+000  4.8681e+000  1.4679e+000 65642 66279,66357,66331
 7.0000e-001 66383  9.8626e-001  4.9396e+000  8.8287e-001 65642 66253,66357,66279
 7.0000e-001 66628  5.9617e-002  1.7348e+001 -7.9759e-001 65444 66452,66530,66478
 7.0000e-001 66605 -5.2176e-001  1.7253e+001 -8.5970e-001 65444 66452,66556,66530
 7.0000e-001 66582 -6.1260e+000  1.6918e+001  8.4865e-001 65444 66478,66530,66504
 7.0000e-001 67006  3.1749e-001  1.1531e+001  1.5639e+000 65246 66732,66810,66758
 7.0000e-001 66983  2.7668e+000  1.1311e+001  1.9302e+000 65246 66732,66836,66810
 7.0000e-001 66960  1.2262e+000  9.8597e+000  2.2168e-001 65246 66732,66862,66836
 7.0000e-001 66937  3.4883e+000  1.9006e+001  6.7415e-001 65246 66758,66810,66784
 7.0000e-001 66914 -1.8524e+000  1.2839e+001  4.0331e+000 65246 66732,66888,66862
 7.0000e-001 67107 -5.8433e+000  4.8996e+000  1.8529e+000 64934 67029,67081,67055
 7.0000e-001 67306 -2.9138e+000  1.3094e+001 -1.3568e+000 64736 67156,67208,67182
 7.0000e-001 67283  3.2646e-001  1.2559e+001 -1.7395e+000 64736 67130,67208,67156
 7.0000e-001 67260  2.0854e+000  1.4943e+001 -9.6360e-001 64736 67130,67234,67208
 7.0000e-001 67507 -6.9092e+000  1.6210e+001  7.7687e-001 64389 67357,67409,67383
 7.0000e-001 67484 -1.5697e+000  1.5267e+001  3.0808e+000 64389 67357,67435,67409
 7.0000e-001 67461  2.3583e-001  1.8190e+001  1.9900e+000 64389 67331,67435,67357
 7.0000e-001 67708 -2.3018e+000  3.6227e+000 -6.0133e-001 63985 67731,67584,67558
 7.0000e-001 67685 -4.1232e+000  5.7855e-001  4.1202e-001 63985 67731,67558,67636
 7.0000e-001 67662 -5.7125e+000  2.5203e+000  3.2859e+000 63985 67532,67636,67558
 7.0000e-001 67757 -3.9705e+000  5.9808e+000 -1.3837e+000 63985 67610,67584,67731
 7.0000e-001 67780 -4.9708e+000  3.8773e+000 -5.7241e-001 63985 67610,67731,67636
 7.0000e-001 67981 -1.5499e+000  4.7385e+000  4.7643e-001 63787 67857,67909,67883
 7.0000e-001 67958  1.0035e+000  4.8908e+000  4.6176e-001 63787 67831,67909,67857
 7.0000e-001 67935  1.1118e+000  8.3406e+000 -8.2953e-002 63787 67805,67909,67831
 7.0000e-001 68231 -1.4929e+000  4.4114e+000  1.4964e+000 63589 68254,68084,68032
 7.0000e-001 68208 -1.1527e+000  5.0444e+000  1.6443e+000 63589 68254,68032,68006
 7.0000e-001 68185 -2.9392e+000  3.1852e+000 -5.2497e-001 63589 68326,68136,68110
 7.0000e-001 68162 -2.8576e+000  3.4469e+000  2.7187e+000 63589 68032,68084,68058
 7.0000e-001 68280  2.2808e-001  4.5515e+000  5.9680e-001 63589 68110,68084,68254
 7.0000e-001 68303 -2.1432e+000  3.5571e+000  1.6728e-001 63589 68326,68110,68254
 7.0000e-001 68352 -2.7476e+000  4.6246e+000  1.1011e+000 63589 68006,68136,68326
 7.0000e-001 68375 -1.7077e+000  4.7768e+000  1.7769e+000 63589 68006,68326,68254
 7.0000e-001 68836 -1.0791e+000  8.5587e-001  5.2436e+000 63128 68859,68588,68562
 7.0000e-001 68813  6.5349e-001  4.7693e+000  1.4090e+000 63128 68859,68562,68692
 7.0000e-001 68790  1.1419e+000  1.6038e+000  3.2438e+000 63128 68614,68692,68666
 7.0000e-001 68767  1.1557e+000  3.2818e+000  1.1092e+000 63128 68562,68718,68692
 7.0000e-001 68744 -2.0921e+000 -5.9656e+000  3.1723e+000 63128 68614,68666,68640
 7.0000e-001 68885 -3.5763e+000 -4.7135e+000  8.1358e+000 63128 68614,68588,68859
 7.0000e-001 68908 -1.5565e+000  3.8723e-001  4.3564e+000 63128 68614,68859,68692
 7.0000e-001 69237 -2.3375e-001  8.5062e+000 -5.3169e-001 62731 69064,69116,69090
 7.0000e-001 69214  1.7747e-001  1.0686e+001 -6.7044e-002 62731 69064,69142,69116
 7.0000e-001 69191  1.3667e+000  1.6028e+001  1.2169e-001 62731 69038,69142,69064
 7.0000e-001 69168 -1.6436e+000  1.4745e+001 -9.9185e-001 62731 69012,69142,69038
 7.0000e-001 69539  2.7436e-001  1.6936e+000  1.2528e+000 62433 69389,69467,69441
 7.0000e-001 69516  1.0357e+000 -1.5856e+000  1.8006e+000 62433 69363,69467,69389
 7.0000e-001 69493 -1.7282e+000 -1.3768e+000  2.0915e-002 62433 69389,69441,69415
 7.0000e-001 69966 -7.2422e+000  3.0972e+000  3.7847e+000 62235 69989,69773,69721
 7.0000e-001 69943 -3.4909e+000  3.2567e+000  2.8368e+000 62235 70061,69989,69721
 7.0000e-001 69920 -2.9883e+000  4.5015e+000  3.0024e+000 62235 70061,69721,69643
 7.0000e-001 69897 -1.2905e+001  6.5519e+000  3.8208e+000 62235 69721,69773,69747
 7.0000e-001 69874 -2.0021e-002  1.4323e+001  4.2614e+000 62235 69643,69721,69695
 7.0000e-001 69851 -9.6194e+000 -5.2337e-001 -4.6991e-001 62235 69643,69695,69669
 7.0000e-001 70015 -9.7255e+000  1.7093e+000  7.4666e+000 62235 69799,69773,69989
 7.0000e-001 70038 -3.0614e+000  3.9469e+000  5.5263e+000 62235 69799,69989,69825
 7.0000e-001 70087 -3.9661e+000  4.8473e+000  2.5903e+000 62235 69825,69989,70061
 7.0000e-001 70110 -3.7650e+000  5.6092e+000  2.7835e+000 62235 69825,70061,69643
 7.0000e-001 70260 -2.5050e-001  7.6908e+000 -2.6052e+000 62037 70133,70185,70159
 7.0000e-001 70237  6.8336e-001  1.1047e+001 -2.4880e+000 62037 70133,70211,70185
 7.0000e-001 70640 -2.9031e+000 -2.8454e+000 -2.3338e+000 61583 70735,70663,70418
 7.0000e-001 70617 -2.8324e+000  3.3976e+000 -8.8907e-001 61583 70663,70366,70522
 7.0000e-001 70594 -2.9932e+000 -6.2673e+000 -1.7867e-001 61583 70735,70418,70392
 7.0000e-001 70571 -1.9245e+000 -1.0212e+000 -1.8771e+000 61583 70418,70496,70444
 7.0000e-001 70548 -2.1373e+000 -6.8697e-001 -1.8838e+000 61583 70444,70496,70470
 7.0000e-001 70689 -2.8948e+000 -1.3985e+000 -2.1803e+000 61583 70496,70418,70663
 7.0000e-001 70712 -3.4889e+000 -3.5384e+000 -1.8355e+000 61583 70496,70663,70522
 7.0000e-001 70761 -7.2491e+000 -5.6489e+000  9.3161e-001 61583 70366,70663,70735
 7.0000e-001 70784 -5.2801e+000 -8.1139e+000  2.7410e+000 61583 70366,70735,70392
 7.0000e-001 71054  1.8143e+000  1.4900e+001 -7.9878e+000 61313 71077,70881,70855
 7.0000e-001 71031  5.8768e-001  6.9135e+000 -5.3994e+000 61313 71077,70855,70829
 7.0000e-001 71008  6.2609e-001  4.2394e+000 -2.2759e+000 61313 70829,70959,70933
 7.0000e-001 70985 -8.8332e+000  1.0660e+001  1.3750e+000 61313 70881,70933,70907
 7.0000e-001 71103 -7.2331e-001  1.0113e+001 -4.1420e+000 61313 70933,70881,71077
 7.0000e-001 71126  4.2201e-001  5.2222e+000 -1.6993e+000 61313 70933,71077,70829
 7.0000e-001 71604 -3.4826e+000  1.4520e+000 -3.0595e-001 60909 71627,71232,71414
 7.0000e-001 71581 -5.2618e+000  5.2040e+000 -5.0255e+000 60909 71232,71440,71414
 7.0000e-001 71558 -2.6725e+000  1.7385e+000 -3.1432e-003 60909 71627,71414,71336
 7.0000e-001 71535 -7.6326e-001  2.5857e+000  1.9614e+000 60909 71362,71414,71388
 7.0000e-001 71512 -3.4544e+000  2.0568e+000  1.9350e+000 60909 71336,71414,71362
 7.0000e-001 71489 -7.8987e-001  3.8274e+000 -1.0877e+000 60909 71258,71336,71310
 7.0000e-001 71466  2.2498e+000  2.0196e+000  8.9124e-001 60909 71258,71310,71284
 7.0000e-001 71653 -3.9525e+000  1.9504e+000  7.8998e-002 60909 71258,71232,71627
 7.0000e-001 71676 -3.3134e+000  2.0712e+000  1.7827e-001 60909 71258,71627,71336
 7.0000e-001 71875  5.6272e+000  2.4052e+001  8.0660e+000 60611 71898,71725,71699
 7.0000e-001 71852  3.9334e+000  1.6125e+001  2.7545e+000 60611 71898,71699,71803
 7.0000e-001 71829  3.0283e+000  1.4655e+000  5.9246e+000 60611 71970,71751,71725
 7.0000e-001 71924  6.2310e+000  9.9272e+000  4.6363e+000 60611 71970,71725,71898
 7.0000e-001 71947  3.0008e+000  3.3300e+000  3.5929e-001 60611 71777,71898,71803
 7.0000e-001 71996  4.2841e+000  1.1635e+001  3.1561e+000 60611 71777,71751,71970
 7.0000e-001 72019  6.2168e+000  1.5465e+001  1.0003e+000 60611 71777,71970,71898
 7.0000e-001 72576  5.2376e+000  1.0169e+001 -4.6008e-001 60142 72599,72256,72230
 7.0000e-001 72553  4.9936e+000  6.4916e+000 -1.4394e+000 60142 72671,72599,72230
 7.0000e-001 72530  3.2877e+000  7.9458e+000 -2.7205e+000 60142 72671,72230,72204
 7.0000e-001 72507  6.4820e+000  3.9063e+000 -1.0895e-001 60142 72743,72360,72334
 7.0000e-001 72484  5.4523e+000  7.3556e+000  2.2135e+000 60142 72815,72282,72256
 7.0000e-001 72461  2.4564e+000  6.5930e+000  3.6442e+000 60142 72887,72308,72282
 7.0000e-001 72438  6.7290e+000  6.8580e+000 -5.0870e+000 60142 72204,72412,72386
 7.0000e-001 72625  5.1342e+000  6.9102e+000  2.3949e+000 60142 72815,72256,72599
 7.0000e-001 72648  6.2072e+000  4.4263e+000 -1.6611e-002 60142 72743,72334,72599
 7.0000e-001 72697  3.5114e+000  4.3014e+000 -2.0870e+000 60142 72386,72599,72671
 7.0000e-001 72720  2.3345e+000  5.9866e+000 -3.0873e+000 60142 72386,72671,72204
 7.0000e-001 72769  5.9625e+000  4.4332e+000 -1.1260e+000 60142 72386,72360,72743
 7.0000e-001 72792  6.0287e+000  5.5267e+000 -5.3895e-001 60142 72386,72743,72599
 7.0000e-001 72841  4.4812e+000  7.3235e+000  2.2959e+000 60142 72887,72282,72815
 7.0000e-001 72864  8.0125e+000  6.7915e+000  2.3648e+000 60142 72334,72815,72599
 7.0000e-001 72913  4.8615e+000  4.5775e+000  4.2903e+000 60142 72334,72308,72887
 7.0000e-001 72936  5.2678e+000  4.7017e+000  3.2744e+000 60142 72334,72887,72815
 7.0000e-001 73491 -3.7124e-001  5.8009e+000  9.0752e-001 59738 73145,73327,73171
 7.0000e-001 73468  6.2463e+000  6.9165e+000  3.1743e+000 59738 73119,73327,73145
 7.0000e-001 73445  5.3883e-002  2.3808e+000 -1.2864e+000 59738 73171,73327,73301
 7.0000e-001 73422 -1.2771e+000  5.7139e+000 -2.8708e-001 59738 73514,73275,73249
 7.0000e-001 73399 -8.0935e-001  5.6162e+000 -3.2027e-001 59738 73586,73514,73249
 7.0000e-001 73376  1.2953e+000  5.4778e+000 -1.6113e+000 59738 73197,73249,73223
 7.0000e-001 73353 -3.9178e+000  4.9418e+000 -1.9431e+000 59738 73586,73249,73197
 7.0000e-001 73540 -1.3794e+000  7.1869e+000  2.6386e-001 59738 73301,73275,73514
 7.0000e-001 73563  3.5671e-002  4.9466e+000 -1.4832e+000 59738 73301,73514,73171
 7.0000e-001 73612 -3.2548e+000  2.6322e+000 -2.8295e+000 59738 73171,73514,73586
 7.0000e-001 73635 -4.4057e+000  3.2989e+000 -4.3251e+000 59738 73171,73586,73197
 7.0000e-001 73964 -1.7953e+001 -8.7964e+000  6.1542e+000 59334 73791,73843,73817
 7.0000e-001 73941 -1.5818e+001 -1.7393e+001  1.9447e+000 59334 73791,73869,73843
 7.0000e-001 73918 -1.0186e+001 -3.4865e+000 -3.6748e-002 59334 73739,73869,73791
 7.0000e-001 73895 -1.0782e+001 -2.5491e+000 -1.9092e-001 59334 73739,73791,73765
 7.0000e-001 74261 -7.3837e+000  2.2243e+000  1.6056e+000 58630 74065,74117,74091
 7.0000e-001 74238 -5.2114e+000  5.7936e-001  3.8228e-001 58630 74356,74284,74065
 7.0000e-001 74215 -8.6495e+000 -7.2134e+000 -3.8871e-001 58630 74284,74013,73987
 7.0000e-001 74192 -4.5959e+000  2.8385e+000 -8.2739e-001 58630 74356,74065,74039
 7.0000e-001 74169 -1.2051e+001 -2.9758e+000  3.5177e+000 58630 73987,74143,74117
 7.0000e-001 74310 -8.3616e+000 -6.1594e-001 -1.0621e+000 58630 74117,74065,74284
 7.0000e-001 74333 -1.2291e+001 -1.1269e+000 -6.2610e-001 58630 74117,74284,73987
 7.0000e-001 74382 -2.5847e+000 -1.1496e+000 -2.9648e+000 58630 74013,74284,74356
 7.0000e-001 74405 -1.6941e+000  1.5992e+000 -4.2146e+000 58630 74013,74356,74039
 7.0000e-001 74815  1.8516e+001 -5.1140e+000 -2.6777e+000 58226 74590,74642,74616
 7.0000e-001 74792  1.1687e+001 -1.2818e+000  3.0728e+000 58226 74590,74694,74642
 7.0000e-001 74769  1.0380e+001 -6.6628e+000  5.5779e+000 58226 74590,74720,74694
 7.0000e-001 74746  4.2706e+000 -3.6655e-001  2.9547e-001 58226 74642,74694,74668
 7.0000e-001 75014  7.7482e-001  2.4460e+000 -2.1229e+000 57786 75037,74864,74838
 7.0000e-001 74991 -3.9993e+000 -2.0639e-002  1.4360e+000 57786 75037,74838,74916
 7.0000e-001 74968 -4.6139e+000 -1.6835e+000  3.9027e+000 57786 74838,74942,74916
 7.0000e-001 75063 -5.8747e+000  7.0938e+000 -1.6326e+000 57786 74890,74864,75037
 7.0000e-001 75086 -1.0360e+001  4.3425e+000  2.2462e+000 57786 74890,75037,74916
 7.0000e-001 75368  1.8636e+000  7.3926e+000  1.2611e+000 57496 75192,75270,75218
 7.0000e-001 75345  3.0951e+000  6.8416e+000 -4.6522e-001 57496 75192,75296,75270
 7.0000e-001 75322  4.4228e+000  1.0848e+001  2.4947e+000 57496 75218,75270,75244
 7.0000e-001 75648  3.4891e+000  5.2097e+000 -1.8470e+000 57206 75472,75550,75498
 7.0000e-001 75625  1.4677e+000  7.5217e+000 -2.3515e-001 57206 75472,75576,75550
 7.0000e-001 75602 -1.6560e-001  5.9197e-001 -1.8745e-001 57206 75671,75550,75524
 7.0000e-001 75697  1.0314e-001  3.6148e+000  5.5199e-001 57206 75498,75550,75671
 7.0000e-001 76154 -1.3937e+001  3.8458e-001  8.2617e+000 56802 75958,76010,75984
 7.0000e-001 76131 -1.7497e+001 -3.7546e+000  9.9912e+000 56802 75932,76010,75958
 7.0000e-001 76108 -1.3837e+001  9.5263e+000  8.0014e+000 56802 75906,76010,75932
 7.0000e-001 76085 -1.8692e+001 -2.2252e+000  5.4515e+000 56802 75880,76010,75906
 7.0000e-001 76062 -9.5872e+000  3.4228e-001  1.9599e+000 56802 75880,76036,76010
 7.0000e-001 76505 -9.7260e+000  5.0600e+000 -7.7004e-001 56504 76306,76384,76332
 7.0000e-001 76482 -6.0427e+000  1.5275e+000  5.8472e-001 56504 76306,76410,76384
 7.0000e-001 76459 -5.3516e+000  2.3546e+000 -4.6000e+000 56504 76332,76384,76358
 7.0000e-001 76436 -1.7375e+001 -5.9687e+000 -3.0272e+000 56504 76280,76410,76306
 7.0000e-001 77011 -3.6654e+000  1.4172e+000  5.0946e-001 56050 76740,76818,76792
 7.0000e-001 76988  1.0266e+000  3.6738e+000 -4.6842e-001 56050 76714,76818,76740
 7.0000e-001 76965 -1.4151e+000  2.3795e+000  3.0434e-001 56050 76688,76818,76714
 7.0000e-001 76942 -9.3752e-001  5.0906e+000 -2.9304e-001 56050 76688,76844,76818
 7.0000e-001 76919  2.8154e+000  5.0019e+000 -1.6433e+000 56050 76740,76792,76766
 7.0000e-001 76896 -2.6903e+000  7.0043e+000  2.4160e+000 56050 76688,76870,76844
 7.0000e-001 77517 -2.7272e+000  4.2929e+000 -7.4067e-002 55738 77220,77350,77324
 7.0000e-001 77494 -5.5446e+000  2.2873e+000 -1.0608e+000 55738 77220,77376,77350
 7.0000e-001 77471 -4.2803e+000  6.8598e+000 -1.2835e+000 55738 77194,77376,77220
 7.0000e-001 77448 -5.2426e+000  7.2834e-001  3.6478e-001 55738 77220,77298,77246
 7.0000e-001 77425 -6.8035e+000  1.0005e+000  1.7584e+000 55738 77220,77324,77298
 7.0000e-001 77402 -6.1690e+000  1.0411e-001 -1.8375e+000 55738 77246,77298,77272
 7.0000e-001 78064 -1.2565e+001 -1.4768e+001  4.4671e-001 55227 78231,78087,77773
 7.0000e-001 78041 -1.6557e+001 -1.3641e+001  2.1097e+000 55227 78087,77695,77643
 7.0000e-001 78018 -1.1281e+001 -2.3902e+001  1.4066e+000 55227 78159,77799,77773
 7.0000e-001 77995 -1.2956e+001 -1.6219e+001  5.8755e-001 55227 78231,77773,77721
 7.0000e-001 77972 -1.2209e+001 -1.1462e+001  3.2550e+000 55227 77643,77695,77669
 7.0000e-001 77949 -1.0355e+001 -4.0610e+000  1.5381e+000 55227 77643,77877,77851
 7.0000e-001 77926 -5.0959e+000 -1.0656e+001 -1.0298e+000 55227 77799,77851,77825
 7.0000e-001 77903 -1.6851e+001 -2.0275e+001  2.6559e+000 55227 77721,77773,77747
 7.0000e-001 78113 -1.3855e+001 -1.7721e+001  1.9782e-001 55227 78159,77773,78087
 7.0000e-001 78136 -1.2710e+001 -4.6442e+000  1.7664e+000 55227 77851,78087,77643
 7.0000e-001 78185 -7.3837e+000 -1.5587e+001 -1.6889e+000 55227 77851,77799,78159
 7.0000e-001 78208 -1.0792e+001 -1.0448e+001 -2.7757e+000 55227 77851,78159,78087
 7.0000e-001 78257 -1.4012e+001 -1.2041e+001  1.2774e+000 55227 77695,78087,78231
 7.0000e-001 78280 -1.4845e+001 -1.4101e+001  1.6937e+000 55227 77695,78231,77721
 7.0000e-001 78737  7.4723e+000  3.1341e+000  2.0961e+000 54773 78463,78541,78515
 7.0000e-001 78714  8.5620e+000  6.9046e+000  8.2905e-001 54773 78463,78619,78541
 7.0000e-001 78691  9.1843e+000  5.8394e+000 -1.4484e+000 54773 78463,78515,78489
 7.0000e-001 78668  1.8583e+000 -1.3090e+000  8.9205e-001 54773 78541,78593,78567
 7.0000e-001 78645  5.8529e+000  1.7676e+000  2.2287e+000 54773 78541,78619,78593
 7.0000e-001 78838 -1.2916e+001 -1.0361e+001 -3.3103e-001 54211 78760,78812,78786
 7.0000e-001 79297  7.0275e+000  1.0363e+001 -1.6909e+000 53814 79520,79153,79049
 7.0000e-001 79274  6.6390e+000  3.3847e+000  6.5908e+000 53814 79520,79049,79023
 7.0000e-001 79251  6.2022e+000  3.9126e+000  5.2694e-001 53814 79320,79101,79049
 7.0000e-001 79228  7.4074e+000  6.9615e+000 -1.3671e+000 53814 79320,79049,79153
 7.0000e-001 79205  6.4279e+000  3.0563e+000  3.8669e-001 53814 79049,79101,79075
 7.0000e-001 79346  6.4084e+000  1.3607e+000 -3.8622e+000 53814 79392,79320,79127
 7.0000e-001 79369  1.2773e+001  9.6022e+000 -6.7057e+000 53814 79127,79320,79153
 7.0000e-001 79418  8.4720e+000  5.0493e+000 -2.7646e+000 53814 79101,79320,79392
 7.0000e-001 79546  1.3475e+001  2.3821e+001 -8.1915e+000 53814 79179,79153,79520
 7.0000e-001 79569  3.9929e+000  1.2812e+001  2.3930e+000 53814 79179,79520,79023
 7.0000e-001 80075 -8.0526e+000 -2.2664e+000 -3.3535e+000 53039 80098,79908,79830
 7.0000e-001 80052 -8.6589e+000 -2.9777e+000 -4.3010e+000 53039 80098,79830,79804
 7.0000e-001 80029 -9.9404e+000 -9.4737e-001 -2.9455e+000 53039 79752,79934,79804
 7.0000e-001 80006 -4.1590e+000 -2.6906e+000 -1.9494e+000 53039 79856,79908,79882
 7.0000e-001 79983 -4.3114e+000 -4.6956e-001 -2.1089e+000 53039 79830,79908,79856
 7.0000e-001 79960 -5.6969e+000  5.7295e+000 -8.1507e-001 53039 79752,79804,79778
 7.0000e-001 80124 -6.4961e+000 -9.5766e-001 -2.2721e+000 53039 79934,79908,80098
 7.0000e-001 80147 -8.0502e+000 -2.3684e+000 -3.3510e+000 53039 79934,80098,79804
 7.0000e-001 80555 -2.3732e+001  1.2856e+001  1.3153e+001 52699 80356,80434,80408
 7.0000e-001 80532 -3.5120e+001 -2.7143e+000  1.8541e+001 52699 80356,80460,80434
 7.0000e-001 80509 -3.7089e+001  5.7409e-001  2.1877e+001 52699 80330,80460,80356
 7.0000e-001 80486 -2.9514e+001 -6.9297e-001  1.4200e+001 52699 80356,80408,80382
 7.0000e-001 80776  7.4842e-001  5.9137e+000  4.9261e-001 52295 80600,80678,80626
 7.0000e-001 80753 -3.1886e+000  4.3983e+000  1.1959e+000 52295 80600,80704,80678
 7.0000e-001 80730 -1.3932e+000  4.9764e+000  3.5763e-001 52295 80626,80678,80652
 7.0000e-001 81156  5.5700e+000  7.1154e+000 -7.1255e-001 51891 81179,80960,80908
 7.0000e-001 81133  7.1905e+000  1.0823e+001 -1.0415e+000 51891 81179,80908,81012
 7.0000e-001 81110  1.1116e+000  7.6843e+000  2.8407e-001 51891 80882,81012,80908
 7.0000e-001 81087  8.7072e+000  4.4737e+000 -5.5614e-001 51891 80908,80960,80934
 7.0000e-001 81064  2.3012e-002  4.4485e+000 -1.8771e-001 51891 80882,81038,81012
 7.0000e-001 81205  5.8686e+000  5.9060e+000 -3.7692e+000 51891 80986,80960,81179
 7.0000e-001 81228  7.6370e+000  1.0420e+001 -3.8420e+000 51891 80986,81179,81012
 7.0000e-001 81606  6.3694e-001  8.2446e+000  1.5962e+000 51544 81410,81462,81436
 7.0000e-001 81583 -5.0405e+000 -7.8799e+000  4.0941e-001 51544 81384,81462,81410
 7.0000e-001 81560  7.4037e-001  4.1456e+000  3.4876e+000 51544 81358,81462,81384
 7.0000e-001 81537 -9.0630e+000  1.5044e+000  9.3699e-001 51544 81358,81488,81462
 7.0000e-001 81514 -9.6015e+000  6.0766e+000  4.7361e-001 51544 81332,81488,81358
 7.0000e-001 81854  1.8647e+000  4.7452e+000  1.1450e+001 51004 81877,81655,81629
 7.0000e-001 81831  1.0646e+000  1.6942e+001  9.1398e+000 51004 81877,81629,81759
 7.0000e-001 81808  6.6634e+000  1.9169e+000  1.2665e+001 51004 81655,81707,81681
 7.0000e-001 81785  1.3090e+000 -2.0777e+000  2.2408e+000 51004 81707,81759,81733
 7.0000e-001 81903  2.3448e+000 -5.0178e-001  1.1706e+001 51004 81707,81655,81877
 7.0000e-001 81926 -3.6985e+000  3.6415e+000  7.2097e+000 51004 81707,81877,81759
 7.0000e-001 82257 -1.4079e+000  3.6331e+000 -1.5622e-001 50642 82058,82136,82110
 7.0000e-001 82234 -1.5837e+000  3.4649e+000 -8.7014e-002 50642 82058,82162,82136
 7.0000e-001 82211  2.4363e-001  5.6787e+000 -2.8283e+000 50642 82058,82110,82084
 7.0000e-001 82188 -2.0417e+000  3.2561e+000  7.7560e-002 50642 82032,82162,82058
 7.0000e-001 82684 -4.0358e+000  3.8175e+000 -8.5184e-002 49931 82779,82707,82465
 7.0000e-001 82661 -2.4852e+000  6.0848e+000 -1.6555e+000 49931 82707,82413,82361
 7.0000e-001 82638 -5.2155e+000  2.6050e+000  1.8230e+000 49931 82779,82465,82439
 7.0000e-001 82615 -6.4908e-001  7.0682e+000 -1.2215e+000 49931 82465,82543,82491
 7.0000e-001 82592 -3.0534e+000  5.9500e+000 -2.3541e+000 49931 82361,82413,82387
 7.0000e-001 82569 -1.5294e+000  5.5217e+000 -8.1933e-001 49931 82491,82543,82517
 7.0000e-001 82733 -1.3812e+000  5.3438e+000 -8.9609e-001 49931 82543,82465,82707
 7.0000e-001 82756 -3.0967e+000  4.6924e+000 -1.4128e+000 49931 82543,82707,82361
 7.0000e-001 82805 -3.1574e+000  6.3457e+000 -1.4020e+000 49931 82413,82707,82779
 7.0000e-001 82828 -3.6985e+000  5.1870e+000  3.6857e-001 49931 82413,82779,82439
 7.0000e-001 83255 -3.0005e+001 -2.2002e+001  1.3800e+000 49327 82984,83114,83036
 7.0000e-001 83232 -3.3225e+001 -2.9262e+001 -9.7310e-001 49327 82958,83114,82984
 7.0000e-001 83209 -3.0455e+001 -3.3679e+001  5.3724e+000 49327 83036,83114,83088
 7.0000e-001 83186 -2.3155e+001 -2.3061e+001 -1.7742e-001 49327 82984,83036,83010
 7.0000e-001 83163 -2.4971e+001 -2.8025e+001 -8.1363e-001 49327 82932,83114,82958
 7.0000e-001 83140 -1.8090e+001 -1.1479e+001  5.0275e-001 49327 83036,83088,83062
 7.0000e-001 83938  1.0694e+000 -1.2611e+001  1.6898e+000 48965 83961,83673,83647
 7.0000e-001 83915  5.0905e+000 -3.9807e+000  5.3209e-001 48965 83961,83647,83543
 7.0000e-001 83892  7.4046e-001 -6.6926e+000 -5.3539e+000 48965 83517,83725,83543
 7.0000e-001 83869  9.8165e+000 -1.7493e+001 -5.5360e+000 48965 83673,83725,83699
 7.0000e-001 83846  7.4717e+000 -1.5767e+000 -9.7033e-001 48965 83543,83647,83621
 7.0000e-001 83823  3.4595e+000 -2.4269e+000  7.7759e-001 48965 83543,83621,83569
 7.0000e-001 83800  5.0992e+000 -5.9853e+000 -9.5584e+000 48965 83517,83751,83725
 7.0000e-001 83777  3.4777e+000 -2.4847e+000  7.0277e-001 48965 83569,83621,83595
 7.0000e-001 83987  4.1980e+000 -1.0054e+001 -3.6407e+000 48965 83725,83673,83961
 7.0000e-001 84010  5.4424e+000 -7.1608e+000 -3.7643e+000 48965 83725,83961,83543
 7.0000e-001 84258  1.3594e+001  8.8294e+000  2.4384e+000 48447 84281,84059,84033
 7.0000e-001 84235  1.1665e+001  5.0549e+000 -6.0918e-001 48447 84281,84033,84163
 7.0000e-001 84212  1.3340e+001  1.0752e+001  3.7849e+000 48447 84059,84111,84085
 7.0000e-001 84189  1.5259e+001  5.0696e+000  1.3534e+000 48447 84111,84163,84137
 7.0000e-001 84307  1.4830e+001  9.3979e+000  4.1824e+000 48447 84111,84059,84281
 7.0000e-001 84330  1.5521e+001  7.7136e+000  1.4667e+000 48447 84111,84281,84163
 7.0000e-001 84529 -8.2415e+000 -2.5994e+000  5.1262e+000 47993 84552,84405,84379
 7.0000e-001 84506 -1.5407e+000 -7.9883e-001  4.2895e+000 47993 84552,84379,84353
 7.0000e-001 84483 -9.4010e+000 -2.8958e+000  4.8692e+000 47993 84624,84457,84431
 7.0000e-001 84578 -8.7485e+000 -1.9341e+000  5.9437e+000 47993 84431,84405,84552
 7.0000e-001 84601 -8.4519e+000 -2.4151e+000  4.6861e+000 47993 84624,84431,84552
 7.0000e-001 84650 -8.4898e+000 -3.4685e+000  5.5844e+000 47993 84353,84457,84624
 7.0000e-001 84673 -7.5232e+000 -3.0514e+000  5.5318e+000 47993 84353,84624,84552
 7.0000e-001 85104 -6.1127e+000  1.9844e+000 -3.4203e+000 47588 85199,85127,84885
 7.0000e-001 85081 -5.8924e+000  6.7960e+000 -2.4810e+000 47588 85127,84781,84963
 7.0000e-001 85058 -6.7979e+000  7.9750e-001 -3.1210e+000 47588 85199,84885,84807
 7.0000e-001 85035 -5.7205e+000 -8.2449e+000 -1.1302e+001 47588 84885,84937,84911
 7.0000e-001 85012 -7.6094e+000 -1.7593e+000 -2.3093e+000 47588 84807,84885,84833
 7.0000e-001 84989 -6.3881e+000 -1.2243e+000 -1.5850e+000 47588 84833,84885,84859
 7.0000e-001 85153 -5.0291e+000  3.4089e+000 -2.8444e+000 47588 84937,84885,85127
 7.0000e-001 85176 -6.2457e+000  3.3868e+000 -3.0359e+000 47588 84937,85127,84963
 7.0000e-001 85225 -6.5859e+000  3.0164e+000 -1.2497e+000 47588 84781,85127,85199
 7.0000e-001 85248 -7.9173e+000  2.4033e-001 -8.3772e-001 47588 84781,85199,84807
 7.0000e-001 85518 -2.7077e+000  6.0606e+000 -4.8326e-001 47226 85293,85397,85319
 7.0000e-001 85495 -2.2104e+000  6.8656e+000 -1.1217e+000 47226 85293,85423,85397
 7.0000e-001 85472 -3.3106e+000  5.7384e+000 -6.5665e-001 47226 85319,85397,85345
 7.0000e-001 85449 -4.1708e+000  2.5138e+000 -7.4089e-001 47226 85345,85397,85371
 7.0000e-001 85849  1.0795e+000 -6.0608e-001  8.2038e-001 46572 85624,85702,85650
 7.0000e-001 85826  4.2200e+000  9.1550e+000  1.8603e+000 46572 85624,85754,85702
 7.0000e-001 85803  4.0167e+000 -9.6145e-001 -1.9268e-001 46572 85702,85754,85728
 7.0000e-001 85780 -2.7685e+000 -1.8487e+000 -2.4149e-001 46572 85650,85702,85676
 7.0000e-001 86070 -1.7904e+001 -3.0712e+001 -1.2921e+000 46374 85920,85972,85946
 7.0000e-001 86047 -9.7178e+000 -1.1403e+001 -3.4642e-001 46374 85920,85998,85972
 7.0000e-001 86024 -1.5648e+001 -1.2548e+001 -4.5220e+000 46374 85894,85998,85920
 7.0000e-001 86401 -3.0548e+000  3.5799e+000 -3.5551e+000 46034 86424,86280,86228
 7.0000e-001 86378 -5.1924e+000  1.1748e+000 -4.5049e+000 46034 86424,86228,86176
 7.0000e-001 86355 -4.9900e+000  9.1758e+000 -1.1035e+001 46034 86176,86228,86202
 7.0000e-001 86332 -2.7745e+000  3.7479e+000  1.2070e+000 46034 86228,86280,86254
 7.0000e-001 86450  2.1350e+000  3.8908e-001 -4.3052e+000 46034 86306,86280,86424
 7.0000e-001 86473 -2.5846e+000 -3.4902e+000 -6.0768e+000 46034 86306,86424,86176
 7.0000e-001 87058 -1.0145e+001 -5.9616e+000 -2.2706e+000 45516 86813,86917,86865
 7.0000e-001 87035 -8.4209e+000 -2.4978e+000 -3.0055e+000 45516 86787,86917,86813
 7.0000e-001 87012 -8.0991e+000  9.7404e+000 -4.1432e+000 45516 86735,86917,86787
 7.0000e-001 86989 -2.6669e+000  2.4340e+000 -5.8828e+000 45516 86865,86917,86891
 7.0000e-001 86966 -9.1640e+000 -6.5197e+000 -2.1075e+000 45516 86813,86865,86839
 7.0000e-001 86943 -1.8594e+001 -4.8811e+000  1.7348e+000 45516 86735,86787,86761
 7.0000e-001 87208 -1.3257e+001 -7.7461e+000  1.2538e+001 45226 87231,87133,87107
 7.0000e-001 87185 -8.6725e+000  1.7194e+000  2.0376e+001 45226 87081,87159,87133
 7.0000e-001 87257 -1.0288e+001 -9.3597e+000  1.1487e+001 45226 87081,87133,87231
 7.0000e-001 87537 -3.9565e+000  1.0319e+001  2.1252e-001 44772 87387,87439,87413
 7.0000e-001 87514 -1.2292e+001  6.8507e+000  4.7821e-001 44772 87361,87439,87387
 7.0000e-001 87491 -1.2469e+001  2.4619e+001 -2.4459e+000 44772 87361,87465,87439
 7.0000e-001 87996 -2.5252e+000  4.6662e+000 -8.5278e-001 44425 87748,87878,87852
 7.0000e-001 87973 -2.6766e+000  4.5034e+000  9.7972e-001 44425 87722,87878,87748
 7.0000e-001 87950 -8.9851e+000  4.4894e+000 -4.8870e-001 44425 87800,87852,87826
 7.0000e-001 87927 -1.5702e+000  6.2238e+000 -1.4114e+000 44425 87748,87852,87800
 7.0000e-001 87904 -5.2202e+000  8.4160e+000 -4.7901e+000 44425 87748,87800,87774
 7.0000e-001 88423  3.5956e-001  4.0396e+000  3.8173e+000 44078 88590,88230,88204
 7.0000e-001 88400  2.1330e+000  3.1337e+000  3.6494e+000 44078 88518,88446,88204
 7.0000e-001 88377  3.5839e+000  2.8122e+000  6.3346e+000 44078 88446,88126,88282
 7.0000e-001 88354 -6.3318e-001  4.2160e+000  2.8716e+000 44078 88518,88204,88178
 7.0000e-001 88331  9.2913e+000  3.0780e+000  9.4264e+000 44078 88100,88282,88126
 7.0000e-001 88308 -3.1307e+000  2.5315e-002 -2.6448e-001 44078 88126,88178,88152
 7.0000e-001 88472  1.1596e+000  5.5670e+000  4.9366e+000 44078 88590,88204,88446
 7.0000e-001 88495  3.2972e+000  7.8453e+000  9.5542e+000 44078 88256,88446,88282
 7.0000e-001 88544 -2.8121e-001  8.9780e-001  2.5563e+000 44078 88126,88446,88518
 7.0000e-001 88567 -2.1319e+000  3.3407e+000  2.2815e+000 44078 88126,88518,88178
 7.0000e-001 88616 -1.2552e+000  2.9161e+001  4.0745e+000 44078 88256,88230,88590
 7.0000e-001 88639 -3.0641e+000  3.0244e+000  7.4538e+000 44078 88256,88590,88446
 7.0000e-001 89039 -4.7686e+000  4.9253e+000 -4.1945e-001 43716 88791,88921,88895
 7.0000e-001 89016 -3.4862e+000  7.8666e+000  4.3913e-001 43716 88765,88921,88791
 7.0000e-001 88993 -4.6130e+000  6.9044e+000 -2.3455e+000 43716 88817,88895,88869
 7.0000e-001 88970  3.5599e+000  9.1900e+000 -1.9195e+000 43716 88791,88895,88817
 7.0000e-001 88947 -1.0283e+001  4.0153e+000 -1.3457e+000 43716 88817,88869,88843
 7.0000e-001 89496 -1.1322e+001 -1.3483e+001 -8.1985e-001 43162 89519,89274,89248
 7.0000e-001 89473 -1.1555e+001 -1.2314e+001 -6.8621e-001 43162 89519,89248,89222
 7.0000e-001 89450 -1.0856e+001 -1.2903e+001  1.0211e+000 43162 89326,89378,89352
 7.0000e-001 89427 -1.0577e+001 -1.1925e+001  3.0044e-001 43162 89274,89378,89326
 7.0000e-001 89404 -1.1317e+001 -1.2969e+001 -5.7384e-002 43162 89274,89326,89300
 7.0000e-001 89545 -1.1157e+001 -1.2511e+001 -7.5108e-001 43162 89378,89274,89519
 7.0000e-001 89568 -1.1331e+001 -1.1257e+001 -6.1601e-001 43162 89378,89519,89222
 7.0000e-001 89946 -7.1455e+000  9.6873e+000 -3.3771e+000 42594 90041,89969,89750
 7.0000e-001 89923 -9.7256e+000  2.4985e+000 -2.1271e+000 42594 89969,89698,89828
 7.0000e-001 89900 -6.0921e+000  1.0320e+001 -3.6547e+000 42594 90041,89750,89724
 7.0000e-001 89877 -5.5626e+000  7.7539e+000 -1.7566e+000 42594 89750,89802,89776
 7.0000e-001 89854 -1.6441e+001 -3.9647e+000 -5.4153e+000 42594 89672,89828,89698
 7.0000e-001 89995 -7.8831e+000  4.9609e+000 -3.5498e+000 42594 89802,89750,89969
 7.0000e-001 90018 -8.1995e+000  3.2945e+000 -4.9162e+000 42594 89802,89969,89828
 7.0000e-001 90067 -5.4508e+000  4.2939e+000 -3.0090e+000 42594 89698,89969,90041
 7.0000e-001 90090 -3.9374e-001  9.1906e+000 -4.9982e+000 42594 89698,90041,89724
 7.0000e-001 90517 -3.8869e+000 -7.1335e+000  1.4646e+000 42140 90540,90220,90194
 7.0000e-001 90494 -7.9830e+000 -1.1010e+001  3.2299e+000 42140 90540,90194,90376
 7.0000e-001 90471 -8.6321e+000 -3.9789e+000  3.9821e+000 42140 90612,90350,90272
 7.0000e-001 90448 -1.6546e+001 -3.2657e+000  3.8603e-001 42140 90272,90350,90298
 7.0000e-001 90425 -1.4324e+001 -1.3030e+000 -2.3262e+000 42140 90298,90350,90324
 7.0000e-001 90402 -7.0849e+000 -9.6006e+000 -1.0928e+000 42140 90220,90272,90246
 7.0000e-001 90566 -7.4459e+000 -9.8993e+000  9.4286e-002 42140 90272,90220,90540
 7.0000e-001 90589 -9.9275e+000 -7.1190e+000  1.4816e+000 42140 90612,90272,90540
 7.0000e-001 90638 -7.2341e+000 -1.6319e+000  5.4377e+000 42140 90376,90350,90612
 7.0000e-001 90661 -4.6544e+000 -3.4450e+000  3.7405e+000 42140 90376,90612,90540
 7.0000e-001 91167 -4.3939e+000  8.4477e+000  5.0143e+000 41636 91190,90870,90844
 7.0000e-001 91144  1.7796e-001  1.6744e+001  3.0305e+000 41636 91190,90844,91026
 7.0000e-001 91121 -2.3022e+000  2.7775e+000  4.9848e+000 41636 90870,90922,90896
 7.0000e-001 91098  5.3718e-001  5.0040e+000  4.1907e+000 41636 90922,91026,90948
 7.0000e-001 91075  1.7222e+000  6.6116e+000  2.9847e+000 41636 90948,91026,91000
 7.0000e-001 91052  2.0710e+000  8.9909e-002  9.6855e-001 41636 90948,91000,90974
 7.0000e-001 91216  1.6036e-001  4.0373e+000  5.4462e+000 41636 90922,90870,91190
 7.0000e-001 91239  1.8093e+000  7.7008e+000  3.8377e+000 41636 90922,91190,91026
 7.0000e-001 91696 -1.1156e+001  3.6508e+000 -6.4943e+000 40449 91448,91526,91474
 7.0000e-001 91673 -3.8729e+000  5.5818e+000 -4.4376e+000 40449 91448,91578,91526
 7.0000e-001 91650 -1.6971e+001  8.6144e+000 -9.5687e+000 40449 91474,91526,91500
 7.0000e-001 91627 -7.4440e+000  5.0331e+000 -4.1687e+000 40449 91422,91578,91448
 7.0000e-001 91604 -1.7733e+000  1.0748e+001 -5.8854e+000 40449 91526,91578,91552
 7.0000e-001 92123 -3.5800e+000  7.6384e+000 -2.8309e+000 39995 92146,91904,91826
 7.0000e-001 92100 -5.0816e+000  7.2723e+000 -9.3209e-001 39995 92146,91826,91800
 7.0000e-001 92077 -1.6869e+000  8.6888e+000 -3.3393e+000 39995 91826,91904,91852
 7.0000e-001 92054 -1.5711e+000  1.6190e+001 -3.7729e+000 39995 91904,91982,91930
 7.0000e-001 92031 -7.4537e+000  7.2153e+000 -9.7364e-001 39995 91852,91904,91878
 7.0000e-001 92008 -6.4760e+000  1.1533e+001 -1.2586e+000 39995 91930,91982,91956
 7.0000e-001 92172 -3.1973e+000  8.6617e+000 -2.8770e+000 39995 91982,91904,92146
 7.0000e-001 92195 -3.5242e+000  1.0623e+001 -1.4223e+000 39995 91982,92146,91800
 7.0000e-001 92652 -1.2339e+001 -1.0132e+001  9.2265e-001 39633 92404,92534,92456
 7.0000e-001 92629 -1.3402e+001 -9.7307e+000  6.0591e-001 39633 92378,92534,92404
 7.0000e-001 92606 -1.9353e+001 -1.3360e+001 -7.7685e-001 39633 92404,92456,92430
 7.0000e-001 92583 -1.2217e+001 -8.5662e+000  1.2201e+000 39633 92456,92534,92508
 7.0000e-001 92560 -1.0546e+001 -1.0040e+001  2.1637e+000 39633 92456,92508,92482
 7.0000e-001 93079 -7.5201e+000 -2.2626e+000  1.8647e+000 39093 93102,92808,92756
 7.0000e-001 93056 -9.3572e+000 -2.3883e+000  1.5172e+000 39093 93102,92756,92938
 7.0000e-001 93033 -7.3305e+000 -1.9492e+000 -1.4872e+000 39093 93174,92912,92834
 7.0000e-001 93010 -3.4089e+000 -6.0650e-001 -9.6601e-001 39093 92834,92912,92860
 7.0000e-001 92987 -4.3386e+000 -1.3724e+000 -8.0598e-001 39093 92756,92808,92782
 7.0000e-001 92964 -3.4283e+000 -1.0890e-001 -4.2499e-001 39093 92860,92912,92886
 7.0000e-001 93128 -8.6690e+000 -4.1859e+000  1.3242e+000 39093 92834,92808,93102
 7.0000e-001 93151 -6.7213e+000 -1.5362e+000  4.6003e-001 39093 93174,92834,93102
 7.0000e-001 93200 -8.6366e+000 -2.6273e+000 -1.1083e+000 39093 92938,92912,93174
 7.0000e-001 93223 -1.0443e+001 -3.0597e+000  6.6123e-001 39093 92938,93174,93102
 7.0000e-001 93680 -1.3417e+001 -6.0152e-001 -9.4466e-001 38639 93703,93536,93484
 7.0000e-001 93657 -1.1383e+001 -1.5609e+000 -1.4293e+000 38639 93703,93484,93432
 7.0000e-001 93634 -1.5821e+001  7.5728e-001 -5.9602e+000 38639 93432,93484,93458
 7.0000e-001 93611 -1.4950e+001 -2.8089e+000  2.9865e+000 38639 93484,93536,93510
 7.0000e-001 93588 -8.4987e+000 -3.3897e+000 -1.5425e+000 38639 93406,93562,93432
 7.0000e-001 93729 -1.1666e+001 -1.4869e+000 -6.4775e-001 38639 93562,93536,93703
 7.0000e-001 93752 -8.1901e+000 -1.1035e+000 -1.7078e+000 38639 93562,93703,93432
 7.0000e-001 94160  7.9473e+000  7.4179e+000  1.2649e+000 38292 93935,94039,93961
 7.0000e-001 94137  8.1362e+000  7.9268e+000  1.1932e+000 38292 93935,94065,94039
 7.0000e-001 94114  4.2684e+000  4.0494e+000  7.2831e-001 38292 93961,94013,93987
 7.0000e-001 94091  6.6151e+000  5.0448e+000  1.8895e+000 38292 93961,94039,94013
 7.0000e-001 94408 -1.4012e+001  4.6576e+000 -4.7211e+000 37880 94431,94261,94235
 7.0000e-001 94385 -1.3974e+001  4.1787e+000 -4.6989e+000 37880 94431,94235,94313
 7.0000e-001 94362 -1.5315e+001  4.4259e+000 -2.7082e+000 37880 94209,94313,94235
 7.0000e-001 94339 -1.6104e+001  6.7157e+000 -9.6633e+000 37880 94183,94313,94209
 7.0000e-001 94457 -1.4149e+001  4.2193e+000 -4.5714e+000 37880 94287,94261,94431
 7.0000e-001 94480 -1.3925e+001  3.9284e+000 -4.6375e+000 37880 94287,94431,94313
 7.0000e-001 94728 -3.4835e+000  2.3747e+001 -6.0397e+000 37426 94529,94607,94555
 7.0000e-001 94705 -1.0115e+001  1.9558e+001 -2.9685e+000 37426 94529,94633,94607
 7.0000e-001 94682 -1.2685e+001  2.0157e+001 -2.7136e+000 37426 94503,94633,94529
 7.0000e-001 94659 -3.0946e+001 -2.2391e+001  1.6024e+001 37426 94555,94607,94581
 7.0000e-001 95257 -4.8563e+000  3.4817e+000  1.7183e+000 36722 95496,95280,94862
 7.0000e-001 95234 -5.0534e+000  2.8240e+000 -2.0927e+000 36722 95496,94862,94836
 7.0000e-001 95211 -9.2071e-001  4.4766e+000  3.9887e+000 36722 95352,95280,95070
 7.0000e-001 95188 -1.9110e+000  3.4052e+000  4.6757e+000 36722 95352,95070,95044
 7.0000e-001 95165 -2.9434e-001  4.3175e+000 -5.0289e+000 36722 95424,94888,94862
 7.0000e-001 95142 -1.5619e+001  1.6410e+001  1.0710e+001 36722 94914,94966,94940
 7.0000e-001 95119 -2.3730e+000  6.5459e+000  4.3961e+000 36722 94966,95044,95018
 7.0000e-001 95096  7.1742e-001  9.3710e+000  7.1724e+000 36722 94966,95018,94992
 7.0000e-001 95306 -9.0317e+000  6.6564e+000 -8.8286e-001 36722 95424,94862,95280
 7.0000e-001 95329 -7.8357e+000  1.3799e+001  1.7776e+000 36722 94914,95280,94966
 7.0000e-001 95378 -2.4767e+000  4.3901e+000  4.8069e+000 36722 94966,95280,95352
 7.0000e-001 95401 -2.9445e+000  4.4147e+000  5.1981e+000 36722 94966,95352,95044
 7.0000e-001 95450 -1.3485e+001  7.3184e-001 -5.6972e+000 36722 94914,94888,95424
 7.0000e-001 95473 -1.5265e+001  3.1677e+000 -2.3923e+000 36722 94914,95424,95280
 7.0000e-001 95522 -5.0103e+000  1.3922e+000  1.8146e+000 36722 95070,95280,95496
 7.0000e-001 95545 -4.0916e+000  6.9504e-001  1.2868e+000 36722 95070,95496,94836
 7.0000e-001 96130 -4.9075e+000 -9.8681e-001  2.7540e+000 36268 96153,95911,95859
 7.0000e-001 96107 -5.2329e+000  1.1161e+000  2.6428e+000 36268 96153,95859,95807
 7.0000e-001 96084 -3.0014e+000  1.1695e+001  7.6569e+000 36268 95807,95859,95833
 7.0000e-001 96061 -5.1877e+000 -3.3615e+000  4.1257e-001 36268 95911,95989,95937
 7.0000e-001 96038 -2.7190e+000  9.1990e-001  7.3248e+000 36268 95859,95911,95885
 7.0000e-001 96015 -4.8380e+000 -1.6806e+000 -5.6457e-001 36268 95937,95989,95963
 7.0000e-001 96179 -5.3213e+000  6.9651e-001  2.2660e+000 36268 95989,95911,96153
 7.0000e-001 96202 -5.2546e+000  3.3279e+000  2.1771e+000 36268 95989,96153,95807
 7.0000e-001 96531 -3.1581e+000  1.7381e+001 -8.2179e+000 35728 96358,96410,96384
 7.0000e-001 96508 -2.6946e+000  1.7925e+001 -8.4736e+000 35728 96332,96410,96358
 7.0000e-001 96485 -3.5129e+000  1.7298e+001 -7.5314e+000 35728 96332,96436,96410
 7.0000e-001 96462 -1.1744e+001  1.0324e+001 -3.2390e+000 35728 96306,96436,96332
 7.0000e-001 96860  8.6203e+000  1.2844e+001 -3.3837e+000 35324 96687,96765,96713
 7.0000e-001 96837  5.8220e+000  5.9854e+000 -4.0609e+000 35324 96661,96765,96687
 7.0000e-001 96814  8.7790e+000  1.0001e+001 -1.8501e+000 35324 96713,96765,96739
 7.0000e-001 96791  8.9891e+000  6.0870e+000 -3.6282e+000 35324 96635,96765,96661
 7.0000e-001 97366 -2.9080e+000  5.5382e-001 -6.1743e-001 34920 97389,97069,97043
 7.0000e-001 97343 -3.6639e+000  1.3507e+000 -1.7762e+000 34920 97389,97043,97199
 7.0000e-001 97320  2.2671e+000  1.7447e+001 -2.9389e+000 34920 97043,97225,97199
 7.0000e-001 97297  1.3798e+000 -2.5667e-002 -1.6708e+000 34920 97069,97121,97095
 7.0000e-001 97274 -5.5512e+000 -2.7754e+000 -5.1299e+000 34920 97121,97199,97173
 7.0000e-001 97251 -2.8475e+000 -1.0890e+000 -5.8643e+000 34920 97121,97173,97147
 7.0000e-001 97415 -2.2547e+000  9.8164e-001 -1.2835e+000 34920 97121,97069,97389
 7.0000e-001 97438 -1.8951e+000  2.7522e+000 -2.6193e+000 34920 97121,97389,97199
 7.0000e-001 97708 -1.5678e+001 -7.1098e+000  1.9909e+000 34722 97509,97587,97535
 7.0000e-001 97685 -2.0004e+001 -3.3823e+000  2.0996e+000 34722 97509,97613,97587
 7.0000e-001 97662 -1.0734e+001  1.8319e+000  4.6047e+000 34722 97483,97613,97509
 7.0000e-001 97639 -1.2961e+001 -7.2022e+000 -2.2328e-001 34722 97535,97587,97561
 7.0000e-001 98216 -1.1759e+001  1.0688e+001 -6.4588e+000 34318 97971,98075,97997
 7.0000e-001 98193 -1.1134e+001  1.3971e+001 -7.3309e+000 34318 97893,98075,97971
 7.0000e-001 98170 -1.6103e+001 -2.9756e-001 -5.5365e+000 34318 97893,97971,97919
 7.0000e-001 98147 -1.0595e+001  1.3222e+001 -6.7850e+000 34318 97997,98075,98049
 7.0000e-001 98124 -1.8819e+000  7.3825e+000 -8.7343e+000 34318 97919,97971,97945
 7.0000e-001 98101 -5.3568e+000  2.5015e+001 -8.0483e+000 34318 97997,98049,98023
 7.0000e-001 98594 -6.4991e+000 -7.8035e-001 -2.2503e+000 33814 98961,98617,98424
 7.0000e-001 98571 -8.4984e+000 -7.8814e-001 -3.1363e+000 33814 98689,98617,98372
 7.0000e-001 98548 -7.1371e+000 -5.0746e+000 -3.1189e+000 33814 99033,98689,98372
 7.0000e-001 98525 -5.8579e+000 -2.9031e+000 -2.9200e+000 33814 98761,98476,98450
 7.0000e-001 98502 -4.1107e+000 -2.9223e+000 -1.6697e+000 33814 98961,98424,98398
 7.0000e-001 98643 -5.3491e+000 -2.9665e-001 -2.1862e+000 33814 98450,98424,98617
 7.0000e-001 98666 -7.1385e+000 -3.3429e+000 -2.9328e+000 33814 98761,98450,98617
 7.0000e-001 98715 -5.1998e+000 -4.3303e-001 -3.2760e+000 33814 99161,98689,98320
 7.0000e-001 98738 -3.2642e+000  1.4579e+000 -4.0426e+000 33814 98320,98689,98346
 7.0000e-001 98787 -2.6414e+000 -9.3273e-001 -4.5991e+000 33814 98833,98761,98320
 7.0000e-001 98810 -5.3668e+000 -3.7079e-001 -3.4721e+000 33814 99161,98320,98761
 7.0000e-001 98859 -7.1620e+000 -7.0240e+000 -2.3677e+000 33814 98476,98761,98833
 7.0000e-001 98987 -9.2427e+000 -2.6788e+000 -1.2798e+000 33814 98372,98617,98961
 7.0000e-001 99010 -7.4677e+000 -5.6329e+000 -2.9657e-001 33814 98372,98961,98398
 7.0000e-001 99059 -3.1398e+000  3.2547e+000 -1.3117e+000 33814 98346,98689,99033
 7.0000e-001 99187 -5.3349e+000 -6.0099e-001 -3.4202e+000 33814 98617,98689,99161
 7.0000e-001 99210 -5.5692e+000 -5.4172e-001 -3.6119e+000 33814 98617,99161,98761
 7.0000e-001 99588 -1.8111e+001 -1.2036e+001 -2.5246e+000 33566 99366,99444,99392
 7.0000e-001 99565 -1.7671e+001 -8.6623e+000 -1.7929e+000 33566 99314,99444,99366
 7.0000e-001 99542 -1.8099e+001 -4.2100e+000  8.5635e-001 33566 99314,99366,99340
 7.0000e-001 99519 -2.5396e+001 -7.1638e+000 -7.9743e+000 33566 99314,99470,99444
 7.0000e-001 99496 -1.2104e+001 -5.1754e+000 -6.4916e+000 33566 99392,99444,99418
 7.0000e-001 99787 -8.1010e+000  4.5317e+001 -3.6743e+001 33105 99637,99689,99663
 7.0000e-001 99764 -1.3599e+001  2.7417e+001 -9.9218e+000 33105 99611,99689,99637
 7.0000e-001 99741 -2.9888e+001  1.5135e+001 -1.8600e-001 33105 99611,99715,99689
 7.0000e-001 100167  1.1801e+001  1.3296e+001  2.4324e+000 32651 100190,99971,99919
 7.0000e-001 100144  1.5823e+001  1.2740e+001  1.5829e+000 32651 100262,100190,99919
 7.0000e-001 100121  1.6062e+001  1.2717e+001  1.7087e+000 32651 100262,99919,100049
 7.0000e-001 100098  1.5429e+001  1.2439e+001  1.8887e+000 32651 99893,100049,99919
 7.0000e-001 100075  1.3138e+001  1.4025e+001  3.2104e+000 32651 99919,99971,99945
 7.0000e-001 100216  1.5739e+001  1.5511e+001  3.4069e+000 32651 99997,99971,100190
 7.0000e-001 100239  1.6043e+001  1.2868e+001  1.9406e+000 32651 99997,100190,100023
 7.0000e-001 100288  1.6205e+001  1.2772e+001  1.6810e+000 32651 100023,100190,100262
 7.0000e-001 100311  1.6969e+001  1.3022e+001  1.7554e+000 32651 100023,100262,100049
 7.0000e-001 100608  6.2978e+000  1.1360e+001 -1.4611e+001 32254 100386,100490,100464
 7.0000e-001 100585  1.0755e+001  1.4010e+001 -1.1311e+001 32254 100360,100490,100386
 7.0000e-001 100562  1.1392e+001 -2.4567e-001 -2.2205e+001 32254 100386,100464,100412
 7.0000e-001 100539 -4.8688e+000  1.2329e+001 -1.5334e+000 32254 100334,100490,100360
 7.0000e-001 100516  1.1289e+001 -6.9933e+000 -2.0930e+001 32254 100412,100464,100438
 7.0000e-001 100758  6.8696e+000  7.1867e+000 -6.0615e+000 31914 100985,100781,100683
 7.0000e-001 100735  3.9959e+000  1.5518e+001 -4.0774e+000 31914 100853,100781,100657
 7.0000e-001 100807  2.2405e+001  1.6028e+001 -1.6640e+001 31914 100709,100683,100781
 7.0000e-001 100830  5.1241e-001  8.7115e+000 -1.0110e+001 31914 100709,100781,100631
 7.0000e-001 100879  1.7616e+000  1.2690e+000 -2.6889e+000 31914 100631,100781,100853
 7.0000e-001 101011  1.0319e+001  1.7249e+001 -5.3297e+000 31914 100657,100781,100985
 7.0000e-001 101191 -2.6441e+001  3.7372e+001 -6.5721e+000 31418 101113,101165,101139
 7.0000e-001 101341 -3.3785e+001 -7.3525e+000  1.9096e+000 31106 101214,101266,101240
 7.0000e-001 101318 -2.8737e+001  7.5653e+000  4.1417e+000 31106 101214,101292,101266
 7.0000e-001 101591 -3.5364e+001 -1.1829e+001  1.2297e+000 30552 101614,101470,101444
 7.0000e-001 101568 -2.5901e+001 -6.1132e+000  4.8055e+000 30552 101366,101496,101470
 7.0000e-001 101545 -3.9552e+001 -1.6158e+001  3.9180e+000 30552 101614,101444,101392
 7.0000e-001 101522 -2.4749e+001 -2.7692e+000 -3.0380e+000 30552 101392,101444,101418
 7.0000e-001 101640 -4.0967e+001 -9.4686e+000  5.2084e+000 30552 101366,101470,101614
 7.0000e-001 101663 -4.4641e+001 -1.3243e+001  7.7977e+000 30552 101366,101614,101392
 7.0000e-001 102301 -4.0993e+000  2.8198e+000 -1.2002e+000 30042 102396,102324,102059
 7.0000e-001 102278 -5.7529e+000  5.0636e-001  2.7993e-001 30042 102324,101981,101955
 7.0000e-001 102255 -2.3644e+000  1.7348e+000 -3.0500e+000 30042 102396,102059,102033
 7.0000e-001 102232 -4.5496e+000  5.7428e-001  2.9706e-001 30042 101929,102111,101955
 7.0000e-001 102209 -8.8753e+000  3.0541e+000  1.4566e+000 30042 102059,102111,102085
 7.0000e-001 102186 -9.1915e+000  1.4867e+000 -6.4963e+000 30042 101929,102137,102111
 7.0000e-001 102163 -6.4647e+000 -3.3686e+000 -1.3625e+000 30042 101981,102033,102007
 7.0000e-001 102350 -5.7015e+000  1.6572e+000  1.9227e-002 30042 102111,102059,102324
 7.0000e-001 102373 -5.8717e+000  4.5835e-001  2.8206e-001 30042 102111,102324,101955
 7.0000e-001 102422 -6.5291e+000 -1.2526e+000 -1.7760e-001 30042 101981,102324,102396
 7.0000e-001 102445 -4.7388e+000 -2.3249e+000 -2.0698e+000 30042 101981,102396,102033
 7.0000e-001 103000  1.7754e+000  4.1363e-001 -2.0594e+000 29730 103023,102706,102654
 7.0000e-001 102977  6.2128e+000  3.6562e+000 -3.7921e+000 29730 103023,102654,102810
 7.0000e-001 102954  5.5894e+000 -1.4608e+001 -3.3059e+000 29730 102732,102810,102784
 7.0000e-001 102931 -2.4617e+000 -4.4865e+000 -7.1527e+000 29730 102628,102810,102654
 7.0000e-001 102908  2.1931e+000  5.5999e+000 -1.2374e+000 29730 102654,102706,102680
 7.0000e-001 102885  1.1938e+001 -1.2289e+000 -1.3378e+000 29730 102732,102784,102758
 7.0000e-001 102862 -2.0014e+000 -2.8198e+000 -1.2125e+001 29730 102628,102836,102810
 7.0000e-001 103049  3.8496e+000 -2.8772e+000  9.2964e-001 29730 102732,102706,103023
 7.0000e-001 103072  6.7728e+000  2.6794e-001 -5.0910e-001 29730 102732,103023,102810
 7.0000e-001 103222 -5.2793e+001 -6.0862e+000  3.7323e-001 29226 103095,103147,103121
 7.0000e-001 103199 -8.3293e+001 -2.2843e+001  7.9950e+000 29226 103095,103173,103147
 7.0000e-001 103730 -1.6700e+001 -7.5804e-001  3.8089e+000 28822 103537,103589,103563
 7.0000e-001 103707 -1.2967e+001 -1.3864e+000  1.4805e+000 28822 103433,103589,103537
 7.0000e-001 103684 -8.9023e+000 -1.6356e+000  4.8351e+000 28822 103433,103537,103459
 7.0000e-001 103661 -1.1717e+001  2.0626e+000  2.1251e+000 28822 103407,103589,103433
 7.0000e-001 103638 -1.1380e+001 -7.9440e+000  2.2492e+000 28822 103459,103511,103485
 7.0000e-001 103615 -1.0991e+001 -7.3354e+000  1.9788e+000 28822 103459,103537,103511
 7.0000e-001 103880 -9.1216e+000  1.9916e+000 -6.4459e-001 28368 103975,103903,103779
 7.0000e-001 103857 -9.3822e+000  8.2671e+000 -2.3482e+000 28368 103903,103753,103831
 7.0000e-001 103929 -9.0168e+000 -3.5242e-003 -4.0361e-001 28368 103805,103779,103903
 7.0000e-001 103952 -1.1715e+001  2.8870e-001 -3.1222e+000 28368 104105,103903,103831
 7.0000e-001 104001 -9.6605e+000  1.3653e+000 -1.3499e+000 28368 103753,103903,103975
 7.0000e-001 104131 -1.1609e+001  1.8243e+000 -5.2545e-001 28368 103805,103903,104105
 7.0000e-001 104539  6.8576e+000  1.0997e+001  6.9615e+000 28028 104562,104340,104314
 7.0000e-001 104516  6.5942e+000  1.3021e+001  7.5498e+000 28028 104634,104562,104314
 7.0000e-001 104493  3.3020e+000  8.3118e+000  6.7829e+000 28028 104762,104366,104340
 7.0000e-001 104470  4.6064e+000  3.6191e+000  2.6593e+000 28028 104366,104418,104392
 7.0000e-001 104588  4.4666e+000  9.4997e+000  6.0370e+000 28028 104762,104340,104562
 7.0000e-001 104611  8.5613e+000  1.2358e+001  5.1260e+000 28028 104418,104562,104444
 7.0000e-001 104660  4.4177e+000  1.0771e+001  6.6492e+000 28028 104444,104562,104634
 7.0000e-001 104788  5.1788e+000  6.8966e+000  6.8952e+000 28028 104418,104366,104762
 7.0000e-001 104811  5.9212e+000  7.6641e+000  6.2354e+000 28028 104418,104762,104562
 7.0000e-001 105010  5.7103e+000  6.9783e+000 -5.1773e+000 27324 105033,104886,104860
 7.0000e-001 104987  1.1065e+001  7.0843e+000 -1.0946e+001 27324 105033,104860,104834
 7.0000e-001 104964  5.0939e+000  3.5585e+000 -4.2570e+000 27324 105105,104912,104886
 7.0000e-001 105059  4.8222e+000  3.7635e+000 -4.2947e+000 27324 105105,104886,105033
 7.0000e-001 105082  6.6173e+000 -4.3986e-001 -9.0325e+000 27324 104938,105033,104834
 7.0000e-001 105131  5.2595e+000  3.7630e+000 -4.4130e+000 27324 104938,104912,105105
 7.0000e-001 105154  5.0724e+000  4.1008e+000 -4.4547e+000 27324 104938,105105,105033
 7.0000e-001 105402 -7.9280e+001 -2.6294e+001 -4.4911e+000 27012 105229,105281,105255
 7.0000e-001 105379 -7.1299e+001 -3.2894e+001 -3.1969e+000 27012 105229,105307,105281
 7.0000e-001 105356 -4.9638e+001 -2.5366e+001  1.9075e-001 27012 105177,105307,105229
 7.0000e-001 105333 -5.7035e+001 -2.4762e+001 -8.4451e+000 27012 105177,105229,105203
 7.0000e-001 105603  9.3726e+000  1.4984e+001 -1.4221e+001 26508 105626,105453,105427
 7.0000e-001 105580  4.3819e+000  3.2020e+000 -1.2383e+001 26508 105626,105427,105505
 7.0000e-001 105557  2.2130e+001 -2.5794e+000 -6.5609e+000 26508 105427,105531,105505
 7.0000e-001 105652  5.6558e+000  1.3085e+001 -7.7463e+000 26508 105479,105453,105626
 7.0000e-001 105675  3.3234e+000  8.2168e+000 -6.1368e+000 26508 105479,105626,105505
 7.0000e-001 106057 -1.3728e+001 -1.0539e+000 -9.6020e+000 25947 106080,105887,105861
 7.0000e-001 106034 -1.1989e+001  8.3336e-001 -1.3137e+001 25947 106080,105861,105783
 7.0000e-001 106011 -2.8684e+000  5.9866e-001 -1.7788e+001 25947 105783,105835,105809
 7.0000e-001 105988 -1.7363e+001  1.1390e+001 -1.3305e+001 25947 105783,105861,105835
 7.0000e-001 105965 -1.4182e+001  6.5388e+000 -1.4080e+001 25947 105887,105939,105913
 7.0000e-001 106106 -1.2245e+001  3.3132e-001 -1.1545e+001 25947 105939,105887,106080
 7.0000e-001 106129 -7.5082e+000  4.6106e+000 -1.5526e+001 25947 105939,106080,105783
 7.0000e-001 106714  1.0817e+001  1.3573e+001 -5.2115e+000 25557 106809,106737,106547
 7.0000e-001 106691  1.0176e+001  1.3219e+001  2.2466e+000 25557 106737,106417,106391
 7.0000e-001 106668  1.3874e+001  1.0885e+001 -4.0037e+000 25557 106809,106547,106495
 7.0000e-001 106645  1.2359e+001  1.0392e+001 -3.2876e+000 25557 106417,106495,106469
 7.0000e-001 106622  1.2545e+001  1.0123e+001 -4.3640e+000 25557 106495,106547,106521
 7.0000e-001 106599  1.2808e+001  9.9345e+000 -3.1638e+000 25557 106417,106469,106443
 7.0000e-001 106763  1.6305e+001  2.3265e+001 -7.4033e+000 25557 106573,106547,106737
 7.0000e-001 106786  1.3850e+001  2.1254e+001  1.0004e+000 25557 106573,106737,106391
 7.0000e-001 106835  1.3712e+001  2.0692e+001 -3.7904e+000 25557 106417,106737,106809
 7.0000e-001 106858  1.4175e+001  1.4618e+001 -3.8068e+000 25557 106417,106809,106495
 7.0000e-001 107364 -4.1145e+000  2.7712e+000  1.4529e+000 25153 107459,107387,107171
 7.0000e-001 107341 -1.5386e+000  6.2892e+000  2.8169e+000 25153 107387,107119,107067
 7.0000e-001 107318 -4.1682e+000  1.1262e+000 -2.7472e-001 25153 107459,107171,107145
 7.0000e-001 107295 -1.0383e+001  2.9215e+000 -2.6574e+000 25153 107531,107223,107197
 7.0000e-001 107272 -3.2483e+000  2.8848e+000  3.6395e+000 25153 107067,107119,107093
 7.0000e-001 107249 -2.1640e+001  2.2940e+001 -2.7654e-001 25153 107041,107223,107067
 7.0000e-001 107413  7.5852e+000  8.2298e+000 -6.7272e-002 25153 107197,107171,107387
 7.0000e-001 107436 -7.1644e+000  3.3383e+000 -1.4016e+000 25153 107531,107197,107387
 7.0000e-001 107485 -5.3513e+000 -3.2118e-001  7.3528e-001 25153 107119,107387,107459
 7.0000e-001 107508 -5.7999e+000 -1.7620e+000 -1.2181e+000 25153 107119,107459,107145
 7.0000e-001 107557 -1.1949e+001  4.5933e+000  1.2904e+000 25153 107067,107223,107531
 7.0000e-001 107580 -7.7240e+000  6.4424e+000  2.7778e+000 25153 107067,107531,107387
 7.0000e-001 107958 -2.1857e+001 -1.4321e+000 -6.6442e+000 24741 107736,107814,107788
 7.0000e-001 107935 -2.6184e+001 -6.0570e+000 -1.0006e+001 24741 107736,107840,107814
 7.0000e-001 107912 -1.6587e+001  2.6628e+000 -5.3924e+000 24741 107684,107840,107736
 7.0000e-001 107889 -4.1854e+001  9.5659e+000 -9.3516e+000 24741 107736,107788,107762
 7.0000e-001 107866 -1.8667e+001 -1.2356e-001 -3.6376e+000 24741 107684,107736,107710
 7.0000e-001 108157 -3.2825e+001 -1.0359e+001  5.4591e+000 24237 108180,108059,108007
 7.0000e-001 108134 -3.2346e+001  3.6116e+000  1.8305e+001 24237 108180,108007,107981
 7.0000e-001 108111 -3.3466e+001  2.1843e+000  2.8283e+000 24237 108007,108059,108033
 7.0000e-001 108206 -2.5980e+001  3.9962e+000  9.1274e+000 24237 108085,108059,108180
 7.0000e-001 108229 -2.5646e+001  1.7947e+001  2.1894e+001 24237 108085,108180,107981
 7.0000e-001 108658  5.4489e+000  2.4336e+000 -4.9918e-001 23776 108361,108413,108387
 7.0000e-001 108635 -1.3548e+000 -8.9980e+000 -2.9499e+000 23776 108753,108681,108361
 7.0000e-001 108612 -1.8074e+000 -1.0574e+000 -1.5192e+000 23776 108681,108465,108439
 7.0000e-001 108589 -2.5525e-001 -1.1403e+001 -5.7290e-001 23776 108753,108361,108335
 7.0000e-001 108566 -2.5293e-001 -3.1126e+000 -2.0877e+000 23776 108335,108517,108465
 7.0000e-001 108543 -1.8610e-001 -3.5151e+000 -2.0038e+000 23776 108465,108517,108491
 7.0000e-001 108707  1.3675e+000 -8.5291e-001 -4.1679e+000 23776 108413,108361,108681
 7.0000e-001 108730 -1.1485e+000  4.5037e+000 -6.3051e-001 23776 108413,108681,108439
 7.0000e-001 108779 -4.6544e-001 -2.2371e-001 -3.5816e+000 23776 108465,108681,108753
 7.0000e-001 108802 -1.9236e+000 -6.8335e+000 -1.7386e+000 23776 108465,108753,108335
 7.0000e-001 109023 -3.4756e+001  4.8843e+000  4.3881e+000 23414 108873,108925,108899
 7.0000e-001 109000 -4.4870e+001  1.7380e+000  4.6578e+000 23414 108847,108925,108873
 7.0000e-001 108977 -3.0928e+001  3.5290e+001  4.5611e+000 23414 108847,108951,108925
 7.0000e-001 109474 -2.2042e+001 -5.5572e+000 -2.8326e+000 23024 109151,109307,109177
 7.0000e-001 109451 -2.2683e+001  5.6799e+000 -3.6924e+000 23024 109151,109333,109307
 7.0000e-001 109428 -1.4365e+001 -5.8540e+000 -5.7735e-001 23024 109177,109281,109203
 7.0000e-001 109405 -1.0698e+001 -2.4711e+000 -2.1785e+000 23024 109177,109307,109281
 7.0000e-001 109382 -1.0940e+001 -4.6284e+000 -2.4466e-001 23024 109203,109281,109229
 7.0000e-001 109359 -8.4279e+000 -3.7813e+000  1.1695e+000 23024 109229,109281,109255
 7.0000e-001 109820 -3.4392e+000  8.5327e-001 -2.2534e+000 22506 109843,109601,109523
 7.0000e-001 109797 -7.6889e+000  2.0250e+000 -2.6249e+000 22506 109843,109523,109497
 7.0000e-001 109774 -8.3846e+000  6.6958e-001 -2.6687e+000 22506 109915,109653,109627
 7.0000e-001 109751 -1.0367e+001  1.2357e+000 -1.3834e+000 22506 109497,109679,109653
 7.0000e-001 109728 -4.0754e+000 -5.3439e-001 -8.5662e-001 22506 109523,109601,109575
 7.0000e-001 109705 -7.7715e-001  6.5369e+000  5.6482e-001 22506 109523,109575,109549
 7.0000e-001 109869 -7.4364e+000 -2.2202e+000 -3.5906e+000 22506 109627,109601,109843
 7.0000e-001 109892 -8.1843e+000  1.1043e+000 -2.6154e+000 22506 109915,109627,109843
 7.0000e-001 109941 -8.4352e+000  1.0876e+000 -2.9560e+000 22506 109497,109653,109915
 7.0000e-001 109964 -8.4123e+000  1.1373e+000 -2.9444e+000 22506 109497,109915,109843
 7.0000e-001 110163 -2.0553e+000  4.6062e+000 -1.7962e+000 21936 110186,110039,110013
 7.0000e-001 110140  5.1821e+000  1.0378e+001  8.6979e-001 21936 110390,110186,110013
 7.0000e-001 110117  4.1240e+000  6.8943e+000  7.9299e-001 21936 110390,110013,109987
 7.0000e-001 110212  3.3951e+000  1.9443e+001  3.2421e+000 21936 110065,110039,110186
 7.0000e-001 110235  5.3874e+000  4.2056e+000  6.5372e+000 21936 110258,110186,110091
 7.0000e-001 110284  1.0529e+001  1.3621e+001  9.9928e+000 21936 110065,110186,110258
 7.0000e-001 110416  7.2843e+000  5.8587e+000  2.7336e+000 21936 110091,110186,110390
 7.0000e-001 110439  6.3005e+000  2.4321e+000  2.4699e+000 21936 110091,110390,109987
 7.0000e-001 110709 -1.5106e+001 -4.3417e+000  4.9948e-001 21338 110510,110614,110588
 7.0000e-001 110686 -1.5073e+001 -7.5349e+000  5.0301e-002 21338 110484,110614,110510
 7.0000e-001 110663 -1.7641e+001 -9.2461e+000  2.8912e-001 21338 110510,110562,110536
 7.0000e-001 110640 -1.5053e+001 -3.4620e+000 -5.2667e-001 21338 110510,110588,110562
 7.0000e-001 111296 -1.2247e+001 -6.2866e+000  3.5637e+000 20934 111025,111155,111103
 7.0000e-001 111273 -1.2651e+001 -7.1112e+000  3.7097e+000 20934 110999,111155,111025
 7.0000e-001 111250 -1.9223e+001 -9.5204e+000  4.6830e+000 20934 111103,111155,111129
 7.0000e-001 111227 -1.1133e+001 -4.6757e+000  5.2461e+000 20934 111051,111103,111077
 7.0000e-001 111204 -1.0584e+001 -6.5038e+000  4.2468e+000 20934 111025,111103,111051
 7.0000e-001 111181 -1.2449e+001 -8.6653e+000  3.8055e+000 20934 110973,111155,110999
 7.0000e-001 111930 -1.5157e+000  2.1390e+000 -1.5822e+001 20494 111662,111714,111688
 7.0000e-001 111907  1.5713e+001  5.9723e+000 -1.2917e+001 20494 111584,111714,111662
 7.0000e-001 111884  9.2358e+000  2.5553e+000 -1.1460e+001 20494 111584,111766,111714
 7.0000e-001 111861  1.4451e+001  4.0259e+000 -7.6476e+000 20494 111584,111636,111610
 7.0000e-001 111838  1.0355e+001  1.8161e+000 -9.8000e+000 20494 111584,111662,111636
 7.0000e-001 111815  9.8355e+000  3.6722e+000 -1.0081e+001 20494 111558,111766,111584
 7.0000e-001 111792  9.8800e+000  4.1629e+000 -1.1310e+001 20494 111714,111766,111740
 7.0000e-001 112249 -1.9148e+001 -5.5345e+000  1.2270e+000 19940 111975,112053,112001
 7.0000e-001 112226 -2.1892e+001  1.2442e-001  8.5624e+000 19940 111975,112131,112053
 7.0000e-001 112203 -3.0660e+001  1.8871e-001  0.0000e+000 19940 112053,112105,112079
 7.0000e-001 112180 -2.5488e+001  2.4992e+000  9.2967e-001 19940 112053,112131,112105
 7.0000e-001 112157 -8.9799e+000 -7.2730e-001 -1.7151e-001 19940 112001,112053,112027
 7.0000e-001 112757 -1.6579e+001 -5.1681e-001  4.4455e+000 19486 112780,112538,112486
 7.0000e-001 112734 -1.6838e+001 -1.6807e+000  1.1930e+000 19486 112780,112486,112460
 7.0000e-001 112711 -1.3657e+001 -3.3760e+000  2.6388e+000 19486 112852,112616,112590
 7.0000e-001 112688 -2.5736e+001  5.3721e+000  5.7896e+000 19486 112486,112538,112512
 7.0000e-001 112665 -1.3462e+001 -5.5082e+000  2.0163e+000 19486 112434,112616,112460
 7.0000e-001 112642 -1.1629e+001 -1.0820e+000  5.7859e+000 19486 112538,112590,112564
 7.0000e-001 112806 -1.2084e+001  7.1254e-001  5.9331e+000 19486 112590,112538,112780
 7.0000e-001 112829 -1.6286e+001 -2.2953e+000  3.4340e+000 19486 112852,112590,112780
 7.0000e-001 112878 -1.2126e+001 -1.9867e+000  1.9866e+000 19486 112460,112616,112852
 7.0000e-001 112901 -1.3686e+001  1.6252e-001  2.4048e+000 19486 112460,112852,112780
 7.0000e-001 113252  6.1456e+000  1.0278e+001  7.9120e-001 19096 113105,113157,113131
 7.0000e-001 113229  2.1967e+000  4.9832e+000 -9.5992e-001 19096 113053,113157,113105
 7.0000e-001 113206  1.7951e-002  4.0555e+000 -1.1690e+000 19096 113027,113157,113053
 7.0000e-001 113183  4.9855e+000  1.4184e+001 -1.0175e+000 19096 113053,113105,113079
 7.0000e-001 113451 -5.9451e-001  1.2133e+001  3.6891e+000 18642 113327,113379,113353
 7.0000e-001 113428 -2.4929e+000  9.4515e+000  1.8250e+000 18642 113301,113379,113327
 7.0000e-001 113405  4.2760e+000  9.0299e+000  1.9440e+000 18642 113275,113379,113301
 7.0000e-001 113699 -3.6913e+000  2.9961e+000 -2.5502e+000 18138 113474,113552,113526
 7.0000e-001 113676 -4.3648e+000  1.9685e-001 -2.3396e+000 18138 113474,113578,113552
 7.0000e-001 113653 -2.5754e+000  1.0569e+000 -3.0454e+000 18138 113474,113604,113578
 7.0000e-001 113630 -8.7452e+000  7.3833e+000 -6.0936e+000 18138 113474,113526,113500
 7.0000e-001 113851 -3.3479e+000  1.0371e+001 -1.1622e+000 17682 113750,113802,113776
 7.0000e-001 113828 -9.1834e+000  9.4308e+000 -1.5417e+000 17682 113724,113802,113750
 7.0000e-001 114383 -2.8752e+000 -5.2100e+000 -4.7659e-002 17106 114086,114242,114164
 7.0000e-001 114360 -3.6533e+000 -5.5195e+000  2.1356e-001 17106 114060,114242,114086
 7.0000e-001 114337 -5.2659e+000 -6.1046e+000  7.0083e-001 17106 114086,114164,114138
 7.0000e-001 114314 -4.5848e+000 -7.5669e+000  1.7096e+000 17106 114190,114242,114216
 7.0000e-001 114291 -1.9188e+000 -5.4668e+000  6.3107e-001 17106 114164,114242,114190
 7.0000e-001 114268 -1.3325e+001 -9.4998e+000 -5.3840e+000 17106 114086,114138,114112
 7.0000e-001 114680 -1.7752e+001 -3.6248e+000  5.8872e+000 16766 114703,114432,114406
 7.0000e-001 114657 -2.1084e+001  4.5819e+000  1.6161e+000 16766 114703,114406,114510
 7.0000e-001 114634 -2.2568e+001  6.6293e+000  3.6017e+000 16766 114406,114536,114510
 7.0000e-001 114611 -3.5343e+000  1.4778e+000 -8.7292e-001 16766 114432,114484,114458
 7.0000e-001 114588 -3.5828e+001  2.6083e+000 -1.4578e-001 16766 114406,114562,114536
 7.0000e-001 114729 -3.4741e+000  4.1387e+000  2.9164e+000 16766 114484,114432,114703
 7.0000e-001 114752 -1.7152e+001  6.3234e+000  8.7037e-001 16766 114484,114703,114510
 7.0000e-001 114902  1.8431e+001  1.3081e+001 -4.2343e-001 16362 114775,114827,114801
 7.0000e-001 114879  3.4308e+001  1.7432e+001 -3.5773e+000 16362 114775,114853,114827
 7.0000e-001 115054  1.1517e+000  1.4522e+000  5.1254e+000 15908 114953,115005,114979
 7.0000e-001 115031 -8.9289e-001  2.2229e+000  4.4360e+000 15908 114927,115005,114953
 7.0000e-001 115326 -1.6133e+001 -1.6366e+000  3.7615e-001 15251 115101,115179,115153
 7.0000e-001 115303 -1.5903e+001 -1.7707e+000  1.4571e+000 15251 115101,115231,115179
 7.0000e-001 115280 -1.4828e+001  7.5891e-001  1.2563e+000 15251 115179,115231,115205
 7.0000e-001 115257 -2.0563e+001 -6.5697e+000 -1.7241e+000 15251 115101,115153,115127
 7.0000e-001 115429  1.6460e-001  2.9097e+000 -2.4423e+000 421 115351,115403,115377
 8.0000e-001 66230  1.2818e-001  1.6513e-001  8.4705e-001 65954 66152,66204,66178
 8.0000e-001 66429 -4.5490e+000 -7.7506e+000  1.0776e+000 65642 66279,66331,66305
 8.0000e-001 66406 -2.8196e+000 -3.8859e+000  6.9863e-001 65642 66279,66357,66331
 8.0000e-001 66383 -3.9246e-001 -3.7155e+000  3.5246e-001 65642 66253,66357,66279
 8.0000e-001 66628 -5.9594e-001  7.3179e+000  7.9862e-002 65444 66452,66530,66478
 8.0000e-001 66605 -1.5551e+000  7.3267e+000  3.9694e-002 65444 66452,66556,66530
 8.0000e-001 66582 -4.8857e+000  6.9076e+000  1.2383e+000 65444 66478,66530,66504
 8.0000e-001 67006 -5.7104e-001  5.0947e+000  6.0535e-001 65246 66732,66810,66758
 8.0000e-001 66983  9.6030e-001  5.0277e+000  8.5077e-001 65246 66732,66836,66810
 8.0000e-001 66960  3.2406e-001  4.3283e+000  2.1584e-001 65246 66732,66862,66836
 8.0000e-001 66937  9.9921e-001  9.0642e+000  2.1837e-001 65246 66758,66810,66784
 8.0000e-001 66914 -1.3952e+000  6.0435e+000  2.3584e+000 65246 66732,66888,66862
 8.0000e-001 67107 -2.2955e+000  2.5859e+000  9.0133e-001 64934 67029,67081,67055
 8.0000e-001 67306 -2.0630e+000  7.2807e+000 -9.4104e-002 64736 67156,67208,67182
 8.0000e-001 67283 -3.5323e-001  7.0208e+000 -3.0162e-001 64736 67130,67208,67156
 8.0000e-001 67260  4.4805e-001  6.1903e+000  1.5685e-001 64736 67130,67234,67208
 8.0000e-001 67507 -4.2191e+000  6.3714e+000  4.8957e-001 64389 67357,67409,67383
 8.0000e-001 67484 -1.4514e+000  6.5706e+000  1.6835e+000 64389 67357,67435,67409
 8.0000e-001 67461 -1.2352e+000  8.6878e+000  9.9717e-001 64389 67331,67435,67357
 8.0000e-001 67708 -4.8789e-001 -2.7043e-001  8.7427e-001 63985 67731,67584,67558
 8.0000e-001 67685 -3.2526e+000 -1.3803e+000  1.5987e+000 63985 67731,67558,67636
 8.0000e-001 67662 -3.5274e+000 -5.5179e-001  2.6622e+000 63985 67532,67636,67558
 8.0000e-001 67757 -2.5974e+000  1.1976e+000 -9.7491e-002 63985 67610,67584,67731
 8.0000e-001 67780 -4.8945e+000  4.6831e-001  3.0109e-001 63985 67610,67731,67636
 8.0000e-001 67981 -1.5231e-001  1.2373e+000  2.2815e-001 63787 67857,67909,67883
 8.0000e-001 67958 -5.0054e-001  7.1860e-001  4.6291e-001 63787 67831,67909,67857
 8.0000e-001 67935 -1.5683e-001  3.6955e+000  1.7702e-001 63787 67805,67909,67831
 8.0000e-001 68231 -2.3658e+000 -6.4187e-002  1.4939e+000 63589 68254,68084,68032
 8.0000e-001 68208 -1.6772e+000  1.1260e+000  1.7936e+000 63589 68254,68032,68006
 8.0000e-001 68185 -3.5041e+000 -2.2404e-001 -1.2466e-001 63589 68326,68136,68110
 8.0000e-001 68162 -1.8870e+000 -1.2982e-001  2.3182e+000 63589 68032,68084,68058
 8.0000e-001 68280 -9.8422e-001  7.4727e-001  8.1578e-001 63589 68110,68084,68254
 8.0000e-001 68303 -2.8852e+000  6.9861e-002  5.2456e-001 63589 68326,68110,68254
 8.0000e-001 68352 -3.2783e+000  1.1112e+000  1.1970e+000 63589 68006,68136,68326
 8.0000e-001 68375 -2.4814e+000  1.1775e+000  1.8378e+000 63589 68006,68326,68254
 8.0000e-001 68836 -2.8900e-001  1.9807e-001  3.7022e+000 63128 68859,68588,68562
 8.0000e-001 68813 -4.7982e-001  1.7815e+000  1.7770e+000 63128 68859,68562,68692
 8.0000e-001 68790  3.4312e-001 -1.0995e+000  1.6004e+000 63128 68614,68692,68666
 8.0000e-001 68767 -5.3021e-001  1.1423e+000  1.6109e+000 63128 68562,68718,68692
 8.0000e-001 68744 -4.5841e-002 -1.8706e+000  2.3414e+000 63128 68614,68666,68640
 8.0000e-001 68885 -1.4755e+000 -2.5286e+000  4.1585e+000 63128 68614,68588,68859
 8.0000e-001 68908 -1.4188e+000 -2.7943e-001  2.2815e+000 63128 68614,68859,68692
 8.0000e-001 69237 -1.4210e-001  4.1718e+000 -2.8226e-001 62731 69064,69116,69090
 8.0000e-001 69214  2.7889e-001  5.4840e+000  3.7619e-002 62731 69064,69142,69116
 8.0000e-001 69191  9.5979e-001  8.0845e+000  5.1972e-002 62731 69038,69142,69064
 8.0000e-001 69168 -8.5903e-001  6.9285e+000 -6.4937e-001 62731 69012,69142,69038
 8.0000e-001 69539 -4.8254e-001 -4.1239e+000  6.3135e-001 62433 69389,69467,69441
 8.0000e-001 69516  3.6999e-001 -2.9777e+000  2.2842e-001 62433 69363,69467,69389
 8.0000e-001 69493  7.0095e-001 -8.7222e-001  5.2464e-001 62433 69389,69441,69415
 8.0000e-001 69966 -5.1867e+000 -2.1304e-001  2.6295e+000 62235 69989,69773,69721
 8.0000e-001 69943 -3.5288e+000 -3.1376e-001  2.0530e+000 62235 70061,69989,69721
 8.0000e-001 69920 -3.4077e+000 -7.5735e-001  2.1734e+000 62235 70061,69721,69643
 8.0000e-001 69897 -9.7116e+000  3.4121e+000  2.4459e+000 62235 69721,69773,69747
 8.0000e-001 69874 -2.1166e+000  3.8393e+000  2.9107e+000 62235 69643,69721,69695
 8.0000e-001 69851 -1.0420e+001 -1.0150e+001 -7.7324e-001 62235 69643,69695,69669
 8.0000e-001 70015 -6.4330e+000 -1.2584e+000  4.2089e+000 62235 69799,69773,69989
 8.0000e-001 70038 -3.0663e+000 -3.3334e-002  3.5574e+000 62235 69799,69989,69825
 8.0000e-001 70087 -3.9047e+000 -6.3632e-001  2.1922e+000 62235 69825,69989,70061
 8.0000e-001 70110 -3.5483e+000 -8.5812e-001  2.2189e+000 62235 69825,70061,69643
 8.0000e-001 70260 -7.1350e-001  4.5615e+000 -1.4167e+000 62037 70133,70185,70159
 8.0000e-001 70237  4.8037e-001  4.5341e+000 -6.1498e-001 62037 70133,70211,70185
 8.0000e-001 70640 -3.1109e+000 -4.3662e+000 -2.0217e-001 61583 70735,70663,70418
 8.0000e-001 70617 -3.0885e+000 -4.6157e-001  8.0134e-001 61583 70663,70366,70522
 8.0000e-001 70594 -3.1329e+000 -6.2969e+000  1.0641e+000 61583 70735,70418,70392
 8.0000e-001 70571 -2.0126e+000 -3.1064e+000  1.4048e-003 61583 70418,70496,70444
 8.0000e-001 70548 -1.1460e+000 -4.1017e+000  8.7091e-002 61583 70444,70496,70470
 8.0000e-001 70689 -3.2811e+000 -3.6265e+000 -1.7667e-001 61583 70496,70418,70663
 8.0000e-001 70712 -3.8952e+000 -4.6617e+000  1.0561e-001 61583 70496,70663,70522
 8.0000e-001 70761 -5.6778e+000 -5.9877e+000  1.6122e+000 61583 70366,70663,70735
 8.0000e-001 70784 -4.4939e+000 -7.3586e+000  2.6809e+000 61583 70366,70735,70392
 8.0000e-001 71054  4.2729e-001  5.6022e+000 -4.3735e+000 61313 71077,70881,70855
 8.0000e-001 71031  1.0164e-001  2.1225e+000 -2.9433e+000 61313 71077,70855,70829
 8.0000e-001 71008  7.1179e-001  8.7875e-001 -1.7557e+000 61313 70829,70959,70933
 8.0000e-001 70985 -5.1757e+000  5.1959e+000  3.2269e-001 61313 70881,70933,70907
 8.0000e-001 71103 -9.7569e-001  3.4740e+000 -2.7497e+000 61313 70933,70881,71077
 8.0000e-001 71126 -1.8381e-001  1.3377e+000 -1.4157e+000 61313 70933,71077,70829
 8.0000e-001 71604 -2.3429e+000  1.3004e-001 -3.5135e-001 60909 71627,71232,71414
 8.0000e-001 71581 -5.1682e+000  8.1974e-001 -2.1568e+000 60909 71232,71440,71414
 8.0000e-001 71558 -1.8393e+000 -1.9295e-001 -1.9593e-001 60909 71627,71414,71336
 8.0000e-001 71535 -6.8566e-001  5.5257e-001  6.2247e-001 60909 71362,71414,71388
 8.0000e-001 71512 -1.9746e+000  3.6063e-001  5.7104e-001 60909 71336,71414,71362
 8.0000e-001 71489 -9.3693e-002  1.1681e+000 -9.2143e-001 60909 71258,71336,71310
 8.0000e-001 71466  1.9812e+000  1.6621e-001  2.5324e-001 60909 71258,71310,71284
 8.0000e-001 71653 -2.7564e+000  1.9053e-002 -9.3703e-002 60909 71258,71232,71627
 8.0000e-001 71676 -2.1722e+000 -1.5034e-001 -9.0622e-002 60909 71258,71627,71336
 8.0000e-001 71875  2.8373e+000  1.3474e+001  4.1181e+000 60611 71898,71725,71699
 8.0000e-001 71852  2.2326e+000  8.9634e+000  1.0385e+000 60611 71898,71699,71803
 8.0000e-001 71829  2.2673e-001 -8.4504e-001  4.5518e+000 60611 71970,71751,71725
 8.0000e-001 71924  2.1534e+000  4.8654e+000  2.8398e+000 60611 71970,71725,71898
 8.0000e-001 71947  1.8011e+000  2.6415e+000 -1.6510e-001 60611 71777,71898,71803
 8.0000e-001 71996  2.1051e+000  6.2078e+000  2.4821e+000 60611 71777,71751,71970
 8.0000e-001 72019  3.6600e+000  9.1279e+000  2.5904e-001 60611 71777,71970,71898
 8.0000e-001 72576  2.0269e+000  3.2277e+000  5.8365e-001 60142 72599,72256,72230
 8.0000e-001 72553  2.6192e+000  2.5865e+000 -2.1927e-001 60142 72671,72599,72230
 8.0000e-001 72530  1.0016e+000  3.3723e+000 -1.0273e+000 60142 72671,72230,72204
 8.0000e-001 72507  3.6158e+000  7.9083e-001 -6.3720e-001 60142 72743,72360,72334
 8.0000e-001 72484  6.3006e-001  2.1961e+000  2.6506e+000 60142 72815,72282,72256
 8.0000e-001 72461  3.3427e-001  1.7224e+000  3.6589e+000 60142 72887,72308,72282
 8.0000e-001 72438  2.2852e+000  2.3299e+000 -2.4019e+000 60142 72204,72412,72386
 8.0000e-001 72625  1.0976e+000  1.5098e+000  1.8520e+000 60142 72815,72256,72599
 8.0000e-001 72648  3.9139e+000  8.6788e-001 -5.7467e-001 60142 72743,72334,72599
 8.0000e-001 72697  1.2269e+000  1.0952e+000 -8.2526e-001 60142 72386,72599,72671
 8.0000e-001 72720  3.4524e-001  2.2430e+000 -1.5139e+000 60142 72386,72671,72204
 8.0000e-001 72769  1.3004e+000  5.7240e-001 -1.5658e+000 60142 72386,72360,72743
 8.0000e-001 72792  2.8670e+000  1.7762e+000 -1.0284e+000 60142 72386,72743,72599
 8.0000e-001 72841  1.1132e+000  1.9336e+000  2.4455e+000 60142 72887,72282,72815
 8.0000e-001 72864  5.1671e+000  1.7625e+000  1.9901e+000 60142 72334,72815,72599
 8.0000e-001 72913  1.1625e+000 -1.1654e-002  3.8002e+000 60142 72334,72308,72887
 8.0000e-001 72936  1.1814e+000 -5.2026e-002  2.8217e+000 60142 72334,72887,72815
 8.0000e-001 73491 -3.5635e-001  2.6723e+000  4.0558e-001 59738 73145,73327,73171
 8.0000e-001 73468  2.6321e+000  2.9226e+000  1.4094e+000 59738 73119,73327,73145
 8.0000e-001 73445 -2.4681e-001  6.6437e-001 -7.0130e-001 59738 73171,73327,73301
 8.0000e-001 73422 -1.4456e+000  2.2636e+000 -1.7066e-001 59738 73514,73275,73249
 8.0000e-001 73399 -1.0526e+000  2.1801e+000 -1.9817e-001 59738 73586,73514,73249
 8.0000e-001 73376  5.3947e-001  2.0375e+000 -8.9133e-001 59738 73197,73249,73223
 8.0000e-001 73353 -2.7415e+000  1.8054e+000 -1.0582e+000 59738 73586,73249,73197
 8.0000e-001 73540 -1.3043e+000  3.0810e+000  1.4387e-001 59738 73301,73275,73514
 8.0000e-001 73563 -4.3585e-001  1.8596e+000 -8.9064e-001 59738 73301,73514,73171
 8.0000e-001 73612 -2.3741e+000  5.9000e-001 -1.5720e+000 59738 73171,73514,73586
 8.0000e-001 73635 -2.9934e+000  9.4060e-001 -2.3654e+000 59738 73171,73586,73197
 8.0000e-001 73964 -1.4359e+001 -9.3678e+000  4.3517e+000 59334 73791,73843,73817
 8.0000e-001 73941 -1.2413e+001 -1.3354e+001  2.3717e+000 59334 73791,73869,73843
 8.0000e-001 73918 -8.3826e+000 -3.2742e+000  5.6894e-001 59334 73739,73869,73791
 8.0000e-001 73895 -6.2410e+000 -4.0152e+000  4.4558e-001 59334 73739,73791,73765
 8.0000e-001 74261 -5.0314e+000 -9.8472e-001  1.3555e+000 58630 74065,74117,74091
 8.0000e-001 74238 -4.2025e+000 -1.2004e+000  6.8702e-001 58630 74356,74284,74065
 8.0000e-001 74215 -6.5118e+000 -5.9525e+000 -1.2366e-001 58630 74284,74013,73987
 8.0000e-001 74192 -3.6995e+000  5.0468e-001 -8.6357e-002 58630 74356,74065,74039
 8.0000e-001 74169 -8.2888e+000 -3.3053e+000  3.4993e+000 58630 73987,74143,74117
 8.0000e-001 74310 -6.3228e+000 -2.9431e+000 -2.6478e-001 58630 74117,74065,74284
 8.0000e-001 74333 -8.8256e+000 -2.3515e+000 -3.0818e-001 58630 74117,74284,73987
 8.0000e-001 74382 -2.4427e+000 -2.5786e+000 -1.8285e+000 58630 74013,74284,74356
 8.0000e-001 74405 -1.7425e+000 -5.1104e-001 -2.6306e+000 58630 74013,74356,74039
 8.0000e-001 74815  1.0237e+001 -9.6396e+000 -1.5030e+000 58226 74590,74642,74616
 8.0000e-001 74792  5.4456e+000 -4.3254e+000  3.0278e+000 58226 74590,74694,74642
 8.0000e-001 74769  4.8329e+000 -7.5738e+000  4.5451e+000 58226 74590,74720,74694
 8.0000e-001 74746 -1.0281e+000 -5.8414e+000  5.0452e-001 58226 74642,74694,74668
 8.0000e-001 75014 -1.6605e-001  8.0436e-002 -1.2691e+000 57786 75037,74864,74838
 8.0000e-001 74991 -3.6423e+000 -1.1723e+000  1.4716e+000 57786 75037,74838,74916
 8.0000e-001 74968 -2.7757e+000 -1.3305e+000  2.3420e+000 57786 74838,74942,74916
 8.0000e-001 75063 -5.0722e+000  2.8638e+000 -1.0879e+000 57786 74890,74864,75037
 8.0000e-001 75086 -8.2637e+000  1.4885e+000  1.8987e+000 57786 74890,75037,74916
 8.0000e-001 75368 -3.0445e-001  3.1530e+000  6.1854e-001 57496 75192,75270,75218
 8.0000e-001 75345  1.3539e+000  3.1544e+000 -4.6715e-001 57496 75192,75296,75270
 8.0000e-001 75322  1.1740e+000  4.6539e+000  1.4299e+000 57496 75218,75270,75244
 8.0000e-001 75648  1.6578e+000  2.2063e+000 -1.2943e+000 57206 75472,75550,75498
 8.0000e-001 75625 -1.1840e-001  3.2528e+000 -1.1055e-002 57206 75472,75576,75550
 8.0000e-001 75602 -8.7552e-001 -1.1117e+000 -3.1672e-002 57206 75671,75550,75524
 8.0000e-001 75697 -9.9119e-001  9.6719e-001  4.2589e-001 57206 75498,75550,75671
 8.0000e-001 76154 -1.0458e+001 -1.5207e+000  7.0773e+000 56802 75958,76010,75984
 8.0000e-001 76131 -1.2604e+001 -5.1183e+000  7.9676e+000 56802 75932,76010,75958
 8.0000e-001 76108 -1.1633e+001  1.3906e+000  5.8157e+000 56802 75906,76010,75932
 8.0000e-001 76085 -1.5195e+001 -5.8440e+000  4.0556e+000 56802 75880,76010,75906
 8.0000e-001 76062 -6.0492e+000 -1.9138e+000  4.4239e+000 56802 75880,76036,76010
 8.0000e-001 76505 -8.7199e+000 -2.6079e-001 -7.6365e-001 56504 76306,76384,76332
 8.0000e-001 76482 -6.2118e+000 -2.4556e+000  7.2351e-002 56504 76306,76410,76384
 8.0000e-001 76459 -5.8086e+000 -7.8436e-001 -2.1111e+000 56504 76332,76384,76358
 8.0000e-001 76436 -1.2238e+001 -6.7250e+000 -2.1132e+000 56504 76280,76410,76306
 8.0000e-001 77011 -4.2589e+000 -6.5904e-001  2.0053e-001 56050 76740,76818,76792
 8.0000e-001 76988 -4.3365e-001  1.1753e+000 -5.7836e-001 56050 76714,76818,76740
 8.0000e-001 76965 -2.5632e+000  1.7173e-001  7.3216e-002 56050 76688,76818,76714
 8.0000e-001 76942 -1.8515e+000  1.6019e+000  3.0754e-001 56050 76688,76844,76818
 8.0000e-001 76919  6.8866e-001  2.3172e+000 -1.4802e+000 56050 76740,76792,76766
 8.0000e-001 76896 -2.4601e+000  2.5673e+000  1.3654e+000 56050 76688,76870,76844
 8.0000e-001 77517 -2.8048e+000  1.4323e+000 -3.9106e-002 55738 77220,77350,77324
 8.0000e-001 77494 -5.1042e+000 -1.3533e-001 -7.8597e-001 55738 77220,77376,77350
 8.0000e-001 77471 -4.4310e+000  3.1344e+000 -1.1680e+000 55738 77194,77376,77220
 8.0000e-001 77448 -4.8537e+000 -7.9057e-001  3.3055e-001 55738 77220,77298,77246
 8.0000e-001 77425 -6.0214e+000 -1.0117e+000  1.2660e+000 55738 77220,77324,77298
 8.0000e-001 77402 -5.6338e+000 -1.3303e+000 -1.6666e+000 55738 77246,77298,77272
 8.0000e-001 78064 -9.9168e+000 -1.3193e+001 -1.0604e-001 55227 78231,78087,77773
 8.0000e-001 78041 -1.2908e+001 -1.2362e+001  1.3065e+000 55227 78087,77695,77643
 8.0000e-001 78018 -9.2232e+000 -1.9207e+001  5.2115e-001 55227 78159,77799,77773
 8.0000e-001 77995 -1.0330e+001 -1.4262e+001  5.8499e-002 55227 78231,77773,77721
 8.0000e-001 77972 -9.9783e+000 -9.4867e+000  2.4815e+000 55227 77643,77695,77669
 8.0000e-001 77949 -9.7274e+000 -7.1124e+000  2.1852e+000 55227 77643,77877,77851
 8.0000e-001 77926 -5.6143e+000 -1.1528e+001 -3.7970e-002 55227 77799,77851,77825
 8.0000e-001 77903 -1.3287e+001 -1.7396e+001  1.6637e+000 55227 77721,77773,77747
 8.0000e-001 78113 -1.0761e+001 -1.5143e+001 -2.0611e-001 55227 78159,77773,78087
 8.0000e-001 78136 -9.9018e+000 -5.3510e+000  1.3676e+000 55227 77851,78087,77643
 8.0000e-001 78185 -6.9986e+000 -1.3493e+001 -1.5726e+000 55227 77851,77799,78159
 8.0000e-001 78208 -9.1021e+000 -1.0143e+001 -2.2378e+000 55227 77851,78159,78087
 8.0000e-001 78257 -1.1127e+001 -1.1086e+001  5.2865e-001 55227 77695,78087,78231
 8.0000e-001 78280 -1.1922e+001 -1.2654e+001  9.0392e-001 55227 77695,78231,77721
 8.0000e-001 78737  8.1884e-001 -1.8160e+000  4.3760e+000 54773 78463,78541,78515
 8.0000e-001 78714  3.5381e+000  4.5423e+000  2.1491e+000 54773 78463,78619,78541
 8.0000e-001 78691  3.3852e+000  3.4409e+000  2.3069e+000 54773 78463,78515,78489
 8.0000e-001 78668 -4.0607e+000 -5.7941e+000  1.8948e+000 54773 78541,78593,78567
 8.0000e-001 78645  3.5615e-001 -1.5480e+000  3.7378e+000 54773 78541,78619,78593
 8.0000e-001 78838 -1.0403e+001 -1.1706e+001 -7.7754e-001 54211 78760,78812,78786
 8.0000e-001 79297  3.3124e+000  1.7567e+000  3.3785e-001 53814 79520,79153,79049
 8.0000e-001 79274  2.9427e+000 -3.6667e+000  6.7557e+000 53814 79520,79049,79023
 8.0000e-001 79251  3.0627e+000  9.9010e-001  1.8416e+000 53814 79320,79101,79049
 8.0000e-001 79228  3.5585e+000  2.3487e+000  1.9449e-001 53814 79320,79049,79153
 8.0000e-001 79205  1.9754e+000  5.0092e-001  1.5364e+000 53814 79049,79101,79075
 8.0000e-001 79346  3.1970e+000 -1.0812e+000 -7.4861e-001 53814 79392,79320,79127
 8.0000e-001 79369  8.1650e+000  4.5238e+000 -3.0223e+000 53814 79127,79320,79153
 8.0000e-001 79418  4.6555e+000  1.7584e+000  6.5100e-002 53814 79101,79320,79392
 8.0000e-001 79546  8.2979e+000  1.2131e+001 -4.7589e+000 53814 79179,79153,79520
 8.0000e-001 79569  7.9415e-001  3.5480e+000  3.4415e+000 53814 79179,79520,79023
 8.0000e-001 80075 -6.3727e+000 -2.9670e+000 -1.9723e+000 53039 80098,79908,79830
 8.0000e-001 80052 -6.7818e+000 -3.3679e+000 -2.7118e+000 53039 80098,79830,79804
 8.0000e-001 80029 -7.3478e+000 -1.6265e+000 -1.7148e+000 53039 79752,79934,79804
 8.0000e-001 80006 -3.5424e+000 -2.7089e+000 -1.1924e+000 53039 79856,79908,79882
 8.0000e-001 79983 -3.7627e+000 -2.1783e+000 -1.1676e+000 53039 79830,79908,79856
 8.0000e-001 79960 -4.8644e+000  3.0251e+000 -7.6558e-001 53039 79752,79804,79778
 8.0000e-001 80124 -5.1605e+000 -2.0614e+000 -1.3035e+000 53039 79934,79908,80098
 8.0000e-001 80147 -6.2873e+000 -2.9450e+000 -2.1312e+000 53039 79934,80098,79804
 8.0000e-001 80555 -1.8016e+001  8.6393e+000  1.1127e+001 52699 80356,80434,80408
 8.0000e-001 80532 -2.3819e+001 -3.2915e+000  1.4672e+001 52699 80356,80460,80434
 8.0000e-001 80509 -2.7165e+001 -3.2301e+000  1.5591e+001 52699 80330,80460,80356
 8.0000e-001 80486 -2.3280e+001 -2.1838e+000  1.2748e+001 52699 80356,80408,80382
 8.0000e-001 80776 -5.0878e-001  2.3975e+000  1.2158e-001 52295 80600,80678,80626
 8.0000e-001 80753 -2.3814e+000  1.5962e+000  4.8881e-001 52295 80600,80704,80678
 8.0000e-001 80730 -2.2252e+000  1.6617e+000  8.2769e-002 52295 80626,80678,80652
 8.0000e-001 81156  2.9185e+000  3.7117e+000 -1.5859e-002 51891 81179,80960,80908
 8.0000e-001 81133  3.5020e+000  5.0431e+000 -1.4754e-001 51891 81179,80908,81012
 8.0000e-001 81110 -1.4175e+000  3.6056e+000  4.0317e-001 51891 80882,81012,80908
 8.0000e-001 81087  4.7627e+000  2.7145e+000  1.8254e-001 51891 80908,80960,80934
 8.0000e-001 81064 -2.7067e+000  4.4672e-001  4.1544e-001 51891 80882,81038,81012
 8.0000e-001 81205  3.0236e+000  3.2771e+000 -1.1108e+000 51891 80986,80960,81179
 8.0000e-001 81228  3.6495e+000  4.8931e+000 -1.1509e+000 51891 80986,81179,81012
 8.0000e-001 81606 -1.8701e+000  4.2263e+000  3.1630e+000 51544 81410,81462,81436
 8.0000e-001 81583 -4.4741e+000 -6.1298e+000  6.1238e-001 51544 81384,81462,81410
 8.0000e-001 81560 -2.2825e-001  1.9360e+000  2.7839e+000 51544 81358,81462,81384
 8.0000e-001 81537 -6.3455e+000  6.0499e-001  5.7697e-001 51544 81358,81488,81462
 8.0000e-001 81514 -6.4869e+000  2.1094e+000  4.4563e-001 51544 81332,81488,81358
 8.0000e-001 81854 -3.7792e+000 -3.5068e-001  1.0194e+001 51004 81877,81655,81629
 8.0000e-001 81831 -3.6357e+000  7.7585e+000  8.5218e+000 51004 81877,81629,81759
 8.0000e-001 81808 -5.2888e-001 -3.8214e+000  1.0450e+001 51004 81655,81707,81681
 8.0000e-001 81785 -3.9185e+000 -6.1382e+000  5.1884e+000 51004 81707,81759,81733
 8.0000e-001 81903 -2.8054e+000 -4.1806e+000  1.0661e+001 51004 81707,81655,81877
 8.0000e-001 81926 -5.8696e+000 -1.1811e+000  7.6802e+000 51004 81707,81877,81759
 8.0000e-001 82257 -2.7985e+000  1.0774e+000 -5.8423e-002 50642 82058,82136,82110
 8.0000e-001 82234 -2.7258e+000  9.7732e-001 -3.7142e-002 50642 82058,82162,82136
 8.0000e-001 82211 -1.2664e+000  2.8304e+000 -2.7426e+000 50642 82058,82110,82084
 8.0000e-001 82188 -2.6647e+000  1.0019e+000 -1.6494e-002 50642 82032,82162,82058
 8.0000e-001 82684 -5.2861e+000  1.7623e+000  9.1487e-002 49931 82779,82707,82465
 8.0000e-001 82661 -3.6532e+000  4.0322e+000 -1.4614e+000 49931 82707,82413,82361
 8.0000e-001 82638 -6.4154e+000  5.4461e-001  2.0680e+000 49931 82779,82465,82439
 8.0000e-001 82615 -2.1178e+000  4.6941e+000 -1.0366e+000 49931 82465,82543,82491
 8.0000e-001 82592 -4.0380e+000  3.5154e+000 -1.7187e+000 49931 82361,82413,82387
 8.0000e-001 82569 -3.0980e+000  3.2649e+000 -6.0298e-001 49931 82491,82543,82517
 8.0000e-001 82733 -2.7187e+000  3.2753e+000 -7.0103e-001 49931 82543,82465,82707
 8.0000e-001 82756 -4.3070e+000  2.5279e+000 -1.2026e+000 49931 82543,82707,82361
 8.0000e-001 82805 -4.3517e+000  4.3922e+000 -1.1415e+000 49931 82413,82707,82779
 8.0000e-001 82828 -4.8925e+000  3.1985e+000  6.9486e-001 49931 82413,82779,82439
 8.0000e-001 83255 -2.3762e+001 -1.8260e+001  2.1586e+000 49327 82984,83114,83036
 8.0000e-001 83232 -2.7014e+001 -2.5619e+001 -5.1324e-002 49327 82958,83114,82984
 8.0000e-001 83209 -2.2213e+001 -3.3212e+001  7.1233e+000 49327 83036,83114,83088
 8.0000e-001 83186 -1.9065e+001 -2.1278e+001 -3.5405e-001 49327 82984,83036,83010
 8.0000e-001 83163 -2.0061e+001 -2.6275e+001 -7.9843e-001 49327 82932,83114,82958
 8.0000e-001 83140 -1.1489e+001 -1.3004e+001  3.1051e+000 49327 83036,83088,83062
 8.0000e-001 83938 -1.5858e+000 -1.3778e+001  1.9308e+000 48965 83961,83673,83647
 8.0000e-001 83915  1.3767e+000 -7.0977e+000  1.1797e+000 48965 83961,83647,83543
 8.0000e-001 83892 -2.6608e+000 -9.4986e+000 -3.6429e+000 48965 83517,83725,83543
 8.0000e-001 83869  6.3288e+000 -1.6316e+001 -4.2826e+000 48965 83673,83725,83699
 8.0000e-001 83846  2.8840e+000 -4.5000e+000 -7.4831e-001 48965 83543,83647,83621
 8.0000e-001 83823 -1.2784e+000 -6.0441e+000  1.0646e+000 48965 83543,83621,83569
 8.0000e-001 83800 -1.7404e+000 -1.0161e+001 -7.5371e+000 48965 83517,83751,83725
 8.0000e-001 83777 -2.1299e+000 -6.7188e+000  3.5760e-001 48965 83569,83621,83595
 8.0000e-001 83987  6.0197e-001 -1.1892e+001 -2.2368e+000 48965 83725,83673,83961
 8.0000e-001 84010  1.5717e+000 -9.6249e+000 -2.1896e+000 48965 83725,83961,83543
 8.0000e-001 84258  7.7702e+000  3.7144e+000  2.2043e+000 48447 84281,84059,84033
 8.0000e-001 84235  6.5165e+000  1.2623e+000  2.1721e-001 48447 84281,84033,84163
 8.0000e-001 84212  4.6483e+000  5.5978e+000  3.0169e+000 48447 84059,84111,84085
 8.0000e-001 84189  6.3039e+000  1.7813e+000  3.7533e-001 48447 84111,84163,84137
 8.0000e-001 84307  8.5686e+000  4.0820e+000  3.3280e+000 48447 84111,84059,84281
 8.0000e-001 84330  9.0196e+000  2.9842e+000  1.5566e+000 48447 84111,84281,84163
 8.0000e-001 84529 -6.3849e+000 -3.3706e+000  3.0232e+000 47993 84552,84405,84379
 8.0000e-001 84506  1.1763e+000 -6.9910e-001  2.8871e+000 47993 84552,84379,84353
 8.0000e-001 84483 -7.0899e+000 -2.0160e+000  2.5742e+000 47993 84624,84457,84431
 8.0000e-001 84578 -7.4584e+000 -2.2604e+000  4.6376e+000 47993 84431,84405,84552
 8.0000e-001 84601 -6.6220e+000 -2.6852e+000  3.0390e+000 47993 84624,84431,84552
 8.0000e-001 84650 -6.4820e+000 -1.7709e+000  2.9508e+000 47993 84353,84457,84624
 8.0000e-001 84673 -5.4485e+000 -1.3711e+000  3.6656e+000 47993 84353,84624,84552
 8.0000e-001 85104 -3.8527e+000  1.3208e+000 -2.1964e+000 47588 85199,85127,84885
 8.0000e-001 85081 -4.4237e+000  4.4970e+000 -1.8145e+000 47588 85127,84781,84963
 8.0000e-001 85058 -4.4204e+000  6.7533e-001 -1.8153e+000 47588 85199,84885,84807
 8.0000e-001 85035 -4.5659e+000 -6.8258e+000 -8.7949e+000 47588 84885,84937,84911
 8.0000e-001 85012 -4.1470e+000 -2.7140e+000 -9.1142e-001 47588 84807,84885,84833
 8.0000e-001 84989 -3.5863e+000 -2.4802e+000 -1.1905e+000 47588 84833,84885,84859
 8.0000e-001 85153 -3.5630e+000  2.3493e+000 -2.2255e+000 47588 84937,84885,85127
 8.0000e-001 85176 -5.6404e+000  2.1726e+000 -2.4551e+000 47588 84937,85127,84963
 8.0000e-001 85225 -4.4836e+000  1.7597e+000 -9.6808e-001 47588 84781,85127,85199
 8.0000e-001 85248 -5.3447e+000  2.3371e-001 -4.9690e-001 47588 84781,85199,84807
 8.0000e-001 85518 -4.2410e+000  3.6738e+000 -4.7781e-001 47226 85293,85397,85319
 8.0000e-001 85495 -3.6411e+000  4.4433e+000 -1.0466e+000 47226 85293,85423,85397
 8.0000e-001 85472 -4.3424e+000  3.5682e+000 -6.2581e-001 47226 85319,85397,85345
 8.0000e-001 85449 -5.1930e+000  8.2864e-001 -7.7777e-001 47226 85345,85397,85371
 8.0000e-001 85849 -1.3780e+000 -3.0716e+000  2.2163e-001 46572 85624,85702,85650
 8.0000e-001 85826  4.8855e-001  5.3544e+000  2.4516e+000 46572 85624,85754,85702
 8.0000e-001 85803 -1.0831e+000 -3.7429e+000  3.2622e-001 46572 85702,85754,85728
 8.0000e-001 85780 -5.1624e+000 -4.4735e+000 -3.0357e-001 46572 85650,85702,85676
 8.0000e-001 86070 -1.2693e+001 -2.0354e+001 -5.2535e-001 46374 85920,85972,85946
 8.0000e-001 86047 -9.0101e+000 -1.1627e+001  3.0350e-001 46374 85920,85998,85972
 8.0000e-001 86024 -1.2493e+001 -1.2515e+001 -2.1062e+000 46374 85894,85998,85920
 8.0000e-001 86401 -4.4724e+000  1.7098e+000 -1.9493e+000 46034 86424,86280,86228
 8.0000e-001 86378 -5.9814e+000 -1.8704e-001 -2.6789e+000 46034 86424,86228,86176
 8.0000e-001 86355 -6.7709e+000  3.7528e+000 -7.8059e+000 46034 86176,86228,86202
 8.0000e-001 86332 -4.1329e+000  1.8940e+000  1.6290e+000 46034 86228,86280,86254
 8.0000e-001 86450 -6.8583e-001 -7.6427e-001 -2.4711e+000 46034 86306,86280,86424
 8.0000e-001 86473 -4.0724e+000 -3.7131e+000 -3.8335e+000 46034 86306,86424,86176
 8.0000e-001 87058 -9.7208e+000 -9.6567e+000 -8.9654e-001 45516 86813,86917,86865
 8.0000e-001 87035 -8.7664e+000 -8.0720e+000 -1.6448e+000 45516 86787,86917,86813
 8.0000e-001 87012 -9.0030e+000 -6.6744e-001 -2.5912e+000 45516 86735,86917,86787
 8.0000e-001 86989 -4.7227e+000 -5.2674e+000 -2.7990e+000 45516 86865,86917,86891
 8.0000e-001 86966 -8.6789e+000 -9.4099e+000 -5.9719e-001 45516 86813,86865,86839
 8.0000e-001 86943 -1.5390e+001 -1.1358e+001  3.0947e-001 45516 86735,86787,86761
 8.0000e-001 87208 -1.3509e+001 -7.8288e+000  1.1021e+001 45226 87231,87133,87107
 8.0000e-001 87185 -8.5613e+000  6.5676e-001  1.7107e+001 45226 87081,87159,87133
 8.0000e-001 87257 -1.0970e+001 -1.0739e+001  1.0190e+001 45226 87081,87133,87231
 8.0000e-001 87537 -4.6922e+000  6.4981e+000 -6.6552e-002 44772 87387,87439,87413
 8.0000e-001 87514 -1.1255e+001  3.2130e+000  1.1457e+000 44772 87361,87439,87387
 8.0000e-001 87491 -1.0385e+001  1.4855e+001 -1.0054e+000 44772 87361,87465,87439
 8.0000e-001 87996 -4.0209e+000  2.5604e+000 -4.5036e-001 44425 87748,87878,87852
 8.0000e-001 87973 -3.5553e+000  2.6727e+000  1.1765e+000 44425 87722,87878,87748
 8.0000e-001 87950 -9.5022e+000  1.8596e+000 -2.1006e-001 44425 87800,87852,87826
 8.0000e-001 87927 -3.2332e+000  3.4910e+000 -8.1033e-001 44425 87748,87852,87800
 8.0000e-001 87904 -6.2124e+000  6.1781e+000 -3.7677e+000 44425 87748,87800,87774
 8.0000e-001 88423  3.4358e-001  2.8642e+000  2.9883e+000 44078 88590,88230,88204
 8.0000e-001 88400  1.2009e+000  2.7455e+000  3.3903e+000 44078 88518,88446,88204
 8.0000e-001 88377  2.0495e+000  1.8143e+000  4.8151e+000 44078 88446,88126,88282
 8.0000e-001 88354 -1.2950e+000  3.9080e+000  2.5881e+000 44078 88518,88204,88178
 8.0000e-001 88331  6.2997e+000  1.9812e+000  7.1201e+000 44078 88100,88282,88126
 8.0000e-001 88308 -3.3636e+000  1.6815e-001 -1.4401e-001 44078 88126,88178,88152
 8.0000e-001 88472  9.8486e-001  4.0995e+000  3.8518e+000 44078 88590,88204,88446
 8.0000e-001 88495  1.5529e+000  3.9793e+000  6.7433e+000 44078 88256,88446,88282
 8.0000e-001 88544 -9.9120e-001  3.4749e-001  2.4101e+000 44078 88126,88446,88518
 8.0000e-001 88567 -2.5687e+000  2.8772e+000  2.0697e+000 44078 88126,88518,88178
 8.0000e-001 88616 -1.8134e-001  2.3811e+001  3.5239e+000 44078 88256,88230,88590
 8.0000e-001 88639 -2.2702e+000  2.1052e+000  5.9081e+000 44078 88256,88590,88446
 8.0000e-001 89039 -5.9649e+000  2.6408e+000 -3.3881e-001 43716 88791,88921,88895
 8.0000e-001 89016 -5.0587e+000  5.5578e+000  4.4258e-001 43716 88765,88921,88791
 8.0000e-001 88993 -5.6823e+000  4.0402e+000 -1.9158e+000 43716 88817,88895,88869
 8.0000e-001 88970  9.9492e-001  6.0884e+000 -1.4560e+000 43716 88791,88895,88817
 8.0000e-001 88947 -1.0501e+001  1.3443e+000 -8.3097e-001 43716 88817,88869,88843
 8.0000e-001 89496 -1.1100e+001 -1.6733e+001 -8.5090e-001 43162 89519,89274,89248
 8.0000e-001 89473 -1.0968e+001 -1.4732e+001 -4.9535e-001 43162 89519,89248,89222
 8.0000e-001 89450 -9.5455e+000 -1.2479e+001 -5.7262e-001 43162 89326,89378,89352
 8.0000e-001 89427 -1.0326e+001 -1.3606e+001  2.7942e-001 43162 89274,89378,89326
 8.0000e-001 89404 -1.0536e+001 -1.4658e+001  2.4245e-002 43162 89274,89326,89300
 8.0000e-001 89545 -1.1045e+001 -1.4733e+001 -4.9598e-001 43162 89378,89274,89519
 8.0000e-001 89568 -1.0790e+001 -1.2571e+001 -1.1927e-001 43162 89378,89519,89222
 8.0000e-001 89946 -7.2623e+000  6.5108e+000 -2.3953e+000 42594 90041,89969,89750
 8.0000e-001 89923 -9.1395e+000  9.9645e-001 -1.5517e+000 42594 89969,89698,89828
 8.0000e-001 89900 -6.3823e+000  6.9683e+000 -2.5970e+000 42594 90041,89750,89724
 8.0000e-001 89877 -5.9487e+000  4.8684e+000 -8.1545e-001 42594 89750,89802,89776
 8.0000e-001 89854 -1.3926e+001 -4.1632e+000 -3.8386e+000 42594 89672,89828,89698
 8.0000e-001 89995 -7.8949e+000  2.8410e+000 -2.4906e+000 42594 89802,89750,89969
 8.0000e-001 90018 -8.0460e+000  1.4431e+000 -3.6670e+000 42594 89802,89969,89828
 8.0000e-001 90067 -5.8915e+000  2.3659e+000 -2.0864e+000 42594 89698,89969,90041
 8.0000e-001 90090 -1.9046e+000  6.1156e+000 -3.6307e+000 42594 89698,90041,89724
 8.0000e-001 90517 -7.3699e+000 -9.0649e+000  1.2912e+000 42140 90540,90220,90194
 8.0000e-001 90494 -1.1988e+001 -1.6118e+001  3.3151e+000 42140 90540,90194,90376
 8.0000e-001 90471 -1.0213e+001 -6.2627e+000  2.8245e+000 42140 90612,90350,90272
 8.0000e-001 90448 -1.6176e+001 -4.7514e+000  1.0277e-001 42140 90272,90350,90298
 8.0000e-001 90425 -1.4815e+001 -3.5839e+000 -1.5856e+000 42140 90298,90350,90324
 8.0000e-001 90402 -9.7649e+000 -1.1412e+001  7.6254e-001 42140 90220,90272,90246
 8.0000e-001 90566 -1.0449e+001 -1.1589e+001  9.2342e-002 42140 90272,90220,90540
 8.0000e-001 90589 -1.1528e+001 -9.4304e+000  7.4158e-001 42140 90612,90272,90540
 8.0000e-001 90638 -9.4596e+000 -3.5807e+000  4.6463e+000 42140 90376,90350,90612
 8.0000e-001 90661 -7.7637e+000 -6.0120e+000  3.4061e+000 42140 90376,90612,90540
 8.0000e-001 91167 -8.5190e+000  5.7128e+000  5.2222e+000 41636 91190,90870,90844
 8.0000e-001 91144 -3.5034e+000  1.4547e+001  3.0440e+000 41636 91190,90844,91026
 8.0000e-001 91121 -6.6314e+000  1.9701e-001  6.3323e+000 41636 90870,90922,90896
 8.0000e-001 91098 -2.5089e+000  3.2629e+000  4.3909e+000 41636 90922,91026,90948
 8.0000e-001 91075 -1.7312e+000  5.7335e+000  2.1948e+000 41636 90948,91026,91000
 8.0000e-001 91052 -1.1607e+000 -4.9637e-001  6.1938e-002 41636 90948,91000,90974
 8.0000e-001 91216 -3.5319e+000  9.4988e-001  5.7066e+000 41636 90922,90870,91190
 8.0000e-001 91239 -1.5935e+000  4.8767e+000  3.9826e+000 41636 90922,91190,91026
 8.0000e-001 91696 -9.1410e+000  1.9693e+000 -4.6687e+000 40449 91448,91526,91474
 8.0000e-001 91673 -3.6530e+000  3.4709e+000 -3.2124e+000 40449 91448,91578,91526
 8.0000e-001 91650 -1.3108e+001  4.9734e+000 -6.7501e+000 40449 91474,91526,91500
 8.0000e-001 91627 -4.8747e+000  3.6864e+000 -2.8250e+000 40449 91422,91578,91448
 8.0000e-001 91604 -2.0994e+000  7.5949e+000 -4.3435e+000 40449 91526,91578,91552
 8.0000e-001 92123 -4.8104e+000  4.3092e+000 -2.0091e+000 39995 92146,91904,91826
 8.0000e-001 92100 -5.9668e+000  4.0837e+000 -1.5743e-001 39995 92146,91826,91800
 8.0000e-001 92077 -2.9596e+000  5.0522e+000 -2.4157e+000 39995 91826,91904,91852
 8.0000e-001 92054 -3.1557e+000  1.1608e+001 -2.4978e+000 39995 91904,91982,91930
 8.0000e-001 92031 -9.3849e+000  3.0182e+000 -7.9666e-001 39995 91852,91904,91878
 8.0000e-001 92008 -6.7204e+000  8.0177e+000 -6.9824e-001 39995 91930,91982,91956
 8.0000e-001 92172 -4.5912e+000  5.4325e+000 -1.8652e+000 39995 91982,91904,92146
 8.0000e-001 92195 -4.6931e+000  7.4285e+000 -4.2585e-001 39995 91982,92146,91800
 8.0000e-001 92652 -1.2030e+001 -1.2963e+001  1.1182e+000 39633 92404,92534,92456
 8.0000e-001 92629 -1.2937e+001 -1.2913e+001  8.2366e-001 39633 92378,92534,92404
 8.0000e-001 92606 -1.8440e+001 -1.5906e+001 -3.7519e-001 39633 92404,92456,92430
 8.0000e-001 92583 -1.3405e+001 -1.4179e+001  1.9807e+000 39633 92456,92534,92508
 8.0000e-001 92560 -1.0730e+001 -1.4659e+001  3.3873e+000 39633 92456,92508,92482
 8.0000e-001 93079 -7.2813e+000 -2.8591e+000  1.0722e+000 39093 93102,92808,92756
 8.0000e-001 93056 -9.3608e+000 -4.4902e+000  1.9223e+000 39093 93102,92756,92938
 8.0000e-001 93033 -7.8926e+000 -2.1629e+000 -1.3434e+000 39093 93174,92912,92834
 8.0000e-001 93010 -4.1609e+000 -1.5543e+000 -1.1712e+000 39093 92834,92912,92860
 8.0000e-001 92987 -6.2573e+000 -4.1798e+000 -2.5877e-001 39093 92756,92808,92782
 8.0000e-001 92964 -3.7224e+000 -1.7335e-001 -8.6659e-001 39093 92860,92912,92886
 8.0000e-001 93128 -8.8399e+000 -1.8889e+000  6.5836e-001 39093 92834,92808,93102
 8.0000e-001 93151 -7.4343e+000 -1.9014e+000  2.1962e-001 39093 93174,92834,93102
 8.0000e-001 93200 -8.9766e+000 -2.7234e+000 -1.0350e+000 39093 92938,92912,93174
 8.0000e-001 93223 -1.0456e+001 -3.1359e+000  3.9052e-001 39093 92938,93174,93102
 8.0000e-001 93680 -1.3808e+001 -4.3770e+000 -1.3881e+000 38639 93703,93536,93484
 8.0000e-001 93657 -1.2455e+001 -5.3950e+000 -1.6672e+000 38639 93703,93484,93432
 8.0000e-001 93634 -1.4483e+001 -2.9216e+000 -5.3792e+000 38639 93432,93484,93458
 8.0000e-001 93611 -1.4915e+001 -6.3738e+000  3.0979e-001 38639 93484,93536,93510
 8.0000e-001 93588 -9.9651e+000 -5.5533e+000 -1.2007e+000 38639 93406,93562,93432
 8.0000e-001 93729 -1.2712e+001 -4.6200e+000 -1.1544e+000 38639 93562,93536,93703
 8.0000e-001 93752 -1.0596e+001 -4.9951e+000 -1.7305e+000 38639 93562,93703,93432
 8.0000e-001 94160  4.6560e+000  4.3470e+000  9.7933e-001 38292 93935,94039,93961
 8.0000e-001 94137  4.7951e+000  4.4057e+000  1.3237e+000 38292 93935,94065,94039
 8.0000e-001 94114  1.9407e+000  1.5798e+000 -2.7755e-001 38292 93961,94013,93987
 8.0000e-001 94091  4.6935e+000  1.8593e+000  1.1376e+000 38292 93961,94039,94013
 8.0000e-001 94408 -1.3042e+001  2.7446e-001 -3.5516e+000 37880 94431,94261,94235
 8.0000e-001 94385 -1.2939e+001  4.8047e-001 -3.5076e+000 37880 94431,94235,94313
 8.0000e-001 94362 -1.4899e+001 -9.2941e-001 -1.5279e+000 37880 94209,94313,94235
 8.0000e-001 94339 -1.4548e+001  2.9299e+000 -6.5918e+000 37880 94183,94313,94209
 8.0000e-001 94457 -1.3178e+001  5.1611e-001 -3.6134e+000 37880 94287,94261,94431
 8.0000e-001 94480 -1.3072e+001  6.9449e-001 -3.5481e+000 37880 94287,94431,94313
 8.0000e-001 94728 -5.5045e+000  1.6098e+001 -4.3183e+000 37426 94529,94607,94555
 8.0000e-001 94705 -9.8130e+000  1.3982e+001 -2.3016e+000 37426 94529,94633,94607
 8.0000e-001 94682 -1.2317e+001  1.4979e+001 -1.8738e+000 37426 94503,94633,94529
 8.0000e-001 94659 -2.5685e+001 -1.9580e+001  1.2784e+001 37426 94555,94607,94581
 8.0000e-001 95257 -6.3411e+000 -1.1770e+000  3.4031e+000 36722 95496,95280,94862
 8.0000e-001 95234 -6.4838e+000 -1.8431e+000 -6.0973e-001 36722 95496,94862,94836
 8.0000e-001 95211 -3.8955e+000 -2.4244e-001  4.8098e+000 36722 95352,95280,95070
 8.0000e-001 95188 -3.9875e+000  8.5286e-001  5.3442e+000 36722 95352,95070,95044
 8.0000e-001 95165 -5.0090e+000 -4.4748e+000 -4.1956e-001 36722 95424,94888,94862
 8.0000e-001 95142 -1.3206e+001  8.0752e+000  7.2566e+000 36722 94914,94966,94940
 8.0000e-001 95119 -3.4708e+000  4.8044e+000  3.1037e+000 36722 94966,95044,95018
 8.0000e-001 95096 -1.0317e+000  6.6723e+000  5.4834e+000 36722 94966,95018,94992
 8.0000e-001 95306 -9.3258e+000  8.1475e-001  1.7202e+000 36722 95424,94862,95280
 8.0000e-001 95329 -7.9640e+000  6.7438e+000  1.9206e+000 36722 94914,95280,94966
 8.0000e-001 95378 -4.4335e+000 -7.2866e-001  4.3737e+000 36722 94966,95280,95352
 8.0000e-001 95401 -4.8742e+000 -2.0618e-001  4.8616e+000 36722 94966,95352,95044
 8.0000e-001 95450 -1.2203e+001 -4.0765e+000 -3.0367e+000 36722 94914,94888,95424
 8.0000e-001 95473 -1.3586e+001 -2.6642e+000 -6.8643e-001 36722 94914,95424,95280
 8.0000e-001 95522 -6.5706e+000 -3.4183e+000  3.5335e+000 36722 95070,95280,95496
 8.0000e-001 95545 -5.6718e+000 -4.1760e+000  2.9716e+000 36722 95070,95496,94836
 8.0000e-001 96130 -6.2700e+000 -5.0682e+000  1.6579e+000 36268 96153,95911,95859
 8.0000e-001 96107 -7.2351e+000 -4.6452e+000  1.2579e+000 36268 96153,95859,95807
 8.0000e-001 96084 -5.5464e+000  3.7367e+000  5.4182e+000 36268 95807,95859,95833
 8.0000e-001 96061 -4.4122e+000 -8.5568e+000 -1.0338e+000 36268 95911,95989,95937
 8.0000e-001 96038 -2.5521e+000 -3.0832e+000  3.5698e+000 36268 95859,95911,95885
 8.0000e-001 96015 -7.5420e+000 -4.1902e+000 -4.0201e+000 36268 95937,95989,95963
 8.0000e-001 96179 -5.4073e+000 -5.0824e+000  1.5798e+000 36268 95989,95911,96153
 8.0000e-001 96202 -6.3386e+000 -4.6550e+000  1.0914e+000 36268 95989,96153,95807
 8.0000e-001 96531 -5.8040e+000  1.1507e+001 -6.2535e+000 35728 96358,96410,96384
 8.0000e-001 96508 -3.9676e+000  1.2578e+001 -6.7043e+000 35728 96332,96410,96358
 8.0000e-001 96485 -4.9537e+000  1.1755e+001 -5.6117e+000 35728 96332,96436,96410
 8.0000e-001 96462 -1.1650e+001  6.1978e+000 -2.2390e+000 35728 96306,96436,96332
 8.0000e-001 96860  4.3256e+000  6.8402e+000 -1.2160e+000 35324 96687,96765,96713
 8.0000e-001 96837  2.9865e+000  2.9521e+000 -2.9924e+000 35324 96661,96765,96687
 8.0000e-001 96814  5.7115e+000  5.7831e+000 -5.5457e-001 35324 96713,96765,96739
 8.0000e-001 96791  4.0993e+000  3.7125e+000 -2.6378e+000 35324 96635,96765,96661
 8.0000e-001 97366 -2.3085e+000 -1.0163e-001 -3.6919e-001 34920 97389,97069,97043
 8.0000e-001 97343 -2.6176e+000  1.7236e-001 -8.2276e-001 34920 97389,97043,97199
 8.0000e-001 97320  2.9970e+000  1.4085e+001 -2.2074e+000 34920 97043,97225,97199
 8.0000e-001 97297 -3.6411e-001 -5.1720e-001 -7.5715e-001 34920 97069,97121,97095
 8.0000e-001 97274 -1.6323e+000 -3.6058e+000 -3.1354e+000 34920 97121,97199,97173
 8.0000e-001 97251 -7.8326e-001 -2.3210e+000 -3.9468e+000 34920 97121,97173,97147
 8.0000e-001 97415 -2.0732e+000  4.9461e-002 -5.9559e-001 34920 97121,97069,97389
 8.0000e-001 97438 -1.9603e+000  6.7413e-001 -1.1158e+000 34920 97121,97389,97199
 8.0000e-001 97708 -1.4753e+001 -1.3157e+001  1.1403e+000 34722 97509,97587,97535
 8.0000e-001 97685 -1.9569e+001 -8.9763e+000  1.2548e+000 34722 97509,97613,97587
 8.0000e-001 97662 -1.1703e+001 -4.2156e+000  3.8992e+000 34722 97483,97613,97509
 8.0000e-001 97639 -1.7133e+001 -1.6585e+001 -3.5183e+000 34722 97535,97587,97561
 8.0000e-001 98216 -1.1191e+001  6.8838e+000 -4.9688e+000 34318 97971,98075,97997
 8.0000e-001 98193 -1.0805e+001  1.0127e+001 -6.1561e+000 34318 97893,98075,97971
 8.0000e-001 98170 -1.5978e+001 -1.5771e+000 -4.1228e+000 34318 97893,97971,97919
 8.0000e-001 98147 -9.8021e+000  9.5320e+000 -5.4746e+000 34318 97997,98075,98049
 8.0000e-001 98124 -5.2960e+000  4.7535e+000 -6.8082e+000 34318 97919,97971,97945
 8.0000e-001 98101 -6.1237e+000  1.8044e+001 -5.8110e+000 34318 97997,98049,98023
 8.0000e-001 98594 -7.5257e+000 -5.9546e+000 -2.4060e+000 33814 98961,98617,98424
 8.0000e-001 98571 -9.5142e+000 -6.5230e+000 -2.5993e+000 33814 98689,98617,98372
 8.0000e-001 98548 -9.0446e+000 -9.3112e+000 -2.4613e+000 33814 99033,98689,98372
 8.0000e-001 98525 -7.2967e+000 -6.6786e+000 -1.3146e+000 33814 98761,98476,98450
 8.0000e-001 98502 -4.9725e+000 -8.4179e+000 -1.8015e+000 33814 98961,98424,98398
 8.0000e-001 98643 -7.2726e+000 -5.4066e+000 -1.7462e+000 33814 98450,98424,98617
 8.0000e-001 98666 -8.6917e+000 -8.0962e+000 -2.2689e+000 33814 98761,98450,98617
 8.0000e-001 98715 -7.8974e+000 -6.4012e+000 -2.7698e+000 33814 99161,98689,98320
 8.0000e-001 98738 -6.6433e+000 -5.1390e+000 -3.2732e+000 33814 98320,98689,98346
 8.0000e-001 98787 -6.4246e+000 -6.3232e+000 -2.9877e+000 33814 98833,98761,98320
 8.0000e-001 98810 -7.8672e+000 -6.4221e+000 -2.7201e+000 33814 99161,98320,98761
 8.0000e-001 98859 -9.0361e+000 -1.0937e+001 -1.4125e+000 33814 98476,98761,98833
 8.0000e-001 98987 -1.0268e+001 -8.3859e+000 -1.3530e+000 33814 98372,98617,98961
 8.0000e-001 99010 -8.4686e+000 -1.1850e+001 -3.3927e-001 33814 98372,98961,98398
 8.0000e-001 99059 -6.6506e+000 -4.1269e+000 -1.6865e+000 33814 98346,98689,99033
 8.0000e-001 99187 -7.8507e+000 -6.3579e+000 -2.7069e+000 33814 98617,98689,99161
 8.0000e-001 99210 -7.7864e+000 -6.3703e+000 -2.6596e+000 33814 98617,99161,98761
 8.0000e-001 99588 -1.7061e+001 -1.5399e+001 -2.8102e+000 33566 99366,99444,99392
 8.0000e-001 99565 -1.6761e+001 -1.1937e+001 -2.0905e+000 33566 99314,99444,99366
 8.0000e-001 99542 -1.7336e+001 -9.2671e+000 -9.4150e-002 33566 99314,99366,99340
 8.0000e-001 99519 -2.2574e+001 -1.1564e+001 -5.6881e+000 33566 99314,99470,99444
 8.0000e-001 99496 -1.3190e+001 -1.3216e+001 -6.2267e+000 33566 99392,99444,99418
 8.0000e-001 99787 -8.8218e+000  3.2743e+001 -2.7995e+001 33105 99637,99689,99663
 8.0000e-001 99764 -1.3139e+001  1.8847e+001 -7.2013e+000 33105 99611,99689,99637
 8.0000e-001 99741 -2.5161e+001  1.0434e+001  1.1527e-001 33105 99611,99715,99689
 8.0000e-001 100167  4.9261e+000  5.4996e+000  2.6740e+000 32651 100190,99971,99919
 8.0000e-001 100144  8.6818e+000  6.3051e+000  1.6603e+000 32651 100262,100190,99919
 8.0000e-001 100121  8.8925e+000  6.2871e+000  1.7685e+000 32651 100262,99919,100049
 8.0000e-001 100098  9.4876e+000  6.5026e+000  2.8006e+000 32651 99893,100049,99919
 8.0000e-001 100075  3.4051e+000  5.2695e+000  1.7077e+000 32651 99919,99971,99945
 8.0000e-001 100216  8.7026e+000  6.5583e+000  2.2405e+000 32651 99997,99971,100190
 8.0000e-001 100239  9.6402e+000  6.0530e+000  9.3027e-001 32651 99997,100190,100023
 8.0000e-001 100288  9.0218e+000  6.3101e+000  1.7439e+000 32651 100023,100190,100262
 8.0000e-001 100311  9.7138e+000  6.5450e+000  1.7971e+000 32651 100023,100262,100049
 8.0000e-001 100608  2.9886e+000  6.4091e+000 -1.1023e+001 32254 100386,100490,100464
 8.0000e-001 100585  6.3163e+000  8.2878e+000 -8.5303e+000 32254 100360,100490,100386
 8.0000e-001 100562  6.1975e+000 -3.6677e+000 -1.7477e+001 32254 100386,100464,100412
 8.0000e-001 100539 -6.3237e+000  7.1519e+000 -1.4924e-001 32254 100334,100490,100360
 8.0000e-001 100516  6.5816e+000 -7.2447e+000 -1.6468e+001 32254 100412,100464,100438
 8.0000e-001 100758  1.0003e+000 -2.7182e-001 -4.5472e+000 31914 100985,100781,100683
 8.0000e-001 100735 -1.9547e+000  2.7424e+000 -6.7234e-001 31914 100853,100781,100657
 8.0000e-001 100807  1.3403e+001  7.3268e+000 -1.2864e+001 31914 100709,100683,100781
 8.0000e-001 100830 -7.8061e+000 -6.1326e-002 -7.5699e+000 31914 100709,100781,100631
 8.0000e-001 100879 -4.4557e+000 -3.1684e+000  5.1251e-001 31914 100631,100781,100853
 8.0000e-001 101011  2.2250e+000  2.3057e+000 -4.1249e+000 31914 100657,100781,100985
 8.0000e-001 101191 -2.2314e+001  2.8065e+001 -5.1762e+000 31418 101113,101165,101139
 8.0000e-001 101341 -2.2210e+001 -6.1301e+000  6.7474e-001 31106 101214,101266,101240
 8.0000e-001 101318 -2.1279e+001 -1.6329e+000  2.6272e+000 31106 101214,101292,101266
 8.0000e-001 101591 -2.9612e+001 -1.2651e+001  1.7320e-001 30552 101614,101470,101444
 8.0000e-001 101568 -1.8883e+001 -8.8566e+000  4.5315e+000 30552 101366,101496,101470
 8.0000e-001 101545 -3.3471e+001 -1.6624e+001  2.6551e+000 30552 101614,101444,101392
 8.0000e-001 101522 -2.4377e+001 -6.3809e+000 -3.0729e+000 30552 101392,101444,101418
 8.0000e-001 101640 -3.4736e+001 -1.0481e+001  3.8229e+000 30552 101366,101470,101614
 8.0000e-001 101663 -3.8121e+001 -1.3945e+001  6.2142e+000 30552 101366,101614,101392
 8.0000e-001 102301 -7.9162e+000 -4.6462e+000  1.4288e-001 30042 102396,102324,102059
 8.0000e-001 102278 -8.2050e+000 -4.8665e+000  1.3103e+000 30042 102324,101981,101955
 8.0000e-001 102255 -6.9324e+000 -5.5591e+000 -1.2330e+000 30042 102396,102059,102033
 8.0000e-001 102232 -9.7353e+000 -5.7148e+000 -8.1038e-001 30042 101929,102111,101955
 8.0000e-001 102209 -1.0419e+001 -4.1712e+000  4.6394e-001 30042 102059,102111,102085
 8.0000e-001 102186 -9.1576e+000 -4.0348e+000 -4.2854e+000 30042 101929,102137,102111
 8.0000e-001 102163 -9.2026e+000 -9.6991e+000  5.2688e-001 30042 101981,102033,102007
 8.0000e-001 102350 -9.1009e+000 -5.0177e+000 -1.3644e-001 30042 102111,102059,102324
 8.0000e-001 102373 -8.8742e+000 -4.3010e+000 -1.5808e-001 30042 102111,102324,101955
 8.0000e-001 102422 -9.2185e+000 -7.7414e+000  6.2713e-001 30042 101981,102324,102396
 8.0000e-001 102445 -8.2400e+000 -8.6684e+000 -7.8723e-001 30042 101981,102396,102033
 8.0000e-001 103000 -1.7001e+000 -4.0409e+000 -2.2444e+000 29730 103023,102706,102654
 8.0000e-001 102977  1.1001e+000 -3.1408e+000 -2.2296e+000 29730 103023,102654,102810
 8.0000e-001 102954  1.4171e+000 -1.4112e+001 -3.1259e+000 29730 102732,102810,102784
 8.0000e-001 102931 -5.0672e+000 -9.0590e+000 -4.6546e+000 29730 102628,102810,102654
 8.0000e-001 102908  4.3717e-001  9.4971e-002 -3.0183e+000 29730 102654,102706,102680
 8.0000e-001 102885  6.4911e+000 -4.2110e+000 -8.3806e-001 29730 102732,102784,102758
 8.0000e-001 102862 -3.8978e+000 -7.6507e+000 -7.7489e+000 29730 102628,102836,102810
 8.0000e-001 103049 -1.2849e-001 -4.1982e+000 -7.0139e-001 29730 102732,102706,103023
 8.0000e-001 103072  1.6312e+000 -4.0070e+000 -7.2140e-001 29730 102732,103023,102810
 8.0000e-001 103222 -4.3183e+001 -5.4659e+000  5.7380e-002 29226 103095,103147,103121
 8.0000e-001 103199 -6.6639e+001 -1.9275e+001  6.2743e+000 29226 103095,103173,103147
 8.0000e-001 103730 -1.6021e+001 -6.1656e+000  2.7785e+000 28822 103537,103589,103563
 8.0000e-001 103707 -1.2977e+001 -6.7076e+000  8.7605e-001 28822 103433,103589,103537
 8.0000e-001 103684 -1.1462e+001 -6.8545e+000  2.2202e+000 28822 103433,103537,103459
 8.0000e-001 103661 -1.1844e+001 -6.4884e+000  1.2996e+000 28822 103407,103589,103433
 8.0000e-001 103638 -1.3307e+001 -1.4296e+001  2.6589e+000 28822 103459,103511,103485
 8.0000e-001 103615 -1.1858e+001 -9.8666e+000  6.6669e-001 28822 103459,103537,103511
 8.0000e-001 103880 -9.1065e+000 -3.5820e+000 -1.0914e+000 28368 103975,103903,103779
 8.0000e-001 103857 -1.0979e+001  6.2108e-001 -1.8460e+000 28368 103903,103753,103831
 8.0000e-001 103929 -1.0304e+001 -5.2489e+000 -1.6229e+000 28368 103805,103779,103903
 8.0000e-001 103952 -1.1978e+001 -3.4391e+000 -2.1439e+000 28368 104105,103903,103831
 8.0000e-001 104001 -1.1409e+001 -4.4667e+000 -1.0504e+000 28368 103753,103903,103975
 8.0000e-001 104131 -1.3609e+001 -3.7478e+000 -1.5582e+000 28368 103805,103903,104105
 8.0000e-001 104539  2.9108e+000  5.3922e+000  4.5447e+000 28028 104562,104340,104314
 8.0000e-001 104516  1.8577e+000  6.8122e+000  5.6018e+000 28028 104634,104562,104314
 8.0000e-001 104493 -1.8111e+000  2.9556e+000  6.0677e+000 28028 104762,104366,104340
 8.0000e-001 104470 -2.9643e-001 -1.4065e+000  3.8163e+000 28028 104366,104418,104392
 8.0000e-001 104588  1.9581e-001  4.6581e+000  5.0946e+000 28028 104762,104340,104562
 8.0000e-001 104611  1.8397e+000  3.4708e+000  5.9571e+000 28028 104418,104562,104444
 8.0000e-001 104660  2.2046e+000  3.5632e+000  5.4272e+000 28028 104444,104562,104634
 8.0000e-001 104788  1.2358e+000  9.7847e-001  6.3130e+000 28028 104418,104366,104762
 8.0000e-001 104811  2.6385e+000  2.1125e+000  5.4925e+000 28028 104418,104762,104562
 8.0000e-001 105010  1.4405e-001  1.6775e+000 -5.3737e+000 27324 105033,104886,104860
 8.0000e-001 104987  4.7589e+000  2.8456e+000 -7.4145e+000 27324 105033,104860,104834
 8.0000e-001 104964  1.4527e+000  1.5628e+000 -3.8860e+000 27324 105105,104912,104886
 8.0000e-001 105059  7.3763e-001  1.6014e+000 -4.0590e+000 27324 105105,104886,105033
 8.0000e-001 105082  2.0043e+000 -1.1762e+000 -6.0320e+000 27324 104938,105033,104834
 8.0000e-001 105131  2.8763e+000  1.6148e+000 -3.4268e+000 27324 104938,104912,105105
 8.0000e-001 105154  1.8631e+000  1.2245e+000 -3.8045e+000 27324 104938,105105,105033
 8.0000e-001 105402 -6.4626e+001 -2.3193e+001 -3.5714e+000 27012 105229,105281,105255
 8.0000e-001 105379 -5.8411e+001 -2.8435e+001 -2.5316e+000 27012 105229,105307,105281
 8.0000e-001 105356 -4.1113e+001 -2.3030e+001 -8.4123e-002 27012 105177,105307,105229
 8.0000e-001 105333 -4.6966e+001 -2.1416e+001 -7.3716e+000 27012 105177,105229,105203
 8.0000e-001 105603  4.4538e+000  8.2722e+000 -1.1076e+001 26508 105626,105453,105427
 8.0000e-001 105580  1.1272e+000  3.7888e-001 -9.2766e+000 26508 105626,105427,105505
 8.0000e-001 105557  1.3937e+001 -3.8066e+000 -5.0676e+000 26508 105427,105531,105505
 8.0000e-001 105652  1.4509e+000  6.7784e+000 -6.6805e+000 26508 105479,105453,105626
 8.0000e-001 105675 -1.9101e-001  3.5234e+000 -5.0906e+000 26508 105479,105626,105505
 8.0000e-001 106057 -1.2040e+001 -3.8327e+000 -7.1842e+000 25947 106080,105887,105861
 8.0000e-001 106034 -1.0984e+001 -2.4858e+000 -9.0162e+000 25947 106080,105861,105783
 8.0000e-001 106011 -5.3095e+000 -3.2091e+000 -1.1842e+001 25947 105783,105835,105809
 8.0000e-001 105988 -1.3382e+001  4.7758e+000 -9.4650e+000 25947 105783,105861,105835
 8.0000e-001 105965 -1.3494e+001  1.6429e+000 -1.0383e+001 25947 105887,105939,105913
 8.0000e-001 106106 -1.1354e+001 -3.0322e+000 -8.4847e+000 25947 105939,105887,106080
 8.0000e-001 106129 -8.6615e+000 -2.2785e-001 -1.0575e+001 25947 105939,106080,105783
 8.0000e-001 106714  6.6617e+000  7.6444e+000 -3.6330e+000 25557 106809,106737,106547
 8.0000e-001 106691  7.4868e+000  8.8703e+000  3.5221e-001 25557 106737,106417,106391
 8.0000e-001 106668  8.7797e+000  5.8560e+000 -2.8276e+000 25557 106809,106547,106495
 8.0000e-001 106645  7.8797e+000  5.6159e+000 -2.6438e+000 25557 106417,106495,106469
 8.0000e-001 106622  7.7756e+000  5.1223e+000 -3.3188e+000 25557 106495,106547,106521
 8.0000e-001 106599  7.4088e+000  5.6584e+000 -2.8025e+000 25557 106417,106469,106443
 8.0000e-001 106763  8.4356e+000  1.3537e+001 -3.7363e+000 25557 106573,106547,106737
 8.0000e-001 106786  9.2685e+000  1.3360e+001  9.2246e-001 25557 106573,106737,106391
 8.0000e-001 106835  8.6902e+000  1.2404e+001 -2.6490e+000 25557 106417,106737,106809
 8.0000e-001 106858  9.0388e+000  8.3193e+000 -2.6735e+000 25557 106417,106809,106495
 8.0000e-001 107364 -4.2380e+000  3.4823e-001  1.0180e+000 25153 107459,107387,107171
 8.0000e-001 107341 -2.4113e+000  1.4903e+000  2.1613e+000 25153 107387,107119,107067
 8.0000e-001 107318 -4.1918e+000 -2.0178e+000 -1.5105e+000 25153 107459,107171,107145
 8.0000e-001 107295 -8.6243e+000  2.0037e-002 -1.4002e+000 25153 107531,107223,107197
 8.0000e-001 107272 -3.5337e+000 -9.3457e-001  2.4794e+000 25153 107067,107119,107093
 8.0000e-001 107249 -1.5542e+001  1.4694e+001  1.8726e-001 25153 107041,107223,107067
 8.0000e-001 107413  1.6358e+000  3.1003e+000  2.4262e-001 25153 107197,107171,107387
 8.0000e-001 107436 -6.7129e+000  2.1914e-001 -5.8067e-001 25153 107531,107197,107387
 8.0000e-001 107485 -6.0841e+000 -4.1725e+000  2.9685e-001 25153 107119,107387,107459
 8.0000e-001 107508 -6.3642e+000 -6.1279e+000 -2.5481e+000 25153 107119,107459,107145
 8.0000e-001 107557 -9.5603e+000  1.0108e+000  9.5132e-001 25153 107067,107223,107531
 8.0000e-001 107580 -7.0242e+000  2.1232e+000  1.9078e+000 25153 107067,107531,107387
 8.0000e-001 107958 -1.8936e+001 -5.5444e+000 -5.1364e+000 24741 107736,107814,107788
 8.0000e-001 107935 -2.3116e+001 -9.5500e+000 -7.8877e+000 24741 107736,107840,107814
 8.0000e-001 107912 -1.5272e+001 -7.0683e-001 -4.2533e+000 24741 107684,107840,107736
 8.0000e-001 107889 -3.2064e+001  1.4119e+000 -6.8247e+000 24741 107736,107788,107762
 8.0000e-001 107866 -1.7771e+001 -3.5132e+000 -1.7519e+000 24741 107684,107736,107710
 8.0000e-001 108157 -2.8200e+001 -1.1255e+001  4.3577e+000 24237 108180,108059,108007
 8.0000e-001 108134 -2.8394e+001 -2.0601e-001  1.4689e+001 24237 108180,108007,107981
 8.0000e-001 108111 -2.7047e+001  6.9295e-001  1.5299e+000 24237 108007,108059,108033
 8.0000e-001 108206 -2.2804e+001  2.5856e-001  6.8477e+000 24237 108085,108059,108180
 8.0000e-001 108229 -2.3087e+001  1.1309e+001  1.7118e+001 24237 108085,108180,107981
 8.0000e-001 108658 -4.3984e-001 -2.5100e+000 -7.7203e-001 23776 108361,108413,108387
 8.0000e-001 108635 -5.9972e+000 -1.4371e+001 -2.5991e+000 23776 108753,108681,108361
 8.0000e-001 108612 -5.2382e+000 -5.0970e+000 -1.9136e+000 23776 108681,108465,108439
 8.0000e-001 108589 -4.1429e+000 -1.6936e+001  1.1892e-001 23776 108753,108361,108335
 8.0000e-001 108566 -3.0108e+000 -5.9847e+000 -8.0096e-001 23776 108335,108517,108465
 8.0000e-001 108543 -3.5163e+000 -5.9995e+000 -1.0977e+000 23776 108465,108517,108491
 8.0000e-001 108707 -3.8192e+000 -5.7044e+000 -3.5897e+000 23776 108413,108361,108681
 8.0000e-001 108730 -5.6008e+000 -9.7878e-001 -5.2097e-001 23776 108413,108681,108439
 8.0000e-001 108779 -4.3772e+000 -4.6055e+000 -2.8980e+000 23776 108465,108681,108753
 8.0000e-001 108802 -5.4973e+000 -1.2041e+001 -9.0437e-001 23776 108465,108753,108335
 8.0000e-001 109023 -2.9520e+001  1.5337e+000  3.9134e+000 23414 108873,108925,108899
 8.0000e-001 109000 -3.8177e+001 -1.2769e+000  4.0245e+000 23414 108847,108925,108873
 8.0000e-001 108977 -2.7418e+001  2.4230e+001  3.5255e+000 23414 108847,108951,108925
 8.0000e-001 109474 -1.9603e+001 -1.0342e+001 -1.6837e+000 23024 109151,109307,109177
 8.0000e-001 109451 -2.1965e+001 -6.5293e+000 -1.3008e+000 23024 109151,109333,109307
 8.0000e-001 109428 -1.4896e+001 -1.0841e+001 -4.7372e-001 23024 109177,109281,109203
 8.0000e-001 109405 -1.3215e+001 -8.8503e+000 -1.4606e+000 23024 109177,109307,109281
 8.0000e-001 109382 -1.3339e+001 -9.4234e+000  2.2100e-001 23024 109203,109281,109229
 8.0000e-001 109359 -1.4587e+001 -9.9685e+000 -4.6332e-001 23024 109229,109281,109255
 8.0000e-001 109820 -5.9172e+000 -4.5293e+000 -1.6035e+000 22506 109843,109601,109523
 8.0000e-001 109797 -8.7286e+000 -3.2382e+000 -2.0572e+000 22506 109843,109523,109497
 8.0000e-001 109774 -9.2697e+000 -5.1147e+000 -1.9180e+000 22506 109915,109653,109627
 8.0000e-001 109751 -1.0659e+001 -5.0692e+000 -1.6054e+000 22506 109497,109679,109653
 8.0000e-001 109728 -6.8033e+000 -6.5435e+000 -8.2716e-001 22506 109523,109601,109575
 8.0000e-001 109705 -5.3062e+000 -4.3379e+000 -1.6860e-001 22506 109523,109575,109549
 8.0000e-001 109869 -8.3649e+000 -6.4706e+000 -2.4463e+000 22506 109627,109601,109843
 8.0000e-001 109892 -8.9177e+000 -4.3908e+000 -1.7798e+000 22506 109915,109627,109843
 8.0000e-001 109941 -9.4549e+000 -4.4110e+000 -2.4167e+000 22506 109497,109653,109915
 8.0000e-001 109964 -9.4324e+000 -4.3788e+000 -2.3603e+000 22506 109497,109915,109843
 8.0000e-001 110163 -5.0095e+000 -1.6114e+000 -1.1615e+000 21936 110186,110039,110013
 8.0000e-001 110140 -4.2122e-001  1.6810e+000  3.0985e-001 21936 110390,110186,110013
 8.0000e-001 110117 -9.5079e-001 -9.0322e-001  4.5124e-001 21936 110390,110013,109987
 8.0000e-001 110212 -1.8369e+000  7.0541e+000  1.8354e+000 21936 110065,110039,110186
 8.0000e-001 110235 -4.3253e-001 -2.1635e+000  3.9108e+000 21936 110258,110186,110091
 8.0000e-001 110284  2.3292e+000  3.4583e+000  5.9453e+000 21936 110065,110186,110258
 8.0000e-001 110416  5.4164e-001 -1.5473e+000  1.6478e+000 21936 110091,110186,110390
 8.0000e-001 110439  1.5702e-001 -4.0313e+000  1.6399e+000 21936 110091,110390,109987
 8.0000e-001 110709 -1.4404e+001 -1.0879e+001  6.7223e-002 21338 110510,110614,110588
 8.0000e-001 110686 -1.5259e+001 -1.3607e+001 -5.4543e-001 21338 110484,110614,110510
 8.0000e-001 110663 -1.5906e+001 -1.2598e+001  5.0905e-001 21338 110510,110562,110536
 8.0000e-001 110640 -1.4835e+001 -1.0455e+001 -6.2458e-001 21338 110510,110588,110562
 8.0000e-001 111296 -1.2539e+001 -9.9691e+000  2.4227e+000 20934 111025,111155,111103
 8.0000e-001 111273 -1.1793e+001 -9.2100e+000  2.0401e+000 20934 110999,111155,111025
 8.0000e-001 111250 -1.5597e+001 -1.0947e+001  1.2151e+000 20934 111103,111155,111129
 8.0000e-001 111227 -1.2999e+001 -1.0564e+001  4.1634e+000 20934 111051,111103,111077
 8.0000e-001 111204 -1.1711e+001 -1.1545e+001  2.7377e+000 20934 111025,111103,111051
 8.0000e-001 111181 -1.2525e+001 -9.9485e+000  1.7210e+000 20934 110973,111155,110999
 8.0000e-001 111930 -5.4146e+000 -2.6254e+000 -1.4061e+001 20494 111662,111714,111688
 8.0000e-001 111907  1.0579e+001  1.6801e+000 -1.1132e+001 20494 111584,111714,111662
 8.0000e-001 111884  4.7375e+000 -1.9887e+000 -9.5460e+000 20494 111584,111766,111714
 8.0000e-001 111861  7.1917e+000 -9.7401e-001 -6.8420e+000 20494 111584,111636,111610
 8.0000e-001 111838  5.1175e+000 -2.3162e+000 -7.9121e+000 20494 111584,111662,111636
 8.0000e-001 111815  5.0659e+000 -6.9956e-001 -7.7360e+000 20494 111558,111766,111584
 8.0000e-001 111792  5.5430e+000 -2.0070e-001 -9.7532e+000 20494 111714,111766,111740
 8.0000e-001 112249 -1.8118e+001 -9.7053e+000  9.2930e-001 19940 111975,112053,112001
 8.0000e-001 112226 -2.0139e+001 -4.5735e+000  6.8825e+000 19940 111975,112131,112053
 8.0000e-001 112203 -2.6711e+001 -4.6367e+000  0.0000e+000 19940 112053,112105,112079
 8.0000e-001 112180 -2.3457e+001 -3.3690e+000  4.9272e-001 19940 112053,112131,112105
 8.0000e-001 112157 -9.5178e+000 -4.5116e+000 -1.4458e+000 19940 112001,112053,112027
 8.0000e-001 112757 -1.5647e+001 -7.8004e+000  2.6736e+000 19486 112780,112538,112486
 8.0000e-001 112734 -1.5715e+001 -8.2921e+000  7.3550e-001 19486 112780,112486,112460
 8.0000e-001 112711 -1.4018e+001 -1.0250e+001  1.4252e+000 19486 112852,112616,112590
 8.0000e-001 112688 -2.0099e+001 -4.2204e+000  3.5728e+000 19486 112486,112538,112512
 8.0000e-001 112665 -1.4662e+001 -1.2186e+001  1.1039e+000 19486 112434,112616,112460
 8.0000e-001 112642 -1.3299e+001 -8.2365e+000  4.2372e+000 19486 112538,112590,112564
 8.0000e-001 112806 -1.2333e+001 -6.9125e+000  3.8157e+000 19486 112590,112538,112780
 8.0000e-001 112829 -1.5373e+001 -9.3042e+000  2.0482e+000 19486 112852,112590,112780
 8.0000e-001 112878 -1.3369e+001 -8.8757e+000  1.1312e+000 19486 112460,112616,112852
 8.0000e-001 112901 -1.4198e+001 -7.3372e+000  1.4657e+000 19486 112460,112852,112780
 8.0000e-001 113252 -1.5499e+000 -2.2440e+000  4.6574e-001 19096 113105,113157,113131
 8.0000e-001 113229 -4.1703e+000 -4.4183e+000 -7.8403e-001 19096 113053,113157,113105
 8.0000e-001 113206 -5.0410e+000 -5.1485e+000 -1.2128e+000 19096 113027,113157,113053
 8.0000e-001 113183 -3.4470e+000 -2.2015e-002 -3.0108e-001 19096 113053,113105,113079
 8.0000e-001 113451 -5.1022e+000  3.2559e+000  2.7609e+000 18642 113327,113379,113353
 8.0000e-001 113428 -6.0005e+000  2.2883e+000  1.5880e+000 18642 113301,113379,113327
 8.0000e-001 113405 -2.4292e+000  1.1674e+000  1.3084e+000 18642 113275,113379,113301
 8.0000e-001 113699 -5.7987e+000 -3.3538e+000 -1.9086e+000 18138 113474,113552,113526
 8.0000e-001 113676 -5.9297e+000 -5.7966e+000 -1.9534e+000 18138 113474,113578,113552
 8.0000e-001 113653 -4.8041e+000 -5.2090e+000 -2.3990e+000 18138 113474,113604,113578
 8.0000e-001 113630 -8.6349e+000  3.4783e-001 -4.0356e+000 18138 113474,113526,113500
 8.0000e-001 113851 -5.7288e+000  9.4840e-001 -8.4962e-001 17682 113750,113802,113776
 8.0000e-001 113828 -9.4400e+000  3.1417e-001 -1.1070e+000 17682 113724,113802,113750
 8.0000e-001 114383 -4.2764e+000 -8.6449e+000  1.3006e-001 17106 114086,114242,114164
 8.0000e-001 114360 -5.6990e+000 -9.1883e+000  8.5154e-001 17106 114060,114242,114086
 8.0000e-001 114337 -8.0204e+000 -1.0085e+001  1.3077e+000 17106 114086,114164,114138
 8.0000e-001 114314 -4.1543e+000 -1.0960e+001  2.0191e+000 17106 114190,114242,114216
 8.0000e-001 114291 -2.5033e+000 -8.3827e+000  1.2767e+000 17106 114164,114242,114190
 8.0000e-001 114268 -1.5983e+001 -1.5027e+001 -4.2883e+000 17106 114086,114138,114112
 8.0000e-001 114680 -1.6778e+001 -9.8786e+000  4.0989e+000 16766 114703,114432,114406
 8.0000e-001 114657 -1.8992e+001 -4.0848e+000  1.1883e+000 16766 114703,114406,114510
 8.0000e-001 114634 -1.9889e+001 -2.5629e+000  2.4730e+000 16766 114406,114536,114510
 8.0000e-001 114611 -7.2441e+000 -6.5779e+000 -8.3958e-001 16766 114432,114484,114458
 8.0000e-001 114588 -3.0187e+001 -5.8674e+000 -1.1035e-002 16766 114406,114562,114536
 8.0000e-001 114729 -7.1498e+000 -4.4891e+000  1.9616e+000 16766 114484,114432,114703
 8.0000e-001 114752 -1.6411e+001 -2.7784e+000  6.2523e-001 16766 114484,114703,114510
 8.0000e-001 114902  9.7100e+000  4.8918e+000 -7.9270e-002 16362 114775,114827,114801
 8.0000e-001 114879  2.6928e+001  9.7482e+000 -3.5381e+000 16362 114775,114853,114827
 8.0000e-001 115054 -2.9918e+000 -5.4218e+000  5.1038e+000 15908 114953,115005,114979
 8.0000e-001 115031 -3.4225e+000 -5.9452e+000  4.9213e+000 15908 114927,115005,114953
 8.0000e-001 115326 -1.5632e+001 -9.0129e+000  2.5976e-001 15251 115101,115179,115153
 8.0000e-001 115303 -1.5831e+001 -9.3444e+000  1.4344e+000 15251 115101,115231,115179
 8.0000e-001 115280 -1.4533e+001 -6.3146e+000  1.1812e+000 15251 115179,115231,115205
 8.0000e-001 115257 -1.7476e+001 -1.2146e+001 -2.2565e-001 15251 115101,115153,115127
 8.0000e-001 115429 -4.4256e+000 -5.1244e+000 -1.3633e+000 421 115351,115403,115377
 9.0000e-001 66230  1.7896e+000 -6.6286e-001  8.7048e-001 65954 66152,66204,66178
 9.0000e-001 66429 -3.1943e+000 -6.9858e+000  3.8244e-001 65642 66279,66331,66305
 9.0000e-001 66406 -2.0124e+000 -4.8372e+000 -1.2191e-001 65642 66279,66357,66331
 9.0000e-001 66383 -1.4648e+000 -5.1702e+000 -9.8546e-002 65642 66253,66357,66279
 9.0000e-001 66628  6.9691e-002 -3.3872e-001  2.6750e-001 65444 66452,66530,66478
 9.0000e-001 66605 -4.6488e-001  7.9729e-002  4.0083e-001 65444 66452,66556,66530
 9.0000e-001 66582 -4.7732e-001  6.5644e-001  2.6157e-001 65444 66478,66530,66504
 9.0000e-001 67006 -1.6289e-001  1.1170e-002 -1.1751e-001 65246 66732,66810,66758
 9.0000e-001 66983  9.4143e-002  1.6237e-002 -7.2556e-002 65246 66732,66836,66810
 9.0000e-001 66960 -9.5635e-002 -1.3743e-001 -3.0038e-001 65246 66732,66862,66836
 9.0000e-001 66937  1.1585e-001  1.0807e+000 -1.1317e-001 65246 66758,66810,66784
 9.0000e-001 66914 -2.0353e-001  3.6860e-001 -4.7099e-002 65246 66732,66888,66862
 9.0000e-001 67107 -5.7420e-002  2.7608e-001  7.1607e-002 64934 67029,67081,67055
 9.0000e-001 67306 -2.2380e+000  1.8017e+000  1.0599e+000 64736 67156,67208,67182
 9.0000e-001 67283 -1.2781e-001  1.0701e+000  9.0292e-001 64736 67130,67208,67156
 9.0000e-001 67260  4.7466e-001 -1.3035e+000  1.3425e+000 64736 67130,67234,67208
 9.0000e-001 67507 -3.3860e-001 -7.2984e-001  2.1409e-001 64389 67357,67409,67383
 9.0000e-001 67484  1.3340e-001 -7.6030e-001  4.1376e-001 64389 67357,67435,67409
 9.0000e-001 67461 -1.0012e+000  3.5253e-001  1.7167e-001 64389 67331,67435,67357
 9.0000e-001 67708  1.4039e+000 -3.1242e+000  1.7614e+000 63985 67731,67584,67558
 9.0000e-001 67685 -8.5894e-001 -1.3874e+000  1.7414e+000 63985 67731,67558,67636
 9.0000e-001 67662 -3.2501e+000 -2.4283e+000  1.5234e+000 63985 67532,67636,67558
 9.0000e-001 67757 -1.9000e-001 -3.5092e+000  1.0446e+000 63985 67610,67584,67731
 9.0000e-001 67780 -2.6132e+000 -2.2233e+000  7.3180e-001 63985 67610,67731,67636
 9.0000e-001 67981 -1.5086e-001 -3.4894e-001  1.1901e-001 63787 67857,67909,67883
 9.0000e-001 67958 -4.7632e-001 -7.7860e-001  3.1263e-001 63787 67831,67909,67857
 9.0000e-001 67935 -2.2556e+000  2.1762e-002 -1.1102e+000 63787 67805,67909,67831
 9.0000e-001 68231 -1.3603e+000 -1.4225e+000  3.1288e-001 63589 68254,68084,68032
 9.0000e-001 68208  2.4465e-001 -2.0923e+000  1.0225e+000 63589 68254,68032,68006
 9.0000e-001 68185 -1.8305e+000 -2.8328e+000 -1.0305e-001 63589 68326,68136,68110
 9.0000e-001 68162 -2.2782e+000 -2.0160e+000  9.6151e-001 63589 68032,68084,68058
 9.0000e-001 68280 -1.9877e+000 -1.7868e+000  6.2107e-001 63589 68110,68084,68254
 9.0000e-001 68303 -1.4217e+000 -2.6427e+000  2.3932e-001 63589 68326,68110,68254
 9.0000e-001 68352 -1.8165e+000 -2.2389e+000  8.2426e-001 63589 68006,68136,68326
 9.0000e-001 68375 -1.2567e+000 -2.1434e+000  1.1546e+000 63589 68006,68326,68254
 9.0000e-001 68836 -4.0403e-001 -6.8088e-001  2.1976e+000 63128 68859,68588,68562
 9.0000e-001 68813 -7.2132e-001  5.1281e-001  6.7306e-001 63128 68859,68562,68692
 9.0000e-001 68790 -3.4080e-001 -1.1052e+000  5.0934e-001 63128 68614,68692,68666
 9.0000e-001 68767 -6.9818e-001 -2.9338e-001  4.7621e-001 63128 68562,68718,68692
 9.0000e-001 68744 -3.3035e-001 -1.0695e+000  5.7067e-001 63128 68614,68666,68640
 9.0000e-001 68885 -1.3101e+000 -2.7742e+000  2.4205e+000 63128 68614,68588,68859
 9.0000e-001 68908 -1.4162e+000 -1.0419e+000  9.3706e-001 63128 68614,68859,68692
 9.0000e-001 69237  3.6175e-002  3.1241e-001 -4.3434e-002 62731 69064,69116,69090
 9.0000e-001 69214 -1.8851e-001  7.1392e-001 -2.7222e-002 62731 69064,69142,69116
 9.0000e-001 69191  1.1697e-001  1.1734e+000 -1.6557e-001 62731 69038,69142,69064
 9.0000e-001 69168  5.6678e-001  7.4678e-001 -4.5216e-002 62731 69012,69142,69038
 9.0000e-001 69539 -2.5601e-001 -1.8430e+000  1.8104e-001 62433 69389,69467,69441
 9.0000e-001 69516  7.0742e-001 -1.5032e+000 -7.1857e-002 62433 69363,69467,69389
 9.0000e-001 69493  4.1422e-002 -1.1665e+000  2.3608e-001 62433 69389,69441,69415
 9.0000e-001 69966 -3.2638e+000 -1.6681e+000  1.4023e+000 62235 69989,69773,69721
 9.0000e-001 69943 -3.1102e+000 -1.8299e+000  1.2084e+000 62235 70061,69989,69721
 9.0000e-001 69920 -3.0709e+000 -2.6787e+000  1.3239e+000 62235 70061,69721,69643
 9.0000e-001 69897 -5.4935e+000  2.2926e-001  1.2836e+000 62235 69721,69773,69747
 9.0000e-001 69874 -2.1964e+000  1.5295e-001  1.6567e+000 62235 69643,69721,69695
 9.0000e-001 69851 -7.8271e+000 -9.3914e+000 -8.1797e-001 62235 69643,69695,69669
 9.0000e-001 70015 -3.3746e+000 -1.9898e+000  1.3672e+000 62235 69799,69773,69989
 9.0000e-001 70038 -3.0949e+000 -1.8580e+000  1.4167e+000 62235 69799,69989,69825
 9.0000e-001 70087 -3.4090e+000 -2.6463e+000  1.4376e+000 62235 69825,69989,70061
 9.0000e-001 70110 -2.9914e+000 -3.0934e+000  1.4313e+000 62235 69825,70061,69643
 9.0000e-001 70260 -7.0405e-001  1.0337e+000 -2.3718e-001 62037 70133,70185,70159
 9.0000e-001 70237  2.4748e-001  2.8660e-001  5.1034e-001 62037 70133,70211,70185
 9.0000e-001 70640 -2.1579e+000 -4.6015e+000  1.8192e+000 61583 70735,70663,70418
 9.0000e-001 70617 -3.9703e+000 -4.5589e+000  2.1663e+000 61583 70663,70366,70522
 9.0000e-001 70594 -1.8156e+000 -5.1210e+000  2.7555e+000 61583 70735,70418,70392
 9.0000e-001 70571 -2.2916e+000 -3.8990e+000  2.5052e+000 61583 70418,70496,70444
 9.0000e-001 70548 -3.1997e+000 -3.4555e+000  2.3334e+000 61583 70444,70496,70470
 9.0000e-001 70689 -3.9646e+000 -4.4650e+000  1.2851e+000 61583 70496,70418,70663
 9.0000e-001 70712 -5.3358e+000 -4.4570e+000  1.7694e+000 61583 70496,70663,70522
 9.0000e-001 70761 -4.2256e+000 -5.4701e+000  1.8224e+000 61583 70366,70663,70735
 9.0000e-001 70784 -3.0434e+000 -5.6124e+000  2.6781e+000 61583 70366,70735,70392
 9.0000e-001 71054 -2.9710e-001  1.1585e+000 -2.0015e+000 61313 71077,70881,70855
 9.0000e-001 71031 -5.6886e-001  2.2755e-002 -1.7715e+000 61313 71077,70855,70829
 9.0000e-001 71008  1.0081e-001  3.1392e-001 -9.6716e-001 61313 70829,70959,70933
 9.0000e-001 70985 -2.1804e+000  3.1044e+000  1.1021e-001 61313 70881,70933,70907
 9.0000e-001 71103 -4.7650e-001  5.0710e-001 -1.4244e+000 61313 70933,70881,71077
 9.0000e-001 71126 -4.4196e-001 -1.7605e-001 -1.1972e+000 61313 70933,71077,70829
 9.0000e-001 71604 -1.2811e+000 -1.1407e+000 -1.7760e-001 60909 71627,71232,71414
 9.0000e-001 71581 -3.0957e+000 -1.6910e+000 -2.6622e-001 60909 71232,71440,71414
 9.0000e-001 71558 -1.4931e+000 -1.3504e+000 -2.6560e-001 60909 71627,71414,71336
 9.0000e-001 71535 -5.4940e-001 -4.7379e-001 -2.6121e-001 60909 71362,71414,71388
 9.0000e-001 71512 -1.4399e+000 -9.7814e-001 -5.6558e-002 60909 71336,71414,71362
 9.0000e-001 71489 -3.6442e-001 -9.8109e-001 -5.2120e-001 60909 71258,71336,71310
 9.0000e-001 71466 -3.6211e-001 -2.0595e+000  2.9321e-001 60909 71258,71310,71284
 9.0000e-001 71653 -1.2002e+000 -1.3844e+000 -2.6728e-001 60909 71258,71232,71627
 9.0000e-001 71676 -1.3218e+000 -1.4843e+000 -3.1028e-001 60909 71258,71627,71336
 9.0000e-001 71875  9.2339e-001  4.2144e+000  2.0909e+000 60611 71898,71725,71699
 9.0000e-001 71852  5.9635e-001  2.5461e+000  9.6980e-001 60611 71898,71699,71803
 9.0000e-001 71829 -7.3813e-001 -2.1789e+000  2.6688e+000 60611 71970,71751,71725
 9.0000e-001 71924  2.6128e-001  7.2741e-001  1.8683e+000 60611 71970,71725,71898
 9.0000e-001 71947  7.7279e-001  1.7285e+000  6.1952e-001 60611 71777,71898,71803
 9.0000e-001 71996  1.1661e-001  1.3621e+000  1.6435e+000 60611 71777,71751,71970
 9.0000e-001 72019  8.9375e-001  2.8372e+000  5.7593e-001 60611 71777,71970,71898
 9.0000e-001 72576 -1.9086e-001 -7.3927e-001  1.0400e+000 60142 72599,72256,72230
 9.0000e-001 72553  1.2654e+000  9.8453e-001  1.6069e-001 60142 72671,72599,72230
 9.0000e-001 72530  3.5841e-001  1.6997e+000 -4.8258e-001 60142 72671,72230,72204
 9.0000e-001 72507  1.5345e+000  1.0833e+000 -1.3702e+000 60142 72743,72360,72334
 9.0000e-001 72484 -1.2032e+000 -1.3381e+000  1.4448e+000 60142 72815,72282,72256
 9.0000e-001 72461  4.3901e-001 -1.0800e+000  2.9614e+000 60142 72887,72308,72282
 9.0000e-001 72438  7.3810e-001  1.0670e+000 -1.1144e+000 60142 72204,72412,72386
 9.0000e-001 72625 -4.0129e-001 -5.8101e-001  8.4290e-001 60142 72815,72256,72599
 9.0000e-001 72648  2.3669e+000  4.5834e-001 -1.4092e+000 60142 72743,72334,72599
 9.0000e-001 72697  4.3184e-001 -1.2902e-001 -2.0304e-001 60142 72386,72599,72671
 9.0000e-001 72720 -1.2803e-001  7.4606e-001 -7.2011e-001 60142 72386,72671,72204
 9.0000e-001 72769 -6.2216e-001  1.2284e-001 -1.1718e+000 60142 72386,72360,72743
 9.0000e-001 72792  1.3670e+000  1.6362e-001 -1.2953e+000 60142 72386,72743,72599
 9.0000e-001 72841  2.5402e-001 -1.3266e+000  1.3005e+000 60142 72887,72282,72815
 9.0000e-001 72864  2.0323e+000 -1.7898e+000  3.4590e-001 60142 72334,72815,72599
 9.0000e-001 72913 -3.6399e-002 -3.5391e+000  2.6098e+000 60142 72334,72308,72887
 9.0000e-001 72936 -4.6119e-001 -3.7909e+000  1.2134e+000 60142 72334,72887,72815
 9.0000e-001 73491 -3.5287e-001 -1.6166e-001 -3.5409e-001 59738 73145,73327,73171
 9.0000e-001 73468 -1.1789e-001  2.0620e-001 -2.4438e-001 59738 73119,73327,73145
 9.0000e-001 73445 -4.6109e-001 -4.8188e-001 -3.6770e-001 59738 73171,73327,73301
 9.0000e-001 73422 -1.5154e+000 -2.2451e-001  1.3921e-002 59738 73514,73275,73249
 9.0000e-001 73399 -1.0226e+000 -2.5059e-001 -4.2253e-002 59738 73586,73514,73249
 9.0000e-001 73376 -9.0380e-001 -5.2459e-001 -4.0533e-001 59738 73197,73249,73223
 9.0000e-001 73353 -1.6881e+000 -4.0116e-001 -3.7354e-001 59738 73586,73249,73197
 9.0000e-001 73540 -1.0316e+000  6.3890e-002  1.4414e-001 59738 73301,73275,73514
 9.0000e-001 73563 -5.1181e-001 -3.7617e-001 -4.0284e-001 59738 73301,73514,73171
 9.0000e-001 73612 -1.5099e+000 -8.4969e-001 -5.3821e-001 59738 73171,73514,73586
 9.0000e-001 73635 -1.7866e+000 -7.3034e-001 -8.4190e-001 59738 73171,73586,73197
 9.0000e-001 73964 -8.6090e+000 -3.0828e+000  3.9254e+000 59334 73791,73843,73817
 9.0000e-001 73941 -5.7139e+000 -7.2160e+000  1.8419e+000 59334 73791,73869,73843
 9.0000e-001 73918 -3.6382e+000 -1.5187e+000 -5.2373e-001 59334 73739,73869,73791
 9.0000e-001 73895 -2.0850e+000 -2.6932e+000 -4.5088e-001 59334 73739,73791,73765
 9.0000e-001 74261 -1.1814e+000 -3.1049e+000  4.2524e-001 58630 74065,74117,74091
 9.0000e-001 74238 -7.4273e-001 -1.5117e+000  1.0382e+000 58630 74356,74284,74065
 9.0000e-001 74215 -2.7317e+000 -2.4857e+000  4.7187e-001 58630 74284,74013,73987
 9.0000e-001 74192 -3.5630e-001 -3.8559e-001  7.2306e-001 58630 74356,74065,74039
 9.0000e-001 74169 -4.9810e+000 -3.1551e+000  1.7529e+000 58630 73987,74143,74117
 9.0000e-001 74310 -2.1094e+000 -3.3965e+000  4.4098e-001 58630 74117,74065,74284
 9.0000e-001 74333 -4.7802e+000 -1.6616e+000  8.3519e-003 58630 74117,74284,73987
 9.0000e-001 74382  1.4046e-001 -2.5452e+000 -6.4888e-001 58630 74013,74284,74356
 9.0000e-001 74405  6.4429e-001 -1.1844e+000 -9.8098e-001 58630 74013,74356,74039
 9.0000e-001 74815  6.0294e+000 -6.7451e+000 -1.0455e+000 58226 74590,74642,74616
 9.0000e-001 74792  1.2130e+000 -4.5380e+000  2.9138e+000 58226 74590,74694,74642
 9.0000e-001 74769  9.4920e-001 -5.4529e+000  3.3387e+000 58226 74590,74720,74694
 9.0000e-001 74746 -3.8249e+000 -4.3827e+000  1.0063e+000 58226 74642,74694,74668
 9.0000e-001 75014 -8.2547e-001 -1.1359e+000 -7.5970e-001 57786 75037,74864,74838
 9.0000e-001 74991 -2.7014e+000 -1.7922e+000  7.2461e-001 57786 75037,74838,74916
 9.0000e-001 74968 -2.0252e+000 -1.4000e+000  5.0748e-001 57786 74838,74942,74916
 9.0000e-001 75063 -3.4723e+000  3.4465e-001 -6.6737e-001 57786 74890,74864,75037
 9.0000e-001 75086 -5.1906e+000 -3.7409e-001  9.4982e-001 57786 74890,75037,74916
 9.0000e-001 75368 -1.4936e+000 -1.3352e-001 -1.4177e-001 57496 75192,75270,75218
 9.0000e-001 75345 -6.2867e-001 -6.4300e-002 -5.9394e-001 57496 75192,75296,75270
 9.0000e-001 75322 -9.0515e-001  4.2760e-002  2.6501e-001 57496 75218,75270,75244
 9.0000e-001 75648  2.7143e-001 -1.1386e-001 -7.0098e-001 57206 75472,75550,75498
 9.0000e-001 75625 -1.0664e+000  5.5868e-001  2.5000e-001 57206 75472,75576,75550
 9.0000e-001 75602 -1.9598e+000 -2.1576e+000  1.4717e-002 57206 75671,75550,75524
 9.0000e-001 75697 -1.3979e+000 -8.9613e-001  4.0057e-001 57206 75498,75550,75671
 9.0000e-001 76154 -6.7793e+000 -5.6161e+000  3.9939e+000 56802 75958,76010,75984
 9.0000e-001 76131 -6.1206e+000 -3.8150e+000  3.8168e+000 56802 75932,76010,75958
 9.0000e-001 76108 -5.1525e+000 -6.0670e-001  3.4568e+000 56802 75906,76010,75932
 9.0000e-001 76085 -7.9882e+000 -4.7228e+000  2.1848e+000 56802 75880,76010,75906
 9.0000e-001 76062 -2.9694e+000 -2.8149e+000  1.6840e+000 56802 75880,76036,76010
 9.0000e-001 76505 -6.3238e+000 -2.7662e+000 -1.0129e+000 56504 76306,76384,76332
 9.0000e-001 76482 -5.4655e+000 -3.6261e+000 -6.8352e-001 56504 76306,76410,76384
 9.0000e-001 76459 -4.6839e+000 -3.0065e+000 -1.7125e+000 56504 76332,76384,76358
 9.0000e-001 76436 -7.5286e+000 -5.1426e+000 -1.4829e+000 56504 76280,76410,76306
 9.0000e-001 77011 -4.2182e+000 -1.7990e+000 -2.0047e-002 56050 76740,76818,76792
 9.0000e-001 76988 -1.7240e+000 -5.7218e-001 -6.3364e-001 56050 76714,76818,76740
 9.0000e-001 76965 -3.1737e+000 -9.4734e-001 -2.4511e-001 56050 76688,76818,76714
 9.0000e-001 76942 -2.9021e+000 -7.8491e-001  1.0240e-002 56050 76688,76844,76818
 9.0000e-001 76919 -4.9124e-001 -9.2576e-002 -1.2029e+000 56050 76740,76792,76766
 9.0000e-001 76896 -2.8285e+000  2.2494e-001  3.2276e-001 56050 76688,76870,76844
 9.0000e-001 77517 -2.9392e+000 -9.2649e-001 -4.6651e-003 55738 77220,77350,77324
 9.0000e-001 77494 -3.1273e+000 -1.2497e+000 -2.3080e-001 55738 77220,77376,77350
 9.0000e-001 77471 -3.0719e+000  4.2371e-001 -7.0535e-001 55738 77194,77376,77220
 9.0000e-001 77448 -3.5740e+000 -2.3735e+000  8.4577e-001 55738 77220,77298,77246
 9.0000e-001 77425 -3.4980e+000 -2.0529e+000  8.6273e-001 55738 77220,77324,77298
 9.0000e-001 77402 -3.4665e+000 -2.5250e+000 -1.0719e+000 55738 77246,77298,77272
 9.0000e-001 78064 -7.1909e+000 -1.2373e+001 -4.0891e-001 55227 78231,78087,77773
 9.0000e-001 78041 -1.0031e+001 -1.2078e+001  5.0135e-001 55227 78087,77695,77643
 9.0000e-001 78018 -6.9814e+000 -1.8687e+001  1.2617e-001 55227 78159,77799,77773
 9.0000e-001 77995 -7.6155e+000 -1.2901e+001 -2.2137e-001 55227 78231,77773,77721
 9.0000e-001 77972 -8.7698e+000 -9.5080e+000  1.3894e+000 55227 77643,77695,77669
 9.0000e-001 77949 -6.7836e+000 -9.1968e+000  2.2951e+000 55227 77643,77877,77851
 9.0000e-001 77926 -5.2923e+000 -1.3947e+001 -8.9349e-001 55227 77799,77851,77825
 9.0000e-001 77903 -8.0554e+000 -1.4365e+001  6.5368e-001 55227 77721,77773,77747
 9.0000e-001 78113 -8.2393e+000 -1.4809e+001 -4.7471e-001 55227 78159,77773,78087
 9.0000e-001 78136 -7.3295e+000 -5.7863e+000  7.0159e-001 55227 77851,78087,77643
 9.0000e-001 78185 -5.3399e+000 -1.3220e+001 -1.8408e+000 55227 77851,77799,78159
 9.0000e-001 78208 -7.1454e+000 -1.0037e+001 -2.3999e+000 55227 77851,78159,78087
 9.0000e-001 78257 -8.2184e+000 -1.1001e+001 -1.3352e-002 55227 77695,78087,78231
 9.0000e-001 78280 -8.9706e+000 -1.1915e+001  3.1030e-001 55227 77695,78231,77721
 9.0000e-001 78737 -1.7467e+000 -5.1257e+000  3.5703e+000 54773 78463,78541,78515
 9.0000e-001 78714  1.9355e-001  1.2381e-001  1.7629e+000 54773 78463,78619,78541
 9.0000e-001 78691  1.1573e+000  8.5588e-001  1.3157e+000 54773 78463,78515,78489
 9.0000e-001 78668 -4.5071e+000 -7.0696e+000  1.8836e+000 54773 78541,78593,78567
 9.0000e-001 78645 -2.2966e+000 -4.7839e+000  2.8715e+000 54773 78541,78619,78593
 9.0000e-001 78838 -8.8174e+000 -1.2389e+001 -1.1221e+000 54211 78760,78812,78786
 9.0000e-001 79297  7.5795e-002 -2.8510e+000  1.0138e+000 53814 79520,79153,79049
 9.0000e-001 79274 -5.3268e-001 -5.6091e+000  4.0926e+000 53814 79520,79049,79023
 9.0000e-001 79251  1.2134e+000 -1.6643e+000  1.8178e+000 53814 79320,79101,79049
 9.0000e-001 79228  1.3998e+000 -1.0605e+000  4.1912e-001 53814 79320,79049,79153
 9.0000e-001 79205 -1.1917e+000 -1.0328e+000  1.5069e+000 53814 79049,79101,79075
 9.0000e-001 79346  1.0630e+000 -2.9771e+000  2.0882e-001 53814 79392,79320,79127
 9.0000e-001 79369  4.0626e+000  1.7872e-001 -1.1785e+000 53814 79127,79320,79153
 9.0000e-001 79418  3.0221e+000 -8.5246e-001  1.0214e+000 53814 79101,79320,79392
 9.0000e-001 79546  2.7586e+000  2.6227e+000 -2.1518e+000 53814 79179,79153,79520
 9.0000e-001 79569 -2.3253e+000 -2.1452e+000  1.9006e+000 53814 79179,79520,79023
 9.0000e-001 80075 -4.4782e+000 -3.4811e+000 -7.3014e-001 53039 80098,79908,79830
 9.0000e-001 80052 -4.6905e+000 -3.5152e+000 -1.3362e+000 53039 80098,79830,79804
 9.0000e-001 80029 -3.9356e+000 -2.0179e+000 -6.7217e-001 53039 79752,79934,79804
 9.0000e-001 80006 -3.9420e+000 -4.0545e+000 -7.0312e-002 53039 79856,79908,79882
 9.0000e-001 79983 -3.2833e+000 -3.1085e+000 -3.6015e-001 53039 79830,79908,79856
 9.0000e-001 79960 -3.5535e+000 -7.0752e-001 -7.6320e-001 53039 79752,79804,79778
 9.0000e-001 80124 -3.5060e+000 -2.9492e+000 -4.9150e-001 53039 79934,79908,80098
 9.0000e-001 80147 -4.2673e+000 -3.2671e+000 -1.1426e+000 53039 79934,80098,79804
 9.0000e-001 80555 -1.2792e+001  2.9949e+000  7.8886e+000 52699 80356,80434,80408
 9.0000e-001 80532 -1.4047e+001 -4.2903e+000  9.5949e+000 52699 80356,80460,80434
 9.0000e-001 80509 -1.5825e+001 -6.3708e+000  8.2710e+000 52699 80330,80460,80356
 9.0000e-001 80486 -1.5647e+001 -3.5559e+000  8.4684e+000 52699 80356,80408,80382
 9.0000e-001 80776 -1.9740e+000 -4.4759e-001  1.5876e-002 52295 80600,80678,80626
 9.0000e-001 80753 -1.8393e+000 -4.5823e-001  1.7305e-002 52295 80600,80704,80678
 9.0000e-001 80730 -2.3020e+000 -5.8042e-001  4.3329e-002 52295 80626,80678,80652
 9.0000e-001 81156 -4.7427e-001 -1.5212e-001  4.0843e-001 51891 81179,80960,80908
 9.0000e-001 81133 -1.1025e+000 -1.5329e+000  7.5702e-001 51891 81179,80908,81012
 9.0000e-001 81110 -3.3046e+000 -8.0651e-001  3.5484e-001 51891 80882,81012,80908
 9.0000e-001 81087  7.8245e-001  3.9230e-001  7.7698e-001 51891 80908,80960,80934
 9.0000e-001 81064 -4.7313e+000 -4.3149e+000  3.5771e-001 51891 80882,81038,81012
 9.0000e-001 81205 -8.8327e-001  1.6393e-001  1.5184e+000 51891 80986,80960,81179
 9.0000e-001 81228 -1.3816e+000 -1.4341e+000  1.7835e+000 51891 80986,81179,81012
 9.0000e-001 81606 -2.7390e+000  4.1045e-001  2.5130e+000 51544 81410,81462,81436
 9.0000e-001 81583 -3.4163e+000 -5.0250e+000 -8.9025e-003 51544 81384,81462,81410
 9.0000e-001 81560 -3.3831e-001 -3.3113e-001  1.4300e+000 51544 81358,81462,81384
 9.0000e-001 81537 -1.3003e+000  8.1492e-002 -1.2786e-001 51544 81358,81488,81462
 9.0000e-001 81514 -8.6736e-001 -2.4589e+000  2.0107e-001 51544 81332,81488,81358
 9.0000e-001 81854 -6.0834e+000 -3.3686e+000  6.9740e+000 51004 81877,81655,81629
 9.0000e-001 81831 -5.6319e+000  7.3918e-001  6.0522e+000 51004 81877,81629,81759
 9.0000e-001 81808 -2.6263e+000 -4.8579e+000  7.4287e+000 51004 81655,81707,81681
 9.0000e-001 81785 -6.7825e+000 -1.0336e+001  4.9850e+000 51004 81707,81759,81733
 9.0000e-001 81903 -5.2247e+000 -5.6426e+000  7.3763e+000 51004 81707,81655,81877
 9.0000e-001 81926 -6.2449e+000 -3.9868e+000  5.8738e+000 51004 81707,81877,81759
 9.0000e-001 82257 -3.1673e+000 -9.6177e-001  6.1516e-002 50642 82058,82136,82110
 9.0000e-001 82234 -3.4817e+000 -8.9488e-001  7.7081e-002 50642 82058,82162,82136
 9.0000e-001 82211 -1.9486e+000  3.9211e-001 -2.1311e+000 50642 82058,82110,82084
 9.0000e-001 82188 -2.1916e+000 -3.3953e-001  3.5732e-002 50642 82032,82162,82058
 9.0000e-001 82684 -5.1482e+000 -6.3138e-001  1.1600e-002 49931 82779,82707,82465
 9.0000e-001 82661 -4.2731e+000  1.2162e+000 -9.5343e-001 49931 82707,82413,82361
 9.0000e-001 82638 -5.7759e+000 -1.4909e+000  1.5924e+000 49931 82779,82465,82439
 9.0000e-001 82615 -3.0377e+000  1.5031e+000 -3.3189e-001 49931 82465,82543,82491
 9.0000e-001 82592 -4.1234e+000  4.5677e-001 -3.6613e-001 49931 82361,82413,82387
 9.0000e-001 82569 -3.1265e+000  1.0464e+000 -2.7699e-001 49931 82491,82543,82517
 9.0000e-001 82733 -3.4081e+000  6.5107e-001 -5.8293e-001 49931 82543,82465,82707
 9.0000e-001 82756 -4.5121e+000  5.4949e-001 -8.6421e-001 49931 82543,82707,82361
 9.0000e-001 82805 -4.3568e+000  1.4999e+000 -7.6245e-001 49931 82413,82707,82779
 9.0000e-001 82828 -4.6316e+000  6.0753e-001  7.0783e-001 49931 82413,82779,82439
 9.0000e-001 83255 -1.7204e+001 -1.4416e+001  2.4936e+000 49327 82984,83114,83036
 9.0000e-001 83232 -2.0002e+001 -2.0709e+001  1.9804e-001 49327 82958,83114,82984
 9.0000e-001 83209 -1.4961e+001 -2.7249e+001  6.6894e+000 49327 83036,83114,83088
 9.0000e-001 83186 -1.3761e+001 -1.5909e+001  1.1097e+000 49327 82984,83036,83010
 9.0000e-001 83163 -1.5338e+001 -2.1070e+001 -2.6005e-001 49327 82932,83114,82958
 9.0000e-001 83140 -5.3565e+000 -9.6598e+000  2.9780e+000 49327 83036,83088,83062
 9.0000e-001 83938 -3.3170e+000 -1.4327e+001  1.0317e+000 48965 83961,83673,83647
 9.0000e-001 83915 -1.8733e+000 -1.0399e+001  8.7863e-001 48965 83961,83647,83543
 9.0000e-001 83892 -5.1193e+000 -1.1621e+001 -2.1692e+000 48965 83517,83725,83543
 9.0000e-001 83869  2.3087e+000 -1.7040e+001 -3.1282e+000 48965 83673,83725,83699
 9.0000e-001 83846 -2.5598e-001 -7.6302e+000 -1.1742e+000 48965 83543,83647,83621
 9.0000e-001 83823 -4.4682e+000 -7.7906e+000  6.5853e-001 48965 83543,83621,83569
 9.0000e-001 83800 -5.4262e+000 -1.2913e+001 -6.4680e+000 48965 83517,83751,83725
 9.0000e-001 83777 -5.4110e+000 -9.0308e+000 -1.3621e+000 48965 83569,83621,83595
 9.0000e-001 83987 -2.5532e+000 -1.3448e+001 -1.3882e+000 48965 83725,83673,83961
 9.0000e-001 84010 -1.9131e+000 -1.1927e+001 -1.0817e+000 48965 83725,83961,83543
 9.0000e-001 84258  8.1068e-001 -7.6396e-001  2.8521e+000 48447 84281,84059,84033
 9.0000e-001 84235 -2.6067e-001 -2.8437e+000  1.0854e+000 48447 84281,84033,84163
 9.0000e-001 84212 -1.4410e+000  7.8114e-001  3.5688e+000 48447 84059,84111,84085
 9.0000e-001 84189 -1.2037e+000 -8.7903e-001  8.6267e-001 48447 84111,84163,84137
 9.0000e-001 84307  1.5437e+000 -4.2744e-001  3.8264e+000 48447 84111,84059,84281
 9.0000e-001 84330  1.9800e+000 -1.3218e+000  2.2476e+000 48447 84111,84281,84163
 9.0000e-001 84529 -4.2783e+000 -1.9975e+000  1.5503e+000 47993 84552,84405,84379
 9.0000e-001 84506  1.9663e+000 -2.7400e-001  8.2880e-001 47993 84552,84379,84353
 9.0000e-001 84483 -3.9549e+000 -1.3188e+000  4.3281e-001 47993 84624,84457,84431
 9.0000e-001 84578 -6.2002e+000 -2.3089e+000  3.5525e+000 47993 84431,84405,84552
 9.0000e-001 84601 -4.1211e+000 -2.5922e+000  1.1930e+000 47993 84624,84431,84552
 9.0000e-001 84650 -3.9437e+000 -4.7939e-001  3.0633e-001 47993 84353,84457,84624
 9.0000e-001 84673 -3.3752e+000 -2.9479e-001  1.2863e+000 47993 84353,84624,84552
 9.0000e-001 85104 -2.9566e+000 -4.7035e-001 -9.7804e-001 47588 85199,85127,84885
 9.0000e-001 85081 -3.5241e+000  1.0404e+000 -1.0399e+000 47588 85127,84781,84963
 9.0000e-001 85058 -3.1037e+000 -6.4812e-001 -8.8350e-001 47588 85199,84885,84807
 9.0000e-001 85035 -2.9699e+000 -5.5597e+000 -5.0297e+000 47588 84885,84937,84911
 9.0000e-001 85012 -2.2869e+000 -3.8317e+000 -1.0566e-001 47588 84807,84885,84833
 9.0000e-001 84989 -2.0481e+000 -3.7431e+000 -7.8290e-001 47588 84833,84885,84859
 9.0000e-001 85153 -3.0623e+000 -2.8358e-001 -1.1263e+000 47588 84937,84885,85127
 9.0000e-001 85176 -4.5542e+000 -1.4560e-001 -1.4766e+000 47588 84937,85127,84963
 9.0000e-001 85225 -3.0989e+000 -3.4685e-001 -6.5729e-001 47588 84781,85127,85199
 9.0000e-001 85248 -3.3239e+000 -7.5439e-001 -5.4103e-001 47588 84781,85199,84807
 9.0000e-001 85518 -3.8802e+000  1.1407e+000 -2.5215e-001 47226 85293,85397,85319
 9.0000e-001 85495 -3.7577e+000  1.8230e+000 -8.9279e-001 47226 85293,85423,85397
 9.0000e-001 85472 -4.6426e+000  7.1960e-001 -5.0273e-001 47226 85319,85397,85345
 9.0000e-001 85449 -5.1228e+000 -2.1534e+000 -3.8579e-001 47226 85345,85397,85371
 9.0000e-001 85849 -1.3373e+000 -3.7168e+000 -7.9973e-002 46572 85624,85702,85650
 9.0000e-001 85826 -5.7061e-001  1.9515e+000  2.1923e+000 46572 85624,85754,85702
 9.0000e-001 85803 -3.8598e+000 -5.3727e+000  7.4532e-002 46572 85702,85754,85728
 9.0000e-001 85780 -4.3321e+000 -4.7067e+000 -8.4499e-001 46572 85650,85702,85676
 9.0000e-001 86070 -1.3666e+001 -2.3369e+001 -4.3145e-001 46374 85920,85972,85946
 9.0000e-001 86047 -1.1959e+001 -1.9398e+001 -5.0097e-002 46374 85920,85998,85972
 9.0000e-001 86024 -1.1508e+001 -1.8962e+001  1.9919e-001 46374 85894,85998,85920
 9.0000e-001 86401 -5.9114e+000  9.0100e-002  2.6500e-001 46034 86424,86280,86228
 9.0000e-001 86378 -7.0751e+000 -5.6512e-001 -5.8530e-002 46034 86424,86228,86176
 9.0000e-001 86355 -8.8265e+000 -1.3447e+000 -3.1351e+000 46034 86176,86228,86202
 9.0000e-001 86332 -5.1489e+000  4.2270e-001  9.9508e-001 46034 86228,86280,86254
 9.0000e-001 86450 -3.3686e+000 -9.1479e-001 -1.8888e-001 46034 86306,86280,86424
 9.0000e-001 86473 -5.8096e+000 -2.3708e+000 -7.9638e-001 46034 86306,86424,86176
 9.0000e-001 87058 -7.9438e+000 -1.1502e+001 -1.2708e-001 45516 86813,86917,86865
 9.0000e-001 87035 -7.9206e+000 -1.2451e+001 -1.1580e+000 45516 86787,86917,86813
 9.0000e-001 87012 -7.6046e+000 -1.0983e+001 -1.1284e+000 45516 86735,86917,86787
 9.0000e-001 86989 -6.1253e+000 -1.0904e+001 -4.0036e-001 45516 86865,86917,86891
 9.0000e-001 86966 -7.3547e+000 -1.3047e+001 -2.1060e-001 45516 86813,86865,86839
 9.0000e-001 86943 -1.1193e+001 -2.0137e+001 -6.8624e-001 45516 86735,86787,86761
 9.0000e-001 87208 -1.3655e+001 -1.0417e+001  9.6707e+000 45226 87231,87133,87107
 9.0000e-001 87185 -7.4929e+000 -2.6036e+000  1.2408e+001 45226 87081,87159,87133
 9.0000e-001 87257 -9.7614e+000 -1.1433e+001  8.2452e+000 45226 87081,87133,87231
 9.0000e-001 87537 -5.9852e+000  1.6328e+000  2.2815e-001 44772 87387,87439,87413
 9.0000e-001 87514 -1.0041e+001 -1.4694e+000  2.9216e+000 44772 87361,87439,87387
 9.0000e-001 87491 -9.0289e+000  5.7845e+000  1.4688e+000 44772 87361,87465,87439
 9.0000e-001 87996 -4.8130e+000  1.5474e-001 -2.2328e-001 44425 87748,87878,87852
 9.0000e-001 87973 -3.8252e+000  5.2343e-001  7.9297e-001 44425 87722,87878,87748
 9.0000e-001 87950 -8.6426e+000 -1.1928e+000 -6.0681e-001 44425 87800,87852,87826
 9.0000e-001 87927 -3.3545e+000  6.9634e-001 -5.5330e-001 44425 87748,87852,87800
 9.0000e-001 87904 -5.6299e+000  3.2843e+000 -2.9316e+000 44425 87748,87800,87774
 9.0000e-001 88423 -1.2046e+000  1.4957e+000  1.8519e+000 44078 88590,88230,88204
 9.0000e-001 88400 -6.8658e-001  2.3280e+000  2.2297e+000 44078 88518,88446,88204
 9.0000e-001 88377 -1.2995e-002  6.6406e-001  2.4516e+000 44078 88446,88126,88282
 9.0000e-001 88354 -1.7786e+000  3.3858e+000  1.5821e+000 44078 88518,88204,88178
 9.0000e-001 88331  3.2325e+000  1.5743e+000  4.1535e+000 44078 88100,88282,88126
 9.0000e-001 88308 -2.3567e+000  1.8191e-001 -3.3950e-001 44078 88126,88178,88152
 9.0000e-001 88472 -7.9725e-001  2.3073e+000  2.3116e+000 44078 88590,88204,88446
 9.0000e-001 88495 -7.6877e-001 -1.9010e-001  3.0763e+000 44078 88256,88446,88282
 9.0000e-001 88544 -1.4668e+000  5.9071e-003  1.9300e+000 44078 88126,88446,88518
 9.0000e-001 88567 -1.8290e+000  2.1161e+000  1.4895e+000 44078 88126,88518,88178
 9.0000e-001 88616 -6.5846e-001  1.5050e+001  2.5486e+000 44078 88256,88230,88590
 9.0000e-001 88639 -2.6487e+000  1.1359e+000  3.6035e+000 44078 88256,88590,88446
 9.0000e-001 89039 -5.6844e+000  1.4284e-001 -2.6936e-001 43716 88791,88921,88895
 9.0000e-001 89016 -3.9086e+000  3.1702e+000  7.0178e-001 43716 88765,88921,88791
 9.0000e-001 88993 -5.5814e+000  7.6497e-001 -1.4781e+000 43716 88817,88895,88869
 9.0000e-001 88970 -3.6386e-001  2.6333e+000 -9.5341e-001 43716 88791,88895,88817
 9.0000e-001 88947 -9.6794e+000 -1.7594e+000 -3.2956e-001 43716 88817,88869,88843
 9.0000e-001 89496 -1.0331e+001 -1.8589e+001 -1.0008e+000 43162 89519,89274,89248
 9.0000e-001 89473 -1.0297e+001 -1.5387e+001 -4.7436e-001 43162 89519,89248,89222
 9.0000e-001 89450 -8.4011e+000 -1.0999e+001 -1.6386e+000 43162 89326,89378,89352
 9.0000e-001 89427 -8.9598e+000 -1.3452e+001  4.4676e-001 43162 89274,89378,89326
 9.0000e-001 89404 -9.2614e+000 -1.6100e+001 -1.5122e-001 43162 89274,89326,89300
 9.0000e-001 89545 -1.0208e+001 -1.5697e+001 -5.2064e-001 43162 89378,89274,89519
 9.0000e-001 89568 -9.9897e+000 -1.2252e+001  3.0919e-002 43162 89378,89519,89222
 9.0000e-001 89946 -6.2541e+000  2.4029e+000 -1.3134e+000 42594 90041,89969,89750
 9.0000e-001 89923 -6.6925e+000 -3.1790e-001 -1.1729e+000 42594 89969,89698,89828
 9.0000e-001 89900 -5.5253e+000  2.5209e+000 -1.3694e+000 42594 90041,89750,89724
 9.0000e-001 89877 -5.7540e+000  8.5314e-001  4.8281e-001 42594 89750,89802,89776
 9.0000e-001 89854 -9.7071e+000 -3.6845e+000 -2.6014e+000 42594 89672,89828,89698
 9.0000e-001 89995 -7.0008e+000  4.8351e-001 -1.0951e+000 42594 89802,89750,89969
 9.0000e-001 90018 -6.3531e+000 -3.5414e-001 -1.9955e+000 42594 89802,89969,89828
 9.0000e-001 90067 -5.2478e+000  3.0663e-001 -1.0401e+000 42594 89698,89969,90041
 9.0000e-001 90090 -2.7970e+000  2.1720e+000 -1.8945e+000 42594 89698,90041,89724
 9.0000e-001 90517 -9.0404e+000 -1.0983e+001  1.1720e+000 42140 90540,90220,90194
 9.0000e-001 90494 -1.2674e+001 -1.8539e+001  2.7889e+000 42140 90540,90194,90376
 9.0000e-001 90471 -1.0753e+001 -9.4066e+000  2.1657e+000 42140 90612,90350,90272
 9.0000e-001 90448 -1.4256e+001 -6.4060e+000  5.4021e-001 42140 90272,90350,90298
 9.0000e-001 90425 -1.3110e+001 -5.0961e+000 -6.3303e-001 42140 90298,90350,90324
 9.0000e-001 90402 -1.0724e+001 -1.1096e+001  4.5330e-001 42140 90220,90272,90246
 9.0000e-001 90566 -1.1130e+001 -1.1253e+001  5.0750e-001 42140 90272,90220,90540
 9.0000e-001 90589 -1.1616e+001 -1.1488e+001  7.4186e-001 42140 90612,90272,90540
 9.0000e-001 90638 -1.0128e+001 -7.6283e+000  3.3497e+000 42140 90376,90350,90612
 9.0000e-001 90661 -8.9038e+000 -9.1647e+000  2.4765e+000 42140 90376,90612,90540
 9.0000e-001 91167 -8.3321e+000  2.0582e+000  4.2694e+000 41636 91190,90870,90844
 9.0000e-001 91144 -5.1594e+000  9.2334e+000  2.9006e+000 41636 91190,90844,91026
 9.0000e-001 91121 -9.6424e+000 -1.4292e+000  6.8979e+000 41636 90870,90922,90896
 9.0000e-001 91098 -5.1986e+000  1.2768e+000  3.6951e+000 41636 90922,91026,90948
 9.0000e-001 91075 -4.8882e+000  3.6416e+000  1.4490e+000 41636 90948,91026,91000
 9.0000e-001 91052 -3.1826e+000 -5.4179e-001 -1.1287e+000 41636 90948,91000,90974
 9.0000e-001 91216 -5.1077e+000 -1.3295e+000  4.5351e+000 41636 90922,90870,91190
 9.0000e-001 91239 -4.6461e+000  1.7138e+000  3.1953e+000 41636 90922,91190,91026
 9.0000e-001 91696 -6.1766e+000  9.4327e-002 -2.3510e+000 40449 91448,91526,91474
 9.0000e-001 91673 -2.4796e+000  1.3893e+000 -1.9437e+000 40449 91448,91578,91526
 9.0000e-001 91650 -9.7564e+000 -1.7428e-001 -4.1086e+000 40449 91474,91526,91500
 9.0000e-001 91627 -3.5224e+000  2.0947e+000 -1.2327e+000 40449 91422,91578,91448
 9.0000e-001 91604 -2.8518e+000  3.7615e+000 -2.3392e+000 40449 91526,91578,91552
 9.0000e-001 92123 -4.7240e+000  1.4206e+000 -1.4634e+000 39995 92146,91904,91826
 9.0000e-001 92100 -5.2375e+000  1.4093e+000 -2.9441e-002 39995 92146,91826,91800
 9.0000e-001 92077 -2.4025e+000  1.7235e+000 -1.7731e+000 39995 91826,91904,91852
 9.0000e-001 92054 -3.8151e+000  5.9990e+000 -1.3799e+000 39995 91904,91982,91930
 9.0000e-001 92031 -7.4897e+000  1.4913e-001 -4.0016e-001 39995 91852,91904,91878
 9.0000e-001 92008 -6.8314e+000  4.0156e+000  2.8426e-001 39995 91930,91982,91956
 9.0000e-001 92172 -4.7483e+000  2.4328e+000 -1.1192e+000 39995 91982,91904,92146
 9.0000e-001 92195 -4.5572e+000  4.0826e+000  2.1508e-002 39995 91982,92146,91800
 9.0000e-001 92652 -1.2043e+001 -1.7074e+001  7.7707e-001 39633 92404,92534,92456
 9.0000e-001 92629 -1.2522e+001 -1.4810e+001  8.0720e-001 39633 92378,92534,92404
 9.0000e-001 92606 -1.6846e+001 -1.9247e+001 -1.1209e-001 39633 92404,92456,92430
 9.0000e-001 92583 -1.3252e+001 -1.7202e+001  1.7768e+000 39633 92456,92534,92508
 9.0000e-001 92560 -9.2590e+000 -1.5312e+001  3.7334e+000 39633 92456,92508,92482
 9.0000e-001 93079 -6.3566e+000 -3.9428e+000 -3.2261e-002 39093 93102,92808,92756
 9.0000e-001 93056 -9.2986e+000 -6.5074e+000  1.3855e+000 39093 93102,92756,92938
 9.0000e-001 93033 -8.4159e+000 -2.4172e+000 -1.6275e+000 39093 93174,92912,92834
 9.0000e-001 93010 -6.1761e+000 -2.4794e+000 -1.7294e+000 39093 92834,92912,92860
 9.0000e-001 92987 -7.3849e+000 -5.3791e+000  4.9139e-001 39093 92756,92808,92782
 9.0000e-001 92964 -5.6689e+000 -3.4392e-001 -8.1049e-001 39093 92860,92912,92886
 9.0000e-001 93128 -9.0046e+000 -2.6997e+000 -7.7212e-001 39093 92834,92808,93102
 9.0000e-001 93151 -8.5378e+000 -3.0977e+000 -8.7959e-001 39093 93174,92834,93102
 9.0000e-001 93200 -9.0002e+000 -2.9073e+000 -9.3385e-001 39093 92938,92912,93174
 9.0000e-001 93223 -9.8964e+000 -3.5035e+000 -1.9737e-001 39093 92938,93174,93102
 9.0000e-001 93680 -1.1978e+001 -7.9691e+000 -1.6079e+000 38639 93703,93536,93484
 9.0000e-001 93657 -1.1661e+001 -8.1694e+000 -1.6777e+000 38639 93703,93484,93432
 9.0000e-001 93634 -1.0930e+001 -6.3517e+000 -3.4854e+000 38639 93432,93484,93458
 9.0000e-001 93611 -1.1927e+001 -8.2588e+000 -2.7648e+000 38639 93484,93536,93510
 9.0000e-001 93588 -1.0167e+001 -8.7061e+000 -1.1617e+000 38639 93406,93562,93432
 9.0000e-001 93729 -1.1685e+001 -8.3974e+000 -1.6015e+000 38639 93562,93536,93703
 9.0000e-001 93752 -1.1001e+001 -8.1951e+000 -1.8243e+000 38639 93562,93703,93432
 9.0000e-001 94160  1.7315e+000  1.4944e+000  5.8586e-001 38292 93935,94039,93961
 9.0000e-001 94137  1.3542e+000  3.5111e-001  8.8715e-001 38292 93935,94065,94039
 9.0000e-001 94114 -5.6761e-001 -1.5249e+000 -1.5003e+000 38292 93961,94013,93987
 9.0000e-001 94091  3.0038e+000 -2.0768e+000  3.9203e-001 38292 93961,94039,94013
 9.0000e-001 94408 -1.0300e+001 -3.5659e+000 -1.7271e+000 37880 94431,94261,94235
 9.0000e-001 94385 -1.0037e+001 -1.8571e+000 -1.6278e+000 37880 94431,94235,94313
 9.0000e-001 94362 -1.1398e+001 -4.0087e+000 -8.6947e-001 37880 94209,94313,94235
 9.0000e-001 94339 -9.9860e+000  8.9537e-001 -3.4879e+000 37880 94183,94313,94209
 9.0000e-001 94457 -1.0481e+001 -1.9336e+000 -2.2171e+000 37880 94287,94261,94431
 9.0000e-001 94480 -1.0608e+001 -7.2328e-001 -1.8605e+000 37880 94287,94431,94313
 9.0000e-001 94728 -5.8582e+000  8.7599e+000 -3.2207e+000 37426 94529,94607,94555
 9.0000e-001 94705 -8.7896e+000  8.2141e+000 -1.8177e+000 37426 94529,94633,94607
 9.0000e-001 94682 -1.0132e+001  9.7440e+000 -1.1562e+000 37426 94503,94633,94529
 9.0000e-001 94659 -2.0667e+001 -1.6409e+001  8.8077e+000 37426 94555,94607,94581
 9.0000e-001 95257 -6.5783e+000 -4.6253e+000  4.3800e+000 36722 95496,95280,94862
 9.0000e-001 95234 -3.7647e+000 -4.0626e+000  1.7891e-001 36722 95496,94862,94836
 9.0000e-001 95211 -6.7975e+000 -4.5719e+000  4.6669e+000 36722 95352,95280,95070
 9.0000e-001 95188 -6.3464e+000 -2.4093e+000  5.0127e+000 36722 95352,95070,95044
 9.0000e-001 95165 -5.4813e+000 -1.2708e+001  2.6468e+000 36722 95424,94888,94862
 9.0000e-001 95142 -1.0290e+001  1.3110e+000  4.1043e+000 36722 94914,94966,94940
 9.0000e-001 95119 -5.2413e+000  2.1291e+000  1.6396e+000 36722 94966,95044,95018
 9.0000e-001 95096 -3.8067e+000  2.0729e+000  3.6397e+000 36722 94966,95018,94992
 9.0000e-001 95306 -7.8718e+000 -4.2289e+000  3.9500e+000 36722 95424,94862,95280
 9.0000e-001 95329 -7.5044e+000  7.6039e-001  1.5226e+000 36722 94914,95280,94966
 9.0000e-001 95378 -6.7406e+000 -5.2197e+000  3.6141e+000 36722 94966,95280,95352
 9.0000e-001 95401 -7.0488e+000 -4.4464e+000  4.0523e+000 36722 94966,95352,95044
 9.0000e-001 95450 -1.0314e+001 -9.5880e+000 -1.8505e+000 36722 94914,94888,95424
 9.0000e-001 95473 -1.1742e+001 -8.4631e+000  4.2059e-001 36722 94914,95424,95280
 9.0000e-001 95522 -7.2177e+000 -6.7497e+000  4.6794e+000 36722 95070,95280,95496
 9.0000e-001 95545 -6.1959e+000 -7.7529e+000  3.9553e+000 36722 95070,95496,94836
 9.0000e-001 96130 -7.3727e+000 -9.1793e+000 -1.1778e-001 36268 96153,95911,95859
 9.0000e-001 96107 -8.4037e+000 -9.8982e+000 -5.5946e-001 36268 96153,95859,95807
 9.0000e-001 96084 -7.4272e+000 -4.3224e+000  2.5534e+000 36268 95807,95859,95833
 9.0000e-001 96061 -4.8884e+000 -1.2275e+001 -2.1748e+000 36268 95911,95989,95937
 9.0000e-001 96038 -2.9333e+000 -7.0526e+000  1.0258e+000 36268 95859,95911,95885
 9.0000e-001 96015 -1.0738e+001 -7.1285e+000 -5.9350e+000 36268 95937,95989,95963
 9.0000e-001 96179 -6.0349e+000 -1.0138e+001  5.5147e-002 36268 95989,95911,96153
 9.0000e-001 96202 -7.2506e+000 -1.1156e+001 -5.0890e-001 36268 95989,96153,95807
 9.0000e-001 96531 -5.3640e+000  5.0675e+000 -4.4377e+000 35728 96358,96410,96384
 9.0000e-001 96508 -4.3227e+000  6.6804e+000 -5.2147e+000 35728 96332,96410,96358
 9.0000e-001 96485 -5.5713e+000  6.0794e+000 -3.5475e+000 35728 96332,96436,96410
 9.0000e-001 96462 -9.3817e+000  3.1558e+000 -1.8724e+000 35728 96306,96436,96332
 9.0000e-001 96860 -5.9546e-001  6.6416e-001  7.6137e-001 35324 96687,96765,96713
 9.0000e-001 96837 -1.9716e-001  5.5645e-001 -1.7249e+000 35324 96661,96765,96687
 9.0000e-001 96814  1.3687e+000  2.4523e+000 -6.2601e-002 35324 96713,96765,96739
 9.0000e-001 96791  2.6037e-001  1.5558e+000 -1.3879e+000 35324 96635,96765,96661
 9.0000e-001 97366 -2.5546e+000 -6.7537e-001 -6.4771e-001 34920 97389,97069,97043
 9.0000e-001 97343 -2.7816e+000 -1.0015e+000 -7.7375e-001 34920 97389,97043,97199
 9.0000e-001 97320 -1.8832e-001  9.4686e+000 -5.4868e-001 34920 97043,97225,97199
 9.0000e-001 97297 -3.1409e-001 -3.9511e-001 -5.7456e-001 34920 97069,97121,97095
 9.0000e-001 97274 -3.5292e+000 -5.1845e+000 -2.0777e+000 34920 97121,97199,97173
 9.0000e-001 97251 -5.5173e+000 -5.7192e+000 -2.0859e+000 34920 97121,97173,97147
 9.0000e-001 97415 -2.3112e+000 -6.8023e-001 -1.6817e-001 34920 97121,97069,97389
 9.0000e-001 97438 -2.6505e+000 -1.3866e+000 -3.1564e-001 34920 97121,97389,97199
 9.0000e-001 97708 -1.4412e+001 -1.8888e+001  9.1043e-001 34722 97509,97587,97535
 9.0000e-001 97685 -1.8114e+001 -1.5439e+001  9.5060e-001 34722 97509,97613,97587
 9.0000e-001 97662 -1.1286e+001 -1.1391e+001  3.1145e+000 34722 97483,97613,97509
 9.0000e-001 97639 -1.7154e+001 -2.1529e+001 -1.9713e+000 34722 97535,97587,97561
 9.0000e-001 98216 -8.8739e+000  2.5188e+000 -3.1124e+000 34318 97971,98075,97997
 9.0000e-001 98193 -7.9348e+000  6.4191e+000 -3.8740e+000 34318 97893,98075,97971
 9.0000e-001 98170 -1.2005e+001 -2.8326e+000 -2.2756e+000 34318 97893,97971,97919
 9.0000e-001 98147 -7.9426e+000  4.5918e+000 -3.3596e+000 34318 97997,98075,98049
 9.0000e-001 98124 -6.9833e+000 -5.7624e-001 -3.1747e+000 34318 97919,97971,97945
 9.0000e-001 98101 -5.4977e+000  1.0127e+001 -3.8845e+000 34318 97997,98049,98023
 9.0000e-001 98594 -8.4554e+000 -1.0912e+001 -1.8444e+000 33814 98961,98617,98424
 9.0000e-001 98571 -9.9530e+000 -1.1983e+001 -1.5688e+000 33814 98689,98617,98372
 9.0000e-001 98548 -1.0556e+001 -1.3857e+001 -1.1945e+000 33814 99033,98689,98372
 9.0000e-001 98525 -8.0247e+000 -1.0574e+001 -6.4601e-001 33814 98761,98476,98450
 9.0000e-001 98502 -6.7846e+000 -1.2573e+001 -1.4532e+000 33814 98961,98424,98398
 9.0000e-001 98643 -9.6263e+000 -1.1030e+001 -1.3601e+000 33814 98450,98424,98617
 9.0000e-001 98666 -9.5067e+000 -1.1549e+001 -1.1271e+000 33814 98761,98450,98617
 9.0000e-001 98715 -9.9525e+000 -1.1728e+001 -1.9858e+000 33814 99161,98689,98320
 9.0000e-001 98738 -7.9706e+000 -1.1137e+001 -2.5270e+000 33814 98320,98689,98346
 9.0000e-001 98787 -9.0201e+000 -1.1249e+001 -1.6388e+000 33814 98833,98761,98320
 9.0000e-001 98810 -9.5610e+000 -1.1664e+001 -1.8516e+000 33814 99161,98320,98761
 9.0000e-001 98859 -8.9299e+000 -1.1450e+001 -1.5996e+000 33814 98476,98761,98833
 9.0000e-001 98987 -1.0201e+001 -1.2596e+001 -1.1529e+000 33814 98372,98617,98961
 9.0000e-001 99010 -9.0488e+000 -1.4945e+001 -4.9858e-001 33814 98372,98961,98398
 9.0000e-001 99059 -9.9949e+000 -1.1796e+001 -2.3281e+000 33814 98346,98689,99033
 9.0000e-001 99187 -9.7121e+000 -1.1745e+001 -1.4503e+000 33814 98617,98689,99161
 9.0000e-001 99210 -9.0015e+000 -1.1555e+001 -1.3542e+000 33814 98617,99161,98761
 9.0000e-001 99588 -1.4329e+001 -1.6164e+001 -2.3049e+000 33566 99366,99444,99392
 9.0000e-001 99565 -1.3477e+001 -1.3460e+001 -1.6125e+000 33566 99314,99444,99366
 9.0000e-001 99542 -1.4585e+001 -1.3453e+001 -1.9167e-001 33566 99314,99366,99340
 9.0000e-001 99519 -1.7538e+001 -1.4231e+001 -2.6856e+000 33566 99314,99470,99444
 9.0000e-001 99496 -1.0102e+001 -1.3000e+001 -5.7371e+000 33566 99392,99444,99418
 9.0000e-001 99787 -9.0684e+000  2.0146e+001 -1.9430e+001 33105 99637,99689,99663
 9.0000e-001 99764 -1.0481e+001  1.1440e+001 -5.5171e+000 33105 99611,99689,99637
 9.0000e-001 99741 -1.9322e+001  6.3691e+000  8.5055e-002 33105 99611,99715,99689
 9.0000e-001 100167 -1.2653e+000 -1.2362e+000  2.4113e+000 32651 100190,99971,99919
 9.0000e-001 100144  1.3525e+000  6.8725e-002  1.5815e+000 32651 100262,100190,99919
 9.0000e-001 100121  1.7641e+000 -5.8867e-002  1.9016e+000 32651 100262,99919,100049
 9.0000e-001 100098  3.6980e+000  7.3961e-001  2.7186e+000 32651 99893,100049,99919
 9.0000e-001 100075 -3.8562e+000 -1.7052e+000  7.7146e-001 32651 99919,99971,99945
 9.0000e-001 100216  1.4602e+000 -1.2363e+000  1.1212e+000 32651 99997,99971,100190
 9.0000e-001 100239  2.7513e+000  9.5692e-002  1.6908e-001 32651 99997,100190,100023
 9.0000e-001 100288  1.7787e+000  7.0946e-001  1.7864e+000 32651 100023,100190,100262
 9.0000e-001 100311  2.4232e+000  6.3815e-001  2.2959e+000 32651 100023,100262,100049
 9.0000e-001 100608  3.8596e-001  2.3858e+000 -7.2703e+000 32254 100386,100490,100464
 9.0000e-001 100585  2.3740e+000  4.6090e+000 -6.0965e+000 32254 100360,100490,100386
 9.0000e-001 100562  1.3625e+000 -5.4756e+000 -1.2130e+001 32254 100386,100464,100412
 9.0000e-001 100539 -7.0790e+000  3.6497e+000 -6.4377e-002 32254 100334,100490,100360
 9.0000e-001 100516  3.0177e+000 -5.6007e+000 -1.0853e+001 32254 100412,100464,100438
 9.0000e-001 100758 -3.8472e+000 -4.0871e+000 -3.0285e+000 31914 100985,100781,100683
 9.0000e-001 100735 -7.5040e+000 -3.4028e+000  8.3869e-001 31914 100853,100781,100657
 9.0000e-001 100807  6.8215e+000  9.3877e-001 -1.0532e+001 31914 100709,100683,100781
 9.0000e-001 100830 -1.1975e+001 -5.7012e+000 -6.1694e+000 31914 100709,100781,100631
 9.0000e-001 100879 -8.9528e+000 -9.1975e+000  1.6125e+000 31914 100631,100781,100853
 9.0000e-001 101011 -2.0464e+000 -2.9524e+000 -1.9726e+000 31914 100657,100781,100985
 9.0000e-001 101191 -1.7249e+001  1.9158e+001 -3.8975e+000 31418 101113,101165,101139
 9.0000e-001 101341 -1.7146e+001 -1.6111e+001  2.4982e-001 31106 101214,101266,101240
 9.0000e-001 101318 -1.4624e+001 -8.6119e+000  1.4089e+000 31106 101214,101292,101266
 9.0000e-001 101591 -2.0417e+001 -1.3064e+001 -2.1671e+000 30552 101614,101470,101444
 9.0000e-001 101568 -1.1992e+001 -1.1596e+001  2.2050e+000 30552 101366,101496,101470
 9.0000e-001 101545 -2.4733e+001 -1.5815e+001  1.1442e+000 30552 101614,101444,101392
 9.0000e-001 101522 -2.1630e+001 -9.4326e+000 -2.8935e+000 30552 101392,101444,101418
 9.0000e-001 101640 -2.6356e+001 -1.1840e+001  8.2935e-001 30552 101366,101470,101614
 9.0000e-001 101663 -3.0093e+001 -1.4066e+001  4.0805e+000 30552 101366,101614,101392
 9.0000e-001 102301 -1.1980e+001 -1.2914e+001  5.6286e-001 30042 102396,102324,102059
 9.0000e-001 102278 -1.1436e+001 -1.1632e+001  2.3026e-001 30042 102324,101981,101955
 9.0000e-001 102255 -1.2371e+001 -1.3222e+001  3.7561e-001 30042 102396,102059,102033
 9.0000e-001 102232 -1.1182e+001 -1.1021e+001 -1.1907e+000 30042 101929,102111,101955
 9.0000e-001 102209 -1.1527e+001 -1.0823e+001  1.8014e-001 30042 102059,102111,102085
 9.0000e-001 102186 -9.8083e+000 -1.0283e+001 -1.6203e+000 30042 101929,102137,102111
 9.0000e-001 102163 -1.2318e+001 -1.4744e+001  9.7529e-001 30042 101981,102033,102007
 9.0000e-001 102350 -1.0846e+001 -1.2156e+001 -1.3889e-001 30042 102111,102059,102324
 9.0000e-001 102373 -1.1274e+001 -1.0819e+001 -1.0907e+000 30042 102111,102324,101955
 9.0000e-001 102422 -1.1086e+001 -1.3525e+001  3.8758e-002 30042 101981,102324,102396
 9.0000e-001 102445 -1.1577e+001 -1.3886e+001 -1.6946e-001 30042 101981,102396,102033
 9.0000e-001 103000 -4.6609e+000 -6.2526e+000 -1.7794e+000 29730 103023,102706,102654
 9.0000e-001 102977 -3.2485e+000 -6.3082e+000 -1.2795e+000 29730 103023,102654,102810
 9.0000e-001 102954 -2.9702e+000 -1.5394e+001 -3.0797e+000 29730 102732,102810,102784
 9.0000e-001 102931 -7.7997e+000 -1.1561e+001 -3.3140e+000 29730 102628,102810,102654
 9.0000e-001 102908 -4.7775e+000 -4.8604e+000 -1.3773e+000 29730 102654,102706,102680
 9.0000e-001 102885  1.8780e+000 -7.4314e+000  4.5875e-001 29730 102732,102784,102758
 9.0000e-001 102862 -7.8989e+000 -1.1050e+001 -5.1822e+000 29730 102628,102836,102810
 9.0000e-001 103049 -3.7699e+000 -5.5118e+000 -1.1599e+000 29730 102732,102706,103023
 9.0000e-001 103072 -2.9183e+000 -6.2130e+000 -7.7481e-001 29730 102732,103023,102810
 9.0000e-001 103222 -3.1453e+001 -4.3945e+000 -7.3391e-001 29226 103095,103147,103121
 9.0000e-001 103199 -4.6751e+001 -1.5184e+001  4.0088e+000 29226 103095,103173,103147
 9.0000e-001 103730 -1.3179e+001 -1.1801e+001  1.0757e+000 28822 103537,103589,103563
 9.0000e-001 103707 -1.1804e+001 -1.2709e+001  1.4108e-001 28822 103433,103589,103537
 9.0000e-001 103684 -1.2627e+001 -1.3116e+001  2.8073e-001 28822 103433,103537,103459
 9.0000e-001 103661 -1.1082e+001 -1.3382e+001  3.6584e-001 28822 103407,103589,103433
 9.0000e-001 103638 -1.2324e+001 -1.6248e+001  2.4573e+000 28822 103459,103511,103485
 9.0000e-001 103615 -1.1939e+001 -1.2296e+001  6.6883e-001 28822 103459,103537,103511
 9.0000e-001 103880 -9.2065e+000 -8.0231e+000 -2.9365e-001 28368 103975,103903,103779
 9.0000e-001 103857 -1.0780e+001 -8.3170e+000 -1.0121e+000 28368 103903,103753,103831
 9.0000e-001 103929 -1.0578e+001 -8.3319e+000 -1.0469e+000 28368 103805,103779,103903
 9.0000e-001 103952 -1.1174e+001 -8.2391e+000 -1.2174e+000 28368 104105,103903,103831
 9.0000e-001 104001 -1.0514e+001 -8.9522e+000 -9.9934e-001 28368 103753,103903,103975
 9.0000e-001 104131 -1.2629e+001 -8.5236e+000 -7.1064e-001 28368 103805,103903,104105
 9.0000e-001 104539 -5.4791e-001  9.3781e-001  2.3859e+000 28028 104562,104340,104314
 9.0000e-001 104516 -2.4365e+000  4.9129e-001  3.6991e+000 28028 104634,104562,104314
 9.0000e-001 104493 -6.0731e+000 -1.6351e+000  4.1269e+000 28028 104762,104366,104340
 9.0000e-001 104470 -3.8069e+000 -5.9124e+000  1.9381e+000 28028 104366,104418,104392
 9.0000e-001 104588 -3.7558e+000  1.5069e-001  3.1661e+000 28028 104762,104340,104562
 9.0000e-001 104611 -1.5509e+000 -3.0519e-002  4.0553e+000 28028 104418,104562,104444
 9.0000e-001 104660 -9.2034e-002  6.4277e-001  4.4698e+000 28028 104444,104562,104634
 9.0000e-001 104788 -2.6626e+000 -3.6686e+000  4.4384e+000 28028 104418,104366,104762
 9.0000e-001 104811 -9.7656e-001 -2.4565e+000  3.6553e+000 28028 104418,104762,104562
 9.0000e-001 105010 -3.5745e+000 -3.1500e+000 -4.9774e+000 27324 105033,104886,104860
 9.0000e-001 104987 -2.3725e+000 -2.1429e+000 -3.5934e+000 27324 105033,104860,104834
 9.0000e-001 104964 -2.3118e+000  3.9670e-001 -4.5050e+000 27324 105105,104912,104886
 9.0000e-001 105059 -2.2866e+000 -3.9544e-001 -4.6222e+000 27324 105105,104886,105033
 9.0000e-001 105082 -2.4434e+000 -2.7556e+000 -3.7151e+000 27324 104938,105033,104834
 9.0000e-001 105131 -8.4340e-001 -3.6200e-001 -3.1732e+000 27324 104938,104912,105105
 9.0000e-001 105154 -1.6249e+000 -2.3505e+000 -3.5808e+000 27324 104938,105105,105033
 9.0000e-001 105402 -4.6460e+001 -1.8669e+001 -2.4474e+000 27012 105229,105281,105255
 9.0000e-001 105379 -4.1986e+001 -2.2029e+001 -1.8275e+000 27012 105229,105307,105281
 9.0000e-001 105356 -2.9802e+001 -1.8116e+001 -5.8166e-002 27012 105177,105307,105229
 9.0000e-001 105333 -3.5150e+001 -1.7986e+001 -6.1746e+000 27012 105177,105229,105203
 9.0000e-001 105603  1.0022e+000  2.7944e+000 -8.2157e+000 26508 105626,105453,105427
 9.0000e-001 105580 -4.7916e-001 -8.2099e-001 -5.9376e+000 26508 105626,105427,105505
 9.0000e-001 105557  8.0509e+000 -2.8728e+000 -3.5926e+000 26508 105427,105531,105505
 9.0000e-001 105652 -1.5498e+000  1.6011e+000 -6.0539e+000 26508 105479,105453,105626
 9.0000e-001 105675 -2.5076e+000  1.2729e-001 -4.0037e+000 26508 105479,105626,105505
 9.0000e-001 106057 -9.7830e+000 -4.8432e+000 -4.7207e+000 25947 106080,105887,105861
 9.0000e-001 106034 -9.0367e+000 -3.6489e+000 -5.6283e+000 25947 106080,105861,105783
 9.0000e-001 106011 -5.8544e+000 -4.6427e+000 -7.1172e+000 25947 105783,105835,105809
 9.0000e-001 105988 -1.0695e+001 -6.4486e-001 -5.6459e+000 25947 105783,105861,105835
 9.0000e-001 105965 -1.1105e+001 -3.7658e-001 -7.4170e+000 25947 105887,105939,105913
 9.0000e-001 106106 -9.5184e+000 -4.2986e+000 -5.8184e+000 25947 105939,105887,106080
 9.0000e-001 106129 -7.8340e+000 -2.0495e+000 -6.8969e+000 25947 105939,106080,105783
 9.0000e-001 106714  9.7172e-001  2.4221e-001 -1.9288e+000 25557 106809,106737,106547
 9.0000e-001 106691  1.7700e+000  1.6364e+000  7.5713e-001 25557 106737,106417,106391
 9.0000e-001 106668  2.4987e+000 -1.1481e+000 -1.3021e+000 25557 106809,106547,106495
 9.0000e-001 106645  1.6752e+000 -1.3603e+000 -1.6288e+000 25557 106417,106495,106469
 9.0000e-001 106622  1.5580e+000 -1.5929e+000 -1.4257e+000 25557 106495,106547,106521
 9.0000e-001 106599 -5.7078e-001 -6.3984e-001 -2.3550e+000 25557 106417,106469,106443
 9.0000e-001 106763  2.2066e+000  4.6332e+000 -1.9385e+000 25557 106573,106547,106737
 9.0000e-001 106786  2.8750e+000  4.5454e+000  1.3549e+000 25557 106573,106737,106391
 9.0000e-001 106835  2.3806e+000  3.9121e+000 -1.2286e+000 25557 106417,106737,106809
 9.0000e-001 106858  2.5947e+000  7.9519e-001 -1.2255e+000 25557 106417,106809,106495
 9.0000e-001 107364 -4.7197e+000 -2.7930e+000  1.0497e+000 25153 107459,107387,107171
 9.0000e-001 107341 -4.2530e+000 -2.7498e+000  1.3575e+000 25153 107387,107119,107067
 9.0000e-001 107318 -4.8261e+000 -6.0486e+000 -2.3648e+000 25153 107459,107171,107145
 9.0000e-001 107295 -7.0955e+000 -2.2196e+000 -4.9907e-001 25153 107531,107223,107197
 9.0000e-001 107272 -5.8205e+000 -5.9166e+000  2.0558e+000 25153 107067,107119,107093
 9.0000e-001 107249 -1.0136e+001  6.2838e+000 -4.8178e-001 25153 107041,107223,107067
 9.0000e-001 107413 -1.1467e+000 -1.1448e+000  6.0611e-001 25153 107197,107171,107387
 9.0000e-001 107436 -6.8969e+000 -2.6740e+000  3.0924e-001 25153 107531,107197,107387
 9.0000e-001 107485 -7.1119e+000 -8.8022e+000 -4.1958e-001 25153 107119,107387,107459
 9.0000e-001 107508 -8.0388e+000 -1.1669e+001 -4.2775e+000 25153 107119,107459,107145
 9.0000e-001 107557 -6.9996e+000 -1.4478e+000 -1.2738e-001 25153 107067,107223,107531
 9.0000e-001 107580 -6.4599e+000 -1.1934e+000  6.9434e-001 25153 107067,107531,107387
 9.0000e-001 107958 -1.4589e+001 -8.2132e+000 -3.8286e+000 24741 107736,107814,107788
 9.0000e-001 107935 -1.8031e+001 -1.0720e+001 -5.2435e+000 24741 107736,107840,107814
 9.0000e-001 107912 -1.3188e+001 -4.7925e+000 -3.0365e+000 24741 107684,107840,107736
 9.0000e-001 107889 -2.3083e+001 -4.7805e+000 -4.5448e+000 24741 107736,107788,107762
 9.0000e-001 107866 -1.5554e+001 -6.4043e+000  8.4274e-002 24741 107684,107736,107710
 9.0000e-001 108157 -2.1165e+001 -1.1429e+001  2.5908e+000 24237 108180,108059,108007
 9.0000e-001 108134 -2.1432e+001 -3.2359e+000  1.0287e+001 24237 108180,108007,107981
 9.0000e-001 108111 -2.0185e+001 -5.8823e-001  3.4808e-002 24237 108007,108059,108033
 9.0000e-001 108206 -1.7169e+001 -2.8652e+000  4.3556e+000 24237 108085,108059,108180
 9.0000e-001 108229 -1.7495e+001  5.3358e+000  1.2009e+001 24237 108085,108180,107981
 9.0000e-001 108658 -4.6930e+000 -6.9027e+000 -9.3231e-001 23776 108361,108413,108387
 9.0000e-001 108635 -8.6984e+000 -1.6686e+001 -1.5634e+000 23776 108753,108681,108361
 9.0000e-001 108612 -7.1485e+000 -7.6552e+000 -1.8613e+000 23776 108681,108465,108439
 9.0000e-001 108589 -6.9172e+000 -1.9065e+001  9.7708e-001 23776 108753,108361,108335
 9.0000e-001 108566 -5.2278e+000 -8.5920e+000 -1.0646e+000 23776 108335,108517,108465
 9.0000e-001 108543 -4.7209e+000 -8.4334e+000 -7.7806e-001 23776 108465,108517,108491
 9.0000e-001 108707 -6.6804e+000 -9.0195e+000 -2.4803e+000 23776 108413,108361,108681
 9.0000e-001 108730 -8.3160e+000 -5.8673e+000 -3.8478e-001 23776 108413,108681,108439
 9.0000e-001 108779 -7.1199e+000 -7.6518e+000 -1.7907e+000 23776 108465,108681,108753
 9.0000e-001 108802 -8.1139e+000 -1.4581e+001  6.0981e-002 23776 108465,108753,108335
 9.0000e-001 109023 -2.1455e+001 -1.6548e+000  3.2918e+000 23414 108873,108925,108899
 9.0000e-001 109000 -2.8449e+001 -4.0390e+000  3.2650e+000 23414 108847,108925,108873
 9.0000e-001 108977 -2.0828e+001  1.3463e+001  2.2932e+000 23414 108847,108951,108925
 9.0000e-001 109474 -1.4903e+001 -1.4708e+001 -4.2123e-001 23024 109151,109307,109177
 9.0000e-001 109451 -1.5827e+001 -1.4427e+001 -1.5834e-001 23024 109151,109333,109307
 9.0000e-001 109428 -1.4328e+001 -1.4973e+001 -3.0522e-001 23024 109177,109281,109203
 9.0000e-001 109405 -1.4226e+001 -1.4671e+001 -4.6983e-001 23024 109177,109307,109281
 9.0000e-001 109382 -1.3093e+001 -1.4466e+001 -1.4346e-001 23024 109203,109281,109229
 9.0000e-001 109359 -1.6716e+001 -1.0946e+001 -2.6914e+000 23024 109229,109281,109255
 9.0000e-001 109820 -7.8312e+000 -9.3501e+000 -5.4013e-001 22506 109843,109601,109523
 9.0000e-001 109797 -9.2982e+000 -7.5639e+000 -1.2257e+000 22506 109843,109523,109497
 9.0000e-001 109774 -9.3542e+000 -1.0012e+001 -1.3403e+000 22506 109915,109653,109627
 9.0000e-001 109751 -1.0168e+001 -9.9329e+000 -1.9069e+000 22506 109497,109679,109653
 9.0000e-001 109728 -8.2733e+000 -1.0383e+001 -5.7657e-001 22506 109523,109601,109575
 9.0000e-001 109705 -6.9495e+000 -7.8220e+000  1.8850e-003 22506 109523,109575,109549
 9.0000e-001 109869 -8.7023e+000 -1.0802e+001 -1.1486e+000 22506 109627,109601,109843
 9.0000e-001 109892 -8.8153e+000 -9.1676e+000 -8.3616e-001 22506 109915,109627,109843
 9.0000e-001 109941 -1.0047e+001 -9.3685e+000 -1.8755e+000 22506 109497,109653,109915
 9.0000e-001 109964 -1.0002e+001 -9.3973e+000 -1.5093e+000 22506 109497,109915,109843
 9.0000e-001 110163 -6.6291e+000 -5.5220e+000 -8.6199e-001 21936 110186,110039,110013
 9.0000e-001 110140 -4.8552e+000 -4.3020e+000 -3.2478e-001 21936 110390,110186,110013
 9.0000e-001 110117 -5.2162e+000 -7.6475e+000  1.1038e-001 21936 110390,110013,109987
 9.0000e-001 110212 -4.8412e+000 -8.4540e-001  3.1240e-001 21936 110065,110039,110186
 9.0000e-001 110235 -4.0058e+000 -7.0421e+000  2.1185e+000 21936 110258,110186,110091
 9.0000e-001 110284 -1.8691e+000 -3.5986e+000  3.4060e+000 21936 110065,110186,110258
 9.0000e-001 110416 -4.2870e+000 -8.3021e+000  1.3414e+000 21936 110091,110186,110390
 9.0000e-001 110439 -4.3476e+000 -1.1446e+001  1.5692e+000 21936 110091,110390,109987
 9.0000e-001 110709 -1.3576e+001 -1.7138e+001 -5.9818e-002 21338 110510,110614,110588
 9.0000e-001 110686 -1.4170e+001 -1.8523e+001 -4.1237e-001 21338 110484,110614,110510
 9.0000e-001 110663 -1.3074e+001 -1.4712e+001  1.8014e-001 21338 110510,110562,110536
 9.0000e-001 110640 -1.3986e+001 -1.7056e+001 -3.3406e-001 21338 110510,110588,110562
 9.0000e-001 111296 -1.2345e+001 -1.3058e+001  9.8369e-001 20934 111025,111155,111103
 9.0000e-001 111273 -1.0458e+001 -1.2765e+001 -2.2812e-001 20934 110999,111155,111025
 9.0000e-001 111250 -9.9676e+000 -1.1715e+001 -3.2492e-001 20934 111103,111155,111129
 9.0000e-001 111227 -1.4117e+001 -1.6333e+001  2.1727e+000 20934 111051,111103,111077
 9.0000e-001 111204 -1.1777e+001 -1.2185e+001  1.2334e+000 20934 111025,111103,111051
 9.0000e-001 111181 -1.0984e+001 -1.1310e+001 -4.6300e-001 20934 110973,111155,110999
 9.0000e-001 111930 -8.5410e+000 -6.8046e+000 -1.0620e+001 20494 111662,111714,111688
 9.0000e-001 111907  4.1471e+000 -2.6499e+000 -8.0683e+000 20494 111584,111714,111662
 9.0000e-001 111884 -4.9670e-001 -6.9512e+000 -6.1617e+000 20494 111584,111766,111714
 9.0000e-001 111861 -1.4290e+000 -6.6461e+000 -4.7889e+000 20494 111584,111636,111610
 9.0000e-001 111838 -1.4521e+000 -6.8406e+000 -4.7851e+000 20494 111584,111662,111636
 9.0000e-001 111815 -1.2642e+000 -5.9712e+000 -4.1735e+000 20494 111558,111766,111584
 9.0000e-001 111792  7.3221e-001 -4.4296e+000 -6.8420e+000 20494 111714,111766,111740
 9.0000e-001 112249 -1.4414e+001 -1.2339e+001  2.2015e-001 19940 111975,112053,112001
 9.0000e-001 112226 -1.6119e+001 -8.8304e+000  4.7688e+000 19940 111975,112131,112053
 9.0000e-001 112203 -2.0284e+001 -8.5978e+000  0.0000e+000 19940 112053,112105,112079
 9.0000e-001 112180 -1.8895e+001 -8.6052e+000 -6.1698e-002 19940 112053,112131,112105
 9.0000e-001 112157 -9.5379e+000 -7.9507e+000 -2.6529e+000 19940 112001,112053,112027
 9.0000e-001 112757 -1.3764e+001 -1.3492e+001  8.9336e-001 19486 112780,112538,112486
 9.0000e-001 112734 -1.3966e+001 -1.4123e+001 -3.0521e-002 19486 112780,112486,112460
 9.0000e-001 112711 -1.3413e+001 -1.4222e+001  5.3660e-001 19486 112852,112616,112590
 9.0000e-001 112688 -1.6351e+001 -1.2652e+001  9.9319e-001 19486 112486,112538,112512
 9.0000e-001 112665 -1.4572e+001 -1.7033e+001  4.7801e-001 19486 112434,112616,112460
 9.0000e-001 112642 -1.3674e+001 -1.4754e+001  2.2251e+000 19486 112538,112590,112564
 9.0000e-001 112806 -1.2132e+001 -1.3099e+001  1.5616e+000 19486 112590,112538,112780
 9.0000e-001 112829 -1.3601e+001 -1.4017e+001  6.6325e-001 19486 112852,112590,112780
 9.0000e-001 112878 -1.3361e+001 -1.3942e+001  5.0948e-001 19486 112460,112616,112852
 9.0000e-001 112901 -1.3479e+001 -1.3644e+001  5.7966e-001 19486 112460,112852,112780
 9.0000e-001 113252 -7.0221e+000 -1.1064e+001 -5.5489e-001 19096 113105,113157,113131
 9.0000e-001 113229 -8.3013e+000 -1.1023e+001 -1.2369e+000 19096 113053,113157,113105
 9.0000e-001 113206 -8.0027e+000 -1.0597e+001 -9.2106e-001 19096 113027,113157,113053
 9.0000e-001 113183 -8.8366e+000 -1.0193e+001 -5.8226e-001 19096 113053,113105,113079
 9.0000e-001 113451 -6.0220e+000 -1.7737e+000  7.4643e-001 18642 113327,113379,113353
 9.0000e-001 113428 -7.0924e+000 -4.0409e+000  4.1559e-001 18642 113301,113379,113327
 9.0000e-001 113405 -6.3904e+000 -3.7475e+000  5.5635e-001 18642 113275,113379,113301
 9.0000e-001 113699 -7.3252e+000 -7.7718e+000 -9.1202e-001 18138 113474,113552,113526
 9.0000e-001 113676 -7.2535e+000 -9.3822e+000 -1.0211e+000 18138 113474,113578,113552
 9.0000e-001 113653 -6.7077e+000 -1.0245e+001 -1.1802e+000 18138 113474,113604,113578
 9.0000e-001 113630 -8.6075e+000 -5.6281e+000 -1.9262e+000 18138 113474,113526,113500
 9.0000e-001 113851 -8.0415e+000 -6.5856e+000 -3.2055e-001 17682 113750,113802,113776
 9.0000e-001 113828 -9.0586e+000 -8.1390e+000 -1.0064e+000 17682 113724,113802,113750
 9.0000e-001 114383 -5.2979e+000 -1.0658e+001  6.5160e-001 17106 114086,114242,114164
 9.0000e-001 114360 -8.3842e+000 -1.1804e+001  2.5599e+000 17106 114060,114242,114086
 9.0000e-001 114337 -1.0557e+001 -1.2960e+001  2.3453e+000 17106 114086,114164,114138
 9.0000e-001 114314 -2.6801e+000 -9.9587e+000  2.6476e+000 17106 114190,114242,114216
 9.0000e-001 114291 -2.2337e+000 -8.8006e+000  2.4208e+000 17106 114164,114242,114190
 9.0000e-001 114268 -1.7193e+001 -1.8298e+001 -1.9978e+000 17106 114086,114138,114112
 9.0000e-001 114680 -1.3684e+001 -1.0628e+001  2.4238e+000 16766 114703,114432,114406
 9.0000e-001 114657 -1.4904e+001 -8.0678e+000  9.5129e-001 16766 114703,114406,114510
 9.0000e-001 114634 -1.4529e+001 -6.5465e+000  1.0535e+000 16766 114406,114536,114510
 9.0000e-001 114611 -8.4944e+000 -8.9346e+000 -1.9521e-001 16766 114432,114484,114458
 9.0000e-001 114588 -1.9663e+001 -7.7071e+000 -1.4714e+000 16766 114406,114562,114536
 9.0000e-001 114729 -8.6429e+000 -8.1101e+000  1.5689e+000 16766 114484,114432,114703
 9.0000e-001 114752 -1.3439e+001 -7.6603e+000  7.8177e-001 16766 114484,114703,114510
 9.0000e-001 114902 -1.8364e-001 -3.2480e+000 -4.1148e-001 16362 114775,114827,114801
 9.0000e-001 114879  1.5598e+001 -5.4459e-001 -3.0842e+000 16362 114775,114853,114827
 9.0000e-001 115054 -6.8463e+000 -1.0688e+001  5.0568e+000 15908 114953,115005,114979
 9.0000e-001 115031 -5.7185e+000 -1.4181e+001  5.2636e+000 15908 114927,115005,114953
 9.0000e-001 115326 -1.4143e+001 -1.5888e+001  1.9637e-001 15251 115101,115179,115153
 9.0000e-001 115303 -1.4325e+001 -1.6084e+001  9.2723e-001 15251 115101,115231,115179
 9.0000e-001 115280 -1.3514e+001 -1.4195e+001  7.6850e-001 15251 115179,115231,115205
 9.0000e-001 115257 -1.3277e+001 -1.7520e+001  1.4765e+000 15251 115101,115153,115127
 9.0000e-001 115429 -7.5399e+000 -8.2893e+000  3.4741e-001 421 115351,115403,115377
 1.0000e+000 66230  3.1760e+000 -3.5216e+000 -1.5752e-001 65954 66152,66204,66178
 1.0000e+000 66429  1.3372e+000 -4.2886e+000  1.1289e-001 65642 66279,66331,66305
 1.0000e+000 66406  2.6536e-001 -8.3754e+000 -4.9343e-001 65642 66279,66357,66331
 1.0000e+000 66383 -2.2424e+000 -7.4261e+000 -4.6774e-001 65642 66253,66357,66279
 1.0000e+000 66628  9.3123e-001 -6.4711e+000  6.6181e-001 65444 66452,66530,66478
 1.0000e+000 66605 -5.3079e-002 -6.8284e+000  4.8366e-001 65444 66452,66556,66530
 1.0000e+000 66582  8.5929e-001 -6.9992e+000  7.5653e-001 65444 66478,66530,66504
 1.0000e+000 67006 -3.9345e-001 -4.2159e+000 -4.8480e-001 65246 66732,66810,66758
 1.0000e+000 66983 -7.1903e-001 -3.6873e+000 -4.1853e-001 65246 66732,66836,66810
 1.0000e+000 66960 -6.6752e-001 -3.7508e+000 -2.8200e-001 65246 66732,66862,66836
 1.0000e+000 66937 -9.6842e-001 -5.6004e+000 -3.2942e-001 65246 66758,66810,66784
 1.0000e+000 66914 -2.4842e-001 -4.3807e+000 -8.7116e-001 65246 66732,66888,66862
 1.0000e+000 67107  1.7242e+000 -1.8497e+000 -6.0426e-001 64934 67029,67081,67055
 1.0000e+000 67306  2.1992e-002 -4.4126e+000  1.2059e+000 64736 67156,67208,67182
 1.0000e+000 67283 -5.5606e-001 -4.3109e+000  1.2734e+000 64736 67130,67208,67156
 1.0000e+000 67260 -7.9454e-001 -6.6470e+000  1.2780e+000 64736 67130,67234,67208
 1.0000e+000 67507  2.1080e+000 -5.4812e+000 -1.6839e-002 64389 67357,67409,67383
 1.0000e+000 67484  1.1704e+000 -6.1361e+000 -4.2906e-001 64389 67357,67435,67409
 1.0000e+000 67461 -1.2666e+000 -5.2933e+000 -4.6240e-001 64389 67331,67435,67357
 1.0000e+000 67708  1.7311e+000 -5.1762e+000  2.2350e+000 63985 67731,67584,67558
 1.0000e+000 67685 -1.2668e-001 -2.7258e+000  1.9810e+000 63985 67731,67558,67636
 1.0000e+000 67662  7.6054e-001 -3.6644e+000  5.4218e-001 63985 67532,67636,67558
 1.0000e+000 67757  5.3917e-001 -6.0996e+000  1.7063e+000 63985 67610,67584,67731
 1.0000e+000 67780 -1.6739e+000 -4.3219e+000  1.2054e+000 63985 67610,67731,67636
 1.0000e+000 67981  1.3678e+000 -4.1855e+000 -6.7625e-003 63787 67857,67909,67883
 1.0000e+000 67958 -1.5332e+000 -5.1014e+000  3.5612e-001 63787 67831,67909,67857
 1.0000e+000 67935 -1.8986e+000 -4.5275e+000  2.4365e-003 63787 67805,67909,67831
 1.0000e+000 68231 -1.1818e+000 -3.7450e+000  3.1176e-001 63589 68254,68084,68032
 1.0000e+000 68208 -1.9921e-001 -4.2550e+000  7.4650e-001 63589 68254,68032,68006
 1.0000e+000 68185 -1.2683e+000 -4.6103e+000  2.0074e-001 63589 68326,68136,68110
 1.0000e+000 68162 -1.4433e+000 -4.1704e+000  1.2912e+000 63589 68032,68084,68058
 1.0000e+000 68280 -2.1140e+000 -4.0808e+000  7.8273e-001 63589 68110,68084,68254
 1.0000e+000 68303 -1.2309e+000 -4.5786e+000  5.5800e-001 63589 68326,68110,68254
 1.0000e+000 68352 -9.7117e-001 -3.8211e+000  3.4120e-001 63589 68006,68136,68326
 1.0000e+000 68375 -9.8176e-001 -3.9775e+000  7.1291e-001 63589 68006,68326,68254
 1.0000e+000 68836 -3.2613e-001 -4.4032e+000  1.3291e+000 63128 68859,68588,68562
 1.0000e+000 68813 -1.8118e+000 -5.6400e+000  2.1515e+000 63128 68859,68562,68692
 1.0000e+000 68790 -2.4242e+000 -7.6569e+000  1.1308e+000 63128 68614,68692,68666
 1.0000e+000 68767 -4.1883e+000 -4.8929e+000  1.9891e+000 63128 68562,68718,68692
 1.0000e+000 68744 -2.0454e-002 -2.0213e+000  1.2305e+000 63128 68614,68666,68640
 1.0000e+000 68885  2.8118e-001 -3.1350e+000 -2.9313e-001 63128 68614,68588,68859
 1.0000e+000 68908 -1.1559e+000 -4.5483e+000  5.3868e-001 63128 68614,68859,68692
 1.0000e+000 69237 -7.7970e-002 -2.9098e+000  8.0941e-002 62731 69064,69116,69090
 1.0000e+000 69214 -6.2657e-001 -3.0249e+000 -6.5317e-002 62731 69064,69142,69116
 1.0000e+000 69191 -7.3167e-001 -4.8403e+000 -3.5697e-001 62731 69038,69142,69064
 1.0000e+000 69168 -1.2865e-001 -4.5967e+000 -1.3402e-001 62731 69012,69142,69038
 1.0000e+000 69539 -6.3464e-001 -7.9334e+000 -3.7872e-001 62433 69389,69467,69441
 1.0000e+000 69516 -1.2972e-001 -5.9421e+000 -8.9596e-001 62433 69363,69467,69389
 1.0000e+000 69493  3.0818e+000 -1.1253e+000  1.2700e+000 62433 69389,69441,69415
 1.0000e+000 69966 -1.4458e+000 -5.1730e+000  8.5288e-001 62235 69989,69773,69721
 1.0000e+000 69943 -3.0647e+000 -6.3550e+000  2.3715e-001 62235 70061,69989,69721
 1.0000e+000 69920 -3.6565e+000 -7.7903e+000  3.8573e-002 62235 70061,69721,69643
 1.0000e+000 69897 -2.1612e+000 -3.4697e+000  5.4507e-001 62235 69721,69773,69747
 1.0000e+000 69874 -3.9919e+000 -9.3078e+000 -3.4559e-001 62235 69643,69721,69695
 1.0000e+000 69851 -3.0554e+000 -9.9499e+000  8.6826e-001 62235 69643,69695,69669
 1.0000e+000 70015 -1.3361e+000 -6.3917e+000 -2.9190e-001 62235 69799,69773,69989
 1.0000e+000 70038 -1.9868e+000 -6.5963e+000 -5.5530e-002 62235 69799,69989,69825
 1.0000e+000 70087 -2.3826e+000 -8.1310e+000  4.8418e-001 62235 69825,69989,70061
 1.0000e+000 70110 -2.6278e+000 -9.0122e+000  2.5874e-001 62235 69825,70061,69643
 1.0000e+000 70260 -1.1644e+000 -2.9373e+000  1.0522e+000 62037 70133,70185,70159
 1.0000e+000 70237 -5.3584e-001 -5.7139e+000  1.8892e+000 62037 70133,70211,70185
 1.0000e+000 70640 -5.7317e-001 -3.2273e+000  2.4844e+000 61583 70735,70663,70418
 1.0000e+000 70617 -2.8859e+000 -5.6884e+000  2.2432e+000 61583 70663,70366,70522
 1.0000e+000 70594 -1.2540e-001 -2.4737e+000  2.7414e+000 61583 70735,70418,70392
 1.0000e+000 70571 -7.5040e-001 -3.1369e+000  4.4862e+000 61583 70418,70496,70444
 1.0000e+000 70548 -3.6126e+000 -2.4027e+000  3.8452e+000 61583 70444,70496,70470
 1.0000e+000 70689 -2.7780e+000 -3.6735e+000  1.7685e+000 61583 70496,70418,70663
 1.0000e+000 70712 -4.1224e+000 -2.7908e+000  2.1880e+000 61583 70496,70663,70522
 1.0000e+000 70761 -1.4891e+000 -3.2270e+000  1.2035e+000 61583 70366,70663,70735
 1.0000e+000 70784 -8.6260e-001 -2.4072e+000  1.5033e+000 61583 70366,70735,70392
 1.0000e+000 71054 -1.2199e+000 -4.5804e+000  9.4047e-001 61313 71077,70881,70855
 1.0000e+000 71031 -1.2715e+000 -2.6034e+000 -2.1413e-001 61313 71077,70855,70829
 1.0000e+000 71008 -1.0424e+000 -1.7794e+000 -8.0857e-001 61313 70829,70959,70933
 1.0000e+000 70985  8.6444e-001 -4.7304e-001 -5.3401e-002 61313 70881,70933,70907
 1.0000e+000 71103  4.7772e-002 -3.2695e+000  6.9333e-002 61313 70933,70881,71077
 1.0000e+000 71126 -7.2346e-001 -2.0422e+000 -9.8621e-001 61313 70933,71077,70829
 1.0000e+000 71604 -1.3885e+000 -3.4576e+000 -1.8396e-001 60909 71627,71232,71414
 1.0000e+000 71581 -2.1379e+000 -4.7663e+000  9.4471e-001 60909 71232,71440,71414
 1.0000e+000 71558 -1.7881e+000 -3.5172e+000 -3.2789e-001 60909 71627,71414,71336
 1.0000e+000 71535 -2.4865e-001 -4.0035e+000 -2.8882e-001 60909 71362,71414,71388
 1.0000e+000 71512 -1.7791e+000 -3.8240e+000 -6.1273e-001 60909 71336,71414,71362
 1.0000e+000 71489 -1.4179e+000 -3.7284e+000 -2.7022e-001 60909 71258,71336,71310
 1.0000e+000 71466 -6.0011e-001 -3.9433e+000  5.6405e-002 60909 71258,71310,71284
 1.0000e+000 71653 -1.1389e+000 -3.6487e+000 -3.7771e-001 60909 71258,71232,71627
 1.0000e+000 71676 -1.4813e+000 -3.6650e+000 -4.1572e-001 60909 71258,71627,71336
 1.0000e+000 71875 -1.4685e+000 -4.6584e+000 -3.0682e-001 60611 71898,71725,71699
 1.0000e+000 71852 -1.5813e+000 -3.7973e+000  3.2037e-001 60611 71898,71699,71803
 1.0000e+000 71829 -3.2928e+000 -5.6077e+000  2.5332e+000 60611 71970,71751,71725
 1.0000e+000 71924 -3.2065e+000 -4.4349e+000  1.0781e+000 60611 71970,71725,71898
 1.0000e+000 71947 -2.4120e-001  1.0567e+000  3.9826e-001 60611 71777,71898,71803
 1.0000e+000 71996 -1.5926e+000 -3.9607e+000  1.8629e+000 60611 71777,71751,71970
 1.0000e+000 72019 -9.3743e-001 -2.9006e+000  3.9794e-001 60611 71777,71970,71898
 1.0000e+000 72576 -2.3961e+000 -3.8888e+000  7.8737e-001 60142 72599,72256,72230
 1.0000e+000 72553 -1.6444e+000 -2.3520e+000  5.4788e-001 60142 72671,72599,72230
 1.0000e+000 72530 -2.2602e+000 -2.9507e+000  8.5945e-001 60142 72671,72230,72204
 1.0000e+000 72507 -1.1038e+000 -3.6616e+000 -9.4935e-001 60142 72743,72360,72334
 1.0000e+000 72484 -4.5181e+000 -4.1422e+000  2.2512e+000 60142 72815,72282,72256
 1.0000e+000 72461 -8.0278e-001 -4.6871e+000  6.8159e-001 60142 72887,72308,72282
 1.0000e+000 72438 -2.2357e+000 -2.4155e+000  5.1279e-001 60142 72204,72412,72386
 1.0000e+000 72625 -2.9573e+000 -3.8598e+000  6.0861e-001 60142 72815,72256,72599
 1.0000e+000 72648 -7.0372e-001 -3.4927e+000 -8.4846e-001 60142 72743,72334,72599
 1.0000e+000 72697 -2.1402e+000 -1.9907e+000  3.3506e-001 60142 72386,72599,72671
 1.0000e+000 72720 -2.1122e+000 -2.2218e+000  4.6287e-001 60142 72386,72671,72204
 1.0000e+000 72769 -4.2827e+000 -3.9124e+000 -2.2946e+000 60142 72386,72360,72743
 1.0000e+000 72792 -2.1328e+000 -2.1695e+000 -1.5078e+000 60142 72386,72743,72599
 1.0000e+000 72841 -2.1712e+000 -5.2003e+000  1.3829e+000 60142 72887,72282,72815
 1.0000e+000 72864 -2.6279e-001 -3.7034e+000  6.9623e-001 60142 72334,72815,72599
 1.0000e+000 72913 -2.4651e+000 -3.4914e+000  2.1879e-001 60142 72334,72308,72887
 1.0000e+000 72936 -2.7506e+000 -3.5877e+000  7.1364e-001 60142 72334,72887,72815
 1.0000e+000 73491 -1.1375e+000 -3.8492e+000 -9.1263e-001 59738 73145,73327,73171
 1.0000e+000 73468 -1.4339e+000 -3.2618e+000 -9.5912e-001 59738 73119,73327,73145
 1.0000e+000 73445 -9.8310e-001 -2.2650e+000 -3.5135e-001 59738 73171,73327,73301
 1.0000e+000 73422 -1.5283e+000 -3.0793e+000  6.1775e-002 59738 73514,73275,73249
 1.0000e+000 73399 -1.3484e+000 -3.0491e+000  3.0323e-002 59738 73586,73514,73249
 1.0000e+000 73376 -2.5441e+000 -2.9898e+000  1.3444e-001 59738 73197,73249,73223
 1.0000e+000 73353 -1.4046e+000 -3.1032e+000  1.1182e-001 59738 73586,73249,73197
 1.0000e+000 73540 -1.2853e+000 -3.4706e+000 -7.5114e-002 59738 73301,73275,73514
 1.0000e+000 73563 -9.2017e-001 -2.9969e+000 -2.6421e-001 59738 73301,73514,73171
 1.0000e+000 73612 -1.3061e+000 -2.9122e+000  3.8908e-003 59738 73171,73514,73586
 1.0000e+000 73635 -1.3497e+000 -2.9823e+000  7.6885e-002 59738 73171,73586,73197
 1.0000e+000 73964 -6.7724e+000 -2.0108e+000  2.6777e+000 59334 73791,73843,73817
 1.0000e+000 73941 -2.7433e+000 -2.2966e+000  2.4113e+000 59334 73791,73869,73843
 1.0000e+000 73918 -2.5079e+000 -7.8277e-001 -3.4317e-001 59334 73739,73869,73791
 1.0000e+000 73895  2.3558e-001 -1.4264e+000 -5.7962e-001 59334 73739,73791,73765
 1.0000e+000 74261  1.0216e+000 -5.5819e+000  1.9226e+000 58630 74065,74117,74091
 1.0000e+000 74238  1.9041e-001 -3.1727e+000  2.4136e+000 58630 74356,74284,74065
 1.0000e+000 74215 -1.0525e+000 -4.7742e-002  1.8975e+000 58630 74284,74013,73987
 1.0000e+000 74192  4.9614e-001 -2.6564e+000  2.7333e+000 58630 74356,74065,74039
 1.0000e+000 74169 -2.3144e+000 -3.5883e+000  2.3541e+000 58630 73987,74143,74117
 1.0000e+000 74310 -1.7700e-001 -5.6296e+000  2.2950e+000 58630 74117,74065,74284
 1.0000e+000 74333 -2.0899e+000 -2.4454e+000  1.3052e+000 58630 74117,74284,73987
 1.0000e+000 74382 -1.6479e-001 -3.8920e+000  1.6814e+000 58630 74013,74284,74356
 1.0000e+000 74405  1.5773e-001 -3.2943e+000  1.9994e+000 58630 74013,74356,74039
 1.0000e+000 74815  3.1328e-001 -5.1622e+000  3.0918e-001 58226 74590,74642,74616
 1.0000e+000 74792 -2.1936e+000 -3.4425e+000  2.4777e+000 58226 74590,74694,74642
 1.0000e+000 74769 -3.2927e+000 -1.3771e+000  1.4748e+000 58226 74590,74720,74694
 1.0000e+000 74746 -6.3804e+000 -3.1348e+000  8.9905e-001 58226 74642,74694,74668
 1.0000e+000 75014 -2.5505e-001 -3.0193e+000 -2.1773e-001 57786 75037,74864,74838
 1.0000e+000 74991 -1.5381e+000 -2.2960e+000  1.1186e+000 57786 75037,74838,74916
 1.0000e+000 74968 -1.0270e+000 -1.5190e+000  1.1912e-001 57786 74838,74942,74916
 1.0000e+000 75063 -2.2336e+000 -3.2266e+000 -5.1941e-001 57786 74890,74864,75037
 1.0000e+000 75086 -3.2560e+000 -2.3706e+000  9.3806e-001 57786 74890,75037,74916
 1.0000e+000 75368 -2.2297e+000 -2.6422e+000 -2.5303e-001 57496 75192,75270,75218
 1.0000e+000 75345 -5.7231e-001 -2.0210e+000 -3.0421e-001 57496 75192,75296,75270
 1.0000e+000 75322 -2.2005e+000 -3.6848e+000 -2.3520e-002 57496 75218,75270,75244
 1.0000e+000 75648 -4.0175e-001 -1.9389e+000 -3.4563e-001 57206 75472,75550,75498
 1.0000e+000 75625 -1.3610e+000 -1.3175e+000  3.5513e-001 57206 75472,75576,75550
 1.0000e+000 75602 -2.3407e+000 -3.1370e+000  3.2706e-001 57206 75671,75550,75524
 1.0000e+000 75697 -1.4066e+000 -2.4302e+000  6.4914e-001 57206 75498,75550,75671
 1.0000e+000 76154 -5.0727e+000 -9.8876e+000  1.6927e+000 56802 75958,76010,75984
 1.0000e+000 76131 -4.0189e+000 -7.5144e+000  1.3392e+000 56802 75932,76010,75958
 1.0000e+000 76108 -4.0521e+000 -7.0976e+000  1.0666e+000 56802 75906,76010,75932
 1.0000e+000 76085 -5.4954e+000 -7.0115e+000  5.9163e-001 56802 75880,76010,75906
 1.0000e+000 76062 -1.8423e+000 -5.1953e+000  1.4541e+000 56802 75880,76036,76010
 1.0000e+000 76505 -6.4356e+000 -9.9029e+000 -8.0804e-001 56504 76306,76384,76332
 1.0000e+000 76482 -7.9047e+000 -1.0269e+001 -6.2797e-001 56504 76306,76410,76384
 1.0000e+000 76459 -4.8850e+000 -7.7415e+000  7.6517e-001 56504 76332,76384,76358
 1.0000e+000 76436 -3.9522e+000 -8.4380e+000 -9.9437e-002 56504 76280,76410,76306
 1.0000e+000 77011 -4.5690e+000 -3.6439e+000  3.4829e-002 56050 76740,76818,76792
 1.0000e+000 76988 -1.8934e+000 -2.3863e+000 -4.2290e-001 56050 76714,76818,76740
 1.0000e+000 76965 -3.1806e+000 -2.2494e+000 -1.6188e-001 56050 76688,76818,76714
 1.0000e+000 76942 -2.8899e+000 -3.1206e+000  5.6175e-001 56050 76688,76844,76818
 1.0000e+000 76919 -2.3785e+000 -3.3642e+000 -5.4797e-001 56050 76740,76792,76766
 1.0000e+000 76896 -1.7841e+000 -2.5171e+000 -4.3871e-001 56050 76688,76870,76844
 1.0000e+000 77517 -3.4833e+000 -2.7572e+000  2.1754e-001 55738 77220,77350,77324
 1.0000e+000 77494 -2.2704e+000 -2.7875e+000 -1.1389e-001 55738 77220,77376,77350
 1.0000e+000 77471 -2.0860e+000 -1.2372e+000 -4.2497e-001 55738 77194,77376,77220
 1.0000e+000 77448 -2.9125e+000 -3.6200e+000  5.9279e-001 55738 77220,77298,77246
 1.0000e+000 77425 -3.0235e+000 -3.2338e+000  7.8512e-001 55738 77220,77324,77298
 1.0000e+000 77402 -2.1388e+000 -3.4356e+000 -8.1753e-001 55738 77246,77298,77272
 1.0000e+000 78064 -5.9026e+000 -1.3189e+001 -1.6711e-001 55227 78231,78087,77773
 1.0000e+000 78041 -7.4610e+000 -1.4147e+001 -1.5723e-001 55227 78087,77695,77643
 1.0000e+000 78018 -6.5689e+000 -1.8655e+001  3.3905e-001 55227 78159,77799,77773
 1.0000e+000 77995 -6.0344e+000 -1.2909e+001 -9.4621e-002 55227 78231,77773,77721
 1.0000e+000 77972 -6.9947e+000 -9.4755e+000  1.2355e+000 55227 77643,77695,77669
 1.0000e+000 77949 -5.2818e+000 -1.0977e+001  7.4132e-001 55227 77643,77877,77851
 1.0000e+000 77926 -4.6817e+000 -1.2250e+001 -1.4734e-001 55227 77799,77851,77825
 1.0000e+000 77903 -5.9069e+000 -1.2644e+001 -2.4695e-001 55227 77721,77773,77747
 1.0000e+000 78113 -7.0910e+000 -1.6031e+001  7.9067e-002 55227 78159,77773,78087
 1.0000e+000 78136 -5.7232e+000 -1.0120e+001  3.4090e-001 55227 77851,78087,77643
 1.0000e+000 78185 -6.0471e+000 -1.4782e+001 -1.0064e+000 55227 77851,77799,78159
 1.0000e+000 78208 -6.9499e+000 -1.2656e+001 -1.2651e+000 55227 77851,78159,78087
 1.0000e+000 78257 -5.9842e+000 -1.3506e+001 -2.8138e-001 55227 77695,78087,78231
 1.0000e+000 78280 -6.1432e+000 -1.3214e+001 -2.3985e-001 55227 77695,78231,77721
 1.0000e+000 78737 -5.4618e+000 -1.0004e+001  3.4484e+000 54773 78463,78541,78515
 1.0000e+000 78714 -5.6259e+000 -5.2806e+000  2.0160e+000 54773 78463,78619,78541
 1.0000e+000 78691 -2.4674e+000 -3.6192e+000  1.7085e+000 54773 78463,78515,78489
 1.0000e+000 78668 -7.8255e+000 -1.2532e+001  1.1468e+000 54773 78541,78593,78567
 1.0000e+000 78645 -7.9107e+000 -1.1137e+001  1.7420e+000 54773 78541,78619,78593
 1.0000e+000 78838 -6.9168e+000 -1.6579e+001 -1.2455e+000 54211 78760,78812,78786
 1.0000e+000 79297 -3.4668e+000 -9.1576e+000  1.9308e+000 53814 79520,79153,79049
 1.0000e+000 79274 -3.7092e+000 -1.0245e+001  3.1452e+000 53814 79520,79049,79023
 1.0000e+000 79251 -2.9296e+000 -6.6947e+000  2.8997e+000 53814 79320,79101,79049
 1.0000e+000 79228 -2.6623e+000 -5.8797e+000  1.2909e+000 53814 79320,79049,79153
 1.0000e+000 79205 -2.9923e+000 -1.0193e+001  2.1418e+000 53814 79049,79101,79075
 1.0000e+000 79346 -2.9966e+000 -7.0524e+000  1.2697e+000 53814 79392,79320,79127
 1.0000e+000 79369 -6.5184e-001 -4.9500e+000  1.6183e-001 53814 79127,79320,79153
 1.0000e+000 79418 -4.4422e-001 -5.5941e+000  2.1119e+000 53814 79101,79320,79392
 1.0000e+000 79546 -2.3416e+000 -6.8621e+000  6.1081e-001 53814 79179,79153,79520
 1.0000e+000 79569 -4.4553e+000 -8.7991e+000  2.2314e+000 53814 79179,79520,79023
 1.0000e+000 80075 -1.7420e+000 -2.7814e+000  1.5237e+000 53039 80098,79908,79830
 1.0000e+000 80052 -1.4195e+000 -1.8688e+000  1.3431e+000 53039 80098,79830,79804
 1.0000e+000 80029 -1.2316e+000 -7.4080e-001  1.0012e+000 53039 79752,79934,79804
 1.0000e+000 80006 -3.0616e+000 -3.8864e+000  1.3257e+000 53039 79856,79908,79882
 1.0000e+000 79983 -2.2424e+000 -4.5860e+000  1.1443e+000 53039 79830,79908,79856
 1.0000e+000 79960 -1.6509e+000 -3.4498e-001  3.6998e-001 53039 79752,79804,79778
 1.0000e+000 80124 -1.4833e+000 -3.2682e+000  6.2472e-001 53039 79934,79908,80098
 1.0000e+000 80147 -1.2017e+000 -2.0889e+000  5.1540e-001 53039 79934,80098,79804
 1.0000e+000 80555 -8.1086e+000 -3.4183e+000  4.7507e+000 52699 80356,80434,80408
 1.0000e+000 80532 -5.7023e+000 -6.6083e+000  4.9064e+000 52699 80356,80460,80434
 1.0000e+000 80509 -7.6280e+000 -8.6052e+000  3.6929e+000 52699 80330,80460,80356
 1.0000e+000 80486 -9.0910e+000 -5.5083e+000  5.0223e+000 52699 80356,80408,80382
 1.0000e+000 80776 -1.9780e+000 -2.4801e+000 -2.1715e-001 52295 80600,80678,80626
 1.0000e+000 80753 -1.2578e+000 -2.1273e+000 -3.7636e-001 52295 80600,80704,80678
 1.0000e+000 80730 -2.7877e+000 -2.8322e+000 -2.5758e-001 52295 80626,80678,80652
 1.0000e+000 81156 -5.7724e+000 -6.0417e+000  6.1916e-001 51891 81179,80960,80908
 1.0000e+000 81133 -7.3824e+000 -9.5538e+000  1.6158e+000 51891 81179,80908,81012
 1.0000e+000 81110 -6.2237e+000 -7.0853e+000  4.7723e-001 51891 80882,81012,80908
 1.0000e+000 81087 -4.0314e+000 -2.7510e+000  1.6115e+000 51891 80908,80960,80934
 1.0000e+000 81064 -6.4092e+000 -6.9499e+000  9.7842e-001 51891 80882,81038,81012
 1.0000e+000 81205 -6.9373e+000 -5.3054e+000  3.3989e+000 51891 80986,80960,81179
 1.0000e+000 81228 -8.1254e+000 -9.3230e+000  4.1890e+000 51891 80986,81179,81012
 1.0000e+000 81606 -6.4430e+000 -6.8599e+000  1.5411e+000 51544 81410,81462,81436
 1.0000e+000 81583 -3.8248e+000 -4.1330e+000 -1.1000e+000 51544 81384,81462,81410
 1.0000e+000 81560 -3.9924e+000 -4.7428e+000 -1.2201e+000 51544 81358,81462,81384
 1.0000e+000 81537 -1.5754e+000 -3.3999e+000 -1.9403e+000 51544 81358,81488,81462
 1.0000e+000 81514 -1.5650e+000 -2.4823e+000 -1.9693e+000 51544 81332,81488,81358
 1.0000e+000 81854 -8.6955e+000 -8.0935e+000  3.7239e+000 51004 81877,81655,81629
 1.0000e+000 81831 -8.0423e+000 -6.7702e+000  3.3266e+000 51004 81877,81629,81759
 1.0000e+000 81808 -3.2372e+000 -5.8963e+000  5.5832e+000 51004 81655,81707,81681
 1.0000e+000 81785 -7.8088e+000 -1.0673e+001  3.3273e+000 51004 81707,81759,81733
 1.0000e+000 81903 -7.9337e+000 -9.1222e+000  4.0727e+000 51004 81707,81655,81877
 1.0000e+000 81926 -7.5460e+000 -8.4027e+000  3.5970e+000 51004 81707,81877,81759
 1.0000e+000 82257 -3.8271e+000 -3.3150e+000  1.2169e-001 50642 82058,82136,82110
 1.0000e+000 82234 -3.4927e+000 -2.5128e+000 -1.5202e-001 50642 82058,82162,82136
 1.0000e+000 82211 -3.0126e+000 -2.4993e+000 -1.4701e+000 50642 82058,82110,82084
 1.0000e+000 82188 -2.2199e+000 -1.9629e+000 -2.1774e-001 50642 82032,82162,82058
 1.0000e+000 82684 -4.3569e+000 -2.7557e+000  2.9733e-001 49931 82779,82707,82465
 1.0000e+000 82661 -3.3042e+000 -1.1123e+000 -4.9891e-001 49931 82707,82413,82361
 1.0000e+000 82638 -5.0697e+000 -3.4936e+000  1.4647e+000 49931 82779,82465,82439
 1.0000e+000 82615 -3.4273e+000 -1.2955e+000  3.3820e-001 49931 82465,82543,82491
 1.0000e+000 82592 -3.1420e+000 -1.6357e+000 -1.3887e-002 49931 82361,82413,82387
 1.0000e+000 82569 -3.3858e+000 -8.4029e-001  3.0069e-001 49931 82491,82543,82517
 1.0000e+000 82733 -3.4760e+000 -1.3846e+000 -1.6492e-001 49931 82543,82465,82707
 1.0000e+000 82756 -3.8972e+000 -9.2506e-001 -1.9191e-001 49931 82543,82707,82361
 1.0000e+000 82805 -3.8142e+000 -1.2036e+000 -4.9013e-001 49931 82413,82707,82779
 1.0000e+000 82828 -4.1467e+000 -1.9131e+000  5.9332e-001 49931 82413,82779,82439
 1.0000e+000 83255 -1.1515e+001 -1.2977e+001  2.2654e+000 49327 82984,83114,83036
 1.0000e+000 83232 -1.4415e+001 -1.9572e+001  5.4769e-001 49327 82958,83114,82984
 1.0000e+000 83209 -1.1114e+001 -2.5380e+001  6.4544e+000 49327 83036,83114,83088
 1.0000e+000 83186 -9.2181e+000 -1.3547e+001  1.6143e+000 49327 82984,83036,83010
 1.0000e+000 83163 -1.1505e+001 -2.0326e+001 -1.1869e-002 49327 82932,83114,82958
 1.0000e+000 83140 -1.5884e+000 -4.6473e+000  3.4841e+000 49327 83036,83088,83062
 1.0000e+000 83938 -3.8304e+000 -1.3360e+001  1.5366e-001 48965 83961,83673,83647
 1.0000e+000 83915 -4.1303e+000 -1.2350e+001  7.6348e-001 48965 83961,83647,83543
 1.0000e+000 83892 -7.0725e+000 -1.3770e+001 -7.7475e-001 48965 83517,83725,83543
 1.0000e+000 83869 -1.7485e+000 -1.6521e+001 -1.5821e+000 48965 83673,83725,83699
 1.0000e+000 83846 -3.1941e+000 -9.3610e+000 -1.6847e+000 48965 83543,83647,83621
 1.0000e+000 83823 -6.7150e+000 -7.5927e+000 -1.5483e-001 48965 83543,83621,83569
 1.0000e+000 83800 -7.9188e+000 -1.5096e+001 -4.3474e+000 48965 83517,83751,83725
 1.0000e+000 83777 -3.6323e+000 -6.6920e+000 -9.5551e-001 48965 83569,83621,83595
 1.0000e+000 83987 -4.7473e+000 -1.3590e+001 -5.3724e-001 48965 83725,83673,83961
 1.0000e+000 84010 -4.4964e+000 -1.2941e+001  1.7383e-001 48965 83725,83961,83543
 1.0000e+000 84258 -5.1974e+000 -4.5535e+000  3.3296e+000 48447 84281,84059,84033
 1.0000e+000 84235 -6.6648e+000 -7.7231e+000  2.2345e+000 48447 84281,84033,84163
 1.0000e+000 84212 -5.6730e+000 -4.9749e+000  5.3728e+000 48447 84059,84111,84085
 1.0000e+000 84189 -8.3740e+000 -4.3631e+000  2.8709e+000 48447 84111,84163,84137
 1.0000e+000 84307 -5.0637e+000 -4.4526e+000  5.1519e+000 48447 84111,84059,84281
 1.0000e+000 84330 -5.2551e+000 -6.0847e+000  4.2292e+000 48447 84111,84281,84163
 1.0000e+000 84529 -3.7341e+000 -1.2492e+000 -3.3502e-001 47993 84552,84405,84379
 1.0000e+000 84506 -5.9584e-001 -1.2300e+000 -1.7666e+000 47993 84552,84379,84353
 1.0000e+000 84483 -2.9513e+000 -2.0771e+000 -2.1474e+000 47993 84624,84457,84431
 1.0000e+000 84578 -5.7107e+000 -3.1100e+000  1.1296e+000 47993 84431,84405,84552
 1.0000e+000 84601 -3.4202e+000 -3.3881e+000 -1.3998e+000 47993 84624,84431,84552
 1.0000e+000 84650 -3.2465e+000 -1.1392e+000 -2.4990e+000 47993 84353,84457,84624
 1.0000e+000 84673 -3.0586e+000 -1.1131e+000 -1.5966e+000 47993 84353,84624,84552
 1.0000e+000 85104 -1.0076e+000 -2.2807e+000  2.2759e-001 47588 85199,85127,84885
 1.0000e+000 85081 -1.8276e+000 -2.1243e+000 -3.2769e-001 47588 85127,84781,84963
 1.0000e+000 85058 -4.4967e-001 -2.0026e+000 -2.8716e-001 47588 85199,84885,84807
 1.0000e+000 85035 -3.9698e+000 -6.8957e+000 -2.9466e+000 47588 84885,84937,84911
 1.0000e+000 85012 -1.4926e-001 -5.4058e+000  6.1785e-001 47588 84807,84885,84833
 1.0000e+000 84989 -1.0635e+000 -5.8128e+000 -1.2066e-001 47588 84833,84885,84859
 1.0000e+000 85153 -1.6676e+000 -2.6529e+000 -2.6331e-001 47588 84937,84885,85127
 1.0000e+000 85176 -3.6813e+000 -2.3051e+000 -8.4967e-001 47588 84937,85127,84963
 1.0000e+000 85225 -1.0438e-001 -2.3011e+000 -4.4826e-001 47588 84781,85127,85199
 1.0000e+000 85248  5.1053e-001 -1.5650e+000 -1.0540e+000 47588 84781,85199,84807
 1.0000e+000 85518 -4.1841e+000 -1.5791e+000 -3.2144e-002 47226 85293,85397,85319
 1.0000e+000 85495 -3.5810e+000 -5.5276e-001 -8.5637e-001 47226 85293,85423,85397
 1.0000e+000 85472 -4.7381e+000 -2.0021e+000 -4.8478e-001 47226 85319,85397,85345
 1.0000e+000 85449 -5.2181e+000 -4.4610e+000 -4.3099e-001 47226 85345,85397,85371
 1.0000e+000 85849 -3.5133e+000 -3.3104e+000 -1.4784e+000 46572 85624,85702,85650
 1.0000e+000 85826 -5.1155e+000 -2.8036e+000  1.3604e+000 46572 85624,85754,85702
 1.0000e+000 85803 -7.6909e+000 -6.6062e+000  8.6547e-002 46572 85702,85754,85728
 1.0000e+000 85780 -4.5604e+000 -3.9813e+000 -8.1767e-001 46572 85650,85702,85676
 1.0000e+000 86070 -1.6163e+001 -3.5876e+001 -1.9726e+000 46374 85920,85972,85946
 1.0000e+000 86047 -9.4772e+000 -1.9832e+001  4.8934e-002 46374 85920,85998,85972
 1.0000e+000 86024 -6.2918e+000 -1.7325e+001  1.9230e+000 46374 85894,85998,85920
 1.0000e+000 86401 -7.8407e+000 -1.1993e+000  2.4981e+000 46034 86424,86280,86228
 1.0000e+000 86378 -8.9095e+000 -3.0534e+000  1.8309e+000 46034 86424,86228,86176
 1.0000e+000 86355 -1.1222e+001 -8.7761e+000  1.8732e+000 46034 86176,86228,86202
 1.0000e+000 86332 -3.8111e+000  5.1628e-001  1.9116e+000 46034 86228,86280,86254
 1.0000e+000 86450 -4.9290e+000 -3.4807e+000  2.1624e+000 46034 86306,86280,86424
 1.0000e+000 86473 -7.4251e+000 -6.0789e+000  9.2322e-001 46034 86306,86424,86176
 1.0000e+000 87058 -6.2537e+000 -1.3128e+001  6.4616e-001 45516 86813,86917,86865
 1.0000e+000 87035 -8.5516e+000 -1.9376e+001 -4.8363e-002 45516 86787,86917,86813
 1.0000e+000 87012 -7.3313e+000 -2.0044e+001  7.5471e-001 45516 86735,86917,86787
 1.0000e+000 86989 -4.8376e+000 -1.4878e+001  1.3626e+000 45516 86865,86917,86891
 1.0000e+000 86966 -5.5220e+000 -1.6760e+001  2.8554e-001 45516 86813,86865,86839
 1.0000e+000 86943 -6.2506e+000 -2.3388e+001 -1.6816e+000 45516 86735,86787,86761
 1.0000e+000 87208 -1.3603e+001 -1.1680e+001  7.0478e+000 45226 87231,87133,87107
 1.0000e+000 87185 -7.5494e+000 -7.2992e+000  7.2245e+000 45226 87081,87159,87133
 1.0000e+000 87257 -9.2911e+000 -1.2903e+001  5.4736e+000 45226 87081,87133,87231
 1.0000e+000 87537 -7.9545e+000 -3.3627e+000 -6.7914e-001 44772 87387,87439,87413
 1.0000e+000 87514 -1.0018e+001 -6.8267e+000  4.1133e+000 44772 87361,87439,87387
 1.0000e+000 87491 -8.2093e+000 -5.7242e+000  3.5061e+000 44772 87361,87465,87439
 1.0000e+000 87996 -4.9912e+000 -2.0553e+000  2.1965e-001 44425 87748,87878,87852
 1.0000e+000 87973 -3.2210e+000 -1.3208e+000  6.6205e-001 44425 87722,87878,87748
 1.0000e+000 87950 -6.8396e+000 -4.2470e+000 -5.8071e-001 44425 87800,87852,87826
 1.0000e+000 87927 -3.5572e+000 -2.4312e+000  1.5402e-001 44425 87748,87852,87800
 1.0000e+000 87904 -5.0135e+000  5.0111e-002 -1.5519e+000 44425 87748,87800,87774
 1.0000e+000 88423 -4.4270e+000 -2.5015e-002  1.4072e+000 44078 88590,88230,88204
 1.0000e+000 88400 -3.3771e+000  1.3707e+000  9.8247e-001 44078 88518,88446,88204
 1.0000e+000 88377 -1.7651e+000 -5.5717e-001 -2.1749e-001 44078 88446,88126,88282
 1.0000e+000 88354 -2.9806e+000  2.3140e+000  5.0109e-001 44078 88518,88204,88178
 1.0000e+000 88331 -1.0804e+000 -7.2415e-002  1.2198e-001 44078 88100,88282,88126
 1.0000e+000 88308 -1.7461e+000  5.5641e-001 -1.2686e-001 44078 88126,88178,88152
 1.0000e+000 88472 -4.4185e+000 -3.2679e-002  1.4923e+000 44078 88590,88204,88446
 1.0000e+000 88495 -3.0779e+000 -3.4437e+000  8.6014e-002 44078 88256,88446,88282
 1.0000e+000 88544 -2.7118e+000 -8.5410e-001  1.3792e+000 44078 88126,88446,88518
 1.0000e+000 88567 -1.7980e+000  7.9783e-001  8.3794e-001 44078 88126,88518,88178
 1.0000e+000 88616 -5.0888e+000 -4.8598e-001  1.1440e+000 44078 88256,88230,88590
 1.0000e+000 88639 -4.4955e+000 -6.0825e-002  1.4783e+000 44078 88256,88590,88446
 1.0000e+000 89039 -4.7799e+000 -2.3600e+000 -4.8382e-001 43716 88791,88921,88895
 1.0000e+000 89016 -2.7906e+000  6.8585e-001  5.3209e-001 43716 88765,88921,88791
 1.0000e+000 88993 -4.8608e+000 -2.8873e+000 -1.0676e+000 43716 88817,88895,88869
 1.0000e+000 88970 -2.1824e+000 -1.4257e+000 -4.8769e-001 43716 88791,88895,88817
 1.0000e+000 88947 -7.6316e+000 -5.0059e+000  1.1099e-001 43716 88817,88869,88843
 1.0000e+000 89496 -8.6802e+000 -2.0953e+001 -1.4169e+000 43162 89519,89274,89248
 1.0000e+000 89473 -7.9356e+000 -1.7628e+001 -7.0047e-001 43162 89519,89248,89222
 1.0000e+000 89450 -1.0442e+001 -2.0370e+001  1.3259e+000 43162 89326,89378,89352
 1.0000e+000 89427 -9.0818e+000 -1.8936e+001  5.2408e-001 43162 89274,89378,89326
 1.0000e+000 89404 -9.1928e+000 -1.7506e+001  7.9324e-001 43162 89274,89326,89300
 1.0000e+000 89545 -9.0046e+000 -1.7915e+001 -5.7283e-001 43162 89378,89274,89519
 1.0000e+000 89568 -8.0462e+000 -1.4330e+001  1.9080e-001 43162 89378,89519,89222
 1.0000e+000 89946 -5.3617e+000 -1.8119e+000 -3.1860e-001 42594 90041,89969,89750
 1.0000e+000 89923 -4.6022e+000 -1.8922e+000 -7.8097e-001 42594 89969,89698,89828
 1.0000e+000 89900 -4.4397e+000 -2.1439e+000 -1.8429e-001 42594 90041,89750,89724
 1.0000e+000 89877 -5.3695e+000 -3.2711e+000  1.6770e+000 42594 89750,89802,89776
 1.0000e+000 89854 -6.9747e+000 -3.3059e+000 -2.0318e+000 42594 89672,89828,89698
 1.0000e+000 89995 -6.0253e+000 -2.0477e+000  7.6804e-002 42594 89802,89750,89969
 1.0000e+000 90018 -4.9270e+000 -2.5203e+000 -6.2514e-001 42594 89802,89969,89828
 1.0000e+000 90067 -4.4215e+000 -1.7801e+000  3.3069e-002 42594 89698,89969,90041
 1.0000e+000 90090 -3.0832e+000 -1.8954e+000 -1.8834e-001 42594 89698,90041,89724
 1.0000e+000 90517 -9.9814e+000 -1.3653e+001  1.4513e+000 42140 90540,90220,90194
 1.0000e+000 90494 -1.2920e+001 -1.8078e+001  2.7379e+000 42140 90540,90194,90376
 1.0000e+000 90471 -1.0229e+001 -1.2381e+001  1.1233e+000 42140 90612,90350,90272
 1.0000e+000 90448 -1.1339e+001 -8.7314e+000  5.7446e-001 42140 90272,90350,90298
 1.0000e+000 90425 -1.0956e+001 -8.0319e+000  3.7872e-001 42140 90298,90350,90324
 1.0000e+000 90402 -9.3395e+000 -1.4930e+001  2.3283e+000 42140 90220,90272,90246
 1.0000e+000 90566 -1.1301e+001 -1.5539e+001  8.5496e-001 42140 90272,90220,90540
 1.0000e+000 90589 -1.0825e+001 -1.3793e+001  6.9840e-001 42140 90612,90272,90540
 1.0000e+000 90638 -1.0533e+001 -1.0817e+001  2.3251e+000 42140 90376,90350,90612
 1.0000e+000 90661 -1.0798e+001 -1.2569e+001  2.3039e+000 42140 90376,90612,90540
 1.0000e+000 91167 -9.2635e+000 -2.0491e+000  2.9161e+000 41636 91190,90870,90844
 1.0000e+000 91144 -7.6018e+000  1.4959e+000  2.1978e+000 41636 91190,90844,91026
 1.0000e+000 91121 -1.0473e+001 -2.3890e+000  6.6222e+000 41636 90870,90922,90896
 1.0000e+000 91098 -8.2938e+000 -2.2052e+000  3.6919e+000 41636 90922,91026,90948
 1.0000e+000 91075 -9.0593e+000 -6.4001e-001  1.8831e+000 41636 90948,91026,91000
 1.0000e+000 91052 -5.6693e+000 -3.7237e-001 -9.8484e-001 41636 90948,91000,90974
 1.0000e+000 91216 -7.6382e+000 -3.7807e+000  3.0467e+000 41636 90922,90870,91190
 1.0000e+000 91239 -7.2805e+000 -2.2552e+000  2.3750e+000 41636 90922,91190,91026
 1.0000e+000 91696 -3.8827e+000 -1.2772e+000 -5.7112e-001 40449 91448,91526,91474
 1.0000e+000 91673 -2.5444e+000 -4.9163e-001 -1.0667e+000 40449 91448,91578,91526
 1.0000e+000 91650 -6.3387e+000 -3.3395e+000 -1.7004e+000 40449 91474,91526,91500
 1.0000e+000 91627 -1.4066e+000  5.2331e-001 -5.3720e-001 40449 91422,91578,91448
 1.0000e+000 91604 -3.2829e+000  1.5316e+000 -1.3197e+000 40449 91526,91578,91552
 1.0000e+000 92123 -4.1021e+000 -1.8002e+000 -6.7604e-001 39995 92146,91904,91826
 1.0000e+000 92100 -3.6261e+000 -1.4626e+000  2.5099e-001 39995 92146,91826,91800
 1.0000e+000 92077 -2.2724e+000 -2.5408e+000 -6.0807e-001 39995 91826,91904,91852
 1.0000e+000 92054 -4.4367e+000 -6.1408e-001  5.3449e-003 39995 91904,91982,91930
 1.0000e+000 92031 -7.2809e+000 -4.3666e+000  2.9288e-002 39995 91852,91904,91878
 1.0000e+000 92008 -6.3900e+000 -5.8488e-001  1.2594e+000 39995 91930,91982,91956
 1.0000e+000 92172 -4.4945e+000 -8.1621e-001  1.5147e-002 39995 91982,91904,92146
 1.0000e+000 92195 -3.7957e+000  4.7122e-001  8.0800e-001 39995 91982,92146,91800
 1.0000e+000 92652 -1.0975e+001 -1.7699e+001  6.1864e-001 39633 92404,92534,92456
 1.0000e+000 92629 -1.0944e+001 -1.6488e+001  7.2932e-001 39633 92378,92534,92404
 1.0000e+000 92606 -1.3099e+001 -1.8813e+001 -8.7972e-001 39633 92404,92456,92430
 1.0000e+000 92583 -1.3730e+001 -2.1160e+001  2.0835e+000 39633 92456,92534,92508
 1.0000e+000 92560 -9.8226e+000 -1.6865e+001  3.8668e+000 39633 92456,92508,92482
 1.0000e+000 93079 -6.3633e+000 -5.4899e+000  6.7563e-002 39093 93102,92808,92756
 1.0000e+000 93056 -1.0514e+001 -9.3392e+000  2.2617e+000 39093 93102,92756,92938
 1.0000e+000 93033 -9.7613e+000 -4.2402e+000 -2.1015e+000 39093 93174,92912,92834
 1.0000e+000 93010 -5.1600e+000 -2.4074e+000 -1.3645e+000 39093 92834,92912,92860
 1.0000e+000 92987 -8.7976e+000 -6.9328e+000  1.8831e+000 39093 92756,92808,92782
 1.0000e+000 92964 -4.8563e+000 -1.9876e-001  1.3973e-001 39093 92860,92912,92886
 1.0000e+000 93128 -1.0058e+001 -2.0597e+000 -8.1512e-001 39093 92834,92808,93102
 1.0000e+000 93151 -9.4560e+000 -4.2004e+000 -7.9648e-001 39093 93174,92834,93102
 1.0000e+000 93200 -1.0651e+001 -4.7448e+000 -1.7219e+000 39093 92938,92912,93174
 1.0000e+000 93223 -1.1930e+001 -5.1768e+000 -5.1838e-001 39093 92938,93174,93102
 1.0000e+000 93680 -1.0703e+001 -1.1398e+001 -9.9745e-001 38639 93703,93536,93484
 1.0000e+000 93657 -1.0707e+001 -1.1246e+001 -1.0137e+000 38639 93703,93484,93432
 1.0000e+000 93634 -7.0640e+000 -9.2841e+000 -1.7829e+000 38639 93432,93484,93458
 1.0000e+000 93611 -9.9756e+000 -1.0980e+001 -4.6254e+000 38639 93484,93536,93510
 1.0000e+000 93588 -9.5145e+000 -1.0289e+001 -8.0825e-001 38639 93406,93562,93432
 1.0000e+000 93729 -1.0630e+001 -1.1932e+001 -1.0616e+000 38639 93562,93536,93703
 1.0000e+000 93752 -1.0351e+001 -1.1409e+001 -1.2026e+000 38639 93562,93703,93432
 1.0000e+000 94160 -1.8192e+000 -4.9442e-001 -9.7357e-001 38292 93935,94039,93961
 1.0000e+000 94137 -2.5783e+000 -3.6210e+000  6.7807e-001 38292 93935,94065,94039
 1.0000e+000 94114 -2.3196e+000 -4.6387e+000 -1.5104e+000 38292 93961,94013,93987
 1.0000e+000 94091 -1.1520e+000 -5.9061e+000 -8.2867e-001 38292 93961,94039,94013
 1.0000e+000 94408 -7.7990e+000 -8.6591e+000 -2.5047e-001 37880 94431,94261,94235
 1.0000e+000 94385 -7.1017e+000 -5.6862e+000  3.0194e-002 37880 94431,94235,94313
 1.0000e+000 94362 -7.6918e+000 -8.3405e+000 -5.4067e-001 37880 94209,94313,94235
 1.0000e+000 94339 -5.1041e+000 -2.4042e+000 -2.1671e-001 37880 94183,94313,94209
 1.0000e+000 94457 -8.6043e+000 -5.7228e+000 -1.0859e+000 37880 94287,94261,94431
 1.0000e+000 94480 -8.4129e+000 -3.5066e+000 -3.8980e-001 37880 94287,94431,94313
 1.0000e+000 94728 -5.7339e+000  9.3051e-001 -1.9255e+000 37426 94529,94607,94555
 1.0000e+000 94705 -7.0803e+000  1.4748e+000 -1.2535e+000 37426 94529,94633,94607
 1.0000e+000 94682 -8.3436e+000  3.0661e+000 -5.6498e-001 37426 94503,94633,94529
 1.0000e+000 94659 -1.4853e+001 -1.2830e+001  4.5954e+000 37426 94555,94607,94581
 1.0000e+000 95257 -7.0030e+000 -8.2007e+000  4.7004e+000 36722 95496,95280,94862
 1.0000e+000 95234 -3.4790e+000 -7.2517e+000  1.0936e+000 36722 95496,94862,94836
 1.0000e+000 95211 -9.1011e+000 -9.4586e+000  4.0528e+000 36722 95352,95280,95070
 1.0000e+000 95188 -8.0077e+000 -6.8039e+000  3.8733e+000 36722 95352,95070,95044
 1.0000e+000 95165 -6.8208e+000 -2.0576e+001  5.2735e+000 36722 95424,94888,94862
 1.0000e+000 95142 -6.9550e+000 -5.7010e+000  1.5650e+000 36722 94914,94966,94940
 1.0000e+000 95119 -5.5483e+000 -1.1595e+000 -1.2460e-001 36722 94966,95044,95018
 1.0000e+000 95096 -5.0881e+000 -1.8749e+000  8.7727e-001 36722 94966,95018,94992
 1.0000e+000 95306 -6.7679e+000 -9.3739e+000  5.4891e+000 36722 95424,94862,95280
 1.0000e+000 95329 -6.9399e+000 -6.0169e+000  1.0573e+000 36722 94914,95280,94966
 1.0000e+000 95378 -7.9302e+000 -9.9727e+000  2.5320e+000 36722 94966,95280,95352
 1.0000e+000 95401 -7.8874e+000 -9.3367e+000  2.6484e+000 36722 94966,95352,95044
 1.0000e+000 95450 -8.4804e+000 -1.4651e+001 -9.3417e-001 36722 94914,94888,95424
 1.0000e+000 95473 -9.8480e+000 -1.4084e+001  1.0078e+000 36722 94914,95424,95280
 1.0000e+000 95522 -7.6746e+000 -9.9093e+000  5.0071e+000 36722 95070,95280,95496
 1.0000e+000 95545 -6.7487e+000 -1.0853e+001  4.3308e+000 36722 95070,95496,94836
 1.0000e+000 96130 -8.8984e+000 -1.3430e+001 -1.6874e+000 36268 96153,95911,95859
 1.0000e+000 96107 -9.5498e+000 -1.4914e+001 -1.9789e+000 36268 96153,95859,95807
 1.0000e+000 96084 -9.5440e+000 -1.2841e+001  2.0498e-002 36268 95807,95859,95833
 1.0000e+000 96061 -6.2512e+000 -1.6718e+001 -3.7544e+000 36268 95911,95989,95937
 1.0000e+000 96038 -4.6739e+000 -1.1560e+001 -1.3207e+000 36268 95859,95911,95885
 1.0000e+000 96015 -1.1299e+001 -1.0425e+001 -8.1206e+000 36268 95937,95989,95963
 1.0000e+000 96179 -7.6766e+000 -1.4910e+001 -1.3390e+000 36268 95989,95911,96153
 1.0000e+000 96202 -8.6454e+000 -1.6861e+001 -1.7349e+000 36268 95989,96153,95807
 1.0000e+000 96531 -6.0653e+000 -3.1311e+000 -1.7244e+000 35728 96358,96410,96384
 1.0000e+000 96508 -4.5692e+000 -3.2280e-001 -3.0957e+000 35728 96332,96410,96358
 1.0000e+000 96485 -5.6685e+000 -4.2290e-001 -1.3511e+000 35728 96332,96436,96410
 1.0000e+000 96462 -6.8295e+000 -8.2721e-001 -1.3381e+000 35728 96306,96436,96332
 1.0000e+000 96860 -5.3922e+000 -7.1980e+000  2.8804e+000 35324 96687,96765,96713
 1.0000e+000 96837 -3.2519e+000 -3.6028e+000 -5.1170e-001 35324 96661,96765,96687
 1.0000e+000 96814 -2.8020e+000 -2.1666e+000  3.5774e-001 35324 96713,96765,96739
 1.0000e+000 96791 -4.1806e+000 -1.1451e+000  4.9349e-002 35324 96635,96765,96661
 1.0000e+000 97366 -2.5447e+000 -2.4421e+000 -1.5148e+000 34920 97389,97069,97043
 1.0000e+000 97343 -2.4298e+000 -3.2753e+000 -1.0573e+000 34920 97389,97043,97199
 1.0000e+000 97320 -2.3081e+000  3.5340e+000  3.0213e-001 34920 97043,97225,97199
 1.0000e+000 97297 -3.3766e+000 -2.9077e+000 -3.6222e-001 34920 97069,97121,97095
 1.0000e+000 97274 -4.7045e+000 -7.5064e+000 -1.4133e+000 34920 97121,97199,97173
 1.0000e+000 97251 -6.0484e+000 -7.0647e+000 -2.0372e+000 34920 97121,97173,97147
 1.0000e+000 97415 -2.5516e+000 -2.6595e+000 -5.5731e-001 34920 97121,97069,97389
 1.0000e+000 97438 -3.1724e+000 -4.4903e+000 -3.4747e-002 34920 97121,97389,97199
 1.0000e+000 97708 -1.2883e+001 -2.1214e+001  7.5014e-001 34722 97509,97587,97535
 1.0000e+000 97685 -1.4090e+001 -1.8911e+001  5.2597e-001 34722 97509,97613,97587
 1.0000e+000 97662 -1.0416e+001 -1.6708e+001  1.7284e+000 34722 97483,97613,97509
 1.0000e+000 97639 -1.5547e+001 -2.2743e+001 -8.3546e-002 34722 97535,97587,97561
 1.0000e+000 98216 -6.5461e+000 -2.4741e+000 -7.2452e-001 34318 97971,98075,97997
 1.0000e+000 98193 -6.0081e+000  1.6999e+000 -2.2000e+000 34318 97893,98075,97971
 1.0000e+000 98170 -9.1431e+000 -4.8171e+000 -9.3684e-001 34318 97893,97971,97919
 1.0000e+000 98147 -5.8141e+000 -8.1788e-001 -9.1074e-001 34318 97997,98075,98049
 1.0000e+000 98124 -6.8459e+000 -4.9457e+000 -7.6181e-001 34318 97919,97971,97945
 1.0000e+000 98101 -5.3772e+000  2.8608e-001 -7.4488e-001 34318 97997,98049,98023
 1.0000e+000 98594 -8.3783e+000 -1.5072e+001 -1.8586e+000 33814 98961,98617,98424
 1.0000e+000 98571 -1.0350e+001 -1.6457e+001 -1.4007e+000 33814 98689,98617,98372
 1.0000e+000 98548 -1.0685e+001 -1.6408e+001 -1.3033e+000 33814 99033,98689,98372
 1.0000e+000 98525 -8.3621e+000 -1.3363e+001  4.5843e-001 33814 98761,98476,98450
 1.0000e+000 98502 -7.3855e+000 -1.5564e+001 -1.5821e+000 33814 98961,98424,98398
 1.0000e+000 98643 -1.0800e+001 -1.5582e+001 -1.2471e+000 33814 98450,98424,98617
 1.0000e+000 98666 -9.9868e+000 -1.5052e+001 -6.9115e-001 33814 98761,98450,98617
 1.0000e+000 98715 -1.1324e+001 -1.5547e+001 -1.3952e+000 33814 99161,98689,98320
 1.0000e+000 98738 -9.3373e+000 -1.7088e+001 -1.5508e+000 33814 98320,98689,98346
 1.0000e+000 98787 -1.1607e+001 -1.4976e+001 -5.8769e-001 33814 98833,98761,98320
 1.0000e+000 98810 -1.0855e+001 -1.5493e+001 -1.1991e+000 33814 99161,98320,98761
 1.0000e+000 98859 -9.6831e+000 -1.4609e+001 -9.5586e-001 33814 98476,98761,98833
 1.0000e+000 98987 -9.7771e+000 -1.5111e+001 -1.5079e+000 33814 98372,98617,98961
 1.0000e+000 99010 -8.8592e+000 -1.5692e+001 -1.0354e+000 33814 98372,98961,98398
 1.0000e+000 99059 -1.2634e+001 -1.9618e+001 -3.5018e+000 33814 98346,98689,99033
 1.0000e+000 99187 -1.1036e+001 -1.5567e+001 -7.5410e-001 33814 98617,98689,99161
 1.0000e+000 99210 -1.0187e+001 -1.5366e+001 -6.0424e-001 33814 98617,99161,98761
 1.0000e+000 99588 -1.0673e+001 -1.4027e+001 -1.0480e+000 33566 99366,99444,99392
 1.0000e+000 99565 -9.8955e+000 -1.4116e+001 -9.0149e-001 33566 99314,99444,99366
 1.0000e+000 99542 -1.0529e+001 -1.4581e+001 -3.1024e-001 33566 99314,99366,99340
 1.0000e+000 99519 -1.0885e+001 -1.5617e+001  6.7152e-001 33566 99314,99470,99444
 1.0000e+000 99496 -8.4438e+000 -1.4838e+001 -3.8082e+000 33566 99392,99444,99418
 1.0000e+000 99787 -8.9215e+000  6.8751e+000 -1.0959e+001 33105 99637,99689,99663
 1.0000e+000 99764 -7.2587e+000  3.2649e+000 -3.6685e+000 33105 99611,99689,99637
 1.0000e+000 99741 -1.2998e+001  1.2281e+000  2.1642e-001 33105 99611,99715,99689
 1.0000e+000 100167 -8.1566e+000 -9.5646e+000  2.7505e+000 32651 100190,99971,99919
 1.0000e+000 100144 -5.7041e+000 -7.2506e+000  1.7907e+000 32651 100262,100190,99919
 1.0000e+000 100121 -5.1887e+000 -7.4958e+000  2.2924e+000 32651 100262,99919,100049
 1.0000e+000 100098 -3.6237e+000 -6.8442e+000  2.8286e+000 32651 99893,100049,99919
 1.0000e+000 100075 -1.0385e+001 -7.5340e+000  9.7949e-001 32651 99919,99971,99945
 1.0000e+000 100216 -5.6391e+000 -1.0813e+001 -3.4078e-002 32651 99997,99971,100190
 1.0000e+000 100239 -3.2409e+000 -6.8051e+000 -1.1595e+000 32651 99997,100190,100023
 1.0000e+000 100288 -5.5871e+000 -5.7412e+000  2.0563e+000 32651 100023,100190,100262
 1.0000e+000 100311 -5.7734e+000 -6.5077e+000  3.1575e+000 32651 100023,100262,100049
 1.0000e+000 100608 -1.2311e+000 -2.0891e+000 -2.9598e+000 32254 100386,100490,100464
 1.0000e+000 100585 -5.0344e-001  3.2004e-001 -2.9885e+000 32254 100360,100490,100386
 1.0000e+000 100562 -1.2881e+000 -8.8256e+000 -7.0219e+000 32254 100386,100464,100412
 1.0000e+000 100539 -5.3027e+000 -1.7632e-002  3.8828e-001 32254 100334,100490,100360
 1.0000e+000 100516 -7.0313e-003 -5.6186e+000 -6.6973e+000 32254 100412,100464,100438
 1.0000e+000 100758 -7.8927e+000 -7.2238e+000 -1.0023e-001 31914 100985,100781,100683
 1.0000e+000 100735 -1.3076e+001 -1.0561e+001  3.1224e+000 31914 100853,100781,100657
 1.0000e+000 100807  8.7723e-001 -6.5148e+000 -7.0640e+000 31914 100709,100683,100781
 1.0000e+000 100830 -1.5697e+001 -1.2605e+001 -4.0396e+000 31914 100709,100781,100631
 1.0000e+000 100879 -1.2962e+001 -1.6165e+001  3.2854e+000 31914 100631,100781,100853
 1.0000e+000 101011 -7.0273e+000 -9.5383e+000  8.7652e-001 31914 100657,100781,100985
 1.0000e+000 101191 -1.1779e+001  8.5693e+000 -2.2432e+000 31418 101113,101165,101139
 1.0000e+000 101341 -1.3579e+001 -1.9555e+001 -5.7137e-001 31106 101214,101266,101240
 1.0000e+000 101318 -1.2227e+001 -1.4695e+001  7.9316e-001 31106 101214,101292,101266
 1.0000e+000 101591 -1.2982e+001 -1.5109e+001 -3.0305e+000 30552 101614,101470,101444
 1.0000e+000 101568 -7.0567e+000 -1.3744e+001  1.0443e+000 30552 101366,101496,101470
 1.0000e+000 101545 -1.7856e+001 -1.7591e+001  9.0455e-001 30552 101614,101444,101392
 1.0000e+000 101522 -1.8809e+001 -1.3387e+001 -2.3029e+000 30552 101392,101444,101418
 1.0000e+000 101640 -1.9782e+001 -1.4174e+001 -4.9872e-002 30552 101366,101470,101614
 1.0000e+000 101663 -2.3985e+001 -1.6081e+001  3.8324e+000 30552 101366,101614,101392
 1.0000e+000 102301 -1.2533e+001 -1.9412e+001  4.3460e-001 30042 102396,102324,102059
 1.0000e+000 102278 -1.2633e+001 -1.8070e+001 -5.3308e-001 30042 102324,101981,101955
 1.0000e+000 102255 -1.3347e+001 -1.9111e+001  1.0774e+000 30042 102396,102059,102033
 1.0000e+000 102232 -1.0744e+001 -1.5412e+001 -2.5848e-001 30042 101929,102111,101955
 1.0000e+000 102209 -1.1462e+001 -1.6659e+001 -1.0248e-001 30042 102059,102111,102085
 1.0000e+000 102186 -8.1337e+000 -1.4206e+001 -5.9402e-001 30042 101929,102137,102111
 1.0000e+000 102163 -7.1504e+000 -1.6284e+001  1.2280e+000 30042 101981,102033,102007
 1.0000e+000 102350 -1.1197e+001 -1.8582e+001 -2.4027e-001 30042 102111,102059,102324
 1.0000e+000 102373 -1.1605e+001 -1.7314e+001 -1.1457e+000 30042 102111,102324,101955
 1.0000e+000 102422 -1.1214e+001 -1.8184e+001 -1.8953e-001 30042 101981,102324,102396
 1.0000e+000 102445 -1.2096e+001 -1.7913e+001  4.5920e-001 30042 101981,102396,102033
 1.0000e+000 103000 -7.6178e+000 -9.9445e+000 -1.7953e+000 29730 103023,102706,102654
 1.0000e+000 102977 -7.1876e+000 -1.1599e+001 -6.1822e-002 29730 103023,102654,102810
 1.0000e+000 102954 -6.1659e+000 -1.7085e+001 -3.1456e+000 29730 102732,102810,102784
 1.0000e+000 102931 -1.0220e+001 -1.5824e+001 -1.6182e+000 29730 102628,102810,102654
 1.0000e+000 102908 -7.7333e+000 -9.1174e+000 -1.5198e+000 29730 102654,102706,102680
 1.0000e+000 102885 -1.3552e+000 -9.9834e+000  1.0870e+000 29730 102732,102784,102758
 1.0000e+000 102862 -1.3032e+001 -1.7248e+001 -8.0582e-001 29730 102628,102836,102810
 1.0000e+000 103049 -6.9868e+000 -7.0436e+000 -2.0876e+000 29730 102732,102706,103023
 1.0000e+000 103072 -6.8541e+000 -9.8211e+000 -7.0077e-001 29730 102732,103023,102810
 1.0000e+000 103222 -1.9310e+001 -3.5531e+000 -1.3196e+000 29226 103095,103147,103121
 1.0000e+000 103199 -2.6636e+001 -1.0718e+001  1.7235e+000 29226 103095,103173,103147
 1.0000e+000 103730 -9.8139e+000 -1.4119e+001 -5.5515e-001 28822 103537,103589,103563
 1.0000e+000 103707 -1.0241e+001 -1.6309e+001 -5.4352e-001 28822 103433,103589,103537
 1.0000e+000 103684 -1.3217e+001 -1.7299e+001 -8.9247e-001 28822 103433,103537,103459
 1.0000e+000 103661 -8.9768e+000 -1.5057e+001 -1.4941e-002 28822 103407,103589,103433
 1.0000e+000 103638 -8.3635e+000 -1.6913e+001  2.1068e+000 28822 103459,103511,103485
 1.0000e+000 103615 -1.0683e+001 -1.3925e+001  7.2243e-001 28822 103459,103537,103511
 1.0000e+000 103880 -7.3320e+000 -1.2722e+001  4.6628e-001 28368 103975,103903,103779
 1.0000e+000 103857 -1.0078e+001 -1.7021e+001 -4.2226e-001 28368 103903,103753,103831
 1.0000e+000 103929 -9.8137e+000 -1.4232e+001 -8.1040e-001 28368 103805,103779,103903
 1.0000e+000 103952 -8.9310e+000 -1.2747e+001 -5.9692e-002 28368 104105,103903,103831
 1.0000e+000 104001 -9.5069e+000 -1.4395e+001 -9.2681e-001 28368 103753,103903,103975
 1.0000e+000 104131 -1.0831e+001 -1.3899e+001 -7.5631e-001 28368 103805,103903,104105
 1.0000e+000 104539 -4.4419e+000 -4.8609e+000  7.9929e-002 28028 104562,104340,104314
 1.0000e+000 104516 -6.9977e+000 -6.9080e+000  1.5765e+000 28028 104634,104562,104314
 1.0000e+000 104493 -1.0634e+001 -7.2417e+000  2.0936e+000 28028 104762,104366,104340
 1.0000e+000 104470 -6.7450e+000 -1.0330e+001  7.9293e-001 28028 104366,104418,104392
 1.0000e+000 104588 -8.0569e+000 -5.5464e+000  1.2890e+000 28028 104762,104340,104562
 1.0000e+000 104611 -5.8342e+000 -5.7917e+000  2.4379e+000 28028 104418,104562,104444
 1.0000e+000 104660 -3.2291e+000 -4.6108e+000  2.9967e+000 28028 104444,104562,104634
 1.0000e+000 104788 -6.9133e+000 -9.1580e+000  2.4939e+000 28028 104418,104366,104762
 1.0000e+000 104811 -4.9508e+000 -7.9785e+000  1.8951e+000 28028 104418,104762,104562
 1.0000e+000 105010 -7.0854e+000 -9.8755e+000 -4.7221e+000 27324 105033,104886,104860
 1.0000e+000 104987 -8.4785e+000 -8.6668e+000  1.3709e-001 27324 105033,104860,104834
 1.0000e+000 104964 -5.6024e+000 -1.3500e+000 -5.1066e+000 27324 105105,104912,104886
 1.0000e+000 105059 -4.6831e+000 -3.4096e+000 -5.1963e+000 27324 105105,104886,105033
 1.0000e+000 105082 -6.2562e+000 -6.8218e+000 -1.4074e+000 27324 104938,105033,104834
 1.0000e+000 105131 -3.6775e+000 -3.3286e+000 -2.3185e+000 27324 104938,104912,105105
 1.0000e+000 105154 -4.4165e+000 -7.8709e+000 -2.8858e+000 27324 104938,105105,105033
 1.0000e+000 105402 -2.8257e+001 -1.4682e+001 -1.4803e+000 27012 105229,105281,105255
 1.0000e+000 105379 -2.5502e+001 -1.6621e+001 -1.1391e+000 27012 105229,105307,105281
 1.0000e+000 105356 -1.9138e+001 -1.4596e+001 -2.2291e-001 27012 105177,105307,105229
 1.0000e+000 105333 -2.3095e+001 -1.3764e+001 -5.0428e+000 27012 105177,105229,105203
 1.0000e+000 105603 -2.4829e+000 -4.2633e+000 -5.1180e+000 26508 105626,105453,105427
 1.0000e+000 105580 -2.0296e+000 -3.4371e+000 -1.7045e+000 26508 105626,105427,105505
 1.0000e+000 105557  2.2520e+000 -2.6079e+000 -1.6905e+000 26508 105427,105531,105505
 1.0000e+000 105652 -5.0148e+000 -5.3450e+000 -5.1816e+000 26508 105479,105453,105626
 1.0000e+000 105675 -5.3394e+000 -4.9290e+000 -2.0651e+000 26508 105479,105626,105505
 1.0000e+000 106057 -8.1958e+000 -7.5814e+000 -1.6905e+000 25947 106080,105887,105861
 1.0000e+000 106034 -7.4233e+000 -6.4316e+000 -2.7629e+000 25947 106080,105861,105783
 1.0000e+000 106011 -6.0391e+000 -6.7899e+000 -3.2566e+000 25947 105783,105835,105809
 1.0000e+000 105988 -7.8288e+000 -6.6346e+000 -2.6310e+000 25947 105783,105861,105835
 1.0000e+000 105965 -8.6520e+000 -3.4832e+000 -4.1808e+000 25947 105887,105939,105913
 1.0000e+000 106106 -7.8584e+000 -7.0342e+000 -2.7211e+000 25947 105939,105887,106080
 1.0000e+000 106129 -6.0527e+000 -4.8311e+000 -3.9719e+000 25947 105939,106080,105783
 1.0000e+000 106714 -4.8564e+000 -6.6128e+000 -7.8220e-001 25557 106809,106737,106547
 1.0000e+000 106691 -3.4522e+000 -5.4324e+000 -1.8747e-001 25557 106737,106417,106391
 1.0000e+000 106668 -3.9497e+000 -7.0421e+000 -5.8534e-001 25557 106809,106547,106495
 1.0000e+000 106645 -4.7340e+000 -9.0837e+000 -7.1600e-001 25557 106417,106495,106469
 1.0000e+000 106622 -5.1813e+000 -8.8499e+000 -2.4421e+000 25557 106495,106547,106521
 1.0000e+000 106599 -7.0631e+000 -7.2913e+000 -1.3989e+000 25557 106417,106469,106443
 1.0000e+000 106763 -6.4425e+000 -5.5652e+000  6.8961e-001 25557 106573,106547,106737
 1.0000e+000 106786 -3.2996e+000 -4.2950e+000  1.3400e+000 25557 106573,106737,106391
 1.0000e+000 106835 -3.9353e+000 -5.3880e+000 -3.8031e-001 25557 106417,106737,106809
 1.0000e+000 106858 -3.6579e+000 -6.5660e+000 -4.5658e-001 25557 106417,106809,106495
 1.0000e+000 107364 -6.3867e+000 -7.6910e+000  9.0734e-001 25153 107459,107387,107171
 1.0000e+000 107341 -7.3092e+000 -8.2184e+000 -5.2519e-002 25153 107387,107119,107067
 1.0000e+000 107318 -6.8386e+000 -1.0449e+001 -1.8533e+000 25153 107459,107171,107145
 1.0000e+000 107295 -5.6461e+000 -5.8169e+000  2.0266e+000 25153 107531,107223,107197
 1.0000e+000 107272 -9.0103e+000 -1.3519e+001 -1.4531e+000 25153 107067,107119,107093
 1.0000e+000 107249 -8.0065e+000 -1.6497e+000 -6.0418e-002 25153 107041,107223,107067
 1.0000e+000 107413 -4.6874e+000 -6.7423e+000  5.1909e-001 25153 107197,107171,107387
 1.0000e+000 107436 -6.9677e+000 -5.8474e+000  1.2957e+000 25153 107531,107197,107387
 1.0000e+000 107485 -8.1812e+000 -1.2442e+001 -1.0660e+000 25153 107119,107387,107459
 1.0000e+000 107508 -9.8958e+000 -1.5150e+001 -4.2097e+000 25153 107119,107459,107145
 1.0000e+000 107557 -5.0977e+000 -6.6841e+000  4.5397e-001 25153 107067,107223,107531
 1.0000e+000 107580 -6.9032e+000 -7.4816e+000 -3.7200e-001 25153 107067,107531,107387
 1.0000e+000 107958 -1.0632e+001 -1.2076e+001 -2.2517e+000 24741 107736,107814,107788
 1.0000e+000 107935 -1.4299e+001 -1.4118e+001 -3.0839e+000 24741 107736,107840,107814
 1.0000e+000 107912 -1.1633e+001 -9.5978e+000 -1.9701e+000 24741 107684,107840,107736
 1.0000e+000 107889 -1.3053e+001 -1.3816e+001 -1.4860e+000 24741 107736,107788,107762
 1.0000e+000 107866 -1.4011e+001 -1.0341e+001  1.7939e+000 24741 107684,107736,107710
 1.0000e+000 108157 -1.3930e+001 -1.1723e+001  1.1379e+000 24237 108180,108059,108007
 1.0000e+000 108134 -1.4669e+001 -6.7643e+000  5.9673e+000 24237 108180,108007,107981
 1.0000e+000 108111 -1.2399e+001 -1.9807e+000 -1.2785e+000 24237 108007,108059,108033
 1.0000e+000 108206 -1.1528e+001 -6.3765e+000  1.7889e+000 24237 108085,108059,108180
 1.0000e+000 108229 -1.2280e+001 -1.4002e+000  6.5933e+000 24237 108085,108180,107981
 1.0000e+000 108658 -8.6074e+000 -1.1493e+001 -1.2670e+000 23776 108361,108413,108387
 1.0000e+000 108635 -1.1164e+001 -1.9725e+001 -3.3505e-001 23776 108753,108681,108361
 1.0000e+000 108612 -8.4895e+000 -1.0120e+001 -1.9035e+000 23776 108681,108465,108439
 1.0000e+000 108589 -9.4224e+000 -2.2067e+001  2.1655e+000 23776 108753,108361,108335
 1.0000e+000 108566 -6.8039e+000 -1.0473e+001 -1.1197e+000 23776 108335,108517,108465
 1.0000e+000 108543 -6.0263e+000 -1.0919e+001 -6.0704e-001 23776 108465,108517,108491
 1.0000e+000 108707 -9.0328e+000 -1.2584e+001 -1.2977e+000 23776 108413,108361,108681
 1.0000e+000 108730 -1.0765e+001 -1.1075e+001 -1.8821e-001 23776 108413,108681,108439
 1.0000e+000 108779 -9.6056e+000 -1.0763e+001 -5.6790e-001 23776 108465,108681,108753
 1.0000e+000 108802 -1.0597e+001 -1.7585e+001  1.2592e+000 23776 108465,108753,108335
 1.0000e+000 109023 -1.3358e+001 -4.8433e+000  2.6980e+000 23414 108873,108925,108899
 1.0000e+000 109000 -1.8674e+001 -6.8204e+000  2.5094e+000 23414 108847,108925,108873
 1.0000e+000 108977 -1.4489e+001  1.9746e+000  1.0802e+000 23414 108847,108951,108925
 1.0000e+000 109474 -8.9328e+000 -1.6617e+001  7.2237e-001 23024 109151,109307,109177
 1.0000e+000 109451 -6.2328e+000 -1.4102e+001 -3.6869e-001 23024 109151,109333,109307
 1.0000e+000 109428 -1.1700e+001 -1.9185e+001 -4.7487e-001 23024 109177,109281,109203
 1.0000e+000 109405 -1.4279e+001 -1.9594e+001 -4.8224e-001 23024 109177,109307,109281
 1.0000e+000 109382 -1.0885e+001 -1.8326e+001 -3.6652e-002 23024 109203,109281,109229
 1.0000e+000 109359 -1.3488e+001 -1.8066e+001 -1.6177e+000 23024 109229,109281,109255
 1.0000e+000 109820 -8.2749e+000 -1.3466e+001  4.3831e-001 22506 109843,109601,109523
 1.0000e+000 109797 -8.9880e+000 -1.3013e+001  2.7230e-001 22506 109843,109523,109497
 1.0000e+000 109774 -9.2264e+000 -1.3951e+001  3.0778e-001 22506 109915,109653,109627
 1.0000e+000 109751 -9.0470e+000 -1.5062e+001 -6.1578e-001 22506 109497,109679,109653
 1.0000e+000 109728 -8.4198e+000 -1.3889e+001 -8.2922e-001 22506 109523,109601,109575
 1.0000e+000 109705 -7.1715e+000 -1.4835e+001 -2.5123e-001 22506 109523,109575,109549
 1.0000e+000 109869 -8.8220e+000 -1.3753e+001  3.0964e-001 22506 109627,109601,109843
 1.0000e+000 109892 -8.9693e+000 -1.3459e+001  4.4964e-001 22506 109915,109627,109843
 1.0000e+000 109941 -9.4162e+000 -1.3559e+001  1.7082e-002 22506 109497,109653,109915
 1.0000e+000 109964 -9.3744e+000 -1.3492e+001  1.0172e-001 22506 109497,109915,109843
 1.0000e+000 110163 -8.6268e+000 -1.1959e+001  4.1632e-001 21936 110186,110039,110013
 1.0000e+000 110140 -9.0691e+000 -1.2453e+001  1.6857e-001 21936 110390,110186,110013
 1.0000e+000 110117 -9.0317e+000 -1.4186e+001  5.6844e-001 21936 110390,110013,109987
 1.0000e+000 110212 -8.2250e+000 -1.1357e+001 -4.2527e-001 21936 110065,110039,110186
 1.0000e+000 110235 -8.6604e+000 -1.3462e+001  2.7985e-001 21936 110258,110186,110091
 1.0000e+000 110284 -8.3679e+000 -1.2586e+001  5.8345e-001 21936 110065,110186,110258
 1.0000e+000 110416 -9.2633e+000 -1.4377e+001  9.7580e-001 21936 110091,110186,110390
 1.0000e+000 110439 -8.9912e+000 -1.5952e+001  1.2590e+000 21936 110091,110390,109987
 1.0000e+000 110709 -9.6054e+000 -1.8514e+001  3.1177e-001 21338 110510,110614,110588
 1.0000e+000 110686 -1.1553e+001 -2.2080e+001 -7.0424e-001 21338 110484,110614,110510
 1.0000e+000 110663 -1.2184e+001 -2.1931e+001 -4.2989e-001 21338 110510,110562,110536
 1.0000e+000 110640 -1.0552e+001 -1.8203e+001 -4.6606e-001 21338 110510,110588,110562
 1.0000e+000 111296 -1.0895e+001 -1.7015e+001  1.9689e-001 20934 111025,111155,111103
 1.0000e+000 111273 -9.9480e+000 -1.9769e+001 -8.4520e-001 20934 110999,111155,111025
 1.0000e+000 111250 -6.6979e+000 -1.4966e+001 -8.7353e-001 20934 111103,111155,111129
 1.0000e+000 111227 -1.3262e+001 -2.1367e+001 -3.9358e-001 20934 111051,111103,111077
 1.0000e+000 111204 -1.2194e+001 -1.7785e+001 -3.5245e-001 20934 111025,111103,111051
 1.0000e+000 111181 -7.8946e+000 -1.5545e+001  4.8220e-002 20934 110973,111155,110999
 1.0000e+000 111930 -1.0984e+001 -9.9307e+000 -7.1467e+000 20494 111662,111714,111688
 1.0000e+000 111907 -1.4741e+000 -6.3324e+000 -5.0846e+000 20494 111584,111714,111662
 1.0000e+000 111884 -5.2541e+000 -1.1289e+001 -2.8531e+000 20494 111584,111766,111714
 1.0000e+000 111861 -8.0315e+000 -9.3885e+000 -2.4822e+000 20494 111584,111636,111610
 1.0000e+000 111838 -6.9030e+000 -9.7955e+000 -1.7930e+000 20494 111584,111662,111636
 1.0000e+000 111815 -7.2143e+000 -1.0704e+001 -7.6294e-001 20494 111558,111766,111584
 1.0000e+000 111792 -2.7531e+000 -5.6967e+000 -3.4209e+000 20494 111714,111766,111740
 1.0000e+000 112249 -1.0147e+001 -1.3090e+001 -8.5542e-001 19940 111975,112053,112001
 1.0000e+000 112226 -1.2394e+001 -1.3192e+001  2.4320e+000 19940 111975,112131,112053
 1.0000e+000 112203 -1.4070e+001 -1.1466e+001  0.0000e+000 19940 112053,112105,112079
 1.0000e+000 112180 -1.4466e+001 -1.3383e+001 -9.3425e-001 19940 112053,112131,112105
 1.0000e+000 112157 -7.4737e+000 -9.9726e+000 -3.1824e+000 19940 112001,112053,112027
 1.0000e+000 112757 -9.7970e+000 -1.6486e+001 -4.6803e-001 19486 112780,112538,112486
 1.0000e+000 112734 -1.0449e+001 -1.7956e+001 -1.6000e-001 19486 112780,112486,112460
 1.0000e+000 112711 -1.0428e+001 -1.6708e+001  6.0487e-001 19486 112852,112616,112590
 1.0000e+000 112688 -8.4233e+000 -1.7357e+001 -6.6458e-001 19486 112486,112538,112512
 1.0000e+000 112665 -1.1328e+001 -1.8590e+001  3.0720e-001 19486 112434,112616,112460
 1.0000e+000 112642 -1.2966e+001 -1.7892e+001  1.1466e+000 19486 112538,112590,112564
 1.0000e+000 112806 -1.0570e+001 -1.7063e+001  1.5288e-001 19486 112590,112538,112780
 1.0000e+000 112829 -1.0196e+001 -1.7017e+001  4.1663e-001 19486 112852,112590,112780
 1.0000e+000 112878 -1.0543e+001 -1.7172e+001  6.6262e-001 19486 112460,112616,112852
 1.0000e+000 112901 -1.0409e+001 -1.7611e+001  5.5466e-001 19486 112460,112852,112780
 1.0000e+000 113252 -1.1175e+001 -1.8016e+001 -3.2479e-001 19096 113105,113157,113131
 1.0000e+000 113229 -1.1460e+001 -1.5588e+001 -6.3510e-001 19096 113053,113157,113105
 1.0000e+000 113206 -1.0023e+001 -1.5159e+001 -6.7184e-001 19096 113027,113157,113053
 1.0000e+000 113183 -1.3820e+001 -1.8968e+001  5.0560e-001 19096 113053,113105,113079
 1.0000e+000 113451 -7.6814e+000 -1.0901e+001 -4.7563e-001 18642 113327,113379,113353
 1.0000e+000 113428 -7.8829e+000 -1.2370e+001  4.5520e-001 18642 113301,113379,113327
 1.0000e+000 113405 -1.0381e+001 -1.0944e+001  8.9457e-001 18642 113275,113379,113301
 1.0000e+000 113699 -8.9288e+000 -1.3543e+001 -4.4275e-001 18138 113474,113552,113526
 1.0000e+000 113676 -8.0559e+000 -1.4308e+001 -9.1479e-001 18138 113474,113578,113552
 1.0000e+000 113653 -7.9366e+000 -1.4909e+001 -9.2806e-001 18138 113474,113604,113578
 1.0000e+000 113630 -8.4153e+000 -1.2796e+001 -2.1617e-001 18138 113474,113526,113500
 1.0000e+000 113851 -9.0810e+000 -1.4693e+001 -2.8452e-001 17682 113750,113802,113776
 1.0000e+000 113828 -8.4939e+000 -1.4611e+001 -2.5235e-001 17682 113724,113802,113750
 1.0000e+000 114383 -6.9058e+000 -1.1007e+001  1.3527e+000 17106 114086,114242,114164
 1.0000e+000 114360 -8.2224e+000 -1.1185e+001  5.5547e+000 17106 114060,114242,114086
 1.0000e+000 114337 -1.1984e+001 -1.6002e+001  3.3856e+000 17106 114086,114164,114138
 1.0000e+000 114314 -6.7723e+000 -1.2081e+001  3.1843e+000 17106 114190,114242,114216
 1.0000e+000 114291 -5.0816e+000 -1.0388e+001  2.4799e+000 17106 114164,114242,114190
 1.0000e+000 114268 -1.7546e+001 -2.1504e+001  1.5025e-002 17106 114086,114138,114112
 1.0000e+000 114680 -1.0911e+001 -1.5589e+001  1.5476e+000 16766 114703,114432,114406
 1.0000e+000 114657 -1.0818e+001 -1.4099e+001  1.3068e+000 16766 114703,114406,114510
 1.0000e+000 114634 -9.9321e+000 -1.4524e+001  3.5841e-001 16766 114406,114536,114510
 1.0000e+000 114611 -1.0638e+001 -1.4203e+001 -2.5988e-001 16766 114432,114484,114458
 1.0000e+000 114588 -1.2717e+001 -1.5095e+001 -1.2202e+000 16766 114406,114562,114536
 1.0000e+000 114729 -1.0928e+001 -1.4387e+001  4.9677e-001 16766 114484,114432,114703
 1.0000e+000 114752 -1.1226e+001 -1.2899e+001  7.6281e-001 16766 114484,114703,114510
 1.0000e+000 114902 -9.0336e+000 -1.0505e+001  8.0688e-001 16362 114775,114827,114801
 1.0000e+000 114879  6.6376e+000 -7.4367e+000 -1.9551e+000 16362 114775,114853,114827
 1.0000e+000 115054 -1.0224e+001 -1.6386e+001  5.2739e+000 15908 114953,115005,114979
 1.0000e+000 115031 -7.8581e+000 -2.1965e+001  5.8053e+000 15908 114927,115005,114953
 1.0000e+000 115326 -1.0728e+001 -1.8723e+001  1.3101e+000 15251 115101,115179,115153
 1.0000e+000 115303 -1.0519e+001 -1.8265e+001  2.5932e-001 15251 115101,115231,115179
 1.0000e+000 115280 -1.0154e+001 -1.7407e+001  1.9076e-001 15251 115179,115231,115205
 1.0000e+000 115257 -1.1708e+001 -2.8620e+001  2.8781e+000 15251 115101,115153,115127
 1.0000e+000 115429 -1.0165e+001 -1.3998e+001  1.2433e+000 421 115351,115403,115377
 1.1000e+000 66230  6.5529e+000 -8.4015e+000 -1.9742e+000 65954 66152,66204,66178
 1.1000e+000 66429  2.3188e+000 -1.2814e+001 -1.4216e+000 65642 66279,66331,66305
 1.1000e+000 66406  1.0859e+000 -1.7003e+001 -1.8637e+000 65642 66279,66357,66331
 1.1000e+000 66383 -6.8054e+000 -1.3871e+001 -1.8109e+000 65642 66253,66357,66279
 1.1000e+000 66628  9.4285e-001 -1.5701e+001  8.3081e-001 65444 66452,66530,66478
 1.1000e+000 66605 -3.0785e-001 -1.5402e+001  8.8670e-001 65444 66452,66556,66530
 1.1000e+000 66582  3.8679e+000 -1.5082e+001 -1.0287e-002 65444 66478,66530,66504
 1.1000e+000 67006 -1.2245e+000 -8.9256e+000 -9.3742e-001 65246 66732,66810,66758
 1.1000e+000 66983 -1.0105e+000 -8.0495e+000 -6.9932e-001 65246 66732,66836,66810
 1.1000e+000 66960 -1.4101e+000 -8.4899e+000 -1.0974e+000 65246 66732,66862,66836
 1.1000e+000 66937 -2.2377e+000 -1.1477e+001 -6.8577e-001 65246 66758,66810,66784
 1.1000e+000 66914 -3.9830e-002 -9.2099e+000 -2.6096e+000 65246 66732,66888,66862
 1.1000e+000 67107  3.2888e+000 -3.9630e+000 -1.0513e+000 64934 67029,67081,67055
 1.1000e+000 67306  2.2562e+000 -1.1653e+001  2.3041e+000 64736 67156,67208,67182
 1.1000e+000 67283 -6.4372e-001 -1.0415e+001  2.4644e+000 64736 67130,67208,67156
 1.1000e+000 67260 -2.1104e+000 -1.5972e+001  2.0118e+000 64736 67130,67234,67208
 1.1000e+000 67507  3.8867e+000 -1.1110e+001 -6.7851e-001 64389 67357,67409,67383
 1.1000e+000 67484  1.6318e+000 -1.2438e+001 -1.6631e+000 64389 67357,67435,67409
 1.1000e+000 67461 -1.8378e-002 -1.2012e+001 -1.6410e+000 64389 67331,67435,67357
 1.1000e+000 67708  1.2663e+000 -1.0065e+001  3.7844e+000 63985 67731,67584,67558
 1.1000e+000 67685 -3.0577e-002 -5.3468e+000  2.9086e+000 63985 67731,67558,67636
 1.1000e+000 67662  2.3493e-001 -8.6453e+000 -9.8579e-001 63985 67532,67636,67558
 1.1000e+000 67757  7.7615e-001 -1.2574e+001  3.5920e+000 63985 67610,67584,67731
 1.1000e+000 67780 -1.4354e+000 -9.2235e+000  2.5291e+000 63985 67610,67731,67636
 1.1000e+000 67981  3.0529e+000 -1.0224e+001 -2.6861e-001 63787 67857,67909,67883
 1.1000e+000 67958 -2.3822e+000 -1.1086e+001  1.0470e-002 63787 67831,67909,67857
 1.1000e+000 67935 -3.2760e+000 -1.3537e+001 -1.6577e-001 63787 67805,67909,67831
 1.1000e+000 68231 -1.4488e+000 -7.8641e+000  2.9135e-001 63589 68254,68084,68032
 1.1000e+000 68208 -8.1409e-001 -8.1786e+000  5.7230e-001 63589 68254,68032,68006
 1.1000e+000 68185 -1.5684e+000 -8.5914e+000 -4.8540e-002 63589 68326,68136,68110
 1.1000e+000 68162 -2.0757e+000 -8.6782e+000  2.0063e+000 63589 68032,68084,68058
 1.1000e+000 68280 -2.2459e+000 -8.1281e+000  6.9537e-001 63589 68110,68084,68254
 1.1000e+000 68303 -1.5342e+000 -8.5525e+000  5.0417e-001 63589 68326,68110,68254
 1.1000e+000 68352 -1.0557e+000 -7.4287e+000 -1.3480e-001 63589 68006,68136,68326
 1.1000e+000 68375 -1.1710e+000 -7.7121e+000  4.4241e-001 63589 68006,68326,68254
 1.1000e+000 68836  3.2583e+000 -7.4131e+000  1.4505e+000 63128 68859,68588,68562
 1.1000e+000 68813 -1.9888e+000 -1.0150e+001  2.4537e+000 63128 68859,68562,68692
 1.1000e+000 68790 -2.1519e+000 -1.1401e+001 -1.9247e+000 63128 68614,68692,68666
 1.1000e+000 68767 -5.9764e+000 -9.8061e+000  1.9472e+000 63128 68562,68718,68692
 1.1000e+000 68744 -1.2922e-001 -6.4911e+000 -9.8738e-001 63128 68614,68666,68640
 1.1000e+000 68885  4.2114e+000 -5.6890e+000 -3.6916e+000 63128 68614,68588,68859
 1.1000e+000 68908 -6.4114e-001 -8.4109e+000 -2.6110e+000 63128 68614,68859,68692
 1.1000e+000 69237 -3.8905e-001 -6.4320e+000  4.0565e-002 62731 69064,69116,69090
 1.1000e+000 69214 -3.3787e-001 -6.5876e+000  2.6065e-002 62731 69064,69142,69116
 1.1000e+000 69191 -7.0128e-001 -1.1037e+001 -6.0801e-001 62731 69038,69142,69064
 1.1000e+000 69168  6.7077e-001 -9.1075e+000  2.2852e-003 62731 69012,69142,69038
 1.1000e+000 69539 -1.9631e+000 -1.0908e+001 -1.3412e-001 62433 69389,69467,69441
 1.1000e+000 69516 -1.3316e+000 -6.6236e+000 -1.1649e+000 62433 69363,69467,69389
 1.1000e+000 69493  2.8780e+000 -8.2171e-001  1.3023e+000 62433 69389,69441,69415
 1.1000e+000 69966  2.9503e+000 -1.1626e+001  6.2127e-001 62235 69989,69773,69721
 1.1000e+000 69943 -4.3026e+000 -1.4106e+001  4.5602e-001 62235 70061,69989,69721
 1.1000e+000 69920 -5.8701e+000 -1.7022e+001 -1.6563e-001 62235 70061,69721,69643
 1.1000e+000 69897  8.4698e-001 -1.1057e+001  8.0877e-001 62235 69721,69773,69747
 1.1000e+000 69874 -7.4373e+000 -2.3159e+001 -1.3912e+000 62235 69643,69721,69695
 1.1000e+000 69851 -4.9735e+000 -2.7431e+001  2.7091e+000 62235 69643,69695,69669
 1.1000e+000 70015  6.0272e+000 -1.2189e+001 -5.6847e+000 62235 69799,69773,69989
 1.1000e+000 70038 -3.4480e+000 -1.5586e+001 -3.6973e+000 62235 69799,69989,69825
 1.1000e+000 70087 -2.4029e+000 -1.7866e+001  8.9369e-001 62235 69825,69989,70061
 1.1000e+000 70110 -3.4473e+000 -1.9742e+001  3.0939e-001 62235 69825,70061,69643
 1.1000e+000 70260 -3.8188e-001 -7.6440e+000  2.8492e+000 62037 70133,70185,70159
 1.1000e+000 70237 -1.0388e+000 -1.4509e+001  3.4442e+000 62037 70133,70211,70185
 1.1000e+000 70640 -2.7797e-001 -6.3873e+000  3.9698e+000 61583 70735,70663,70418
 1.1000e+000 70617 -3.2135e+000 -1.1270e+001  3.6437e+000 61583 70663,70366,70522
 1.1000e+000 70594  3.2796e-001 -4.2800e+000  3.5812e+000 61583 70735,70418,70392
 1.1000e+000 70571 -1.4604e-001 -6.1250e+000  5.7996e+000 61583 70418,70496,70444
 1.1000e+000 70548 -3.8685e+000 -2.7086e+000  5.3113e+000 61583 70444,70496,70470
 1.1000e+000 70689 -3.2562e+000 -7.1157e+000  2.9888e+000 61583 70496,70418,70663
 1.1000e+000 70712 -5.3820e+000 -5.4020e+000  3.6308e+000 61583 70496,70663,70522
 1.1000e+000 70761  6.1462e-002 -5.4384e+000  1.2776e+000 61583 70366,70663,70735
 1.1000e+000 70784  2.0900e-001 -3.5673e+000  1.0596e+000 61583 70366,70735,70392
 1.1000e+000 71054 -1.1752e-001 -9.1757e+000  1.8721e+000 61313 71077,70881,70855
 1.1000e+000 71031  1.2325e+000 -5.7941e+000  1.9585e+000 61313 71077,70855,70829
 1.1000e+000 71008 -2.1326e+000 -4.2040e+000  8.3891e-001 61313 70829,70959,70933
 1.1000e+000 70985  1.4749e+000 -4.7095e+000 -9.0149e-001 61313 70881,70933,70907
 1.1000e+000 71103 -4.3246e-001 -7.3361e+000 -2.3693e-002 61313 70933,70881,71077
 1.1000e+000 71126  1.9420e-001 -5.3591e+000 -2.0876e-002 61313 70933,71077,70829
 1.1000e+000 71604 -1.2915e+000 -6.2981e+000 -4.0575e-001 60909 71627,71232,71414
 1.1000e+000 71581 -2.6365e+000 -9.0965e+000  2.1106e+000 60909 71232,71440,71414
 1.1000e+000 71558 -1.7535e+000 -6.5555e+000 -5.8452e-001 60909 71627,71414,71336
 1.1000e+000 71535 -1.5722e-001 -8.3408e+000 -3.3299e-001 60909 71362,71414,71388
 1.1000e+000 71512 -2.1405e+000 -7.8757e+000 -9.0357e-001 60909 71336,71414,71362
 1.1000e+000 71489 -1.1976e+000 -6.8710e+000 -3.6042e-001 60909 71258,71336,71310
 1.1000e+000 71466 -1.7790e+000 -7.2573e+000 -1.8644e-001 60909 71258,71310,71284
 1.1000e+000 71653 -1.0867e+000 -6.6508e+000 -5.9360e-001 60909 71258,71232,71627
 1.1000e+000 71676 -1.4399e+000 -6.7798e+000 -6.6803e-001 60909 71258,71627,71336
 1.1000e+000 71875 -2.1955e+000 -1.2326e+001  4.9011e-001 60611 71898,71725,71699
 1.1000e+000 71852 -3.8767e+000 -1.1068e+001  1.6674e+000 60611 71898,71699,71803
 1.1000e+000 71829 -3.7896e+000 -1.2650e+001  2.5582e+000 60611 71970,71751,71725
 1.1000e+000 71924 -3.5113e+000 -1.1416e+001  1.6930e+000 60611 71970,71725,71898
 1.1000e+000 71947 -7.7107e-001 -2.5773e+000  1.1646e+000 60611 71777,71898,71803
 1.1000e+000 71996 -2.7673e+000 -1.1031e+001  1.9955e+000 60611 71777,71751,71970
 1.1000e+000 72019 -2.2790e+000 -1.0190e+001  1.0660e+000 60611 71777,71970,71898
 1.1000e+000 72576 -7.5003e+000 -2.0463e+001  2.9484e+000 60142 72599,72256,72230
 1.1000e+000 72553 -4.6884e+000 -1.4905e+001  1.9889e+000 60142 72671,72599,72230
 1.1000e+000 72530 -5.4227e+000 -1.3077e+001  6.0004e-001 60142 72671,72230,72204
 1.1000e+000 72507 -6.6227e+000 -1.5073e+001  1.0412e+000 60142 72743,72360,72334
 1.1000e+000 72484 -1.1283e+001 -1.5715e+001  4.4415e+000 60142 72815,72282,72256
 1.1000e+000 72461  4.8545e-001 -1.4809e+001 -6.5679e-002 60142 72887,72308,72282
 1.1000e+000 72438 -5.6486e+000 -1.7920e+001  3.4170e-001 60142 72204,72412,72386
 1.1000e+000 72625 -8.1990e+000 -1.7620e+001  2.2767e-001 60142 72815,72256,72599
 1.1000e+000 72648 -6.1551e+000 -1.5837e+001  9.1438e-001 60142 72743,72334,72599
 1.1000e+000 72697 -5.4074e+000 -1.7132e+001  1.6719e+000 60142 72386,72599,72671
 1.1000e+000 72720 -6.3842e+000 -1.5507e+001  7.1206e-001 60142 72386,72671,72204
 1.1000e+000 72769 -5.8049e+000 -1.5763e+001  2.4528e+000 60142 72386,72360,72743
 1.1000e+000 72792 -5.8021e+000 -1.7307e+001  1.6176e+000 60142 72386,72743,72599
 1.1000e+000 72841 -5.5744e+000 -1.7085e+001  3.0415e+000 60142 72887,72282,72815
 1.1000e+000 72864 -5.2351e+000 -1.4257e+001  1.6811e+000 60142 72334,72815,72599
 1.1000e+000 72913 -6.8065e+000 -9.7103e+000 -2.1081e+000 60142 72334,72308,72887
 1.1000e+000 72936 -8.1434e+000 -1.0166e+001  1.0754e-001 60142 72334,72887,72815
 1.1000e+000 73491 -1.4263e+000 -8.7501e+000 -2.5131e+000 59738 73145,73327,73171
 1.1000e+000 73468 -9.1153e-001 -6.8319e+000 -2.1822e+000 59738 73119,73327,73145
 1.1000e+000 73445 -1.5780e+000 -4.4937e+000 -2.7161e-001 59738 73171,73327,73301
 1.1000e+000 73422 -1.2319e+000 -6.4595e+000  1.5850e-002 59738 73514,73275,73249
 1.1000e+000 73399 -1.9447e+000 -6.5452e+000  1.3121e-001 59738 73586,73514,73249
 1.1000e+000 73376 -2.4309e+000 -5.8775e+000  9.2397e-001 59738 73197,73249,73223
 1.1000e+000 73353 -1.5285e+000 -6.5725e+000  6.5940e-001 59738 73586,73249,73197
 1.1000e+000 73540 -1.6586e+000 -7.5099e+000 -3.9935e-001 59738 73301,73275,73514
 1.1000e+000 73563 -1.5544e+000 -6.1223e+000 -1.4089e-001 59738 73301,73514,73171
 1.1000e+000 73612 -1.4348e+000 -5.6216e+000  4.0679e-001 59738 73171,73514,73586
 1.1000e+000 73635 -1.2632e+000 -5.9057e+000  8.8062e-001 59738 73171,73586,73197
 1.1000e+000 73964 -9.0126e+000 -1.0946e+001  2.2013e+000 59334 73791,73843,73817
 1.1000e+000 73941 -1.5995e+000 -9.5704e+000  2.6287e+000 59334 73791,73869,73843
 1.1000e+000 73918 -4.4516e+000 -1.5278e+001 -1.9581e-001 59334 73739,73869,73791
 1.1000e+000 73895  4.7581e+000 -1.8984e+001 -5.8273e-001 59334 73739,73791,73765
 1.1000e+000 74261  1.8678e+000 -1.2206e+001  3.6073e+000 58630 74065,74117,74091
 1.1000e+000 74238 -3.7023e-001 -6.7364e+000  4.5025e+000 58630 74356,74284,74065
 1.1000e+000 74215 -8.3912e-001 -6.0901e-001  3.4903e+000 58630 74284,74013,73987
 1.1000e+000 74192 -5.4175e-002 -6.1431e+000  4.7436e+000 58630 74356,74065,74039
 1.1000e+000 74169 -1.9371e+000 -7.7857e+000  2.5920e+000 58630 73987,74143,74117
 1.1000e+000 74310  2.1352e-001 -1.1559e+001  4.8805e+000 58630 74117,74065,74284
 1.1000e+000 74333 -9.2222e-001 -5.5322e+000  2.8428e+000 58630 74117,74284,73987
 1.1000e+000 74382 -5.2122e-001 -7.5165e+000  3.6033e+000 58630 74013,74284,74356
 1.1000e+000 74405 -1.7307e-001 -6.8160e+000  3.8401e+000 58630 74013,74356,74039
 1.1000e+000 74815 -1.5341e+000 -9.3653e+000 -6.1885e-001 58226 74590,74642,74616
 1.1000e+000 74792 -4.8525e+000 -8.4922e+000  1.9810e+000 58226 74590,74694,74642
 1.1000e+000 74769 -7.4447e+000 -7.3865e+000  1.3913e+000 58226 74590,74720,74694
 1.1000e+000 74746 -8.8568e+000 -8.4143e+000  4.5983e-001 58226 74642,74694,74668
 1.1000e+000 75014 -1.2354e+000 -6.8693e+000  9.4581e-001 57786 75037,74864,74838
 1.1000e+000 74991 -1.4949e+000 -4.6943e+000  1.7714e+000 57786 75037,74838,74916
 1.1000e+000 74968 -1.1700e+000 -3.3914e+000 -2.7154e-001 57786 74838,74942,74916
 1.1000e+000 75063 -1.8582e+000 -9.0216e+000  2.6217e-001 57786 74890,74864,75037
 1.1000e+000 75086 -1.7987e+000 -6.5135e+000  1.1636e+000 57786 74890,75037,74916
 1.1000e+000 75368 -3.3155e+000 -5.9265e+000 -8.7874e-001 57496 75192,75270,75218
 1.1000e+000 75345  6.9810e-001 -3.7936e+000  4.5832e-002 57496 75192,75296,75270
 1.1000e+000 75322 -3.2354e+000 -7.9267e+000 -4.2028e-001 57496 75218,75270,75244
 1.1000e+000 75648 -2.1677e+000 -5.6156e+000  1.0642e-001 57206 75472,75550,75498
 1.1000e+000 75625 -2.6472e+000 -4.3097e+000  5.9153e-001 57206 75472,75576,75550
 1.1000e+000 75602 -1.2876e+000 -5.3176e+000  9.9850e-001 57206 75671,75550,75524
 1.1000e+000 75697 -3.3772e+000 -6.1545e+000  4.4908e-001 57206 75498,75550,75671
 1.1000e+000 76154 -5.2786e+000 -1.5103e+001  5.7020e-001 56802 75958,76010,75984
 1.1000e+000 76131 -3.0339e+000 -1.2724e+001 -5.5077e-001 56802 75932,76010,75958
 1.1000e+000 76108 -3.7956e+000 -1.6176e+001  2.4035e-001 56802 75906,76010,75932
 1.1000e+000 76085 -2.2156e+000 -1.1528e+001  1.1345e+000 56802 75880,76010,75906
 1.1000e+000 76062  2.1352e+000 -8.7699e+000  3.8511e+000 56802 75880,76036,76010
 1.1000e+000 76505 -5.0217e+000 -2.0175e+001 -1.5875e+000 56504 76306,76384,76332
 1.1000e+000 76482 -1.1219e+001 -1.7824e+001 -2.4060e+000 56504 76306,76410,76384
 1.1000e+000 76459 -4.4214e+000 -1.1600e+001  6.2524e+000 56504 76332,76384,76358
 1.1000e+000 76436 -6.3067e-001 -1.0706e+001  1.0790e+000 56504 76280,76410,76306
 1.1000e+000 77011 -3.4882e+000 -5.9834e+000 -1.1886e-001 56050 76740,76818,76792
 1.1000e+000 76988 -2.6846e+000 -5.6463e+000 -1.1686e-001 56050 76714,76818,76740
 1.1000e+000 76965 -3.7686e+000 -4.8190e+000 -2.4330e-002 56050 76688,76818,76714
 1.1000e+000 76942 -3.7155e+000 -6.6945e+000  8.4894e-001 56050 76688,76844,76818
 1.1000e+000 76919 -4.4624e+000 -8.5162e+000  5.1466e-001 56050 76740,76792,76766
 1.1000e+000 76896 -2.6533e+000 -6.0318e+000 -7.9799e-002 56050 76688,76870,76844
 1.1000e+000 77517 -3.2960e+000 -5.8741e+000  2.6776e-001 55738 77220,77350,77324
 1.1000e+000 77494 -1.9542e+000 -5.5614e+000  1.9415e-001 55738 77220,77376,77350
 1.1000e+000 77471 -2.2430e+000 -3.7214e+000 -6.6594e-001 55738 77194,77376,77220
 1.1000e+000 77448 -2.4456e+000 -7.1698e+000  1.3143e+000 55738 77220,77298,77246
 1.1000e+000 77425 -7.1946e-001 -5.1608e+000  3.5854e-001 55738 77220,77324,77298
 1.1000e+000 77402  2.3289e-001 -5.8565e+000  2.9917e+000 55738 77246,77298,77272
 1.1000e+000 78064 -6.1502e+000 -2.2544e+001  4.8826e-001 55227 78231,78087,77773
 1.1000e+000 78041 -6.0811e+000 -2.5580e+001 -1.2667e+000 55227 78087,77695,77643
 1.1000e+000 78018 -8.4976e+000 -2.8484e+001  1.2048e+000 55227 78159,77799,77773
 1.1000e+000 77995 -6.2419e+000 -2.0742e+001  5.9004e-001 55227 78231,77773,77721
 1.1000e+000 77972 -8.0530e+000 -1.5467e+001  1.3840e+000 55227 77643,77695,77669
 1.1000e+000 77949 -6.4913e+000 -2.5592e+001  5.8447e-001 55227 77643,77877,77851
 1.1000e+000 77926 -8.6030e+000 -2.5171e+001  2.5245e+000 55227 77799,77851,77825
 1.1000e+000 77903 -5.5266e+000 -1.7797e+001 -1.1953e+000 55227 77721,77773,77747
 1.1000e+000 78113 -7.9890e+000 -2.7077e+001  1.4191e+000 55227 78159,77773,78087
 1.1000e+000 78136 -5.6152e+000 -2.4574e+001  1.3731e-001 55227 77851,78087,77643
 1.1000e+000 78185 -9.7003e+000 -2.5971e+001  4.4729e-001 55227 77851,77799,78159
 1.1000e+000 78208 -9.4250e+000 -2.4900e+001  5.9550e-001 55227 77851,78159,78087
 1.1000e+000 78257 -5.1950e+000 -2.5820e+001 -5.6245e-001 55227 77695,78087,78231
 1.1000e+000 78280 -4.9710e+000 -2.3443e+001 -7.7548e-001 55227 77695,78231,77721
 1.1000e+000 78737 -6.6844e+000 -1.4985e+001  1.0026e+000 54773 78463,78541,78515
 1.1000e+000 78714 -7.2637e+000 -1.2791e+001  3.8702e-001 54773 78463,78619,78541
 1.1000e+000 78691 -4.6347e+000 -1.0394e+001  4.0180e-001 54773 78463,78515,78489
 1.1000e+000 78668 -1.0088e+001 -1.5443e+001  6.6298e-001 54773 78541,78593,78567
 1.1000e+000 78645 -8.4786e+000 -1.5487e+001  6.3988e-001 54773 78541,78619,78593
 1.1000e+000 78838 -5.3882e+000 -2.9424e+001 -3.3434e+000 54211 78760,78812,78786
 1.1000e+000 79297 -6.4493e+000 -1.8215e+001  1.7513e+000 53814 79520,79153,79049
 1.1000e+000 79274 -5.6694e+000 -1.7760e+001  1.5423e+000 53814 79520,79049,79023
 1.1000e+000 79251 -8.0224e+000 -1.9501e+001  3.7842e+000 53814 79320,79101,79049
 1.1000e+000 79228 -6.4500e+000 -1.5559e+001  1.4121e+000 53814 79320,79049,79153
 1.1000e+000 79205 -3.2813e+000 -2.8884e+001  2.6663e+000 53814 79049,79101,79075
 1.1000e+000 79346 -6.3738e+000 -1.4838e+001  4.2524e-001 53814 79392,79320,79127
 1.1000e+000 79369 -2.7791e+000 -1.3818e+001 -1.4161e+000 53814 79127,79320,79153
 1.1000e+000 79418 -6.8415e+000 -1.8806e+001 -3.4032e-001 53814 79101,79320,79392
 1.1000e+000 79546 -7.0616e+000 -1.9286e+001  3.1433e+000 53814 79179,79153,79520
 1.1000e+000 79569 -4.2642e+000 -1.7903e+001  2.6896e+000 53814 79179,79520,79023
 1.1000e+000 80075  1.0127e+000 -4.2900e+000  3.8933e+000 53039 80098,79908,79830
 1.1000e+000 80052  2.0405e+000 -2.6883e+000  4.9927e+000 53039 80098,79830,79804
 1.1000e+000 80029  2.7833e-001 -2.0156e+000  3.6318e+000 53039 79752,79934,79804
 1.1000e+000 80006 -4.3855e+000 -8.3507e+000  2.8322e+000 53039 79856,79908,79882
 1.1000e+000 79983 -1.8331e+000 -1.0671e+001  2.2647e+000 53039 79830,79908,79856
 1.1000e+000 79960 -8.1479e-001  1.4310e-001  1.5350e+000 53039 79752,79804,79778
 1.1000e+000 80124 -7.8128e-001 -6.3591e+000  1.7891e+000 53039 79934,79908,80098
 1.1000e+000 80147  1.4554e+000 -3.6364e+000  3.1124e+000 53039 79934,80098,79804
 1.1000e+000 80555 -6.6920e+000 -1.0756e+001  2.2994e+000 52699 80356,80434,80408
 1.1000e+000 80532 -1.7760e+000 -1.1595e+001  1.4860e+000 52699 80356,80460,80434
 1.1000e+000 80509  1.8073e+000 -1.3555e+001 -1.1160e+000 52699 80330,80460,80356
 1.1000e+000 80486 -7.7528e+000 -1.1760e+001  3.1428e+000 52699 80356,80408,80382
 1.1000e+000 80776 -3.9718e+000 -6.5797e+000 -1.1588e-001 52295 80600,80678,80626
 1.1000e+000 80753 -1.6037e+000 -4.9654e+000 -8.2411e-001 52295 80600,80704,80678
 1.1000e+000 80730 -3.4299e+000 -6.4154e+000 -4.0832e-001 52295 80626,80678,80652
 1.1000e+000 81156 -9.0285e+000 -1.4857e+001  1.8775e+000 51891 81179,80960,80908
 1.1000e+000 81133 -1.0103e+001 -1.7293e+001  2.1832e+000 51891 81179,80908,81012
 1.1000e+000 81110 -1.0990e+001 -1.5623e+001  1.3668e+000 51891 80882,81012,80908
 1.1000e+000 81087 -7.9851e+000 -1.3376e+001  2.3793e+000 51891 80908,80960,80934
 1.1000e+000 81064 -1.1458e+001 -1.5168e+001  2.7243e+000 51891 80882,81038,81012
 1.1000e+000 81205 -9.3576e+000 -1.4112e+001  3.8870e+000 51891 80986,80960,81179
 1.1000e+000 81228 -1.0458e+001 -1.7049e+001  4.0303e+000 51891 80986,81179,81012
 1.1000e+000 81606 -1.0314e+001 -2.2075e+001  8.6316e-001 51544 81410,81462,81436
 1.1000e+000 81583 -6.5502e+000 -1.6522e+001 -1.8237e+000 51544 81384,81462,81410
 1.1000e+000 81560 -6.0563e+000 -1.2529e+001 -1.2131e+000 51544 81358,81462,81384
 1.1000e+000 81537 -4.5494e+000 -1.1260e+001 -2.5073e+000 51544 81358,81488,81462
 1.1000e+000 81514 -2.5364e+000 -5.2119e+000 -1.7615e+000 51544 81332,81488,81358
 1.1000e+000 81854 -7.4667e+000 -1.4955e+001  2.1720e+000 51004 81877,81655,81629
 1.1000e+000 81831 -7.0714e+000 -1.4389e+001  1.9790e+000 51004 81877,81629,81759
 1.1000e+000 81808 -4.5677e+000 -1.6594e+001  9.5291e-001 51004 81655,81707,81681
 1.1000e+000 81785 -7.6990e+000 -1.8161e+001  2.2893e+000 51004 81707,81759,81733
 1.1000e+000 81903 -7.0408e+000 -1.5473e+001  2.3671e+000 51004 81707,81655,81877
 1.1000e+000 81926 -6.7109e+000 -1.5122e+001  2.1654e+000 51004 81707,81877,81759
 1.1000e+000 82257 -3.7410e+000 -7.6643e+000  1.9688e-001 50642 82058,82136,82110
 1.1000e+000 82234 -3.5172e+000 -5.9486e+000 -3.3339e-001 50642 82058,82162,82136
 1.1000e+000 82211 -4.0548e+000 -8.2999e+000  3.5484e-001 50642 82058,82110,82084
 1.1000e+000 82188 -2.4857e+000 -5.5098e+000 -2.9855e-001 50642 82032,82162,82058
 1.1000e+000 82684 -3.9906e+000 -9.0967e+000  4.7437e-001 49931 82779,82707,82465
 1.1000e+000 82661 -3.1766e+000 -8.5199e+000  1.9044e-001 49931 82707,82413,82361
 1.1000e+000 82638 -4.9716e+000 -9.3894e+000  1.7427e-001 49931 82779,82465,82439
 1.1000e+000 82615 -5.2582e+000 -9.6879e+000  1.7730e+000 49931 82465,82543,82491
 1.1000e+000 82592 -2.1050e+000 -8.9056e+000  1.8347e+000 49931 82361,82413,82387
 1.1000e+000 82569 -3.6113e+000 -6.9402e+000  1.0274e+000 49931 82491,82543,82517
 1.1000e+000 82733 -4.6342e+000 -8.1637e+000  3.7969e-001 49931 82543,82465,82707
 1.1000e+000 82756 -4.1053e+000 -6.7056e+000  7.4165e-001 49931 82543,82707,82361
 1.1000e+000 82805 -4.3329e+000 -9.6084e+000 -3.4884e-001 49931 82413,82707,82779
 1.1000e+000 82828 -4.8426e+000 -9.6586e+000 -6.3853e-001 49931 82413,82779,82439
 1.1000e+000 83255 -7.6427e+000 -1.7327e+001 -1.1713e+000 49327 82984,83114,83036
 1.1000e+000 83232 -1.0095e+001 -2.3041e+001 -1.2701e+000 49327 82958,83114,82984
 1.1000e+000 83209 -4.8870e+000 -2.6627e+001  1.7924e+000 49327 83036,83114,83088
 1.1000e+000 83186 -2.5184e+000 -1.6524e+001 -1.3185e+000 49327 82984,83036,83010
 1.1000e+000 83163 -1.1648e+001 -2.4299e+001 -1.8336e+000 49327 82932,83114,82958
 1.1000e+000 83140 -2.3186e+000 -2.0290e+001  1.1417e+000 49327 83036,83088,83062
 1.1000e+000 83938 -6.8709e+000 -1.9902e+001 -7.0909e-001 48965 83961,83673,83647
 1.1000e+000 83915 -7.1919e+000 -1.9945e+001 -4.1204e-001 48965 83961,83647,83543
 1.1000e+000 83892 -9.7744e+000 -2.0656e+001 -1.3342e+000 48965 83517,83725,83543
 1.1000e+000 83869 -2.3894e+000 -2.0832e+001 -2.6335e+000 48965 83673,83725,83699
 1.1000e+000 83846 -1.8732e+000 -1.5493e+001 -2.9392e+000 48965 83543,83647,83621
 1.1000e+000 83823 -7.1352e+000 -1.5031e+001 -6.5297e-001 48965 83543,83621,83569
 1.1000e+000 83800 -4.7128e+000 -1.9033e+001 -3.2000e+000 48965 83517,83751,83725
 1.1000e+000 83777  2.6682e+000 -1.1857e+001 -2.6988e+000 48965 83569,83621,83595
 1.1000e+000 83987 -7.3771e+000 -2.0109e+001 -7.3986e-001 48965 83725,83673,83961
 1.1000e+000 84010 -7.3579e+000 -2.0039e+001 -4.5477e-001 48965 83725,83961,83543
 1.1000e+000 84258 -8.9612e+000 -1.6275e+001  4.0670e+000 48447 84281,84059,84033
 1.1000e+000 84235 -9.6203e+000 -1.7375e+001  2.2033e+000 48447 84281,84033,84163
 1.1000e+000 84212 -1.0909e+001 -1.3102e+001  3.5387e+000 48447 84059,84111,84085
 1.1000e+000 84189 -8.8324e+000 -1.5856e+001  1.9947e+000 48447 84111,84163,84137
 1.1000e+000 84307 -8.0206e+000 -1.5865e+001  4.3617e+000 48447 84111,84059,84281
 1.1000e+000 84330 -7.2939e+000 -1.6195e+001  2.6637e+000 48447 84111,84281,84163
 1.1000e+000 84529 -8.3324e+000 -1.4234e+001  8.7888e-001 47993 84552,84405,84379
 1.1000e+000 84506 -8.2812e+000 -1.3866e+001  1.3190e+000 47993 84552,84379,84353
 1.1000e+000 84483 -7.0769e+000 -1.2299e+001 -9.4566e-001 47993 84624,84457,84431
 1.1000e+000 84578 -1.0179e+001 -1.5234e+001  2.5302e+000 47993 84431,84405,84552
 1.1000e+000 84601 -8.4201e+000 -1.5362e+001  7.7378e-001 47993 84624,84431,84552
 1.1000e+000 84650 -8.0143e+000 -1.0129e+001 -1.9358e+000 47993 84353,84457,84624
 1.1000e+000 84673 -7.9092e+000 -1.0202e+001  8.6574e-002 47993 84353,84624,84552
 1.1000e+000 85104 -3.5016e+000 -1.1204e+001  1.8636e+000 47588 85199,85127,84885
 1.1000e+000 85081 -3.4247e+000 -1.0572e+001  7.8481e-001 47588 85127,84781,84963
 1.1000e+000 85058 -1.0845e+000 -1.0832e+001 -6.8918e-001 47588 85199,84885,84807
 1.1000e+000 85035 -8.2168e+000 -1.5775e+001  1.6755e+000 47588 84885,84937,84911
 1.1000e+000 85012 -3.3107e+000 -1.4298e+001  5.5591e-001 47588 84807,84885,84833
 1.1000e+000 84989 -3.0787e+000 -1.4230e+001 -9.4626e-001 47588 84833,84885,84859
 1.1000e+000 85153 -3.8197e+000 -1.3779e+001  2.3055e+000 47588 84937,84885,85127
 1.1000e+000 85176 -4.6010e+000 -1.1223e+001  3.8102e-001 47588 84937,85127,84963
 1.1000e+000 85225  6.7832e-001 -1.0411e+001  3.1979e-001 47588 84781,85127,85199
 1.1000e+000 85248  2.7360e+000 -9.1322e+000 -2.6007e+000 47588 84781,85199,84807
 1.1000e+000 85518 -3.5705e+000 -8.2351e+000  2.3591e-001 47226 85293,85397,85319
 1.1000e+000 85495 -3.3983e+000 -7.2752e+000 -6.6529e-001 47226 85293,85423,85397
 1.1000e+000 85472 -4.5517e+000 -8.9627e+000 -5.1588e-001 47226 85319,85397,85345
 1.1000e+000 85449 -3.9825e+000 -1.0005e+001  2.5522e-002 47226 85345,85397,85371
 1.1000e+000 85849 -3.1812e+000 -1.1370e+001 -2.3326e+000 46572 85624,85702,85650
 1.1000e+000 85826 -5.9348e+000 -1.1538e+001  1.8978e+000 46572 85624,85754,85702
 1.1000e+000 85803 -1.0825e+001 -1.6264e+001 -2.5582e-002 46572 85702,85754,85728
 1.1000e+000 85780 -5.1129e+000 -1.3209e+001  6.5993e-001 46572 85650,85702,85676
 1.1000e+000 86070 -1.2018e+001 -3.1941e+001 -1.6384e+000 46374 85920,85972,85946
 1.1000e+000 86047 -1.1832e+001 -3.1171e+001  1.8597e-001 46374 85920,85998,85972
 1.1000e+000 86024 -6.9780e+000 -2.9094e+001  3.3783e+000 46374 85894,85998,85920
 1.1000e+000 86401 -1.2232e+001 -1.5215e+001  3.7236e+000 46034 86424,86280,86228
 1.1000e+000 86378 -1.4143e+001 -1.8097e+001  2.6595e+000 46034 86424,86228,86176
 1.1000e+000 86355 -1.6465e+001 -2.3433e+001  2.3415e+000 46034 86176,86228,86202
 1.1000e+000 86332 -4.1532e+000 -1.1775e+001  2.4039e+000 46034 86228,86280,86254
 1.1000e+000 86450 -7.1804e+000 -1.8798e+001  3.0835e+000 46034 86306,86280,86424
 1.1000e+000 86473 -1.1560e+001 -2.3009e+001  1.1025e+000 46034 86306,86424,86176
 1.1000e+000 87058 -7.1281e+000 -2.1162e+001  5.8750e-001 45516 86813,86917,86865
 1.1000e+000 87035 -1.0615e+001 -3.0022e+001  1.7185e-001 45516 86787,86917,86813
 1.1000e+000 87012 -9.2223e+000 -3.5260e+001  1.5750e+000 45516 86735,86917,86787
 1.1000e+000 86989 -3.1282e+000 -2.3251e+001  1.4157e+000 45516 86865,86917,86891
 1.1000e+000 86966 -4.2704e+000 -2.2448e+001  1.1151e+000 45516 86813,86865,86839
 1.1000e+000 86943 -6.4928e+000 -3.9506e+001 -2.9911e+000 45516 86735,86787,86761
 1.1000e+000 87208 -1.5226e+001 -2.5453e+001  5.9313e+000 45226 87231,87133,87107
 1.1000e+000 87185 -4.8124e+000 -1.3971e+001  1.4351e+000 45226 87081,87159,87133
 1.1000e+000 87257 -7.8924e+000 -2.0136e+001  2.9280e+000 45226 87081,87133,87231
 1.1000e+000 87537 -1.0598e+001 -1.7881e+001 -7.8863e-001 44772 87387,87439,87413
 1.1000e+000 87514 -1.0045e+001 -2.0745e+001  4.8063e+000 44772 87361,87439,87387
 1.1000e+000 87491 -1.6142e+000 -2.4162e+001  3.4216e+000 44772 87361,87465,87439
 1.1000e+000 87996 -6.6731e+000 -8.5089e+000  3.4655e-001 44425 87748,87878,87852
 1.1000e+000 87973 -2.8941e+000 -6.8397e+000 -5.9897e-001 44425 87722,87878,87748
 1.1000e+000 87950 -4.8679e+000 -1.1334e+001 -1.3687e+000 44425 87800,87852,87826
 1.1000e+000 87927 -4.8107e+000 -9.6487e+000  4.4727e-001 44425 87748,87852,87800
 1.1000e+000 87904 -3.9543e+000 -9.1094e+000  1.0060e+000 44425 87748,87800,87774
 1.1000e+000 88423 -8.0017e+000 -1.3448e+001  1.3426e+000 44078 88590,88230,88204
 1.1000e+000 88400 -7.6180e+000 -1.1861e+001  1.5973e+000 44078 88518,88446,88204
 1.1000e+000 88377 -7.5598e+000 -1.4197e+001  7.5330e-001 44078 88446,88126,88282
 1.1000e+000 88354 -8.0943e+000 -1.0821e+001  1.0018e+000 44078 88518,88204,88178
 1.1000e+000 88331 -6.1730e+000 -1.7777e+001  1.7771e+000 44078 88100,88282,88126
 1.1000e+000 88308 -9.4068e+000 -1.4326e+001  6.8256e+000 44078 88126,88178,88152
 1.1000e+000 88472 -8.1215e+000 -1.3800e+001  1.5721e+000 44078 88590,88204,88446
 1.1000e+000 88495 -7.9549e+000 -1.5829e+001  4.1939e-001 44078 88256,88446,88282
 1.1000e+000 88544 -7.7715e+000 -1.4229e+001  1.6032e+000 44078 88126,88446,88518
 1.1000e+000 88567 -7.5827e+000 -1.2250e+001  1.1027e+000 44078 88126,88518,88178
 1.1000e+000 88616 -1.1616e+001 -1.8349e+001 -2.2469e-001 44078 88256,88230,88590
 1.1000e+000 88639 -8.3992e+000 -1.3819e+001  1.2515e+000 44078 88256,88590,88446
 1.1000e+000 89039 -3.4655e+000 -8.1863e+000 -6.9151e-001 43716 88791,88921,88895
 1.1000e+000 89016 -6.3664e-001 -6.4132e+000  2.2018e-001 43716 88765,88921,88791
 1.1000e+000 88993 -4.6516e+000 -1.0039e+001 -4.4863e-001 43716 88817,88895,88869
 1.1000e+000 88970 -5.1005e+000 -9.3757e+000  1.5754e-002 43716 88791,88895,88817
 1.1000e+000 88947 -5.4776e+000 -1.1031e+001  2.5410e-001 43716 88817,88869,88843
 1.1000e+000 89496 -9.0005e+000 -3.1414e+001 -1.9166e+000 43162 89519,89274,89248
 1.1000e+000 89473 -8.6552e+000 -2.6194e+001 -9.8867e-001 43162 89519,89248,89222
 1.1000e+000 89450 -9.1866e+000 -2.7290e+001 -1.6388e+000 43162 89326,89378,89352
 1.1000e+000 89427 -9.6700e+000 -2.8379e+001 -7.0836e-001 43162 89274,89378,89326
 1.1000e+000 89404 -7.1393e+000 -2.3063e+001  8.7042e-001 43162 89274,89326,89300
 1.1000e+000 89545 -9.0979e+000 -2.6837e+001 -9.3725e-001 43162 89378,89274,89519
 1.1000e+000 89568 -8.4419e+000 -2.1220e+001  4.0375e-002 43162 89378,89519,89222
 1.1000e+000 89946 -5.1096e+000 -1.3101e+001 -2.3203e-001 42594 90041,89969,89750
 1.1000e+000 89923 -1.3492e+000 -7.4640e+000 -1.7687e+000 42594 89969,89698,89828
 1.1000e+000 89900 -4.2779e+000 -1.4181e+001  2.2231e-001 42594 90041,89750,89724
 1.1000e+000 89877 -6.4217e+000 -1.3922e+001  3.0893e+000 42594 89750,89802,89776
 1.1000e+000 89854 -3.3587e+000 -6.1494e+000 -3.0870e+000 42594 89672,89828,89698
 1.1000e+000 89995 -6.2769e+000 -9.6731e+000  9.8907e-001 42594 89802,89750,89969
 1.1000e+000 90018 -3.0331e+000 -8.4794e+000  1.1680e+000 42594 89802,89969,89828
 1.1000e+000 90067 -4.6899e+000 -8.8124e+000  1.2925e-001 42594 89698,89969,90041
 1.1000e+000 90090 -6.2035e+000 -1.2812e+001  1.2735e+000 42594 89698,90041,89724
 1.1000e+000 90517 -1.2163e+001 -2.4719e+001  2.0232e+000 42140 90540,90220,90194
 1.1000e+000 90494 -1.4557e+001 -3.2818e+001  3.1282e+000 42140 90540,90194,90376
 1.1000e+000 90471 -9.4120e+000 -2.3652e+001  1.1226e+000 42140 90612,90350,90272
 1.1000e+000 90448 -8.2209e+000 -2.0824e+001  1.6281e+000 42140 90272,90350,90298
 1.1000e+000 90425 -7.0140e+000 -1.7805e+001  1.6317e+000 42140 90298,90350,90324
 1.1000e+000 90402 -1.2080e+001 -2.6529e+001  4.0342e+000 42140 90220,90272,90246
 1.1000e+000 90566 -1.2321e+001 -2.6297e+001  1.8129e+000 42140 90272,90220,90540
 1.1000e+000 90589 -1.0161e+001 -2.5417e+001  7.6458e-001 42140 90612,90272,90540
 1.1000e+000 90638 -1.0167e+001 -2.1443e+001  2.8800e+000 42140 90376,90350,90612
 1.1000e+000 90661 -1.0908e+001 -2.3958e+001  3.0611e+000 42140 90376,90612,90540
 1.1000e+000 91167 -1.0270e+001 -1.3181e+001  1.4686e+000 41636 91190,90870,90844
 1.1000e+000 91144 -9.3395e+000 -1.1677e+001  1.0634e+000 41636 91190,90844,91026
 1.1000e+000 91121 -9.2552e+000 -1.4667e+001  5.7051e-001 41636 90870,90922,90896
 1.1000e+000 91098 -1.0466e+001 -1.2465e+001  3.6092e+000 41636 90922,91026,90948
 1.1000e+000 91075 -1.0278e+001 -9.3497e+000  5.7085e-001 41636 90948,91026,91000
 1.1000e+000 91052 -7.0671e+000 -7.6915e+000 -1.7787e+000 41636 90948,91000,90974
 1.1000e+000 91216 -9.3744e+000 -1.4028e+001  1.5583e+000 41636 90922,90870,91190
 1.1000e+000 91239 -8.9430e+000 -1.3343e+001  1.2572e+000 41636 90922,91190,91026
 1.1000e+000 91696 -5.3641e+000 -1.0291e+001  7.2435e-001 40449 91448,91526,91474
 1.1000e+000 91673 -3.3931e+000 -9.1422e+000  9.2034e-003 40449 91448,91578,91526
 1.1000e+000 91650 -4.7208e+000 -1.4102e+001  1.2021e+000 40449 91474,91526,91500
 1.1000e+000 91627 -4.4826e+000 -8.5174e+000  6.6824e-001 40449 91422,91578,91448
 1.1000e+000 91604 -8.1458e+000 -6.4201e+000  4.2263e-001 40449 91526,91578,91552
 1.1000e+000 92123 -4.1644e+000 -8.2143e+000 -7.2635e-001 39995 92146,91904,91826
 1.1000e+000 92100 -1.2156e+000 -7.0638e+000 -1.4616e+000 39995 92146,91826,91800
 1.1000e+000 92077 -3.6776e+000 -9.7620e+000 -2.7778e-001 39995 91826,91904,91852
 1.1000e+000 92054 -6.1169e+000 -1.2146e+001  1.5633e+000 39995 91904,91982,91930
 1.1000e+000 92031 -5.9483e+000 -1.0681e+001 -2.2380e-001 39995 91852,91904,91878
 1.1000e+000 92008 -6.1070e+000 -8.6921e+000  2.0206e+000 39995 91930,91982,91956
 1.1000e+000 92172 -5.4687e+000 -7.6661e+000  7.0829e-001 39995 91982,91904,92146
 1.1000e+000 92195 -3.6644e+000 -7.7830e+000  3.0626e-001 39995 91982,92146,91800
 1.1000e+000 92652 -1.0577e+001 -2.3779e+001  5.5751e-001 39633 92404,92534,92456
 1.1000e+000 92629 -9.4541e+000 -2.3008e+001  9.9113e-001 39633 92378,92534,92404
 1.1000e+000 92606 -1.0170e+001 -2.3697e+001 -9.9845e-002 39633 92404,92456,92430
 1.1000e+000 92583 -1.4576e+001 -3.0051e+001  2.3644e+000 39633 92456,92534,92508
 1.1000e+000 92560 -8.5658e+000 -2.4244e+001  5.1490e+000 39633 92456,92508,92482
 1.1000e+000 93079 -8.4557e+000 -1.6695e+001  8.8160e-001 39093 93102,92808,92756
 1.1000e+000 93056 -1.1729e+001 -1.9344e+001  2.2887e+000 39093 93102,92756,92938
 1.1000e+000 93033 -1.1274e+001 -1.6906e+001 -1.4706e+000 39093 93174,92912,92834
 1.1000e+000 93010 -1.3961e+001 -1.1790e+001  1.0970e+000 39093 92834,92912,92860
 1.1000e+000 92987 -1.2967e+001 -2.0679e+001  3.8656e+000 39093 92756,92808,92782
 1.1000e+000 92964 -1.0730e+001 -6.2124e+000 -1.2592e+000 39093 92860,92912,92886
 1.1000e+000 93128 -1.1215e+001 -1.3244e+001  3.0110e-001 39093 92834,92808,93102
 1.1000e+000 93151 -1.0316e+001 -1.5537e+001  2.4181e-001 39093 93174,92834,93102
 1.1000e+000 93200 -1.2331e+001 -1.7192e+001 -1.9039e+000 39093 92938,92912,93174
 1.1000e+000 93223 -1.3714e+001 -1.7134e+001 -4.1126e-001 39093 92938,93174,93102
 1.1000e+000 93680 -9.0858e+000 -2.0100e+001  1.4716e+000 38639 93703,93536,93484
 1.1000e+000 93657 -1.0241e+001 -1.8970e+001  1.6804e+000 38639 93703,93484,93432
 1.1000e+000 93634 -3.7568e+000 -1.7883e+001  3.1065e+000 38639 93432,93484,93458
 1.1000e+000 93611 -8.7175e+000 -2.0528e+001 -2.1607e+000 38639 93484,93536,93510
 1.1000e+000 93588 -1.0058e+001 -1.5844e+001  1.2407e+000 38639 93406,93562,93432
 1.1000e+000 93729 -9.8865e+000 -2.1280e+001  1.0914e+000 38639 93562,93536,93703
 1.1000e+000 93752 -1.0993e+001 -1.9758e+001  1.2419e+000 38639 93562,93703,93432
 1.1000e+000 94160 -5.4769e+000 -9.5630e+000 -1.3231e+000 38292 93935,94039,93961
 1.1000e+000 94137 -6.2355e+000 -1.3547e+001  1.4267e+000 38292 93935,94065,94039
 1.1000e+000 94114 -9.4418e+000 -1.6288e+001  3.2946e-001 38292 93961,94013,93987
 1.1000e+000 94091 -9.2227e+000 -1.6439e+001  4.4958e-001 38292 93961,94039,94013
 1.1000e+000 94408 -5.8170e+000 -1.5888e+001  8.6990e-001 37880 94431,94261,94235
 1.1000e+000 94385 -4.7964e+000 -1.1307e+001  1.2770e+000 37880 94431,94235,94313
 1.1000e+000 94362 -5.4510e+000 -1.5053e+001  2.2752e-001 37880 94209,94313,94235
 1.1000e+000 94339 -2.3944e+000 -8.6024e+000  1.5605e+000 37880 94183,94313,94209
 1.1000e+000 94457 -7.1122e+000 -1.1312e+001 -4.2971e-001 37880 94287,94261,94431
 1.1000e+000 94480 -6.8998e+000 -7.9115e+000  6.2914e-001 37880 94287,94431,94313
 1.1000e+000 94728 -6.1493e+000 -9.2900e+000 -6.7926e-001 37426 94529,94607,94555
 1.1000e+000 94705 -5.7224e+000 -8.5419e+000 -8.6048e-001 37426 94529,94633,94607
 1.1000e+000 94682 -4.2988e+000 -6.7355e+000 -7.3688e-002 37426 94503,94633,94529
 1.1000e+000 94659 -9.1886e+000 -1.0466e+001 -2.3186e-001 37426 94555,94607,94581
 1.1000e+000 95257 -8.5103e+000 -2.1944e+001  3.3785e+000 36722 95496,95280,94862
 1.1000e+000 95234 -3.5880e+000 -1.9431e+001  6.2731e+000 36722 95496,94862,94836
 1.1000e+000 95211 -9.9751e+000 -1.7644e+001  2.5807e+000 36722 95352,95280,95070
 1.1000e+000 95188 -9.0858e+000 -1.4273e+001  2.9102e+000 36722 95352,95070,95044
 1.1000e+000 95165 -9.3158e+000 -2.2363e+001  2.0729e+000 36722 95424,94888,94862
 1.1000e+000 95142 -7.7229e+000 -1.7544e+001 -1.0093e+000 36722 94914,94966,94940
 1.1000e+000 95119 -8.7826e+000 -1.5496e+001  1.8059e+000 36722 94966,95044,95018
 1.1000e+000 95096 -9.7070e+000 -1.6549e+001  1.0719e+000 36722 94966,95018,94992
 1.1000e+000 95306 -8.8092e+000 -1.9703e+001  1.8955e+000 36722 95424,94862,95280
 1.1000e+000 95329 -8.4943e+000 -1.7043e+001  2.5274e-001 36722 94914,95280,94966
 1.1000e+000 95378 -9.3828e+000 -1.8525e+001  8.3624e-001 36722 94966,95280,95352
 1.1000e+000 95401 -9.7501e+000 -1.7472e+001  1.3893e+000 36722 94966,95352,95044
 1.1000e+000 95450 -9.0165e+000 -2.0713e+001  5.8651e-001 36722 94914,94888,95424
 1.1000e+000 95473 -9.2374e+000 -2.0672e+001  8.7811e-001 36722 94914,95424,95280
 1.1000e+000 95522 -8.9383e+000 -1.9948e+001  3.5258e+000 36722 95070,95280,95496
 1.1000e+000 95545 -9.3635e+000 -1.9696e+001  3.7277e+000 36722 95070,95496,94836
 1.1000e+000 96130 -1.2158e+001 -1.8222e+001 -3.1457e-001 36268 96153,95911,95859
 1.1000e+000 96107 -1.1826e+001 -2.2263e+001 -2.2292e-001 36268 96153,95859,95807
 1.1000e+000 96084 -1.2899e+001 -2.4486e+001  1.5188e-001 36268 95807,95859,95833
 1.1000e+000 96061 -9.2414e+000 -2.2755e+001 -2.0437e+000 36268 95911,95989,95937
 1.1000e+000 96038 -7.1644e+000 -1.6390e+001 -1.6413e+000 36268 95859,95911,95885
 1.1000e+000 96015 -1.3317e+001 -2.7514e+001  3.7463e-001 36268 95937,95989,95963
 1.1000e+000 96179 -1.1057e+001 -2.1473e+001  6.0273e-001 36268 95989,95911,96153
 1.1000e+000 96202 -1.1489e+001 -2.6554e+001  6.2622e-001 36268 95989,96153,95807
 1.1000e+000 96531 -4.1525e+000 -1.3603e+001  1.2269e-001 35728 96358,96410,96384
 1.1000e+000 96508 -6.0078e+000 -1.1066e+001 -1.3008e+000 35728 96332,96410,96358
 1.1000e+000 96485 -6.5468e+000 -9.3562e+000  6.8924e-001 35728 96332,96436,96410
 1.1000e+000 96462 -4.0720e+000 -6.5671e+000 -1.3088e+000 35728 96306,96436,96332
 1.1000e+000 96860 -9.2839e+000 -1.5860e+001  1.7759e+000 35324 96687,96765,96713
 1.1000e+000 96837 -7.9188e+000 -1.3375e+001  7.4486e-002 35324 96661,96765,96687
 1.1000e+000 96814 -8.9407e+000 -1.1387e+001 -6.0576e-001 35324 96713,96765,96739
 1.1000e+000 96791 -8.0595e+000 -1.2712e+001  2.4142e-001 35324 96635,96765,96661
 1.1000e+000 97366 -6.6252e+000 -1.1720e+001 -2.2984e+000 34920 97389,97069,97043
 1.1000e+000 97343 -5.6763e+000 -1.2536e+001 -9.0982e-001 34920 97389,97043,97199
 1.1000e+000 97320 -8.1384e+000 -1.0254e+001  1.4851e+000 34920 97043,97225,97199
 1.1000e+000 97297 -7.3196e+000 -1.7133e+001 -5.7549e-001 34920 97069,97121,97095
 1.1000e+000 97274 -9.8592e+000 -1.6875e+001 -1.3362e+000 34920 97121,97199,97173
 1.1000e+000 97251 -1.1259e+001 -1.5840e+001 -2.4287e+000 34920 97121,97173,97147
 1.1000e+000 97415 -7.5288e+000 -1.2242e+001 -1.6743e+000 34920 97121,97069,97389
 1.1000e+000 97438 -7.8418e+000 -1.4070e+001 -6.8859e-002 34920 97121,97389,97199
 1.1000e+000 97708 -1.0596e+001 -2.6538e+001  5.8008e-001 34722 97509,97587,97535
 1.1000e+000 97685 -9.1657e+000 -2.5688e+001  1.2591e-001 34722 97509,97613,97587
 1.1000e+000 97662 -1.0075e+001 -2.6025e+001  1.4931e-001 34722 97483,97613,97509
 1.1000e+000 97639 -1.3328e+001 -2.5862e+001  3.9684e+000 34722 97535,97587,97561
 1.1000e+000 98216 -7.0361e+000 -1.4607e+001  1.5694e+000 34318 97971,98075,97997
 1.1000e+000 98193 -6.0868e+000 -8.7438e+000 -2.3414e-001 34318 97893,98075,97971
 1.1000e+000 98170 -7.1363e+000 -1.3524e+001  5.5184e-002 34318 97893,97971,97919
 1.1000e+000 98147 -5.4830e+000 -1.0885e+001  1.2393e+000 34318 97997,98075,98049
 1.1000e+000 98124 -7.0655e+000 -1.3613e+001  1.0384e-001 34318 97919,97971,97945
 1.1000e+000 98101 -6.6207e+000 -1.2963e+001  2.6405e+000 34318 97997,98049,98023
 1.1000e+000 98594 -1.1396e+001 -2.4532e+001 -8.9790e-001 33814 98961,98617,98424
 1.1000e+000 98571 -1.3102e+001 -2.6261e+001 -6.0732e-001 33814 98689,98617,98372
 1.1000e+000 98548 -1.3402e+001 -2.4359e+001 -7.0784e-001 33814 99033,98689,98372
 1.1000e+000 98525 -9.6148e+000 -1.9787e+001  2.5408e+000 33814 98761,98476,98450
 1.1000e+000 98502 -1.1512e+001 -2.3737e+001 -8.6505e-001 33814 98961,98424,98398
 1.1000e+000 98643 -1.4493e+001 -2.5419e+001 -4.6112e-001 33814 98450,98424,98617
 1.1000e+000 98666 -1.2458e+001 -2.2696e+001  5.7576e-001 33814 98761,98450,98617
 1.1000e+000 98715 -1.4958e+001 -2.5211e+001 -7.0459e-001 33814 99161,98689,98320
 1.1000e+000 98738 -1.2926e+001 -2.8021e+001 -6.3934e-001 33814 98320,98689,98346
 1.1000e+000 98787 -1.6813e+001 -2.3925e+001  1.5056e+000 33814 98833,98761,98320
 1.1000e+000 98810 -1.4155e+001 -2.5220e+001 -2.1059e-001 33814 99161,98320,98761
 1.1000e+000 98859 -1.1280e+001 -1.9653e+001 -3.9409e-001 33814 98476,98761,98833
 1.1000e+000 98987 -1.1794e+001 -2.3174e+001 -1.0109e+000 33814 98372,98617,98961
 1.1000e+000 99010 -1.1561e+001 -2.1905e+001 -9.4423e-001 33814 98372,98961,98398
 1.1000e+000 99059 -1.7599e+001 -3.2094e+001 -4.1644e+000 33814 98346,98689,99033
 1.1000e+000 99187 -1.4376e+001 -2.4985e+001  3.5678e-001 33814 98617,98689,99161
 1.1000e+000 99210 -1.2966e+001 -2.4788e+001  7.8485e-001 33814 98617,99161,98761
 1.1000e+000 99588 -1.0368e+001 -1.7262e+001  4.6484e-001 33566 99366,99444,99392
 1.1000e+000 99565 -7.9181e+000 -1.8945e+001  6.6090e-001 33566 99314,99444,99366
 1.1000e+000 99542 -8.2774e+000 -2.1706e+001 -1.8446e-001 33566 99314,99366,99340
 1.1000e+000 99519 -7.8412e+000 -2.2730e+001  5.9936e+000 33566 99314,99470,99444
 1.1000e+000 99496 -6.8658e+000 -1.5098e+001 -2.5525e+000 33566 99392,99444,99418
 1.1000e+000 99787 -1.0220e+001 -1.0256e+001 -2.2923e+000 33105 99637,99689,99663
 1.1000e+000 99764 -5.4056e+000 -8.7748e+000 -1.5736e+000 33105 99611,99689,99637
 1.1000e+000 99741 -7.8479e+000 -6.8691e+000  6.2681e-001 33105 99611,99715,99689
 1.1000e+000 100167 -1.2958e+001 -1.8171e+001  1.9578e+000 32651 100190,99971,99919
 1.1000e+000 100144 -1.0475e+001 -1.6028e+001  1.0196e+000 32651 100262,100190,99919
 1.1000e+000 100121 -1.0240e+001 -1.5929e+001  1.0018e+000 32651 100262,99919,100049
 1.1000e+000 100098 -9.6308e+000 -1.5682e+001  1.4266e+000 32651 99893,100049,99919
 1.1000e+000 100075 -1.4350e+001 -1.4099e+001  4.3787e-001 32651 99919,99971,99945
 1.1000e+000 100216 -1.0254e+001 -1.8337e+001  4.7176e-001 32651 99997,99971,100190
 1.1000e+000 100239 -9.4504e+000 -1.7280e+001 -2.4778e-002 32651 99997,100190,100023
 1.1000e+000 100288 -9.7984e+000 -1.6738e+001  1.0737e+000 32651 100023,100190,100262
 1.1000e+000 100311 -8.1874e+000 -1.5845e+001  6.5083e-001 32651 100023,100262,100049
 1.1000e+000 100608 -4.1268e+000 -1.0428e+001  4.1807e-001 32254 100386,100490,100464
 1.1000e+000 100585 -5.4012e+000 -8.3725e+000 -1.3364e+000 32254 100360,100490,100386
 1.1000e+000 100562 -6.9685e+000 -1.6727e+001 -3.0663e+000 32254 100386,100464,100412
 1.1000e+000 100539 -4.1292e+000 -7.0223e+000  4.1229e-001 32254 100334,100490,100360
 1.1000e+000 100516 -5.3732e+000 -1.0860e+001 -3.0416e+000 32254 100412,100464,100438
 1.1000e+000 100758 -9.6155e+000 -9.8892e+000  3.6502e+000 31914 100985,100781,100683
 1.1000e+000 100735 -1.7475e+001 -1.7693e+001  5.3950e+000 31914 100853,100781,100657
 1.1000e+000 100807 -3.8036e+000 -1.4929e+001 -2.2495e+000 31914 100709,100683,100781
 1.1000e+000 100830 -1.4480e+001 -1.8963e+001 -6.8826e-001 31914 100709,100781,100631
 1.1000e+000 100879 -1.3285e+001 -2.2572e+001  3.9563e+000 31914 100631,100781,100853
 1.1000e+000 101011 -1.0610e+001 -1.5870e+001  3.9459e+000 31914 100657,100781,100985
 1.1000e+000 101191 -7.4107e+000 -6.0253e+000 -3.6644e-001 31418 101113,101165,101139
 1.1000e+000 101341 -1.4171e+001 -3.3264e+001 -1.0514e+000 31106 101214,101266,101240
 1.1000e+000 101318 -1.0984e+001 -2.4535e+001 -2.4469e-001 31106 101214,101292,101266
 1.1000e+000 101591 -5.5542e+000 -1.7079e+001 -2.2584e+000 30552 101614,101470,101444
 1.1000e+000 101568 -6.3141e+000 -1.2950e+001 -3.7513e-001 30552 101366,101496,101470
 1.1000e+000 101545 -1.0331e+001 -1.9694e+001  1.5386e+000 30552 101614,101444,101392
 1.1000e+000 101522 -1.4181e+001 -1.7697e+001 -6.0752e-001 30552 101392,101444,101418
 1.1000e+000 101640 -1.2220e+001 -1.6000e+001  8.1616e-001 30552 101366,101470,101614
 1.1000e+000 101663 -1.6344e+001 -1.8043e+001  4.5562e+000 30552 101366,101614,101392
 1.1000e+000 102301 -1.5486e+001 -2.8584e+001  1.0484e+000 30042 102396,102324,102059
 1.1000e+000 102278 -1.4217e+001 -2.6118e+001 -4.4088e-001 30042 102324,101981,101955
 1.1000e+000 102255 -1.7063e+001 -2.7968e+001  2.3282e+000 30042 102396,102059,102033
 1.1000e+000 102232 -1.0480e+001 -2.0886e+001  6.9130e-001 30042 101929,102111,101955
 1.1000e+000 102209 -1.3063e+001 -2.4711e+001 -1.5308e-001 30042 102059,102111,102085
 1.1000e+000 102186 -6.0371e+000 -2.0017e+001  2.9803e+000 30042 101929,102137,102111
 1.1000e+000 102163 -4.3157e+000 -2.1585e+001  1.0900e+000 30042 101981,102033,102007
 1.1000e+000 102350 -1.3131e+001 -2.7118e+001 -1.4572e-001 30042 102111,102059,102324
 1.1000e+000 102373 -1.3671e+001 -2.5376e+001 -1.3667e+000 30042 102111,102324,101955
 1.1000e+000 102422 -1.2958e+001 -2.6355e+001 -1.5644e-001 30042 101981,102324,102396
 1.1000e+000 102445 -1.4670e+001 -2.5800e+001  1.1327e+000 30042 101981,102396,102033
 1.1000e+000 103000 -1.0851e+001 -1.7972e+001 -1.1062e+000 29730 103023,102706,102654
 1.1000e+000 102977 -1.1857e+001 -2.0363e+001  8.8503e-001 29730 103023,102654,102810
 1.1000e+000 102954 -1.1325e+001 -2.4659e+001 -2.7848e+000 29730 102732,102810,102784
 1.1000e+000 102931 -1.3623e+001 -2.2425e+001  8.8859e-002 29730 102628,102810,102654
 1.1000e+000 102908 -1.2016e+001 -1.8598e+001 -3.2235e-001 29730 102654,102706,102680
 1.1000e+000 102885 -5.1762e+000 -1.4331e+001  1.4956e+000 29730 102732,102784,102758
 1.1000e+000 102862 -1.7930e+001 -2.4483e+001  9.2106e-001 29730 102628,102836,102810
 1.1000e+000 103049 -1.0957e+001 -1.4484e+001 -2.2803e+000 29730 102732,102706,103023
 1.1000e+000 103072 -1.1738e+001 -1.7780e+001 -6.7413e-001 29730 102732,103023,102810
 1.1000e+000 103222 -8.9363e+000 -9.3425e+000 -8.3674e-001 29226 103095,103147,103121
 1.1000e+000 103199 -8.3395e+000 -9.9716e+000 -6.1352e-001 29226 103095,103173,103147
 1.1000e+000 103730 -1.1185e+001 -2.2951e+001 -5.4641e-001 28822 103537,103589,103563
 1.1000e+000 103707 -1.0998e+001 -2.3296e+001 -6.9864e-001 28822 103433,103589,103537
 1.1000e+000 103684 -1.5978e+001 -2.4500e+001 -2.0921e+000 28822 103433,103537,103459
 1.1000e+000 103661 -1.1224e+001 -2.3868e+001 -8.1217e-001 28822 103407,103589,103433
 1.1000e+000 103638 -8.0579e+000 -2.3208e+001  3.4944e+000 28822 103459,103511,103485
 1.1000e+000 103615 -1.0882e+001 -1.7909e+001  1.0538e+000 28822 103459,103537,103511
 1.1000e+000 103880 -8.3496e+000 -2.1149e+001  1.1310e+000 28368 103975,103903,103779
 1.1000e+000 103857 -1.0795e+001 -2.7297e+001  9.2795e-001 28368 103903,103753,103831
 1.1000e+000 103929 -1.0830e+001 -2.1786e+001 -2.2336e-001 28368 103805,103779,103903
 1.1000e+000 103952 -9.2159e+000 -2.0304e+001  1.3682e+000 28368 104105,103903,103831
 1.1000e+000 104001 -9.3524e+000 -2.2282e+001 -1.3059e-001 28368 103753,103903,103975
 1.1000e+000 104131 -1.1445e+001 -2.2017e+001 -7.6903e-002 28368 103805,103903,104105
 1.1000e+000 104539 -8.6572e+000 -1.3232e+001 -8.2913e-002 28028 104562,104340,104314
 1.1000e+000 104516 -9.5216e+000 -1.1613e+001  8.6792e-001 28028 104634,104562,104314
 1.1000e+000 104493 -1.3274e+001 -1.4768e+001 -1.2803e+000 28028 104762,104366,104340
 1.1000e+000 104470 -8.8002e+000 -1.4904e+001 -1.5292e+000 28028 104366,104418,104392
 1.1000e+000 104588 -1.0632e+001 -1.4450e+001 -8.1166e-001 28028 104762,104340,104562
 1.1000e+000 104611 -9.7558e+000 -1.3367e+001  1.1329e+000 28028 104418,104562,104444
 1.1000e+000 104660 -6.5830e+000 -1.1931e+001  1.7921e+000 28028 104444,104562,104634
 1.1000e+000 104788 -1.0203e+001 -1.4793e+001 -6.4948e-001 28028 104418,104366,104762
 1.1000e+000 104811 -7.6808e+000 -1.4358e+001  4.8381e-002 28028 104418,104762,104562
 1.1000e+000 105010 -9.3686e+000 -1.6211e+001 -1.3314e+000 27324 105033,104886,104860
 1.1000e+000 104987 -1.4530e+001 -1.6248e+001  4.3867e+000 27324 105033,104860,104834
 1.1000e+000 104964 -8.7418e+000 -5.8195e+000 -3.6419e+000 27324 105105,104912,104886
 1.1000e+000 105059 -7.4701e+000 -8.6986e+000 -3.7683e+000 27324 105105,104886,105033
 1.1000e+000 105082 -1.0213e+001 -1.4707e+001  7.6268e-001 27324 104938,105033,104834
 1.1000e+000 105131 -5.9199e+000 -8.6253e+000  3.5398e-001 27324 104938,104912,105105
 1.1000e+000 105154 -7.0207e+000 -1.5059e+001 -4.6553e-001 27324 104938,105105,105033
 1.1000e+000 105402 -1.2172e+001 -1.2722e+001 -6.6725e-001 27012 105229,105281,105255
 1.1000e+000 105379 -1.0707e+001 -1.3515e+001 -5.6054e-001 27012 105229,105307,105281
 1.1000e+000 105356 -1.0765e+001 -1.3973e+001 -7.5534e-001 27012 105177,105307,105229
 1.1000e+000 105333 -1.4670e+001 -1.3340e+001 -5.4391e+000 27012 105177,105229,105203
 1.1000e+000 105603 -6.0867e+000 -1.1990e+001 -3.3900e+000 26508 105626,105453,105427
 1.1000e+000 105580 -3.5897e+000 -6.4816e+000  1.4701e+000 26508 105626,105427,105505
 1.1000e+000 105557 -3.8480e+000 -3.1194e+000 -6.6582e-001 26508 105427,105531,105505
 1.1000e+000 105652 -8.8830e+000 -1.3078e+001 -5.8405e+000 26508 105479,105453,105626
 1.1000e+000 105675 -8.6034e+000 -1.0733e+001 -1.3776e+000 26508 105479,105626,105505
 1.1000e+000 106057 -8.4269e+000 -1.3748e+001  6.5098e-001 25947 106080,105887,105861
 1.1000e+000 106034 -7.5367e+000 -1.2748e+001 -1.0875e+000 25947 106080,105861,105783
 1.1000e+000 106011 -7.4849e+000 -1.1753e+001 -1.0371e+000 25947 105783,105835,105809
 1.1000e+000 105988 -8.2985e+000 -1.5211e+001 -5.3174e-001 25947 105783,105861,105835
 1.1000e+000 105965 -5.7472e+000 -8.6777e+000 -2.2020e+000 25947 105887,105939,105913
 1.1000e+000 106106 -7.6913e+000 -1.3046e+001 -3.5821e-001 25947 105939,105887,106080
 1.1000e+000 106129 -5.3097e+000 -1.0829e+001 -2.3223e+000 25947 105939,106080,105783
 1.1000e+000 106714 -9.6259e+000 -1.3368e+001  2.9157e-001 25557 106809,106737,106547
 1.1000e+000 106691 -8.3474e+000 -1.3246e+001 -4.6939e-001 25557 106737,106417,106391
 1.1000e+000 106668 -1.0125e+001 -1.2991e+001  1.2022e-001 25557 106809,106547,106495
 1.1000e+000 106645 -1.1346e+001 -1.6187e+001 -1.0445e+000 25557 106417,106495,106469
 1.1000e+000 106622 -9.2961e+000 -1.3896e+001 -1.5616e+000 25557 106495,106547,106521
 1.1000e+000 106599 -1.2954e+001 -1.2206e+001 -1.3293e+000 25557 106417,106469,106443
 1.1000e+000 106763 -1.2116e+001 -1.4746e+001  1.9418e+000 25557 106573,106547,106737
 1.1000e+000 106786 -8.7117e+000 -1.3216e+001  1.2704e+000 25557 106573,106737,106391
 1.1000e+000 106835 -1.0105e+001 -1.4376e+001  6.5215e-002 25557 106417,106737,106809
 1.1000e+000 106858 -1.0204e+001 -1.3488e+001  7.8488e-002 25557 106417,106809,106495
 1.1000e+000 107364 -7.0952e+000 -1.2194e+001  9.3184e-001 25153 107459,107387,107171
 1.1000e+000 107341 -9.8374e+000 -1.3496e+001 -8.9489e-001 25153 107387,107119,107067
 1.1000e+000 107318 -7.7196e+000 -1.5041e+001 -1.8585e+000 25153 107459,107171,107145
 1.1000e+000 107295 -4.0785e+000 -9.0415e+000  3.5368e+000 25153 107531,107223,107197
 1.1000e+000 107272 -1.1364e+001 -1.8612e+001 -2.5643e+000 25153 107067,107119,107093
 1.1000e+000 107249 -4.7062e+000 -9.4976e+000 -5.5647e-001 25153 107041,107223,107067
 1.1000e+000 107413 -7.9047e+000 -1.2279e+001  7.2196e-001 25153 107197,107171,107387
 1.1000e+000 107436 -6.9823e+000 -9.3832e+000  2.3475e+000 25153 107531,107197,107387
 1.1000e+000 107485 -8.8647e+000 -1.6986e+001 -1.3902e+000 25153 107119,107387,107459
 1.1000e+000 107508 -1.1017e+001 -1.9896e+001 -4.5799e+000 25153 107119,107459,107145
 1.1000e+000 107557 -2.7044e+000 -1.0653e+001 -4.7959e-003 25153 107067,107223,107531
 1.1000e+000 107580 -6.5382e+000 -1.2338e+001 -1.4057e+000 25153 107067,107531,107387
 1.1000e+000 107958 -8.9012e+000 -1.6886e+001 -1.3422e+000 24741 107736,107814,107788
 1.1000e+000 107935 -1.0899e+001 -1.6736e+001 -4.4203e-001 24741 107736,107840,107814
 1.1000e+000 107912 -1.0916e+001 -1.7119e+001 -4.2036e-001 24741 107684,107840,107736
 1.1000e+000 107889 -1.0144e+001 -1.9218e+001 -4.3527e-001 24741 107736,107788,107762
 1.1000e+000 107866 -1.2733e+001 -2.1558e+001 -3.3806e-001 24741 107684,107736,107710
 1.1000e+000 108157 -8.8128e+000 -1.3826e+001 -3.5767e-001 24237 108180,108059,108007
 1.1000e+000 108134 -9.7139e+000 -1.1930e+001  1.6721e+000 24237 108180,108007,107981
 1.1000e+000 108111 -7.2611e+000 -4.3002e+000 -2.7316e+000 24237 108007,108059,108033
 1.1000e+000 108206 -7.9115e+000 -1.1606e+001 -5.5956e-001 24237 108085,108059,108180
 1.1000e+000 108229 -8.7959e+000 -9.6922e+000  1.4616e+000 24237 108085,108180,107981
 1.1000e+000 108658 -1.2108e+001 -1.8018e+001 -9.2786e-001 23776 108361,108413,108387
 1.1000e+000 108635 -1.1945e+001 -2.3237e+001  7.5345e-003 23776 108753,108681,108361
 1.1000e+000 108612 -6.6485e+000 -1.2621e+001 -3.6242e+000 23776 108681,108465,108439
 1.1000e+000 108589 -1.0194e+001 -2.5486e+001  2.4321e+000 23776 108753,108361,108335
 1.1000e+000 108566 -7.2072e+000 -1.4074e+001 -1.5715e+000 23776 108335,108517,108465
 1.1000e+000 108543 -6.6589e+000 -1.4408e+001 -1.2067e+000 23776 108465,108517,108491
 1.1000e+000 108707 -1.1161e+001 -1.6621e+001 -3.7865e-001 23776 108413,108361,108681
 1.1000e+000 108730 -1.1454e+001 -1.7131e+001 -6.5422e-001 23776 108413,108681,108439
 1.1000e+000 108779 -1.0394e+001 -1.4647e+001 -1.8079e-001 23776 108465,108681,108753
 1.1000e+000 108802 -1.1295e+001 -2.1242e+001  1.5780e+000 23776 108465,108753,108335
 1.1000e+000 109023 -7.4220e+000 -9.6385e+000  2.1667e+000 23414 108873,108925,108899
 1.1000e+000 109000 -1.1116e+001 -1.1240e+001  1.8026e+000 23414 108847,108925,108873
 1.1000e+000 108977 -1.0493e+001 -1.1409e+001 -2.9819e-002 23414 108847,108951,108925
 1.1000e+000 109474 -7.6065e+000 -2.2352e+001  1.6760e+000 23024 109151,109307,109177
 1.1000e+000 109451 -5.1323e+000 -2.5290e+001  1.1701e+000 23024 109151,109333,109307
 1.1000e+000 109428 -1.2908e+001 -2.7485e+001 -7.4186e-001 23024 109177,109281,109203
 1.1000e+000 109405 -1.8261e+001 -2.8335e+001 -7.5469e-001 23024 109177,109307,109281
 1.1000e+000 109382 -1.1008e+001 -2.5518e+001  2.5613e-001 23024 109203,109281,109229
 1.1000e+000 109359 -1.3619e+001 -2.7299e+001 -1.1069e+000 23024 109229,109281,109255
 1.1000e+000 109820 -1.0608e+001 -2.0581e+001  6.7490e-001 22506 109843,109601,109523
 1.1000e+000 109797 -1.0414e+001 -1.9927e+001  4.0575e-001 22506 109843,109523,109497
 1.1000e+000 109774 -1.0557e+001 -2.1336e+001  6.2000e-001 22506 109915,109653,109627
 1.1000e+000 109751 -1.0945e+001 -2.1555e+001  3.3817e-002 22506 109497,109679,109653
 1.1000e+000 109728 -1.1443e+001 -2.2733e+001 -2.3382e+000 22506 109523,109601,109575
 1.1000e+000 109705 -1.0014e+001 -2.6050e+001 -1.6563e+000 22506 109523,109575,109549
 1.1000e+000 109869 -1.0156e+001 -2.0164e+001  8.5455e-001 22506 109627,109601,109843
 1.1000e+000 109892 -1.0185e+001 -2.0610e+001  8.0888e-001 22506 109915,109627,109843
 1.1000e+000 109941 -1.0833e+001 -2.0683e+001  1.4176e-001 22506 109497,109653,109915
 1.1000e+000 109964 -1.0801e+001 -2.0645e+001  2.4166e-001 22506 109497,109915,109843
 1.1000e+000 110163 -1.0176e+001 -1.7489e+001 -5.4164e-003 21936 110186,110039,110013
 1.1000e+000 110140 -1.2040e+001 -1.8145e+001 -1.9669e-001 21936 110390,110186,110013
 1.1000e+000 110117 -1.2280e+001 -2.0785e+001  1.8164e-001 21936 110390,110013,109987
 1.1000e+000 110212 -1.0036e+001 -1.7889e+001 -1.7984e+000 21936 110065,110039,110186
 1.1000e+000 110235 -9.6402e+000 -1.6970e+001  3.0987e-001 21936 110258,110186,110091
 1.1000e+000 110284 -1.1908e+001 -1.9674e+001 -7.5697e-001 21936 110065,110186,110258
 1.1000e+000 110416 -1.1681e+001 -2.1249e+001  1.0977e+000 21936 110091,110186,110390
 1.1000e+000 110439 -1.1668e+001 -2.3718e+001  1.3107e+000 21936 110091,110390,109987
 1.1000e+000 110709 -1.0459e+001 -2.6504e+001  3.5307e-001 21338 110510,110614,110588
 1.1000e+000 110686 -1.2892e+001 -3.1165e+001 -9.4567e-001 21338 110484,110614,110510
 1.1000e+000 110663 -8.9317e+000 -1.8084e+001 -1.5650e+000 21338 110510,110562,110536
 1.1000e+000 110640 -1.2666e+001 -2.6621e+001 -4.5736e-001 21338 110510,110588,110562
 1.1000e+000 111296 -1.1900e+001 -2.3488e+001 -1.0955e-001 20934 111025,111155,111103
 1.1000e+000 111273 -1.2157e+001 -2.9744e+001 -8.7340e-001 20934 110999,111155,111025
 1.1000e+000 111250 -4.9829e+000 -2.0169e+001 -1.6511e+000 20934 111103,111155,111129
 1.1000e+000 111227 -1.5646e+001 -2.9871e+001 -2.6888e+000 20934 111051,111103,111077
 1.1000e+000 111204 -1.5693e+001 -2.6569e+001 -1.7283e+000 20934 111025,111103,111051
 1.1000e+000 111181 -9.0982e+000 -2.6354e+001  4.6658e-001 20934 110973,111155,110999
 1.1000e+000 111930 -1.5400e+001 -1.5496e+001 -6.2167e+000 20494 111662,111714,111688
 1.1000e+000 111907 -6.3785e+000 -1.0553e+001 -3.7900e+000 20494 111584,111714,111662
 1.1000e+000 111884 -9.9710e+000 -1.6506e+001 -1.0895e+000 20494 111584,111766,111714
 1.1000e+000 111861 -1.2275e+001 -2.0666e+001  6.4377e-001 20494 111584,111636,111610
 1.1000e+000 111838 -1.3074e+001 -1.7137e+001 -1.5515e-001 20494 111584,111662,111636
 1.1000e+000 111815 -1.1833e+001 -1.4339e+001  3.3920e+000 20494 111558,111766,111584
 1.1000e+000 111792 -7.1643e+000 -1.0938e+001 -2.9714e+000 20494 111714,111766,111740
 1.1000e+000 112249 -7.5080e+000 -1.7088e+001 -1.4919e+000 19940 111975,112053,112001
 1.1000e+000 112226 -9.6382e+000 -1.8688e+001  7.6364e-001 19940 111975,112131,112053
 1.1000e+000 112203 -9.2868e+000 -1.6623e+001  0.0000e+000 19940 112053,112105,112079
 1.1000e+000 112180 -1.1387e+001 -1.9766e+001 -1.4704e+000 19940 112053,112131,112105
 1.1000e+000 112157 -7.6472e+000 -1.4314e+001 -4.4745e+000 19940 112001,112053,112027
 1.1000e+000 112757 -9.3655e+000 -2.2397e+001 -1.2443e+000 19486 112780,112538,112486
 1.1000e+000 112734 -1.0221e+001 -2.4220e+001 -2.2191e-001 19486 112780,112486,112460
 1.1000e+000 112711 -1.0711e+001 -2.0788e+001  6.6410e-001 19486 112852,112616,112590
 1.1000e+000 112688 -5.3261e+000 -2.5188e+001 -1.9032e+000 19486 112486,112538,112512
 1.1000e+000 112665 -1.2843e+001 -2.7037e+001  8.4777e-002 19486 112434,112616,112460
 1.1000e+000 112642 -1.4084e+001 -2.3311e+001 -5.6049e-001 19486 112538,112590,112564
 1.1000e+000 112806 -1.2313e+001 -2.3597e+001 -1.2756e+000 19486 112590,112538,112780
 1.1000e+000 112829 -1.0121e+001 -2.1905e+001  4.8258e-003 19486 112852,112590,112780
 1.1000e+000 112878 -1.0699e+001 -2.2536e+001  6.9946e-001 19486 112460,112616,112852
 1.1000e+000 112901 -1.0295e+001 -2.3993e+001  3.3653e-001 19486 112460,112852,112780
 1.1000e+000 113252 -1.6000e+001 -2.5967e+001  6.8035e-002 19096 113105,113157,113131
 1.1000e+000 113229 -1.6027e+001 -2.2032e+001 -2.0414e-001 19096 113053,113157,113105
 1.1000e+000 113206 -1.3750e+001 -2.2029e+001 -9.1328e-001 19096 113027,113157,113053
 1.1000e+000 113183 -2.0151e+001 -2.8905e+001  1.5503e+000 19096 113053,113105,113079
 1.1000e+000 113451 -7.5552e+000 -1.5193e+001 -1.9814e-001 18642 113327,113379,113353
 1.1000e+000 113428 -8.7483e+000 -1.8162e+001 -1.4507e-001 18642 113301,113379,113327
 1.1000e+000 113405 -1.1917e+001 -1.7225e+001  8.0625e-002 18642 113275,113379,113301
 1.1000e+000 113699 -1.0682e+001 -2.1959e+001  1.1161e-001 18138 113474,113552,113526
 1.1000e+000 113676 -8.6643e+000 -2.2118e+001 -9.0554e-001 18138 113474,113578,113552
 1.1000e+000 113653 -8.7215e+000 -2.2849e+001 -8.4666e-001 18138 113474,113604,113578
 1.1000e+000 113630 -8.4146e+000 -1.9596e+001  1.2162e+000 18138 113474,113526,113500
 1.1000e+000 113851 -1.1683e+001 -2.5301e+001  4.8187e-001 17682 113750,113802,113776
 1.1000e+000 113828 -1.0714e+001 -2.5041e+001  5.9094e-001 17682 113724,113802,113750
 1.1000e+000 114383 -9.2075e+000 -1.4241e+001  1.3619e+000 17106 114086,114242,114164
 1.1000e+000 114360 -1.0295e+001 -1.4224e+001  6.6020e+000 17106 114060,114242,114086
 1.1000e+000 114337 -1.5255e+001 -1.7971e+001  3.4645e+000 17106 114086,114164,114138
 1.1000e+000 114314 -6.4651e+000 -1.6383e+001  3.4683e+000 17106 114190,114242,114216
 1.1000e+000 114291 -6.1845e+000 -1.2696e+001  3.1514e+000 17106 114164,114242,114190
 1.1000e+000 114268 -2.1570e+001 -2.5366e+001 -6.0100e-002 17106 114086,114138,114112
 1.1000e+000 114680 -1.1202e+001 -2.0861e+001  6.9990e-001 16766 114703,114432,114406
 1.1000e+000 114657 -1.0849e+001 -2.0832e+001  9.6518e-001 16766 114703,114406,114510
 1.1000e+000 114634 -8.5492e+000 -1.8240e+001 -4.0214e-001 16766 114406,114536,114510
 1.1000e+000 114611 -1.2388e+001 -2.1587e+001 -4.7170e-001 16766 114432,114484,114458
 1.1000e+000 114588 -5.9904e+000 -1.8318e+001  2.3668e+000 16766 114406,114562,114536
 1.1000e+000 114729 -1.2423e+001 -2.1014e+001  5.0909e-001 16766 114484,114432,114703
 1.1000e+000 114752 -1.1377e+001 -2.0504e+001  8.1216e-001 16766 114484,114703,114510
 1.1000e+000 114902 -1.2784e+001 -1.5509e+001  5.9633e-001 16362 114775,114827,114801
 1.1000e+000 114879  1.1251e+000 -1.2864e+001 -1.8333e+000 16362 114775,114853,114827
 1.1000e+000 115054 -1.4053e+001 -1.9657e+001  4.9670e+000 15908 114953,115005,114979
 1.1000e+000 115031 -1.3512e+001 -2.5121e+001  4.8487e+000 15908 114927,115005,114953
 1.1000e+000 115326 -1.2569e+001 -2.6829e+001  4.0923e+000 15251 115101,115179,115153
 1.1000e+000 115303 -1.0972e+001 -2.5080e+001  4.2711e-001 15251 115101,115231,115179
 1.1000e+000 115280 -1.0190e+001 -2.3198e+001  2.9930e-001 15251 115179,115231,115205
 1.1000e+000 115257 -6.6104e+000 -5.2303e+001  1.3922e+001 15251 115101,115153,115127
 1.1000e+000 115429 -1.3884e+001 -2.2548e+001  3.0052e+000 421 115351,115403,115377
 1.2000e+000 66230  9.7017e+000 -1.2632e+001 -1.8363e+000 65954 66152,66204,66178
 1.2000e+000 66429  4.3035e+000 -1.6751e+001 -2.5477e+000 65642 66279,66331,66305
 1.2000e+000 66406  7.6883e-001 -2.5896e+001 -2.3903e+000 65642 66279,66357,66331
 1.2000e+000 66383 -8.5025e+000 -2.2257e+001 -2.3176e+000 65642 66253,66357,66279
 1.2000e+000 66628  1.0193e+000 -2.9505e+001  2.3391e+000 65444 66452,66530,66478
 1.2000e+000 66605 -1.3003e-001 -2.8843e+001  2.5364e+000 65444 66452,66556,66530
 1.2000e+000 66582  6.9983e+000 -2.7820e+001  5.5970e-001 65444 66478,66530,66504
 1.2000e+000 67006 -1.9601e+000 -1.4682e+001 -7.4066e-001 65246 66732,66810,66758
 1.2000e+000 66983  1.0844e+000 -1.1269e+001  5.6398e-001 65246 66732,66836,66810
 1.2000e+000 66960 -2.2952e+000 -1.5821e+001 -2.2287e+000 65246 66732,66862,66836
 1.2000e+000 66937 -2.5719e+000 -1.5927e+001 -5.2944e-001 65246 66758,66810,66784
 1.2000e+000 66914  4.0817e-001 -1.4619e+001 -4.4108e+000 65246 66732,66888,66862
 1.2000e+000 67107  5.3425e+000 -6.1361e+000 -1.5464e+000 64934 67029,67081,67055
 1.2000e+000 67306  4.0612e+000 -2.0220e+001  3.6633e+000 64736 67156,67208,67182
 1.2000e+000 67283 -3.7813e-001 -1.9847e+001  4.2783e+000 64736 67130,67208,67156
 1.2000e+000 67260 -3.2987e+000 -2.7022e+001  3.1655e+000 64736 67130,67234,67208
 1.2000e+000 67507 -2.8041e+000 -1.5389e+001 -5.5959e+000 64389 67357,67409,67383
 1.2000e+000 67484  5.3826e-002 -2.2871e+001 -4.3841e+000 64389 67357,67435,67409
 1.2000e+000 67461  3.0221e-001 -2.4831e+001 -3.7920e+000 64389 67331,67435,67357
 1.2000e+000 67708  3.3957e+000 -1.7572e+001  4.2584e+000 63985 67731,67584,67558
 1.2000e+000 67685  8.3911e-001 -1.0260e+001  2.9926e+000 63985 67731,67558,67636
 1.2000e+000 67662  3.9303e+000 -1.2663e+001 -1.0274e+000 63985 67532,67636,67558
 1.2000e+000 67757  2.2847e+000 -2.1180e+001  3.7982e+000 63985 67610,67584,67731
 1.2000e+000 67780 -1.6380e+000 -1.5965e+001  2.1721e+000 63985 67610,67731,67636
 1.2000e+000 67981  3.7429e+000 -1.3571e+001 -4.0168e-001 63787 67857,67909,67883
 1.2000e+000 67958 -2.9959e+000 -1.5448e+001  3.2209e-001 63787 67831,67909,67857
 1.2000e+000 67935 -5.0611e+000 -1.9389e+001 -4.2684e-001 63787 67805,67909,67831
 1.2000e+000 68231  2.5044e+000 -1.5177e+001  1.4219e-001 63589 68254,68084,68032
 1.2000e+000 68208  2.8756e+000 -1.3674e+001  3.0101e-001 63589 68254,68032,68006
 1.2000e+000 68185  9.7927e-001 -1.5118e+001 -1.5731e+000 63589 68326,68136,68110
 1.2000e+000 68162  1.1794e+000 -1.6967e+001  3.9870e+000 63589 68032,68084,68058
 1.2000e+000 68280  5.0110e+000 -1.4122e+001 -1.1142e+000 63589 68110,68084,68254
 1.2000e+000 68303  1.8563e+000 -1.4733e+001 -1.3706e+000 63589 68326,68110,68254
 1.2000e+000 68352  6.1593e-001 -1.4768e+001  4.2200e-001 63589 68006,68136,68326
 1.2000e+000 68375  1.9427e+000 -1.4285e+001  5.7810e-001 63589 68006,68326,68254
 1.2000e+000 68836  6.8596e+000 -1.1325e+001  4.5551e-001 63128 68859,68588,68562
 1.2000e+000 68813 -2.8164e+000 -1.7030e+001  3.0736e+000 63128 68859,68562,68692
 1.2000e+000 68790 -4.5536e+000 -1.5448e+001 -4.5035e+000 63128 68614,68692,68666
 1.2000e+000 68767 -1.0345e+001 -1.5436e+001  2.3501e+000 63128 68562,68718,68692
 1.2000e+000 68744 -1.5282e+000 -8.2861e+000 -4.0371e+000 63128 68614,68666,68640
 1.2000e+000 68885  9.0851e+000 -7.0766e+000 -9.1390e+000 63128 68614,68588,68859
 1.2000e+000 68908  3.7803e-002 -1.3012e+001 -6.3967e+000 63128 68614,68859,68692
 1.2000e+000 69237  3.5170e-001 -1.1824e+001  1.7643e-001 62731 69064,69116,69090
 1.2000e+000 69214 -9.2891e-001 -1.1874e+001 -1.2795e-001 62731 69064,69142,69116
 1.2000e+000 69191 -2.0569e+000 -2.0678e+001 -1.0702e+000 62731 69038,69142,69064
 1.2000e+000 69168  1.3909e+000 -1.5217e+001  5.0829e-001 62731 69012,69142,69038
 1.2000e+000 69539 -9.1920e-001 -5.9011e+000 -1.6315e-001 62433 69389,69467,69441
 1.2000e+000 69516 -1.5040e+000 -3.3021e+000 -6.0839e-001 62433 69363,69467,69389
 1.2000e+000 69493  1.4781e+000 -1.4718e+000  8.8116e-001 62433 69389,69441,69415
 1.2000e+000 69966  9.0696e+000 -1.9063e+001  5.6145e-001 62235 69989,69773,69721
 1.2000e+000 69943 -4.6193e+000 -2.4433e+001 -3.8345e-001 62235 70061,69989,69721
 1.2000e+000 69920 -7.3757e+000 -2.6557e+001 -1.8014e+000 62235 70061,69721,69643
 1.2000e+000 69897  7.4002e+000 -2.1779e+001  1.4858e+000 62235 69721,69773,69747
 1.2000e+000 69874 -1.0671e+001 -4.0289e+001 -4.8638e+000 62235 69643,69721,69695
 1.2000e+000 69851  2.2094e-001 -3.1530e+001  3.3990e+000 62235 69643,69695,69669
 1.2000e+000 70015  1.4644e+001 -2.0371e+001 -1.1088e+001 62235 69799,69773,69989
 1.2000e+000 70038 -3.8316e+000 -2.7607e+001 -9.3032e+000 62235 69799,69989,69825
 1.2000e+000 70087 -2.0687e-001 -2.8079e+001 -4.4520e-001 62235 69825,69989,70061
 1.2000e+000 70110 -3.2916e+000 -2.9751e+001 -1.3954e+000 62235 69825,70061,69643
 1.2000e+000 70260 -1.7520e+000 -1.4750e+001  3.4899e+000 62037 70133,70185,70159
 1.2000e+000 70237 -2.4737e+000 -2.5462e+001  4.6205e+000 62037 70133,70211,70185
 1.2000e+000 70640 -6.1148e-001 -1.3473e+001  5.1842e+000 61583 70735,70663,70418
 1.2000e+000 70617 -4.8500e+000 -1.9585e+001  5.3899e+000 61583 70663,70366,70522
 1.2000e+000 70594  2.5793e-001 -1.0624e+001  4.7444e+000 61583 70735,70418,70392
 1.2000e+000 70571 -3.2245e-001 -1.2437e+001  7.8473e+000 61583 70418,70496,70444
 1.2000e+000 70548 -6.4440e+000 -5.3519e+000  7.2432e+000 61583 70444,70496,70470
 1.2000e+000 70689 -5.3776e+000 -1.4098e+001  3.6697e+000 61583 70496,70418,70663
 1.2000e+000 70712 -9.2982e+000 -1.1778e+001  4.9059e+000 61583 70496,70663,70522
 1.2000e+000 70761 -4.2022e-001 -1.2290e+001  1.5017e+000 61583 70366,70663,70735
 1.2000e+000 70784 -9.6621e-002 -9.7287e+000  1.2888e+000 61583 70366,70735,70392
 1.2000e+000 71054  2.4010e+000 -1.3913e+001  3.5977e+000 61313 71077,70881,70855
 1.2000e+000 71031  5.6483e+000 -9.0027e+000  5.5740e+000 61313 71077,70855,70829
 1.2000e+000 71008 -2.3694e+000 -7.2983e+000  3.3473e+000 61313 70829,70959,70933
 1.2000e+000 70985  2.8096e+000 -8.9304e+000 -1.2239e+000 61313 70881,70933,70907
 1.2000e+000 71103 -2.7671e-001 -1.1560e+001  4.4053e-001 61313 70933,70881,71077
 1.2000e+000 71126  2.3677e+000 -8.8223e+000  2.0659e+000 61313 70933,71077,70829
 1.2000e+000 71604 -7.3194e+000 -1.7188e+001 -9.0230e-001 60909 71627,71232,71414
 1.2000e+000 71581 -9.8553e+000 -1.7308e+001 -1.7280e+000 60909 71232,71440,71414
 1.2000e+000 71558 -6.2746e+000 -1.7300e+001 -5.4308e-001 60909 71627,71414,71336
 1.2000e+000 71535  1.3796e+000 -2.2577e+001  8.9602e-001 60909 71362,71414,71388
 1.2000e+000 71512 -7.5733e+000 -2.1248e+001 -1.1948e+000 60909 71336,71414,71362
 1.2000e+000 71489 -2.5654e+000 -1.4983e+001 -7.5776e-001 60909 71258,71336,71310
 1.2000e+000 71466 -6.8588e+000 -1.7816e+001  5.1537e-001 60909 71258,71310,71284
 1.2000e+000 71653 -8.0532e+000 -1.6931e+001 -3.7843e-001 60909 71258,71232,71627
 1.2000e+000 71676 -7.0600e+000 -1.7018e+001 -3.1012e-001 60909 71258,71627,71336
 1.2000e+000 71875 -2.1182e+000 -1.8977e+001  2.6861e+000 60611 71898,71725,71699
 1.2000e+000 71852 -7.0483e+000 -1.8018e+001  4.2127e+000 60611 71898,71699,71803
 1.2000e+000 71829 -2.4720e+000 -1.9647e+001  3.1219e+000 60611 71970,71751,71725
 1.2000e+000 71924 -2.1244e+000 -1.8590e+001  2.7716e+000 60611 71970,71725,71898
 1.2000e+000 71947 -9.0907e-001 -7.4008e+000  1.6983e+000 60611 71777,71898,71803
 1.2000e+000 71996 -2.0495e+000 -1.8302e+001  2.7175e+000 60611 71777,71751,71970
 1.2000e+000 72019 -1.7561e+000 -1.7759e+001  2.2788e+000 60611 71777,71970,71898
 1.2000e+000 72576 -1.2770e+001 -3.6813e+001  5.3439e+000 60142 72599,72256,72230
 1.2000e+000 72553 -8.8128e+000 -2.7982e+001  4.3243e+000 60142 72671,72599,72230
 1.2000e+000 72530 -9.8027e+000 -2.3321e+001  9.2614e-001 60142 72671,72230,72204
 1.2000e+000 72507 -1.1887e+001 -3.0038e+001  3.5287e+000 60142 72743,72360,72334
 1.2000e+000 72484 -2.0250e+001 -3.0885e+001  8.6627e+000 60142 72815,72282,72256
 1.2000e+000 72461  1.3298e+000 -2.8786e+001  1.4386e+000 60142 72887,72308,72282
 1.2000e+000 72438 -9.8765e+000 -3.4299e+001  5.1690e-001 60142 72204,72412,72386
 1.2000e+000 72625 -1.4658e+001 -3.3103e+001  1.5178e+000 60142 72815,72256,72599
 1.2000e+000 72648 -1.1510e+001 -3.1132e+001  3.3050e+000 60142 72743,72334,72599
 1.2000e+000 72697 -9.8887e+000 -3.3168e+001  3.8467e+000 60142 72386,72599,72671
 1.2000e+000 72720 -1.2021e+001 -2.9274e+001  1.5609e+000 60142 72386,72671,72204
 1.2000e+000 72769 -9.6347e+000 -3.0749e+001  5.7435e+000 60142 72386,72360,72743
 1.2000e+000 72792 -1.0489e+001 -3.3369e+001  4.3894e+000 60142 72386,72743,72599
 1.2000e+000 72841 -9.7029e+000 -3.3015e+001  6.3114e+000 60142 72887,72282,72815
 1.2000e+000 72864 -1.0299e+001 -2.8422e+001  3.5421e+000 60142 72334,72815,72599
 1.2000e+000 72913 -1.1987e+001 -2.0889e+001 -2.3971e+000 60142 72334,72308,72887
 1.2000e+000 72936 -1.4674e+001 -2.1860e+001  1.0067e+000 60142 72334,72887,72815
 1.2000e+000 73491 -4.0404e+000 -2.1599e+001 -5.8386e+000 59738 73145,73327,73171
 1.2000e+000 73468  2.6789e+000 -1.0565e+001 -2.7108e+000 59738 73119,73327,73145
 1.2000e+000 73445 -3.3330e+000 -1.0825e+001 -1.5845e+000 59738 73171,73327,73301
 1.2000e+000 73422  4.2012e-003 -1.4257e+001  3.7029e-001 59738 73514,73275,73249
 1.2000e+000 73399 -4.1349e+000 -1.5337e+001  1.2009e+000 59738 73586,73514,73249
 1.2000e+000 73376 -4.0402e+000 -9.2053e+000  5.7143e+000 59738 73197,73249,73223
 1.2000e+000 73353 -5.0543e+000 -1.6322e+001  2.7968e+000 59738 73586,73249,73197
 1.2000e+000 73540 -3.6887e+000 -1.7504e+001 -1.0185e+000 59738 73301,73275,73514
 1.2000e+000 73563 -2.4792e+000 -1.3162e+001 -9.5282e-001 59738 73301,73514,73171
 1.2000e+000 73612 -3.6004e+000 -1.2681e+001  1.0850e-001 59738 73171,73514,73586
 1.2000e+000 73635 -3.8562e+000 -1.3796e+001  1.4945e+000 59738 73171,73586,73197
 1.2000e+000 73964 -1.0428e+001 -2.1361e+001  3.0263e+000 59334 73791,73843,73817
 1.2000e+000 73941 -1.4418e+000 -2.0750e+001  3.0358e+000 59334 73791,73869,73843
 1.2000e+000 73918 -7.5924e+000 -3.4353e+001  6.7422e-001 59334 73739,73869,73791
 1.2000e+000 73895  9.5411e+000 -3.9751e+001 -4.2565e-001 59334 73739,73791,73765
 1.2000e+000 74261  1.3987e+000 -2.2261e+001  6.5338e+000 58630 74065,74117,74091
 1.2000e+000 74238 -2.2993e+000 -1.3745e+001  6.4991e+000 58630 74356,74284,74065
 1.2000e+000 74215 -7.2342e-001 -3.5923e+000  4.7338e+000 58630 74284,74013,73987
 1.2000e+000 74192 -2.0193e+000 -1.3425e+001  7.0294e+000 58630 74356,74065,74039
 1.2000e+000 74169  5.9950e-001 -1.5620e+001  4.2360e+000 58630 73987,74143,74117
 1.2000e+000 74310  9.4891e-002 -2.1502e+001  7.7900e+000 58630 74117,74065,74284
 1.2000e+000 74333  2.0709e+000 -1.2245e+001  4.4154e+000 58630 74117,74284,73987
 1.2000e+000 74382 -3.0722e+000 -1.4410e+001  6.0252e+000 58630 74013,74284,74356
 1.2000e+000 74405 -2.8058e+000 -1.4053e+001  6.5589e+000 58630 74013,74356,74039
 1.2000e+000 74815  4.6399e-001 -1.6427e+001 -1.9547e+000 58226 74590,74642,74616
 1.2000e+000 74792 -4.9954e+000 -1.4994e+001  2.3192e+000 58226 74590,74694,74642
 1.2000e+000 74769 -7.4680e+000 -1.6191e+001  2.8210e+000 58226 74590,74720,74694
 1.2000e+000 74746 -1.1708e+001 -1.3109e+001 -1.5982e-001 58226 74642,74694,74668
 1.2000e+000 75014 -2.2671e-001 -1.5819e+001  2.1466e+000 57786 75037,74864,74838
 1.2000e+000 74991  2.3042e-001 -1.0748e+001  3.1292e+000 57786 75037,74838,74916
 1.2000e+000 74968  2.7444e+000 -9.8057e+000  3.2216e+000 57786 74838,74942,74916
 1.2000e+000 75063 -1.7430e-001 -2.1351e+001  5.9294e-001 57786 74890,74864,75037
 1.2000e+000 75086  8.9107e-001 -1.5518e+001  1.6680e+000 57786 74890,75037,74916
 1.2000e+000 75368 -4.1988e+000 -1.0876e+001 -1.0704e+000 57496 75192,75270,75218
 1.2000e+000 75345  4.8627e+000 -6.1663e+000  8.4045e-001 57496 75192,75296,75270
 1.2000e+000 75322 -2.5540e+000 -1.1766e+001  3.4247e-001 57496 75218,75270,75244
 1.2000e+000 75648 -3.3265e+000 -1.2626e+001  6.0857e-001 57206 75472,75550,75498
 1.2000e+000 75625 -2.8624e+000 -9.1512e+000  7.8171e-001 57206 75472,75576,75550
 1.2000e+000 75602  1.2179e+000 -8.6902e+000  2.2304e+000 57206 75671,75550,75524
 1.2000e+000 75697 -4.0776e+000 -1.2932e+001  3.5073e-001 57206 75498,75550,75671
 1.2000e+000 76154 -4.4304e+000 -2.1451e+001 -1.2690e+000 56802 75958,76010,75984
 1.2000e+000 76131 -1.8430e+000 -1.9110e+001 -2.6168e+000 56802 75932,76010,75958
 1.2000e+000 76108 -2.7311e+000 -2.5356e+001 -4.9083e-001 56802 75906,76010,75932
 1.2000e+000 76085 -5.6931e-001 -2.0822e+001  5.8908e-001 56802 75880,76010,75906
 1.2000e+000 76062  8.7658e+000 -1.3878e+001  9.3218e+000 56802 75880,76036,76010
 1.2000e+000 76505 -4.7503e+000 -3.6112e+001 -1.6635e+000 56504 76306,76384,76332
 1.2000e+000 76482 -1.5595e+001 -2.9829e+001 -3.9711e+000 56504 76306,76410,76384
 1.2000e+000 76459 -5.7210e+000 -2.3831e+001  1.0093e+001 56504 76332,76384,76358
 1.2000e+000 76436  7.5391e+000 -1.4294e+001  3.6312e+000 56504 76280,76410,76306
 1.2000e+000 77011 -3.9310e+000 -1.3263e+001 -4.1359e-001 56050 76740,76818,76792
 1.2000e+000 76988 -5.4244e+000 -1.4060e+001  1.6749e-001 56050 76714,76818,76740
 1.2000e+000 76965 -8.0895e+000 -1.4622e+001  8.5855e-001 56050 76688,76818,76714
 1.2000e+000 76942 -7.0385e+000 -1.4660e+001  2.1320e+000 56050 76688,76844,76818
 1.2000e+000 76919 -9.8100e+000 -2.1496e+001  2.3134e+000 56050 76740,76792,76766
 1.2000e+000 76896 -5.4496e+000 -1.5882e+001 -1.2698e-001 56050 76688,76870,76844
 1.2000e+000 77517 -4.7947e+000 -1.2667e+001 -1.2114e+000 55738 77220,77350,77324
 1.2000e+000 77494 -5.0539e+000 -1.3389e+001 -1.7561e+000 55738 77220,77376,77350
 1.2000e+000 77471 -3.1842e+000 -8.5228e+000 -1.4867e+000 55738 77194,77376,77220
 1.2000e+000 77448 -4.7730e+000 -1.5271e+001  2.4882e+000 55738 77220,77298,77246
 1.2000e+000 77425  8.0217e-001 -1.0966e+001 -1.1519e+000 55738 77220,77324,77298
 1.2000e+000 77402  3.5945e+000 -1.1322e+001  6.1525e+000 55738 77246,77298,77272
 1.2000e+000 78064 -6.4181e+000 -3.4765e+001  1.3562e+000 55227 78231,78087,77773
 1.2000e+000 78041 -3.2015e+000 -3.8563e+001 -2.4293e+000 55227 78087,77695,77643
 1.2000e+000 78018 -9.4897e+000 -4.2662e+001  3.8765e+000 55227 78159,77799,77773
 1.2000e+000 77995 -6.1404e+000 -3.1534e+001  1.3251e+000 55227 78231,77773,77721
 1.2000e+000 77972 -8.0427e+000 -2.1257e+001  1.9228e+000 55227 77643,77695,77669
 1.2000e+000 77949  2.7808e-001 -4.0999e+001  8.5826e-001 55227 77643,77877,77851
 1.2000e+000 77926 -1.0001e+001 -4.2875e+001  8.1890e+000 55227 77799,77851,77825
 1.2000e+000 77903 -4.4630e+000 -2.6027e+001 -1.9689e+000 55227 77721,77773,77747
 1.2000e+000 78113 -8.9291e+000 -4.1320e+001  4.1146e+000 55227 78159,77773,78087
 1.2000e+000 78136 -4.2107e+000 -4.1108e+001  8.2521e-001 55227 77851,78087,77643
 1.2000e+000 78185 -1.0768e+001 -4.0233e+001  3.1528e+000 55227 77851,77799,78159
 1.2000e+000 78208 -1.0432e+001 -3.9217e+001  3.3220e+000 55227 77851,78159,78087
 1.2000e+000 78257 -4.1799e+000 -4.0512e+001 -4.4496e-001 55227 77695,78087,78231
 1.2000e+000 78280 -3.1963e+000 -3.6165e+001 -1.0431e+000 55227 77695,78231,77721
 1.2000e+000 78737 -5.2904e+000 -1.8173e+001 -2.8869e+000 54773 78463,78541,78515
 1.2000e+000 78714 -9.4870e+000 -2.2425e+001 -1.1564e+000 54773 78463,78619,78541
 1.2000e+000 78691 -6.7001e+000 -2.0315e+001  2.3056e-001 54773 78463,78515,78489
 1.2000e+000 78668 -1.1777e+001 -1.9755e+001 -3.3957e-001 54773 78541,78593,78567
 1.2000e+000 78645 -9.2380e+000 -2.1961e+001 -1.2913e+000 54773 78541,78619,78593
 1.2000e+000 78838 -5.3750e+000 -4.7091e+001 -4.4233e+000 54211 78760,78812,78786
 1.2000e+000 79297 -1.0233e+001 -3.0176e+001  1.2703e+000 53814 79520,79153,79049
 1.2000e+000 79274 -7.8684e+000 -2.7430e+001 -1.0298e+000 53814 79520,79049,79023
 1.2000e+000 79251 -1.3883e+001 -3.6032e+001  4.8000e+000 53814 79320,79101,79049
 1.2000e+000 79228 -1.0589e+001 -2.7920e+001  1.0796e+000 53814 79320,79049,79153
 1.2000e+000 79205 -5.1471e+000 -4.3322e+001  4.8753e+000 53814 79049,79101,79075
 1.2000e+000 79346 -1.0672e+001 -2.7118e+001 -1.8147e+000 53814 79392,79320,79127
 1.2000e+000 79369 -4.5639e+000 -2.4984e+001 -4.9185e+000 53814 79127,79320,79153
 1.2000e+000 79418 -1.2506e+001 -3.5053e+001 -3.5593e+000 53814 79101,79320,79392
 1.2000e+000 79546 -1.3283e+001 -3.5935e+001  6.5716e+000 53814 79179,79153,79520
 1.2000e+000 79569 -3.2951e+000 -2.9710e+001  3.1068e+000 53814 79179,79520,79023
 1.2000e+000 80075  5.9775e+000 -6.9582e+000  7.7564e+000 53039 80098,79908,79830
 1.2000e+000 80052  8.4918e+000 -3.2030e+000  1.0660e+001 53039 80098,79830,79804
 1.2000e+000 80029  4.0481e+000 -3.5299e+000  6.7601e+000 53039 79752,79934,79804
 1.2000e+000 80006 -6.7034e+000 -1.8823e+001  5.3326e+000 53039 79856,79908,79882
 1.2000e+000 79983 -1.5271e+000 -2.0607e+001  3.8950e+000 53039 79830,79908,79856
 1.2000e+000 79960  9.0545e-001 -2.1005e+000  2.6372e+000 53039 79752,79804,79778
 1.2000e+000 80124  1.1622e+000 -1.2116e+001  2.7188e+000 53039 79934,79908,80098
 1.2000e+000 80147  6.8104e+000 -5.5836e+000  6.1734e+000 53039 79934,80098,79804
 1.2000e+000 80555 -7.1835e+000 -1.9207e+001  2.6162e-001 52699 80356,80434,80408
 1.2000e+000 80532  9.0531e-001 -2.0152e+001 -1.1645e+000 52699 80356,80460,80434
 1.2000e+000 80509  7.5531e+000 -2.2983e+001 -5.3047e+000 52699 80330,80460,80356
 1.2000e+000 80486 -8.8155e+000 -2.1733e+001  1.1281e+000 52699 80356,80408,80382
 1.2000e+000 80776 -7.8001e-001 -1.2285e+001  1.1912e+000 52295 80600,80678,80626
 1.2000e+000 80753  1.1384e+000 -8.6723e+000 -3.1913e-001 52295 80600,80704,80678
 1.2000e+000 80730  1.9579e+000 -1.1428e+001 -1.6577e-001 52295 80626,80678,80652
 1.2000e+000 81156 -1.3370e+001 -2.9016e+001  3.7574e+000 51891 81179,80960,80908
 1.2000e+000 81133 -1.3405e+001 -2.9385e+001  2.6692e+000 51891 81179,80908,81012
 1.2000e+000 81110 -1.7672e+001 -2.9336e+001  2.5288e+000 51891 80882,81012,80908
 1.2000e+000 81087 -8.9060e+000 -3.5565e+001  3.4571e+000 51891 80908,80960,80934
 1.2000e+000 81064 -1.5829e+001 -2.3070e+001  3.9822e+000 51891 80882,81038,81012
 1.2000e+000 81205 -1.2034e+001 -2.8224e+001  4.3174e+000 51891 80986,80960,81179
 1.2000e+000 81228 -1.3012e+001 -2.9115e+001  3.1483e+000 51891 80986,81179,81012
 1.2000e+000 81606 -1.4184e+001 -4.3869e+001 -4.6608e+000 51544 81410,81462,81436
 1.2000e+000 81583 -9.2189e+000 -3.1594e+001 -4.8606e+000 51544 81384,81462,81410
 1.2000e+000 81560 -9.9708e+000 -2.4799e+001 -4.2825e+000 51544 81358,81462,81384
 1.2000e+000 81537 -7.5911e+000 -2.3367e+001 -5.2091e+000 51544 81358,81488,81462
 1.2000e+000 81514 -3.0080e+000 -1.1953e+001 -3.4166e+000 51544 81332,81488,81358
 1.2000e+000 81854 -7.2263e+000 -2.6038e+001  7.4981e-001 51004 81877,81655,81629
 1.2000e+000 81831 -6.5700e+000 -2.5044e+001  4.1831e-001 51004 81877,81629,81759
 1.2000e+000 81808 -1.8204e+000 -2.4898e+001  1.6137e+000 51004 81655,81707,81681
 1.2000e+000 81785 -6.4790e+000 -3.0239e+001  2.1851e-001 51004 81707,81759,81733
 1.2000e+000 81903 -6.5757e+000 -2.6934e+001  1.0484e+000 51004 81707,81655,81877
 1.2000e+000 81926 -6.0488e+000 -2.6332e+001  6.9294e-001 51004 81707,81877,81759
 1.2000e+000 82257 -5.0551e+000 -1.7486e+001 -7.4028e-002 50642 82058,82136,82110
 1.2000e+000 82234 -3.3060e+000 -1.4756e+001 -1.0741e+000 50642 82058,82162,82136
 1.2000e+000 82211 -6.6888e+000 -1.9613e+001  2.4243e+000 50642 82058,82110,82084
 1.2000e+000 82188 -2.2585e+000 -1.4241e+001 -1.9437e+000 50642 82032,82162,82058
 1.2000e+000 82684 -2.4143e+000 -1.8941e+001  2.5831e-001 49931 82779,82707,82465
 1.2000e+000 82661 -3.6182e+000 -2.0855e+001  1.7906e+000 49931 82707,82413,82361
 1.2000e+000 82638 -2.9251e+000 -1.7943e+001 -2.9306e+000 49931 82779,82465,82439
 1.2000e+000 82615 -7.8228e+000 -2.3246e+001  3.4845e+000 49931 82465,82543,82491
 1.2000e+000 82592 -1.6549e+000 -2.0876e+001  4.4558e+000 49931 82361,82413,82387
 1.2000e+000 82569 -4.5847e+000 -1.7413e+001  1.9981e+000 49931 82491,82543,82517
 1.2000e+000 82733 -6.2292e+000 -1.9406e+001  1.0371e+000 49931 82543,82465,82707
 1.2000e+000 82756 -3.9321e+000 -1.5688e+001  2.1878e+000 49931 82543,82707,82361
 1.2000e+000 82805 -4.3425e+000 -2.3456e+001  2.3600e-001 49931 82413,82707,82779
 1.2000e+000 82828 -4.6849e+000 -2.2005e+001 -2.7469e+000 49931 82413,82779,82439
 1.2000e+000 83255 -1.1097e+001 -3.3078e+001 -2.2819e+000 49327 82984,83114,83036
 1.2000e+000 83232 -1.3510e+001 -3.8647e+001 -2.8931e+000 49327 82958,83114,82984
 1.2000e+000 83209 -6.3466e+000 -4.3440e+001  8.9833e-001 49327 83036,83114,83088
 1.2000e+000 83186 -4.7054e+000 -3.2376e+001 -2.6550e+000 49327 82984,83036,83010
 1.2000e+000 83163 -1.6147e+001 -4.2129e+001 -4.5488e+000 49327 82932,83114,82958
 1.2000e+000 83140 -6.5310e-001 -4.0446e+001 -2.9119e+000 49327 83036,83088,83062
 1.2000e+000 83938 -1.0407e+001 -3.4406e+001 -9.7390e-002 48965 83961,83673,83647
 1.2000e+000 83915 -9.1419e+000 -3.0903e+001 -2.1325e-001 48965 83961,83647,83543
 1.2000e+000 83892 -9.9212e+000 -3.2348e+001 -2.3055e+000 48965 83517,83725,83543
 1.2000e+000 83869 -3.5373e+000 -3.2253e+001 -4.7992e+000 48965 83673,83725,83699
 1.2000e+000 83846  7.7954e-001 -2.3729e+001 -3.9004e+000 48965 83543,83647,83621
 1.2000e+000 83823 -5.8807e+000 -2.4038e+001 -1.0060e+000 48965 83543,83621,83569
 1.2000e+000 83800 -1.7533e-001 -2.8024e+001 -1.4949e+000 48965 83517,83751,83725
 1.2000e+000 83777  1.3211e+001 -1.6856e+001 -2.6059e+000 48965 83569,83621,83595
 1.2000e+000 83987 -9.7381e+000 -3.3607e+001 -2.3582e+000 48965 83725,83673,83961
 1.2000e+000 84010 -9.2163e+000 -3.2362e+001 -2.0626e+000 48965 83725,83961,83543
 1.2000e+000 84258 -1.0879e+001 -3.0303e+001  5.4051e+000 48447 84281,84059,84033
 1.2000e+000 84235 -1.1569e+001 -3.1202e+001  2.3727e+000 48447 84281,84033,84163
 1.2000e+000 84212 -1.0299e+001 -2.4709e+001  3.6339e+000 48447 84059,84111,84085
 1.2000e+000 84189 -7.5396e+000 -2.9473e+001  2.6292e+000 48447 84111,84163,84137
 1.2000e+000 84307 -9.1715e+000 -2.9574e+001  5.3145e+000 48447 84111,84059,84281
 1.2000e+000 84330 -7.7686e+000 -2.9598e+001  2.5266e+000 48447 84111,84281,84163
 1.2000e+000 84529 -1.0517e+001 -2.7410e+001  8.8935e-001 47993 84552,84405,84379
 1.2000e+000 84506 -1.3575e+001 -2.8293e+001  1.1914e+000 47993 84552,84379,84353
 1.2000e+000 84483 -8.1053e+000 -2.5988e+001 -1.0411e+000 47993 84624,84457,84431
 1.2000e+000 84578 -1.2655e+001 -2.9534e+001  2.4276e+000 47993 84431,84405,84552
 1.2000e+000 84601 -1.0109e+001 -2.9303e+001  7.5597e-001 47993 84624,84431,84552
 1.2000e+000 84650 -9.7131e+000 -2.3367e+001 -2.5638e+000 47993 84353,84457,84624
 1.2000e+000 84673 -1.0323e+001 -2.3743e+001 -5.7339e-001 47993 84353,84624,84552
 1.2000e+000 85104 -5.2918e+000 -2.5800e+001  3.3428e+000 47588 85199,85127,84885
 1.2000e+000 85081 -3.7870e+000 -2.6899e+001  2.0027e+000 47588 85127,84781,84963
 1.2000e+000 85058 -4.2954e-002 -2.5185e+001 -2.2657e+000 47588 85199,84885,84807
 1.2000e+000 85035 -1.6577e+001 -3.0820e+001  5.1596e+000 47588 84885,84937,84911
 1.2000e+000 85012 -5.4353e+000 -2.5936e+001 -1.3760e+000 47588 84807,84885,84833
 1.2000e+000 84989 -5.5513e+000 -2.5990e+001 -1.5098e+000 47588 84833,84885,84859
 1.2000e+000 85153 -5.3683e+000 -2.9185e+001  4.2336e+000 47588 84937,84885,85127
 1.2000e+000 85176 -5.3089e+000 -2.5647e+001  1.7627e+000 47588 84937,85127,84963
 1.2000e+000 85225  3.8499e+000 -2.3879e+001  3.0243e-001 47588 84781,85127,85199
 1.2000e+000 85248  8.1776e+000 -2.1543e+001 -6.0980e+000 47588 84781,85199,84807
 1.2000e+000 85518 -3.2368e+000 -2.0348e+001  6.1280e-001 47226 85293,85397,85319
 1.2000e+000 85495 -3.3802e+000 -1.9628e+001 -1.5411e-001 47226 85293,85423,85397
 1.2000e+000 85472 -3.9456e+000 -2.1043e+001 -3.2225e-001 47226 85319,85397,85345
 1.2000e+000 85449 -2.3224e+000 -1.9780e+001  5.7398e-001 47226 85345,85397,85371
 1.2000e+000 85849 -4.4220e+000 -2.2963e+001 -3.3720e+000 46572 85624,85702,85650
 1.2000e+000 85826 -7.8303e+000 -2.4449e+001  1.0765e+000 46572 85624,85754,85702
 1.2000e+000 85803 -9.8102e+000 -2.8661e+001 -1.5743e-001 46572 85702,85754,85728
 1.2000e+000 85780 -4.1111e+000 -2.4118e+001  3.6000e-001 46572 85650,85702,85676
 1.2000e+000 86070 -1.6922e+001 -5.2791e+001 -2.7089e+000 46374 85920,85972,85946
 1.2000e+000 86047 -1.1920e+001 -4.0394e+001  5.1243e-001 46374 85920,85998,85972
 1.2000e+000 86024 -1.9682e+000 -3.5271e+001  6.8878e+000 46374 85894,85998,85920
 1.2000e+000 86401 -1.4543e+001 -2.9326e+001  3.2044e+000 46034 86424,86280,86228
 1.2000e+000 86378 -1.6611e+001 -3.2874e+001  1.9259e+000 46034 86424,86228,86176
 1.2000e+000 86355 -1.9455e+001 -3.7078e+001 -5.0906e-001 46034 86176,86228,86202
 1.2000e+000 86332 -4.1595e+000 -2.4884e+001  2.8363e+000 46034 86228,86280,86254
 1.2000e+000 86450 -8.9463e+000 -3.3757e+001  2.5685e+000 46034 86306,86280,86424
 1.2000e+000 86473 -1.3768e+001 -3.8751e+001  1.8728e-001 46034 86306,86424,86176
 1.2000e+000 87058 -7.8809e+000 -3.4331e+001  7.9556e-001 45516 86813,86917,86865
 1.2000e+000 87035 -1.1903e+001 -4.4701e+001  1.5947e-001 45516 86787,86917,86813
 1.2000e+000 87012 -1.0276e+001 -5.2942e+001  2.0275e+000 45516 86735,86917,86787
 1.2000e+000 86989 -4.3662e-001 -3.2593e+001 -2.4746e-002 45516 86865,86917,86891
 1.2000e+000 86966 -4.2263e+000 -3.5106e+001  1.6005e+000 45516 86813,86865,86839
 1.2000e+000 86943 -5.4798e+000 -6.1012e+001 -6.2195e+000 45516 86735,86787,86761
 1.2000e+000 87208 -2.0814e+001 -4.0644e+001  6.9693e+000 45226 87231,87133,87107
 1.2000e+000 87185 -7.8488e+000 -2.8670e+001  2.8260e+000 45226 87081,87159,87133
 1.2000e+000 87257 -8.6697e+000 -3.1334e+001  1.9746e+000 45226 87081,87133,87231
 1.2000e+000 87537 -1.0234e+001 -3.2725e+001  2.4097e-001 44772 87387,87439,87413
 1.2000e+000 87514 -1.0865e+001 -3.5491e+001  4.8003e+000 44772 87361,87439,87387
 1.2000e+000 87491 -1.3458e-001 -3.9334e+001  2.9520e+000 44772 87361,87465,87439
 1.2000e+000 87996 -8.5632e+000 -1.8647e+001  5.7615e-001 44425 87748,87878,87852
 1.2000e+000 87973 -8.6126e-001 -1.5164e+001 -2.8455e+000 44425 87722,87878,87748
 1.2000e+000 87950 -9.2874e-001 -2.2149e+001 -2.5469e+000 44425 87800,87852,87826
 1.2000e+000 87927 -6.6064e+000 -2.0890e+001  9.8049e-001 44425 87748,87852,87800
 1.2000e+000 87904 -2.3391e+000 -2.2972e+001  4.8238e+000 44425 87748,87800,87774
 1.2000e+000 88423 -7.7710e+000 -2.5948e+001 -1.4928e-001 44078 88590,88230,88204
 1.2000e+000 88400 -8.4224e+000 -2.5608e+001  1.2978e+000 44078 88518,88446,88204
 1.2000e+000 88377 -8.6537e+000 -2.6518e+001  8.2889e-002 44078 88446,88126,88282
 1.2000e+000 88354 -8.8395e+000 -2.5279e+001  1.0899e+000 44078 88518,88204,88178
 1.2000e+000 88331 -7.3139e+000 -3.3215e+001  1.3126e+000 44078 88100,88282,88126
 1.2000e+000 88308 -1.0039e+001 -2.4514e+001  1.1594e+001 44078 88126,88178,88152
 1.2000e+000 88472 -7.8038e+000 -2.6275e+001  6.7188e-001 44078 88590,88204,88446
 1.2000e+000 88495 -9.2923e+000 -2.8789e+001 -2.5130e-001 44078 88256,88446,88282
 1.2000e+000 88544 -8.6891e+000 -2.6457e+001  1.1974e+000 44078 88126,88446,88518
 1.2000e+000 88567 -8.8465e+000 -2.5764e+001  1.0588e+000 44078 88126,88518,88178
 1.2000e+000 88616 -1.7425e+001 -3.2302e+001 -4.1213e+000 44078 88256,88230,88590
 1.2000e+000 88639 -9.6312e+000 -2.6987e+001  4.9494e-001 44078 88256,88590,88446
 1.2000e+000 89039 -4.0297e-001 -1.7110e+001 -1.1179e+000 43716 88791,88921,88895
 1.2000e+000 89016  3.2530e+000 -1.7943e+001 -5.9080e-001 43716 88765,88921,88791
 1.2000e+000 88993 -4.0965e+000 -2.1017e+001  6.3068e-001 43716 88817,88895,88869
 1.2000e+000 88970 -1.0146e+001 -2.2130e+001  6.7360e-001 43716 88791,88895,88817
 1.2000e+000 88947 -2.3897e+000 -2.0444e+001  6.1859e-001 43716 88817,88869,88843
 1.2000e+000 89496 -9.1841e+000 -4.5051e+001 -2.9653e+000 43162 89519,89274,89248
 1.2000e+000 89473 -8.4931e+000 -3.8745e+001 -1.7788e+000 43162 89519,89248,89222
 1.2000e+000 89450 -1.4353e+001 -4.3063e+001 -3.7754e+000 43162 89326,89378,89352
 1.2000e+000 89427 -1.1617e+001 -4.4527e+001 -1.6367e+000 43162 89274,89378,89326
 1.2000e+000 89404 -7.3053e+000 -3.2414e+001  1.6748e+000 43162 89274,89326,89300
 1.2000e+000 89545 -9.4879e+000 -3.9448e+001 -1.6275e+000 43162 89378,89274,89519
 1.2000e+000 89568 -8.4098e+000 -3.2656e+001 -3.7128e-001 43162 89378,89519,89222
 1.2000e+000 89946 -5.0345e+000 -2.6829e+001 -6.6405e-001 42594 90041,89969,89750
 1.2000e+000 89923  2.0800e+000 -1.8360e+001 -3.3252e+000 42594 89969,89698,89828
 1.2000e+000 89900 -5.3779e+000 -2.7669e+001 -3.0327e-001 42594 90041,89750,89724
 1.2000e+000 89877 -9.9474e+000 -2.9415e+001  4.1323e+000 42594 89750,89802,89776
 1.2000e+000 89854 -3.3410e+000 -1.3164e+001 -7.0580e+000 42594 89672,89828,89698
 1.2000e+000 89995 -8.4533e+000 -2.1941e+001  2.2084e+000 42594 89802,89750,89969
 1.2000e+000 90018 -7.9052e-001 -1.8811e+001  2.9004e+000 42594 89802,89969,89828
 1.2000e+000 90067 -5.9689e+000 -2.1695e+001 -7.6800e-001 42594 89698,89969,90041
 1.2000e+000 90090 -9.8144e+000 -2.6419e+001  9.6124e-001 42594 89698,90041,89724
 1.2000e+000 90517 -1.3766e+001 -3.8095e+001  3.2518e+000 42140 90540,90220,90194
 1.2000e+000 90494 -1.6805e+001 -4.8971e+001  4.6632e+000 42140 90540,90194,90376
 1.2000e+000 90471 -1.0546e+001 -3.7074e+001  2.2067e+000 42140 90612,90350,90272
 1.2000e+000 90448 -1.2280e+001 -4.0483e+001  1.4630e+000 42140 90272,90350,90298
 1.2000e+000 90425 -8.5479e+000 -3.3717e+001 -4.6443e-001 42140 90298,90350,90324
 1.2000e+000 90402 -1.4374e+001 -3.9859e+001  5.4478e+000 42140 90220,90272,90246
 1.2000e+000 90566 -1.4040e+001 -3.9355e+001  3.0390e+000 42140 90272,90220,90540
 1.2000e+000 90589 -1.1456e+001 -3.9219e+001  1.7414e+000 42140 90612,90272,90540
 1.2000e+000 90638 -1.1302e+001 -3.4466e+001  4.2546e+000 42140 90376,90350,90612
 1.2000e+000 90661 -1.2105e+001 -3.7427e+001  4.4275e+000 42140 90376,90612,90540
 1.2000e+000 91167 -1.3052e+001 -2.5344e+001  9.5304e-001 41636 91190,90870,90844
 1.2000e+000 91144 -1.1906e+001 -2.7232e+001  4.3615e-001 41636 91190,90844,91026
 1.2000e+000 91121 -9.3332e+000 -2.9058e+001 -5.6448e+000 41636 90870,90922,90896
 1.2000e+000 91098 -1.3463e+001 -2.7881e+001  5.0785e+000 41636 90922,91026,90948
 1.2000e+000 91075 -9.7784e+000 -2.1770e+001  2.1351e-001 41636 90948,91026,91000
 1.2000e+000 91052 -8.7036e+000 -2.5625e+001 -1.7314e+000 41636 90948,91000,90974
 1.2000e+000 91216 -1.2167e+001 -2.5430e+001  1.1580e+000 41636 90922,90870,91190
 1.2000e+000 91239 -9.8074e+000 -2.5880e+001  1.3673e+000 41636 90922,91190,91026
 1.2000e+000 91696 -9.0249e+000 -2.2289e+001 -1.1976e+000 40449 91448,91526,91474
 1.2000e+000 91673 -5.6764e+000 -2.1651e+001  2.6995e-001 40449 91448,91578,91526
 1.2000e+000 91650 -2.4311e+000 -2.5350e+001  2.1977e+000 40449 91474,91526,91500
 1.2000e+000 91627 -6.8296e+000 -2.3694e+001 -9.9799e-001 40449 91422,91578,91448
 1.2000e+000 91604 -1.1833e+001 -1.5652e+001  3.0820e-001 40449 91526,91578,91552
 1.2000e+000 92123 -4.3412e+000 -1.8447e+001 -4.4427e-001 39995 92146,91904,91826
 1.2000e+000 92100  1.2406e+000 -1.6521e+001 -3.5693e+000 39995 92146,91826,91800
 1.2000e+000 92077 -5.4982e+000 -2.0462e+001  3.0368e-001 39995 91826,91904,91852
 1.2000e+000 92054 -8.7285e+000 -2.9519e+001  2.8120e+000 39995 91904,91982,91930
 1.2000e+000 92031 -4.0316e+000 -2.0178e+001 -5.2890e-001 39995 91852,91904,91878
 1.2000e+000 92008 -6.5701e+000 -2.0888e+001  2.5900e+000 39995 91930,91982,91956
 1.2000e+000 92172 -6.4767e+000 -1.8857e+001  1.4903e+000 39995 91982,91904,92146
 1.2000e+000 92195 -3.7321e+000 -2.1243e+001 -6.9290e-001 39995 91982,92146,91800
 1.2000e+000 92652 -1.2271e+001 -3.3669e+001  1.5698e-001 39633 92404,92534,92456
 1.2000e+000 92629 -9.2290e+000 -3.2488e+001  1.2561e+000 39633 92378,92534,92404
 1.2000e+000 92606 -8.0583e+000 -3.1826e+001  4.8988e-001 39633 92404,92456,92430
 1.2000e+000 92583 -1.7740e+001 -4.3325e+001  2.3515e+000 39633 92456,92534,92508
 1.2000e+000 92560 -1.0709e+001 -3.5343e+001  5.5442e+000 39633 92456,92508,92482
 1.2000e+000 93079 -1.2141e+001 -2.9048e+001 -8.1731e-001 39093 93102,92808,92756
 1.2000e+000 93056 -1.3758e+001 -3.0250e+001 -2.1156e-001 39093 93102,92756,92938
 1.2000e+000 93033 -1.4248e+001 -3.0587e+001 -1.9749e+000 39093 93174,92912,92834
 1.2000e+000 93010 -1.9974e+001 -2.6153e+001  3.6412e-001 39093 92834,92912,92860
 1.2000e+000 92987 -1.3379e+001 -3.4231e+001 -1.1926e+000 39093 92756,92808,92782
 1.2000e+000 92964 -1.9024e+001 -2.9779e+001 -5.7784e+000 39093 92860,92912,92886
 1.2000e+000 93128 -1.3424e+001 -2.5748e+001 -9.3653e-001 39093 92834,92808,93102
 1.2000e+000 93151 -1.3076e+001 -2.8443e+001 -7.8479e-001 39093 93174,92834,93102
 1.2000e+000 93200 -1.4850e+001 -3.0445e+001 -3.0779e+000 39093 92938,92912,93174
 1.2000e+000 93223 -1.5533e+001 -2.9811e+001 -2.1192e+000 39093 92938,93174,93102
 1.2000e+000 93680 -6.0566e+000 -2.7230e+001  2.1589e+000 38639 93703,93536,93484
 1.2000e+000 93657 -8.5199e+000 -2.6245e+001  2.7663e+000 38639 93703,93484,93432
 1.2000e+000 93634  1.5847e+000 -2.6238e+001  6.9542e+000 38639 93432,93484,93458
 1.2000e+000 93611 -5.9505e+000 -2.8493e+001 -2.0820e+000 38639 93484,93536,93510
 1.2000e+000 93588 -1.1399e+001 -2.2632e+001  2.8305e+000 38639 93406,93562,93432
 1.2000e+000 93729 -8.1607e+000 -2.6503e+001  1.7497e+000 38639 93562,93536,93703
 1.2000e+000 93752 -1.2209e+001 -2.6920e+001  2.9805e+000 38639 93562,93703,93432
 1.2000e+000 94160 -5.2982e+000 -1.6134e+001 -4.9373e+000 38292 93935,94039,93961
 1.2000e+000 94137 -5.2181e+000 -2.1076e+001  1.6022e+000 38292 93935,94065,94039
 1.2000e+000 94114 -1.2327e+001 -2.9860e+001 -1.9605e-001 38292 93961,94013,93987
 1.2000e+000 94091 -1.4006e+001 -2.0001e+001 -1.6663e+000 38292 93961,94039,94013
 1.2000e+000 94408 -6.2108e+000 -2.4845e+001  1.6014e+000 37880 94431,94261,94235
 1.2000e+000 94385 -5.3706e+000 -2.0163e+001  1.9253e+000 37880 94431,94235,94313
 1.2000e+000 94362 -5.0392e+000 -2.3976e+001 -5.1860e-001 37880 94209,94313,94235
 1.2000e+000 94339 -2.3930e+000 -1.9595e+001  2.6768e+000 37880 94183,94313,94209
 1.2000e+000 94457 -7.1587e+000 -2.0302e+001  2.7827e-001 37880 94287,94261,94431
 1.2000e+000 94480 -7.2907e+000 -1.6922e+001  1.2952e+000 37880 94287,94431,94313
 1.2000e+000 94728 -5.0808e+000 -2.0439e+001 -5.7936e-001 37426 94529,94607,94555
 1.2000e+000 94705 -5.3283e+000 -2.3391e+001 -5.6114e-001 37426 94529,94633,94607
 1.2000e+000 94682  2.0196e+000 -2.1895e+001  1.0017e-001 37426 94503,94633,94529
 1.2000e+000 94659 -7.9698e+000 -1.2575e+001 -4.6876e+000 37426 94555,94607,94581
 1.2000e+000 95257 -8.7304e+000 -3.4184e+001  2.3544e+000 36722 95496,95280,94862
 1.2000e+000 95234 -2.9498e+000 -3.1176e+001  6.1085e+000 36722 95496,94862,94836
 1.2000e+000 95211 -7.8478e+000 -2.7954e+001  2.9450e+000 36722 95352,95280,95070
 1.2000e+000 95188 -7.4818e+000 -2.2478e+001  4.6879e+000 36722 95352,95070,95044
 1.2000e+000 95165 -8.4554e+000 -3.2859e+001 -1.2592e+000 36722 95424,94888,94862
 1.2000e+000 95142 -5.6937e+000 -2.6452e+001 -8.8361e-001 36722 94914,94966,94940
 1.2000e+000 95119 -1.1078e+001 -3.0561e+001  3.7078e+000 36722 94966,95044,95018
 1.2000e+000 95096 -1.0355e+001 -3.3544e+001  6.2410e+000 36722 94966,95018,94992
 1.2000e+000 95306 -1.0451e+001 -3.0466e+001 -2.7393e-001 36722 95424,94862,95280
 1.2000e+000 95329 -9.9852e+000 -2.7756e+001 -3.0722e-001 36722 94914,95280,94966
 1.2000e+000 95378 -8.9732e+000 -2.9993e+001  4.3249e-001 36722 94966,95280,95352
 1.2000e+000 95401 -1.0501e+001 -2.7821e+001  2.2075e+000 36722 94966,95352,95044
 1.2000e+000 95450 -1.1813e+001 -3.2732e+001 -2.4266e+000 36722 94914,94888,95424
 1.2000e+000 95473 -1.2432e+001 -3.2058e+001 -1.3591e+000 36722 94914,95424,95280
 1.2000e+000 95522 -9.2639e+000 -3.1753e+001  2.5383e+000 36722 95070,95280,95496
 1.2000e+000 95545 -9.8280e+000 -3.1335e+001  2.8570e+000 36722 95070,95496,94836
 1.2000e+000 96130 -1.6428e+001 -2.6142e+001  4.1966e-001 36268 96153,95911,95859
 1.2000e+000 96107 -1.5926e+001 -3.2774e+001  5.5351e-001 36268 96153,95859,95807
 1.2000e+000 96084 -1.7555e+001 -3.8003e+001 -6.6989e-001 36268 95807,95859,95833
 1.2000e+000 96061 -1.5976e+001 -3.7615e+001  1.1296e+000 36268 95911,95989,95937
 1.2000e+000 96038 -1.1740e+001 -2.4664e+001 -1.9443e+000 36268 95859,95911,95885
 1.2000e+000 96015 -1.5883e+001 -4.1951e+001  3.7663e+000 36268 95937,95989,95963
 1.2000e+000 96179 -1.4522e+001 -3.1575e+001  1.9486e+000 36268 95989,95911,96153
 1.2000e+000 96202 -1.5292e+001 -3.9940e+001  1.9602e+000 36268 95989,96153,95807
 1.2000e+000 96531 -2.3656e+000 -2.7132e+001  1.8630e+000 35728 96358,96410,96384
 1.2000e+000 96508 -8.3952e+000 -2.6944e+001  1.4188e+000 35728 96332,96410,96358
 1.2000e+000 96485 -6.1800e+000 -2.0925e+001  1.6589e+000 35728 96332,96436,96410
 1.2000e+000 96462 -1.3316e+000 -1.5287e+001 -2.4331e+000 35728 96306,96436,96332
 1.2000e+000 96860 -1.1454e+001 -2.7981e+001 -1.9850e-001 35324 96687,96765,96713
 1.2000e+000 96837 -1.3136e+001 -3.2027e+001 -4.1269e-001 35324 96661,96765,96687
 1.2000e+000 96814 -1.4501e+001 -2.6448e+001 -1.2363e+000 35324 96713,96765,96739
 1.2000e+000 96791 -1.3512e+001 -3.5343e+001 -1.3732e+000 35324 96635,96765,96661
 1.2000e+000 97366 -1.2241e+001 -2.8193e+001 -3.0956e+000 34920 97389,97069,97043
 1.2000e+000 97343 -1.0975e+001 -2.7821e+001 -1.8206e+000 34920 97389,97043,97199
 1.2000e+000 97320 -1.1978e+001 -2.4985e+001 -4.4037e-001 34920 97043,97225,97199
 1.2000e+000 97297 -1.0977e+001 -3.6578e+001 -2.5351e+000 34920 97069,97121,97095
 1.2000e+000 97274 -1.8042e+001 -3.0510e+001 -3.5358e+000 34920 97121,97199,97173
 1.2000e+000 97251 -1.8015e+001 -2.8188e+001 -5.3199e+000 34920 97121,97173,97147
 1.2000e+000 97415 -1.3680e+001 -2.8617e+001 -3.9271e+000 34920 97121,97069,97389
 1.2000e+000 97438 -1.2967e+001 -2.7926e+001 -2.4410e+000 34920 97121,97389,97199
 1.2000e+000 97708 -1.0164e+001 -3.6128e+001  2.1461e-001 34722 97509,97587,97535
 1.2000e+000 97685 -5.6199e+000 -3.7327e+001 -4.4228e-001 34722 97509,97613,97587
 1.2000e+000 97662 -1.1851e+001 -4.0701e+001 -1.9209e+000 34722 97483,97613,97509
 1.2000e+000 97639 -1.2553e+001 -3.2064e+001  9.7295e+000 34722 97535,97587,97561
 1.2000e+000 98216 -9.7821e+000 -2.8485e+001  3.4737e+000 34318 97971,98075,97997
 1.2000e+000 98193 -9.8170e+000 -2.3545e+001  7.7576e-001 34318 97893,98075,97971
 1.2000e+000 98170 -8.5881e+000 -2.5148e+001  6.6178e-002 34318 97893,97971,97919
 1.2000e+000 98147 -8.3708e+000 -2.5130e+001  3.1651e+000 34318 97997,98075,98049
 1.2000e+000 98124 -8.2222e+000 -2.4009e+001 -4.9147e-001 34318 97919,97971,97945
 1.2000e+000 98101 -1.0584e+001 -2.9319e+001  5.5666e+000 34318 97997,98049,98023
 1.2000e+000 98594 -1.5258e+001 -3.7152e+001 -5.5780e-001 33814 98961,98617,98424
 1.2000e+000 98571 -1.7068e+001 -3.8940e+001  5.1157e-002 33814 98689,98617,98372
 1.2000e+000 98548 -1.7462e+001 -3.3599e+001 -3.6807e-001 33814 99033,98689,98372
 1.2000e+000 98525 -1.3435e+001 -2.9645e+001  3.7249e+000 33814 98761,98476,98450
 1.2000e+000 98502 -1.6040e+001 -3.5372e+001 -6.5344e-001 33814 98961,98424,98398
 1.2000e+000 98643 -2.0162e+001 -3.9164e+001 -7.5294e-001 33814 98450,98424,98617
 1.2000e+000 98666 -1.6280e+001 -3.3268e+001  1.0475e+000 33814 98761,98450,98617
 1.2000e+000 98715 -2.0393e+001 -3.8185e+001 -1.5870e-001 33814 99161,98689,98320
 1.2000e+000 98738 -1.8394e+001 -4.2540e+001  1.9546e-001 33814 98320,98689,98346
 1.2000e+000 98787 -2.4629e+001 -3.6254e+001  3.4534e+000 33814 98833,98761,98320
 1.2000e+000 98810 -1.9368e+001 -3.8240e+001  5.3925e-001 33814 99161,98320,98761
 1.2000e+000 98859 -1.4865e+001 -2.7398e+001 -2.4353e-001 33814 98476,98761,98833
 1.2000e+000 98987 -1.5219e+001 -3.4539e+001 -9.7386e-001 33814 98372,98617,98961
 1.2000e+000 99010 -1.5296e+001 -3.1810e+001 -1.1154e+000 33814 98372,98961,98398
 1.2000e+000 99059 -2.5248e+001 -4.8814e+001 -5.4400e+000 33814 98346,98689,99033
 1.2000e+000 99187 -1.9639e+001 -3.7772e+001  1.1119e+000 33814 98617,98689,99161
 1.2000e+000 99210 -1.7901e+001 -3.7603e+001  1.7361e+000 33814 98617,99161,98761
 1.2000e+000 99588 -1.0418e+001 -2.3239e+001  1.7755e+000 33566 99366,99444,99392
 1.2000e+000 99565 -6.2600e+000 -2.6632e+001  2.0070e+000 33566 99314,99444,99366
 1.2000e+000 99542 -6.3107e+000 -3.2571e+001 -7.3322e-001 33566 99314,99366,99340
 1.2000e+000 99519 -2.6930e+000 -3.2002e+001  1.1417e+001 33566 99314,99470,99444
 1.2000e+000 99496 -6.2190e+000 -1.9682e+001 -1.4710e+000 33566 99392,99444,99418
 1.2000e+000 99787 -7.9294e+000 -2.4473e+001  3.1463e-001 33105 99637,99689,99663
 1.2000e+000 99764 -2.9070e+000 -2.1454e+001 -1.4563e+000 33105 99611,99689,99637
 1.2000e+000 99741 -5.7214e+000 -1.8304e+001  1.2684e+000 33105 99611,99715,99689
 1.2000e+000 100167 -1.6266e+001 -2.8962e+001  2.6947e+000 32651 100190,99971,99919
 1.2000e+000 100144 -1.1341e+001 -2.6363e+001  1.1112e+000 32651 100262,100190,99919
 1.2000e+000 100121 -1.1135e+001 -2.6176e+001  9.7788e-001 32651 100262,99919,100049
 1.2000e+000 100098 -8.0935e+000 -2.4806e+001 -8.9563e-001 32651 99893,100049,99919
 1.2000e+000 100075 -1.3268e+001 -3.0647e+001  4.9296e+000 32651 99919,99971,99945
 1.2000e+000 100216 -1.1134e+001 -2.8166e+001  1.2910e+000 32651 99997,99971,100190
 1.2000e+000 100239 -1.0098e+001 -2.8186e+001  7.5063e-002 32651 99997,100190,100023
 1.2000e+000 100288 -1.0415e+001 -2.7656e+001  1.1352e+000 32651 100023,100190,100262
 1.2000e+000 100311 -8.1451e+000 -2.6255e+001  3.1435e-001 32651 100023,100262,100049
 1.2000e+000 100608 -4.5063e+000 -2.4541e+001  9.3692e-001 32254 100386,100490,100464
 1.2000e+000 100585 -4.1644e+000 -2.1091e+001  2.5570e-001 32254 100360,100490,100386
 1.2000e+000 100562 -7.5068e+000 -3.1463e+001 -2.9046e+000 32254 100386,100464,100412
 1.2000e+000 100539 -5.1405e-001 -1.9460e+001  5.7390e-001 32254 100334,100490,100360
 1.2000e+000 100516 -4.4384e+000 -1.9389e+001 -3.0218e+000 32254 100412,100464,100438
 1.2000e+000 100758 -9.2273e+000 -1.4457e+001  5.7477e+000 31914 100985,100781,100683
 1.2000e+000 100735 -2.2469e+001 -2.6008e+001  6.1707e+000 31914 100853,100781,100657
 1.2000e+000 100807 -5.0278e+000 -2.3506e+001  2.1949e-001 31914 100709,100683,100781
 1.2000e+000 100830 -9.1771e+000 -2.4933e+001  1.3162e+000 31914 100709,100781,100631
 1.2000e+000 100879 -9.6749e+000 -2.6065e+001  1.2319e+000 31914 100631,100781,100853
 1.2000e+000 101011 -1.3585e+001 -2.3675e+001  4.2529e+000 31914 100657,100781,100985
 1.2000e+000 101191 -6.2408e+000 -2.3899e+001  1.8486e+000 31418 101113,101165,101139
 1.2000e+000 101341 -1.3501e+001 -4.6437e+001 -1.6695e+000 31106 101214,101266,101240
 1.2000e+000 101318 -1.1384e+001 -4.1047e+001 -1.4892e+000 31106 101214,101292,101266
 1.2000e+000 101591 -5.6279e+000 -2.9072e+001 -1.1331e+000 30552 101614,101470,101444
 1.2000e+000 101568 -6.8666e+000 -2.7807e+001  1.6626e+000 30552 101366,101496,101470
 1.2000e+000 101545 -1.0052e+001 -3.1142e+001  2.4959e+000 30552 101614,101444,101392
 1.2000e+000 101522 -9.5612e+000 -2.8982e+001  1.0248e+000 30552 101392,101444,101418
 1.2000e+000 101640 -1.1835e+001 -2.8350e+001  1.4627e+000 30552 101366,101470,101614
 1.2000e+000 101663 -1.5645e+001 -2.9901e+001  5.0479e+000 30552 101366,101614,101392
 1.2000e+000 102301 -1.9606e+001 -4.1324e+001  1.3799e+000 30042 102396,102324,102059
 1.2000e+000 102278 -1.8592e+001 -3.8396e+001 -7.3828e-001 30042 102324,101981,101955
 1.2000e+000 102255 -2.1709e+001 -4.0253e+001  3.3598e+000 30042 102396,102059,102033
 1.2000e+000 102232 -1.2545e+001 -3.0214e+001  2.1124e+000 30042 101929,102111,101955
 1.2000e+000 102209 -1.5715e+001 -3.6119e+001 -4.7344e-001 30042 102059,102111,102085
 1.2000e+000 102186 -5.6032e+000 -2.9578e+001  7.4479e+000 30042 101929,102137,102111
 1.2000e+000 102163 -2.2900e+000 -2.9221e+001  9.4980e-001 30042 101981,102033,102007
 1.2000e+000 102350 -1.6853e+001 -3.9620e+001  4.9391e-003 30042 102111,102059,102324
 1.2000e+000 102373 -1.7360e+001 -3.7597e+001 -1.2848e+000 30042 102111,102324,101955
 1.2000e+000 102422 -1.6449e+001 -3.7377e+001 -4.3095e-002 30042 101981,102324,102396
 1.2000e+000 102445 -1.8675e+001 -3.6356e+001  1.9680e+000 30042 101981,102396,102033
 1.2000e+000 103000 -1.3443e+001 -3.0392e+001 -3.8389e-002 29730 103023,102706,102654
 1.2000e+000 102977 -1.5712e+001 -3.1762e+001  5.6830e-001 29730 103023,102654,102810
 1.2000e+000 102954 -1.6430e+001 -4.1692e+001 -3.5387e+000 29730 102732,102810,102784
 1.2000e+000 102931 -1.8525e+001 -3.3880e+001 -3.7686e-001 29730 102628,102810,102654
 1.2000e+000 102908 -1.4230e+001 -3.1898e+001  2.4860e-001 29730 102654,102706,102680
 1.2000e+000 102885 -1.1060e+001 -3.0043e+001 -2.1729e+000 29730 102732,102784,102758
 1.2000e+000 102862 -2.4254e+001 -3.6961e+001  1.8937e+000 29730 102628,102836,102810
 1.2000e+000 103049 -1.4567e+001 -2.9180e+001 -1.4803e+000 29730 102732,102706,103023
 1.2000e+000 103072 -1.6037e+001 -3.0333e+001 -9.6988e-001 29730 102732,103023,102810
 1.2000e+000 103222 -3.0485e+000 -2.3629e+001 -9.5807e-001 29226 103095,103147,103121
 1.2000e+000 103199 -2.5179e+000 -2.2599e+001 -1.3731e+000 29226 103095,103173,103147
 1.2000e+000 103730 -1.2524e+001 -3.3985e+001 -1.9995e+000 28822 103537,103589,103563
 1.2000e+000 103707 -1.3341e+001 -3.5450e+001 -1.6699e+000 28822 103433,103589,103537
 1.2000e+000 103684 -2.1308e+001 -3.7787e+001 -3.1618e+000 28822 103433,103537,103459
 1.2000e+000 103661 -1.4123e+001 -3.5172e+001 -1.9379e+000 28822 103407,103589,103433
 1.2000e+000 103638 -7.3339e+000 -3.0231e+001  4.5761e+000 28822 103459,103511,103485
 1.2000e+000 103615 -1.2291e+001 -2.5876e+001  2.5345e+000 28822 103459,103537,103511
 1.2000e+000 103880 -8.9514e+000 -3.1394e+001  3.0684e+000 28368 103975,103903,103779
 1.2000e+000 103857 -1.1106e+001 -3.9886e+001  1.0469e+000 28368 103903,103753,103831
 1.2000e+000 103929 -1.1781e+001 -3.4029e+001  1.6946e+000 28368 103805,103779,103903
 1.2000e+000 103952 -8.4245e+000 -3.2082e+001  2.0090e+000 28368 104105,103903,103831
 1.2000e+000 104001 -9.4077e+000 -3.3521e+001 -2.6065e-001 28368 103753,103903,103975
 1.2000e+000 104131 -1.2051e+001 -3.3724e+001  1.6514e+000 28368 103805,103903,104105
 1.2000e+000 104539 -9.6298e+000 -2.2527e+001  5.4633e-001 28028 104562,104340,104314
 1.2000e+000 104516 -1.0119e+001 -1.8517e+001  1.6805e+000 28028 104634,104562,104314
 1.2000e+000 104493 -1.2700e+001 -2.4092e+001 -2.8423e+000 28028 104762,104366,104340
 1.2000e+000 104470 -2.9465e+000 -2.4376e+001 -8.5979e+000 28028 104366,104418,104392
 1.2000e+000 104588 -1.1278e+001 -2.4666e+001 -1.9115e+000 28028 104762,104340,104562
 1.2000e+000 104611 -1.0735e+001 -1.9717e+001 -6.6444e-001 28028 104418,104562,104444
 1.2000e+000 104660 -1.0484e+001 -1.9344e+001  1.4901e+000 28028 104444,104562,104634
 1.2000e+000 104788 -1.1391e+001 -2.3048e+001 -2.3705e+000 28028 104418,104366,104762
 1.2000e+000 104811 -9.7693e+000 -2.3220e+001 -1.3073e+000 28028 104418,104762,104562
 1.2000e+000 105010 -9.6337e+000 -2.7700e+001  5.6636e-001 27324 105033,104886,104860
 1.2000e+000 104987 -1.5299e+001 -2.8319e+001  5.2703e+000 27324 105033,104860,104834
 1.2000e+000 104964 -8.3481e+000 -2.1689e+001 -1.4381e+000 27324 105105,104912,104886
 1.2000e+000 105059 -8.8285e+000 -2.3006e+001 -1.7610e+000 27324 105105,104886,105033
 1.2000e+000 105082 -1.0810e+001 -2.6113e+001  1.6865e+000 27324 104938,105033,104834
 1.2000e+000 105131 -4.8894e+000 -2.2930e+001  1.1301e+000 27324 104938,104912,105105
 1.2000e+000 105154 -6.9284e+000 -2.6561e+001  1.7480e-001 27324 104938,105105,105033
 1.2000e+000 105402 -9.3307e+000 -2.1912e+001  4.6167e-002 27012 105229,105281,105255
 1.2000e+000 105379 -6.3860e+000 -1.9667e+001 -9.3987e-001 27012 105229,105307,105281
 1.2000e+000 105356 -6.5837e+000 -1.9541e+001 -8.8790e-001 27012 105177,105307,105229
 1.2000e+000 105333 -1.4795e+001 -2.6765e+001 -7.3054e+000 27012 105177,105229,105203
 1.2000e+000 105603  3.5713e-002 -1.4214e+001 -1.9763e+000 26508 105626,105453,105427
 1.2000e+000 105580  5.6998e-001 -1.3162e+001  9.5457e-001 26508 105626,105427,105505
 1.2000e+000 105557 -2.1535e+000 -1.1602e+001 -3.6334e-001 26508 105427,105531,105505
 1.2000e+000 105652 -2.0878e+000 -1.5113e+001 -2.2307e+000 26508 105479,105453,105626
 1.2000e+000 105675 -2.3149e+000 -1.4630e+001  4.4607e-001 26508 105479,105626,105505
 1.2000e+000 106057 -1.5847e+001 -2.8909e+001  5.4259e+000 25947 106080,105887,105861
 1.2000e+000 106034 -1.3797e+001 -2.6702e+001  1.2769e+000 25947 106080,105861,105783
 1.2000e+000 106011 -1.4514e+001 -2.3310e+001  8.2049e-001 25947 105783,105835,105809
 1.2000e+000 105988 -1.6526e+001 -2.4060e+001  1.5806e+000 25947 105783,105861,105835
 1.2000e+000 105965 -5.3649e+000 -1.9501e+001 -2.6586e-001 25947 105887,105939,105913
 1.2000e+000 106106 -1.4094e+001 -2.7263e+001  3.0919e+000 25947 105939,105887,106080
 1.2000e+000 106129 -8.5106e+000 -2.2214e+001 -1.5818e+000 25947 105939,106080,105783
 1.2000e+000 106714 -1.7625e+001 -2.5282e+001 -1.2521e+000 25557 106809,106737,106547
 1.2000e+000 106691 -1.6525e+001 -2.6561e+001  9.8223e-001 25557 106737,106417,106391
 1.2000e+000 106668 -1.6537e+001 -2.5399e+001 -1.1929e+000 25557 106809,106547,106495
 1.2000e+000 106645 -2.0089e+001 -3.5121e+001  9.9870e-001 25557 106417,106495,106469
 1.2000e+000 106622 -1.5214e+001 -2.6016e+001 -2.7362e+000 25557 106495,106547,106521
 1.2000e+000 106599 -1.3762e+001 -4.0307e+001  2.8294e+000 25557 106417,106469,106443
 1.2000e+000 106763 -1.9561e+001 -2.4431e+001  4.5099e-001 25557 106573,106547,106737
 1.2000e+000 106786 -1.5240e+001 -2.2802e+001  2.4036e+000 25557 106573,106737,106391
 1.2000e+000 106835 -1.6396e+001 -2.4695e+001 -7.6520e-001 25557 106417,106737,106809
 1.2000e+000 106858 -1.5912e+001 -2.5429e+001 -9.3638e-001 25557 106417,106809,106495
 1.2000e+000 107364 -1.2964e+001 -2.8303e+001 -2.7655e-001 25153 107459,107387,107171
 1.2000e+000 107341 -1.6986e+001 -2.5696e+001 -1.4434e+000 25153 107387,107119,107067
 1.2000e+000 107318 -1.3355e+001 -2.8678e+001 -5.3058e-001 25153 107459,107171,107145
 1.2000e+000 107295 -1.2209e+001 -2.3247e+001 -1.4549e+000 25153 107531,107223,107197
 1.2000e+000 107272 -1.7615e+001 -2.8730e+001 -3.2024e+000 25153 107067,107119,107093
 1.2000e+000 107249 -1.0302e+001 -1.6749e+001 -2.8577e+000 25153 107041,107223,107067
 1.2000e+000 107413 -8.6169e+000 -2.5678e+001 -1.4835e+000 25153 107197,107171,107387
 1.2000e+000 107436 -1.4138e+001 -2.4731e+001 -3.3004e-001 25153 107531,107197,107387
 1.2000e+000 107485 -1.2994e+001 -2.8637e+001 -1.2214e+000 25153 107119,107387,107459
 1.2000e+000 107508 -1.4082e+001 -2.9262e+001 -1.5347e+000 25153 107119,107459,107145
 1.2000e+000 107557 -1.0751e+001 -2.2497e+001 -3.4990e+000 25153 107067,107223,107531
 1.2000e+000 107580 -1.2566e+001 -2.3246e+001 -2.5161e+000 25153 107067,107531,107387
 1.2000e+000 107958 -8.7097e+000 -2.6742e+001  2.4478e-001 24741 107736,107814,107788
 1.2000e+000 107935 -1.1953e+001 -2.7641e+001  4.8216e-001 24741 107736,107840,107814
 1.2000e+000 107912 -1.3398e+001 -2.9490e+001 -1.6981e-001 24741 107684,107840,107736
 1.2000e+000 107889 -7.2334e+000 -3.1388e+001  1.8187e+000 24741 107736,107788,107762
 1.2000e+000 107866 -1.3267e+001 -3.2781e+001 -2.7760e+000 24741 107684,107736,107710
 1.2000e+000 108157 -4.6323e+000 -2.3707e+001  1.4059e+000 24237 108180,108059,108007
 1.2000e+000 108134 -6.9888e+000 -2.2555e+001  3.1753e+000 24237 108180,108007,107981
 1.2000e+000 108111  8.3332e-001 -2.6261e+001  9.8133e-001 24237 108007,108059,108033
 1.2000e+000 108206 -4.1291e+000 -2.1846e+001 -9.5147e-003 24237 108085,108059,108180
 1.2000e+000 108229 -6.4149e+000 -2.0653e+001  1.7560e+000 24237 108085,108180,107981
 1.2000e+000 108658 -1.3978e+001 -3.0795e+001 -1.3287e+000 23776 108361,108413,108387
 1.2000e+000 108635 -1.0146e+001 -2.8821e+001 -2.6452e-001 23776 108753,108681,108361
 1.2000e+000 108612 -3.6692e+000 -2.1089e+001 -5.1826e+000 23776 108681,108465,108439
 1.2000e+000 108589 -9.1794e+000 -3.0055e+001  1.0672e+000 23776 108753,108361,108335
 1.2000e+000 108566 -9.2437e+000 -2.5765e+001  1.4130e+000 23776 108335,108517,108465
 1.2000e+000 108543 -3.0171e+000 -3.0393e+001  5.6069e+000 23776 108465,108517,108491
 1.2000e+000 108707 -1.0986e+001 -2.5646e+001  6.6933e-002 23776 108413,108361,108681
 1.2000e+000 108730 -9.7134e+000 -2.8783e+001 -1.9748e+000 23776 108413,108681,108439
 1.2000e+000 108779 -9.2781e+000 -2.4083e+001 -3.6033e-001 23776 108465,108681,108753
 1.2000e+000 108802 -9.7695e+000 -2.7707e+001  6.0510e-001 23776 108465,108753,108335
 1.2000e+000 109023 -4.2041e+000 -2.2856e+001  1.1564e+000 23414 108873,108925,108899
 1.2000e+000 109000 -6.3920e+000 -2.3711e+001  1.0361e+000 23414 108847,108925,108873
 1.2000e+000 108977 -4.3444e+000 -2.0919e+001 -1.3158e+000 23414 108847,108951,108925
 1.2000e+000 109474 -7.3552e+000 -3.0650e+001  2.8936e+000 23024 109151,109307,109177
 1.2000e+000 109451 -3.3925e+000 -3.6983e+001  2.2381e+000 23024 109151,109333,109307
 1.2000e+000 109428 -1.5540e+001 -3.9024e+001 -1.0346e+000 23024 109177,109281,109203
 1.2000e+000 109405 -2.4451e+001 -4.0386e+001 -1.0857e+000 23024 109177,109307,109281
 1.2000e+000 109382 -1.2656e+001 -3.5962e+001  5.2743e-001 23024 109203,109281,109229
 1.2000e+000 109359 -1.6783e+001 -3.9740e+001 -1.5254e+000 23024 109229,109281,109255
 1.2000e+000 109820 -1.4239e+001 -2.9598e+001  1.6712e+000 22506 109843,109601,109523
 1.2000e+000 109797 -1.2430e+001 -2.9012e+001  1.3908e+000 22506 109843,109523,109497
 1.2000e+000 109774 -1.2553e+001 -3.0525e+001  2.0897e+000 22506 109915,109653,109627
 1.2000e+000 109751 -1.1671e+001 -2.9716e+001  1.2368e+000 22506 109497,109679,109653
 1.2000e+000 109728 -1.5443e+001 -3.2770e+001 -3.5777e+000 22506 109523,109601,109575
 1.2000e+000 109705 -1.3352e+001 -3.9756e+001 -2.5615e+000 22506 109523,109575,109549
 1.2000e+000 109869 -1.2401e+001 -2.8577e+001  2.1273e+000 22506 109627,109601,109843
 1.2000e+000 109892 -1.2365e+001 -2.9910e+001  1.9098e+000 22506 109915,109627,109843
 1.2000e+000 109941 -1.2298e+001 -2.9884e+001  1.6997e+000 22506 109497,109653,109915
 1.2000e+000 109964 -1.2253e+001 -2.9703e+001  1.4942e+000 22506 109497,109915,109843
 1.2000e+000 110163 -1.1871e+001 -2.6758e+001  1.4877e+000 21936 110186,110039,110013
 1.2000e+000 110140 -1.4942e+001 -2.8143e+001  9.9092e-001 21936 110390,110186,110013
 1.2000e+000 110117 -1.5924e+001 -3.0378e+001  7.0564e-001 21936 110390,110013,109987
 1.2000e+000 110212 -1.2614e+001 -2.9545e+001 -1.0704e+000 21936 110065,110039,110186
 1.2000e+000 110235 -9.8645e+000 -2.3636e+001  2.2954e+000 21936 110258,110186,110091
 1.2000e+000 110284 -1.7298e+001 -3.1254e+001 -8.0865e-001 21936 110065,110186,110258
 1.2000e+000 110416 -1.2991e+001 -3.1158e+001  2.2272e+000 21936 110091,110186,110390
 1.2000e+000 110439 -1.4030e+001 -3.3421e+001  1.8359e+000 21936 110091,110390,109987
 1.2000e+000 110709 -1.2044e+001 -3.5140e+001  5.5923e-001 21338 110510,110614,110588
 1.2000e+000 110686 -1.4849e+001 -4.2424e+001 -1.2117e+000 21338 110484,110614,110510
 1.2000e+000 110663 -1.1085e+001 -2.3813e+001 -2.1107e+000 21338 110510,110562,110536
 1.2000e+000 110640 -1.6186e+001 -3.5493e+001 -8.0187e-001 21338 110510,110588,110562
 1.2000e+000 111296 -1.5026e+001 -3.3735e+001 -6.4756e-001 20934 111025,111155,111103
 1.2000e+000 111273 -1.6532e+001 -4.3558e+001 -1.1130e+000 20934 110999,111155,111025
 1.2000e+000 111250 -4.5884e+000 -2.8944e+001 -2.1405e+000 20934 111103,111155,111129
 1.2000e+000 111227 -1.9035e+001 -4.1530e+001 -5.8108e+000 20934 111051,111103,111077
 1.2000e+000 111204 -2.0919e+001 -3.8029e+001 -3.1544e+000 20934 111025,111103,111051
 1.2000e+000 111181 -8.9728e+000 -3.9503e+001  2.2092e+000 20934 110973,111155,110999
 1.2000e+000 111930 -1.7814e+001 -1.8478e+001 -6.8405e+000 20494 111662,111714,111688
 1.2000e+000 111907 -4.1038e+000 -1.6701e+001 -4.9166e+000 20494 111584,111714,111662
 1.2000e+000 111884 -1.2165e+001 -2.4232e+001 -1.5762e+000 20494 111584,111766,111714
 1.2000e+000 111861 -1.1285e+001 -3.2475e+001  1.8724e+000 20494 111584,111636,111610
 1.2000e+000 111838 -1.3586e+001 -2.7110e+001  3.3299e-002 20494 111584,111662,111636
 1.2000e+000 111815 -5.3307e+000 -1.9715e+001  1.3217e+000 20494 111558,111766,111584
 1.2000e+000 111792 -9.4426e+000 -1.9143e+001 -3.9541e+000 20494 111714,111766,111740
 1.2000e+000 112249 -5.0997e+000 -2.5514e+001 -9.9443e-001 19940 111975,112053,112001
 1.2000e+000 112226 -5.8166e+000 -2.7029e+001 -7.9463e-001 19940 111975,112131,112053
 1.2000e+000 112203 -5.1337e+000 -2.7301e+001  0.0000e+000 19940 112053,112105,112079
 1.2000e+000 112180 -6.4668e+000 -2.8823e+001 -6.9891e-001 19940 112053,112131,112105
 1.2000e+000 112157 -1.0291e+001 -2.8185e+001 -5.5914e-002 19940 112001,112053,112027
 1.2000e+000 112757 -9.7785e+000 -3.0196e+001 -3.4765e+000 19486 112780,112538,112486
 1.2000e+000 112734 -1.2006e+001 -3.5004e+001 -1.1859e+000 19486 112780,112486,112460
 1.2000e+000 112711 -1.2765e+001 -3.0018e+001  9.6361e-001 19486 112852,112616,112590
 1.2000e+000 112688 -2.2013e+000 -3.7525e+001 -5.4313e+000 19486 112486,112538,112512
 1.2000e+000 112665 -1.5850e+001 -3.7725e+001 -2.8546e-002 19486 112434,112616,112460
 1.2000e+000 112642 -1.6781e+001 -3.1232e+001 -1.5408e+000 19486 112538,112590,112564
 1.2000e+000 112806 -1.5140e+001 -3.2945e+001 -2.1717e+000 19486 112590,112538,112780
 1.2000e+000 112829 -1.1678e+001 -3.1480e+001  7.6510e-002 19486 112852,112590,112780
 1.2000e+000 112878 -1.2989e+001 -3.2264e+001  1.1062e+000 19486 112460,112616,112852
 1.2000e+000 112901 -1.2281e+001 -3.4284e+001  6.2104e-001 19486 112460,112852,112780
 1.2000e+000 113252 -2.3048e+001 -3.8557e+001 -7.4688e-001 19096 113105,113157,113131
 1.2000e+000 113229 -2.2269e+001 -3.1955e+001 -7.6508e-001 19096 113053,113157,113105
 1.2000e+000 113206 -1.8313e+001 -2.9688e+001  1.7533e-001 19096 113027,113157,113053
 1.2000e+000 113183 -2.7495e+001 -4.0858e+001  1.4095e+000 19096 113053,113105,113079
 1.2000e+000 113451 -7.0617e+000 -2.7019e+001  4.6797e+000 18642 113327,113379,113353
 1.2000e+000 113428 -9.7222e+000 -2.8721e+001  1.1004e-001 18642 113301,113379,113327
 1.2000e+000 113405 -9.9367e+000 -2.5919e+001  1.1688e+000 18642 113275,113379,113301
 1.2000e+000 113699 -1.2972e+001 -3.2488e+001 -1.7580e-001 18138 113474,113552,113526
 1.2000e+000 113676 -1.0828e+001 -3.3673e+001 -1.3017e+000 18138 113474,113578,113552
 1.2000e+000 113653 -1.1369e+001 -3.2530e+001 -1.1547e+000 18138 113474,113604,113578
 1.2000e+000 113630 -1.0294e+001 -3.1316e+001  1.3098e+000 18138 113474,113526,113500
 1.2000e+000 113851 -1.4434e+001 -3.5446e+001 -2.0244e-001 17682 113750,113802,113776
 1.2000e+000 113828 -1.2923e+001 -3.4906e+001  2.8025e-002 17682 113724,113802,113750
 1.2000e+000 114383 -1.4767e+001 -2.4147e+001  1.7555e+000 17106 114086,114242,114164
 1.2000e+000 114360 -1.6731e+001 -2.4443e+001  7.6738e+000 17106 114060,114242,114086
 1.2000e+000 114337 -2.1479e+001 -3.2991e+001  4.7640e+000 17106 114086,114164,114138
 1.2000e+000 114314 -1.2351e+001 -2.0978e+001  1.4624e+000 17106 114190,114242,114216
 1.2000e+000 114291 -1.4242e+001 -2.6539e+001  2.4700e+000 17106 114164,114242,114190
 1.2000e+000 114268 -2.3595e+001 -3.7947e+001  4.2345e+000 17106 114086,114138,114112
 1.2000e+000 114680 -1.1511e+001 -2.9918e+001  5.8401e-001 16766 114703,114432,114406
 1.2000e+000 114657 -1.0702e+001 -2.9457e+001  1.1096e+000 16766 114703,114406,114510
 1.2000e+000 114634 -8.9158e+000 -2.8130e+001 -1.5534e-001 16766 114406,114536,114510
 1.2000e+000 114611 -1.4137e+001 -2.9695e+001 -1.1926e+000 16766 114432,114484,114458
 1.2000e+000 114588 -1.1036e+000 -2.6902e+001  4.8171e+000 16766 114406,114562,114536
 1.2000e+000 114729 -1.4428e+001 -2.9792e+001 -3.0072e-001 16766 114484,114432,114703
 1.2000e+000 114752 -1.2079e+001 -2.8118e+001  4.9384e-001 16766 114484,114703,114510
 1.2000e+000 114902 -9.7067e+000 -2.8408e+001  3.1807e-003 16362 114775,114827,114801
 1.2000e+000 114879  9.9462e+000 -2.1258e+001 -4.4025e+000 16362 114775,114853,114827
 1.2000e+000 115054 -3.0832e+001 -4.7057e+001  4.8805e+000 15908 114953,115005,114979
 1.2000e+000 115031 -3.2589e+001 -4.8085e+001  4.1930e+000 15908 114927,115005,114953
 1.2000e+000 115326 -1.4622e+001 -3.7245e+001  6.2193e+000 15251 115101,115179,115153
 1.2000e+000 115303 -1.3093e+001 -3.4782e+001 -2.1587e-001 15251 115101,115231,115179
 1.2000e+000 115280 -1.3107e+001 -3.4778e+001 -1.9853e-001 15251 115179,115231,115205
 1.2000e+000 115257 -4.8200e+000 -7.5269e+001  2.1370e+001 15251 115101,115153,115127
 1.2000e+000 115429 -1.6401e+001 -3.2846e+001  3.8167e+000 421 115351,115403,115377
 1.3000e+000 66230  1.2091e+001 -1.3487e+001 -3.0800e+000 65954 66152,66204,66178
 1.3000e+000 66429  6.1245e+000 -2.0188e+001 -4.2078e+000 65642 66279,66331,66305
 1.3000e+000 66406  2.1165e+000 -2.8435e+001 -2.9753e+000 65642 66279,66357,66331
 1.3000e+000 66383 -1.1599e+001 -2.5111e+001 -2.2773e+000 65642 66253,66357,66279
 1.3000e+000 66628  1.8549e+000 -4.3416e+001  2.8982e+000 65444 66452,66530,66478
 1.3000e+000 66605  9.7112e-001 -4.2622e+001  3.1573e+000 65444 66452,66556,66530
 1.3000e+000 66582  9.8880e+000 -3.9796e+001  3.0932e-001 65444 66478,66530,66504
 1.3000e+000 67006 -3.2677e+000 -2.2673e+001 -7.3237e-001 65246 66732,66810,66758
 1.3000e+000 66983  2.7963e+000 -1.7300e+001  1.5386e+000 65246 66732,66836,66810
 1.3000e+000 66960 -3.2473e+000 -2.5355e+001 -3.5242e+000 65246 66732,66862,66836
 1.3000e+000 66937 -4.4657e+000 -2.4428e+001 -1.8265e-001 65246 66758,66810,66784
 1.3000e+000 66914  5.5870e-001 -2.3540e+001 -6.5535e+000 65246 66732,66888,66862
 1.3000e+000 67107  8.2444e+000 -9.6073e+000 -2.3795e+000 64934 67029,67081,67055
 1.3000e+000 67306  4.7399e+000 -3.2521e+001  5.5569e+000 64736 67156,67208,67182
 1.3000e+000 67283 -1.1371e+000 -2.9399e+001  5.7342e+000 64736 67130,67208,67156
 1.3000e+000 67260 -5.0720e+000 -4.0135e+001  4.2915e+000 64736 67130,67234,67208
 1.3000e+000 67507 -2.8433e+000 -2.1220e+001 -8.8039e+000 64389 67357,67409,67383
 1.3000e+000 67484  1.3859e+000 -3.4423e+001 -7.0071e+000 64389 67357,67435,67409
 1.3000e+000 67461  4.9471e-001 -3.8359e+001 -5.6845e+000 64389 67331,67435,67357
 1.3000e+000 67708  4.4770e+000 -2.6033e+001  5.6412e+000 63985 67731,67584,67558
 1.3000e+000 67685  1.5249e+000 -1.6300e+001  3.8796e+000 63985 67731,67558,67636
 1.3000e+000 67662  4.1471e+000 -2.0437e+001 -1.9437e+000 63985 67532,67636,67558
 1.3000e+000 67757  3.2927e+000 -3.1068e+001  5.1652e+000 63985 67610,67584,67731
 1.3000e+000 67780 -1.5196e+000 -2.4142e+001  2.9821e+000 63985 67610,67731,67636
 1.3000e+000 67981  4.5220e+000 -1.7057e+001 -9.4994e-001 63787 67857,67909,67883
 1.3000e+000 67958 -3.6394e+000 -1.9374e+001 -5.2777e-002 63787 67831,67909,67857
 1.3000e+000 67935 -5.9173e+000 -2.4801e+001 -6.7880e-001 63787 67805,67909,67831
 1.3000e+000 68231  5.1831e+000 -2.3419e+001  2.2151e-002 63589 68254,68084,68032
 1.3000e+000 68208  5.0267e+000 -2.0640e+001 -5.5833e-002 63589 68254,68032,68006
 1.3000e+000 68185  3.1502e+000 -2.2318e+001 -2.3322e+000 63589 68326,68136,68110
 1.3000e+000 68162  3.9718e+000 -2.5595e+001  5.2188e+000 63589 68032,68084,68058
 1.3000e+000 68280  9.3222e+000 -2.1420e+001 -2.0363e+000 63589 68110,68084,68254
 1.3000e+000 68303  4.2605e+000 -2.1837e+001 -2.1987e+000 63589 68326,68110,68254
 1.3000e+000 68352  2.5392e+000 -2.2206e+001  2.3404e-001 63589 68006,68136,68326
 1.3000e+000 68375  4.2574e+000 -2.1526e+001  3.0131e-001 63589 68006,68326,68254
 1.3000e+000 68836  1.0444e+001 -1.4624e+001 -5.5186e-001 63128 68859,68588,68562
 1.3000e+000 68813 -2.9696e+000 -2.3086e+001  3.7241e+000 63128 68859,68562,68692
 1.3000e+000 68790 -6.9312e+000 -1.7899e+001 -6.2336e+000 63128 68614,68692,68666
 1.3000e+000 68767 -1.1977e+001 -1.8821e+001  3.4512e+000 63128 68562,68718,68692
 1.3000e+000 68744 -4.9002e+000 -1.3570e+001 -8.3390e+000 63128 68614,68666,68640
 1.3000e+000 68885  1.3906e+001 -7.8656e+000 -1.3955e+001 63128 68614,68588,68859
 1.3000e+000 68908  1.2872e+000 -1.6859e+001 -9.5238e+000 63128 68614,68859,68692
 1.3000e+000 69237  6.0289e-001 -1.8695e+001  6.6667e-001 62731 69064,69116,69090
 1.3000e+000 69214 -1.2099e+000 -1.9668e+001  8.2760e-002 62731 69064,69142,69116
 1.3000e+000 69191 -3.5448e+000 -3.4072e+001 -1.0866e+000 62731 69038,69142,69064
 1.3000e+000 69168  2.2256e-001 -2.4531e+001  9.0631e-001 62731 69012,69142,69038
 1.3000e+000 69539 -1.8451e-001  1.3082e+000 -2.1664e-001 62433 69389,69467,69441
 1.3000e+000 69516 -3.9530e-001  4.2385e-001  1.2428e-002 62433 69363,69467,69389
 1.3000e+000 69493 -3.3662e-001 -1.7819e+000  1.3724e+000 62433 69389,69441,69415
 1.3000e+000 69966  1.4676e+001 -2.5724e+001  1.0062e+000 62235 69989,69773,69721
 1.3000e+000 69943 -3.8796e+000 -3.4141e+001 -1.3223e+000 62235 70061,69989,69721
 1.3000e+000 69920 -7.3952e+000 -3.4948e+001 -3.3352e+000 62235 70061,69721,69643
 1.3000e+000 69897  1.2293e+001 -3.0477e+001  2.5403e+000 62235 69721,69773,69747
 1.3000e+000 69874 -1.2995e+001 -5.6398e+001 -7.4294e+000 62235 69643,69721,69695
 1.3000e+000 69851  5.0415e+000 -3.6807e+001  4.4381e+000 62235 69643,69695,69669
 1.3000e+000 70015  2.1941e+001 -2.8359e+001 -1.4887e+001 62235 69799,69773,69989
 1.3000e+000 70038 -4.1029e+000 -3.9210e+001 -1.4595e+001 62235 69799,69989,69825
 1.3000e+000 70087  2.3769e+000 -3.6688e+001 -1.9665e+000 62235 69825,69989,70061
 1.3000e+000 70110 -2.3678e+000 -3.7815e+001 -3.1380e+000 62235 69825,70061,69643
 1.3000e+000 70260 -3.4505e+000 -2.3172e+001  4.4626e+000 62037 70133,70185,70159
 1.3000e+000 70237 -4.1021e+000 -3.7223e+001  6.1436e+000 62037 70133,70211,70185
 1.3000e+000 70640  2.5769e-001 -2.0146e+001  5.3476e+000 61583 70735,70663,70418
 1.3000e+000 70617 -4.9833e+000 -2.9030e+001  6.1909e+000 61583 70663,70366,70522
 1.3000e+000 70594  1.1452e+000 -1.6636e+001  4.4899e+000 61583 70735,70418,70392
 1.3000e+000 70571 -8.1428e-001 -1.7412e+001  9.1542e+000 61583 70418,70496,70444
 1.3000e+000 70548 -9.2927e+000 -8.4841e+000  8.1835e+000 61583 70444,70496,70470
 1.3000e+000 70689 -5.8531e+000 -1.8909e+001  3.6159e+000 61583 70496,70418,70663
 1.3000e+000 70712 -1.1457e+001 -1.7512e+001  5.5029e+000 61583 70496,70663,70522
 1.3000e+000 70761  1.3219e+000 -1.8385e+001  9.5762e-001 61583 70366,70663,70735
 1.3000e+000 70784  1.2634e+000 -1.5350e+001  3.9409e-001 61583 70366,70735,70392
 1.3000e+000 71054  3.9638e+000 -1.6714e+001  5.1206e+000 61313 71077,70881,70855
 1.3000e+000 71031  8.5073e+000 -1.0725e+001  8.3723e+000 61313 71077,70855,70829
 1.3000e+000 71008 -3.5936e+000 -8.4715e+000  5.7481e+000 61313 70829,70959,70933
 1.3000e+000 70985  3.8228e+000 -1.1750e+001 -1.3185e+000 61313 70881,70933,70907
 1.3000e+000 71103 -3.2716e-001 -1.4021e+001  1.1088e+000 61313 70933,70881,71077
 1.3000e+000 71126  3.6931e+000 -1.0726e+001  3.8302e+000 61313 70933,71077,70829
 1.3000e+000 71604 -9.9242e+000 -2.7638e+001 -2.0424e+000 60909 71627,71232,71414
 1.3000e+000 71581 -1.3396e+001 -2.8030e+001 -2.9278e+000 60909 71232,71440,71414
 1.3000e+000 71558 -7.7335e+000 -2.6775e+001 -1.2172e+000 60909 71627,71414,71336
 1.3000e+000 71535  4.6849e+000 -3.6106e+001  1.7092e+000 60909 71362,71414,71388
 1.3000e+000 71512 -1.0533e+001 -3.4161e+001 -1.6507e+000 60909 71336,71414,71362
 1.3000e+000 71489 -4.3767e+000 -2.3457e+001 -1.3748e+000 60909 71258,71336,71310
 1.3000e+000 71466 -9.1248e+000 -2.5633e+001 -6.9030e-001 60909 71258,71310,71284
 1.3000e+000 71653 -1.1147e+001 -2.6203e+001 -1.0214e+000 60909 71258,71232,71627
 1.3000e+000 71676 -9.4401e+000 -2.5829e+001 -7.3987e-001 60909 71258,71627,71336
 1.3000e+000 71875 -2.6089e+000 -2.6616e+001  5.3082e+000 60611 71898,71725,71699
 1.3000e+000 71852 -1.1202e+001 -2.5232e+001  7.7669e+000 60611 71898,71699,71803
 1.3000e+000 71829 -4.3200e-001 -2.4615e+001  3.6343e+000 60611 71970,71751,71725
 1.3000e+000 71924 -6.3249e-001 -2.5367e+001  4.0492e+000 60611 71970,71725,71898
 1.3000e+000 71947 -1.4848e+000 -1.2560e+001  2.7710e+000 60611 71777,71898,71803
 1.3000e+000 71996 -8.4071e-001 -2.5537e+001  3.9294e+000 60611 71777,71751,71970
 1.3000e+000 72019 -1.1082e+000 -2.6010e+001  4.4026e+000 60611 71777,71970,71898
 1.3000e+000 72576 -1.8950e+001 -5.1193e+001  7.6043e+000 60142 72599,72256,72230
 1.3000e+000 72553 -1.3957e+001 -4.0620e+001  6.1299e+000 60142 72671,72599,72230
 1.3000e+000 72530 -1.5041e+001 -3.4978e+001  2.0298e+000 60142 72671,72230,72204
 1.3000e+000 72507 -1.6485e+001 -4.5577e+001  5.3456e+000 60142 72743,72360,72334
 1.3000e+000 72484 -2.8617e+001 -4.5250e+001  1.2952e+001 60142 72815,72282,72256
 1.3000e+000 72461  1.1065e+000 -4.2575e+001  3.1211e+000 60142 72887,72308,72282
 1.3000e+000 72438 -1.2537e+001 -4.8653e+001  4.0474e-001 60142 72204,72412,72386
 1.3000e+000 72625 -2.0763e+001 -4.7081e+001  3.4343e+000 60142 72815,72256,72599
 1.3000e+000 72648 -1.7196e+001 -4.5642e+001  5.2225e+000 60142 72743,72334,72599
 1.3000e+000 72697 -1.5182e+001 -4.6886e+001  5.5873e+000 60142 72386,72599,72671
 1.3000e+000 72720 -1.7724e+001 -4.2216e+001  2.8432e+000 60142 72386,72671,72204
 1.3000e+000 72769 -1.2172e+001 -4.4894e+001  6.6998e+000 60142 72386,72360,72743
 1.3000e+000 72792 -1.5180e+001 -4.6858e+001  5.8515e+000 60142 72386,72743,72599
 1.3000e+000 72841 -1.3895e+001 -4.8346e+001  9.5967e+000 60142 72887,72282,72815
 1.3000e+000 72864 -1.5482e+001 -4.1903e+001  5.6771e+000 60142 72334,72815,72599
 1.3000e+000 72913 -1.7104e+001 -3.2020e+001 -2.1391e+000 60142 72334,72308,72887
 1.3000e+000 72936 -2.0737e+001 -3.3337e+001  2.3517e+000 60142 72334,72887,72815
 1.3000e+000 73491 -5.5857e+000 -3.6026e+001 -9.3837e+000 59738 73145,73327,73171
 1.3000e+000 73468  7.6484e+000 -1.7687e+001 -3.5059e+000 59738 73119,73327,73145
 1.3000e+000 73445 -4.4138e+000 -1.7999e+001 -2.2538e+000 59738 73171,73327,73301
 1.3000e+000 73422 -7.4725e-001 -2.3761e+001  2.9297e-001 59738 73514,73275,73249
 1.3000e+000 73399 -6.4864e+000 -2.5279e+001  1.4503e+000 59738 73586,73514,73249
 1.3000e+000 73376 -5.4027e+000 -1.3673e+001  9.6262e+000 59738 73197,73249,73223
 1.3000e+000 73353 -6.9201e+000 -2.6558e+001  4.3570e+000 59738 73586,73249,73197
 1.3000e+000 73540 -5.5202e+000 -2.9246e+001 -1.9881e+000 59738 73301,73275,73514
 1.3000e+000 73563 -3.7603e+000 -2.1848e+001 -1.6221e+000 59738 73301,73514,73171
 1.3000e+000 73612 -4.8954e+000 -2.0364e+001  6.4768e-001 59738 73171,73514,73586
 1.3000e+000 73635 -4.9843e+000 -2.2278e+001  3.2036e+000 59738 73171,73586,73197
 1.3000e+000 73964 -1.1791e+001 -3.3158e+001  2.9505e+000 59334 73791,73843,73817
 1.3000e+000 73941 -8.5326e-001 -3.2618e+001  2.8631e+000 59334 73791,73869,73843
 1.3000e+000 73918 -9.9853e+000 -5.3382e+001  9.9230e-001 59334 73739,73869,73791
 1.3000e+000 73895  1.6477e+001 -6.4757e+001  8.3094e-002 59334 73739,73791,73765
 1.3000e+000 74261  4.8140e-001 -3.3375e+001  1.0704e+001 58630 74065,74117,74091
 1.3000e+000 74238 -4.3561e+000 -2.2092e+001  8.9514e+000 58630 74356,74284,74065
 1.3000e+000 74215 -6.8751e-002 -7.5536e+000  6.4247e+000 58630 74284,74013,73987
 1.3000e+000 74192 -4.1880e+000 -2.2111e+001  9.5943e+000 58630 74356,74065,74039
 1.3000e+000 74169  3.5322e+000 -2.4511e+001  4.2941e+000 58630 73987,74143,74117
 1.3000e+000 74310  2.1746e-001 -3.2849e+001  1.1328e+001 58630 74117,74065,74284
 1.3000e+000 74333  5.9259e+000 -2.0136e+001  6.4995e+000 58630 74117,74284,73987
 1.3000e+000 74382 -5.3682e+000 -2.2416e+001  9.0083e+000 58630 74013,74284,74356
 1.3000e+000 74405 -5.2518e+000 -2.2472e+001  9.6595e+000 58630 74013,74356,74039
 1.3000e+000 74815  3.1306e+000 -2.2718e+001 -3.7508e+000 58226 74590,74642,74616
 1.3000e+000 74792 -5.4245e+000 -2.2802e+001  2.5052e+000 58226 74590,74694,74642
 1.3000e+000 74769 -8.6264e+000 -2.7675e+001  4.7263e+000 58226 74590,74720,74694
 1.3000e+000 74746 -1.4983e+001 -1.6962e+001 -8.9671e-001 58226 74642,74694,74668
 1.3000e+000 75014  2.2194e+000 -2.4265e+001  2.2938e+000 57786 75037,74864,74838
 1.3000e+000 74991  3.0425e+000 -1.6922e+001  3.5732e+000 57786 75037,74838,74916
 1.3000e+000 74968  5.3146e+000 -1.7238e+001  5.6910e+000 57786 74838,74942,74916
 1.3000e+000 75063  2.5413e+000 -3.2369e+001  4.8179e-002 57786 74890,74864,75037
 1.3000e+000 75086  4.2276e+000 -2.3921e+001  1.4485e+000 57786 74890,75037,74916
 1.3000e+000 75368 -4.2170e+000 -1.7106e+001 -8.2048e-001 57496 75192,75270,75218
 1.3000e+000 75345  9.9413e+000 -9.5689e+000  2.4599e+000 57496 75192,75296,75270
 1.3000e+000 75322 -2.5295e+000 -1.8154e+001  6.5605e-001 57496 75218,75270,75244
 1.3000e+000 75648 -4.1525e+000 -1.9725e+001  4.1283e-001 57206 75472,75550,75498
 1.3000e+000 75625 -2.6487e+000 -1.5179e+001  6.3044e-002 57206 75472,75576,75550
 1.3000e+000 75602  5.8937e+000 -1.1433e+001  3.6254e+000 57206 75671,75550,75524
 1.3000e+000 75697 -4.4647e+000 -1.9829e+001 -7.3910e-002 57206 75498,75550,75671
 1.3000e+000 76154 -4.0667e+000 -2.7973e+001 -2.7384e+000 56802 75958,76010,75984
 1.3000e+000 76131 -1.4682e+000 -2.5868e+001 -4.1265e+000 56802 75932,76010,75958
 1.3000e+000 76108 -2.1247e+000 -3.4803e+001 -2.1910e-001 56802 75906,76010,75932
 1.3000e+000 76085  6.9429e-001 -2.5693e+001  1.4451e+000 56802 75880,76010,75906
 1.3000e+000 76062  1.7448e+001 -1.4482e+001  1.3552e+001 56802 75880,76036,76010
 1.3000e+000 76505 -4.0890e+000 -4.9669e+001 -1.9405e+000 56504 76306,76384,76332
 1.3000e+000 76482 -2.0665e+001 -4.2095e+001 -4.6389e+000 56504 76306,76410,76384
 1.3000e+000 76459 -6.9368e+000 -3.2117e+001  1.5266e+001 56504 76332,76384,76358
 1.3000e+000 76436  1.4424e+001 -1.9520e+001  5.9694e+000 56504 76280,76410,76306
 1.3000e+000 77011 -2.8258e+000 -2.0753e+001 -7.1377e-001 56050 76740,76818,76792
 1.3000e+000 76988 -7.1189e+000 -2.2913e+001  5.1013e-001 56050 76714,76818,76740
 1.3000e+000 76965 -1.1502e+001 -2.4478e+001  1.7609e+000 56050 76688,76818,76714
 1.3000e+000 76942 -9.9971e+000 -2.4202e+001  3.4410e+000 56050 76688,76844,76818
 1.3000e+000 76919 -1.4810e+001 -3.4987e+001  4.4492e+000 56050 76740,76792,76766
 1.3000e+000 76896 -7.0363e+000 -2.6933e+001 -9.3896e-001 56050 76688,76870,76844
 1.3000e+000 77517 -6.5271e+000 -2.0787e+001 -1.5829e+000 55738 77220,77350,77324
 1.3000e+000 77494 -7.2600e+000 -2.2909e+001 -3.1915e+000 55738 77220,77376,77350
 1.3000e+000 77471 -3.8033e+000 -1.4655e+001 -2.4591e+000 55738 77194,77376,77220
 1.3000e+000 77448 -5.6593e+000 -2.3662e+001  4.1740e+000 55738 77220,77298,77246
 1.3000e+000 77425  4.0760e+000 -1.6646e+001 -2.3083e+000 55738 77220,77324,77298
 1.3000e+000 77402  9.7698e+000 -1.6472e+001  9.9922e+000 55738 77246,77298,77272
 1.3000e+000 78064 -6.6451e+000 -4.6142e+001  2.1096e+000 55227 78231,78087,77773
 1.3000e+000 78041 -1.9074e+000 -5.1409e+001 -3.9270e+000 55227 78087,77695,77643
 1.3000e+000 78018 -1.1491e+001 -5.8537e+001  5.8612e+000 55227 78159,77799,77773
 1.3000e+000 77995 -6.1893e+000 -4.1383e+001  2.0399e+000 55227 78231,77773,77721
 1.3000e+000 77972 -9.9007e+000 -2.8087e+001  1.7526e+000 55227 77643,77695,77669
 1.3000e+000 77949  5.1961e+000 -5.5537e+001  1.4050e+000 55227 77643,77877,77851
 1.3000e+000 77926 -1.3596e+001 -6.1290e+001  1.2780e+001 55227 77799,77851,77825
 1.3000e+000 77903 -4.2115e+000 -3.3485e+001 -2.7443e+000 55227 77721,77773,77747
 1.3000e+000 78113 -1.0534e+001 -5.6259e+001  6.2683e+000 55227 78159,77773,78087
 1.3000e+000 78136 -3.5304e+000 -5.5501e+001  1.2185e+000 55227 77851,78087,77643
 1.3000e+000 78185 -1.3785e+001 -5.4491e+001  4.6674e+000 55227 77851,77799,78159
 1.3000e+000 78208 -1.3210e+001 -5.2767e+001  4.9562e+000 55227 77851,78159,78087
 1.3000e+000 78257 -3.4788e+000 -5.4672e+001 -5.7228e-001 55227 77695,78087,78231
 1.3000e+000 78280 -1.9823e+000 -4.8266e+001 -1.4711e+000 55227 77695,78231,77721
 1.3000e+000 78737 -2.7843e+000 -2.0595e+001 -6.7737e+000 54773 78463,78541,78515
 1.3000e+000 78714 -1.0562e+001 -2.9596e+001 -3.2217e+000 54773 78463,78619,78541
 1.3000e+000 78691 -6.2561e+000 -2.6485e+001 -7.0875e-001 54773 78463,78515,78489
 1.3000e+000 78668 -1.4999e+001 -2.3057e+001 -2.6213e+000 54773 78541,78593,78567
 1.3000e+000 78645 -9.0448e+000 -2.7074e+001 -4.3391e+000 54773 78541,78619,78593
 1.3000e+000 78838 -5.1725e+000 -6.1145e+001 -5.8817e+000 54211 78760,78812,78786
 1.3000e+000 79297 -1.3494e+001 -3.9886e+001  6.3523e-001 53814 79520,79153,79049
 1.3000e+000 79274 -9.4853e+000 -3.5751e+001 -2.6299e+000 53814 79520,79049,79023
 1.3000e+000 79251 -1.9118e+001 -5.0511e+001  5.7089e+000 53814 79320,79101,79049
 1.3000e+000 79228 -1.4335e+001 -3.8787e+001  7.2618e-001 53814 79320,79049,79153
 1.3000e+000 79205 -6.6129e+000 -5.8360e+001  6.3689e+000 53814 79049,79101,79075
 1.3000e+000 79346 -1.4484e+001 -3.7813e+001 -3.7393e+000 53814 79392,79320,79127
 1.3000e+000 79369 -5.8319e+000 -3.4623e+001 -8.1260e+000 53814 79127,79320,79153
 1.3000e+000 79418 -1.7878e+001 -4.9411e+001 -6.4587e+000 53814 79101,79320,79392
 1.3000e+000 79546 -1.8333e+001 -4.8944e+001  9.3268e+000 53814 79179,79153,79520
 1.3000e+000 79569 -1.7997e+000 -3.9067e+001  4.2065e+000 53814 79179,79520,79023
 1.3000e+000 80075  1.1101e+001 -9.1839e+000  1.0631e+001 53039 80098,79908,79830
 1.3000e+000 80052  1.4848e+001 -3.8201e+000  1.5264e+001 53039 80098,79830,79804
 1.3000e+000 80029  6.8018e+000 -4.9855e+000  9.3374e+000 53039 79752,79934,79804
 1.3000e+000 80006 -7.3313e+000 -2.7235e+001  7.3668e+000 53039 79856,79908,79882
 1.3000e+000 79983  3.9416e-001 -2.8761e+001  5.1096e+000 53039 79830,79908,79856
 1.3000e+000 79960  3.2026e+000 -4.1535e+000  4.9369e+000 53039 79752,79804,79778
 1.3000e+000 80124  3.5340e+000 -1.6886e+001  3.3346e+000 53039 79934,79908,80098
 1.3000e+000 80147  1.2190e+001 -7.3522e+000  8.7854e+000 53039 79934,80098,79804
 1.3000e+000 80555 -9.3494e+000 -3.0654e+001 -4.0590e-001 52699 80356,80434,80408
 1.3000e+000 80532  3.8066e+000 -2.8446e+001 -3.4769e+000 52699 80356,80460,80434
 1.3000e+000 80509  1.5022e+001 -3.1608e+001 -9.0846e+000 52699 80330,80460,80356
 1.3000e+000 80486 -9.7557e+000 -3.1760e+001 -3.9960e-001 52699 80356,80408,80382
 1.3000e+000 80776  8.2709e-001 -2.0519e+001  2.1571e+000 52295 80600,80678,80626
 1.3000e+000 80753  5.4285e+000 -1.3752e+001 -6.9481e-001 52295 80600,80704,80678
 1.3000e+000 80730  7.1013e+000 -1.8374e+001 -1.4029e-001 52295 80626,80678,80652
 1.3000e+000 81156 -1.7809e+001 -4.3719e+001  5.9156e+000 51891 81179,80960,80908
 1.3000e+000 81133 -1.6931e+001 -4.2404e+001  3.1223e+000 51891 81179,80908,81012
 1.3000e+000 81110 -2.2705e+001 -4.1829e+001  2.6874e+000 51891 80882,81012,80908
 1.3000e+000 81087 -1.0504e+001 -5.6858e+001  4.9644e+000 51891 80908,80960,80934
 1.3000e+000 81064 -2.0143e+001 -3.2312e+001  5.3832e+000 51891 80882,81038,81012
 1.3000e+000 81205 -1.4394e+001 -4.2614e+001  5.2493e+000 51891 80986,80960,81179
 1.3000e+000 81228 -1.5658e+001 -4.2017e+001  2.4147e+000 51891 80986,81179,81012
 1.3000e+000 81606 -1.8868e+001 -6.7386e+001 -1.0411e+001 51544 81410,81462,81436
 1.3000e+000 81583 -1.2043e+001 -4.6676e+001 -8.1035e+000 51544 81384,81462,81410
 1.3000e+000 81560 -1.3543e+001 -3.8162e+001 -7.5418e+000 51544 81358,81462,81384
 1.3000e+000 81537 -1.0455e+001 -3.6410e+001 -8.5369e+000 51544 81358,81488,81462
 1.3000e+000 81514 -2.0064e+000 -1.3741e+001 -5.3132e+000 51544 81332,81488,81358
 1.3000e+000 81854 -6.6856e+000 -3.8087e+001 -2.0360e-001 51004 81877,81655,81629
 1.3000e+000 81831 -6.4429e+000 -3.7675e+001 -3.3525e-001 51004 81877,81629,81759
 1.3000e+000 81808  2.0629e+000 -3.3168e+001  2.1760e+000 51004 81655,81707,81681
 1.3000e+000 81785 -3.7946e+000 -4.4831e+001 -3.4171e+000 51004 81707,81759,81733
 1.3000e+000 81903 -6.3960e+000 -3.8379e+001 -7.1607e-002 51004 81707,81655,81877
 1.3000e+000 81926 -6.2187e+000 -3.8140e+001 -2.1951e-001 51004 81707,81877,81759
 1.3000e+000 82257 -6.0219e+000 -2.8200e+001 -2.8983e-001 50642 82058,82136,82110
 1.3000e+000 82234 -1.8704e+000 -2.3794e+001 -2.0529e+000 50642 82058,82162,82136
 1.3000e+000 82211 -9.3335e+000 -3.2773e+001  4.4057e+000 50642 82058,82110,82084
 1.3000e+000 82188 -5.6891e-001 -2.3096e+001 -3.8718e+000 50642 82032,82162,82058
 1.3000e+000 82684 -7.3354e-001 -2.8966e+001  1.8192e-001 49931 82779,82707,82465
 1.3000e+000 82661 -3.0543e+000 -3.3179e+001  3.0871e+000 49931 82707,82413,82361
 1.3000e+000 82638 -1.0944e+000 -2.6840e+001 -5.8137e+000 49931 82779,82465,82439
 1.3000e+000 82615 -1.0414e+001 -3.7312e+001  5.4869e+000 49931 82465,82543,82491
 1.3000e+000 82592 -5.6359e-002 -3.3185e+001  7.1442e+000 49931 82361,82413,82387
 1.3000e+000 82569 -4.9135e+000 -2.7985e+001  2.9905e+000 49931 82491,82543,82517
 1.3000e+000 82733 -7.6221e+000 -3.0611e+001  1.7678e+000 49931 82543,82465,82707
 1.3000e+000 82756 -3.4450e+000 -2.5111e+001  3.6570e+000 49931 82543,82707,82361
 1.3000e+000 82805 -4.2099e+000 -3.7281e+001  6.3757e-001 49931 82413,82707,82779
 1.3000e+000 82828 -4.5254e+000 -3.4418e+001 -4.9725e+000 49931 82413,82779,82439
 1.3000e+000 83255 -1.2555e+001 -4.7913e+001 -3.9213e+000 49327 82984,83114,83036
 1.3000e+000 83232 -1.4465e+001 -5.2262e+001 -5.0021e+000 49327 82958,83114,82984
 1.3000e+000 83209 -8.4402e+000 -5.9446e+001 -2.9818e-001 49327 83036,83114,83088
 1.3000e+000 83186 -6.0494e+000 -4.6305e+001 -3.7386e+000 49327 82984,83036,83010
 1.3000e+000 83163 -1.7450e+001 -5.5518e+001 -6.5205e+000 49327 82932,83114,82958
 1.3000e+000 83140  4.9985e-001 -6.3368e+001 -8.1255e+000 49327 83036,83088,83062
 1.3000e+000 83938 -1.4338e+001 -4.8827e+001 -4.0269e-002 48965 83961,83673,83647
 1.3000e+000 83915 -1.2162e+001 -4.3798e+001 -5.5453e-001 48965 83961,83647,83543
 1.3000e+000 83892 -1.1149e+001 -4.1414e+001 -2.5418e+000 48965 83517,83725,83543
 1.3000e+000 83869 -4.1925e+000 -4.1925e+001 -6.7224e+000 48965 83673,83725,83699
 1.3000e+000 83846  2.1485e+000 -3.4756e+001 -4.6853e+000 48965 83543,83647,83621
 1.3000e+000 83823 -3.6011e+000 -3.4245e+001 -2.1891e+000 48965 83543,83621,83569
 1.3000e+000 83800  6.4939e+000 -3.3880e+001 -2.1597e+000 48965 83517,83751,83725
 1.3000e+000 83777  7.2890e+000 -2.6765e+001  5.4432e+000 48965 83569,83621,83595
 1.3000e+000 83987 -1.2719e+001 -4.7414e+001 -3.2273e+000 48965 83725,83673,83961
 1.3000e+000 84010 -1.2004e+001 -4.5737e+001 -3.1352e+000 48965 83725,83961,83543
 1.3000e+000 84258 -1.1741e+001 -4.3664e+001  6.6328e+000 48447 84281,84059,84033
 1.3000e+000 84235 -1.2264e+001 -4.3904e+001  2.4625e+000 48447 84281,84033,84163
 1.3000e+000 84212 -1.0475e+001 -3.7343e+001  4.1036e+000 48447 84059,84111,84085
 1.3000e+000 84189 -4.7522e+000 -4.1188e+001  3.0358e+000 48447 84111,84163,84137
 1.3000e+000 84307 -9.1935e+000 -4.2589e+001  5.9113e+000 48447 84111,84059,84281
 1.3000e+000 84330 -7.0089e+000 -4.2026e+001  2.0481e+000 48447 84111,84281,84163
 1.3000e+000 84529 -1.2392e+001 -4.0257e+001  5.2639e-001 47993 84552,84405,84379
 1.3000e+000 84506 -1.9023e+001 -4.2887e+001  2.8277e-001 47993 84552,84379,84353
 1.3000e+000 84483 -8.3379e+000 -3.9646e+001 -1.9619e+000 47993 84624,84457,84431
 1.3000e+000 84578 -1.5204e+001 -4.4108e+001  2.1415e+000 47993 84431,84405,84552
 1.3000e+000 84601 -1.1367e+001 -4.3545e+001  7.2261e-002 47993 84624,84431,84552
 1.3000e+000 84650 -1.0872e+001 -3.6423e+001 -4.2173e+000 47993 84353,84457,84624
 1.3000e+000 84673 -1.2492e+001 -3.7237e+001 -2.1169e+000 47993 84353,84624,84552
 1.3000e+000 85104 -8.4532e+000 -4.1053e+001  5.1588e+000 47588 85199,85127,84885
 1.3000e+000 85081 -5.0690e+000 -4.2804e+001  3.6567e+000 47588 85127,84781,84963
 1.3000e+000 85058 -4.9095e-001 -4.0529e+001 -3.4934e+000 47588 85199,84885,84807
 1.3000e+000 85035 -2.3656e+001 -4.6827e+001  9.7868e+000 47588 84885,84937,84911
 1.3000e+000 85012 -9.9668e+000 -3.9170e+001 -2.6804e+000 47588 84807,84885,84833
 1.3000e+000 84989 -8.0437e+000 -3.8357e+001 -3.0766e+000 47588 84833,84885,84859
 1.3000e+000 85153 -7.8426e+000 -4.6278e+001  7.1955e+000 47588 84937,84885,85127
 1.3000e+000 85176 -5.6399e+000 -4.0854e+001  3.7663e+000 47588 84937,85127,84963
 1.3000e+000 85225  5.6920e+000 -3.7766e+001  1.0205e+000 47588 84781,85127,85199
 1.3000e+000 85248  1.2031e+001 -3.5006e+001 -8.8389e+000 47588 84781,85199,84807
 1.3000e+000 85518 -3.1313e+000 -3.3103e+001  8.8954e-001 47226 85293,85397,85319
 1.3000e+000 85495 -2.5039e+000 -3.2234e+001  2.3056e-001 47226 85293,85423,85397
 1.3000e+000 85472 -3.1027e+000 -3.3556e+001 -1.8539e-001 47226 85319,85397,85345
 1.3000e+000 85449 -6.0414e-001 -2.9716e+001  9.0464e-001 47226 85345,85397,85371
 1.3000e+000 85849 -4.7003e+000 -3.3598e+001 -4.3107e+000 46572 85624,85702,85650
 1.3000e+000 85826 -9.3566e+000 -3.8132e+001  2.3106e-001 46572 85624,85754,85702
 1.3000e+000 85803 -8.8451e+000 -4.1487e+001 -3.2909e-001 46572 85702,85754,85728
 1.3000e+000 85780 -2.1530e+000 -3.4318e+001  8.8615e-001 46572 85650,85702,85676
 1.3000e+000 86070 -3.7813e+001 -6.7686e+001 -2.4120e+000 46374 85920,85972,85946
 1.3000e+000 86047 -3.5622e+001 -6.2083e+001  1.0702e-001 46374 85920,85998,85972
 1.3000e+000 86024 -1.4598e+001 -5.2752e+001  1.3851e+001 46374 85894,85998,85920
 1.3000e+000 86401 -1.7356e+001 -4.1421e+001  3.7869e+000 46034 86424,86280,86228
 1.3000e+000 86378 -1.8962e+001 -4.6854e+001  2.0026e+000 46034 86424,86228,86176
 1.3000e+000 86355 -2.3312e+001 -5.1884e+001 -2.9504e+000 46034 86176,86228,86202
 1.3000e+000 86332 -4.3401e+000 -3.5854e+001  3.2161e+000 46034 86228,86280,86254
 1.3000e+000 86450 -1.1571e+001 -4.7912e+001  3.4359e+000 46034 86306,86280,86424
 1.3000e+000 86473 -1.5971e+001 -5.4569e+001  9.4925e-002 46034 86306,86424,86176
 1.3000e+000 87058 -6.0722e+000 -4.3291e+001  8.9961e-001 45516 86813,86917,86865
 1.3000e+000 87035 -1.2949e+001 -5.9859e+001  1.0031e+000 45516 86787,86917,86813
 1.3000e+000 87012 -1.1120e+001 -6.9775e+001  3.1728e+000 45516 86735,86917,86787
 1.3000e+000 86989  2.7362e+000 -4.2408e+001  4.2155e-001 45516 86865,86917,86891
 1.3000e+000 86966 -3.0700e+000 -4.3823e+001  1.5766e+000 45516 86813,86865,86839
 1.3000e+000 86943 -4.4493e+000 -7.8435e+001 -7.3308e+000 45516 86735,86787,86761
 1.3000e+000 87208 -2.5399e+001 -5.8216e+001  7.9300e+000 45226 87231,87133,87107
 1.3000e+000 87185 -8.5166e+000 -4.1467e+001  3.6947e+000 45226 87081,87159,87133
 1.3000e+000 87257 -7.3722e+000 -4.1427e+001  3.8528e-001 45226 87081,87133,87231
 1.3000e+000 87537 -9.7910e+000 -4.6248e+001  1.0260e+000 44772 87387,87439,87413
 1.3000e+000 87514 -1.1382e+001 -4.9035e+001  4.9268e+000 44772 87361,87439,87387
 1.3000e+000 87491  2.5417e+000 -5.3038e+001  2.3607e+000 44772 87361,87465,87439
 1.3000e+000 87996 -1.0470e+001 -2.9151e+001  1.1112e+000 44425 87748,87878,87852
 1.3000e+000 87973  1.1932e+000 -2.3844e+001 -4.6847e+000 44425 87722,87878,87748
 1.3000e+000 87950  3.0101e+000 -3.3667e+001 -3.6773e+000 44425 87800,87852,87826
 1.3000e+000 87927 -7.9812e+000 -3.2499e+001  1.7670e+000 44425 87748,87852,87800
 1.3000e+000 87904 -1.5255e-001 -3.8107e+001  9.2116e+000 44425 87748,87800,87774
 1.3000e+000 88423 -7.1447e+000 -3.7526e+001 -1.1845e+000 44078 88590,88230,88204
 1.3000e+000 88400 -8.8993e+000 -3.8347e+001  1.7193e+000 44078 88518,88446,88204
 1.3000e+000 88377 -9.6421e+000 -3.8367e+001  4.8837e-002 44078 88446,88126,88282
 1.3000e+000 88354 -9.5600e+000 -3.8393e+001  1.6964e+000 44078 88518,88204,88178
 1.3000e+000 88331 -7.0948e+000 -4.4784e+001  1.9164e+000 44078 88100,88282,88126
 1.3000e+000 88308 -1.1410e+001 -3.5232e+001  1.6712e+001 44078 88126,88178,88152
 1.3000e+000 88472 -7.1567e+000 -3.8043e+001  4.2678e-001 44078 88590,88204,88446
 1.3000e+000 88495 -1.0429e+001 -4.1149e+001 -3.5386e-001 44078 88256,88446,88282
 1.3000e+000 88544 -9.5747e+000 -3.8245e+001  1.3885e+000 44078 88126,88446,88518
 1.3000e+000 88567 -1.0189e+001 -3.8206e+001  1.4800e+000 44078 88126,88518,88178
 1.3000e+000 88616 -2.4360e+001 -4.6489e+001 -8.1993e+000 44078 88256,88230,88590
 1.3000e+000 88639 -1.0695e+001 -3.9498e+001  3.3038e-001 44078 88256,88590,88446
 1.3000e+000 89039  1.9648e+000 -2.6570e+001 -1.6653e+000 43716 88791,88921,88895
 1.3000e+000 89016  6.2231e+000 -3.0111e+001 -1.5873e+000 43716 88765,88921,88791
 1.3000e+000 88993 -3.5701e+000 -3.2172e+001  1.6138e+000 43716 88817,88895,88869
 1.3000e+000 88970 -1.5586e+001 -3.5265e+001  1.1537e+000 43716 88791,88895,88817
 1.3000e+000 88947  1.3497e+000 -2.9651e+001  7.3201e-001 43716 88817,88869,88843
 1.3000e+000 89496 -7.4039e+000 -5.4010e+001 -4.3749e+000 43162 89519,89274,89248
 1.3000e+000 89473 -4.9452e+000 -4.8875e+001 -2.9552e+000 43162 89519,89248,89222
 1.3000e+000 89450 -1.5396e+001 -4.7904e+001 -1.2826e+001 43162 89326,89378,89352
 1.3000e+000 89427 -1.3105e+001 -5.8546e+001 -2.7490e+000 43162 89274,89378,89326
 1.3000e+000 89404 -6.4199e+000 -4.1207e+001  2.0912e+000 43162 89274,89326,89300
 1.3000e+000 89545 -8.8372e+000 -4.8724e+001 -2.2544e+000 43162 89378,89274,89519
 1.3000e+000 89568 -5.9749e+000 -4.3144e+001 -7.1046e-001 43162 89378,89519,89222
 1.3000e+000 89946 -4.7586e+000 -4.1103e+001 -1.3474e+000 42594 90041,89969,89750
 1.3000e+000 89923  5.6521e+000 -2.8771e+001 -5.0904e+000 42594 89969,89698,89828
 1.3000e+000 89900 -5.9326e+000 -4.2062e+001 -9.2979e-001 42594 90041,89750,89724
 1.3000e+000 89877 -1.2478e+001 -4.4771e+001  4.9352e+000 42594 89750,89802,89776
 1.3000e+000 89854 -2.4070e+000 -1.9213e+001 -1.0838e+001 42594 89672,89828,89698
 1.3000e+000 89995 -9.8063e+000 -3.3962e+001  2.8849e+000 42594 89802,89750,89969
 1.3000e+000 90018  1.5596e+000 -2.8921e+001  4.2573e+000 42594 89802,89969,89828
 1.3000e+000 90067 -6.7814e+000 -3.3949e+001 -1.7622e+000 42594 89698,89969,90041
 1.3000e+000 90090 -1.3182e+001 -4.0514e+001  8.3498e-001 42594 89698,90041,89724
 1.3000e+000 90517 -1.6540e+001 -5.2894e+001  4.0522e+000 42140 90540,90220,90194
 1.3000e+000 90494 -1.9736e+001 -6.7558e+001  5.5791e+000 42140 90540,90194,90376
 1.3000e+000 90471 -1.0762e+001 -5.1144e+001  2.8449e+000 42140 90612,90350,90272
 1.3000e+000 90448 -1.4481e+001 -5.7590e+001  1.2378e+000 42140 90272,90350,90298
 1.3000e+000 90425 -8.8805e+000 -4.8449e+001 -2.4198e+000 42140 90298,90350,90324
 1.3000e+000 90402 -1.4954e+001 -5.6020e+001  9.0571e+000 42140 90220,90272,90246
 1.3000e+000 90566 -1.6233e+001 -5.5819e+001  3.8452e+000 42140 90272,90220,90540
 1.3000e+000 90589 -1.2267e+001 -5.4704e+001  1.8968e+000 42140 90612,90272,90540
 1.3000e+000 90638 -1.1939e+001 -4.7010e+001  6.0867e+000 42140 90376,90350,90612
 1.3000e+000 90661 -1.2926e+001 -5.1694e+001  6.1948e+000 42140 90376,90612,90540
 1.3000e+000 91167 -1.4916e+001 -3.7517e+001  2.2009e-001 41636 91190,90870,90844
 1.3000e+000 91144 -1.4558e+001 -4.2573e+001  3.7999e-002 41636 91190,90844,91026
 1.3000e+000 91121 -7.9778e+000 -4.1947e+001 -1.1358e+001 41636 90870,90922,90896
 1.3000e+000 91098 -1.8294e+001 -4.3459e+001  6.7006e+000 41636 90922,91026,90948
 1.3000e+000 91075 -9.0067e+000 -3.3627e+001 -1.8235e-002 41636 90948,91026,91000
 1.3000e+000 91052 -9.2827e+000 -4.2354e+001 -2.0652e+000 41636 90948,91000,90974
 1.3000e+000 91216 -1.4880e+001 -3.6443e+001  3.9501e-001 41636 90922,90870,91190
 1.3000e+000 91239 -1.1969e+001 -3.8138e+001  1.1591e+000 41636 90922,91190,91026
 1.3000e+000 91696 -1.2022e+001 -3.6017e+001 -2.2614e+000 40449 91448,91526,91474
 1.3000e+000 91673 -7.2983e+000 -3.5750e+001  1.1112e+000 40449 91448,91578,91526
 1.3000e+000 91650  1.1449e+000 -3.7692e+001  4.3333e+000 40449 91474,91526,91500
 1.3000e+000 91627 -1.0318e+001 -4.0589e+001 -1.8390e+000 40449 91422,91578,91448
 1.3000e+000 91604 -1.6590e+001 -2.7085e+001  1.2413e+000 40449 91526,91578,91552
 1.3000e+000 92123 -4.3650e+000 -2.8835e+001 -5.8085e-001 39995 92146,91904,91826
 1.3000e+000 92100  4.6853e+000 -2.5841e+001 -6.5336e+000 39995 92146,91826,91800
 1.3000e+000 92077 -6.4001e+000 -3.0649e+001  1.8326e-001 39995 91826,91904,91852
 1.3000e+000 92054 -1.1698e+001 -4.7410e+001  3.8344e+000 39995 91904,91982,91930
 1.3000e+000 92031  4.5072e-001 -2.8690e+001 -2.0768e+000 39995 91852,91904,91878
 1.3000e+000 92008 -7.0474e+000 -3.3653e+001  2.7071e+000 39995 91930,91982,91956
 1.3000e+000 92172 -7.6421e+000 -3.0245e+001  2.1402e+000 39995 91982,91904,92146
 1.3000e+000 92195 -3.5283e+000 -3.5216e+001 -2.1267e+000 39995 91982,92146,91800
 1.3000e+000 92652 -1.2699e+001 -4.2353e+001 -4.1494e-001 39633 92404,92534,92456
 1.3000e+000 92629 -9.8942e+000 -4.2545e+001  4.9284e-001 39633 92378,92534,92404
 1.3000e+000 92606 -5.6426e+000 -3.9257e+001  2.0311e-001 39633 92404,92456,92430
 1.3000e+000 92583 -2.0967e+001 -5.7946e+001  2.6492e+000 39633 92456,92534,92508
 1.3000e+000 92560 -1.1245e+001 -4.5103e+001  6.9635e+000 39633 92456,92508,92482
 1.3000e+000 93079 -1.4773e+001 -4.0338e+001 -2.1335e+000 39093 93102,92808,92756
 1.3000e+000 93056 -1.5697e+001 -4.0905e+001 -1.8874e+000 39093 93102,92756,92938
 1.3000e+000 93033 -1.7548e+001 -4.2664e+001 -1.7677e+000 39093 93174,92912,92834
 1.3000e+000 93010 -2.3708e+001 -3.8178e+001  6.1393e-001 39093 92834,92912,92860
 1.3000e+000 92987 -1.4618e+001 -4.8544e+001 -4.6675e+000 39093 92756,92808,92782
 1.3000e+000 92964 -2.2750e+001 -4.7990e+001 -1.1909e+001 39093 92860,92912,92886
 1.3000e+000 93128 -1.5661e+001 -3.6742e+001 -2.0988e+000 39093 92834,92808,93102
 1.3000e+000 93151 -1.6467e+001 -4.0248e+001 -1.5082e+000 39093 93174,92834,93102
 1.3000e+000 93200 -1.7426e+001 -4.2036e+001 -3.3856e+000 39093 92938,92912,93174
 1.3000e+000 93223 -1.7142e+001 -4.0976e+001 -3.2994e+000 39093 92938,93174,93102
 1.3000e+000 93680 -3.7503e+000 -3.5512e+001  2.5779e+000 38639 93703,93536,93484
 1.3000e+000 93657 -7.2474e+000 -3.4663e+001  3.5032e+000 38639 93703,93484,93432
 1.3000e+000 93634  6.4692e+000 -3.5742e+001  1.0457e+001 38639 93432,93484,93458
 1.3000e+000 93611 -4.4232e+000 -3.9082e+001 -3.0042e+000 38639 93484,93536,93510
 1.3000e+000 93588 -1.1890e+001 -2.7484e+001  4.0714e+000 38639 93406,93562,93432
 1.3000e+000 93729 -6.8870e+000 -3.3037e+001  2.1820e+000 38639 93562,93536,93703
 1.3000e+000 93752 -1.3372e+001 -3.5162e+001  4.3191e+000 38639 93562,93703,93432
 1.3000e+000 94160 -5.1757e+000 -2.4390e+001 -7.0412e+000 38292 93935,94039,93961
 1.3000e+000 94137 -4.1725e+000 -2.9823e+001  2.9635e+000 38292 93935,94065,94039
 1.3000e+000 94114 -2.5283e+001 -2.9466e+001 -5.1520e+000 38292 93961,94013,93987
 1.3000e+000 94091 -1.9089e+001 -2.7874e+001 -2.0085e+000 38292 93961,94039,94013
 1.3000e+000 94408 -5.2480e+000 -3.4274e+001  2.1811e+000 37880 94431,94261,94235
 1.3000e+000 94385 -4.7379e+000 -2.9196e+001  2.3504e+000 37880 94431,94235,94313
 1.3000e+000 94362 -4.1696e+000 -3.3130e+001 -4.8277e-001 37880 94209,94313,94235
 1.3000e+000 94339 -2.1148e+000 -3.0923e+001  4.0252e+000 37880 94183,94313,94209
 1.3000e+000 94457 -5.5600e+000 -2.9390e+001  6.8976e-001 37880 94287,94261,94431
 1.3000e+000 94480 -6.3844e+000 -2.5899e+001  1.6689e+000 37880 94287,94431,94313
 1.3000e+000 94728 -3.5262e+000 -2.9901e+001 -1.0652e+000 37426 94529,94607,94555
 1.3000e+000 94705 -5.1036e+000 -3.7942e+001 -5.7783e-001 37426 94529,94633,94607
 1.3000e+000 94682  8.6662e+000 -3.6766e+001 -4.8239e-002 37426 94503,94633,94529
 1.3000e+000 94659 -7.7007e+000 -1.4640e+001 -8.9553e+000 37426 94555,94607,94581
 1.3000e+000 95257 -8.7727e+000 -4.5262e+001  1.2786e+000 36722 95496,95280,94862
 1.3000e+000 95234 -8.8613e-001 -4.1328e+001  5.2175e+000 36722 95496,94862,94836
 1.3000e+000 95211 -6.5355e+000 -3.7770e+001  2.8160e+000 36722 95352,95280,95070
 1.3000e+000 95188 -5.4596e+000 -2.9463e+001  4.8802e+000 36722 95352,95070,95044
 1.3000e+000 95165 -7.3066e+000 -4.5652e+001 -3.8168e+000 36722 95424,94888,94862
 1.3000e+000 95142 -2.6374e+000 -3.4967e+001 -6.5121e-001 36722 94914,94966,94940
 1.3000e+000 95119 -1.1510e+001 -5.4066e+001  1.2718e+001 36722 94966,95044,95018
 1.3000e+000 95096 -1.1248e+001 -5.0629e+001  1.1301e+001 36722 94966,95018,94992
 1.3000e+000 95306 -1.0870e+001 -4.0550e+001 -2.0403e+000 36722 95424,94862,95280
 1.3000e+000 95329 -1.0459e+001 -3.8665e+001 -1.6827e+000 36722 94914,95280,94966
 1.3000e+000 95378 -7.2001e+000 -4.0580e+001 -1.1938e+000 36722 94966,95280,95352
 1.3000e+000 95401 -9.0941e+000 -3.7559e+001  1.0891e+000 36722 94966,95352,95044
 1.3000e+000 95450 -1.3318e+001 -4.4927e+001 -6.3857e+000 36722 94914,94888,95424
 1.3000e+000 95473 -1.4554e+001 -4.3716e+001 -4.3145e+000 36722 94914,95424,95280
 1.3000e+000 95522 -9.5154e+000 -4.2493e+001  1.5441e+000 36722 95070,95280,95496
 1.3000e+000 95545 -1.0019e+001 -4.2197e+001  1.7818e+000 36722 95070,95496,94836
 1.3000e+000 96130 -2.0051e+001 -3.5873e+001  8.4825e-001 36268 96153,95911,95859
 1.3000e+000 96107 -2.0144e+001 -4.4407e+001  7.0934e-001 36268 96153,95859,95807
 1.3000e+000 96084 -2.2303e+001 -5.3548e+001 -3.0508e+000 36268 95807,95859,95833
 1.3000e+000 96061 -2.2403e+001 -5.5317e+001  4.1885e+000 36268 95911,95989,95937
 1.3000e+000 96038 -1.6781e+001 -3.5058e+001 -1.8049e+000 36268 95859,95911,95885
 1.3000e+000 96015 -1.7344e+001 -5.4532e+001  4.2836e+000 36268 95937,95989,95963
 1.3000e+000 96179 -1.6861e+001 -4.3099e+001  2.8206e+000 36268 95989,95911,96153
 1.3000e+000 96202 -1.8619e+001 -5.3937e+001  2.4527e+000 36268 95989,96153,95807
 1.3000e+000 96531  9.7020e-001 -4.0061e+001  2.8023e+000 35728 96358,96410,96384
 1.3000e+000 96508 -9.4687e+000 -4.2229e+001  3.3280e+000 35728 96332,96410,96358
 1.3000e+000 96485 -4.5084e+000 -3.1638e+001  2.0038e+000 35728 96332,96436,96410
 1.3000e+000 96462  1.1526e+000 -2.4160e+001 -3.6901e+000 35728 96306,96436,96332
 1.3000e+000 96860 -1.2559e+001 -3.8807e+001 -1.7298e+000 35324 96687,96765,96713
 1.3000e+000 96837 -1.7089e+001 -4.9147e+001 -1.0062e+000 35324 96661,96765,96687
 1.3000e+000 96814 -1.9418e+001 -4.1025e+001 -1.0156e+000 35324 96713,96765,96739
 1.3000e+000 96791 -1.8000e+001 -5.7211e+001 -3.3473e+000 35324 96635,96765,96661
 1.3000e+000 97366 -1.6170e+001 -4.3648e+001 -2.9726e+000 34920 97389,97069,97043
 1.3000e+000 97343 -1.4707e+001 -4.1635e+001 -2.1267e+000 34920 97389,97043,97199
 1.3000e+000 97320 -1.4869e+001 -4.0928e+001 -1.8515e+000 34920 97043,97225,97199
 1.3000e+000 97297 -1.2741e+001 -5.3972e+001 -4.5014e+000 34920 97069,97121,97095
 1.3000e+000 97274 -2.3854e+001 -4.2029e+001 -5.8973e+000 34920 97121,97199,97173
 1.3000e+000 97251 -2.1482e+001 -3.6873e+001 -9.3668e+000 34920 97121,97173,97147
 1.3000e+000 97415 -1.8230e+001 -4.3862e+001 -5.9199e+000 34920 97121,97069,97389
 1.3000e+000 97438 -1.6114e+001 -3.9521e+001 -4.8989e+000 34920 97121,97389,97199
 1.3000e+000 97708 -1.0512e+001 -4.7809e+001 -2.6481e-001 34722 97509,97587,97535
 1.3000e+000 97685 -9.6083e-001 -5.0120e+001 -1.6861e+000 34722 97509,97613,97587
 1.3000e+000 97662 -1.4328e+001 -5.7284e+001 -4.7416e+000 34722 97483,97613,97509
 1.3000e+000 97639 -1.1622e+001 -4.0049e+001  1.5223e+001 34722 97535,97587,97561
 1.3000e+000 98216 -1.1278e+001 -4.3910e+001  5.1863e+000 34318 97971,98075,97997
 1.3000e+000 98193 -1.1738e+001 -3.8564e+001  1.6728e+000 34318 97893,98075,97971
 1.3000e+000 98170 -8.5820e+000 -3.7864e+001  9.8322e-002 34318 97893,97971,97919
 1.3000e+000 98147 -9.2319e+000 -3.9887e+001  4.4780e+000 34318 97997,98075,98049
 1.3000e+000 98124 -7.0236e+000 -3.3075e+001 -2.2463e+000 34318 97919,97971,97945
 1.3000e+000 98101 -1.0964e+001 -4.2638e+001  7.6144e+000 34318 97997,98049,98023
 1.3000e+000 98594 -1.8630e+001 -4.9375e+001 -6.5260e-001 33814 98961,98617,98424
 1.3000e+000 98571 -2.0195e+001 -5.1810e+001  2.4712e-001 33814 98689,98617,98372
 1.3000e+000 98548 -2.0402e+001 -4.2048e+001 -6.7544e-001 33814 99033,98689,98372
 1.3000e+000 98525 -1.4602e+001 -3.6763e+001  5.6354e+000 33814 98761,98476,98450
 1.3000e+000 98502 -2.0204e+001 -4.6753e+001 -9.3030e-001 33814 98961,98424,98398
 1.3000e+000 98643 -2.5278e+001 -5.2568e+001 -1.5969e+000 33814 98450,98424,98617
 1.3000e+000 98666 -1.9403e+001 -4.3025e+001  9.7113e-001 33814 98761,98450,98617
 1.3000e+000 98715 -2.5058e+001 -5.0149e+001 -3.6487e-001 33814 99161,98689,98320
 1.3000e+000 98738 -2.4389e+001 -5.7712e+001  8.6514e-001 33814 98320,98689,98346
 1.3000e+000 98787 -3.1234e+001 -4.6832e+001  4.4870e+000 33814 98833,98761,98320
 1.3000e+000 98810 -2.3737e+001 -4.9944e+001  1.0822e-001 33814 99161,98320,98761
 1.3000e+000 98859 -1.7520e+001 -3.5049e+001 -5.3269e-001 33814 98476,98761,98833
 1.3000e+000 98987 -1.7738e+001 -4.5938e+001 -1.4070e+000 33814 98372,98617,98961
 1.3000e+000 99010 -1.8354e+001 -4.2029e+001 -1.8591e+000 33814 98372,98961,98398
 1.3000e+000 99059 -3.2631e+001 -6.6475e+001 -7.8069e+000 33814 98346,98689,99033
 1.3000e+000 99187 -2.4250e+001 -5.0425e+001  1.6319e+000 33814 98617,98689,99161
 1.3000e+000 99210 -2.1727e+001 -4.9732e+001  1.9537e+000 33814 98617,99161,98761
 1.3000e+000 99588 -1.0611e+001 -3.0218e+001  2.1812e+000 33566 99366,99444,99392
 1.3000e+000 99565 -3.8094e+000 -3.4939e+001  2.7168e+000 33566 99314,99444,99366
 1.3000e+000 99542 -3.6342e+000 -4.4041e+001 -1.8063e+000 33566 99314,99366,99340
 1.3000e+000 99519  1.9083e+000 -4.2642e+001  1.6543e+001 33566 99314,99470,99444
 1.3000e+000 99496 -7.1347e+000 -2.7253e+001 -4.9892e-001 33566 99392,99444,99418
 1.3000e+000 99787 -6.6507e+000 -3.6953e+001  1.4314e-001 33105 99637,99689,99663
 1.3000e+000 99764 -1.0409e+000 -3.3507e+001 -1.9610e+000 33105 99611,99689,99637
 1.3000e+000 99741 -4.9216e+000 -2.9703e+001  1.6905e+000 33105 99611,99715,99689
 1.3000e+000 100167 -1.9836e+001 -4.0776e+001  4.5029e+000 32651 100190,99971,99919
 1.3000e+000 100144 -1.2990e+001 -3.6170e+001  2.1347e+000 32651 100262,100190,99919
 1.3000e+000 100121 -1.3070e+001 -3.5690e+001  1.5390e+000 32651 100262,99919,100049
 1.3000e+000 100098 -7.3924e+000 -3.3119e+001 -2.2480e+000 32651 99893,100049,99919
 1.3000e+000 100075 -1.2949e+001 -4.3014e+001  9.3868e+000 32651 99919,99971,99945
 1.3000e+000 100216 -1.2642e+001 -3.9996e+001  2.1026e+000 32651 99997,99971,100190
 1.3000e+000 100239 -1.1402e+001 -3.9851e+001  7.1545e-001 32651 99997,100190,100023
 1.3000e+000 100288 -1.1698e+001 -3.9190e+001  1.9764e+000 32651 100023,100190,100262
 1.3000e+000 100311 -8.2041e+000 -3.6532e+001 -8.2546e-002 32651 100023,100262,100049
 1.3000e+000 100608 -3.1234e+000 -3.8170e+001  2.5548e-001 32254 100386,100490,100464
 1.3000e+000 100585 -1.1464e+000 -3.3242e+001  6.4138e-001 32254 100360,100490,100386
 1.3000e+000 100562 -3.4179e+000 -4.6059e+001 -4.4719e+000 32254 100386,100464,100412
 1.3000e+000 100539  5.7177e+000 -3.0985e+001 -4.6184e-001 32254 100334,100490,100360
 1.3000e+000 100516 -2.7583e+000 -2.6852e+001 -7.8587e+000 32254 100412,100464,100438
 1.3000e+000 100758 -7.7677e+000 -1.8079e+001  8.0861e+000 31914 100985,100781,100683
 1.3000e+000 100735 -2.5082e+001 -3.3337e+001  5.3214e+000 31914 100853,100781,100657
 1.3000e+000 100807 -5.5789e+000 -3.2385e+001  2.9638e+000 31914 100709,100683,100781
 1.3000e+000 100830 -3.6249e+000 -3.1888e+001  1.8434e+000 31914 100709,100781,100631
 1.3000e+000 100879 -5.2875e+000 -2.9969e+001 -2.4453e+000 31914 100631,100781,100853
 1.3000e+000 101011 -1.5574e+001 -3.0005e+001  4.6550e+000 31914 100657,100781,100985
 1.3000e+000 101191 -5.9990e+000 -4.0821e+001  3.8196e+000 31418 101113,101165,101139
 1.3000e+000 101341 -1.0773e+001 -5.7988e+001 -2.5115e+000 31106 101214,101266,101240
 1.3000e+000 101318 -1.1795e+001 -6.0685e+001 -2.6613e+000 31106 101214,101292,101266
 1.3000e+000 101591 -7.4625e+000 -4.0721e+001  1.3214e+000 30552 101614,101470,101444
 1.3000e+000 101568 -5.5532e+000 -3.6613e+001  2.8016e+000 30552 101366,101496,101470
 1.3000e+000 101545 -1.0899e+001 -4.3158e+001  3.8777e+000 30552 101614,101444,101392
 1.3000e+000 101522 -4.6941e+000 -4.1768e+001  4.0079e+000 30552 101392,101444,101418
 1.3000e+000 101640 -1.2198e+001 -3.9579e+001  3.8654e+000 30552 101366,101470,101614
 1.3000e+000 101663 -1.5180e+001 -4.1591e+001  6.3673e+000 30552 101366,101614,101392
 1.3000e+000 102301 -2.3990e+001 -5.4784e+001  1.4120e+000 30042 102396,102324,102059
 1.3000e+000 102278 -2.2361e+001 -5.1765e+001 -1.8986e+000 30042 102324,101981,101955
 1.3000e+000 102255 -2.7193e+001 -5.2871e+001  4.7349e+000 30042 102396,102059,102033
 1.3000e+000 102232 -1.4244e+001 -4.0633e+001  3.9129e+000 30042 101929,102111,101955
 1.3000e+000 102209 -1.7515e+001 -4.8505e+001 -4.3471e-001 30042 102059,102111,102085
 1.3000e+000 102186 -4.6341e+000 -4.0025e+001  1.1986e+001 30042 101929,102137,102111
 1.3000e+000 102163  3.7484e+000 -3.4982e+001  1.0033e+000 30042 101981,102033,102007
 1.3000e+000 102350 -1.9551e+001 -5.2554e+001  4.4178e-001 30042 102111,102059,102324
 1.3000e+000 102373 -2.0656e+001 -5.1529e+001 -1.1209e+000 30042 102111,102324,101955
 1.3000e+000 102422 -1.9353e+001 -4.8403e+001 -6.3634e-001 30042 101981,102324,102396
 1.3000e+000 102445 -2.2716e+001 -4.6552e+001  2.7425e+000 30042 101981,102396,102033
 1.3000e+000 103000 -1.5020e+001 -4.2070e+001  1.2830e-001 29730 103023,102706,102654
 1.3000e+000 102977 -1.7779e+001 -4.3296e+001  4.4085e-001 29730 103023,102654,102810
 1.3000e+000 102954 -2.0589e+001 -5.9933e+001 -3.8032e+000 29730 102732,102810,102784
 1.3000e+000 102931 -2.3499e+001 -4.5335e+001 -8.5447e-001 29730 102628,102810,102654
 1.3000e+000 102908 -1.6683e+001 -4.4302e+001  9.4826e-001 29730 102654,102706,102680
 1.3000e+000 102885 -1.4072e+001 -4.1770e+001 -5.8003e+000 29730 102732,102784,102758
 1.3000e+000 102862 -2.9798e+001 -4.8296e+001  2.0484e-001 29730 102628,102836,102810
 1.3000e+000 103049 -1.6471e+001 -4.1237e+001 -1.5085e+000 29730 102732,102706,103023
 1.3000e+000 103072 -1.8212e+001 -4.1938e+001 -1.2343e+000 29730 102732,103023,102810
 1.3000e+000 103222 -2.1743e+000 -3.5306e+001 -3.0963e+000 29226 103095,103147,103121
 1.3000e+000 103199 -4.2822e+000 -3.5586e+001 -2.9070e+000 29226 103095,103173,103147
 1.3000e+000 103730 -1.3112e+001 -4.6063e+001 -2.6333e+000 28822 103537,103589,103563
 1.3000e+000 103707 -1.4820e+001 -4.8286e+001 -1.8505e+000 28822 103433,103589,103537
 1.3000e+000 103684 -2.6789e+001 -5.1086e+001 -5.3609e+000 28822 103433,103537,103459
 1.3000e+000 103661 -1.7244e+001 -4.7076e+001 -2.6629e+000 28822 103407,103589,103433
 1.3000e+000 103638 -5.8641e+000 -3.9958e+001  5.7766e+000 28822 103459,103511,103485
 1.3000e+000 103615 -1.3530e+001 -3.3818e+001  2.8879e+000 28822 103459,103537,103511
 1.3000e+000 103880 -9.4389e+000 -4.3608e+001  3.7364e+000 28368 103975,103903,103779
 1.3000e+000 103857 -1.1407e+001 -5.5019e+001  1.9769e+000 28368 103903,103753,103831
 1.3000e+000 103929 -1.2515e+001 -4.5023e+001  2.1123e+000 28368 103805,103779,103903
 1.3000e+000 103952 -7.4795e+000 -4.3840e+001  3.3990e+000 28368 104105,103903,103831
 1.3000e+000 104001 -9.8057e+000 -4.5756e+001  3.0921e-001 28368 103753,103903,103975
 1.3000e+000 104131 -1.2757e+001 -4.6436e+001  2.5182e+000 28368 103805,103903,104105
 1.3000e+000 104539 -9.8537e+000 -3.2340e+001  1.0299e+000 28028 104562,104340,104314
 1.3000e+000 104516 -9.6204e+000 -2.5528e+001  2.1716e+000 28028 104634,104562,104314
 1.3000e+000 104493 -1.0577e+001 -3.3354e+001 -4.9609e+000 28028 104762,104366,104340
 1.3000e+000 104470  3.5742e+000 -3.2099e+001 -1.4457e+001 28028 104366,104418,104392
 1.3000e+000 104588 -1.0679e+001 -3.5261e+001 -3.2556e+000 28028 104762,104340,104562
 1.3000e+000 104611 -1.1223e+001 -2.6858e+001 -2.6422e+000 28028 104418,104562,104444
 1.3000e+000 104660 -1.4122e+001 -2.7709e+001  5.2418e-001 28028 104444,104562,104634
 1.3000e+000 104788 -1.1625e+001 -3.0768e+001 -4.6778e+000 28028 104418,104366,104762
 1.3000e+000 104811 -1.1049e+001 -3.1820e+001 -2.9557e+000 28028 104418,104762,104562
 1.3000e+000 105010 -8.5682e+000 -3.8767e+001  1.3895e+000 27324 105033,104886,104860
 1.3000e+000 104987 -1.3325e+001 -3.9500e+001  4.7599e+000 27324 105033,104860,104834
 1.3000e+000 104964 -7.7661e+000 -3.8601e+001  4.7412e-001 27324 105105,104912,104886
 1.3000e+000 105059 -8.7682e+000 -3.8006e+001  3.1454e-001 27324 105105,104886,105033
 1.3000e+000 105082 -9.7475e+000 -3.4601e+001  2.8669e+000 27324 104938,105033,104834
 1.3000e+000 105131 -6.8024e+000 -3.7995e+001  1.8313e-001 27324 104938,104912,105105
 1.3000e+000 105154 -7.6613e+000 -3.7166e+001 -5.7828e-002 27324 104938,105105,105033
 1.3000e+000 105402 -2.3179e+001 -3.0303e+001 -4.4495e+000 27012 105229,105281,105255
 1.3000e+000 105379 -1.3682e+001 -3.4425e+001 -4.0743e+000 27012 105229,105307,105281
 1.3000e+000 105356 -7.3878e+000 -3.0864e+001 -2.5066e+000 27012 105177,105307,105229
 1.3000e+000 105333 -1.8106e+001 -4.3970e+001 -9.4101e+000 27012 105177,105229,105203
 1.3000e+000 105603  7.8008e+000 -1.6997e+001 -1.9699e+000 26508 105626,105453,105427
 1.3000e+000 105580  6.1874e+000 -2.0949e+001  8.2529e-001 26508 105626,105427,105505
 1.3000e+000 105557  6.6135e+000 -1.9989e+001  2.7550e-001 26508 105427,105531,105505
 1.3000e+000 105652  4.8377e+000 -1.8374e+001  4.2989e-001 26508 105479,105453,105626
 1.3000e+000 105675  3.7461e+000 -1.9977e+001  2.9544e+000 26508 105479,105626,105505
 1.3000e+000 106057 -1.8671e+001 -4.2072e+001  8.5143e+000 25947 106080,105887,105861
 1.3000e+000 106034 -1.5804e+001 -3.8618e+001  3.2836e+000 25947 106080,105861,105783
 1.3000e+000 106011 -1.7260e+001 -3.0422e+001  2.2288e+000 25947 105783,105835,105809
 1.3000e+000 105988 -2.1297e+001 -3.2617e+001  3.7972e+000 25947 105783,105861,105835
 1.3000e+000 105965 -2.6501e+000 -2.8669e+001  2.4599e-001 25947 105887,105939,105913
 1.3000e+000 106106 -1.6552e+001 -3.9848e+001  5.1030e+000 25947 105939,105887,106080
 1.3000e+000 106129 -9.1013e+000 -3.2466e+001 -8.3900e-001 25947 105939,106080,105783
 1.3000e+000 106714 -2.4237e+001 -3.5829e+001 -1.5750e+000 25557 106809,106737,106547
 1.3000e+000 106691 -2.3492e+001 -3.9040e+001  1.9958e+000 25557 106737,106417,106391
 1.3000e+000 106668 -2.2260e+001 -3.5616e+001 -1.6574e+000 25557 106809,106547,106495
 1.3000e+000 106645 -2.7731e+001 -5.2187e+001  3.7163e+000 25557 106417,106495,106469
 1.3000e+000 106622 -2.0214e+001 -3.6050e+001 -3.3264e+000 25557 106495,106547,106521
 1.3000e+000 106599 -1.5794e+001 -6.4316e+001  6.9833e+000 25557 106417,106469,106443
 1.3000e+000 106763 -2.6734e+001 -3.5397e+001  4.7780e-001 25557 106573,106547,106737
 1.3000e+000 106786 -2.1289e+001 -3.3350e+001  2.9669e+000 25557 106573,106737,106391
 1.3000e+000 106835 -2.1921e+001 -3.5709e+001 -7.0400e-001 25557 106417,106737,106809
 1.3000e+000 106858 -2.0876e+001 -3.6315e+001 -1.1020e+000 25557 106417,106809,106495
 1.3000e+000 107364 -1.3770e+001 -4.0711e+001 -3.7789e+000 25153 107459,107387,107171
 1.3000e+000 107341 -2.1535e+001 -3.6561e+001 -2.3298e+000 25153 107387,107119,107067
 1.3000e+000 107318 -1.2704e+001 -3.8417e+001 -1.7380e+000 25153 107459,107171,107145
 1.3000e+000 107295 -1.6026e+001 -3.5186e+001 -6.0342e+000 25153 107531,107223,107197
 1.3000e+000 107272 -2.1248e+001 -3.6783e+001 -3.3863e+000 25153 107067,107119,107093
 1.3000e+000 107249 -1.4420e+001 -2.6160e+001 -5.4517e+000 25153 107041,107223,107067
 1.3000e+000 107413 -1.1322e+001 -3.8537e+001 -5.2083e+000 25153 107197,107171,107387
 1.3000e+000 107436 -1.6541e+001 -3.6922e+001 -3.6907e+000 25153 107531,107197,107387
 1.3000e+000 107485 -1.2731e+001 -3.7426e+001 -7.2710e-001 25153 107119,107387,107459
 1.3000e+000 107508 -9.5209e+000 -3.4640e+001  1.6457e+000 25153 107119,107459,107145
 1.3000e+000 107557 -1.5055e+001 -3.3054e+001 -6.2529e+000 25153 107067,107223,107531
 1.3000e+000 107580 -1.4764e+001 -3.2862e+001 -3.9499e+000 25153 107067,107531,107387
 1.3000e+000 107958 -5.6934e+000 -3.6088e+001  6.3161e-001 24741 107736,107814,107788
 1.3000e+000 107935 -1.2559e+001 -3.8634e+001  4.4362e-001 24741 107736,107840,107814
 1.3000e+000 107912 -1.4904e+001 -4.0312e+001 -7.2152e-001 24741 107684,107840,107736
 1.3000e+000 107889 -4.0656e+000 -4.2452e+001  2.8125e+000 24741 107736,107788,107762
 1.3000e+000 107866 -1.5490e+001 -4.8641e+001 -5.6457e+000 24741 107684,107736,107710
 1.3000e+000 108157  4.4272e+000 -3.2417e+001 -1.2214e-001 24237 108180,108059,108007
 1.3000e+000 108134 -1.1924e+000 -2.7084e+001  6.5060e+000 24237 108180,108007,107981
 1.3000e+000 108111  1.2989e+001 -4.3764e+001  8.2801e-001 24237 108007,108059,108033
 1.3000e+000 108206  6.8784e+000 -2.5324e+001 -2.8683e+000 24237 108085,108059,108180
 1.3000e+000 108229  1.4149e+000 -1.9882e+001  3.7340e+000 24237 108085,108180,107981
 1.3000e+000 108658 -1.6080e+001 -4.3575e+001 -2.2820e+000 23776 108361,108413,108387
 1.3000e+000 108635 -8.7353e+000 -3.6224e+001 -1.0040e+000 23776 108753,108681,108361
 1.3000e+000 108612 -5.5056e-001 -3.1115e+001 -7.5966e+000 23776 108681,108465,108439
 1.3000e+000 108589 -8.7636e+000 -3.6462e+001 -8.0411e-001 23776 108753,108361,108335
 1.3000e+000 108566 -1.2367e+001 -4.0321e+001  3.4873e+000 23776 108335,108517,108465
 1.3000e+000 108543  1.1169e+000 -4.9111e+001  1.2402e+001 23776 108465,108517,108491
 1.3000e+000 108707 -1.1521e+001 -3.6436e+001  1.8233e-001 23776 108413,108361,108681
 1.3000e+000 108730 -8.4084e+000 -4.2344e+001 -3.7458e+000 23776 108413,108681,108439
 1.3000e+000 108779 -8.7872e+000 -3.5436e+001 -1.1469e+000 23776 108465,108681,108753
 1.3000e+000 108802 -9.0207e+000 -3.6015e+001 -9.6853e-001 23776 108465,108753,108335
 1.3000e+000 109023 -8.8935e+000 -3.7769e+001  3.2788e+000 23414 108873,108925,108899
 1.3000e+000 109000 -1.6388e+001 -4.0232e+001  3.3445e+000 23414 108847,108925,108873
 1.3000e+000 108977 -5.7478e+000 -1.8264e+001 -7.2271e-001 23414 108847,108951,108925
 1.3000e+000 109474 -5.8044e+000 -4.1388e+001  4.3793e+000 23024 109151,109307,109177
 1.3000e+000 109451  1.3703e+000 -4.7908e+001  2.7275e+000 23024 109151,109333,109307
 1.3000e+000 109428 -1.6853e+001 -5.0638e+001 -1.2995e+000 23024 109177,109281,109203
 1.3000e+000 109405 -3.0141e+001 -5.4052e+001 -5.8087e-001 23024 109177,109307,109281
 1.3000e+000 109382 -1.3275e+001 -4.6050e+001  1.1367e+000 23024 109203,109281,109229
 1.3000e+000 109359 -1.6704e+001 -5.1369e+001 -3.3014e-001 23024 109229,109281,109255
 1.3000e+000 109820 -1.6500e+001 -3.8595e+001  2.5060e+000 22506 109843,109601,109523
 1.3000e+000 109797 -1.2708e+001 -3.7395e+001  1.9301e+000 22506 109843,109523,109497
 1.3000e+000 109774 -1.2926e+001 -4.0392e+001  3.4045e+000 22506 109915,109653,109627
 1.3000e+000 109751 -1.1079e+001 -3.8678e+001  1.6970e+000 22506 109497,109679,109653
 1.3000e+000 109728 -1.9597e+001 -4.6353e+001 -5.0875e+000 22506 109523,109601,109575
 1.3000e+000 109705 -1.6185e+001 -5.3590e+001 -3.4719e+000 22506 109523,109575,109549
 1.3000e+000 109869 -1.2673e+001 -3.6476e+001  3.4524e+000 22506 109627,109601,109843
 1.3000e+000 109892 -1.2579e+001 -3.9188e+001  2.9966e+000 22506 109915,109627,109843
 1.3000e+000 109941 -1.2360e+001 -3.9097e+001  2.6244e+000 22506 109497,109653,109915
 1.3000e+000 109964 -1.2281e+001 -3.8745e+001  2.1715e+000 22506 109497,109915,109843
 1.3000e+000 110163 -1.2462e+001 -3.5977e+001  2.1920e+000 21936 110186,110039,110013
 1.3000e+000 110140 -1.7057e+001 -3.7872e+001  1.5549e+000 21936 110390,110186,110013
 1.3000e+000 110117 -1.8974e+001 -4.0240e+001  5.7161e-001 21936 110390,110013,109987
 1.3000e+000 110212 -1.4398e+001 -4.1763e+001 -8.4789e-001 21936 110065,110039,110186
 1.3000e+000 110235 -8.1889e+000 -2.8724e+001  4.4714e+000 21936 110258,110186,110091
 1.3000e+000 110284 -2.1879e+001 -4.3322e+001 -1.4243e+000 21936 110065,110186,110258
 1.3000e+000 110416 -1.3091e+001 -4.1526e+001  3.0332e+000 21936 110091,110186,110390
 1.3000e+000 110439 -1.5373e+001 -4.4121e+001  1.9752e+000 21936 110091,110390,109987
 1.3000e+000 110709 -1.2151e+001 -4.4196e+001  8.3204e-001 21338 110510,110614,110588
 1.3000e+000 110686 -1.6221e+001 -5.2779e+001 -1.4529e+000 21338 110484,110614,110510
 1.3000e+000 110663 -1.0261e+001 -2.8848e+001 -3.1404e+000 21338 110510,110562,110536
 1.3000e+000 110640 -1.7342e+001 -4.4846e+001 -6.2586e-001 21338 110510,110588,110562
 1.3000e+000 111296 -1.6699e+001 -4.4811e+001 -9.8857e-001 20934 111025,111155,111103
 1.3000e+000 111273 -2.0189e+001 -6.0394e+001 -9.9315e-001 20934 110999,111155,111025
 1.3000e+000 111250 -1.8259e+000 -3.7904e+001 -3.4218e+000 20934 111103,111155,111129
 1.3000e+000 111227 -2.4133e+001 -5.8773e+001 -8.8668e+000 20934 111051,111103,111077
 1.3000e+000 111204 -2.6397e+001 -5.2582e+001 -5.1265e+000 20934 111025,111103,111051
 1.3000e+000 111181 -9.2288e+000 -5.6237e+001  3.8293e+000 20934 110973,111155,110999
 1.3000e+000 111930 -2.1889e+001 -2.3223e+001 -8.7595e+000 20494 111662,111714,111688
 1.3000e+000 111907 -1.7470e+000 -2.4500e+001 -7.1259e+000 20494 111584,111714,111662
 1.3000e+000 111884 -1.5120e+001 -3.3771e+001 -3.0877e+000 20494 111584,111766,111714
 1.3000e+000 111861 -1.2512e+001 -4.9434e+001  1.8622e+000 20494 111584,111636,111610
 1.3000e+000 111838 -1.4649e+001 -3.8670e+001 -3.9019e-001 20494 111584,111662,111636
 1.3000e+000 111815  8.4429e-001 -2.6505e+001 -1.4236e+000 20494 111558,111766,111584
 1.3000e+000 111792 -1.1849e+001 -2.7746e+001 -6.1079e+000 20494 111714,111766,111740
 1.3000e+000 112249 -3.8526e+000 -4.1181e+001  1.0610e-001 19940 111975,112053,112001
 1.3000e+000 112226 -2.7653e+000 -3.9783e+001 -7.1173e-001 19940 111975,112131,112053
 1.3000e+000 112203 -5.6237e+000 -4.2726e+001  0.0000e+000 19940 112053,112105,112079
 1.3000e+000 112180 -2.1682e+000 -4.0659e+001  8.8021e-001 19940 112053,112131,112105
 1.3000e+000 112157 -8.6602e+000 -4.4150e+001  1.4982e+000 19940 112001,112053,112027
 1.3000e+000 112757 -9.1120e+000 -3.9163e+001 -5.4916e+000 19486 112780,112538,112486
 1.3000e+000 112734 -1.2118e+001 -4.5526e+001 -1.6860e+000 19486 112780,112486,112460
 1.3000e+000 112711 -1.3427e+001 -3.8849e+001  9.4673e-001 19486 112852,112616,112590
 1.3000e+000 112688  3.5681e+000 -4.8049e+001 -7.6100e+000 19486 112486,112538,112512
 1.3000e+000 112665 -1.7689e+001 -4.8844e+001 -7.3937e-001 19486 112434,112616,112460
 1.3000e+000 112642 -1.8901e+001 -3.9528e+001 -3.5077e+000 19486 112538,112590,112564
 1.3000e+000 112806 -1.7566e+001 -4.3274e+001 -3.9700e+000 19486 112590,112538,112780
 1.3000e+000 112829 -1.1910e+001 -4.0896e+001 -2.9455e-001 19486 112852,112590,112780
 1.3000e+000 112878 -1.3775e+001 -4.1973e+001  1.1599e+000 19486 112460,112616,112852
 1.3000e+000 112901 -1.2798e+001 -4.4808e+001  4.7723e-001 19486 112460,112852,112780
 1.3000e+000 113252 -3.0245e+001 -5.0659e+001 -3.6684e-001 19096 113105,113157,113131
 1.3000e+000 113229 -2.9108e+001 -4.2449e+001 -3.0079e-001 19096 113053,113157,113105
 1.3000e+000 113206 -2.4452e+001 -4.0493e+001  1.2143e-001 19096 113027,113157,113053
 1.3000e+000 113183 -3.6297e+001 -5.5399e+001  2.5172e+000 19096 113053,113105,113079
 1.3000e+000 113451 -6.0387e+000 -3.9715e+001  8.6627e+000 18642 113327,113379,113353
 1.3000e+000 113428 -1.0249e+001 -3.9958e+001 -8.7908e-001 18642 113301,113379,113327
 1.3000e+000 113405 -7.7969e+000 -3.6577e+001  5.1045e-001 18642 113275,113379,113301
 1.3000e+000 113699 -1.3854e+001 -4.4737e+001 -5.3504e-002 18138 113474,113552,113526
 1.3000e+000 113676 -1.0634e+001 -4.4215e+001 -1.6415e+000 18138 113474,113578,113552
 1.3000e+000 113653 -1.2201e+001 -4.4075e+001 -1.0646e+000 18138 113474,113604,113578
 1.3000e+000 113630 -8.9614e+000 -4.2368e+001  2.6351e+000 18138 113474,113526,113500
 1.3000e+000 113851 -1.6946e+001 -5.0847e+001 -2.6533e-002 17682 113750,113802,113776
 1.3000e+000 113828 -1.4548e+001 -4.8565e+001  9.7455e-001 17682 113724,113802,113750
 1.3000e+000 114383 -1.9342e+001 -3.5658e+001  1.3355e+000 17106 114086,114242,114164
 1.3000e+000 114360 -2.3389e+001 -3.6913e+001  6.5449e+000 17106 114060,114242,114086
 1.3000e+000 114337 -2.8281e+001 -5.0297e+001  5.7526e+000 17106 114086,114164,114138
 1.3000e+000 114314 -1.5176e+001 -4.2081e+001 -1.5815e+000 17106 114190,114242,114216
 1.3000e+000 114291 -2.1938e+001 -4.5013e+001  1.0176e+000 17106 114164,114242,114190
 1.3000e+000 114268 -2.6782e+001 -5.3265e+001  7.8301e+000 17106 114086,114138,114112
 1.3000e+000 114680 -1.1128e+001 -3.8460e+001 -7.7791e-001 16766 114703,114432,114406
 1.3000e+000 114657 -1.0164e+001 -3.9609e+001  2.0369e-001 16766 114703,114406,114510
 1.3000e+000 114634 -7.9695e+000 -3.6327e+001 -8.6261e-001 16766 114406,114536,114510
 1.3000e+000 114611 -1.4717e+001 -3.9498e+001 -1.8139e+000 16766 114432,114484,114458
 1.3000e+000 114588  1.0976e+001 -3.3391e+001  1.1498e+001 16766 114406,114562,114536
 1.3000e+000 114729 -1.5088e+001 -3.9679e+001 -7.6708e-001 16766 114484,114432,114703
 1.3000e+000 114752 -1.1576e+001 -3.9168e+001 -8.6611e-003 16766 114484,114703,114510
 1.3000e+000 114902 -6.1772e+000 -4.1460e+001 -1.7667e+000 16362 114775,114827,114801
 1.3000e+000 114879  1.9580e+001 -3.2029e+001 -7.5589e+000 16362 114775,114853,114827
 1.3000e+000 115054 -4.7032e+001 -7.6391e+001  4.9776e+000 15908 114953,115005,114979
 1.3000e+000 115031 -4.8424e+001 -7.5349e+001  4.5409e+000 15908 114927,115005,114953
 1.3000e+000 115326 -1.5567e+001 -4.7883e+001  8.6582e+000 15251 115101,115179,115153
 1.3000e+000 115303 -1.3158e+001 -4.4231e+001 -8.3440e-001 15251 115101,115231,115179
 1.3000e+000 115280 -1.3808e+001 -4.5689e+001 -6.8324e-001 15251 115179,115231,115205
 1.3000e+000 115257 -1.9351e+000 -1.0058e+002  2.9520e+001 15251 115101,115153,115127
 1.3000e+000 115429 -1.8865e+001 -4.3425e+001  4.6894e+000 421 115351,115403,115377
 1.4000e+000 66230  1.4102e+001 -1.5725e+001 -4.6081e+000 65954 66152,66204,66178
 1.4000e+000 66429  1.1941e+001 -2.3213e+001 -9.4864e+000 65642 66279,66331,66305
 1.4000e+000 66406  4.8114e+000 -3.2136e+001 -4.4472e+000 65642 66279,66357,66331
 1.4000e+000 66383 -1.0383e+001 -2.8135e+001 -3.7672e+000 65642 66253,66357,66279
 1.4000e+000 66628  1.7434e+000 -5.6230e+001  4.0402e+000 65444 66452,66530,66478
 1.4000e+000 66605  4.2013e-001 -5.5495e+001  4.2569e+000 65444 66452,66556,66530
 1.4000e+000 66582  1.3052e+001 -5.0836e+001  3.5376e-001 65444 66478,66530,66504
 1.4000e+000 67006 -4.0806e+000 -3.0193e+001 -3.0760e-001 65246 66732,66810,66758
 1.4000e+000 66983  5.1610e+000 -2.2667e+001  3.0017e+000 65246 66732,66836,66810
 1.4000e+000 66960 -4.2295e+000 -3.5527e+001 -4.6332e+000 65246 66732,66862,66836
 1.4000e+000 66937 -3.8137e+000 -3.1550e+001 -7.7813e-001 65246 66758,66810,66784
 1.4000e+000 66914  1.5389e+000 -3.3062e+001 -9.3019e+000 65246 66732,66888,66862
 1.4000e+000 67107  1.2167e+001 -1.3001e+001 -3.4363e+000 64934 67029,67081,67055
 1.4000e+000 67306  7.2523e+000 -4.0613e+001  6.6468e+000 64736 67156,67208,67182
 1.4000e+000 67283 -1.5734e+000 -3.7979e+001  7.4098e+000 64736 67130,67208,67156
 1.4000e+000 67260 -6.5265e+000 -5.1458e+001  5.5917e+000 64736 67130,67234,67208
 1.4000e+000 67507 -3.9772e+000 -2.8668e+001 -1.1959e+001 64389 67357,67409,67383
 1.4000e+000 67484  1.7293e+000 -4.3868e+001 -9.5168e+000 64389 67357,67435,67409
 1.4000e+000 67461  7.3746e-001 -4.9261e+001 -7.7239e+000 64389 67331,67435,67357
 1.4000e+000 67708  7.3453e+000 -3.3436e+001  6.3611e+000 63985 67731,67584,67558
 1.4000e+000 67685  2.9220e+000 -2.1891e+001  4.4240e+000 63985 67731,67558,67636
 1.4000e+000 67662  3.3173e+000 -2.7924e+001 -2.6652e+000 63985 67532,67636,67558
 1.4000e+000 67757  5.2971e+000 -3.9199e+001  5.5032e+000 63985 67610,67584,67731
 1.4000e+000 67780 -1.2703e+000 -3.0977e+001  2.9594e+000 63985 67610,67731,67636
 1.4000e+000 67981  8.6904e-001 -1.5921e+001 -1.6616e+000 63787 67857,67909,67883
 1.4000e+000 67958 -2.6352e+000 -1.7308e+001 -1.0931e+000 63787 67831,67909,67857
 1.4000e+000 67935 -5.2647e+000 -2.5144e+001 -1.5228e+000 63787 67805,67909,67831
 1.4000e+000 68231  7.1930e+000 -3.1714e+001 -3.7199e-001 63589 68254,68084,68032
 1.4000e+000 68208  7.0982e+000 -2.6683e+001 -4.3080e-001 63589 68254,68032,68006
 1.4000e+000 68185  4.2955e+000 -2.8704e+001 -3.5331e+000 63589 68326,68136,68110
 1.4000e+000 68162  5.7264e+000 -3.4585e+001  6.6680e+000 63589 68032,68084,68058
 1.4000e+000 68280  1.4045e+001 -2.7831e+001 -3.7423e+000 63589 68110,68084,68254
 1.4000e+000 68303  5.9307e+000 -2.8016e+001 -3.7909e+000 63589 68326,68110,68254
 1.4000e+000 68352  2.8643e+000 -2.9570e+001  6.0688e-001 63589 68006,68136,68326
 1.4000e+000 68375  5.5905e+000 -2.8291e+001  2.2639e-001 63589 68006,68326,68254
 1.4000e+000 68836  1.2504e+001 -1.5898e+001  5.1987e+000 63128 68859,68588,68562
 1.4000e+000 68813 -2.9455e+000 -2.1933e+001  5.7875e+000 63128 68859,68562,68692
 1.4000e+000 68790 -7.4031e+000 -2.0313e+001 -5.1207e+000 63128 68614,68692,68666
 1.4000e+000 68767 -1.2589e+001 -1.6653e+001  5.6776e+000 63128 68562,68718,68692
 1.4000e+000 68744 -6.1855e+000 -1.8168e+001 -8.6470e+000 63128 68614,68666,68640
 1.4000e+000 68885  1.3910e+001 -1.4041e+001 -8.8985e+000 63128 68614,68588,68859
 1.4000e+000 68908 -1.3890e-001 -1.9251e+001 -8.0334e+000 63128 68614,68859,68692
 1.4000e+000 69237  1.2451e+000 -2.5756e+001  1.0440e+000 62731 69064,69116,69090
 1.4000e+000 69214 -5.5027e-001 -2.7058e+001  4.0843e-001 62731 69064,69142,69116
 1.4000e+000 69191 -3.7800e+000 -4.7145e+001 -1.2414e+000 62731 69038,69142,69064
 1.4000e+000 69168  2.2134e+000 -3.3590e+001  1.8056e+000 62731 69012,69142,69038
 1.4000e+000 69539  1.1301e+000  2.1543e+000 -7.3645e-001 62433 69389,69467,69441
 1.4000e+000 69516 -8.8338e-001 -1.6409e+000  4.5115e-001 62433 69363,69467,69389
 1.4000e+000 69493  1.6559e+000 -8.9278e-001  1.8600e+000 62433 69389,69441,69415
 1.4000e+000 69966 -5.4783e+000 -2.9676e+001 -5.0291e+000 62235 69989,69773,69721
 1.4000e+000 69943 -1.0976e+001 -3.9386e+001 -1.2357e+001 62235 70061,69989,69721
 1.4000e+000 69920 -1.1273e+001 -5.1525e+001 -1.1224e+001 62235 70061,69721,69643
 1.4000e+000 69897 -7.4991e+000 -1.9724e+001 -7.1632e+000 62235 69721,69773,69747
 1.4000e+000 69874 -2.1734e+001 -9.9203e+001 -2.3320e+001 62235 69643,69721,69695
 1.4000e+000 69851  2.6781e+001 -3.2972e+001  3.7984e+000 62235 69643,69695,69669
 1.4000e+000 70015 -5.1821e+000 -4.0018e+001 -1.3469e+001 62235 69799,69773,69989
 1.4000e+000 70038 -1.5188e+001 -4.5316e+001 -1.7177e+001 62235 69799,69989,69825
 1.4000e+000 70087 -1.4463e+001 -5.2118e+001 -9.0052e+000 62235 69825,69989,70061
 1.4000e+000 70110 -9.7699e+000 -5.8681e+001 -9.3856e+000 62235 69825,70061,69643
 1.4000e+000 70260 -4.1893e+000 -3.0024e+001  5.0644e+000 62037 70133,70185,70159
 1.4000e+000 70237 -5.3445e+000 -4.7292e+001  6.8972e+000 62037 70133,70211,70185
 1.4000e+000 70640  2.8576e-001 -2.5908e+001  5.6886e+000 61583 70735,70663,70418
 1.4000e+000 70617 -5.2103e+000 -3.6697e+001  6.9338e+000 61583 70663,70366,70522
 1.4000e+000 70594  1.1699e+000 -2.1576e+001  4.2648e+000 61583 70735,70418,70392
 1.4000e+000 70571  1.1375e+000 -2.1265e+001  1.0176e+001 61583 70418,70496,70444
 1.4000e+000 70548 -1.0110e+001 -1.0207e+001  8.7644e+000 61583 70444,70496,70470
 1.4000e+000 70689 -6.5276e+000 -2.3795e+001  3.8312e+000 61583 70496,70418,70663
 1.4000e+000 70712 -1.3138e+001 -2.2618e+001  6.0846e+000 61583 70496,70663,70522
 1.4000e+000 70761  2.6217e+000 -2.3389e+001  5.3706e-001 61583 70366,70663,70735
 1.4000e+000 70784  2.0217e+000 -1.9782e+001 -5.0699e-001 61583 70366,70735,70392
 1.4000e+000 71054  5.2640e+000 -1.9965e+001  5.5421e+000 61313 71077,70881,70855
 1.4000e+000 71031  1.0745e+001 -1.3303e+001  9.7741e+000 61313 71077,70855,70829
 1.4000e+000 71008 -3.9020e+000 -1.1134e+001  6.6908e+000 61313 70829,70959,70933
 1.4000e+000 70985  5.3620e+000 -1.4901e+001 -2.4216e+000 61313 70881,70933,70907
 1.4000e+000 71103 -3.0424e-001 -1.7169e+001  1.0169e+000 61313 70933,70881,71077
 1.4000e+000 71126  4.7629e+000 -1.3501e+001  4.5868e+000 61313 70933,71077,70829
 1.4000e+000 71604 -1.3193e+001 -3.7372e+001 -2.9273e+000 60909 71627,71232,71414
 1.4000e+000 71581 -1.8968e+001 -3.8538e+001 -3.8443e+000 60909 71232,71440,71414
 1.4000e+000 71558 -9.3780e+000 -3.6089e+001 -1.5038e+000 60909 71627,71414,71336
 1.4000e+000 71535  7.0887e+000 -5.0561e+001  3.7109e+000 60909 71362,71414,71388
 1.4000e+000 71512 -1.4215e+001 -4.7592e+001 -1.1648e+000 60909 71336,71414,71362
 1.4000e+000 71489 -6.2348e+000 -3.0831e+001 -2.9321e+000 60909 71258,71336,71310
 1.4000e+000 71466 -1.1141e+001 -3.3905e+001 -1.6004e+000 60909 71258,71310,71284
 1.4000e+000 71653 -1.5310e+001 -3.5091e+001 -1.1913e+000 60909 71258,71232,71627
 1.4000e+000 71676 -1.2210e+001 -3.4517e+001 -7.1281e-001 60909 71258,71627,71336
 1.4000e+000 71875 -1.6318e+000 -3.0573e+001  8.2565e+000 60611 71898,71725,71699
 1.4000e+000 71852 -1.3714e+001 -3.0130e+001  1.0655e+001 60611 71898,71699,71803
 1.4000e+000 71829  2.8465e+000 -2.8770e+001  3.4560e+000 60611 71970,71751,71725
 1.4000e+000 71924  2.6760e+000 -3.0208e+001  5.0190e+000 60611 71970,71725,71898
 1.4000e+000 71947 -1.3880e+000 -1.8054e+001  3.3368e+000 60611 71777,71898,71803
 1.4000e+000 71996  1.0738e+000 -3.0713e+001  4.2125e+000 60611 71777,71751,71970
 1.4000e+000 72019  3.2953e-001 -3.1931e+001  5.8120e+000 60611 71777,71970,71898
 1.4000e+000 72576 -2.0424e+001 -6.0669e+001  9.2077e+000 60142 72599,72256,72230
 1.4000e+000 72553 -1.3898e+001 -4.7326e+001  7.1256e+000 60142 72671,72599,72230
 1.4000e+000 72530 -1.5745e+001 -4.1244e+001  2.5913e+000 60142 72671,72230,72204
 1.4000e+000 72507 -1.9833e+001 -4.8707e+001  6.9920e+000 60142 72743,72360,72334
 1.4000e+000 72484 -2.6043e+001 -4.8383e+001  1.1768e+001 60142 72815,72282,72256
 1.4000e+000 72461  4.1078e+000 -4.2582e+001  4.4207e+000 60142 72887,72308,72282
 1.4000e+000 72438 -1.3405e+001 -6.0438e+001  6.0858e-001 60142 72204,72412,72386
 1.4000e+000 72625 -1.9650e+001 -5.3160e+001  2.7223e+000 60142 72815,72256,72599
 1.4000e+000 72648 -1.9594e+001 -5.0405e+001  6.5951e+000 60142 72743,72334,72599
 1.4000e+000 72697 -1.5794e+001 -5.4403e+001  6.2910e+000 60142 72386,72599,72671
 1.4000e+000 72720 -1.8786e+001 -4.9149e+001  3.1920e+000 60142 72386,72671,72204
 1.4000e+000 72769 -1.4189e+001 -4.9566e+001  1.1257e+001 60142 72386,72360,72743
 1.4000e+000 72792 -1.7066e+001 -5.4697e+001  8.6967e+000 60142 72386,72743,72599
 1.4000e+000 72841 -1.2361e+001 -4.9071e+001  9.9441e+000 60142 72887,72282,72815
 1.4000e+000 72864 -1.7641e+001 -4.5301e+001  6.0691e+000 60142 72334,72815,72599
 1.4000e+000 72913 -1.6365e+001 -3.3163e+001 -1.6954e+000 60142 72334,72308,72887
 1.4000e+000 72936 -2.0535e+001 -3.4755e+001  1.8831e+000 60142 72334,72887,72815
 1.4000e+000 73491 -6.5622e+000 -4.9825e+001 -1.2681e+001 59738 73145,73327,73171
 1.4000e+000 73468  1.5234e+001 -2.2287e+001 -3.2222e+000 59738 73119,73327,73145
 1.4000e+000 73445 -4.8703e+000 -2.4788e+001 -2.8694e+000 59738 73171,73327,73301
 1.4000e+000 73422  1.8574e+000 -3.3067e+001  6.4741e-001 59738 73514,73275,73249
 1.4000e+000 73399 -7.8459e+000 -3.5545e+001  2.5803e+000 59738 73586,73514,73249
 1.4000e+000 73376 -6.9040e+000 -1.8009e+001  1.4977e+001 59738 73197,73249,73223
 1.4000e+000 73353 -8.7286e+000 -3.7580e+001  6.9904e+000 59738 73586,73249,73197
 1.4000e+000 73540 -6.6040e+000 -4.1335e+001 -2.8470e+000 59738 73301,73275,73514
 1.4000e+000 73563 -4.1746e+000 -3.0178e+001 -2.1046e+000 59738 73301,73514,73171
 1.4000e+000 73612 -5.6220e+000 -2.8111e+001  9.9960e-001 59738 73171,73514,73586
 1.4000e+000 73635 -5.7151e+000 -3.0988e+001  4.8616e+000 59738 73171,73586,73197
 1.4000e+000 73964 -1.3364e+001 -4.1619e+001  4.2902e+000 59334 73791,73843,73817
 1.4000e+000 73941 -2.0857e+000 -4.1765e+001  3.8606e+000 59334 73791,73869,73843
 1.4000e+000 73918 -1.3276e+001 -6.7204e+001  1.5568e+000 59334 73739,73869,73791
 1.4000e+000 73895  1.8609e+001 -8.1393e+001  5.9078e-001 59334 73739,73791,73765
 1.4000e+000 74261  1.6783e+000 -4.2404e+001  1.3233e+001 58630 74065,74117,74091
 1.4000e+000 74238 -4.3110e+000 -2.6867e+001  1.0551e+001 58630 74356,74284,74065
 1.4000e+000 74215  1.1245e+000 -1.0146e+001  6.5422e+000 58630 74284,74013,73987
 1.4000e+000 74192 -3.8470e+000 -2.6391e+001  1.1520e+001 58630 74356,74065,74039
 1.4000e+000 74169  6.5966e+000 -3.1394e+001  4.2985e+000 58630 73987,74143,74117
 1.4000e+000 74310  1.3214e+000 -4.2207e+001  1.3535e+001 58630 74117,74065,74284
 1.4000e+000 74333  9.8449e+000 -2.5315e+001  7.0548e+000 58630 74117,74284,73987
 1.4000e+000 74382 -5.7004e+000 -2.7960e+001  9.8272e+000 58630 74013,74284,74356
 1.4000e+000 74405 -5.2690e+000 -2.7434e+001  1.0803e+001 58630 74013,74356,74039
 1.4000e+000 74815  5.2078e+000 -2.5639e+001 -4.5941e+000 58226 74590,74642,74616
 1.4000e+000 74792 -4.4717e+000 -2.7177e+001  2.2079e+000 58226 74590,74694,74642
 1.4000e+000 74769 -7.4650e+000 -3.5650e+001  6.1397e+000 58226 74590,74720,74694
 1.4000e+000 74746 -1.6185e+001 -2.0081e+001 -1.9688e+000 58226 74642,74694,74668
 1.4000e+000 75014  3.4579e+000 -3.3514e+001  2.9164e+000 57786 75037,74864,74838
 1.4000e+000 74991  5.9173e+000 -2.2882e+001  3.6446e+000 57786 75037,74838,74916
 1.4000e+000 74968  9.3501e+000 -2.3270e+001  6.6899e+000 57786 74838,74942,74916
 1.4000e+000 75063  5.7305e+000 -4.5754e+001 -2.5605e-001 57786 74890,74864,75037
 1.4000e+000 75086  9.2741e+000 -3.3546e+001  5.4823e-001 57786 74890,75037,74916
 1.4000e+000 75368 -2.6612e+000 -2.1152e+001  1.2350e+000 57496 75192,75270,75218
 1.4000e+000 75345  1.5776e+001 -1.1463e+001  5.2972e+000 57496 75192,75296,75270
 1.4000e+000 75322 -2.1706e+000 -2.5002e+001  2.3714e+000 57496 75218,75270,75244
 1.4000e+000 75648 -5.2023e+000 -2.9397e+001 -1.4208e-001 57206 75472,75550,75498
 1.4000e+000 75625 -1.2449e+000 -2.1350e+001 -1.5932e+000 57206 75472,75576,75550
 1.4000e+000 75602  9.9930e+000 -1.4796e+001  5.8807e+000 57206 75671,75550,75524
 1.4000e+000 75697 -3.9296e+000 -2.8877e+001  2.6620e-001 57206 75498,75550,75671
 1.4000e+000 76154 -2.7234e+000 -3.2658e+001 -3.2913e+000 56802 75958,76010,75984
 1.4000e+000 76131  6.1168e-001 -3.0262e+001 -5.1160e+000 56802 75932,76010,75958
 1.4000e+000 76108 -8.1409e-001 -4.3471e+001  1.5616e-003 56802 75906,76010,75932
 1.4000e+000 76085  4.1515e+000 -2.9751e+001  2.7504e+000 56802 75880,76010,75906
 1.4000e+000 76062  2.1899e+001 -1.6130e+001  2.0556e+001 56802 75880,76036,76010
 1.4000e+000 76505  1.7260e+001 -1.5360e+001 -1.8175e+000 56504 76306,76384,76332
 1.4000e+000 76482 -3.6274e+000 -2.9494e+001  4.3863e+000 56504 76306,76410,76384
 1.4000e+000 76459  1.8410e+001  5.4280e+000  1.7212e+001 56504 76332,76384,76358
 1.4000e+000 76436  5.8573e+001 -5.5143e+000  8.1656e+000 56504 76280,76410,76306
 1.4000e+000 77011 -1.2481e+000 -2.6482e+001 -2.6507e+000 56050 76740,76818,76792
 1.4000e+000 76988 -4.0102e+000 -2.8318e+001 -3.2739e-001 56050 76714,76818,76740
 1.4000e+000 76965 -1.2584e+001 -3.1837e+001  2.2011e+000 56050 76688,76818,76714
 1.4000e+000 76942 -1.0188e+001 -3.0320e+001  4.4102e+000 56050 76688,76844,76818
 1.4000e+000 76919 -1.4696e+001 -3.9747e+001  2.7217e+000 56050 76740,76792,76766
 1.4000e+000 76896 -7.9715e+000 -3.7145e+001 -7.4546e-001 56050 76688,76870,76844
 1.4000e+000 77517 -1.4129e+001 -2.7661e+001 -3.5279e-001 55738 77220,77350,77324
 1.4000e+000 77494 -1.2701e+001 -3.2382e+001 -4.6982e+000 55738 77220,77376,77350
 1.4000e+000 77471 -8.7129e+000 -2.1168e+001 -4.3882e+000 55738 77194,77376,77220
 1.4000e+000 77448 -8.0194e+000 -3.4945e+001 -5.4319e+000 55738 77220,77298,77246
 1.4000e+000 77425 -9.1477e+000 -2.4468e+001 -1.8356e+000 55738 77220,77324,77298
 1.4000e+000 77402  4.8746e+001 -9.3665e+000  6.8344e+000 55738 77246,77298,77272
 1.4000e+000 78064 -1.3922e+001 -6.2766e+001  7.1291e+000 55227 78231,78087,77773
 1.4000e+000 78041 -1.4290e+001 -7.9774e+001  7.9161e+000 55227 78087,77695,77643
 1.4000e+000 78018 -2.1413e+001 -7.5709e+001  9.6348e+000 55227 78159,77799,77773
 1.4000e+000 77995 -9.5513e+000 -5.9453e+001  5.1314e+000 55227 78231,77773,77721
 1.4000e+000 77972  1.4138e+000 -4.6044e+001  1.9426e+001 55227 77643,77695,77669
 1.4000e+000 77949 -3.4942e+001 -6.4730e+001  1.0278e+001 55227 77643,77877,77851
 1.4000e+000 77926 -2.7721e+001 -8.0422e+001  1.6691e+001 55227 77799,77851,77825
 1.4000e+000 77903 -8.1900e+000 -4.8677e+001 -1.5747e+000 55227 77721,77773,77747
 1.4000e+000 78113 -1.8522e+001 -7.4461e+001  1.0923e+001 55227 78159,77773,78087
 1.4000e+000 78136 -8.1428e+000 -6.5627e+001  1.1238e+001 55227 77851,78087,77643
 1.4000e+000 78185 -2.7241e+001 -7.2319e+001  8.9303e+000 55227 77851,77799,78159
 1.4000e+000 78208 -2.4641e+001 -7.1577e+001  9.9539e+000 55227 77851,78159,78087
 1.4000e+000 78257 -3.8920e+000 -7.3085e+001  4.3267e+000 55227 77695,78087,78231
 1.4000e+000 78280  3.5298e+000 -6.6409e+001  1.2610e+000 55227 77695,78231,77721
 1.4000e+000 78737 -1.7251e+000 -2.3048e+001 -9.3287e+000 54773 78463,78541,78515
 1.4000e+000 78714 -1.2577e+001 -3.7595e+001 -3.7610e+000 54773 78463,78619,78541
 1.4000e+000 78691 -6.5304e+000 -3.0766e+001  2.6738e-001 54773 78463,78515,78489
 1.4000e+000 78668 -1.9175e+001 -2.6265e+001 -3.8043e+000 54773 78541,78593,78567
 1.4000e+000 78645 -9.1291e+000 -3.1642e+001 -6.0844e+000 54773 78541,78619,78593
 1.4000e+000 78838  6.5396e+000 -8.6320e+001 -8.9662e+000 54211 78760,78812,78786
 1.4000e+000 79297 -1.5369e+001 -4.8875e+001  2.5564e+000 53814 79520,79153,79049
 1.4000e+000 79274 -1.0828e+001 -4.3198e+001 -2.3553e+000 53814 79520,79049,79023
 1.4000e+000 79251 -2.1778e+001 -6.4422e+001  7.5665e+000 53814 79320,79101,79049
 1.4000e+000 79228 -1.4843e+001 -4.7643e+001  2.2530e+000 53814 79320,79049,79153
 1.4000e+000 79205 -7.8642e+000 -7.0579e+001  8.8538e+000 53814 79049,79101,79075
 1.4000e+000 79346 -1.5416e+001 -4.6394e+001 -5.0500e+000 53814 79392,79320,79127
 1.4000e+000 79369 -5.8076e+000 -4.3054e+001 -9.9378e+000 53814 79127,79320,79153
 1.4000e+000 79418 -2.1728e+001 -6.3602e+001 -9.3881e+000 53814 79101,79320,79392
 1.4000e+000 79546 -2.1776e+001 -6.1065e+001  1.3316e+001 53814 79179,79153,79520
 1.4000e+000 79569 -1.7610e+000 -4.8304e+001  5.9709e+000 53814 79179,79520,79023
 1.4000e+000 80075  1.6897e+001 -1.1339e+001  1.4914e+001 53039 80098,79908,79830
 1.4000e+000 80052  2.1741e+001 -4.2632e+000  2.0728e+001 53039 80098,79830,79804
 1.4000e+000 80029  1.2225e+001 -6.0491e+000  1.2927e+001 53039 79752,79934,79804
 1.4000e+000 80006 -9.5037e+000 -4.3038e+001  1.1789e+001 53039 79856,79908,79882
 1.4000e+000 79983  1.6233e+000 -3.5279e+001  7.5786e+000 53039 79830,79908,79856
 1.4000e+000 79960  5.5786e+000 -5.0473e+000  5.0095e+000 53039 79752,79804,79778
 1.4000e+000 80124  7.2858e+000 -2.1296e+001  5.3825e+000 53039 79934,79908,80098
 1.4000e+000 80147  1.8349e+001 -8.8454e+000  1.2259e+001 53039 79934,80098,79804
 1.4000e+000 80555 -8.7713e+000 -3.4402e+001 -1.3646e-001 52699 80356,80434,80408
 1.4000e+000 80532  8.4550e+000 -3.4197e+001 -3.6217e+000 52699 80356,80460,80434
 1.4000e+000 80509  2.2478e+001 -3.8995e+001 -1.1362e+001 52699 80330,80460,80356
 1.4000e+000 80486 -9.1636e+000 -3.7789e+001 -1.1515e+000 52699 80356,80408,80382
 1.4000e+000 80776  4.8287e+000 -2.5391e+001  2.8988e+000 52295 80600,80678,80626
 1.4000e+000 80753  1.0752e+001 -1.7323e+001 -5.1077e-001 52295 80600,80704,80678
 1.4000e+000 80730  1.3071e+001 -2.2485e+001  2.7200e-001 52295 80626,80678,80652
 1.4000e+000 81156 -2.2471e+001 -5.6690e+001  9.2586e+000 51891 81179,80960,80908
 1.4000e+000 81133 -2.0376e+001 -5.3114e+001  4.3057e+000 51891 81179,80908,81012
 1.4000e+000 81110 -2.8331e+001 -5.3161e+001  4.1014e+000 51891 80882,81012,80908
 1.4000e+000 81087 -1.1626e+001 -7.6318e+001  7.8254e+000 51891 80908,80960,80934
 1.4000e+000 81064 -2.3840e+001 -3.9284e+001  6.4522e+000 51891 80882,81038,81012
 1.4000e+000 81205 -1.6443e+001 -5.5184e+001  7.0757e+000 51891 80986,80960,81179
 1.4000e+000 81228 -1.8013e+001 -5.2584e+001  2.1401e+000 51891 80986,81179,81012
 1.4000e+000 81606 -2.1107e+001 -8.7723e+001 -1.5193e+001 51544 81410,81462,81436
 1.4000e+000 81583 -1.3135e+001 -6.1324e+001 -1.1020e+001 51544 81384,81462,81410
 1.4000e+000 81560 -1.7066e+001 -4.8951e+001 -1.0715e+001 51544 81358,81462,81384
 1.4000e+000 81537 -1.2444e+001 -4.6842e+001 -1.1198e+001 51544 81358,81488,81462
 1.4000e+000 81514 -3.3282e+000 -1.7883e+001 -7.9294e+000 51544 81332,81488,81358
 1.4000e+000 81854 -6.4840e+000 -4.7209e+001  4.8903e-001 51004 81877,81655,81629
 1.4000e+000 81831 -6.0475e+000 -4.5969e+001  1.5137e-001 51004 81877,81629,81759
 1.4000e+000 81808  8.8584e+000 -3.9113e+001  4.4919e+000 51004 81655,81707,81681
 1.4000e+000 81785 -9.0127e-001 -5.7398e+001 -5.5194e+000 51004 81707,81759,81733
 1.4000e+000 81903 -5.9929e+000 -4.8049e+001  7.1540e-001 51004 81707,81655,81877
 1.4000e+000 81926 -5.8747e+000 -4.7438e+001  2.6625e-001 51004 81707,81877,81759
 1.4000e+000 82257 -5.5854e+000 -3.5882e+001 -6.5651e-001 50642 82058,82136,82110
 1.4000e+000 82234 -6.7198e-001 -3.1153e+001 -2.5997e+000 50642 82058,82162,82136
 1.4000e+000 82211 -1.1102e+001 -4.2789e+001  8.1875e+000 50642 82058,82110,82084
 1.4000e+000 82188 -4.6536e-001 -3.0836e+001 -5.5618e+000 50642 82032,82162,82058
 1.4000e+000 82684 -3.2037e+000 -4.0061e+001 -1.6733e+000 49931 82779,82707,82465
 1.4000e+000 82661 -9.7335e+000 -4.7119e+001  3.4488e+000 49931 82707,82413,82361
 1.4000e+000 82638 -1.0125e+000 -3.6373e+001 -8.9865e+000 49931 82779,82465,82439
 1.4000e+000 82615 -1.4356e+001 -5.3951e+001  6.4253e+000 49931 82465,82543,82491
 1.4000e+000 82592  3.9543e+000 -4.1563e+001  1.9068e+001 49931 82361,82413,82387
 1.4000e+000 82569 -5.7616e+000 -4.0980e+001  2.6019e+000 49931 82491,82543,82517
 1.4000e+000 82733 -1.0493e+001 -4.4640e+001  6.3972e-001 49931 82543,82465,82707
 1.4000e+000 82756 -6.7487e+000 -4.0063e+001  2.2762e+000 49931 82543,82707,82361
 1.4000e+000 82805 -6.9700e+000 -4.9950e+001  1.2900e+000 49931 82413,82707,82779
 1.4000e+000 82828 -6.0502e+000 -4.5939e+001 -5.5254e+000 49931 82413,82779,82439
 1.4000e+000 83255 -1.4431e+001 -6.4348e+001 -4.5195e+000 49327 82984,83114,83036
 1.4000e+000 83232 -1.6060e+001 -6.7929e+001 -6.6845e+000 49327 82958,83114,82984
 1.4000e+000 83209 -9.5226e+000 -7.9317e+001  2.1448e-001 49327 83036,83114,83088
 1.4000e+000 83186 -8.1598e+000 -6.2211e+001 -3.9732e+000 49327 82984,83036,83010
 1.4000e+000 83163 -1.9961e+001 -7.1999e+001 -8.5734e+000 49327 82932,83114,82958
 1.4000e+000 83140  3.0567e+000 -8.2261e+001 -1.0230e+001 49327 83036,83088,83062
 1.4000e+000 83938 -1.9362e+001 -6.3561e+001  9.4454e-001 48965 83961,83673,83647
 1.4000e+000 83915 -1.4683e+001 -5.4343e+001 -6.6420e-001 48965 83961,83647,83543
 1.4000e+000 83892 -1.2869e+001 -5.3620e+001 -4.5670e+000 48965 83517,83725,83543
 1.4000e+000 83869 -4.7927e+000 -5.6123e+001 -8.9986e+000 48965 83673,83725,83699
 1.4000e+000 83846  3.8777e+000 -4.2596e+001 -6.0400e+000 48965 83543,83647,83621
 1.4000e+000 83823 -1.4186e+000 -4.3903e+001 -3.7386e+000 48965 83543,83621,83569
 1.4000e+000 83800  9.2165e+000 -4.4063e+001 -3.6274e+000 48965 83517,83751,83725
 1.4000e+000 83777  9.0119e+000 -3.5127e+001  7.5925e+000 48965 83569,83621,83595
 1.4000e+000 83987 -1.5313e+001 -6.0542e+001 -4.7752e+000 48965 83725,83673,83961
 1.4000e+000 84010 -1.4065e+001 -5.7672e+001 -5.2602e+000 48965 83725,83961,83543
 1.4000e+000 84258 -1.3454e+001 -5.7383e+001  1.0039e+001 48447 84281,84059,84033
 1.4000e+000 84235 -1.3717e+001 -5.6643e+001  4.2652e+000 48447 84281,84033,84163
 1.4000e+000 84212 -8.7611e+000 -4.8512e+001  5.6592e+000 48447 84059,84111,84085
 1.4000e+000 84189 -2.0363e+000 -5.2725e+001  4.9286e+000 48447 84111,84163,84137
 1.4000e+000 84307 -9.8005e+000 -5.5858e+001  8.3563e+000 48447 84111,84059,84281
 1.4000e+000 84330 -6.5083e+000 -5.4457e+001  2.9738e+000 48447 84111,84281,84163
 1.4000e+000 84529 -1.3350e+001 -5.1984e+001  6.4267e-001 47993 84552,84405,84379
 1.4000e+000 84506 -2.4713e+001 -5.5952e+001  9.0083e-001 47993 84552,84379,84353
 1.4000e+000 84483 -8.9756e+000 -5.1415e+001 -1.9597e+000 47993 84624,84457,84431
 1.4000e+000 84578 -1.5603e+001 -5.6328e+001  1.4529e+000 47993 84431,84405,84552
 1.4000e+000 84601 -1.2482e+001 -5.5651e+001  2.2654e-001 47993 84624,84431,84552
 1.4000e+000 84650 -1.1891e+001 -4.7850e+001 -4.5347e+000 47993 84353,84457,84624
 1.4000e+000 84673 -1.3943e+001 -4.8853e+001 -2.3279e+000 47993 84353,84624,84552
 1.4000e+000 85104 -8.9214e+000 -5.5415e+001  5.9038e+000 47588 85199,85127,84885
 1.4000e+000 85081 -4.7104e+000 -5.5330e+001  3.3739e+000 47588 85127,84781,84963
 1.4000e+000 85058  1.4073e+000 -5.4711e+001 -5.2935e+000 47588 85199,84885,84807
 1.4000e+000 85035 -3.0916e+001 -6.3694e+001  1.4232e+001 47588 84885,84937,84911
 1.4000e+000 85012 -1.0567e+001 -5.1253e+001 -4.7578e+000 47588 84807,84885,84833
 1.4000e+000 84989 -9.0001e+000 -5.0538e+001 -2.7006e+000 47588 84833,84885,84859
 1.4000e+000 85153 -7.8917e+000 -6.4374e+001  9.3823e+000 47588 84937,84885,85127
 1.4000e+000 85176 -4.3576e+000 -5.5120e+001  3.4970e+000 47588 84937,85127,84963
 1.4000e+000 85225  9.4401e+000 -5.1090e+001  6.4008e-001 47588 84781,85127,85199
 1.4000e+000 85248  1.7631e+001 -4.7567e+001 -1.2115e+001 47588 84781,85199,84807
 1.4000e+000 85518  2.2555e-001 -4.6212e+001  1.2329e+000 47226 85293,85397,85319
 1.4000e+000 85495 -1.3652e+000 -4.7444e+001  1.9337e+000 47226 85293,85423,85397
 1.4000e+000 85472 -1.3597e+000 -4.7099e+001  6.8365e-001 47226 85319,85397,85345
 1.4000e+000 85449  2.5718e+000 -3.8983e+001  2.0825e+000 47226 85345,85397,85371
 1.4000e+000 85849 -3.5053e+000 -4.3831e+001 -5.8085e+000 46572 85624,85702,85650
 1.4000e+000 85826 -9.1916e+000 -5.0634e+001 -1.0395e+000 46572 85624,85754,85702
 1.4000e+000 85803 -6.4035e+000 -5.3651e+001 -1.0714e+000 46572 85702,85754,85728
 1.4000e+000 85780  4.2730e-001 -4.3946e+001 -6.8268e-001 46572 85650,85702,85676
 1.4000e+000 86070 -4.8856e+001 -8.4505e+001 -1.6523e+000 46374 85920,85972,85946
 1.4000e+000 86047 -4.4652e+001 -7.4222e+001  8.3978e-001 46374 85920,85998,85972
 1.4000e+000 86024 -2.0855e+001 -6.3372e+001  1.6333e+001 46374 85894,85998,85920
 1.4000e+000 86401 -1.8365e+001 -5.3332e+001  4.0313e+000 46034 86424,86280,86228
 1.4000e+000 86378 -1.9510e+001 -6.0306e+001  1.8419e+000 46034 86424,86228,86176
 1.4000e+000 86355 -2.5388e+001 -6.6235e+001 -5.6098e+000 46034 86176,86228,86202
 1.4000e+000 86332 -2.9561e+000 -4.6744e+001  3.1082e+000 46034 86228,86280,86254
 1.4000e+000 86450 -1.2726e+001 -6.1359e+001  3.9608e+000 46034 86306,86280,86424
 1.4000e+000 86473 -1.6537e+001 -6.9258e+001 -1.2103e-001 46034 86306,86424,86176
 1.4000e+000 87058 -1.1456e+001 -5.7057e+001  7.9340e-001 45516 86813,86917,86865
 1.4000e+000 87035 -1.9265e+001 -7.5500e+001  1.2904e+000 45516 86787,86917,86813
 1.4000e+000 87012 -1.7305e+001 -8.4585e+001  3.4472e+000 45516 86735,86917,86787
 1.4000e+000 86989 -1.4954e+000 -5.2470e+001 -1.2536e+000 45516 86865,86917,86891
 1.4000e+000 86966 -8.6764e+000 -5.7081e+001  1.4903e+000 45516 86813,86865,86839
 1.4000e+000 86943 -9.4592e+000 -9.4427e+001 -8.7744e+000 45516 86735,86787,86761
 1.4000e+000 87208 -2.9384e+001 -7.3222e+001  8.2984e+000 45226 87231,87133,87107
 1.4000e+000 87185 -9.8658e+000 -5.4868e+001  4.1841e+000 45226 87081,87159,87133
 1.4000e+000 87257 -7.3705e+000 -5.3036e+001 -9.0094e-001 45226 87081,87133,87231
 1.4000e+000 87537 -9.5268e+000 -5.9928e+001  1.9022e+000 44772 87387,87439,87413
 1.4000e+000 87514 -1.0887e+001 -6.1969e+001  4.6154e+000 44772 87361,87439,87387
 1.4000e+000 87491  4.1368e+000 -6.7453e+001  2.0387e+000 44772 87361,87465,87439
 1.4000e+000 87996 -1.2868e+001 -4.0967e+001  8.2733e-001 44425 87748,87878,87852
 1.4000e+000 87973  2.6411e+000 -3.3796e+001 -8.9061e+000 44425 87722,87878,87748
 1.4000e+000 87950  6.0835e+000 -4.4821e+001 -4.9817e+000 44425 87800,87852,87826
 1.4000e+000 87927 -1.0825e+001 -4.4642e+001  1.6307e+000 44425 87748,87852,87800
 1.4000e+000 87904  1.7603e+000 -5.2155e+001  1.3255e+001 44425 87748,87800,87774
 1.4000e+000 88423 -5.3262e+000 -4.9835e+001 -2.2349e+000 44078 88590,88230,88204
 1.4000e+000 88400 -7.9901e+000 -5.0921e+001  1.8892e+000 44078 88518,88446,88204
 1.4000e+000 88377 -9.9204e+000 -5.0759e+001  1.8055e-001 44078 88446,88126,88282
 1.4000e+000 88354 -8.9895e+000 -5.1171e+001  1.9526e+000 44078 88518,88204,88178
 1.4000e+000 88331 -6.2005e+000 -5.9415e+001  2.8529e+000 44078 88100,88282,88126
 1.4000e+000 88308 -1.0967e+001 -4.5178e+001  2.1058e+001 44078 88126,88178,88152
 1.4000e+000 88472 -5.3738e+000 -5.0597e+001 -8.0074e-002 44078 88590,88204,88446
 1.4000e+000 88495 -1.0280e+001 -5.3411e+001 -7.6985e-001 44078 88256,88446,88282
 1.4000e+000 88544 -9.0628e+000 -5.0310e+001  1.3485e+000 44078 88126,88446,88518
 1.4000e+000 88567 -1.0103e+001 -5.0587e+001  1.5844e+000 44078 88126,88518,88178
 1.4000e+000 88616 -2.8683e+001 -6.3479e+001 -1.1810e+001 44078 88256,88230,88590
 1.4000e+000 88639 -9.9238e+000 -5.2423e+001 -3.5273e-001 44078 88256,88590,88446
 1.4000e+000 89039  4.8457e+000 -3.6906e+001 -2.1038e+000 43716 88791,88921,88895
 1.4000e+000 89016  1.0274e+001 -4.5268e+001 -2.8082e+000 43716 88765,88921,88791
 1.4000e+000 88993 -3.9172e+000 -4.3743e+001  2.6245e+000 43716 88817,88895,88869
 1.4000e+000 88970 -2.1190e+001 -4.9184e+001  1.3492e+000 43716 88791,88895,88817
 1.4000e+000 88947  3.6309e+000 -3.9298e+001  7.0951e-001 43716 88817,88869,88843
 1.4000e+000 89496 -9.3768e+000 -6.7252e+001 -5.4673e+000 43162 89519,89274,89248
 1.4000e+000 89473 -6.3047e+000 -6.1519e+001 -3.8039e+000 43162 89519,89248,89222
 1.4000e+000 89450 -1.8956e+001 -5.6880e+001 -1.8002e+001 43162 89326,89378,89352
 1.4000e+000 89427 -1.5988e+001 -7.1719e+001 -4.0626e+000 43162 89274,89378,89326
 1.4000e+000 89404 -6.9927e+000 -5.0047e+001  2.1133e+000 43162 89274,89326,89300
 1.4000e+000 89545 -1.1143e+001 -6.1023e+001 -2.9096e+000 43162 89378,89274,89519
 1.4000e+000 89568 -7.5987e+000 -5.4776e+001 -1.0931e+000 43162 89378,89519,89222
 1.4000e+000 89946 -4.4345e+000 -5.6230e+001 -1.9719e+000 42594 90041,89969,89750
 1.4000e+000 89923  1.0104e+001 -3.9932e+001 -7.0505e+000 42594 89969,89698,89828
 1.4000e+000 89900 -6.9951e+000 -5.7039e+001 -1.6081e+000 42594 90041,89750,89724
 1.4000e+000 89877 -1.7028e+001 -6.2485e+001  5.4799e+000 42594 89750,89802,89776
 1.4000e+000 89854 -1.7121e+000 -2.5518e+001 -1.5532e+001 42594 89672,89828,89698
 1.4000e+000 89995 -1.2033e+001 -4.6980e+001  4.1987e+000 42594 89802,89750,89969
 1.4000e+000 90018  4.5235e+000 -3.9520e+001  6.2989e+000 42594 89802,89969,89828
 1.4000e+000 90067 -7.9783e+000 -4.7491e+001 -2.8799e+000 42594 89698,89969,90041
 1.4000e+000 90090 -1.7406e+001 -5.5411e+001  5.6553e-001 42594 89698,90041,89724
 1.4000e+000 90517 -2.0887e+001 -6.6771e+001  4.5503e+000 42140 90540,90220,90194
 1.4000e+000 90494 -2.2929e+001 -8.5218e+001  5.6441e+000 42140 90540,90194,90376
 1.4000e+000 90471 -1.1323e+001 -6.4787e+001  3.2602e+000 42140 90612,90350,90272
 1.4000e+000 90448 -1.7151e+001 -7.3087e+001  7.1917e-001 42140 90272,90350,90298
 1.4000e+000 90425 -1.0126e+001 -6.3367e+001 -5.1865e+000 42140 90298,90350,90324
 1.4000e+000 90402 -1.7954e+001 -7.1883e+001  1.3215e+001 42140 90220,90272,90246
 1.4000e+000 90566 -1.9117e+001 -7.1169e+001  4.6377e+000 42140 90272,90220,90540
 1.4000e+000 90589 -1.3422e+001 -6.9756e+001  1.8299e+000 42140 90612,90272,90540
 1.4000e+000 90638 -1.2799e+001 -5.9083e+001  7.7050e+000 42140 90376,90350,90612
 1.4000e+000 90661 -1.3957e+001 -6.5477e+001  7.7418e+000 42140 90376,90612,90540
 1.4000e+000 91167 -1.5009e+001 -4.9742e+001 -7.3789e-001 41636 91190,90870,90844
 1.4000e+000 91144 -1.5294e+001 -5.8520e+001 -6.5025e-001 41636 91190,90844,91026
 1.4000e+000 91121 -5.2687e+000 -5.4833e+001 -1.7106e+001 41636 90870,90922,90896
 1.4000e+000 91098 -2.0558e+001 -5.8594e+001  8.1130e+000 41636 90922,91026,90948
 1.4000e+000 91075 -6.1620e+000 -4.4697e+001 -9.6809e-001 41636 90948,91026,91000
 1.4000e+000 91052 -1.0724e+001 -6.0205e+001 -1.0892e+000 41636 90948,91000,90974
 1.4000e+000 91216 -1.5750e+001 -4.7374e+001 -5.5577e-001 41636 90922,90870,91190
 1.4000e+000 91239 -1.1819e+001 -5.0460e+001  8.3200e-001 41636 90922,91190,91026
 1.4000e+000 91696 -1.6346e+001 -4.9088e+001 -4.4649e+000 40449 91448,91526,91474
 1.4000e+000 91673 -8.4057e+000 -4.8667e+001  1.2773e+000 40449 91448,91578,91526
 1.4000e+000 91650  1.8602e+000 -4.8709e+001  4.5450e+000 40449 91474,91526,91500
 1.4000e+000 91627 -8.8885e+000 -5.5331e+001 -3.4596e+000 40449 91422,91578,91448
 1.4000e+000 91604 -2.2227e+001 -3.7751e+001  1.8555e+000 40449 91526,91578,91552
 1.4000e+000 92123 -5.0821e+000 -3.9396e+001 -9.6107e-001 39995 92146,91904,91826
 1.4000e+000 92100  7.2155e+000 -3.5413e+001 -9.6377e+000 39995 92146,91826,91800
 1.4000e+000 92077 -7.6505e+000 -4.1462e+001 -6.7854e-002 39995 91826,91904,91852
 1.4000e+000 92054 -1.5131e+001 -6.5188e+001  4.6166e+000 39995 91904,91982,91930
 1.4000e+000 92031  3.4349e+000 -3.8387e+001 -3.9713e+000 39995 91852,91904,91878
 1.4000e+000 92008 -8.4601e+000 -4.6060e+001  2.9197e+000 39995 91930,91982,91956
 1.4000e+000 92172 -9.4574e+000 -4.1875e+001  2.4825e+000 39995 91982,91904,92146
 1.4000e+000 92195 -4.0911e+000 -4.9361e+001 -3.7983e+000 39995 91982,92146,91800
 1.4000e+000 92652 -1.5656e+001 -5.1720e+001 -1.2413e-001 39633 92404,92534,92456
 1.4000e+000 92629 -1.2640e+001 -5.2952e+001  7.6715e-001 39633 92378,92534,92404
 1.4000e+000 92606 -5.4489e+000 -4.7157e+001  1.3695e+000 39633 92404,92456,92430
 1.4000e+000 92583 -2.5520e+001 -7.1603e+001  3.2041e+000 39633 92456,92534,92508
 1.4000e+000 92560 -1.2676e+001 -5.3145e+001  8.8201e+000 39633 92456,92508,92482
 1.4000e+000 93079 -1.6744e+001 -5.1410e+001 -3.6746e+000 39093 93102,92808,92756
 1.4000e+000 93056 -1.6630e+001 -5.0926e+001 -4.0516e+000 39093 93102,92756,92938
 1.4000e+000 93033 -2.0199e+001 -5.5188e+001 -1.6295e+000 39093 93174,92912,92834
 1.4000e+000 93010 -2.8369e+001 -5.2042e+001  1.7323e-001 39093 92834,92912,92860
 1.4000e+000 92987 -1.5981e+001 -6.3367e+001 -7.8574e+000 39093 92756,92808,92782
 1.4000e+000 92964 -2.8308e+001 -7.0073e+001 -1.8545e+001 39093 92860,92912,92886
 1.4000e+000 93128 -1.6914e+001 -4.7203e+001 -3.3544e+000 39093 92834,92808,93102
 1.4000e+000 93151 -1.8952e+001 -5.1917e+001 -2.2620e+000 39093 93174,92834,93102
 1.4000e+000 93200 -1.9303e+001 -5.3902e+001 -4.1854e+000 39093 92938,92912,93174
 1.4000e+000 93223 -1.7970e+001 -5.2170e+001 -4.9715e+000 39093 92938,93174,93102
 1.4000e+000 93680 -7.6773e-001 -4.2788e+001  2.7141e+000 38639 93703,93536,93484
 1.4000e+000 93657 -5.7512e+000 -4.1723e+001  4.0501e+000 38639 93703,93484,93432
 1.4000e+000 93634  1.2308e+001 -4.4220e+001  1.4459e+001 38639 93432,93484,93458
 1.4000e+000 93611 -2.0946e+000 -4.8235e+001 -3.8328e+000 38639 93484,93536,93510
 1.4000e+000 93588 -1.2491e+001 -3.2119e+001  5.3933e+000 38639 93406,93562,93432
 1.4000e+000 93729 -5.3474e+000 -3.8710e+001  2.2077e+000 38639 93562,93536,93703
 1.4000e+000 93752 -1.4904e+001 -4.2284e+001  5.4079e+000 38639 93562,93703,93432
 1.4000e+000 94160 -3.4922e+000 -3.0407e+001 -9.8837e+000 38292 93935,94039,93961
 1.4000e+000 94137 -2.0342e+000 -3.7613e+001  3.8321e+000 38292 93935,94065,94039
 1.4000e+000 94114 -3.4660e+001 -3.4752e+001 -8.5549e+000 38292 93961,94013,93987
 1.4000e+000 94091 -2.3505e+001 -3.3958e+001 -2.7573e+000 38292 93961,94039,94013
 1.4000e+000 94408 -4.2196e+000 -4.2714e+001  2.4338e+000 37880 94431,94261,94235
 1.4000e+000 94385 -3.0238e+000 -3.7970e+001  2.9179e+000 37880 94431,94235,94313
 1.4000e+000 94362 -1.7948e+000 -4.2798e+001 -1.2895e+000 37880 94209,94313,94235
 1.4000e+000 94339  3.0503e-001 -4.1597e+001  5.1116e+000 37880 94183,94313,94209
 1.4000e+000 94457 -5.8241e+000 -3.8015e+001  1.1256e+000 37880 94287,94261,94431
 1.4000e+000 94480 -5.3694e+000 -3.4436e+001  2.2636e+000 37880 94287,94431,94313
 1.4000e+000 94728 -3.5831e+000 -3.9450e+001 -1.3895e+000 37426 94529,94607,94555
 1.4000e+000 94705 -6.2982e+000 -5.2311e+001 -5.1764e-001 37426 94529,94633,94607
 1.4000e+000 94682  1.3612e+001 -5.1935e+001 -3.3129e-001 37426 94503,94633,94529
 1.4000e+000 94659 -9.5856e+000 -1.9629e+001 -1.1651e+001 37426 94555,94607,94581
 1.4000e+000 95257 -8.3722e+000 -5.6503e+001  6.8300e-001 36722 95496,95280,94862
 1.4000e+000 95234  8.8932e-001 -5.2077e+001  4.0040e+000 36722 95496,94862,94836
 1.4000e+000 95211 -5.1091e+000 -4.8767e+001  3.0352e+000 36722 95352,95280,95070
 1.4000e+000 95188 -3.4265e+000 -3.7970e+001  5.4033e+000 36722 95352,95070,95044
 1.4000e+000 95165 -5.6017e+000 -6.0667e+001 -5.5959e+000 36722 95424,94888,94862
 1.4000e+000 95142  7.8798e-001 -4.3680e+001 -3.8226e-001 36722 94914,94966,94940
 1.4000e+000 95119 -1.1717e+001 -7.5866e+001  1.9397e+001 36722 94966,95044,95018
 1.4000e+000 95096 -1.0993e+001 -6.8813e+001  1.6768e+001 36722 94966,95018,94992
 1.4000e+000 95306 -1.0834e+001 -5.1379e+001 -2.9498e+000 36722 95424,94862,95280
 1.4000e+000 95329 -1.0634e+001 -4.9703e+001 -2.8742e+000 36722 94914,95280,94966
 1.4000e+000 95378 -5.3935e+000 -5.2257e+001 -2.2789e+000 36722 94966,95280,95352
 1.4000e+000 95401 -7.6217e+000 -4.8470e+001  4.6623e-001 36722 94966,95352,95044
 1.4000e+000 95450 -1.4775e+001 -5.8634e+001 -1.0410e+001 36722 94914,94888,95424
 1.4000e+000 95473 -1.6840e+001 -5.6860e+001 -7.0599e+000 36722 94914,95424,95280
 1.4000e+000 95522 -9.3422e+000 -5.4059e+001  1.0480e+000 36722 95070,95280,95496
 1.4000e+000 95545 -9.5807e+000 -5.3895e+001  1.1757e+000 36722 95070,95496,94836
 1.4000e+000 96130 -2.4037e+001 -4.5358e+001  1.2731e+000 36268 96153,95911,95859
 1.4000e+000 96107 -2.4931e+001 -5.6115e+001  7.7081e-001 36268 96153,95859,95807
 1.4000e+000 96084 -2.7951e+001 -6.9307e+001 -4.8820e+000 36268 95807,95859,95833
 1.4000e+000 96061 -2.7189e+001 -7.0030e+001  6.7055e+000 36268 95911,95989,95937
 1.4000e+000 96038 -2.1877e+001 -4.5093e+001 -1.7521e+000 36268 95859,95911,95885
 1.4000e+000 96015 -1.8439e+001 -6.6481e+001  5.5437e+000 36268 95937,95989,95963
 1.4000e+000 96179 -1.9217e+001 -5.4767e+001  3.7787e+000 36268 95989,95911,96153
 1.4000e+000 96202 -2.2248e+001 -6.8518e+001  2.9090e+000 36268 95989,96153,95807
 1.4000e+000 96531  4.5435e+000 -5.2940e+001  2.7108e+000 35728 96358,96410,96384
 1.4000e+000 96508 -1.2612e+001 -5.8288e+001  4.5007e+000 35728 96332,96410,96358
 1.4000e+000 96485 -4.6719e+000 -4.2201e+001  1.8223e+000 35728 96332,96436,96410
 1.4000e+000 96462  2.2241e+000 -3.2884e+001 -5.3271e+000 35728 96306,96436,96332
 1.4000e+000 96860 -1.3230e+001 -5.0566e+001 -3.9169e+000 35324 96687,96765,96713
 1.4000e+000 96837 -2.0587e+001 -6.6963e+001 -1.8077e+000 35324 96661,96765,96687
 1.4000e+000 96814 -2.4551e+001 -5.6240e+001 -1.6557e+000 35324 96713,96765,96739
 1.4000e+000 96791 -2.1907e+001 -8.0161e+001 -5.6217e+000 35324 96635,96765,96661
 1.4000e+000 97366 -1.9616e+001 -6.0046e+001 -3.4221e+000 34920 97389,97069,97043
 1.4000e+000 97343 -1.7832e+001 -5.6320e+001 -2.8938e+000 34920 97389,97043,97199
 1.4000e+000 97320 -1.7182e+001 -5.6402e+001 -3.4148e+000 34920 97043,97225,97199
 1.4000e+000 97297 -1.2426e+001 -7.3236e+001 -7.1889e+000 34920 97069,97121,97095
 1.4000e+000 97274 -3.1246e+001 -5.4488e+001 -8.7893e+000 34920 97121,97199,97173
 1.4000e+000 97251 -2.6975e+001 -4.7342e+001 -1.3390e+001 34920 97121,97173,97147
 1.4000e+000 97415 -2.2360e+001 -6.0058e+001 -8.5693e+000 34920 97121,97069,97389
 1.4000e+000 97438 -1.8760e+001 -5.1957e+001 -7.8892e+000 34920 97121,97389,97199
 1.4000e+000 97708 -1.6900e+001 -5.7504e+001  1.6472e+000 34722 97509,97587,97535
 1.4000e+000 97685  7.5294e-001 -6.1708e+001 -9.9228e-001 34722 97509,97613,97587
 1.4000e+000 97662 -1.9378e+001 -7.2977e+001 -6.3281e+000 34722 97483,97613,97509
 1.4000e+000 97639 -1.1275e+001 -3.8079e+001  3.3881e+001 34722 97535,97587,97561
 1.4000e+000 98216 -1.2193e+001 -5.9590e+001  6.1580e+000 34318 97971,98075,97997
 1.4000e+000 98193 -1.2650e+001 -5.3691e+001  2.3518e+000 34318 97893,98075,97971
 1.4000e+000 98170 -7.4092e+000 -5.0636e+001 -1.6469e-001 34318 97893,97971,97919
 1.4000e+000 98147 -9.9028e+000 -5.3088e+001  5.9859e+000 34318 97997,98075,98049
 1.4000e+000 98124 -5.3092e+000 -4.3424e+001 -3.7074e+000 34318 97919,97971,97945
 1.4000e+000 98101 -1.1865e+001 -5.6400e+001  9.0812e+000 34318 97997,98049,98023
 1.4000e+000 98594 -2.1131e+001 -6.1884e+001 -7.8680e-001 33814 98961,98617,98424
 1.4000e+000 98571 -2.3296e+001 -6.5148e+001  2.6515e-001 33814 98689,98617,98372
 1.4000e+000 98548 -2.1551e+001 -5.0765e+001 -1.7233e+000 33814 99033,98689,98372
 1.4000e+000 98525 -1.7153e+001 -4.6010e+001  6.6491e+000 33814 98761,98476,98450
 1.4000e+000 98502 -2.3701e+001 -5.7871e+001 -1.2649e+000 33814 98961,98424,98398
 1.4000e+000 98643 -3.0244e+001 -6.6427e+001 -2.3251e+000 33814 98450,98424,98617
 1.4000e+000 98666 -2.2124e+001 -5.3120e+001  1.1944e+000 33814 98761,98450,98617
 1.4000e+000 98715 -2.8591e+001 -6.2168e+001  5.9271e-001 33814 99161,98689,98320
 1.4000e+000 98738 -2.9847e+001 -7.4126e+001  3.0441e+000 33814 98320,98689,98346
 1.4000e+000 98787 -3.7833e+001 -5.8490e+001  6.2678e+000 33814 98833,98761,98320
 1.4000e+000 98810 -2.7354e+001 -6.1904e+001  9.2445e-001 33814 99161,98320,98761
 1.4000e+000 98859 -1.9969e+001 -4.2813e+001 -3.5687e-001 33814 98476,98761,98833
 1.4000e+000 98987 -1.9676e+001 -5.6512e+001 -1.9813e+000 33814 98372,98617,98961
 1.4000e+000 99010 -2.0748e+001 -5.0498e+001 -2.7391e+000 33814 98372,98961,98398
 1.4000e+000 99059 -3.8020e+001 -8.5093e+001 -9.1045e+000 33814 98346,98689,99033
 1.4000e+000 99187 -2.7900e+001 -6.2584e+001  2.4596e+000 33814 98617,98689,99161
 1.4000e+000 99210 -2.5526e+001 -6.1841e+001  2.6435e+000 33814 98617,99161,98761
 1.4000e+000 99588 -1.1023e+001 -3.8422e+001  2.8079e+000 33566 99366,99444,99392
 1.4000e+000 99565 -1.4767e+000 -4.3395e+001  3.8722e+000 33566 99314,99444,99366
 1.4000e+000 99542 -5.7911e-001 -5.5695e+001 -3.0840e+000 33566 99314,99366,99340
 1.4000e+000 99519  7.2446e+000 -5.2694e+001  2.1537e+001 33566 99314,99470,99444
 1.4000e+000 99496 -6.6918e+000 -3.3371e+001 -1.1762e-002 33566 99392,99444,99418
 1.4000e+000 99787 -8.6260e+000 -4.9265e+001 -5.9749e-001 33105 99637,99689,99663
 1.4000e+000 99764 -9.8445e-001 -4.4866e+001 -2.9587e+000 33105 99611,99689,99637
 1.4000e+000 99741 -7.5624e+000 -4.1891e+001  2.5468e+000 33105 99611,99715,99689
 1.4000e+000 100167 -2.3192e+001 -5.2026e+001  6.1537e+000 32651 100190,99971,99919
 1.4000e+000 100144 -1.3844e+001 -4.6220e+001  3.0005e+000 32651 100262,100190,99919
 1.4000e+000 100121 -1.4062e+001 -4.5531e+001  2.1035e+000 32651 100262,99919,100049
 1.4000e+000 100098 -5.9384e+000 -4.1835e+001 -3.7138e+000 32651 99893,100049,99919
 1.4000e+000 100075 -1.3771e+001 -5.5677e+001  1.2913e+001 32651 99919,99971,99945
 1.4000e+000 100216 -1.3382e+001 -5.0439e+001  3.5488e+000 32651 99997,99971,100190
 1.4000e+000 100239 -1.2166e+001 -5.1428e+001  1.7147e+000 32651 99997,100190,100023
 1.4000e+000 100288 -1.2124e+001 -5.0804e+001  2.7004e+000 32651 100023,100190,100262
 1.4000e+000 100311 -7.2460e+000 -4.6969e+001 -3.6613e-001 32651 100023,100262,100049
 1.4000e+000 100608 -2.8245e+000 -5.1064e+001 -1.0844e+000 32254 100386,100490,100464
 1.4000e+000 100585  5.5037e-001 -4.5147e+001  2.9327e-001 32254 100360,100490,100386
 1.4000e+000 100562 -4.7385e+000 -6.1780e+001 -7.3340e+000 32254 100386,100464,100412
 1.4000e+000 100539  9.6571e+000 -4.2548e+001 -1.9987e+000 32254 100334,100490,100360
 1.4000e+000 100516 -4.2054e+000 -3.6069e+001 -1.2142e+001 32254 100412,100464,100438
 1.4000e+000 100758 -5.2458e+000 -2.1133e+001  9.7450e+000 31914 100985,100781,100683
 1.4000e+000 100735 -2.7992e+001 -4.1000e+001  4.7370e+000 31914 100853,100781,100657
 1.4000e+000 100807 -4.4340e+000 -4.0436e+001  4.5692e+000 31914 100709,100683,100781
 1.4000e+000 100830  2.7480e+000 -3.8164e+001  1.9828e+000 31914 100709,100781,100631
 1.4000e+000 100879  7.9146e-002 -3.2953e+001 -6.3979e+000 31914 100631,100781,100853
 1.4000e+000 101011 -1.6944e+001 -3.6945e+001  4.2658e+000 31914 100657,100781,100985
 1.4000e+000 101191 -9.0915e+000 -5.7582e+001  5.5418e+000 31418 101113,101165,101139
 1.4000e+000 101341 -3.1743e+001 -7.8517e+001 -5.5740e+000 31106 101214,101266,101240
 1.4000e+000 101318 -3.6531e+001 -8.5193e+001 -1.1074e+000 31106 101214,101292,101266
 1.4000e+000 101591 -8.1793e+000 -5.2461e+001  3.2185e+000 30552 101614,101470,101444
 1.4000e+000 101568 -3.5051e+000 -4.8705e+001  4.2059e+000 30552 101366,101496,101470
 1.4000e+000 101545 -1.0854e+001 -5.4220e+001  5.2516e+000 30552 101614,101444,101392
 1.4000e+000 101522 -1.9735e-002 -5.2294e+001  5.8418e+000 30552 101392,101444,101418
 1.4000e+000 101640 -1.1876e+001 -5.1685e+001  5.0959e+000 30552 101366,101470,101614
 1.4000e+000 101663 -1.4191e+001 -5.3117e+001  7.0900e+000 30552 101366,101614,101392
 1.4000e+000 102301 -2.5468e+001 -6.5134e+001  2.7689e+000 30042 102396,102324,102059
 1.4000e+000 102278 -2.0239e+001 -5.9742e+001 -4.5872e-001 30042 102324,101981,101955
 1.4000e+000 102255 -2.9467e+001 -6.3237e+001  6.3752e+000 30042 102396,102059,102033
 1.4000e+000 102232 -8.5936e+000 -4.8301e+001  3.5844e+000 30042 101929,102111,101955
 1.4000e+000 102209 -1.8195e+001 -5.8708e+001 -8.7143e-001 30042 102059,102111,102085
 1.4000e+000 102186 -3.5299e+000 -5.2439e+001  1.8612e+001 30042 101929,102137,102111
 1.4000e+000 102163  1.2677e+001 -4.0213e+001  3.1042e-001 30042 101981,102033,102007
 1.4000e+000 102350 -2.0455e+001 -6.1968e+001  1.1391e-001 30042 102111,102059,102324
 1.4000e+000 102373 -2.1038e+001 -5.9516e+001 -1.4160e+000 30042 102111,102324,101955
 1.4000e+000 102422 -1.9381e+001 -5.8325e+001 -3.0675e-002 30042 101981,102324,102396
 1.4000e+000 102445 -2.3644e+001 -5.6543e+001  3.6216e+000 30042 101981,102396,102033
 1.4000e+000 103000 -1.6458e+001 -5.4785e+001  2.8466e-001 29730 103023,102706,102654
 1.4000e+000 102977 -2.0136e+001 -5.5968e+001  2.6583e-001 29730 103023,102654,102810
 1.4000e+000 102954 -2.4824e+001 -7.8270e+001 -4.2835e+000 29730 102732,102810,102784
 1.4000e+000 102931 -2.7615e+001 -5.7240e+001 -1.0420e+000 29730 102628,102810,102654
 1.4000e+000 102908 -1.8047e+001 -5.8574e+001  6.9896e-001 29730 102654,102706,102680
 1.4000e+000 102885 -1.7497e+001 -5.5414e+001 -8.7509e+000 29730 102732,102784,102758
 1.4000e+000 102862 -3.5036e+001 -6.0522e+001 -4.8801e-001 29730 102628,102836,102810
 1.4000e+000 103049 -1.8499e+001 -5.4539e+001 -1.7328e+000 29730 102732,102706,103023
 1.4000e+000 103072 -2.0812e+001 -5.4789e+001 -1.7075e+000 29730 102732,103023,102810
 1.4000e+000 103222 -3.4916e+000 -4.6572e+001 -4.3632e+000 29226 103095,103147,103121
 1.4000e+000 103199 -6.8071e+000 -4.7666e+001 -3.8146e+000 29226 103095,103173,103147
 1.4000e+000 103730 -1.3049e+001 -5.5668e+001 -4.0070e+000 28822 103537,103589,103563
 1.4000e+000 103707 -1.5939e+001 -5.9595e+001 -2.7007e+000 28822 103433,103589,103537
 1.4000e+000 103684 -3.1748e+001 -6.3685e+001 -6.6321e+000 28822 103433,103537,103459
 1.4000e+000 103661 -1.9813e+001 -5.7367e+001 -3.9824e+000 28822 103407,103589,103433
 1.4000e+000 103638 -5.7717e+000 -5.1903e+001  8.4368e+000 28822 103459,103511,103485
 1.4000e+000 103615 -1.3458e+001 -4.1788e+001  3.7394e+000 28822 103459,103537,103511
 1.4000e+000 103880 -8.7060e+000 -5.4921e+001  5.0393e+000 28368 103975,103903,103779
 1.4000e+000 103857 -1.1455e+001 -6.9799e+001  2.4731e+000 28368 103903,103753,103831
 1.4000e+000 103929 -1.2865e+001 -5.7705e+001  2.9223e+000 28368 103805,103779,103903
 1.4000e+000 103952 -5.7380e+000 -5.5319e+001  4.6376e+000 28368 104105,103903,103831
 1.4000e+000 104001 -9.7918e+000 -5.8027e+001  4.5602e-001 28368 103753,103903,103975
 1.4000e+000 104131 -1.3082e+001 -5.9000e+001  3.2937e+000 28368 103805,103903,104105
 1.4000e+000 104539 -7.0175e+000 -3.9527e+001  4.8369e-001 28028 104562,104340,104314
 1.4000e+000 104516 -7.6026e+000 -3.1132e+001  2.5379e+000 28028 104634,104562,104314
 1.4000e+000 104493 -6.0540e+000 -4.0414e+001 -6.0524e+000 28028 104762,104366,104340
 1.4000e+000 104470  1.1638e+001 -3.9317e+001 -2.0191e+001 28028 104366,104418,104392
 1.4000e+000 104588 -8.3237e+000 -4.2980e+001 -4.3687e+000 28028 104762,104340,104562
 1.4000e+000 104611 -1.1151e+001 -3.2379e+001 -4.4308e+000 28028 104418,104562,104444
 1.4000e+000 104660 -1.7440e+001 -3.4639e+001 -9.5217e-001 28028 104444,104562,104634
 1.4000e+000 104788 -9.8219e+000 -3.7339e+001 -6.2371e+000 28028 104418,104366,104762
 1.4000e+000 104811 -1.1180e+001 -3.8969e+001 -4.7163e+000 28028 104418,104762,104562
 1.4000e+000 105010 -6.2744e+000 -4.8939e+001  2.8190e+000 27324 105033,104886,104860
 1.4000e+000 104987 -1.1769e+001 -5.0376e+001  5.1085e+000 27324 105033,104860,104834
 1.4000e+000 104964 -7.5720e+000 -5.1191e+001  1.5187e+000 27324 105105,104912,104886
 1.4000e+000 105059 -7.3636e+000 -5.0318e+001  1.7024e+000 27324 105105,104886,105033
 1.4000e+000 105082 -8.4630e+000 -4.4120e+001  3.8910e+000 27324 104938,105033,104834
 1.4000e+000 105131 -9.6673e+000 -5.0314e+001 -1.6536e-001 27324 104938,104912,105105
 1.4000e+000 105154 -8.4539e+000 -4.7939e+001  4.1801e-001 27324 104938,105105,105033
 1.4000e+000 105402 -3.5033e+001 -4.5977e+001 -5.1405e+000 27012 105229,105281,105255
 1.4000e+000 105379 -2.1463e+001 -4.8337e+001 -5.7073e+000 27012 105229,105307,105281
 1.4000e+000 105356 -1.2011e+001 -4.3402e+001 -3.5280e+000 27012 105177,105307,105229
 1.4000e+000 105333 -2.7584e+001 -6.1161e+001 -1.4086e+001 27012 105177,105229,105203
 1.4000e+000 105603  1.6031e+001 -1.8939e+001 -2.8477e+000 26508 105626,105453,105427
 1.4000e+000 105580  1.2440e+001 -2.7465e+001 -6.3047e-001 26508 105626,105427,105505
 1.4000e+000 105557  9.7776e+000 -2.8328e+001 -4.2731e-001 26508 105427,105531,105505
 1.4000e+000 105652  1.2623e+001 -2.0612e+001  1.9500e+000 26508 105479,105453,105626
 1.4000e+000 105675  1.0815e+001 -2.4101e+001  3.9184e+000 26508 105479,105626,105505
 1.4000e+000 106057 -2.1841e+001 -5.5998e+001  1.1149e+001 25947 106080,105887,105861
 1.4000e+000 106034 -1.8213e+001 -5.1124e+001  5.3305e+000 25947 106080,105861,105783
 1.4000e+000 106011 -2.1708e+001 -3.9295e+001  4.1642e+000 25947 105783,105835,105809
 1.4000e+000 105988 -2.6478e+001 -4.1259e+001  5.9783e+000 25947 105783,105861,105835
 1.4000e+000 105965 -5.4073e-002 -3.6835e+001 -6.1476e-001 25947 105887,105939,105913
 1.4000e+000 106106 -1.9673e+001 -5.3272e+001  6.5141e+000 25947 105939,105887,106080
 1.4000e+000 106129 -1.0715e+001 -4.3414e+001 -1.7472e-001 25947 105939,106080,105783
 1.4000e+000 106714 -3.0260e+001 -4.6395e+001 -1.8134e+000 25557 106809,106737,106547
 1.4000e+000 106691 -2.9870e+001 -5.0834e+001  2.5618e+000 25557 106737,106417,106391
 1.4000e+000 106668 -2.7420e+001 -4.5939e+001 -1.9979e+000 25557 106809,106547,106495
 1.4000e+000 106645 -3.5045e+001 -6.9753e+001  5.4544e+000 25557 106417,106495,106469
 1.4000e+000 106622 -2.4682e+001 -4.6382e+001 -4.0395e+000 25557 106495,106547,106521
 1.4000e+000 106599 -1.5893e+001 -8.6319e+001  1.0879e+001 25557 106417,106469,106443
 1.4000e+000 106763 -3.3228e+001 -4.6464e+001  4.9850e-001 25557 106573,106547,106737
 1.4000e+000 106786 -2.7129e+001 -4.4139e+001  3.0093e+000 25557 106573,106737,106391
 1.4000e+000 106835 -2.6871e+001 -4.6601e+001 -5.5677e-001 25557 106417,106737,106809
 1.4000e+000 106858 -2.5316e+001 -4.7219e+001 -1.1572e+000 25557 106417,106809,106495
 1.4000e+000 107364 -1.2618e+001 -4.1531e+001 -9.5388e+000 25153 107459,107387,107171
 1.4000e+000 107341 -2.5896e+001 -4.5889e+001 -2.6209e+000 25153 107387,107119,107067
 1.4000e+000 107318 -8.1401e+000 -4.0165e+001 -9.7156e+000 25153 107459,107171,107145
 1.4000e+000 107295 -1.9549e+001 -4.9918e+001 -1.2394e+001 25153 107531,107223,107197
 1.4000e+000 107272 -2.5464e+001 -4.4924e+001 -2.7074e+000 25153 107067,107119,107093
 1.4000e+000 107249 -1.8110e+001 -3.5211e+001 -8.4210e+000 25153 107041,107223,107067
 1.4000e+000 107413 -1.7377e+001 -4.8054e+001 -4.2632e+000 25153 107197,107171,107387
 1.4000e+000 107436 -1.7815e+001 -5.2766e+001 -7.0136e+000 25153 107531,107197,107387
 1.4000e+000 107485 -1.4503e+001 -4.3183e+001  2.1394e-001 25153 107119,107387,107459
 1.4000e+000 107508 -2.5698e+000 -3.8493e+001  3.2146e-001 25153 107119,107459,107145
 1.4000e+000 107557 -1.9058e+001 -4.4584e+001 -9.5353e+000 25153 107067,107223,107531
 1.4000e+000 107580 -1.5006e+001 -4.2684e+001 -4.0394e+000 25153 107067,107531,107387
 1.4000e+000 107958 -2.8153e+000 -4.4772e+001  1.4398e+000 24741 107736,107814,107788
 1.4000e+000 107935 -1.3052e+001 -4.9191e+001  4.9107e-001 24741 107736,107840,107814
 1.4000e+000 107912 -1.5958e+001 -5.1292e+001 -9.5128e-001 24741 107684,107840,107736
 1.4000e+000 107889 -2.8761e-001 -5.5594e+001  5.1652e+000 24741 107736,107788,107762
 1.4000e+000 107866 -1.5589e+001 -6.1042e+001 -8.6113e+000 24741 107684,107736,107710
 1.4000e+000 108157 -1.2191e+001 -4.0670e+001 -3.7848e+000 24237 108180,108059,108007
 1.4000e+000 108134 -4.1982e+000 -3.0392e+001  3.3738e+000 24237 108180,108007,107981
 1.4000e+000 108111  4.5838e+001 -4.5826e+001 -1.2953e+001 24237 108007,108059,108033
 1.4000e+000 108206 -6.9953e+000 -3.2307e+001  4.3895e+000 24237 108085,108059,108180
 1.4000e+000 108229  6.3233e-001 -2.2175e+001  1.1485e+001 24237 108085,108180,107981
 1.4000e+000 108658 -1.8432e+001 -5.7143e+001 -3.0960e+000 23776 108361,108413,108387
 1.4000e+000 108635 -7.2971e+000 -4.5355e+001 -1.4497e+000 23776 108753,108681,108361
 1.4000e+000 108612  3.4366e+000 -4.0012e+001 -9.9124e+000 23776 108681,108465,108439
 1.4000e+000 108589 -7.8514e+000 -4.5291e+001 -1.6528e+000 23776 108753,108361,108335
 1.4000e+000 108566 -1.4502e+001 -5.4780e+001  5.2427e+000 23776 108335,108517,108465
 1.4000e+000 108543  5.8863e+000 -6.6604e+001  1.8537e+001 23776 108465,108517,108491
 1.4000e+000 108707 -1.1749e+001 -4.6538e+001  4.5245e-001 23776 108413,108361,108681
 1.4000e+000 108730 -6.8620e+000 -5.4162e+001 -4.7159e+000 23776 108413,108681,108439
 1.4000e+000 108779 -7.8339e+000 -4.5845e+001 -1.7294e+000 23776 108465,108681,108753
 1.4000e+000 108802 -8.1348e+000 -4.5376e+001 -1.7973e+000 23776 108465,108753,108335
 1.4000e+000 109023 -4.1472e+000 -3.8677e+001  3.9162e+000 23414 108873,108925,108899
 1.4000e+000 109000 -1.3079e+001 -4.1647e+001  3.9595e+000 23414 108847,108925,108873
 1.4000e+000 108977 -1.2008e+000 -1.6617e+001 -2.7818e-002 23414 108847,108951,108925
 1.4000e+000 109474 -1.5761e+001 -4.9862e+001  3.1096e+000 23024 109151,109307,109177
 1.4000e+000 109451 -1.4700e+001 -3.4034e+001  1.2867e+000 23024 109151,109333,109307
 1.4000e+000 109428 -2.4092e+001 -6.5768e+001 -3.2524e+000 23024 109177,109281,109203
 1.4000e+000 109405 -4.0946e+001 -6.6760e+001 -4.2587e+000 23024 109177,109307,109281
 1.4000e+000 109382 -1.7527e+001 -5.9015e+001  1.6460e-001 23024 109203,109281,109229
 1.4000e+000 109359 -1.9738e+001 -6.4254e+001 -5.8005e-001 23024 109229,109281,109255
 1.4000e+000 109820 -1.8808e+001 -4.8576e+001  3.8998e+000 22506 109843,109601,109523
 1.4000e+000 109797 -1.3215e+001 -4.6685e+001  3.0014e+000 22506 109843,109523,109497
 1.4000e+000 109774 -1.3112e+001 -5.0564e+001  4.7571e+000 22506 109915,109653,109627
 1.4000e+000 109751 -1.1231e+001 -5.0070e+001  2.7674e+000 22506 109497,109679,109653
 1.4000e+000 109728 -2.2515e+001 -5.7963e+001 -6.4078e+000 22506 109523,109601,109575
 1.4000e+000 109705 -1.9248e+001 -6.9421e+001 -4.8116e+000 22506 109523,109575,109549
 1.4000e+000 109869 -1.3149e+001 -4.6151e+001  5.0123e+000 22506 109627,109601,109843
 1.4000e+000 109892 -1.2757e+001 -4.9294e+001  4.2974e+000 22506 109915,109627,109843
 1.4000e+000 109941 -1.2485e+001 -4.9225e+001  3.9569e+000 22506 109497,109653,109915
 1.4000e+000 109964 -1.2389e+001 -4.8815e+001  3.4547e+000 22506 109497,109915,109843
 1.4000e+000 110163 -1.2519e+001 -4.4139e+001  3.4951e+000 21936 110186,110039,110013
 1.4000e+000 110140 -1.8009e+001 -4.6993e+001  2.3825e+000 21936 110390,110186,110013
 1.4000e+000 110117 -2.0639e+001 -4.8798e+001  7.2374e-001 21936 110390,110013,109987
 1.4000e+000 110212 -1.5862e+001 -5.3448e+001 -7.4938e-002 21936 110065,110039,110186
 1.4000e+000 110235 -6.3613e+000 -3.3672e+001  6.4898e+000 21936 110258,110186,110091
 1.4000e+000 110284 -2.6740e+001 -5.4451e+001 -1.9866e+000 21936 110065,110186,110258
 1.4000e+000 110416 -1.2471e+001 -5.0364e+001  3.7216e+000 21936 110091,110186,110390
 1.4000e+000 110439 -1.5784e+001 -5.2601e+001  2.0566e+000 21936 110091,110390,109987
 1.4000e+000 110709 -1.4223e+001 -5.3067e+001  7.7007e-001 21338 110510,110614,110588
 1.4000e+000 110686 -2.1862e+001 -6.3707e+001 -2.7351e+000 21338 110484,110614,110510
 1.4000e+000 110663 -1.2541e+001 -3.4991e+001 -3.5967e+000 21338 110510,110562,110536
 1.4000e+000 110640 -2.1099e+001 -5.4337e+001 -6.7363e-001 21338 110510,110588,110562
 1.4000e+000 111296 -1.7180e+001 -5.4539e+001 -1.3243e+000 20934 111025,111155,111103
 1.4000e+000 111273 -2.1743e+001 -7.5517e+001 -1.4185e+000 20934 110999,111155,111025
 1.4000e+000 111250  9.7155e-001 -4.6116e+001 -4.2680e+000 20934 111103,111155,111129
 1.4000e+000 111227 -2.7472e+001 -7.3708e+001 -1.1549e+001 20934 111051,111103,111077
 1.4000e+000 111204 -3.0212e+001 -6.5754e+001 -6.8986e+000 20934 111025,111103,111051
 1.4000e+000 111181 -6.1081e+000 -7.2836e+001  5.4714e+000 20934 110973,111155,110999
 1.4000e+000 111930 -2.6574e+001 -2.7902e+001 -1.0887e+001 20494 111662,111714,111688
 1.4000e+000 111907  1.4191e+000 -3.0039e+001 -8.7197e+000 20494 111584,111714,111662
 1.4000e+000 111884 -1.6921e+001 -4.2045e+001 -3.5123e+000 20494 111584,111766,111714
 1.4000e+000 111861 -1.2620e+001 -6.2819e+001  3.9457e+000 20494 111584,111636,111610
 1.4000e+000 111838 -1.6545e+001 -5.0518e+001  5.2140e-001 20494 111584,111662,111636
 1.4000e+000 111815  7.1005e+000 -3.1752e+001 -2.0054e+000 20494 111558,111766,111584
 1.4000e+000 111792 -1.2744e+001 -3.4174e+001 -7.0548e+000 20494 111714,111766,111740
 1.4000e+000 112249  4.0351e-001 -6.0376e+001 -1.6259e+000 19940 111975,112053,112001
 1.4000e+000 112226 -5.6494e+000 -5.5942e+001  9.9603e+000 19940 111975,112131,112053
 1.4000e+000 112203 -9.5066e+000 -5.7515e+001  0.0000e+000 19940 112053,112105,112079
 1.4000e+000 112180 -1.7092e+001 -6.4900e+001 -3.3454e+000 19940 112053,112131,112105
 1.4000e+000 112157 -1.8479e+000 -6.4342e+001  1.7473e+000 19940 112001,112053,112027
 1.4000e+000 112757 -7.5400e+000 -4.7077e+001 -7.4462e+000 19486 112780,112538,112486
 1.4000e+000 112734 -1.0881e+001 -5.3970e+001 -2.2016e+000 19486 112780,112486,112460
 1.4000e+000 112711 -1.3332e+001 -4.6627e+001  3.1421e-001 19486 112852,112616,112590
 1.4000e+000 112688  9.7070e+000 -6.0805e+001 -1.0892e+001 19486 112486,112538,112512
 1.4000e+000 112665 -2.0172e+001 -5.9567e+001 -2.6182e+000 19486 112434,112616,112460
 1.4000e+000 112642 -2.0004e+001 -4.7320e+001 -5.2035e+000 19486 112538,112590,112564
 1.4000e+000 112806 -1.8067e+001 -5.2055e+001 -5.8886e+000 19486 112590,112538,112780
 1.4000e+000 112829 -1.0819e+001 -4.8996e+001 -1.1795e+000 19486 112852,112590,112780
 1.4000e+000 112878 -1.4285e+001 -5.0173e+001  7.8280e-001 19486 112460,112616,112852
 1.4000e+000 112901 -1.2716e+001 -5.3717e+001 -2.7887e-002 19486 112460,112852,112780
 1.4000e+000 113252 -3.8652e+001 -6.6601e+001 -1.6027e+000 19096 113105,113157,113131
 1.4000e+000 113229 -3.5854e+001 -5.3802e+001 -9.5404e-001 19096 113053,113157,113105
 1.4000e+000 113206 -2.9863e+001 -5.0173e+001  6.5710e-001 19096 113027,113157,113053
 1.4000e+000 113183 -4.5805e+001 -7.2705e+001  2.7045e+000 19096 113053,113105,113079
 1.4000e+000 113451 -3.4166e+000 -4.8219e+001  1.3433e+001 18642 113327,113379,113353
 1.4000e+000 113428 -1.0576e+001 -5.0420e+001 -1.0574e+000 18642 113301,113379,113327
 1.4000e+000 113405 -4.7659e+000 -4.5821e+001  9.3509e-001 18642 113275,113379,113301
 1.4000e+000 113699 -1.3469e+001 -5.4078e+001  4.9882e-001 18138 113474,113552,113526
 1.4000e+000 113676 -9.5232e+000 -5.2723e+001 -1.4147e+000 18138 113474,113578,113552
 1.4000e+000 113653 -1.2951e+001 -5.5648e+001  3.0236e-003 18138 113474,113604,113578
 1.4000e+000 113630 -7.2094e+000 -5.2796e+001  4.1336e+000 18138 113474,113526,113500
 1.4000e+000 113851 -1.8465e+001 -6.2943e+001  1.0949e-001 17682 113750,113802,113776
 1.4000e+000 113828 -1.5458e+001 -6.2207e+001  4.1700e-001 17682 113724,113802,113750
 1.4000e+000 114383 -2.2177e+001 -4.5620e+001  6.9049e-001 17106 114086,114242,114164
 1.4000e+000 114360 -3.0537e+001 -4.8623e+001  6.9368e+000 17106 114060,114242,114086
 1.4000e+000 114337 -3.4646e+001 -6.6915e+001  6.9779e+000 17106 114086,114164,114138
 1.4000e+000 114314 -1.6522e+001 -6.2173e+001 -4.4673e+000 17106 114190,114242,114216
 1.4000e+000 114291 -2.7708e+001 -6.2657e+001 -4.2669e-001 17106 114164,114242,114190
 1.4000e+000 114268 -3.0313e+001 -6.8942e+001  1.1262e+001 17106 114086,114138,114112
 1.4000e+000 114680 -1.0612e+001 -4.7515e+001 -1.0248e+000 16766 114703,114432,114406
 1.4000e+000 114657 -9.6147e+000 -4.9929e+001  2.4728e-001 16766 114703,114406,114510
 1.4000e+000 114634 -7.1001e+000 -4.5344e+001 -7.3053e-001 16766 114406,114536,114510
 1.4000e+000 114611 -1.4692e+001 -5.0440e+001 -1.6746e+000 16766 114432,114484,114458
 1.4000e+000 114588  2.3006e+001 -3.9798e+001  1.6775e+001 16766 114406,114562,114536
 1.4000e+000 114729 -1.4869e+001 -4.9831e+001 -1.3795e-001 16766 114484,114432,114703
 1.4000e+000 114752 -1.0799e+001 -5.0465e+001  4.7697e-001 16766 114484,114703,114510
 1.4000e+000 114902 -3.0474e+000 -5.4774e+001 -2.8867e+000 16362 114775,114827,114801
 1.4000e+000 114879  2.9832e+001 -4.0794e+001 -1.0835e+001 16362 114775,114853,114827
 1.4000e+000 115054 -6.3012e+001 -1.0417e+002  4.8859e+000 15908 114953,115005,114979
 1.4000e+000 115031 -6.2988e+001 -1.0047e+002  5.1128e+000 15908 114927,115005,114953
 1.4000e+000 115326 -1.7579e+001 -5.7216e+001  1.0384e+001 15251 115101,115179,115153
 1.4000e+000 115303 -1.4046e+001 -5.2452e+001 -1.4917e+000 15251 115101,115231,115179
 1.4000e+000 115280 -1.5346e+001 -5.5385e+001 -1.1970e+000 15251 115179,115231,115205
 1.4000e+000 115257 -1.2401e+000 -1.2032e+002  3.5279e+001 15251 115101,115153,115127
 1.4000e+000 115429 -2.0754e+001 -5.3762e+001  5.6703e+000 421 115351,115403,115377
 1.5000e+000 66230  1.3461e+001 -1.6329e+001 -4.4887e+000 65954 66152,66204,66178
 1.5000e+000 66429  1.3184e+001 -2.4691e+001 -1.2154e+001 65642 66279,66331,66305
 1.5000e+000 66406  3.9413e+000 -3.0578e+001 -2.8098e+000 65642 66279,66357,66331
 1.5000e+000 66383 -1.2439e+001 -2.6662e+001 -1.9585e+000 65642 66253,66357,66279
 1.5000e+000 66628  3.6355e+000 -6.7344e+001  4.2116e+000 65444 66452,66530,66478
 1.5000e+000 66605  2.0033e+000 -6.7046e+001  4.2502e+000 65444 66452,66556,66530
 1.5000e+000 66582  1.4673e+001 -6.5267e+001  1.0814e+000 65444 66478,66530,66504
 1.5000e+000 67006 -5.0223e+000 -3.7021e+001 -4.0244e-001 65246 66732,66810,66758
 1.5000e+000 66983  6.3089e+000 -2.7478e+001  3.7277e+000 65246 66732,66836,66810
 1.5000e+000 66960 -4.9177e+000 -4.3058e+001 -5.2667e+000 65246 66732,66862,66836
 1.5000e+000 66937 -4.8591e+000 -3.8067e+001 -7.3280e-001 65246 66758,66810,66784
 1.5000e+000 66914  2.2788e+000 -3.9168e+001 -1.0839e+001 65246 66732,66888,66862
 1.5000e+000 67107  1.4382e+001 -1.5734e+001 -3.9169e+000 64934 67029,67081,67055
 1.5000e+000 67306  8.7374e+000 -4.9050e+001  8.2496e+000 64736 67156,67208,67182
 1.5000e+000 67283 -1.1945e+000 -4.6783e+001  9.2750e+000 64736 67130,67208,67156
 1.5000e+000 67260 -7.5509e+000 -6.4414e+001  6.9607e+000 64736 67130,67234,67208
 1.5000e+000 67507 -4.8052e+000 -3.5090e+001 -1.4666e+001 64389 67357,67409,67383
 1.5000e+000 67484  2.5524e+000 -5.3504e+001 -1.1507e+001 64389 67357,67435,67409
 1.5000e+000 67461  1.9312e+000 -6.0847e+001 -9.1331e+000 64389 67331,67435,67357
 1.5000e+000 67708  1.1810e+001 -3.9553e+001  7.2699e+000 63985 67731,67584,67558
 1.5000e+000 67685  6.0200e+000 -2.6517e+001  5.2112e+000 63985 67731,67558,67636
 1.5000e+000 67662  9.0444e+000 -3.2332e+001 -2.6959e+000 63985 67532,67636,67558
 1.5000e+000 67757  8.8399e+000 -4.5824e+001  6.0008e+000 63985 67610,67584,67731
 1.5000e+000 67780  7.1241e-001 -3.6515e+001  3.1558e+000 63985 67610,67731,67636
 1.5000e+000 67981 -2.9698e-001 -1.8696e+001 -1.2010e+000 63787 67857,67909,67883
 1.5000e+000 67958 -2.9536e+000 -1.7247e+001 -1.9439e+000 63787 67831,67909,67857
 1.5000e+000 67935 -5.7871e+000 -2.6777e+001 -2.2046e+000 63787 67805,67909,67831
 1.5000e+000 68231  7.6448e+000 -4.5292e+001  9.7802e-001 63589 68254,68084,68032
 1.5000e+000 68208  4.6425e+000 -3.4147e+001 -3.8352e-001 63589 68254,68032,68006
 1.5000e+000 68185  4.4539e+000 -3.5446e+001 -3.4782e+000 63589 68326,68136,68110
 1.5000e+000 68162  3.0027e+001 -3.5217e+001 -1.2453e+000 63589 68032,68084,68058
 1.5000e+000 68280  1.8459e+001 -3.6808e+001 -4.1945e+000 63589 68110,68084,68254
 1.5000e+000 68303  5.7425e+000 -3.4885e+001 -3.2922e+000 63589 68326,68110,68254
 1.5000e+000 68352  3.7332e+000 -3.5302e+001 -4.4897e-001 63589 68006,68136,68326
 1.5000e+000 68375  5.7329e+000 -3.4522e+001 -3.3969e-001 63589 68006,68326,68254
 1.5000e+000 68836  1.7718e+001 -1.7408e+001  6.0283e+000 63128 68859,68588,68562
 1.5000e+000 68813 -1.8173e+000 -2.5506e+001  7.3192e+000 63128 68859,68562,68692
 1.5000e+000 68790 -5.0713e+000 -2.2076e+001 -7.5560e+000 63128 68614,68692,68666
 1.5000e+000 68767 -1.3485e+001 -1.9927e+001  6.9820e+000 63128 68562,68718,68692
 1.5000e+000 68744 -3.9901e+000 -1.9885e+001 -9.2283e+000 63128 68614,68666,68640
 1.5000e+000 68885  1.9699e+001 -1.4618e+001 -1.1938e+001 63128 68614,68588,68859
 1.5000e+000 68908  1.8674e+000 -2.1858e+001 -1.0312e+001 63128 68614,68859,68692
 1.5000e+000 69237  1.3214e+000 -3.1932e+001  1.5518e+000 62731 69064,69116,69090
 1.5000e+000 69214 -1.4917e+000 -3.4112e+001  5.3219e-001 62731 69064,69142,69116
 1.5000e+000 69191 -5.5716e+000 -5.8356e+001 -1.3201e+000 62731 69038,69142,69064
 1.5000e+000 69168  1.3695e+000 -4.1182e+001  2.3179e+000 62731 69012,69142,69038
 1.5000e+000 69539 -3.3474e-001  1.8444e+000  1.8746e-001 62433 69389,69467,69441
 1.5000e+000 69516  1.1005e+000 -1.7085e+000  6.8195e-001 62433 69363,69467,69389
 1.5000e+000 69493 -6.8649e-001 -8.9904e-001  1.2682e+000 62433 69389,69441,69415
 1.5000e+000 69966 -5.2219e+000 -3.5370e+001 -7.4364e+000 62235 69989,69773,69721
 1.5000e+000 69943 -1.1233e+001 -4.7239e+001 -1.6602e+001 62235 70061,69989,69721
 1.5000e+000 69920 -1.0914e+001 -6.1236e+001 -1.4905e+001 62235 70061,69721,69643
 1.5000e+000 69897 -1.0084e+001 -2.3713e+001 -9.5452e+000 62235 69721,69773,69747
 1.5000e+000 69874 -2.4940e+001 -1.2304e+002 -2.9882e+001 62235 69643,69721,69695
 1.5000e+000 69851  4.0464e+001 -2.8616e+001  4.8459e+000 62235 69643,69695,69669
 1.5000e+000 70015 -4.7203e+000 -4.7862e+001 -1.7893e+001 62235 69799,69773,69989
 1.5000e+000 70038 -1.8830e+001 -5.5422e+001 -2.3418e+001 62235 69799,69989,69825
 1.5000e+000 70087 -1.6723e+001 -6.1741e+001 -1.2500e+001 62235 69825,69989,70061
 1.5000e+000 70110 -1.0371e+001 -6.9182e+001 -1.2729e+001 62235 69825,70061,69643
 1.5000e+000 70260 -5.0531e+000 -3.7607e+001  5.7690e+000 62037 70133,70185,70159
 1.5000e+000 70237 -6.2301e+000 -5.7709e+001  8.0214e+000 62037 70133,70211,70185
 1.5000e+000 70640 -1.7830e+000 -3.3116e+001  6.4057e+000 61583 70735,70663,70418
 1.5000e+000 70617 -7.4005e+000 -4.4361e+001  8.4880e+000 61583 70663,70366,70522
 1.5000e+000 70594 -7.8147e-001 -2.7474e+001  4.2855e+000 61583 70735,70418,70392
 1.5000e+000 70571  1.3957e-001 -2.7968e+001  1.1446e+001 61583 70418,70496,70444
 1.5000e+000 70548 -1.1659e+001 -1.3977e+001  1.0282e+001 61583 70444,70496,70470
 1.5000e+000 70689 -9.6267e+000 -3.1302e+001  4.1984e+000 61583 70496,70418,70663
 1.5000e+000 70712 -1.8003e+001 -2.8855e+001  6.9872e+000 61583 70496,70663,70522
 1.5000e+000 70761  1.7645e+000 -2.9707e+001 -4.7252e-002 61583 70366,70663,70735
 1.5000e+000 70784  6.0297e-001 -2.5111e+001 -1.6606e+000 61583 70366,70735,70392
 1.5000e+000 71054  7.6587e+000 -2.4184e+001  7.1668e+000 61313 71077,70881,70855
 1.5000e+000 71031  1.4904e+001 -1.6700e+001  1.3494e+001 61313 71077,70855,70829
 1.5000e+000 71008 -6.2447e+000 -1.6504e+001  8.7372e+000 61313 70829,70959,70933
 1.5000e+000 70985  7.1659e+000 -2.0864e+001 -3.3256e+000 61313 70881,70933,70907
 1.5000e+000 71103 -5.5277e-001 -2.1347e+001  1.7461e+000 61313 70933,70881,71077
 1.5000e+000 71126  6.6128e+000 -1.7335e+001  7.1330e+000 61313 70933,71077,70829
 1.5000e+000 71604 -1.5513e+001 -4.7244e+001 -4.6779e+000 60909 71627,71232,71414
 1.5000e+000 71581 -2.1293e+001 -4.8209e+001 -5.8168e+000 60909 71232,71440,71414
 1.5000e+000 71558 -1.1217e+001 -4.3898e+001 -2.9516e+000 60909 71627,71414,71336
 1.5000e+000 71535  9.1880e+000 -6.1328e+001  4.1345e+000 60909 71362,71414,71388
 1.5000e+000 71512 -1.7493e+001 -5.7953e+001 -1.7613e+000 60909 71336,71414,71362
 1.5000e+000 71489 -6.5195e+000 -3.6575e+001 -5.0063e+000 60909 71258,71336,71310
 1.5000e+000 71466 -1.2440e+001 -3.9616e+001 -3.9045e+000 60909 71258,71310,71284
 1.5000e+000 71653 -1.7413e+001 -4.3130e+001 -2.8165e+000 60909 71258,71232,71627
 1.5000e+000 71676 -1.4605e+001 -4.1536e+001 -2.0471e+000 60909 71258,71627,71336
 1.5000e+000 71875 -2.2713e+000 -3.8556e+001  9.8530e+000 60611 71898,71725,71699
 1.5000e+000 71852 -1.6942e+001 -3.8061e+001  1.2729e+001 60611 71898,71699,71803
 1.5000e+000 71829  4.3202e+000 -3.4882e+001  3.5492e+000 60611 71970,71751,71725
 1.5000e+000 71924  3.6018e+000 -3.7862e+001  5.4843e+000 60611 71970,71725,71898
 1.5000e+000 71947 -2.2151e+000 -2.5814e+001  3.4602e+000 60611 71777,71898,71803
 1.5000e+000 71996  2.1540e+000 -3.8582e+001  4.8120e+000 60611 71777,71751,71970
 1.5000e+000 72019  9.8299e-001 -4.0626e+001  6.9227e+000 60611 71777,71970,71898
 1.5000e+000 72576 -2.2089e+001 -7.4939e+001  1.1921e+001 60142 72599,72256,72230
 1.5000e+000 72553 -1.5276e+001 -5.9705e+001  1.0173e+001 60142 72671,72599,72230
 1.5000e+000 72530 -1.9185e+001 -5.2761e+001  4.6935e+000 60142 72671,72230,72204
 1.5000e+000 72507 -2.3044e+001 -5.9438e+001  9.2253e+000 60142 72743,72360,72334
 1.5000e+000 72484 -3.1793e+001 -6.0391e+001  1.5496e+001 60142 72815,72282,72256
 1.5000e+000 72461  4.8241e+000 -5.3102e+001  7.2245e+000 60142 72887,72308,72282
 1.5000e+000 72438 -1.5310e+001 -7.4749e+001  1.0379e+000 60142 72204,72412,72386
 1.5000e+000 72625 -2.4069e+001 -6.6963e+001  4.2499e+000 60142 72815,72256,72599
 1.5000e+000 72648 -2.2098e+001 -6.2247e+001  8.6521e+000 60142 72743,72334,72599
 1.5000e+000 72697 -1.8881e+001 -6.8570e+001  8.5949e+000 60142 72386,72599,72671
 1.5000e+000 72720 -2.3011e+001 -6.1998e+001  4.6862e+000 60142 72386,72671,72204
 1.5000e+000 72769 -1.6788e+001 -6.1333e+001  1.5306e+001 60142 72386,72360,72743
 1.5000e+000 72792 -1.9326e+001 -6.8439e+001  1.1664e+001 60142 72386,72743,72599
 1.5000e+000 72841 -1.5070e+001 -6.0997e+001  1.3400e+001 60142 72887,72282,72815
 1.5000e+000 72864 -1.9950e+001 -5.6988e+001  8.5118e+000 60142 72334,72815,72599
 1.5000e+000 72913 -1.9795e+001 -4.2819e+001 -2.0196e-001 60142 72334,72308,72887
 1.5000e+000 72936 -2.5111e+001 -4.4883e+001  3.7508e+000 60142 72334,72887,72815
 1.5000e+000 73491 -8.9903e+000 -6.2816e+001 -1.5462e+001 59738 73145,73327,73171
 1.5000e+000 73468  1.6766e+001 -2.9531e+001 -4.2236e+000 59738 73119,73327,73145
 1.5000e+000 73445 -6.4537e+000 -3.1379e+001 -3.6790e+000 59738 73171,73327,73301
 1.5000e+000 73422  1.8254e+000 -4.1295e+001  8.5472e-001 59738 73514,73275,73249
 1.5000e+000 73399 -1.0068e+001 -4.4279e+001  3.2097e+000 59738 73586,73514,73249
 1.5000e+000 73376 -8.6680e+000 -2.2522e+001  1.8694e+001 59738 73197,73249,73223
 1.5000e+000 73353 -1.0832e+001 -4.6722e+001  8.8260e+000 59738 73586,73249,73197
 1.5000e+000 73540 -8.4942e+000 -5.1893e+001 -3.6011e+000 59738 73301,73275,73514
 1.5000e+000 73563 -5.3880e+000 -3.7637e+001 -2.6526e+000 59738 73301,73514,73171
 1.5000e+000 73612 -7.1316e+000 -3.4853e+001  1.4426e+000 59738 73171,73514,73586
 1.5000e+000 73635 -7.0710e+000 -3.8452e+001  6.3668e+000 59738 73171,73586,73197
 1.5000e+000 73964 -1.4377e+001 -4.9330e+001  4.7771e+000 59334 73791,73843,73817
 1.5000e+000 73941 -1.8817e+000 -5.1590e+001  3.2953e+000 59334 73791,73869,73843
 1.5000e+000 73918 -1.5625e+001 -8.3518e+001  2.4269e+000 59334 73739,73869,73791
 1.5000e+000 73895  2.7256e+001 -9.7544e+001 -1.6068e-001 59334 73739,73791,73765
 1.5000e+000 74261  6.9023e-002 -4.9150e+001  1.6094e+001 58630 74065,74117,74091
 1.5000e+000 74238 -5.2433e+000 -3.3859e+001  1.2796e+001 58630 74356,74284,74065
 1.5000e+000 74215  1.4601e+000 -1.8538e+001  8.8065e+000 58630 74284,74013,73987
 1.5000e+000 74192 -4.9384e+000 -3.3364e+001  1.3152e+001 58630 74356,74065,74039
 1.5000e+000 74169  8.8312e+000 -2.9742e+001 -3.9205e+000 58630 73987,74143,74117
 1.5000e+000 74310  9.0912e-001 -4.8882e+001  1.6029e+001 58630 74117,74065,74284
 1.5000e+000 74333  1.0905e+001 -3.2631e+001  9.6715e+000 58630 74117,74284,73987
 1.5000e+000 74382 -5.4826e+000 -3.4530e+001  1.2076e+001 58630 74013,74284,74356
 1.5000e+000 74405 -5.1642e+000 -3.3955e+001  1.2430e+001 58630 74013,74356,74039
 1.5000e+000 74815  7.5932e+000 -2.9148e+001 -6.5462e+000 58226 74590,74642,74616
 1.5000e+000 74792 -5.3331e+000 -3.2550e+001  2.2704e+000 58226 74590,74694,74642
 1.5000e+000 74769 -1.0136e+001 -4.5228e+001  8.1521e+000 58226 74590,74720,74694
 1.5000e+000 74746 -1.8406e+001 -2.4196e+001 -2.3847e+000 58226 74642,74694,74668
 1.5000e+000 75014  9.4714e+000 -4.1302e+001  3.5257e+000 57786 75037,74864,74838
 1.5000e+000 74991  1.1681e+001 -2.3789e+001  6.3455e+000 57786 75037,74838,74916
 1.5000e+000 74968  1.0287e+001 -2.4732e+001  7.0233e+000 57786 74838,74942,74916
 1.5000e+000 75063  1.0501e+001 -6.0724e+001 -1.8142e+000 57786 74890,74864,75037
 1.5000e+000 75086  1.4757e+001 -4.0552e+001  1.2789e+000 57786 74890,75037,74916
 1.5000e+000 75368 -2.4206e+000 -2.5529e+001  1.9746e+000 57496 75192,75270,75218
 1.5000e+000 75345  2.0102e+001 -1.4282e+001  5.9560e+000 57496 75192,75296,75270
 1.5000e+000 75322 -1.9170e+000 -3.0755e+001  3.3958e+000 57496 75218,75270,75244
 1.5000e+000 75648 -5.1557e+000 -3.6416e+001 -1.1018e+000 57206 75472,75550,75498
 1.5000e+000 75625 -2.2521e-001 -2.5620e+001 -2.8057e+000 57206 75472,75576,75550
 1.5000e+000 75602  1.3049e+001 -1.6432e+001  7.2259e+000 57206 75671,75550,75524
 1.5000e+000 75697 -3.0642e+000 -3.5591e+001  7.2212e-002 57206 75498,75550,75671
 1.5000e+000 76154 -3.1350e+000 -3.8804e+001 -4.4612e+000 56802 75958,76010,75984
 1.5000e+000 76131  1.9058e+000 -3.4426e+001 -7.1137e+000 56802 75932,76010,75958
 1.5000e+000 76108  5.4113e-002 -5.2381e+001 -3.1037e-002 56802 75906,76010,75932
 1.5000e+000 76085  7.2753e+000 -3.6079e+001  3.6749e+000 56802 75880,76010,75906
 1.5000e+000 76062  2.8275e+001 -1.9574e+001  2.5819e+001 56802 75880,76036,76010
 1.5000e+000 76505  2.6939e+001 -1.5830e+001 -1.4210e+000 56504 76306,76384,76332
 1.5000e+000 76482  2.6825e+000 -3.2493e+001  5.8846e+000 56504 76306,76410,76384
 1.5000e+000 76459  2.7298e+001  1.0713e+001  2.3177e+001 56504 76332,76384,76358
 1.5000e+000 76436  8.3318e+001 -1.1761e+000  1.0992e+001 56504 76280,76410,76306
 1.5000e+000 77011  1.8859e-001 -3.2617e+001 -3.3846e+000 56050 76740,76818,76792
 1.5000e+000 76988 -3.6242e+000 -3.5110e+001 -3.1920e-001 56050 76714,76818,76740
 1.5000e+000 76965 -1.5229e+001 -3.9417e+001  3.0209e+000 56050 76688,76818,76714
 1.5000e+000 76942 -1.3355e+001 -3.8099e+001  4.6948e+000 56050 76688,76844,76818
 1.5000e+000 76919 -1.6667e+001 -5.0629e+001  3.5645e+000 56050 76740,76792,76766
 1.5000e+000 76896 -1.0609e+001 -4.5994e+001 -1.4660e+000 56050 76688,76870,76844
 1.5000e+000 77517 -1.8988e+001 -3.4437e+001 -4.0397e-002 55738 77220,77350,77324
 1.5000e+000 77494 -1.6169e+001 -4.0956e+001 -6.2478e+000 55738 77220,77376,77350
 1.5000e+000 77471 -1.1069e+001 -2.5904e+001 -6.0787e+000 55738 77194,77376,77220
 1.5000e+000 77448 -9.2998e+000 -4.4092e+001 -7.1100e+000 55738 77220,77298,77246
 1.5000e+000 77425 -1.1888e+001 -3.0569e+001 -1.5281e+000 55738 77220,77324,77298
 1.5000e+000 77402  6.0011e+001 -1.2775e+001  8.3134e+000 55738 77246,77298,77272
 1.5000e+000 78064 -1.4651e+001 -7.8037e+001  9.1731e+000 55227 78231,78087,77773
 1.5000e+000 78041 -1.5912e+001 -9.9601e+001  1.0267e+001 55227 78087,77695,77643
 1.5000e+000 78018 -2.4843e+001 -9.6086e+001  1.2425e+001 55227 78159,77799,77773
 1.5000e+000 77995 -8.9329e+000 -7.4212e+001  6.5445e+000 55227 78231,77773,77721
 1.5000e+000 77972  5.5166e+000 -5.5471e+001  2.5430e+001 55227 77643,77695,77669
 1.5000e+000 77949 -4.3041e+001 -7.7847e+001  1.3660e+001 55227 77643,77877,77851
 1.5000e+000 77926 -3.2483e+001 -9.8033e+001  2.1189e+001 55227 77799,77851,77825
 1.5000e+000 77903 -5.8247e+000 -6.0156e+001 -2.0274e+000 55227 77721,77773,77747
 1.5000e+000 78113 -2.0843e+001 -9.3758e+001  1.4202e+001 55227 78159,77773,78087
 1.5000e+000 78136 -7.1276e+000 -7.9392e+001  1.5085e+001 55227 77851,78087,77643
 1.5000e+000 78185 -3.3006e+001 -9.0193e+001  1.1053e+001 55227 77851,77799,78159
 1.5000e+000 78208 -2.9512e+001 -8.8708e+001  1.2448e+001 55227 77851,78159,78087
 1.5000e+000 78257 -1.7105e+000 -9.0777e+001  5.7540e+000 55227 77695,78087,78231
 1.5000e+000 78280  7.9306e+000 -8.2676e+001  1.8028e+000 55227 77695,78231,77721
 1.5000e+000 78737  8.3398e-001 -2.4687e+001 -1.2743e+001 54773 78463,78541,78515
 1.5000e+000 78714 -1.2029e+001 -4.3539e+001 -5.6433e+000 54773 78463,78619,78541
 1.5000e+000 78691 -5.2715e+000 -3.4494e+001 -6.2178e-001 54773 78463,78515,78489
 1.5000e+000 78668 -1.9872e+001 -3.0544e+001 -4.8104e+000 54773 78541,78593,78567
 1.5000e+000 78645 -8.3797e+000 -3.6350e+001 -7.2589e+000 54773 78541,78619,78593
 1.5000e+000 78838  1.2380e+001 -1.0636e+002 -1.0670e+001 54211 78760,78812,78786
 1.5000e+000 79297 -1.9256e+001 -6.2373e+001  5.3103e+000 53814 79520,79153,79049
 1.5000e+000 79274 -1.3979e+001 -5.4917e+001 -1.4510e+000 53814 79520,79049,79023
 1.5000e+000 79251 -2.6926e+001 -7.8516e+001  1.0913e+001 53814 79320,79101,79049
 1.5000e+000 79228 -1.8660e+001 -5.8535e+001  4.6520e+000 53814 79320,79049,79153
 1.5000e+000 79205 -7.7316e+000 -8.7491e+001  1.2583e+001 53814 79049,79101,79075
 1.5000e+000 79346 -1.8352e+001 -5.5083e+001 -3.5557e+000 53814 79392,79320,79127
 1.5000e+000 79369 -6.1209e+000 -5.2311e+001 -9.8772e+000 53814 79127,79320,79153
 1.5000e+000 79418 -2.9439e+001 -7.8598e+001 -1.0065e+001 53814 79101,79320,79392
 1.5000e+000 79546 -2.7544e+001 -7.8280e+001  1.8622e+001 53814 79179,79153,79520
 1.5000e+000 79569 -3.1417e+000 -6.2070e+001  8.7351e+000 53814 79179,79520,79023
 1.5000e+000 80075  2.3469e+001 -1.1993e+001  1.7330e+001 53039 80098,79908,79830
 1.5000e+000 80052  2.9143e+001 -3.5563e+000  2.3970e+001 53039 80098,79830,79804
 1.5000e+000 80029  1.8065e+001 -5.8823e+000  1.4632e+001 53039 79752,79934,79804
 1.5000e+000 80006 -1.0587e+001 -4.7358e+001  1.3845e+001 53039 79856,79908,79882
 1.5000e+000 79983  4.0343e+000 -3.8891e+001  8.4815e+000 53039 79830,79908,79856
 1.5000e+000 79960  1.0059e+001 -6.1704e+000  5.6819e+000 53039 79752,79804,79778
 1.5000e+000 80124  1.2506e+001 -2.3620e+001  6.0641e+000 53039 79934,79908,80098
 1.5000e+000 80147  2.5336e+001 -8.9000e+000  1.3952e+001 53039 79934,80098,79804
 1.5000e+000 80555 -7.8784e+000 -3.8889e+001 -4.2454e-001 52699 80356,80434,80408
 1.5000e+000 80532  1.6237e+001 -3.8914e+001 -5.2385e+000 52699 80356,80460,80434
 1.5000e+000 80509  3.1807e+001 -4.4912e+001 -1.4399e+001 52699 80330,80460,80356
 1.5000e+000 80486 -7.1161e+000 -4.2770e+001 -3.0566e+000 52699 80356,80408,80382
 1.5000e+000 80776  5.2440e+000 -3.2130e+001  3.9841e+000 52295 80600,80678,80626
 1.5000e+000 80753  1.3904e+001 -2.1265e+001 -6.2283e-001 52295 80600,80704,80678
 1.5000e+000 80730  1.6623e+001 -2.8065e+001  6.0119e-001 52295 80626,80678,80652
 1.5000e+000 81156 -2.5078e+001 -7.1189e+001  1.0889e+001 51891 81179,80960,80908
 1.5000e+000 81133 -2.1481e+001 -6.4292e+001  5.3060e+000 51891 81179,80908,81012
 1.5000e+000 81110 -3.1909e+001 -6.4558e+001  5.1293e+000 51891 80882,81012,80908
 1.5000e+000 81087 -9.1254e+000 -9.5570e+001  9.6455e+000 51891 80908,80960,80934
 1.5000e+000 81064 -2.4650e+001 -4.5041e+001  6.4723e+000 51891 80882,81038,81012
 1.5000e+000 81205 -1.8332e+001 -7.0608e+001  5.9545e+000 51891 80986,80960,81179
 1.5000e+000 81228 -1.8540e+001 -6.4076e+001  6.0134e-001 51891 80986,81179,81012
 1.5000e+000 81606 -2.2451e+001 -1.0723e+002 -2.3033e+001 51544 81410,81462,81436
 1.5000e+000 81583 -1.4586e+001 -7.4950e+001 -1.4752e+001 51544 81384,81462,81410
 1.5000e+000 81560 -1.9514e+001 -6.0050e+001 -1.4446e+001 51544 81358,81462,81384
 1.5000e+000 81537 -1.3658e+001 -5.8073e+001 -1.3690e+001 51544 81358,81488,81462
 1.5000e+000 81514 -1.1201e+000 -2.0167e+001 -9.1225e+000 51544 81332,81488,81358
 1.5000e+000 81854 -5.0018e+000 -5.7455e+001 -1.4054e+000 51004 81877,81655,81629
 1.5000e+000 81831 -5.8028e+000 -5.5708e+001 -1.6024e+000 51004 81877,81629,81759
 1.5000e+000 81808 -9.3172e+000 -3.8941e+001  1.3829e+001 51004 81655,81707,81681
 1.5000e+000 81785 -1.0141e+000 -7.0788e+001 -9.8067e+000 51004 81707,81759,81733
 1.5000e+000 81903 -5.5275e+000 -5.7692e+001 -1.6387e+000 51004 81707,81655,81877
 1.5000e+000 81926 -7.3619e+000 -5.7351e+001 -2.2959e+000 51004 81707,81877,81759
 1.5000e+000 82257 -5.6493e+000 -4.4328e+001 -1.2662e+000 50642 82058,82136,82110
 1.5000e+000 82234  3.5174e-001 -3.8417e+001 -3.6797e+000 50642 82058,82162,82136
 1.5000e+000 82211 -1.2899e+001 -5.3845e+001  9.7266e+000 50642 82058,82110,82084
 1.5000e+000 82188  1.1986e+000 -3.7765e+001 -7.4399e+000 50642 82032,82162,82058
 1.5000e+000 82684 -1.9001e+000 -4.8814e+001 -2.7918e+000 49931 82779,82707,82465
 1.5000e+000 82661 -1.1184e+001 -5.8784e+001  4.3923e+000 49931 82707,82413,82361
 1.5000e+000 82638  1.2357e+000 -4.3632e+001 -1.3002e+001 49931 82779,82465,82439
 1.5000e+000 82615 -1.6336e+001 -6.6520e+001  7.8248e+000 49931 82465,82543,82491
 1.5000e+000 82592  6.2618e+000 -5.0809e+001  2.3843e+001 49931 82361,82413,82387
 1.5000e+000 82569 -5.8491e+000 -5.0182e+001  3.1356e+000 49931 82491,82543,82517
 1.5000e+000 82733 -1.1755e+001 -5.5453e+001  4.3508e-001 49931 82543,82465,82707
 1.5000e+000 82756 -6.7737e+000 -4.9362e+001  2.6124e+000 49931 82543,82707,82361
 1.5000e+000 82805 -7.1424e+000 -6.2612e+001  1.4332e+000 49931 82413,82707,82779
 1.5000e+000 82828 -5.8222e+000 -5.6993e+001 -8.0828e+000 49931 82413,82779,82439
 1.5000e+000 83255 -1.6403e+001 -8.0758e+001 -6.5201e+000 49327 82984,83114,83036
 1.5000e+000 83232 -1.7961e+001 -8.3729e+001 -1.2955e+001 49327 82958,83114,82984
 1.5000e+000 83209  8.7035e-001 -8.8857e+001 -5.0429e+000 49327 83036,83114,83088
 1.5000e+000 83186 -9.0179e+000 -7.4006e+001 -3.2036e+000 49327 82984,83036,83010
 1.5000e+000 83163 -1.7709e+001 -8.5667e+001 -1.3975e+001 49327 82932,83114,82958
 1.5000e+000 83140 -2.0236e+001 -1.2803e+002  2.9539e+000 49327 83036,83088,83062
 1.5000e+000 83938 -3.2428e+001 -8.3981e+001  7.4803e+000 48965 83961,83673,83647
 1.5000e+000 83915 -2.0982e+001 -6.3928e+001  2.7583e+000 48965 83961,83647,83543
 1.5000e+000 83892 -1.5555e+001 -6.3902e+001 -5.5166e+000 48965 83517,83725,83543
 1.5000e+000 83869 -7.6931e+000 -6.6055e+001 -1.0599e+001 48965 83673,83725,83699
 1.5000e+000 83846 -1.6342e+001 -5.4947e+001 -4.0927e+000 48965 83543,83647,83621
 1.5000e+000 83823  7.6120e+000 -5.8743e+001 -1.4449e+001 48965 83543,83621,83569
 1.5000e+000 83800  1.3637e+001 -5.1318e+001 -4.4544e+000 48965 83517,83751,83725
 1.5000e+000 83777  4.1080e+001 -3.1693e+001  1.8041e+001 48965 83569,83621,83595
 1.5000e+000 83987 -2.1393e+001 -7.6480e+001 -4.9190e+000 48965 83725,83673,83961
 1.5000e+000 84010 -1.8886e+001 -7.0826e+001 -7.1472e+000 48965 83725,83961,83543
 1.5000e+000 84258 -1.0882e+001 -6.9719e+001  1.1376e+001 48447 84281,84059,84033
 1.5000e+000 84235 -9.9591e+000 -6.6300e+001  5.9385e+000 48447 84281,84033,84163
 1.5000e+000 84212 -9.1160e+000 -5.7013e+001  4.1923e+000 48447 84059,84111,84085
 1.5000e+000 84189  1.8842e+000 -6.4235e+001  5.1401e+000 48447 84111,84163,84137
 1.5000e+000 84307 -7.0005e+000 -6.8140e+001  8.0586e+000 48447 84111,84059,84281
 1.5000e+000 84330 -3.2201e+000 -6.5245e+001  2.9081e+000 48447 84111,84281,84163
 1.5000e+000 84529 -1.3228e+001 -6.2667e+001  4.2763e-001 47993 84552,84405,84379
 1.5000e+000 84506 -3.0104e+001 -6.8777e+001  5.3560e-001 47993 84552,84379,84353
 1.5000e+000 84483 -7.2293e+000 -6.2723e+001 -2.9739e+000 47993 84624,84457,84431
 1.5000e+000 84578 -1.5987e+001 -6.9037e+001  1.0163e+000 47993 84431,84405,84552
 1.5000e+000 84601 -1.1899e+001 -6.8004e+001 -2.8221e-001 47993 84624,84431,84552
 1.5000e+000 84650 -1.1217e+001 -5.8216e+001 -6.4411e+000 47993 84353,84457,84624
 1.5000e+000 84673 -1.4165e+001 -5.9624e+001 -3.7959e+000 47993 84353,84624,84552
 1.5000e+000 85104 -1.1289e+001 -6.9802e+001  5.9892e+000 47588 85199,85127,84885
 1.5000e+000 85081 -5.2837e+000 -6.8509e+001  3.4639e+000 47588 85127,84781,84963
 1.5000e+000 85058  1.1548e+000 -6.9435e+001 -7.6530e+000 47588 85199,84885,84807
 1.5000e+000 85035 -4.0330e+001 -8.1458e+001  1.5880e+001 47588 84885,84937,84911
 1.5000e+000 85012 -1.4290e+001 -6.2613e+001 -7.6359e+000 47588 84807,84885,84833
 1.5000e+000 84989 -1.0796e+001 -6.1023e+001 -3.6611e+000 47588 84833,84885,84859
 1.5000e+000 85153 -9.2898e+000 -8.0385e+001  1.0818e+001 47588 84937,84885,85127
 1.5000e+000 85176 -3.7719e+000 -6.9039e+001  3.7988e+000 47588 84937,85127,84963
 1.5000e+000 85225  1.1105e+001 -6.4048e+001  4.3983e-001 47588 84781,85127,85199
 1.5000e+000 85248  2.0641e+001 -6.0893e+001 -1.5071e+001 47588 84781,85199,84807
 1.5000e+000 85518  7.4843e-001 -5.7234e+001  1.0496e+000 47226 85293,85397,85319
 1.5000e+000 85495 -3.7848e-001 -5.8409e+001  1.8477e+000 47226 85293,85423,85397
 1.5000e+000 85472 -7.6927e-001 -5.8190e+001  2.7644e-001 47226 85319,85397,85345
 1.5000e+000 85449  4.9655e+000 -4.7015e+001  2.4182e+000 47226 85345,85397,85371
 1.5000e+000 85849 -1.7509e+000 -5.3366e+001 -7.5346e+000 46572 85624,85702,85650
 1.5000e+000 85826 -8.3619e+000 -6.1998e+001 -2.4389e+000 46572 85624,85754,85702
 1.5000e+000 85803 -1.5872e+000 -6.5181e+001 -1.6939e+000 46572 85702,85754,85728
 1.5000e+000 85780  6.2756e+000 -5.1947e+001 -1.8787e+000 46572 85650,85702,85676
 1.5000e+000 86070 -5.4376e+001 -9.5075e+001 -3.8603e+000 46374 85920,85972,85946
 1.5000e+000 86047 -4.7388e+001 -7.7646e+001  1.0910e+000 46374 85920,85998,85972
 1.5000e+000 86024 -1.6795e+001 -6.3373e+001  2.0932e+001 46374 85894,85998,85920
 1.5000e+000 86401 -2.0421e+001 -6.4932e+001  4.0793e+000 46034 86424,86280,86228
 1.5000e+000 86378 -2.2331e+001 -7.3800e+001  1.2445e+000 46034 86424,86228,86176
 1.5000e+000 86355 -2.8407e+001 -7.9372e+001 -6.9419e+000 46034 86176,86228,86202
 1.5000e+000 86332 -2.6687e+000 -5.7345e+001  2.6815e+000 46034 86228,86280,86254
 1.5000e+000 86450 -1.2488e+001 -7.5255e+001  3.8261e+000 46034 86306,86280,86424
 1.5000e+000 86473 -1.8191e+001 -8.5588e+001 -1.4537e+000 46034 86306,86424,86176
 1.5000e+000 87058 -1.3322e+001 -7.3507e+001  1.8003e+000 45516 86813,86917,86865
 1.5000e+000 87035 -2.0295e+001 -8.9438e+001  2.7960e+000 45516 86787,86917,86813
 1.5000e+000 87012 -2.0723e+001 -1.0519e+002  4.2477e+000 45516 86735,86917,86787
 1.5000e+000 86989  1.0358e-002 -6.3184e+001 -2.6942e+000 45516 86865,86917,86891
 1.5000e+000 86966 -6.4629e+000 -6.3898e+001  4.9692e+000 45516 86813,86865,86839
 1.5000e+000 86943 -7.0590e+000 -1.0958e+002 -1.2223e+001 45516 86735,86787,86761
 1.5000e+000 87208 -2.4737e+001 -6.8014e+001  6.1986e+000 45226 87231,87133,87107
 1.5000e+000 87185 -2.5097e+000 -6.0352e+001  5.1284e+000 45226 87081,87159,87133
 1.5000e+000 87257  3.8964e+000 -5.3472e+001 -5.2468e+000 45226 87081,87133,87231
 1.5000e+000 87537 -1.5600e+000 -7.2129e+001  4.5315e+000 44772 87387,87439,87413
 1.5000e+000 87514 -1.2985e+001 -7.7960e+001  6.8428e+000 44772 87361,87439,87387
 1.5000e+000 87491  6.1931e+000 -8.0380e+001  2.7811e+000 44772 87361,87465,87439
 1.5000e+000 87996 -1.4253e+001 -5.0201e+001  3.6477e-001 44425 87748,87878,87852
 1.5000e+000 87973  4.5161e+000 -4.1517e+001 -1.1522e+001 44425 87722,87878,87748
 1.5000e+000 87950  8.4329e+000 -5.4503e+001 -6.6147e+000 44425 87800,87852,87826
 1.5000e+000 87927 -1.1909e+001 -5.4352e+001  1.2685e+000 44425 87748,87852,87800
 1.5000e+000 87904  3.6845e+000 -6.4820e+001  1.5924e+001 44425 87748,87800,87774
 1.5000e+000 88423 -2.8842e+000 -6.1881e+001 -3.7192e+000 44078 88590,88230,88204
 1.5000e+000 88400 -6.4251e+000 -6.3990e+001  1.4696e+000 44078 88518,88446,88204
 1.5000e+000 88377 -9.1396e+000 -6.2653e+001  6.2774e-003 44078 88446,88126,88282
 1.5000e+000 88354 -7.5426e+000 -6.4876e+001  1.8676e+000 44078 88518,88204,88178
 1.5000e+000 88331 -4.8038e+000 -7.3103e+001  3.1517e+000 44078 88100,88282,88126
 1.5000e+000 88308 -9.7361e+000 -5.5036e+001  2.6128e+001 44078 88126,88178,88152
 1.5000e+000 88472 -2.8360e+000 -6.2578e+001 -1.0222e+000 44078 88590,88204,88446
 1.5000e+000 88495 -9.1368e+000 -6.4513e+001 -1.0293e+000 44078 88256,88446,88282
 1.5000e+000 88544 -7.7663e+000 -6.2012e+001  7.5130e-001 44078 88126,88446,88518
 1.5000e+000 88567 -9.2687e+000 -6.3408e+001  1.3288e+000 44078 88126,88518,88178
 1.5000e+000 88616 -3.2226e+001 -7.7913e+001 -1.5722e+001 44078 88256,88230,88590
 1.5000e+000 88639 -8.7996e+000 -6.5015e+001 -1.2329e+000 44078 88256,88590,88446
 1.5000e+000 89039  6.9976e+000 -4.5069e+001 -2.9059e+000 43716 88791,88921,88895
 1.5000e+000 89016  1.4080e+001 -5.5435e+001 -3.7117e+000 43716 88765,88921,88791
 1.5000e+000 88993 -4.0529e+000 -5.3377e+001  2.9192e+000 43716 88817,88895,88869
 1.5000e+000 88970 -2.5277e+001 -6.0198e+001  1.2679e+000 43716 88791,88895,88817
 1.5000e+000 88947  5.1868e+000 -4.7392e+001  4.5506e-002 43716 88817,88869,88843
 1.5000e+000 89496 -1.1274e+001 -7.6345e+001 -5.5732e+000 43162 89519,89274,89248
 1.5000e+000 89473 -7.7789e+000 -7.0384e+001 -3.7713e+000 43162 89519,89248,89222
 1.5000e+000 89450 -1.5620e+001 -6.6165e+001 -1.9030e+001 43162 89326,89378,89352
 1.5000e+000 89427 -1.9528e+001 -8.2849e+001 -5.3047e+000 43162 89274,89378,89326
 1.5000e+000 89404 -4.6180e+000 -5.8308e+001  2.6184e+000 43162 89274,89326,89300
 1.5000e+000 89545 -1.3272e+001 -6.9827e+001 -2.7831e+000 43162 89378,89274,89519
 1.5000e+000 89568 -9.2769e+000 -6.3330e+001 -8.1348e-001 43162 89378,89519,89222
 1.5000e+000 89946 -3.3920e+000 -6.9564e+001 -3.8238e+000 42594 90041,89969,89750
 1.5000e+000 89923  1.4952e+001 -4.9209e+001 -1.0064e+001 42594 89969,89698,89828
 1.5000e+000 89900 -5.9712e+000 -7.0775e+001 -3.2888e+000 42594 90041,89750,89724
 1.5000e+000 89877 -1.9606e+001 -7.6493e+001  4.9582e+000 42594 89750,89802,89776
 1.5000e+000 89854 -1.1315e+000 -3.0838e+001 -2.1501e+001 42594 89672,89828,89698
 1.5000e+000 89995 -1.3174e+001 -5.7951e+001  4.0798e+000 42594 89802,89750,89969
 1.5000e+000 90018  8.0333e+000 -4.8508e+001  6.6702e+000 42594 89802,89969,89828
 1.5000e+000 90067 -7.2957e+000 -5.8499e+001 -4.7590e+000 42594 89698,89969,90041
 1.5000e+000 90090 -1.8325e+001 -6.8576e+001 -5.5213e-001 42594 89698,90041,89724
 1.5000e+000 90517 -1.3383e+001 -8.8230e+001  1.0389e+001 42140 90540,90220,90194
 1.5000e+000 90494 -2.9571e+001 -8.8463e+001  1.7208e+001 42140 90540,90194,90376
 1.5000e+000 90471 -2.0505e+001 -8.8266e+001  5.5753e-002 42140 90612,90350,90272
 1.5000e+000 90448 -2.4221e+001 -9.5737e+001 -1.5368e+000 42140 90272,90350,90298
 1.5000e+000 90425 -1.1493e+001 -7.9216e+001 -1.3037e+001 42140 90298,90350,90324
 1.5000e+000 90402 -1.5867e+001 -8.8183e+001  2.1832e+001 42140 90220,90272,90246
 1.5000e+000 90566 -2.0886e+001 -8.8405e+001  8.0885e+000 42140 90272,90220,90540
 1.5000e+000 90589 -1.8037e+001 -8.2168e+001  6.9498e+000 42140 90612,90272,90540
 1.5000e+000 90638 -2.6150e+001 -9.1382e+001 -1.1612e+000 42140 90376,90350,90612
 1.5000e+000 90661 -3.5354e+001 -9.0620e+001  4.3151e+000 42140 90376,90612,90540
 1.5000e+000 91167 -1.5445e+001 -6.1334e+001 -1.7167e+000 41636 91190,90870,90844
 1.5000e+000 91144 -1.5435e+001 -7.4057e+001 -1.7714e+000 41636 91190,90844,91026
 1.5000e+000 91121 -2.8845e+000 -6.7147e+001 -2.1673e+001 41636 90870,90922,90896
 1.5000e+000 91098 -2.0970e+001 -7.3193e+001  9.6090e+000 41636 90922,91026,90948
 1.5000e+000 91075 -3.5910e+000 -5.6098e+001 -1.6789e+000 41636 90948,91026,91000
 1.5000e+000 91052 -1.2198e+001 -8.0709e+001 -6.8348e-001 41636 90948,91000,90974
 1.5000e+000 91216 -1.6147e+001 -5.8166e+001 -1.4027e+000 41636 90922,90870,91190
 1.5000e+000 91239 -9.9325e+000 -6.2574e+001  5.8768e-001 41636 90922,91190,91026
 1.5000e+000 91696 -1.9068e+001 -6.0912e+001 -6.4748e+000 40449 91448,91526,91474
 1.5000e+000 91673 -1.0153e+001 -6.0798e+001  7.3809e-001 40449 91448,91578,91526
 1.5000e+000 91650  4.4981e+000 -5.9748e+001  5.1701e+000 40449 91474,91526,91500
 1.5000e+000 91627 -1.1355e+001 -6.9939e+001 -5.6500e+000 40449 91422,91578,91448
 1.5000e+000 91604 -2.4283e+001 -4.4587e+001  3.0338e-001 40449 91526,91578,91552
 1.5000e+000 92123 -5.6775e+000 -4.8763e+001 -2.2749e+000 39995 92146,91904,91826
 1.5000e+000 92100  9.6009e+000 -4.3847e+001 -1.3266e+001 39995 92146,91826,91800
 1.5000e+000 92077 -9.1524e+000 -5.0765e+001 -1.3195e+000 39995 91826,91904,91852
 1.5000e+000 92054 -1.8143e+001 -8.0575e+001  4.4079e+000 39995 91904,91982,91930
 1.5000e+000 92031  6.4783e+000 -4.6466e+001 -6.9161e+000 39995 91852,91904,91878
 1.5000e+000 92008 -1.0090e+001 -5.6870e+001  2.4432e+000 39995 91930,91982,91956
 1.5000e+000 92172 -1.1071e+001 -5.2003e+001  1.9097e+000 39995 91982,91904,92146
 1.5000e+000 92195 -4.4822e+000 -6.1568e+001 -6.0688e+000 39995 91982,92146,91800
 1.5000e+000 92652 -1.9084e+001 -5.9199e+001  2.4123e+000 39633 92404,92534,92456
 1.5000e+000 92629 -1.9749e+001 -6.2970e+001  1.8812e+000 39633 92378,92534,92404
 1.5000e+000 92606 -7.3738e+000 -5.2887e+001  1.1798e+001 39633 92404,92456,92430
 1.5000e+000 92583 -3.3210e+001 -9.2474e+001  5.9508e+000 39633 92456,92534,92508
 1.5000e+000 92560 -1.4019e+001 -6.2173e+001  1.4188e+001 39633 92456,92508,92482
 1.5000e+000 93079 -1.8272e+001 -6.3289e+001 -6.4687e+000 39093 93102,92808,92756
 1.5000e+000 93056 -1.7221e+001 -6.2789e+001 -6.6280e+000 39093 93102,92756,92938
 1.5000e+000 93033 -2.2467e+001 -6.7712e+001 -2.2929e+000 39093 93174,92912,92834
 1.5000e+000 93010 -3.2529e+001 -6.5109e+001 -6.8883e-001 39093 92834,92912,92860
 1.5000e+000 92987 -1.1726e+001 -7.5558e+001 -1.6041e+001 39093 92756,92808,92782
 1.5000e+000 92964 -3.4245e+001 -9.3657e+001 -2.5712e+001 39093 92860,92912,92886
 1.5000e+000 93128 -1.7943e+001 -5.7038e+001 -5.8061e+000 39093 92834,92808,93102
 1.5000e+000 93151 -2.1329e+001 -6.4102e+001 -4.0653e+000 39093 93174,92834,93102
 1.5000e+000 93200 -2.0734e+001 -6.5846e+001 -5.4939e+000 39093 92938,92912,93174
 1.5000e+000 93223 -1.8218e+001 -6.3598e+001 -7.3512e+000 39093 92938,93174,93102
 1.5000e+000 93680  3.3750e+000 -4.7571e+001  9.9160e-001 38639 93703,93536,93484
 1.5000e+000 93657 -4.2480e+000 -4.7089e+001  3.1666e+000 38639 93703,93484,93432
 1.5000e+000 93634  1.6960e+001 -5.1371e+001  1.6967e+001 38639 93432,93484,93458
 1.5000e+000 93611  6.6569e-001 -5.6699e+001 -6.7753e+000 38639 93484,93536,93510
 1.5000e+000 93588 -1.3091e+001 -3.4248e+001  8.5261e+000 38639 93406,93562,93432
 1.5000e+000 93729 -3.9366e+000 -3.9046e+001  4.9054e-001 38639 93562,93536,93703
 1.5000e+000 93752 -1.9774e+001 -4.7254e+001  6.0514e+000 38639 93562,93703,93432
 1.5000e+000 94160 -5.4675e-001 -3.3104e+001 -1.4011e+001 38292 93935,94039,93961
 1.5000e+000 94137  4.0224e-001 -4.4892e+001  4.1374e+000 38292 93935,94065,94039
 1.5000e+000 94114 -4.2022e+001 -3.8650e+001 -1.1157e+001 38292 93961,94013,93987
 1.5000e+000 94091 -2.8478e+001 -3.8703e+001 -4.0406e+000 38292 93961,94039,94013
 1.5000e+000 94408 -2.4227e+000 -5.2238e+001  1.5902e+000 37880 94431,94261,94235
 1.5000e+000 94385 -8.4652e-001 -4.6374e+001  2.2321e+000 37880 94431,94235,94313
 1.5000e+000 94362 -6.4795e-001 -5.3526e+001 -1.7571e+000 37880 94209,94313,94235
 1.5000e+000 94339  2.1924e+000 -5.1068e+001  5.5054e+000 37880 94183,94313,94209
 1.5000e+000 94457 -4.5315e+000 -4.6383e+001 -3.1022e-002 37880 94287,94261,94431
 1.5000e+000 94480 -3.8049e+000 -4.1917e+001  1.4049e+000 37880 94287,94431,94313
 1.5000e+000 94728 -4.2995e+000 -4.6958e+001 -2.5257e+000 37426 94529,94607,94555
 1.5000e+000 94705 -8.4962e+000 -6.4219e+001 -1.0872e+000 37426 94529,94633,94607
 1.5000e+000 94682  1.6833e+001 -6.4352e+001 -1.1182e+000 37426 94503,94633,94529
 1.5000e+000 94659 -1.4185e+001 -2.5229e+001 -1.3920e+001 37426 94555,94607,94581
 1.5000e+000 95257 -7.7896e+000 -6.7201e+001  7.7975e-002 36722 95496,95280,94862
 1.5000e+000 95234  1.7467e+000 -6.2879e+001  1.9131e+000 36722 95496,94862,94836
 1.5000e+000 95211 -2.5361e+000 -5.8866e+001  3.6175e+000 36722 95352,95280,95070
 1.5000e+000 95188 -7.4044e-001 -4.5833e+001  6.7376e+000 36722 95352,95070,95044
 1.5000e+000 95165 -3.2976e+000 -7.3438e+001 -8.0438e+000 36722 95424,94888,94862
 1.5000e+000 95142  2.4480e+000 -5.1043e+001  1.4962e+000 36722 94914,94966,94940
 1.5000e+000 95119 -1.1873e+001 -9.6270e+001  2.6592e+001 36722 94966,95044,95018
 1.5000e+000 95096 -1.1294e+001 -8.7351e+001  2.2830e+001 36722 94966,95018,94992
 1.5000e+000 95306 -1.1056e+001 -6.1306e+001 -4.1628e+000 36722 95424,94862,95280
 1.5000e+000 95329 -1.0921e+001 -5.9468e+001 -3.5987e+000 36722 94914,95280,94966
 1.5000e+000 95378 -3.2770e+000 -6.3192e+001 -2.7316e+000 36722 94966,95280,95352
 1.5000e+000 95401 -6.1784e+000 -5.8531e+001  7.7874e-001 36722 94966,95352,95044
 1.5000e+000 95450 -1.6587e+001 -7.1276e+001 -1.4277e+001 36722 94914,94888,95424
 1.5000e+000 95473 -1.9450e+001 -6.8714e+001 -9.5894e+000 36722 94914,95424,95280
 1.5000e+000 95522 -8.8394e+000 -6.5388e+001  4.8535e-001 36722 95070,95280,95496
 1.5000e+000 95545 -8.8280e+000 -6.5654e+001  3.2448e-001 36722 95070,95496,94836
 1.5000e+000 96130 -2.7889e+001 -5.3550e+001  4.6373e-001 36268 96153,95911,95859
 1.5000e+000 96107 -2.9399e+001 -6.6914e+001 -3.2771e-001 36268 96153,95859,95807
 1.5000e+000 96084 -3.3256e+001 -8.3752e+001 -7.5307e+000 36268 95807,95859,95833
 1.5000e+000 96061 -3.2932e+001 -8.5705e+001  8.5091e+000 36268 95911,95989,95937
 1.5000e+000 96038 -2.6038e+001 -5.3444e+001 -2.6829e+000 36268 95859,95911,95885
 1.5000e+000 96015 -2.0168e+001 -7.9423e+001  6.1466e+000 36268 95937,95989,95963
 1.5000e+000 96179 -2.1446e+001 -6.5407e+001  3.5904e+000 36268 95989,95911,96153
 1.5000e+000 96202 -2.5640e+001 -8.2550e+001  2.2996e+000 36268 95989,96153,95807
 1.5000e+000 96531  7.2790e+000 -6.4684e+001  1.7295e+000 35728 96358,96410,96384
 1.5000e+000 96508 -1.6884e+001 -7.3509e+001  4.9198e+000 35728 96332,96410,96358
 1.5000e+000 96485 -5.4602e+000 -5.1141e+001  5.6680e-001 35728 96332,96436,96410
 1.5000e+000 96462  2.3511e+000 -4.0368e+001 -7.7599e+000 35728 96306,96436,96332
 1.5000e+000 96860 -1.3420e+001 -6.2220e+001 -5.9996e+000 35324 96687,96765,96713
 1.5000e+000 96837 -2.3611e+001 -8.4591e+001 -2.2771e+000 35324 96661,96765,96687
 1.5000e+000 96814 -2.9334e+001 -6.9821e+001 -3.0247e+000 35324 96713,96765,96739
 1.5000e+000 96791 -2.5016e+001 -1.0289e+002 -7.5104e+000 35324 96635,96765,96661
 1.5000e+000 97366 -2.1465e+001 -7.7540e+001 -5.1520e+000 34920 97389,97069,97043
 1.5000e+000 97343 -1.8977e+001 -7.1763e+001 -4.6445e+000 34920 97389,97043,97199
 1.5000e+000 97320 -1.7321e+001 -7.2155e+001 -6.0094e+000 34920 97043,97225,97199
 1.5000e+000 97297 -1.2717e+001 -1.0009e+002 -9.9025e+000 34920 97069,97121,97095
 1.5000e+000 97274 -3.7662e+001 -6.7300e+001 -1.3013e+001 34920 97121,97199,97173
 1.5000e+000 97251 -2.8865e+001 -5.6778e+001 -1.9264e+001 34920 97121,97173,97147
 1.5000e+000 97415 -2.5472e+001 -7.7481e+001 -1.3004e+001 34920 97121,97069,97389
 1.5000e+000 97438 -1.9996e+001 -6.4932e+001 -1.2308e+001 34920 97121,97389,97199
 1.5000e+000 97708 -2.9096e+001 -8.4836e+001 -4.0269e+000 34722 97509,97587,97535
 1.5000e+000 97685 -1.9255e+001 -8.8382e+001 -5.2499e+000 34722 97509,97613,97587
 1.5000e+000 97662 -4.0199e+001 -9.9104e+001 -9.2610e+000 34722 97483,97613,97509
 1.5000e+000 97639 -2.0692e+001 -7.1404e+001  1.4919e+001 34722 97535,97587,97561
 1.5000e+000 98216 -1.4203e+001 -7.6277e+001  6.4272e+000 34318 97971,98075,97997
 1.5000e+000 98193 -1.4881e+001 -6.9173e+001  1.6597e+000 34318 97893,98075,97971
 1.5000e+000 98170 -6.5587e+000 -6.3230e+001 -2.2781e+000 34318 97893,97971,97919
 1.5000e+000 98147 -1.1271e+001 -6.8189e+001  6.1343e+000 34318 97997,98075,98049
 1.5000e+000 98124 -7.4074e-001 -5.1831e+001 -7.7601e+000 34318 97919,97971,97945
 1.5000e+000 98101 -1.2922e+001 -7.0467e+001  9.9502e+000 34318 97997,98049,98023
 1.5000e+000 98594 -2.2153e+001 -7.0760e+001 -1.3028e+000 33814 98961,98617,98424
 1.5000e+000 98571 -2.4012e+001 -7.3465e+001 -4.9666e-001 33814 98689,98617,98372
 1.5000e+000 98548 -2.2621e+001 -5.8945e+001 -2.3925e+000 33814 99033,98689,98372
 1.5000e+000 98525 -1.6008e+001 -5.1208e+001  8.9444e+000 33814 98761,98476,98450
 1.5000e+000 98502 -2.4702e+001 -6.6750e+001 -1.7756e+000 33814 98961,98424,98398
 1.5000e+000 98643 -3.2455e+001 -7.6147e+001 -3.4071e+000 33814 98450,98424,98617
 1.5000e+000 98666 -2.2355e+001 -6.0954e+001  1.3162e+000 33814 98761,98450,98617
 1.5000e+000 98715 -2.9330e+001 -7.4816e+001 -8.9797e-001 33814 99161,98689,98320
 1.5000e+000 98738 -2.5851e+001 -8.2097e+001 -3.3126e-001 33814 98320,98689,98346
 1.5000e+000 98787 -4.1305e+001 -6.9430e+001  9.2625e+000 33814 98833,98761,98320
 1.5000e+000 98810 -2.7611e+001 -7.5406e+001  1.0431e+000 33814 99161,98320,98761
 1.5000e+000 98859 -1.9479e+001 -4.7469e+001  4.2810e-001 33814 98476,98761,98833
 1.5000e+000 98987 -2.0645e+001 -6.5444e+001 -2.5023e+000 33814 98372,98617,98961
 1.5000e+000 99010 -2.1714e+001 -5.9453e+001 -3.2592e+000 33814 98372,98961,98398
 1.5000e+000 99059 -3.9617e+001 -9.4017e+001 -1.0573e+001 33814 98346,98689,99033
 1.5000e+000 99187 -2.7683e+001 -7.2465e+001  5.9688e-001 33814 98617,98689,99161
 1.5000e+000 99210 -2.5288e+001 -7.3045e+001  2.5255e+000 33814 98617,99161,98761
 1.5000e+000 99588 -1.0231e+001 -4.3486e+001  4.0109e+000 33566 99366,99444,99392
 1.5000e+000 99565  6.4035e-001 -5.0785e+001  4.9134e+000 33566 99314,99444,99366
 1.5000e+000 99542  2.7686e+000 -6.2920e+001 -3.5374e+000 33566 99314,99366,99340
 1.5000e+000 99519  1.2923e+001 -6.1084e+001  2.5888e+001 33566 99314,99470,99444
 1.5000e+000 99496 -6.2658e+000 -4.0195e+001  9.2077e-001 33566 99392,99444,99418
 1.5000e+000 99787 -1.3766e+001 -6.0116e+001 -4.3613e+000 33105 99637,99689,99663
 1.5000e+000 99764 -3.0438e+000 -5.5713e+001 -4.6458e+000 33105 99611,99689,99637
 1.5000e+000 99741 -1.1774e+001 -5.2542e+001  2.5059e+000 33105 99611,99715,99689
 1.5000e+000 100167 -2.7657e+001 -6.2354e+001  9.8312e+000 32651 100190,99971,99919
 1.5000e+000 100144 -1.4705e+001 -5.5153e+001  5.6054e+000 32651 100262,100190,99919
 1.5000e+000 100121 -1.4590e+001 -5.4122e+001  4.4462e+000 32651 100262,99919,100049
 1.5000e+000 100098 -4.1242e+000 -4.9319e+001 -4.2458e+000 32651 99893,100049,99919
 1.5000e+000 100075 -1.6165e+001 -6.8248e+001  1.8288e+001 32651 99919,99971,99945
 1.5000e+000 100216 -1.3838e+001 -5.8788e+001  7.8647e+000 32651 99997,99971,100190
 1.5000e+000 100239 -1.3729e+001 -6.3223e+001  5.8849e+000 32651 99997,100190,100023
 1.5000e+000 100288 -1.1190e+001 -6.2591e+001  5.2972e+000 32651 100023,100190,100262
 1.5000e+000 100311 -1.7621e+000 -5.5896e+001  5.0682e-001 32651 100023,100262,100049
 1.5000e+000 100608 -3.7270e+000 -6.4010e+001 -3.3981e+000 32254 100386,100490,100464
 1.5000e+000 100585  5.4004e-003 -5.7903e+001 -1.7480e+000 32254 100360,100490,100386
 1.5000e+000 100562 -4.8794e+000 -7.8930e+001 -1.2268e+001 32254 100386,100464,100412
 1.5000e+000 100539  1.4745e+001 -5.3147e+001 -4.3070e+000 32254 100334,100490,100360
 1.5000e+000 100516 -7.1531e+000 -4.6258e+001 -2.0620e+001 32254 100412,100464,100438
 1.5000e+000 100758 -5.2797e+000 -2.6661e+001  1.1107e+001 31914 100985,100781,100683
 1.5000e+000 100735 -3.1401e+001 -4.7826e+001  3.9283e+000 31914 100853,100781,100657
 1.5000e+000 100807 -5.2479e+000 -4.8721e+001  5.9205e+000 31914 100709,100683,100781
 1.5000e+000 100830  6.8656e+000 -4.4558e+001  2.7043e+000 31914 100709,100781,100631
 1.5000e+000 100879  2.5999e+000 -3.7859e+001 -9.5583e+000 31914 100631,100781,100853
 1.5000e+000 101011 -1.9471e+001 -4.3091e+001  4.0084e+000 31914 100657,100781,100985
 1.5000e+000 101191 -1.3526e+001 -7.0970e+001  6.5060e+000 31418 101113,101165,101139
 1.5000e+000 101341 -2.5954e+001 -6.8750e+001 -4.6197e+000 31106 101214,101266,101240
 1.5000e+000 101318 -2.6076e+001 -6.8045e+001 -3.7227e+000 31106 101214,101292,101266
 1.5000e+000 101591 -1.3925e+001 -6.2327e+001  6.0386e+000 30552 101614,101470,101444
 1.5000e+000 101568 -2.8405e+000 -5.8109e+001  6.6574e+000 30552 101366,101496,101470
 1.5000e+000 101545 -1.5490e+001 -6.3818e+001  7.0817e+000 30552 101614,101444,101392
 1.5000e+000 101522  7.9630e-001 -5.8066e+001  5.9069e+000 30552 101392,101444,101418
 1.5000e+000 101640 -1.6015e+001 -6.1621e+001  7.3547e+000 30552 101366,101470,101614
 1.5000e+000 101663 -1.7387e+001 -6.2915e+001  8.3647e+000 30552 101366,101614,101392
 1.5000e+000 102301 -3.0421e+001 -7.6387e+001  4.9366e+000 30042 102396,102324,102059
 1.5000e+000 102278 -2.2055e+001 -6.7182e+001  3.0374e+000 30042 102324,101981,101955
 1.5000e+000 102255 -3.4446e+001 -7.4707e+001  8.3134e+000 30042 102396,102059,102033
 1.5000e+000 102232 -2.2786e+001 -5.6659e+001  2.3647e+000 30042 101929,102111,101955
 1.5000e+000 102209 -2.1872e+001 -7.5584e+001 -3.7386e+000 30042 102059,102111,102085
 1.5000e+000 102186 -1.8659e+001 -5.5217e+001  2.9502e+000 30042 101929,102137,102111
 1.5000e+000 102163  1.5952e+001 -4.8429e+001  9.3734e-001 30042 101981,102033,102007
 1.5000e+000 102350 -2.7552e+001 -7.2677e+001 -1.1544e+000 30042 102111,102059,102324
 1.5000e+000 102373 -2.5984e+001 -6.5900e+001 -1.9770e+000 30042 102111,102324,101955
 1.5000e+000 102422 -2.4229e+001 -7.0205e+001  2.0372e+000 30042 101981,102324,102396
 1.5000e+000 102445 -2.8550e+001 -6.8657e+001  5.4484e+000 30042 101981,102396,102033
 1.5000e+000 103000 -1.5989e+001 -6.9250e+001  1.7788e+000 29730 103023,102706,102654
 1.5000e+000 102977 -2.2414e+001 -6.8773e+001 -7.1440e-001 29730 103023,102654,102810
 1.5000e+000 102954 -2.8386e+001 -9.6344e+001 -6.0868e+000 29730 102732,102810,102784
 1.5000e+000 102931 -3.0984e+001 -6.8089e+001 -1.6220e+000 29730 102628,102810,102654
 1.5000e+000 102908 -1.7241e+001 -6.8829e+001  2.8628e+000 29730 102654,102706,102680
 1.5000e+000 102885 -2.3135e+001 -7.1349e+001 -1.7172e+001 29730 102732,102784,102758
 1.5000e+000 102862 -4.1098e+001 -7.2692e+001 -4.2634e-001 29730 102628,102836,102810
 1.5000e+000 103049 -2.0165e+001 -7.3015e+001 -1.0367e+000 29730 102732,102706,103023
 1.5000e+000 103072 -2.3992e+001 -6.9460e+001 -2.9719e+000 29730 102732,103023,102810
 1.5000e+000 103222 -1.1476e+001 -5.5161e+001 -6.6757e+000 29226 103095,103147,103121
 1.5000e+000 103199 -1.6273e+001 -6.0260e+001 -4.5237e+000 29226 103095,103173,103147
 1.5000e+000 103730 -1.4099e+001 -6.6591e+001 -3.5743e+000 28822 103537,103589,103563
 1.5000e+000 103707 -1.6608e+001 -6.9944e+001 -2.4337e+000 28822 103433,103589,103537
 1.5000e+000 103684 -3.5810e+001 -7.4932e+001 -7.1757e+000 28822 103433,103537,103459
 1.5000e+000 103661 -2.1808e+001 -7.1841e+001 -4.4260e+000 28822 103407,103589,103433
 1.5000e+000 103638 -3.4855e+000 -5.7286e+001  9.6513e+000 28822 103459,103511,103485
 1.5000e+000 103615 -1.3764e+001 -4.8321e+001  5.4382e+000 28822 103459,103537,103511
 1.5000e+000 103880 -9.3777e+000 -6.6521e+001  6.9004e+000 28368 103975,103903,103779
 1.5000e+000 103857 -1.0149e+001 -8.1918e+001  3.9852e+000 28368 103903,103753,103831
 1.5000e+000 103929 -1.2345e+001 -6.8727e+001  5.4093e+000 28368 103805,103779,103903
 1.5000e+000 103952 -4.5045e+000 -6.7599e+001  6.1205e+000 28368 104105,103903,103831
 1.5000e+000 104001 -7.8082e+000 -6.8983e+001  1.6287e+000 28368 103753,103903,103975
 1.5000e+000 104131 -1.1582e+001 -7.0589e+001  5.7940e+000 28368 103805,103903,104105
 1.5000e+000 104539 -1.6235e-001 -4.4670e+001  2.1375e+000 28028 104562,104340,104314
 1.5000e+000 104516 -1.0227e+000 -3.1054e+001  5.4009e+000 28028 104634,104562,104314
 1.5000e+000 104493  2.4304e+000 -4.5373e+001 -7.5308e+000 28028 104762,104366,104340
 1.5000e+000 104470  2.0490e+001 -4.4060e+001 -2.6329e+001 28028 104366,104418,104392
 1.5000e+000 104588 -1.9608e+000 -4.9645e+001 -4.9021e+000 28028 104762,104340,104562
 1.5000e+000 104611 -8.2369e+000 -3.4798e+001 -4.9049e+000 28028 104418,104562,104444
 1.5000e+000 104660 -1.8759e+001 -3.8813e+001 -1.0182e+000 28028 104444,104562,104634
 1.5000e+000 104788 -4.5516e+000 -4.0267e+001 -7.9888e+000 28028 104418,104366,104762
 1.5000e+000 104811 -7.4123e+000 -4.3032e+001 -5.6907e+000 28028 104418,104762,104562
 1.5000e+000 105010 -4.3430e+000 -5.5112e+001  8.1347e+000 27324 105033,104886,104860
 1.5000e+000 104987 -1.2824e+001 -5.9072e+001  6.9425e+000 27324 105033,104860,104834
 1.5000e+000 104964 -7.4093e+000 -6.7480e+001  5.9941e+000 27324 105105,104912,104886
 1.5000e+000 105059 -8.8282e+000 -6.3884e+001  6.1896e+000 27324 105105,104886,105033
 1.5000e+000 105082 -9.0840e+000 -5.1598e+001  5.6870e+000 27324 104938,105033,104834
 1.5000e+000 105131 -1.1261e+001 -6.3960e+001  8.8415e-001 27324 104938,104912,105105
 1.5000e+000 105154 -9.6580e+000 -5.5836e+001  1.9989e+000 27324 104938,105105,105033
 1.5000e+000 105402 -4.9673e+001 -6.6749e+001 -5.2133e+000 27012 105229,105281,105255
 1.5000e+000 105379 -3.3264e+001 -6.7499e+001 -6.5557e+000 27012 105229,105307,105281
 1.5000e+000 105356 -2.4777e+001 -6.3657e+001 -4.8483e+000 27012 105177,105307,105229
 1.5000e+000 105333 -4.3793e+001 -7.9485e+001 -2.0122e+001 27012 105177,105229,105203
 1.5000e+000 105603  2.0333e+001 -2.0396e+001 -7.5001e+000 26508 105626,105453,105427
 1.5000e+000 105580  1.7745e+001 -2.6833e+001 -1.3916e+000 26508 105626,105427,105505
 1.5000e+000 105557  1.8471e+001 -3.0200e+001  8.0218e-001 26508 105427,105531,105505
 1.5000e+000 105652  1.4277e+001 -2.3168e+001 -3.4225e+000 26508 105479,105453,105626
 1.5000e+000 105675  1.2272e+001 -2.5751e+001  2.1078e+000 26508 105479,105626,105505
 1.5000e+000 106057 -2.5337e+001 -6.9967e+001  1.2675e+001 25947 106080,105887,105861
 1.5000e+000 106034 -2.0639e+001 -6.3954e+001  4.7148e+000 25947 106080,105861,105783
 1.5000e+000 106011 -2.3546e+001 -4.8024e+001  2.6395e+000 25947 105783,105835,105809
 1.5000e+000 105988 -3.0290e+001 -5.0572e+001  5.1877e+000 25947 105783,105861,105835
 1.5000e+000 105965  3.1256e+000 -4.4944e+001 -2.4593e+000 25947 105887,105939,105913
 1.5000e+000 106106 -2.2278e+001 -6.6406e+001  6.8462e+000 25947 105939,105887,106080
 1.5000e+000 106129 -1.0441e+001 -5.3960e+001 -2.2513e+000 25947 105939,106080,105783
 1.5000e+000 106714 -3.1423e+001 -5.0986e+001 -1.2735e+000 25557 106809,106737,106547
 1.5000e+000 106691 -3.1743e+001 -5.8735e+001  4.5508e+000 25557 106737,106417,106391
 1.5000e+000 106668 -2.8210e+001 -4.9804e+001 -1.7792e+000 25557 106809,106547,106495
 1.5000e+000 106645 -3.8770e+001 -8.3112e+001  6.6758e+000 25557 106417,106495,106469
 1.5000e+000 106622 -2.6772e+001 -5.2364e+001 -6.0710e+000 25557 106495,106547,106521
 1.5000e+000 106599 -1.6061e+001 -1.0410e+002  1.2998e+001 25557 106417,106469,106443
 1.5000e+000 106763 -3.5088e+001 -5.2307e+001  1.3109e+000 25557 106573,106547,106737
 1.5000e+000 106786 -2.7824e+001 -4.9551e+001  4.4312e+000 25557 106573,106737,106391
 1.5000e+000 106835 -2.7495e+001 -5.2720e+001  1.1298e-001 25557 106417,106737,106809
 1.5000e+000 106858 -2.5477e+001 -5.2277e+001 -7.0219e-001 25557 106417,106809,106495
 1.5000e+000 107364 -5.7164e+000 -4.1270e+001 -1.5688e+001 25153 107459,107387,107171
 1.5000e+000 107341 -2.3486e+001 -4.7853e+001 -5.4627e+000 25153 107387,107119,107067
 1.5000e+000 107318  7.2644e-001 -4.0093e+001 -1.6774e+001 25153 107459,107171,107145
 1.5000e+000 107295 -1.5727e+001 -5.1227e+001 -1.4805e+001 25153 107531,107223,107197
 1.5000e+000 107272 -2.4272e+001 -4.9003e+001 -4.6058e+000 25153 107067,107119,107093
 1.5000e+000 107249 -1.7411e+001 -3.6360e+001 -9.6581e+000 25153 107041,107223,107067
 1.5000e+000 107413 -1.5909e+001 -5.0249e+001 -9.7920e+000 25153 107197,107171,107387
 1.5000e+000 107436 -1.2377e+001 -5.2204e+001 -1.1325e+001 25153 107531,107197,107387
 1.5000e+000 107485 -9.0136e+000 -4.5124e+001 -2.0046e+000 25153 107119,107387,107459
 1.5000e+000 107508  7.9704e+000 -3.9059e+001 -2.7950e+000 25153 107119,107459,107145
 1.5000e+000 107557 -1.6747e+001 -4.7470e+001 -1.0394e+001 25153 107067,107223,107531
 1.5000e+000 107580 -1.1539e+001 -4.5127e+001 -6.6786e+000 25153 107067,107531,107387
 1.5000e+000 107958 -2.5157e+001 -5.9818e+001 -1.0140e+000 24741 107736,107814,107788
 1.5000e+000 107935 -2.4389e+001 -6.0432e+001 -1.9567e+000 24741 107736,107840,107814
 1.5000e+000 107912 -2.8885e+001 -6.8840e+001 -3.7712e+000 24741 107684,107840,107736
 1.5000e+000 107889 -2.8277e+001 -5.8050e+001 -1.4638e+000 24741 107736,107788,107762
 1.5000e+000 107866 -2.6171e+001 -8.5150e+001 -2.0318e+001 24741 107684,107736,107710
 1.5000e+000 108157 -1.9348e+001 -4.9100e+001  7.7716e+000 24237 108180,108059,108007
 1.5000e+000 108134 -1.3619e+001 -3.7840e+001  1.6522e+001 24237 108180,108007,107981
 1.5000e+000 108111 -1.7111e+000 -4.8176e+001  4.3946e+000 24237 108007,108059,108033
 1.5000e+000 108206 -1.3721e+001 -3.9081e+001  1.4537e+001 24237 108085,108059,108180
 1.5000e+000 108229 -8.2914e+000 -2.7932e+001  2.3221e+001 24237 108085,108180,107981
 1.5000e+000 108658 -1.4494e+001 -5.7364e+001 -7.4749e+000 23776 108361,108413,108387
 1.5000e+000 108635  6.4072e-002 -4.7040e+001 -3.6633e+000 23776 108753,108681,108361
 1.5000e+000 108612  1.2145e+001 -4.0189e+001 -1.2362e+001 23776 108681,108465,108439
 1.5000e+000 108589 -7.5569e-001 -4.7261e+001 -3.6885e+000 23776 108753,108361,108335
 1.5000e+000 108566 -1.0309e+001 -6.0603e+001  4.6932e+000 23776 108335,108517,108465
 1.5000e+000 108543  1.4139e+001 -7.4049e+001  2.0533e+001 23776 108465,108517,108491
 1.5000e+000 108707 -5.6996e+000 -4.6752e+001 -1.2141e+000 23776 108413,108361,108681
 1.5000e+000 108730  5.9908e-001 -5.3056e+001 -5.7480e+000 23776 108413,108681,108439
 1.5000e+000 108779 -7.7242e-001 -4.6718e+001 -4.2498e+000 23776 108465,108681,108753
 1.5000e+000 108802 -1.5033e+000 -4.6814e+001 -4.1122e+000 23776 108465,108753,108335
 1.5000e+000 109023  4.0522e+000 -2.9579e+001  5.1495e+000 23414 108873,108925,108899
 1.5000e+000 109000 -6.1458e+000 -3.3392e+001  4.7678e+000 23414 108847,108925,108873
 1.5000e+000 108977  2.3730e+000 -1.6798e+001  4.1785e-001 23414 108847,108951,108925
 1.5000e+000 109474 -2.6498e+001 -6.1075e+001  2.4913e+000 23024 109151,109307,109177
 1.5000e+000 109451 -2.8098e+001 -6.0201e+001  2.9086e+000 23024 109151,109333,109307
 1.5000e+000 109428 -3.2283e+001 -8.0708e+001 -4.5260e+000 23024 109177,109281,109203
 1.5000e+000 109405 -5.2546e+001 -8.0725e+001 -6.4110e+000 23024 109177,109307,109281
 1.5000e+000 109382 -2.3923e+001 -7.2492e+001 -4.1812e-001 23024 109203,109281,109229
 1.5000e+000 109359 -2.2623e+001 -7.6148e+001  7.7010e-001 23024 109229,109281,109255
 1.5000e+000 109820 -2.0713e+001 -5.6096e+001  4.7939e+000 22506 109843,109601,109523
 1.5000e+000 109797 -1.3629e+001 -5.4635e+001  4.0336e+000 22506 109843,109523,109497
 1.5000e+000 109774 -1.2910e+001 -5.7672e+001  5.1437e+000 22506 109915,109653,109627
 1.5000e+000 109751 -1.3054e+001 -5.3949e+001  5.1874e+000 22506 109497,109679,109653
 1.5000e+000 109728 -2.5204e+001 -6.7469e+001 -7.5650e+000 22506 109523,109601,109575
 1.5000e+000 109705 -2.1589e+001 -8.0725e+001 -5.7897e+000 22506 109523,109575,109549
 1.5000e+000 109869 -1.3484e+001 -5.2427e+001  6.4462e+000 22506 109627,109601,109843
 1.5000e+000 109892 -1.2495e+001 -5.6700e+001  5.1747e+000 22506 109915,109627,109843
 1.5000e+000 109941 -1.2951e+001 -5.6701e+001  4.4877e+000 22506 109497,109653,109915
 1.5000e+000 109964 -1.2911e+001 -5.6584e+001  4.4307e+000 22506 109497,109915,109843
 1.5000e+000 110163 -1.2671e+001 -5.0028e+001  3.0528e+000 21936 110186,110039,110013
 1.5000e+000 110140 -1.5679e+001 -4.8763e+001  4.1318e+000 21936 110390,110186,110013
 1.5000e+000 110117 -2.0718e+001 -5.3519e+001  1.2315e+000 21936 110390,110013,109987
 1.5000e+000 110212 -1.1160e+001 -4.7471e+001  6.0668e-001 21936 110065,110039,110186
 1.5000e+000 110235  1.4491e+000 -3.6513e+001  1.3240e+001 21936 110258,110186,110091
 1.5000e+000 110284 -2.1520e+001 -5.5747e+001  5.0082e+000 21936 110065,110186,110258
 1.5000e+000 110416 -5.1305e+000 -5.6725e+001  7.3339e+000 21936 110091,110186,110390
 1.5000e+000 110439 -1.1307e+001 -6.2198e+001  4.3360e+000 21936 110091,110390,109987
 1.5000e+000 110709 -1.9177e+001 -6.1575e+001  4.7346e-001 21338 110510,110614,110588
 1.5000e+000 110686 -2.7949e+001 -7.3206e+001 -3.4675e+000 21338 110484,110614,110510
 1.5000e+000 110663 -1.8190e+001 -4.1625e+001 -3.5965e+000 21338 110510,110562,110536
 1.5000e+000 110640 -2.7791e+001 -6.3485e+001 -9.5466e-001 21338 110510,110588,110562
 1.5000e+000 111296 -1.9591e+001 -6.3627e+001 -1.5279e+000 20934 111025,111155,111103
 1.5000e+000 111273 -2.5139e+001 -8.8849e+001 -1.5974e+000 20934 110999,111155,111025
 1.5000e+000 111250  9.3288e-001 -5.4098e+001 -4.8765e+000 20934 111103,111155,111129
 1.5000e+000 111227 -3.1001e+001 -8.5583e+001 -1.4756e+001 20934 111051,111103,111077
 1.5000e+000 111204 -3.5762e+001 -7.8166e+001 -8.4565e+000 20934 111025,111103,111051
 1.5000e+000 111181 -6.2048e+000 -8.7665e+001  6.7546e+000 20934 110973,111155,110999
 1.5000e+000 111930 -2.5075e+001 -2.7583e+001 -1.1521e+001 20494 111662,111714,111688
 1.5000e+000 111907  8.6596e+000 -3.3232e+001 -9.8434e+000 20494 111584,111714,111662
 1.5000e+000 111884 -1.5478e+001 -4.6916e+001 -3.9763e+000 20494 111584,111766,111714
 1.5000e+000 111861 -7.7906e+000 -7.4795e+001  8.8821e+000 20494 111584,111636,111610
 1.5000e+000 111838 -1.5627e+001 -5.9416e+001  2.9296e+000 20494 111584,111662,111636
 1.5000e+000 111815  1.2604e+001 -3.4812e+001 -2.1044e+000 20494 111558,111766,111584
 1.5000e+000 111792 -1.0854e+001 -3.8811e+001 -8.9803e+000 20494 111714,111766,111740
 1.5000e+000 112249 -2.4738e+001 -8.4139e+001  4.8364e+000 19940 111975,112053,112001
 1.5000e+000 112226 -1.1778e+001 -6.2851e+001 -2.2548e+000 19940 111975,112131,112053
 1.5000e+000 112203 -1.4225e+000 -7.9324e+001  0.0000e+000 19940 112053,112105,112079
 1.5000e+000 112180 -1.9813e+001 -8.4156e+001 -1.6320e+000 19940 112053,112131,112105
 1.5000e+000 112157 -1.8061e+001 -7.9332e+001  2.1704e+000 19940 112001,112053,112027
 1.5000e+000 112757 -8.7981e+000 -5.5079e+001 -8.9693e+000 19486 112780,112538,112486
 1.5000e+000 112734 -1.2273e+001 -6.2055e+001 -2.4130e+000 19486 112780,112486,112460
 1.5000e+000 112711 -1.5861e+001 -5.4739e+001 -2.8004e-001 19486 112852,112616,112590
 1.5000e+000 112688  1.2429e+001 -7.2434e+001 -1.3370e+001 19486 112486,112538,112512
 1.5000e+000 112665 -2.4552e+001 -6.7990e+001 -4.6150e+000 19486 112434,112616,112460
 1.5000e+000 112642 -2.2623e+001 -5.4650e+001 -6.8592e+000 19486 112538,112590,112564
 1.5000e+000 112806 -2.0841e+001 -6.0664e+001 -7.4523e+000 19486 112590,112538,112780
 1.5000e+000 112829 -1.2371e+001 -5.7238e+001 -1.9199e+000 19486 112852,112590,112780
 1.5000e+000 112878 -1.7460e+001 -5.8345e+001  4.5197e-001 19486 112460,112616,112852
 1.5000e+000 112901 -1.5323e+001 -6.2384e+001 -4.2903e-001 19486 112460,112852,112780
 1.5000e+000 113252 -4.4579e+001 -7.6136e+001 -1.0975e+000 19096 113105,113157,113131
 1.5000e+000 113229 -4.1940e+001 -6.2752e+001 -5.7262e-001 19096 113053,113157,113105
 1.5000e+000 113206 -3.5436e+001 -5.9148e+001  8.5430e-001 19096 113027,113157,113053
 1.5000e+000 113183 -5.3036e+001 -8.3664e+001  3.5475e+000 19096 113053,113105,113079
 1.5000e+000 113451 -3.6223e+000 -6.2969e+001  2.0694e+001 18642 113327,113379,113353
 1.5000e+000 113428 -1.2662e+001 -6.1759e+001 -1.3178e+000 18642 113301,113379,113327
 1.5000e+000 113405 -7.4955e+000 -5.9220e+001 -1.3722e-001 18642 113275,113379,113301
 1.5000e+000 113699 -1.2992e+001 -6.7146e+001 -1.8749e-001 18138 113474,113552,113526
 1.5000e+000 113676 -5.3544e+000 -6.7251e+001 -4.0090e+000 18138 113474,113578,113552
 1.5000e+000 113653 -7.8642e+000 -6.6867e+001 -3.0948e+000 18138 113474,113604,113578
 1.5000e+000 113630 -4.8332e+000 -6.2393e+001  4.2049e+000 18138 113474,113526,113500
 1.5000e+000 113851 -1.9757e+001 -7.6822e+001 -7.0936e-002 17682 113750,113802,113776
 1.5000e+000 113828 -1.6287e+001 -7.3658e+001  1.3159e+000 17682 113724,113802,113750
 1.5000e+000 114383 -1.7591e+001 -5.2796e+001 -8.9726e-001 17106 114086,114242,114164
 1.5000e+000 114360 -3.2446e+001 -5.8709e+001  3.9203e+000 17106 114060,114242,114086
 1.5000e+000 114337 -3.6314e+001 -8.3061e+001  8.2992e+000 17106 114086,114164,114138
 1.5000e+000 114314 -6.4352e-001 -9.4375e+001 -1.1431e+001 17106 114190,114242,114216
 1.5000e+000 114291 -2.6945e+001 -8.1730e+001 -2.7703e+000 17106 114164,114242,114190
 1.5000e+000 114268 -2.5675e+001 -8.0713e+001  1.6893e+001 17106 114086,114138,114112
 1.5000e+000 114680 -2.3647e+001 -6.4718e+001  2.1508e+000 16766 114703,114432,114406
 1.5000e+000 114657 -2.4795e+001 -6.3146e+001  9.3998e-001 16766 114703,114406,114510
 1.5000e+000 114634 -2.0677e+001 -5.0348e+001  9.0808e-001 16766 114406,114536,114510
 1.5000e+000 114611 -2.0149e+001 -6.9224e+001 -3.2069e+000 16766 114432,114484,114458
 1.5000e+000 114588 -1.3940e+001 -5.0490e+001  8.1731e+000 16766 114406,114562,114536
 1.5000e+000 114729 -1.9012e+001 -6.3071e+001  1.9460e+000 16766 114484,114432,114703
 1.5000e+000 114752 -2.3228e+001 -6.3444e+001  1.0882e+000 16766 114484,114703,114510
 1.5000e+000 114902  6.0109e+000 -6.8245e+001 -4.8414e+000 16362 114775,114827,114801
 1.5000e+000 114879  4.4611e+001 -5.1187e+001 -1.4359e+001 16362 114775,114853,114827
 1.5000e+000 115054 -8.0399e+001 -1.3830e+002  4.4593e+000 15908 114953,115005,114979
 1.5000e+000 115031 -8.0535e+001 -1.3044e+002  4.8679e+000 15908 114927,115005,114953
 1.5000e+000 115326 -2.2618e+001 -6.5633e+001  1.0253e+001 15251 115101,115179,115153
 1.5000e+000 115303 -1.7092e+001 -5.9880e+001 -2.1764e+000 15251 115101,115231,115179
 1.5000e+000 115280 -1.9359e+001 -6.4969e+001 -1.6520e+000 15251 115179,115231,115205
 1.5000e+000 115257 -5.5092e+000 -1.2754e+002  3.5485e+001 15251 115101,115153,115127
 1.5000e+000 115429 -2.4661e+001 -7.3080e+001  8.5385e+000 421 115351,115403,115377
 1.6000e+000 66230  2.1061e+000  2.7141e-001  8.8967e-001 65954 66152,66204,66178
 1.6000e+000 66429 -8.6580e+000 -2.3602e+001  1.9034e+000 65642 66279,66331,66305
 1.6000e+000 66406 -1.3027e+000 -6.1614e+000  7.9550e-001 65642 66279,66357,66331
 1.6000e+000 66383 -5.0739e+000 -2.5106e+000  1.9962e-001 65642 66253,66357,66279
 1.6000e+000 66628  4.6566e+000 -7.8760e+001  4.9113e+000 65444 66452,66530,66478
 1.6000e+000 66605  1.0046e+000 -7.8661e+001  4.7826e+000 65444 66452,66556,66530
 1.6000e+000 66582  2.1826e+001 -7.4473e+001 -1.1055e-001 65444 66478,66530,66504
 1.6000e+000 67006 -5.8699e+000 -4.3907e+001 -3.5483e-001 65246 66732,66810,66758
 1.6000e+000 66983  8.1053e+000 -3.2650e+001  4.6220e+000 65246 66732,66836,66810
 1.6000e+000 66960 -5.5268e+000 -5.1533e+001 -6.3397e+000 65246 66732,66862,66836
 1.6000e+000 66937 -6.5352e+000 -4.4955e+001 -6.4449e-002 65246 66758,66810,66784
 1.6000e+000 66914  3.3794e+000 -4.7200e+001 -1.3369e+001 65246 66732,66888,66862
 1.6000e+000 67107  1.8068e+001 -1.8192e+001 -4.9408e+000 64934 67029,67081,67055
 1.6000e+000 67306  1.3507e+001 -5.7129e+001  7.4721e+000 64736 67156,67208,67182
 1.6000e+000 67283 -7.8745e-001 -5.7776e+001  9.9017e+000 64736 67130,67208,67156
 1.6000e+000 67260 -8.9153e+000 -7.3656e+001  6.5817e+000 64736 67130,67234,67208
 1.6000e+000 67507 -6.3878e+000 -4.1243e+001 -1.7113e+001 64389 67357,67409,67383
 1.6000e+000 67484  2.3973e+000 -6.3044e+001 -1.3332e+001 64389 67357,67435,67409
 1.6000e+000 67461  1.9193e+000 -7.1975e+001 -1.0468e+001 64389 67331,67435,67357
 1.6000e+000 67708  1.2206e+001 -4.5716e+001  8.1393e+000 63985 67731,67584,67558
 1.6000e+000 67685  6.5682e+000 -2.9367e+001  5.2796e+000 63985 67731,67558,67636
 1.6000e+000 67662  8.9399e+000 -3.7502e+001 -5.0256e+000 63985 67532,67636,67558
 1.6000e+000 67757  9.6912e+000 -5.4028e+001  7.1043e+000 63985 67610,67584,67731
 1.6000e+000 67780  9.8869e-001 -4.2379e+001  3.4547e+000 63985 67610,67731,67636
 1.6000e+000 67981  7.8284e+000 -1.9638e+001  4.4028e+000 63787 67857,67909,67883
 1.6000e+000 67958 -5.9732e+000 -2.8341e+001  8.1670e+000 63787 67831,67909,67857
 1.6000e+000 67935 -9.0977e+000 -2.5384e+000  1.2221e+000 63787 67805,67909,67831
 1.6000e+000 68231  1.0249e+001 -5.2929e+001  1.5652e+000 63589 68254,68084,68032
 1.6000e+000 68208  5.9797e+000 -3.9979e+001 -3.6031e-001 63589 68254,68032,68006
 1.6000e+000 68185  6.3026e+000 -4.2101e+001 -4.4076e+000 63589 68326,68136,68110
 1.6000e+000 68162  3.3968e+001 -4.2210e+001 -9.2223e-001 63589 68032,68084,68058
 1.6000e+000 68280  2.3786e+001 -4.3438e+001 -4.9819e+000 63589 68110,68084,68254
 1.6000e+000 68303  7.9110e+000 -4.1393e+001 -4.0146e+000 63589 68326,68110,68254
 1.6000e+000 68352  5.5945e+000 -4.1463e+001 -6.2352e-001 63589 68006,68136,68326
 1.6000e+000 68375  8.0538e+000 -4.0573e+001 -3.1662e-001 63589 68006,68326,68254
 1.6000e+000 68836  2.4381e+001 -1.9829e+001  1.1148e+001 63128 68859,68588,68562
 1.6000e+000 68813 -5.1521e+000 -3.1874e+001  1.2896e+001 63128 68859,68562,68692
 1.6000e+000 68790 -7.8482e+000 -3.3959e+001 -1.0231e+001 63128 68614,68692,68666
 1.6000e+000 68767 -2.0200e+001 -3.5748e+001  9.6973e+000 63128 68562,68718,68692
 1.6000e+000 68744 -4.7384e+000 -2.7557e+001 -1.4695e+001 63128 68614,68666,68640
 1.6000e+000 68885  2.7170e+001 -1.5764e+001 -1.5903e+001 63128 68614,68588,68859
 1.6000e+000 68908  2.3201e-001 -2.6431e+001 -1.3660e+001 63128 68614,68859,68692
 1.6000e+000 69237  1.9207e+000 -3.8407e+001  2.0822e+000 62731 69064,69116,69090
 1.6000e+000 69214 -1.4895e+000 -4.1886e+001  7.0418e-001 62731 69064,69142,69116
 1.6000e+000 69191 -6.4859e+000 -7.1136e+001 -1.4743e+000 62731 69038,69142,69064
 1.6000e+000 69168  1.6133e+000 -4.9738e+001  2.8703e+000 62731 69012,69142,69038
 1.6000e+000 69539 -1.0614e+000 -1.2673e-002  8.2141e-001 62433 69389,69467,69441
 1.6000e+000 69516  2.2844e+000 -7.3800e+000  1.7720e+000 62433 69363,69467,69389
 1.6000e+000 69493  1.1012e-001 -3.3595e+000  4.5652e+000 62433 69389,69441,69415
 1.6000e+000 69966  9.7770e-001 -2.3289e+001 -1.4916e+000 62235 69989,69773,69721
 1.6000e+000 69943  1.9159e+000 -4.3809e+001 -2.0782e+001 62235 70061,69989,69721
 1.6000e+000 69920  5.9745e+000 -7.1026e+001 -1.5556e+001 62235 70061,69721,69643
 1.6000e+000 69897 -3.0854e+000 -1.5424e+001 -2.7789e+000 62235 69721,69773,69747
 1.6000e+000 69874 -4.0952e+001 -1.8012e+002 -8.4434e+000 62235 69643,69721,69695
 1.6000e+000 69851  2.7518e+001  4.8849e+001 -1.8220e+001 62235 69643,69695,69669
 1.6000e+000 70015 -3.4264e+000 -4.8859e+001 -1.2697e+001 62235 69799,69773,69989
 1.6000e+000 70038 -1.6900e+001 -5.8817e+001 -2.7448e+001 62235 69799,69989,69825
 1.6000e+000 70087 -1.4906e+001 -7.0453e+001 -1.2003e+001 62235 69825,69989,70061
 1.6000e+000 70110  2.3830e+000 -8.4235e+001 -1.1427e+001 62235 69825,70061,69643
 1.6000e+000 70260 -1.9871e+000 -4.8459e+001  7.4791e+000 62037 70133,70185,70159
 1.6000e+000 70237 -8.2276e+000 -6.7170e+001  6.1306e+000 62037 70133,70211,70185
 1.6000e+000 70640 -1.5996e+000 -3.3339e+001  1.0446e+001 61583 70735,70663,70418
 1.6000e+000 70617 -1.1727e+001 -5.2817e+001  9.6440e+000 61583 70663,70366,70522
 1.6000e+000 70594  7.2097e-001 -2.2936e+001  7.3375e+000 61583 70735,70418,70392
 1.6000e+000 70571 -1.2781e+000 -3.3672e+001  1.3654e+001 61583 70418,70496,70444
 1.6000e+000 70548 -1.5402e+001 -1.8981e+001  1.1957e+001 61583 70444,70496,70470
 1.6000e+000 70689 -1.3075e+001 -3.7892e+001  6.4702e+000 61583 70496,70418,70663
 1.6000e+000 70712 -2.2272e+001 -2.8614e+001  9.1016e+000 61583 70496,70663,70522
 1.6000e+000 70761  2.9585e+000 -2.7690e+001 -2.1452e+000 61583 70366,70663,70735
 1.6000e+000 70784  1.9779e+000 -1.8923e+001 -4.3529e+000 61583 70366,70735,70392
 1.6000e+000 71054  8.1017e+000 -2.9077e+001  7.3808e+000 61313 71077,70881,70855
 1.6000e+000 71031  1.6376e+001 -1.9680e+001  1.4143e+001 61313 71077,70855,70829
 1.6000e+000 71008 -5.9768e+000 -1.9918e+001  7.8523e+000 61313 70829,70959,70933
 1.6000e+000 70985  8.3384e+000 -2.3318e+001 -4.9040e+000 61313 70881,70933,70907
 1.6000e+000 71103 -6.9997e-001 -2.5277e+001  8.2538e-001 61313 70933,70881,71077
 1.6000e+000 71126  7.1968e+000 -2.0150e+001  6.5587e+000 61313 70933,71077,70829
 1.6000e+000 71604 -1.8799e+001 -5.6495e+001 -4.7990e+000 60909 71627,71232,71414
 1.6000e+000 71581 -2.6685e+001 -5.7428e+001 -6.7659e+000 60909 71232,71440,71414
 1.6000e+000 71558 -1.3814e+001 -5.2427e+001 -2.7836e+000 60909 71627,71414,71336
 1.6000e+000 71535  1.1674e+001 -7.3490e+001  5.3717e+000 60909 71362,71414,71388
 1.6000e+000 71512 -2.1531e+001 -6.9967e+001 -1.5435e+000 60909 71336,71414,71362
 1.6000e+000 71489 -9.8799e+000 -4.4361e+001 -5.3771e+000 60909 71258,71336,71310
 1.6000e+000 71466 -1.5743e+001 -4.7482e+001 -4.2037e+000 60909 71258,71310,71284
 1.6000e+000 71653 -2.0915e+001 -5.1572e+001 -2.6769e+000 60909 71258,71232,71627
 1.6000e+000 71676 -1.7701e+001 -4.9617e+001 -1.7554e+000 60909 71258,71627,71336
 1.6000e+000 71875 -1.2156e+001 -5.6550e+001  2.2491e+000 60611 71898,71725,71699
 1.6000e+000 71852 -1.9069e+001 -4.3759e+001  1.2462e+001 60611 71898,71699,71803
 1.6000e+000 71829 -6.4202e+000 -2.6607e+001  1.9127e+001 60611 71970,71751,71725
 1.6000e+000 71924 -1.5815e+001 -4.1554e+001  8.2463e+000 60611 71970,71725,71898
 1.6000e+000 71947 -3.8022e+000 -2.5551e+001  4.2008e+000 60611 71777,71898,71803
 1.6000e+000 71996  7.1117e+000 -4.2449e+001  2.1086e+001 60611 71777,71751,71970
 1.6000e+000 72019  7.7466e+000 -4.3578e+001  1.2929e+001 60611 71777,71970,71898
 1.6000e+000 72576 -2.5310e+001 -7.9503e+001  1.4003e+001 60142 72599,72256,72230
 1.6000e+000 72553 -1.6725e+001 -6.4618e+001  1.0392e+001 60142 72671,72599,72230
 1.6000e+000 72530 -2.3573e+001 -6.0128e+001  6.1328e+000 60142 72671,72230,72204
 1.6000e+000 72507 -2.6068e+001 -5.8783e+001  9.0160e+000 60142 72743,72360,72334
 1.6000e+000 72484 -3.1168e+001 -5.9754e+001  1.8377e+001 60142 72815,72282,72256
 1.6000e+000 72461  1.8458e+001 -4.4147e+001  1.6932e+001 60142 72887,72308,72282
 1.6000e+000 72438 -1.5783e+001 -8.5703e+001 -9.2009e-001 60142 72204,72412,72386
 1.6000e+000 72625 -2.2733e+001 -6.8906e+001  5.2724e+000 60142 72815,72256,72599
 1.6000e+000 72648 -2.4293e+001 -6.3022e+001  8.2031e+000 60142 72743,72334,72599
 1.6000e+000 72697 -2.2684e+001 -7.2203e+001  7.7921e+000 60142 72386,72599,72671
 1.6000e+000 72720 -2.6890e+001 -6.6480e+001  4.3436e+000 60142 72386,72671,72204
 1.6000e+000 72769 -1.9801e+001 -6.2031e+001  1.7030e+001 60142 72386,72360,72743
 1.6000e+000 72792 -2.1587e+001 -7.1274e+001  1.2190e+001 60142 72386,72743,72599
 1.6000e+000 72841 -9.1738e+000 -5.5819e+001  1.8402e+001 60142 72887,72282,72815
 1.6000e+000 72864 -2.1238e+001 -5.7316e+001  1.0199e+001 60142 72334,72815,72599
 1.6000e+000 72913 -1.6912e+001 -4.0208e+001  5.4186e+000 60142 72334,72308,72887
 1.6000e+000 72936 -2.5770e+001 -4.4025e+001  4.9532e+000 60142 72334,72887,72815
 1.6000e+000 73491 -1.0583e+001 -7.6099e+001 -1.8348e+001 59738 73145,73327,73171
 1.6000e+000 73468  2.1021e+001 -3.5564e+001 -4.5844e+000 59738 73119,73327,73145
 1.6000e+000 73445 -7.3021e+000 -3.7445e+001 -4.0732e+000 59738 73171,73327,73301
 1.6000e+000 73422  2.7497e+000 -4.9788e+001  1.1378e+000 59738 73514,73275,73249
 1.6000e+000 73399 -1.1909e+001 -5.3166e+001  3.9588e+000 59738 73586,73514,73249
 1.6000e+000 73376 -1.0772e+001 -2.6654e+001  2.2654e+001 59738 73197,73249,73223
 1.6000e+000 73353 -1.2697e+001 -5.6044e+001  1.0692e+001 59738 73586,73249,73197
 1.6000e+000 73540 -9.9268e+000 -6.3011e+001 -4.4132e+000 59738 73301,73275,73514
 1.6000e+000 73563 -6.3557e+000 -4.5328e+001 -2.9965e+000 59738 73301,73514,73171
 1.6000e+000 73612 -8.2641e+000 -4.1813e+001  2.0503e+000 59738 73171,73514,73586
 1.6000e+000 73635 -8.2120e+000 -4.6141e+001  7.9589e+000 59738 73171,73586,73197
 1.6000e+000 73964 -5.0399e+000 -5.5468e+001  4.7871e+000 59334 73791,73843,73817
 1.6000e+000 73941  3.2027e-001 -5.6241e+001  4.2435e+000 59334 73791,73869,73843
 1.6000e+000 73918 -1.6619e+001 -9.5460e+001  2.7857e+000 59334 73739,73869,73791
 1.6000e+000 73895  2.6042e+001 -1.1289e+002  1.1091e+000 59334 73739,73791,73765
 1.6000e+000 74261 -1.6311e-001 -5.7890e+001  1.9536e+001 58630 74065,74117,74091
 1.6000e+000 74238 -5.7431e+000 -4.0074e+001  1.4613e+001 58630 74356,74284,74065
 1.6000e+000 74215  3.0681e+000 -2.1404e+001  1.0178e+001 58630 74284,74013,73987
 1.6000e+000 74192 -5.7253e+000 -3.9737e+001  1.4153e+001 58630 74356,74065,74039
 1.6000e+000 74169  1.2199e+001 -3.3861e+001 -5.6758e+000 58630 73987,74143,74117
 1.6000e+000 74310  2.2434e+000 -5.7736e+001  1.8775e+001 58630 74117,74065,74284
 1.6000e+000 74333  1.4357e+001 -3.8405e+001  1.1197e+001 58630 74117,74284,73987
 1.6000e+000 74382 -4.8964e+000 -4.0303e+001  1.3952e+001 58630 74013,74284,74356
 1.6000e+000 74405 -4.8074e+000 -3.9859e+001  1.3482e+001 58630 74013,74356,74039
 1.6000e+000 74815 -5.1721e+000 -2.9575e+001 -7.5396e+000 58226 74590,74642,74616
 1.6000e+000 74792 -1.2406e+001 -4.2313e+001 -4.6444e+000 58226 74590,74694,74642
 1.6000e+000 74769  1.7845e+001 -5.5301e+001  2.4387e+000 58226 74590,74720,74694
 1.6000e+000 74746 -1.3148e+001 -2.7691e+001 -4.3525e+000 58226 74642,74694,74668
 1.6000e+000 75014  1.2614e+001 -4.8023e+001  3.8536e+000 57786 75037,74864,74838
 1.6000e+000 74991  1.4555e+001 -2.8124e+001  7.5601e+000 57786 75037,74838,74916
 1.6000e+000 74968  1.0673e+001 -3.0799e+001  9.5397e+000 57786 74838,74942,74916
 1.6000e+000 75063  1.3050e+001 -6.9877e+001 -2.2416e+000 57786 74890,74864,75037
 1.6000e+000 75086  1.7402e+001 -4.6930e+001  1.8191e+000 57786 74890,75037,74916
 1.6000e+000 75368 -1.7868e+000 -3.0433e+001  3.0052e+000 57496 75192,75270,75218
 1.6000e+000 75345  2.4845e+001 -1.6950e+001  8.0182e+000 57496 75192,75296,75270
 1.6000e+000 75322 -1.8903e+000 -3.7052e+001  4.2479e+000 57496 75218,75270,75244
 1.6000e+000 75648 -6.8823e+000 -4.3699e+001 -1.0352e+000 57206 75472,75550,75498
 1.6000e+000 75625 -7.0929e-001 -3.0046e+001 -3.1500e+000 57206 75472,75576,75550
 1.6000e+000 75602  1.7769e+001 -1.8621e+001  9.6971e+000 57206 75671,75550,75524
 1.6000e+000 75697 -3.2403e+000 -4.2243e+001  6.8164e-001 57206 75498,75550,75671
 1.6000e+000 76154  7.2864e+000 -4.4031e+001 -6.2104e+000 56802 75958,76010,75984
 1.6000e+000 76131  6.4886e+000 -4.2303e+001 -5.4534e+000 56802 75932,76010,75958
 1.6000e+000 76108  1.1585e+001 -6.0874e+001  1.1698e+001 56802 75906,76010,75932
 1.6000e+000 76085 -4.1479e+000 -3.6740e+001  8.4564e+000 56802 75880,76010,75906
 1.6000e+000 76062  2.7314e+001 -1.5044e+001  3.3037e+001 56802 75880,76036,76010
 1.6000e+000 76505  1.7941e+001 -1.5719e+001 -6.4270e+000 56504 76306,76384,76332
 1.6000e+000 76482  4.5504e+000  2.1048e+000 -1.3365e+001 56504 76306,76410,76384
 1.6000e+000 76459  2.6377e+001  1.6319e+001  2.0830e+001 56504 76332,76384,76358
 1.6000e+000 76436  7.9352e-001  1.2600e+001 -2.4105e+000 56504 76280,76410,76306
 1.6000e+000 77011  1.8183e+000 -3.8310e+001 -3.9576e+000 56050 76740,76818,76792
 1.6000e+000 76988 -3.2059e+000 -4.1496e+001 -2.5581e-001 56050 76714,76818,76740
 1.6000e+000 76965 -1.7216e+001 -4.6890e+001  3.8109e+000 56050 76688,76818,76714
 1.6000e+000 76942 -1.4923e+001 -4.4826e+001  5.6638e+000 56050 76688,76844,76818
 1.6000e+000 76919 -1.9509e+001 -6.0410e+001  4.7278e+000 56050 76740,76792,76766
 1.6000e+000 76896 -1.1529e+001 -5.5314e+001 -2.2316e+000 56050 76688,76870,76844
 1.6000e+000 77517 -2.2617e+001 -4.0816e+001  7.5981e-001 55738 77220,77350,77324
 1.6000e+000 77494 -1.8502e+001 -4.8796e+001 -7.0026e+000 55738 77220,77376,77350
 1.6000e+000 77471 -1.2206e+001 -3.0944e+001 -6.5627e+000 55738 77194,77376,77220
 1.6000e+000 77448 -8.9991e+000 -5.2082e+001 -9.6330e+000 55738 77220,77298,77246
 1.6000e+000 77425 -1.4406e+001 -3.6197e+001 -1.0941e+000 55738 77220,77324,77298
 1.6000e+000 77402  6.8203e+001 -1.4690e+001  2.8617e+001 55738 77246,77298,77272
 1.6000e+000 78064 -1.9497e+001 -9.1485e+001  9.8070e+000 55227 78231,78087,77773
 1.6000e+000 78041 -2.1728e+001 -1.1626e+002  1.0142e+001 55227 78087,77695,77643
 1.6000e+000 78018 -3.0988e+001 -1.1710e+002  1.3927e+001 55227 78159,77799,77773
 1.6000e+000 77995 -1.3731e+001 -8.6279e+001  7.1998e+000 55227 78231,77773,77721
 1.6000e+000 77972 -1.1876e-002 -6.7164e+001  2.6746e+001 55227 77643,77695,77669
 1.6000e+000 77949 -4.7554e+001 -9.4612e+001  1.5354e+001 55227 77643,77877,77851
 1.6000e+000 77926 -3.8074e+001 -1.1735e+002  2.3048e+001 55227 77799,77851,77825
 1.6000e+000 77903 -1.0829e+001 -7.0280e+001 -2.6470e+000 55227 77721,77773,77747
 1.6000e+000 78113 -2.7648e+001 -1.1191e+002  1.5378e+001 55227 78159,77773,78087
 1.6000e+000 78136 -1.1682e+001 -9.3128e+001  1.5379e+001 55227 77851,78087,77643
 1.6000e+000 78185 -3.8360e+001 -1.0738e+002  1.1202e+001 55227 77851,77799,78159
 1.6000e+000 78208 -3.5921e+001 -1.0354e+002  1.2289e+001 55227 77851,78159,78087
 1.6000e+000 78257 -5.7710e+000 -1.0676e+002  5.5863e+000 55227 77695,78087,78231
 1.6000e+000 78280  4.1913e+000 -9.6809e+001  1.4170e+000 55227 77695,78231,77721
 1.6000e+000 78737 -4.3639e-001 -2.4634e+001 -1.8652e+001 54773 78463,78541,78515
 1.6000e+000 78714 -1.7886e+001 -5.5064e+001 -7.5185e+000 54773 78463,78619,78541
 1.6000e+000 78691 -9.8854e+000 -4.1074e+001 -3.2687e+000 54773 78463,78515,78489
 1.6000e+000 78668 -1.8939e+001 -3.2982e+001 -6.6633e+000 54773 78541,78593,78567
 1.6000e+000 78645 -1.1261e+001 -4.2133e+001 -1.0554e+001 54773 78541,78619,78593
 1.6000e+000 78838  7.6146e+000 -1.2212e+002 -1.6151e+001 54211 78760,78812,78786
 1.6000e+000 79297 -1.6103e+001 -6.0274e+001  4.7877e+000 53814 79520,79153,79049
 1.6000e+000 79274 -1.2782e+001 -5.4983e+001 -1.9560e-001 53814 79520,79049,79023
 1.6000e+000 79251 -2.6147e+001 -8.4645e+001  1.2577e+001 53814 79320,79101,79049
 1.6000e+000 79228 -1.6168e+001 -6.0491e+001  4.8335e+000 53814 79320,79049,79153
 1.6000e+000 79205  1.0492e+000 -9.1299e+001  1.6223e+001 53814 79049,79101,79075
 1.6000e+000 79346 -1.6395e+001 -6.0784e+001 -6.2090e+000 53814 79392,79320,79127
 1.6000e+000 79369  1.3364e+000 -5.1804e+001 -1.5060e+001 53814 79127,79320,79153
 1.6000e+000 79418 -2.8088e+001 -8.4233e+001 -1.2859e+001 53814 79101,79320,79392
 1.6000e+000 79546 -2.1733e+001 -7.1169e+001  1.3488e+001 53814 79179,79153,79520
 1.6000e+000 79569 -5.9407e+000 -6.0197e+001  6.3941e+000 53814 79179,79520,79023
 1.6000e+000 80075  2.8269e+001 -1.3947e+001  2.0411e+001 53039 80098,79908,79830
 1.6000e+000 80052  3.4987e+001 -3.9556e+000  2.8284e+001 53039 80098,79830,79804
 1.6000e+000 80029  2.0842e+001 -7.1778e+000  1.6952e+001 53039 79752,79934,79804
 1.6000e+000 80006 -7.2592e+000 -4.6954e+001  1.3564e+001 53039 79856,79908,79882
 1.6000e+000 79983  5.1545e+000 -4.7116e+001  9.7300e+000 53039 79830,79908,79856
 1.6000e+000 79960  1.1896e+001 -7.5449e+000  6.9614e+000 53039 79752,79804,79778
 1.6000e+000 80124  1.5257e+001 -2.7775e+001  7.0105e+000 53039 79934,79908,80098
 1.6000e+000 80147  3.0475e+001 -1.0309e+001  1.6366e+001 53039 79934,80098,79804
 1.6000e+000 80555 -2.3514e+001 -4.6428e+001  2.6236e+000 52699 80356,80434,80408
 1.6000e+000 80532 -2.5120e+000 -4.4314e+001 -1.9946e+000 52699 80356,80460,80434
 1.6000e+000 80509 -1.0968e+001 -4.4918e+001 -3.3464e-001 52699 80330,80460,80356
 1.6000e+000 80486 -2.4906e+001 -5.0479e+001  2.5293e+000 52699 80356,80408,80382
 1.6000e+000 80776  7.8194e+000 -3.7593e+001  4.9347e+000 52295 80600,80678,80626
 1.6000e+000 80753  1.7464e+001 -2.4911e+001 -4.3237e-001 52295 80600,80704,80678
 1.6000e+000 80730  2.1850e+001 -3.2549e+001  9.0125e-001 52295 80626,80678,80652
 1.6000e+000 81156 -3.0836e+001 -8.0896e+001  1.2670e+001 51891 81179,80960,80908
 1.6000e+000 81133 -2.6958e+001 -7.3919e+001  5.0557e+000 51891 81179,80908,81012
 1.6000e+000 81110 -3.3518e+001 -7.2422e+001  4.1438e+000 51891 80882,81012,80908
 1.6000e+000 81087 -1.7188e+001 -1.1057e+002  9.9546e+000 51891 80908,80960,80934
 1.6000e+000 81064 -2.6714e+001 -5.0704e+001  8.2438e+000 51891 80882,81038,81012
 1.6000e+000 81205 -2.1597e+001 -7.9175e+001  8.0217e+000 51891 80986,80960,81179
 1.6000e+000 81228 -2.3187e+001 -7.3319e+001  5.4151e-001 51891 80986,81179,81012
 1.6000e+000 81606 -2.5886e+001 -1.2771e+002 -2.7748e+001 51544 81410,81462,81436
 1.6000e+000 81583 -1.6817e+001 -8.9077e+001 -1.7288e+001 51544 81384,81462,81410
 1.6000e+000 81560 -2.3054e+001 -7.1232e+001 -1.7027e+001 51544 81358,81462,81384
 1.6000e+000 81537 -1.4626e+001 -6.7978e+001 -1.6739e+001 51544 81358,81488,81462
 1.6000e+000 81514 -7.4248e-001 -2.3765e+001 -1.1797e+001 51544 81332,81488,81358
 1.6000e+000 81854  2.5166e+001 -5.5073e+001  2.9287e+000 51004 81877,81655,81629
 1.6000e+000 81831  1.6647e+001 -5.0405e+001  3.6647e+000 51004 81877,81629,81759
 1.6000e+000 81808  4.5897e+000 -2.8825e+001  2.0314e+001 51004 81655,81707,81681
 1.6000e+000 81785  9.3487e+000 -7.4780e+001 -1.0839e+001 51004 81707,81759,81733
 1.6000e+000 81903  1.7702e+001 -5.1872e+001 -4.4346e-001 51004 81707,81655,81877
 1.6000e+000 81926  3.7740e+000 -5.3318e+001 -2.3055e+000 51004 81707,81877,81759
 1.6000e+000 82257 -5.4960e+000 -5.2588e+001 -1.2845e+000 50642 82058,82136,82110
 1.6000e+000 82234  1.1224e+000 -4.5689e+001 -4.0585e+000 50642 82058,82162,82136
 1.6000e+000 82211 -1.4467e+001 -6.4195e+001  1.2575e+001 50642 82058,82110,82084
 1.6000e+000 82188  2.2212e+000 -4.4866e+001 -8.6391e+000 50642 82032,82162,82058
 1.6000e+000 82684 -8.8474e-001 -5.8963e+001 -3.3051e+000 49931 82779,82707,82465
 1.6000e+000 82661 -1.2564e+001 -7.1453e+001  5.6682e+000 49931 82707,82413,82361
 1.6000e+000 82638  2.9175e+000 -5.2506e+001 -1.6128e+001 49931 82779,82465,82439
 1.6000e+000 82615 -1.8763e+001 -8.0429e+001  9.3234e+000 49931 82465,82543,82491
 1.6000e+000 82592  8.8582e+000 -6.1721e+001  2.9560e+001 49931 82361,82413,82387
 1.6000e+000 82569 -5.7298e+000 -6.1154e+001  3.5451e+000 49931 82491,82543,82517
 1.6000e+000 82733 -1.3311e+001 -6.7263e+001  7.4804e-001 49931 82543,82465,82707
 1.6000e+000 82756 -7.1106e+000 -5.9553e+001  3.4789e+000 49931 82543,82707,82361
 1.6000e+000 82805 -7.4805e+000 -7.6296e+001  1.9273e+000 49931 82413,82707,82779
 1.6000e+000 82828 -5.9094e+000 -6.9263e+001 -1.0027e+001 49931 82413,82779,82439
 1.6000e+000 83255 -2.9866e+001 -1.0461e+002 -1.0276e+001 49327 82984,83114,83036
 1.6000e+000 83232 -3.1475e+001 -1.0764e+002 -1.7085e+001 49327 82958,83114,82984
 1.6000e+000 83209 -2.4549e+000 -1.0496e+002 -1.2191e+001 49327 83036,83114,83088
 1.6000e+000 83186 -1.3806e+001 -9.2602e+001 -4.7583e+000 49327 82984,83036,83010
 1.6000e+000 83163 -2.5416e+001 -1.0678e+002 -1.6990e+001 49327 82932,83114,82958
 1.6000e+000 83140 -3.8723e+001 -1.8412e+002 -9.9737e-001 49327 83036,83088,83062
 1.6000e+000 83938 -3.6979e+001 -1.0423e+002  1.0642e+001 48965 83961,83673,83647
 1.6000e+000 83915 -1.9527e+001 -7.5513e+001  2.8588e+000 48965 83961,83647,83543
 1.6000e+000 83892 -1.2846e+001 -7.4970e+001 -9.3970e+000 48965 83517,83725,83543
 1.6000e+000 83869 -2.1963e+000 -7.9529e+001 -1.4142e+001 48965 83673,83725,83699
 1.6000e+000 83846 -1.5209e+001 -6.4910e+001 -5.5678e+000 48965 83543,83647,83621
 1.6000e+000 83823  1.7896e+001 -6.9460e+001 -1.9861e+001 48965 83543,83621,83569
 1.6000e+000 83800  2.8474e+001 -5.7695e+001 -9.8796e+000 48965 83517,83751,83725
 1.6000e+000 83777  6.2251e+001 -3.2739e+001  2.4864e+001 48965 83569,83621,83595
 1.6000e+000 83987 -1.9418e+001 -9.2764e+001 -6.9942e+000 48965 83725,83673,83961
 1.6000e+000 84010 -1.5965e+001 -8.5068e+001 -1.1174e+001 48965 83725,83961,83543
 1.6000e+000 84258 -9.1447e+000 -8.7241e+001  2.3778e+001 48447 84281,84059,84033
 1.6000e+000 84235 -2.9591e+000 -7.1293e+001  1.7189e+001 48447 84281,84033,84163
 1.6000e+000 84212 -2.1144e+000 -6.5628e+001  5.3870e+000 48447 84059,84111,84085
 1.6000e+000 84189  1.1455e+001 -7.2285e+001  8.3870e+000 48447 84111,84163,84137
 1.6000e+000 84307 -2.3358e+000 -8.4631e+001  1.2210e+001 48447 84111,84059,84281
 1.6000e+000 84330  5.1585e+000 -7.4322e+001  5.6338e+000 48447 84111,84281,84163
 1.6000e+000 84529 -1.2470e+001 -7.2118e+001  1.9867e+000 47993 84552,84405,84379
 1.6000e+000 84506 -3.6882e+001 -8.0575e+001  2.6169e+000 47993 84552,84379,84353
 1.6000e+000 84483 -6.1775e+000 -7.2431e+001 -2.7298e+000 47993 84624,84457,84431
 1.6000e+000 84578 -1.4877e+001 -8.0064e+001  1.5842e+000 47993 84431,84405,84552
 1.6000e+000 84601 -1.1709e+001 -7.9176e+001  7.6126e-001 47993 84624,84431,84552
 1.6000e+000 84650 -1.0824e+001 -6.6755e+001 -6.8447e+000 47993 84353,84457,84624
 1.6000e+000 84673 -1.4007e+001 -6.8308e+001 -3.3105e+000 47993 84353,84624,84552
 1.6000e+000 85104 -1.3922e+001 -8.2851e+001  7.5343e+000 47588 85199,85127,84885
 1.6000e+000 85081 -5.6248e+000 -8.1517e+001  4.4632e+000 47588 85127,84781,84963
 1.6000e+000 85058  1.4837e+000 -8.2390e+001 -9.3136e+000 47588 85199,84885,84807
 1.6000e+000 85035 -4.6079e+001 -9.2325e+001  2.4107e+001 47588 84885,84937,84911
 1.6000e+000 85012 -1.5322e+001 -7.3409e+001 -9.7490e+000 47588 84807,84885,84833
 1.6000e+000 84989 -1.1847e+001 -7.1768e+001 -3.8321e+000 47588 84833,84885,84859
 1.6000e+000 85153 -1.1012e+001 -9.6894e+001  1.4184e+001 47588 84937,84885,85127
 1.6000e+000 85176 -1.8734e+000 -8.2136e+001  5.3885e+000 47588 84937,85127,84963
 1.6000e+000 85225  1.3894e+001 -7.5679e+001  7.0213e-001 47588 84781,85127,85199
 1.6000e+000 85248  2.5691e+001 -7.1798e+001 -1.8459e+001 47588 84781,85199,84807
 1.6000e+000 85518  2.8983e+000 -6.8819e+001  1.5116e+000 47226 85293,85397,85319
 1.6000e+000 85495  9.2591e-001 -7.0722e+001  2.7550e+000 47226 85293,85423,85397
 1.6000e+000 85472  6.7457e-001 -7.0104e+001  6.4658e-001 47226 85319,85397,85345
 1.6000e+000 85449  7.6309e+000 -5.5713e+001  3.1174e+000 47226 85345,85397,85371
 1.6000e+000 85849 -3.7668e-001 -6.3104e+001 -7.7461e+000 46572 85624,85702,85650
 1.6000e+000 85826 -7.3273e+000 -7.2885e+001 -2.8256e+000 46572 85624,85754,85702
 1.6000e+000 85803  1.7210e+000 -7.5524e+001 -1.5081e+000 46572 85702,85754,85728
 1.6000e+000 85780  1.0072e+001 -6.1279e+001 -2.7204e-001 46572 85650,85702,85676
 1.6000e+000 86070 -5.9004e+001 -1.0066e+002 -3.6373e+000 46374 85920,85972,85946
 1.6000e+000 86047 -5.5753e+001 -9.2108e+001  9.1540e-001 46374 85920,85998,85972
 1.6000e+000 86024 -2.5418e+001 -7.8612e+001  2.0717e+001 46374 85894,85998,85920
 1.6000e+000 86401 -2.1001e+001 -7.5440e+001  2.9369e+000 46034 86424,86280,86228
 1.6000e+000 86378 -2.1295e+001 -9.0742e+001 -1.6287e+000 46034 86424,86228,86176
 1.6000e+000 86355 -2.6741e+001 -8.8693e+001 -1.5106e+001 46034 86176,86228,86202
 1.6000e+000 86332 -1.7769e+000 -6.7213e+001  2.2219e+000 46034 86228,86280,86254
 1.6000e+000 86450 -1.2954e+001 -9.2513e+001  3.7384e+000 46034 86306,86280,86424
 1.6000e+000 86473 -1.6927e+001 -1.0835e+002 -4.7487e+000 46034 86306,86424,86176
 1.6000e+000 87058 -1.5061e+001 -8.2224e+001 -7.3543e-002 45516 86813,86917,86865
 1.6000e+000 87035 -2.1330e+001 -9.6080e+001  1.2999e+000 45516 86787,86917,86813
 1.6000e+000 87012 -2.1436e+001 -1.0981e+002  2.7259e+000 45516 86735,86917,86787
 1.6000e+000 86989  5.2586e+000 -6.5715e+001 -7.2495e+000 45516 86865,86917,86891
 1.6000e+000 86966 -4.8480e+000 -6.8411e+001  4.5708e+000 45516 86813,86865,86839
 1.6000e+000 86943 -1.1197e+001 -1.2003e+002 -1.2222e+001 45516 86735,86787,86761
 1.6000e+000 87208 -2.6614e+001 -8.0390e+001  8.8530e+000 45226 87231,87133,87107
 1.6000e+000 87185  6.2301e-001 -6.7465e+001  1.1612e+001 45226 87081,87159,87133
 1.6000e+000 87257  7.9887e+000 -6.3333e+001 -4.9523e+000 45226 87081,87133,87231
 1.6000e+000 87537 -1.8208e+000 -8.6475e+001  6.0022e+000 44772 87387,87439,87413
 1.6000e+000 87514 -1.8984e+001 -9.3877e+001  7.0216e+000 44772 87361,87439,87387
 1.6000e+000 87491  7.9155e+000 -8.4581e+001 -8.1475e-001 44772 87361,87465,87439
 1.6000e+000 87996 -1.5785e+001 -5.9896e+001  4.6089e-001 44425 87748,87878,87852
 1.6000e+000 87973  7.3788e+000 -4.9159e+001 -1.4532e+001 44425 87722,87878,87748
 1.6000e+000 87950  1.2233e+001 -6.4711e+001 -7.8754e+000 44425 87800,87852,87826
 1.6000e+000 87927 -1.3699e+001 -6.4986e+001  1.6648e+000 44425 87748,87852,87800
 1.6000e+000 87904  5.8119e+000 -7.5778e+001  1.9487e+001 44425 87748,87800,87774
 1.6000e+000 88423 -3.7958e-001 -7.2571e+001 -4.0463e+000 44078 88590,88230,88204
 1.6000e+000 88400 -3.7760e+000 -7.4782e+001  1.7943e+000 44078 88518,88446,88204
 1.6000e+000 88377 -6.7544e+000 -7.4218e+001  6.8576e-001 44078 88446,88126,88282
 1.6000e+000 88354 -4.8569e+000 -7.5299e+001  1.9957e+000 44078 88518,88204,88178
 1.6000e+000 88331  4.0371e-001 -9.2001e+001  5.9171e+000 44078 88100,88282,88126
 1.6000e+000 88308 -6.6841e+000 -6.3832e+001  3.0799e+001 44078 88126,88178,88152
 1.6000e+000 88472 -2.9511e-001 -7.3394e+001 -6.1627e-001 44078 88590,88204,88446
 1.6000e+000 88495 -6.6284e+000 -7.5351e+001 -1.2356e-001 44078 88256,88446,88282
 1.6000e+000 88544 -5.0583e+000 -7.3461e+001  1.1260e+000 44078 88126,88446,88518
 1.6000e+000 88567 -6.3476e+000 -7.4225e+001  1.5183e+000 44078 88126,88518,88178
 1.6000e+000 88616 -3.6856e+001 -9.0324e+001 -1.8914e+001 44078 88256,88230,88590
 1.6000e+000 88639 -8.0476e+000 -7.6629e+001 -6.7585e-001 44078 88256,88590,88446
 1.6000e+000 89039  1.0571e+001 -5.3444e+001 -3.3906e+000 43716 88791,88921,88895
 1.6000e+000 89016  1.8830e+001 -6.6698e+001 -4.5745e+000 43716 88765,88921,88791
 1.6000e+000 88993 -3.5110e+000 -6.3493e+001  3.8365e+000 43716 88817,88895,88869
 1.6000e+000 88970 -2.9774e+001 -7.2192e+001  1.6339e+000 43716 88791,88895,88817
 1.6000e+000 88947  7.7658e+000 -5.6039e+001  1.8501e-001 43716 88817,88869,88843
 1.6000e+000 89496 -1.1309e+001 -8.6174e+001 -5.8736e+000 43162 89519,89274,89248
 1.6000e+000 89473 -8.9589e+000 -8.0458e+001 -4.3852e+000 43162 89519,89248,89222
 1.6000e+000 89450 -1.5163e+001 -7.5277e+001 -2.4960e+001 43162 89326,89378,89352
 1.6000e+000 89427 -2.0759e+001 -9.7242e+001 -7.0482e+000 43162 89274,89378,89326
 1.6000e+000 89404 -1.2324e+000 -6.5737e+001  3.1966e+000 43162 89274,89326,89300
 1.6000e+000 89545 -1.2641e+001 -8.0379e+001 -3.7263e+000 43162 89378,89274,89519
 1.6000e+000 89568 -9.8585e+000 -7.4176e+001 -2.1129e+000 43162 89378,89519,89222
 1.6000e+000 89946  1.8169e-001 -8.0878e+001 -4.6003e+000 42594 90041,89969,89750
 1.6000e+000 89923  2.3440e+001 -5.7329e+001 -1.1985e+001 42594 89969,89698,89828
 1.6000e+000 89900 -1.8503e+000 -8.2520e+001 -3.8856e+000 42594 90041,89750,89724
 1.6000e+000 89877 -2.1519e+001 -9.1021e+001  7.0782e+000 42594 89750,89802,89776
 1.6000e+000 89854  7.0632e+000 -3.6091e+001 -2.3912e+001 42594 89672,89828,89698
 1.6000e+000 89995 -1.3432e+001 -6.7717e+001  5.9816e+000 42594 89802,89750,89969
 1.6000e+000 90018  1.5130e+001 -5.5786e+001  8.7820e+000 42594 89802,89969,89828
 1.6000e+000 90067 -3.3174e+000 -6.8482e+001 -5.3275e+000 42594 89698,89969,90041
 1.6000e+000 90090 -1.4408e+001 -7.9826e+001 -8.3391e-001 42594 89698,90041,89724
 1.6000e+000 90517 -1.1385e+001 -1.0532e+002  1.4031e+001 42140 90540,90220,90194
 1.6000e+000 90494 -3.2639e+001 -1.0125e+002  2.2949e+001 42140 90540,90194,90376
 1.6000e+000 90471 -2.2696e+001 -1.0472e+002  8.6581e-001 42140 90612,90350,90272
 1.6000e+000 90448 -2.8357e+001 -1.1436e+002 -1.5826e+000 42140 90272,90350,90298
 1.6000e+000 90425 -1.3769e+001 -9.5002e+001 -1.4442e+001 42140 90298,90350,90324
 1.6000e+000 90402 -1.7600e+001 -1.0823e+002  2.7890e+001 42140 90220,90272,90246
 1.6000e+000 90566 -2.2126e+001 -1.0775e+002  1.0512e+001 42140 90272,90220,90540
 1.6000e+000 90589 -1.9456e+001 -9.6742e+001  9.6961e+000 42140 90612,90272,90540
 1.6000e+000 90638 -2.9864e+001 -1.0867e+002 -6.7577e-001 42140 90376,90350,90612
 1.6000e+000 90661 -4.1583e+001 -1.0755e+002  6.3176e+000 42140 90376,90612,90540
 1.6000e+000 91167 -1.3456e+001 -7.0898e+001 -1.6041e+000 41636 91190,90870,90844
 1.6000e+000 91144 -1.4722e+001 -8.7559e+001 -1.1045e+000 41636 91190,90844,91026
 1.6000e+000 91121  1.3406e+000 -7.7687e+001 -2.7535e+001 41636 90870,90922,90896
 1.6000e+000 91098 -2.4010e+001 -8.8455e+001  1.2641e+001 41636 90922,91026,90948
 1.6000e+000 91075  2.5022e-002 -6.6427e+001 -1.3740e+000 41636 90948,91026,91000
 1.6000e+000 91052 -1.1843e+001 -9.9747e+001  1.7210e-001 41636 90948,91000,90974
 1.6000e+000 91216 -1.5546e+001 -6.5987e+001 -1.3685e+000 41636 90922,90870,91190
 1.6000e+000 91239 -8.9651e+000 -7.1939e+001  1.3189e+000 41636 90922,91190,91026
 1.6000e+000 91696 -2.0291e+001 -7.4217e+001 -7.9283e+000 40449 91448,91526,91474
 1.6000e+000 91673 -1.2672e+001 -7.5725e+001  1.5948e+000 40449 91448,91578,91526
 1.6000e+000 91650 -1.9282e+001 -7.2839e+001 -7.4813e+000 40449 91474,91526,91500
 1.6000e+000 91627 -9.4966e+000 -8.6082e+001 -6.4540e+000 40449 91422,91578,91448
 1.6000e+000 91604 -3.5752e+001 -5.7617e+001  2.5381e+000 40449 91526,91578,91552
 1.6000e+000 92123 -5.1226e+000 -5.8431e+001 -2.1871e+000 39995 92146,91904,91826
 1.6000e+000 92100  1.2908e+001 -5.2602e+001 -1.4947e+001 39995 92146,91826,91800
 1.6000e+000 92077 -8.2957e+000 -6.0653e+001 -1.1893e+000 39995 91826,91904,91852
 1.6000e+000 92054 -2.0527e+001 -9.6906e+001  5.4662e+000 39995 91904,91982,91930
 1.6000e+000 92031  1.0857e+001 -5.5903e+001 -9.3816e+000 39995 91852,91904,91878
 1.6000e+000 92008 -1.0446e+001 -6.7792e+001  2.9333e+000 39995 91930,91982,91956
 1.6000e+000 92172 -1.1501e+001 -6.2062e+001  2.8238e+000 39995 91982,91904,92146
 1.6000e+000 92195 -3.6336e+000 -7.3084e+001 -6.4192e+000 39995 91982,92146,91800
 1.6000e+000 92652 -1.9652e+001 -6.4832e+001  3.1018e+000 39633 92404,92534,92456
 1.6000e+000 92629 -2.0802e+001 -7.0794e+001  2.2297e+000 39633 92378,92534,92404
 1.6000e+000 92606 -5.3081e+000 -5.6950e+001  1.5616e+001 39633 92404,92456,92430
 1.6000e+000 92583 -3.5684e+001 -1.0538e+002  6.4073e+000 39633 92456,92534,92508
 1.6000e+000 92560 -1.2109e+001 -6.8186e+001  1.6526e+001 39633 92456,92508,92482
 1.6000e+000 93079 -1.9477e+001 -7.3095e+001 -8.3747e+000 39093 93102,92808,92756
 1.6000e+000 93056 -1.8042e+001 -7.1097e+001 -9.6914e+000 39093 93102,92756,92938
 1.6000e+000 93033 -2.5097e+001 -8.0143e+001 -3.4215e+000 39093 93174,92912,92834
 1.6000e+000 93010 -3.8039e+001 -7.9276e+001 -2.5592e+000 39093 92834,92912,92860
 1.6000e+000 92987 -1.1731e+001 -8.8794e+001 -2.0039e+001 39093 92756,92808,92782
 1.6000e+000 92964 -3.8143e+001 -1.1134e+002 -3.5095e+001 39093 92860,92912,92886
 1.6000e+000 93128 -1.8754e+001 -6.6041e+001 -7.5134e+000 39093 92834,92808,93102
 1.6000e+000 93151 -2.3037e+001 -7.4256e+001 -5.3815e+000 39093 93174,92834,93102
 1.6000e+000 93200 -2.3053e+001 -7.7550e+001 -8.2892e+000 39093 92938,92912,93174
 1.6000e+000 93223 -1.9843e+001 -7.4159e+001 -1.0470e+001 39093 92938,93174,93102
 1.6000e+000 93680  7.7200e+000 -5.2095e+001  1.0976e+000 38639 93703,93536,93484
 1.6000e+000 93657 -1.5356e+000 -5.1684e+001  3.7606e+000 38639 93703,93484,93432
 1.6000e+000 93634  2.5764e+001 -5.7177e+001  2.1506e+001 38639 93432,93484,93458
 1.6000e+000 93611  3.5608e+000 -6.5290e+001 -8.5430e+000 38639 93484,93536,93510
 1.6000e+000 93588 -1.3268e+001 -3.5505e+001  9.8537e+000 38639 93406,93562,93432
 1.6000e+000 93729 -1.2075e+000 -4.1307e+001  5.4512e-001 38639 93562,93536,93703
 1.6000e+000 93752 -2.0670e+001 -5.1753e+001  7.4198e+000 38639 93562,93703,93432
 1.6000e+000 94160  1.0015e+000 -4.0213e+001 -1.5140e+001 38292 93935,94039,93961
 1.6000e+000 94137  4.0380e+000 -5.0082e+001  7.1006e+000 38292 93935,94065,94039
 1.6000e+000 94114 -5.0360e+001 -3.9940e+001 -1.5931e+001 38292 93961,94013,93987
 1.6000e+000 94091 -2.9243e+001 -4.0330e+001 -4.7910e+000 38292 93961,94039,94013
 1.6000e+000 94408 -2.8479e+000 -6.0375e+001  7.4022e-001 37880 94431,94261,94235
 1.6000e+000 94385 -3.4436e+000 -5.6480e+001  4.2135e-001 37880 94431,94235,94313
 1.6000e+000 94362 -4.0801e+000 -6.0510e+001 -7.9850e-001 37880 94209,94313,94235
 1.6000e+000 94339  4.7172e+000 -5.2125e+001  2.0104e+001 37880 94183,94313,94209
 1.6000e+000 94457 -1.3116e+000 -5.6908e+001 -4.9067e-001 37880 94287,94261,94431
 1.6000e+000 94480 -3.6259e+000 -5.4669e+001 -4.8780e-002 37880 94287,94431,94313
 1.6000e+000 94728 -3.6239e+000 -5.5090e+001 -2.8364e+000 37426 94529,94607,94555
 1.6000e+000 94705 -8.9345e+000 -7.7317e+001 -1.0307e+000 37426 94529,94633,94607
 1.6000e+000 94682  2.2409e+001 -7.7529e+001 -1.0949e+000 37426 94503,94633,94529
 1.6000e+000 94659 -1.4278e+001 -2.7626e+001 -1.7130e+001 37426 94555,94607,94581
 1.6000e+000 95257 -5.9128e+000 -7.8417e+001 -7.9852e-001 36722 95496,95280,94862
 1.6000e+000 95234  7.2159e+000 -7.2489e+001  1.5338e+000 36722 95496,94862,94836
 1.6000e+000 95211  5.9443e-001 -6.9125e+001  4.0395e+000 36722 95352,95280,95070
 1.6000e+000 95188  3.0938e+000 -5.3464e+001  7.4047e+000 36722 95352,95070,95044
 1.6000e+000 95165 -1.4973e+000 -8.7359e+001 -1.0591e+001 36722 95424,94888,94862
 1.6000e+000 95142  8.1044e+000 -5.8567e+001  1.3852e+000 36722 94914,94966,94940
 1.6000e+000 95119 -1.0212e+001 -1.1914e+002  3.5296e+001 36722 94966,95044,95018
 1.6000e+000 95096 -9.5401e+000 -1.0766e+002  3.0389e+001 36722 94966,95018,94992
 1.6000e+000 95306 -1.0848e+001 -7.1553e+001 -5.8966e+000 36722 95424,94862,95280
 1.6000e+000 95329 -1.0123e+001 -6.9517e+001 -4.7147e+000 36722 94914,95280,94966
 1.6000e+000 95378  2.8545e-001 -7.4161e+001 -3.6883e+000 36722 94966,95280,95352
 1.6000e+000 95401 -2.8881e+000 -6.8686e+001  2.4291e-001 36722 94966,95352,95044
 1.6000e+000 95450 -1.7834e+001 -8.4176e+001 -1.8770e+001 36722 94914,94888,95424
 1.6000e+000 95473 -2.1420e+001 -8.1048e+001 -1.2936e+001 36722 94914,95424,95280
 1.6000e+000 95522 -7.5318e+000 -7.6261e+001 -1.6184e-001 36722 95070,95280,95496
 1.6000e+000 95545 -7.5454e+000 -7.6607e+001 -3.6858e-001 36722 95070,95496,94836
 1.6000e+000 96130 -3.1409e+001 -6.1552e+001  7.0330e-001 36268 96153,95911,95859
 1.6000e+000 96107 -3.3317e+001 -7.7452e+001 -2.8514e-001 36268 96153,95859,95807
 1.6000e+000 96084 -3.8096e+001 -9.7814e+001 -8.7220e+000 36268 95807,95859,95833
 1.6000e+000 96061 -3.7155e+001 -9.9433e+001  1.0294e+001 36268 95911,95989,95937
 1.6000e+000 96038 -3.0180e+001 -6.1971e+001 -3.6581e+000 36268 95859,95911,95885
 1.6000e+000 96015 -2.0791e+001 -9.0349e+001  6.6422e+000 36268 95937,95989,95963
 1.6000e+000 96179 -2.3632e+001 -7.5710e+001  4.4325e+000 36268 95989,95911,96153
 1.6000e+000 96202 -2.8743e+001 -9.6129e+001  2.8389e+000 36268 95989,96153,95807
 1.6000e+000 96531  1.0899e+001 -7.6540e+001  1.5888e+000 35728 96358,96410,96384
 1.6000e+000 96508 -1.8096e+001 -8.8756e+001  6.2610e+000 35728 96332,96410,96358
 1.6000e+000 96485 -3.4241e+000 -6.0342e+001  4.7004e-001 35728 96332,96436,96410
 1.6000e+000 96462  4.6625e+000 -4.8106e+001 -9.2601e+000 35728 96306,96436,96332
 1.6000e+000 96860 -1.1389e+001 -7.4479e+001 -7.3592e+000 35324 96687,96765,96713
 1.6000e+000 96837 -2.4683e+001 -1.0374e+002 -2.6941e+000 35324 96661,96765,96687
 1.6000e+000 96814 -3.0128e+001 -8.2907e+001 -4.1372e+000 35324 96713,96765,96739
 1.6000e+000 96791 -2.7513e+001 -1.2650e+002 -9.3464e+000 35324 96635,96765,96661
 1.6000e+000 97366 -2.4442e+001 -9.5079e+001 -4.9781e+000 34920 97389,97069,97043
 1.6000e+000 97343 -2.1366e+001 -8.7331e+001 -4.5912e+000 34920 97389,97043,97199
 1.6000e+000 97320 -2.0010e+001 -8.6381e+001 -5.4394e+000 34920 97043,97225,97199
 1.6000e+000 97297 -1.1767e+001 -1.2238e+002 -1.2077e+001 34920 97069,97121,97095
 1.6000e+000 97274 -4.3544e+001 -8.0193e+001 -1.5438e+001 34920 97121,97199,97173
 1.6000e+000 97251 -3.2800e+001 -6.6754e+001 -2.3521e+001 34920 97121,97173,97147
 1.6000e+000 97415 -2.9487e+001 -9.4865e+001 -1.5481e+001 34920 97121,97069,97389
 1.6000e+000 97438 -2.2215e+001 -7.7972e+001 -1.4887e+001 34920 97121,97389,97199
 1.6000e+000 97708 -3.0851e+001 -9.6975e+001 -5.4266e+000 34722 97509,97587,97535
 1.6000e+000 97685 -1.8429e+001 -9.9806e+001 -7.3005e+000 34722 97509,97613,97587
 1.6000e+000 97662 -4.6660e+001 -1.1374e+002 -1.1916e+001 34722 97483,97613,97509
 1.6000e+000 97639 -1.8889e+001 -8.0286e+001  1.6916e+001 34722 97535,97587,97561
 1.6000e+000 98216 -1.4447e+001 -9.0893e+001  7.9436e+000 34318 97971,98075,97997
 1.6000e+000 98193 -1.5108e+001 -8.2211e+001  2.3556e+000 34318 97893,98075,97971
 1.6000e+000 98170 -5.5866e+000 -7.5564e+001 -2.1577e+000 34318 97893,97971,97919
 1.6000e+000 98147 -1.0702e+001 -8.1287e+001  7.3449e+000 34318 97997,98075,98049
 1.6000e+000 98124  2.0630e+000 -6.0774e+001 -9.2645e+000 34318 97919,97971,97945
 1.6000e+000 98101 -1.2127e+001 -8.2907e+001  1.1480e+001 34318 97997,98049,98023
 1.6000e+000 98594 -2.4358e+001 -8.1791e+001 -1.5851e+000 33814 98961,98617,98424
 1.6000e+000 98571 -2.6121e+001 -8.4431e+001 -6.5986e-001 33814 98689,98617,98372
 1.6000e+000 98548 -2.3535e+001 -6.6579e+001 -3.2599e+000 33814 99033,98689,98372
 1.6000e+000 98525 -1.5967e+001 -5.6651e+001  1.1917e+001 33814 98761,98476,98450
 1.6000e+000 98502 -2.7994e+001 -7.6332e+001 -2.2846e+000 33814 98961,98424,98398
 1.6000e+000 98643 -3.7457e+001 -8.9103e+001 -4.9340e+000 33814 98450,98424,98617
 1.6000e+000 98666 -2.4076e+001 -6.9755e+001  1.5225e+000 33814 98761,98450,98617
 1.6000e+000 98715 -3.1522e+001 -8.7184e+001 -9.6933e-001 33814 99161,98689,98320
 1.6000e+000 98738 -2.6484e+001 -9.4764e+001 -6.8795e-001 33814 98320,98689,98346
 1.6000e+000 98787 -4.6997e+001 -8.0257e+001  1.2221e+001 33814 98833,98761,98320
 1.6000e+000 98810 -2.9652e+001 -8.8112e+001  1.5866e+000 33814 99161,98320,98761
 1.6000e+000 98859 -2.0922e+001 -5.4226e+001  1.7199e+000 33814 98476,98761,98833
 1.6000e+000 98987 -2.2019e+001 -7.4646e+001 -3.2746e+000 33814 98372,98617,98961
 1.6000e+000 99010 -2.3658e+001 -6.6518e+001 -4.3968e+000 33814 98372,98961,98398
 1.6000e+000 99059 -4.3732e+001 -1.0881e+002 -1.2128e+001 33814 98346,98689,99033
 1.6000e+000 99187 -2.9560e+001 -8.3717e+001  2.2425e-001 33814 98617,98689,99161
 1.6000e+000 99210 -2.7290e+001 -8.4861e+001  2.8319e+000 33814 98617,99161,98761
 1.6000e+000 99588 -9.3504e+000 -5.0244e+001  4.4901e+000 33566 99366,99444,99392
 1.6000e+000 99565  4.7921e+000 -5.8004e+001  5.9922e+000 33566 99314,99444,99366
 1.6000e+000 99542  7.3801e+000 -7.3848e+001 -4.7961e+000 33566 99314,99366,99340
 1.6000e+000 99519  1.8368e+001 -7.0973e+001  3.1415e+001 33566 99314,99470,99444
 1.6000e+000 99496 -4.7668e+000 -4.5911e+001  1.1212e+000 33566 99392,99444,99418
 1.6000e+000 99787 -1.3355e+001 -7.0961e+001 -5.9778e+000 33105 99637,99689,99663
 1.6000e+000 99764 -1.3984e+000 -6.6467e+001 -5.5856e+000 33105 99611,99689,99637
 1.6000e+000 99741 -1.1846e+001 -6.3054e+001  2.8983e+000 33105 99611,99715,99689
 1.6000e+000 100167 -2.9246e+001 -7.4224e+001  1.2323e+001 32651 100190,99971,99919
 1.6000e+000 100144 -1.4260e+001 -6.6410e+001  7.5196e+000 32651 100262,100190,99919
 1.6000e+000 100121 -1.3720e+001 -6.5286e+001  6.4304e+000 32651 100262,99919,100049
 1.6000e+000 100098  4.7360e-001 -5.8795e+001 -4.5734e+000 32651 99893,100049,99919
 1.6000e+000 100075 -1.5933e+001 -8.0854e+001  2.2080e+001 32651 99919,99971,99945
 1.6000e+000 100216 -1.3085e+001 -6.9390e+001  1.0871e+001 32651 99997,99971,100190
 1.6000e+000 100239 -1.3724e+001 -7.5978e+001  8.8634e+000 32651 99997,100190,100023
 1.6000e+000 100288 -9.3863e+000 -7.5227e+001  7.3248e+000 32651 100023,100190,100262
 1.6000e+000 100311  3.2017e+000 -6.6846e+001  1.8192e+000 32651 100023,100262,100049
 1.6000e+000 100608 -1.4274e+000 -7.5732e+001 -4.6638e+000 32254 100386,100490,100464
 1.6000e+000 100585  3.3468e+000 -6.8786e+001 -2.3032e+000 32254 100360,100490,100386
 1.6000e+000 100562 -2.2522e+000 -9.3605e+001 -1.5352e+001 32254 100386,100464,100412
 1.6000e+000 100539  2.0795e+001 -6.3425e+001 -5.8966e+000 32254 100334,100490,100360
 1.6000e+000 100516 -6.0152e+000 -5.3601e+001 -2.6329e+001 32254 100412,100464,100438
 1.6000e+000 100758 -2.4137e+000 -2.8799e+001  1.1980e+001 31914 100985,100781,100683
 1.6000e+000 100735 -3.3152e+001 -5.3569e+001  2.8821e+000 31914 100853,100781,100657
 1.6000e+000 100807 -2.8644e+000 -5.5500e+001  6.0937e+000 31914 100709,100683,100781
 1.6000e+000 100830  1.3306e+001 -4.9643e+001  2.8333e+000 31914 100709,100781,100631
 1.6000e+000 100879  7.0451e+000 -4.2885e+001 -1.3015e+001 31914 100631,100781,100853
 1.6000e+000 101011 -2.0681e+001 -4.8806e+001  2.6568e+000 31914 100657,100781,100985
 1.6000e+000 101191 -1.4164e+001 -8.6307e+001  8.2582e+000 31418 101113,101165,101139
 1.6000e+000 101341 -3.0312e+001 -8.1177e+001 -4.6228e+000 31106 101214,101266,101240
 1.6000e+000 101318 -2.7161e+001 -7.3722e+001 -4.8518e+000 31106 101214,101292,101266
 1.6000e+000 101591 -1.4523e+001 -7.3379e+001  7.2985e+000 30552 101614,101470,101444
 1.6000e+000 101568  1.3495e+000 -7.0466e+001  7.9474e+000 30552 101366,101496,101470
 1.6000e+000 101545 -1.5201e+001 -7.3816e+001  7.8167e+000 30552 101614,101444,101392
 1.6000e+000 101522  5.8328e+000 -6.6069e+001  6.0684e+000 30552 101392,101444,101418
 1.6000e+000 101640 -1.5463e+001 -7.3174e+001  7.7833e+000 30552 101366,101470,101614
 1.6000e+000 101663 -1.6048e+001 -7.3527e+001  8.2914e+000 30552 101366,101614,101392
 1.6000e+000 102301 -3.2253e+001 -8.7103e+001  6.0868e+000 30042 102396,102324,102059
 1.6000e+000 102278 -2.1758e+001 -7.5734e+001  4.0959e+000 30042 102324,101981,101955
 1.6000e+000 102255 -3.6976e+001 -8.5101e+001  1.0081e+001 30042 102396,102059,102033
 1.6000e+000 102232 -2.4114e+001 -6.4656e+001  1.9834e+000 30042 101929,102111,101955
 1.6000e+000 102209 -2.0759e+001 -8.4797e+001 -5.6067e+000 30042 102059,102111,102085
 1.6000e+000 102186 -1.9954e+001 -6.2948e+001  1.9587e+000 30042 101929,102137,102111
 1.6000e+000 102163  2.2789e+001 -5.3977e+001  1.4509e+000 30042 101981,102033,102007
 1.6000e+000 102350 -2.9288e+001 -8.2629e+001 -1.7471e+000 30042 102111,102059,102324
 1.6000e+000 102373 -2.7023e+001 -7.4104e+001 -2.4680e+000 30042 102111,102324,101955
 1.6000e+000 102422 -2.4970e+001 -7.9793e+001  2.6790e+000 30042 101981,102324,102396
 1.6000e+000 102445 -3.0038e+001 -7.7945e+001  6.7137e+000 30042 101981,102396,102033
 1.6000e+000 103000 -1.4474e+001 -8.2213e+001  2.2841e+000 29730 103023,102706,102654
 1.6000e+000 102977 -2.3247e+001 -8.0924e+001 -1.7375e+000 29730 103023,102654,102810
 1.6000e+000 102954 -3.0670e+001 -1.1458e+002 -8.1770e+000 29730 102732,102810,102784
 1.6000e+000 102931 -3.3926e+001 -7.8677e+001 -2.4826e+000 29730 102628,102810,102654
 1.6000e+000 102908 -1.5307e+001 -8.1938e+001  3.0028e+000 29730 102654,102706,102680
 1.6000e+000 102885 -2.6333e+001 -8.7276e+001 -2.3453e+001 29730 102732,102784,102758
 1.6000e+000 102862 -4.4916e+001 -8.3745e+001 -9.5430e-001 29730 102628,102836,102810
 1.6000e+000 103049 -2.0240e+001 -8.8355e+001 -1.3127e+000 29730 102732,102706,103023
 1.6000e+000 103072 -2.5444e+001 -8.2510e+001 -4.4475e+000 29730 102732,103023,102810
 1.6000e+000 103222 -1.1360e+001 -6.3679e+001 -8.7389e+000 29226 103095,103147,103121
 1.6000e+000 103199 -1.8481e+001 -7.1725e+001 -5.3615e+000 29226 103095,103173,103147
 1.6000e+000 103730 -1.3532e+001 -7.6269e+001 -4.8739e+000 28822 103537,103589,103563
 1.6000e+000 103707 -1.6240e+001 -7.9421e+001 -3.5904e+000 28822 103433,103589,103537
 1.6000e+000 103684 -4.2489e+001 -8.6681e+001 -9.2736e+000 28822 103433,103537,103459
 1.6000e+000 103661 -2.4685e+001 -8.1812e+001 -6.7886e+000 28822 103407,103589,103433
 1.6000e+000 103638 -3.0156e+001 -5.0813e+001  5.5507e+000 28822 103459,103511,103485
 1.6000e+000 103615 -1.2106e+001 -5.2775e+001  6.6626e+000 28822 103459,103537,103511
 1.6000e+000 103880 -6.9190e+000 -7.6426e+001  8.0207e+000 28368 103975,103903,103779
 1.6000e+000 103857 -8.1627e+000 -9.4894e+001  4.1501e+000 28368 103903,103753,103831
 1.6000e+000 103929 -1.0807e+001 -7.9115e+001  6.0493e+000 28368 103805,103779,103903
 1.6000e+000 103952 -9.4105e-001 -7.8135e+001  6.9645e+000 28368 104105,103903,103831
 1.6000e+000 104001 -6.4120e+000 -7.9927e+001  1.6839e+000 28368 103753,103903,103975
 1.6000e+000 104131 -1.0517e+001 -8.2033e+001  6.7783e+000 28368 103805,103903,104105
 1.6000e+000 104539  5.7774e+000 -5.0897e+001  2.5466e+000 28028 104562,104340,104314
 1.6000e+000 104516  4.3020e+000 -3.2968e+001  7.0996e+000 28028 104634,104562,104314
 1.6000e+000 104493  9.3582e+000 -5.1698e+001 -9.2441e+000 28028 104762,104366,104340
 1.6000e+000 104470  3.0034e+001 -5.0895e+001 -3.3293e+001 28028 104366,104418,104392
 1.6000e+000 104588  3.3367e+000 -5.7080e+001 -6.0731e+000 28028 104762,104340,104562
 1.6000e+000 104611 -6.1284e+000 -3.8969e+001 -5.7654e+000 28028 104418,104562,104444
 1.6000e+000 104660 -1.9302e+001 -4.4072e+001 -1.5083e+000 28028 104444,104562,104634
 1.6000e+000 104788  2.0255e-002 -4.5396e+001 -9.9575e+000 28028 104418,104366,104762
 1.6000e+000 104811 -4.0767e+000 -4.8930e+001 -7.2445e+000 28028 104418,104762,104562
 1.6000e+000 105010 -1.8416e-001 -6.3962e+001  1.0659e+001 27324 105033,104886,104860
 1.6000e+000 104987 -1.0003e+001 -6.9140e+001  7.6714e+000 27324 105033,104860,104834
 1.6000e+000 104964 -5.2464e+000 -8.1300e+001  8.0913e+000 27324 105105,104912,104886
 1.6000e+000 105059 -6.3235e+000 -7.6602e+001  8.5404e+000 27324 105105,104886,105033
 1.6000e+000 105082 -6.3381e+000 -6.0012e+001  6.9962e+000 27324 104938,105033,104834
 1.6000e+000 105131 -1.1971e+001 -7.6679e+001  7.8514e-001 27324 104938,104912,105105
 1.6000e+000 105154 -8.7025e+000 -6.5489e+001  2.6895e+000 27324 104938,105105,105033
 1.6000e+000 105402 -5.9009e+001 -8.0485e+001 -6.6301e+000 27012 105229,105281,105255
 1.6000e+000 105379 -3.9904e+001 -8.0970e+001 -8.3123e+000 27012 105229,105307,105281
 1.6000e+000 105356 -2.8593e+001 -7.6746e+001 -6.4152e+000 27012 105177,105307,105229
 1.6000e+000 105333 -5.0877e+001 -9.5376e+001 -2.4294e+001 27012 105177,105229,105203
 1.6000e+000 105603  2.8728e+001 -2.0976e+001 -8.8429e+000 26508 105626,105453,105427
 1.6000e+000 105580  2.5031e+001 -3.0038e+001 -2.1850e+000 26508 105626,105427,105505
 1.6000e+000 105557  2.7916e+001 -3.4661e+001  1.0645e+000 26508 105427,105531,105505
 1.6000e+000 105652  2.1705e+001 -2.4225e+001 -3.2944e+000 26508 105479,105453,105626
 1.6000e+000 105675  1.9164e+001 -2.7880e+001  2.7191e+000 26508 105479,105626,105505
 1.6000e+000 106057 -2.7901e+001 -8.2608e+001  1.5885e+001 25947 106080,105887,105861
 1.6000e+000 106034 -2.2246e+001 -7.5279e+001  6.4577e+000 25947 106080,105861,105783
 1.6000e+000 106011 -2.6630e+001 -5.5363e+001  4.1461e+000 25947 105783,105835,105809
 1.6000e+000 105988 -3.4327e+001 -5.8795e+001  7.0882e+000 25947 105783,105861,105835
 1.6000e+000 105965  7.2120e+000 -5.1961e+001 -2.6301e+000 25947 105887,105939,105913
 1.6000e+000 106106 -2.4321e+001 -7.8341e+001  8.8122e+000 25947 105939,105887,106080
 1.6000e+000 106129 -1.0172e+001 -6.3278e+001 -1.9761e+000 25947 105939,106080,105783
 1.6000e+000 106714 -3.5664e+001 -5.9335e+001 -1.2528e+000 25557 106809,106737,106547
 1.6000e+000 106691 -3.6192e+001 -6.8837e+001  5.9684e+000 25557 106737,106417,106391
 1.6000e+000 106668 -3.1541e+001 -5.7927e+001 -1.8531e+000 25557 106809,106547,106495
 1.6000e+000 106645 -4.4744e+001 -9.9655e+001  8.3970e+000 25557 106417,106495,106469
 1.6000e+000 106622 -2.9999e+001 -6.1251e+001 -7.2574e+000 25557 106495,106547,106521
 1.6000e+000 106599 -1.6019e+001 -1.2487e+002  1.6454e+001 25557 106417,106469,106443
 1.6000e+000 106763 -4.0006e+001 -6.0884e+001  1.8136e+000 25557 106573,106547,106737
 1.6000e+000 106786 -3.1352e+001 -5.7609e+001  5.5994e+000 25557 106573,106737,106391
 1.6000e+000 106835 -3.0622e+001 -6.1351e+001  5.3613e-001 25557 106417,106737,106809
 1.6000e+000 106858 -2.8077e+001 -6.0973e+001 -4.8700e-001 25557 106417,106809,106495
 1.6000e+000 107364 -3.4791e+000 -4.7249e+001 -2.0021e+001 25153 107459,107387,107171
 1.6000e+000 107341 -2.5005e+001 -5.5279e+001 -6.7258e+000 25153 107387,107119,107067
 1.6000e+000 107318  4.7744e+000 -4.4886e+001 -2.0508e+001 25153 107459,107171,107145
 1.6000e+000 107295 -1.6555e+001 -6.0407e+001 -1.9276e+001 25153 107531,107223,107197
 1.6000e+000 107272 -2.5692e+001 -5.5571e+001 -5.1493e+000 25153 107067,107119,107093
 1.6000e+000 107249 -1.8152e+001 -4.0842e+001 -1.1663e+001 25153 107041,107223,107067
 1.6000e+000 107413 -1.6971e+001 -5.8746e+001 -1.2631e+001 25153 107197,107171,107387
 1.6000e+000 107436 -1.1676e+001 -6.1448e+001 -1.4789e+001 25153 107531,107197,107387
 1.6000e+000 107485 -7.0550e+000 -5.0576e+001 -2.1772e+000 25153 107119,107387,107459
 1.6000e+000 107508  1.4857e+001 -4.2085e+001 -2.1736e+000 25153 107119,107459,107145
 1.6000e+000 107557 -1.8209e+001 -5.5486e+001 -1.2936e+001 25153 107067,107223,107531
 1.6000e+000 107580 -1.0848e+001 -5.2188e+001 -8.1069e+000 25153 107067,107531,107387
 1.6000e+000 107958 -2.8411e+001 -7.0476e+001 -1.7139e+000 24741 107736,107814,107788
 1.6000e+000 107935 -2.6474e+001 -7.1062e+001 -3.0596e+000 24741 107736,107840,107814
 1.6000e+000 107912 -3.2582e+001 -8.1997e+001 -5.5644e+000 24741 107684,107840,107736
 1.6000e+000 107889 -3.2511e+001 -6.7491e+001 -2.5403e+000 24741 107736,107788,107762
 1.6000e+000 107866 -2.8564e+001 -1.0241e+002 -2.7365e+001 24741 107684,107736,107710
 1.6000e+000 108157 -2.0585e+001 -5.6442e+001  1.0247e+001 24237 108180,108059,108007
 1.6000e+000 108134 -1.4317e+001 -4.2470e+001  2.1354e+001 24237 108180,108007,107981
 1.6000e+000 108111  3.5001e-001 -5.3729e+001  5.8808e+000 24237 108007,108059,108033
 1.6000e+000 108206 -1.3625e+001 -4.3785e+001  1.8044e+001 24237 108085,108059,108180
 1.6000e+000 108229 -7.7097e+000 -2.9945e+001  2.9068e+001 24237 108085,108180,107981
 1.6000e+000 108658 -1.3253e+001 -6.6009e+001 -9.7189e+000 23776 108361,108413,108387
 1.6000e+000 108635  5.3702e+000 -5.3690e+001 -4.8370e+000 23776 108753,108681,108361
 1.6000e+000 108612  2.0437e+001 -4.5685e+001 -1.5472e+001 23776 108681,108465,108439
 1.6000e+000 108589  4.0989e+000 -5.3837e+001 -5.0464e+000 23776 108753,108361,108335
 1.6000e+000 108566 -8.5250e+000 -7.2030e+001  5.9719e+000 23776 108335,108517,108465
 1.6000e+000 108543  2.2028e+001 -8.7509e+001  2.5579e+001 23776 108465,108517,108491
 1.6000e+000 108707 -2.3069e+000 -5.3550e+001 -1.5711e+000 23776 108413,108361,108681
 1.6000e+000 108730  6.0794e+000 -6.1052e+001 -7.0744e+000 23776 108413,108681,108439
 1.6000e+000 108779  4.1248e+000 -5.3886e+001 -5.6162e+000 23776 108465,108681,108753
 1.6000e+000 108802  3.1764e+000 -5.3539e+001 -5.5527e+000 23776 108465,108753,108335
 1.6000e+000 109023  8.7447e+000 -3.1374e+001  6.9033e+000 23414 108873,108925,108899
 1.6000e+000 109000 -4.8900e+000 -3.6484e+001  6.3820e+000 23414 108847,108925,108873
 1.6000e+000 108977  6.2949e+000 -1.4671e+001  6.9821e-001 23414 108847,108951,108925
 1.6000e+000 109474 -3.0345e+001 -7.0960e+001  2.5928e+000 23024 109151,109307,109177
 1.6000e+000 109451 -3.4278e+001 -7.2539e+001  3.9766e+000 23024 109151,109333,109307
 1.6000e+000 109428 -3.6555e+001 -9.3032e+001 -5.6148e+000 23024 109177,109281,109203
 1.6000e+000 109405 -6.0540e+001 -9.3503e+001 -7.5880e+000 23024 109177,109307,109281
 1.6000e+000 109382 -2.5933e+001 -8.3332e+001 -8.6244e-001 23024 109203,109281,109229
 1.6000e+000 109359 -2.6876e+001 -8.5581e+001 -1.1712e+000 23024 109229,109281,109255
 1.6000e+000 109820 -1.9284e+001 -6.3372e+001  6.3414e+000 22506 109843,109601,109523
 1.6000e+000 109797 -1.1682e+001 -5.9591e+001  4.6321e+000 22506 109843,109523,109497
 1.6000e+000 109774 -1.0743e+001 -6.5853e+001  6.1322e+000 22506 109915,109653,109627
 1.6000e+000 109751 -1.2136e+001 -6.1855e+001  6.3918e+000 22506 109497,109679,109653
 1.6000e+000 109728 -2.5329e+001 -7.8907e+001 -1.2371e+001 22506 109523,109601,109575
 1.6000e+000 109705 -4.8219e+001 -1.1278e+002 -2.2323e+001 22506 109523,109575,109549
 1.6000e+000 109869 -1.0970e+001 -6.0900e+001  7.5342e+000 22506 109627,109601,109843
 1.6000e+000 109892 -9.9120e+000 -6.4071e+001  6.3775e+000 22506 109915,109627,109843
 1.6000e+000 109941 -1.1106e+001 -6.4283e+001  5.0261e+000 22506 109497,109653,109915
 1.6000e+000 109964 -1.0982e+001 -6.4016e+001  5.0909e+000 22506 109497,109915,109843
 1.6000e+000 110163 -1.0357e+001 -5.6763e+001  3.3159e+000 21936 110186,110039,110013
 1.6000e+000 110140 -1.3370e+001 -5.4554e+001  4.9597e+000 21936 110390,110186,110013
 1.6000e+000 110117 -1.9941e+001 -5.9816e+001  9.7608e-001 21936 110390,110013,109987
 1.6000e+000 110212 -8.4543e+000 -5.3162e+001  1.1674e+000 21936 110065,110039,110186
 1.6000e+000 110235  8.3318e+000 -3.8621e+001  1.7058e+001 21936 110258,110186,110091
 1.6000e+000 110284 -2.1037e+001 -6.3233e+001  6.5277e+000 21936 110065,110186,110258
 1.6000e+000 110416  4.2532e-001 -6.3876e+001  8.6917e+000 21936 110091,110186,110390
 1.6000e+000 110439 -7.7421e+000 -7.0149e+001  4.6442e+000 21936 110091,110390,109987
 1.6000e+000 110709 -2.0272e+001 -6.9441e+001  6.1994e-001 21338 110510,110614,110588
 1.6000e+000 110686 -3.0937e+001 -8.2998e+001 -4.0877e+000 21338 110484,110614,110510
 1.6000e+000 110663 -1.9411e+001 -4.7061e+001 -4.5988e+000 21338 110510,110562,110536
 1.6000e+000 110640 -3.0310e+001 -7.1706e+001 -9.9816e-001 21338 110510,110588,110562
 1.6000e+000 111296 -1.8933e+001 -7.1391e+001 -2.0841e+000 20934 111025,111155,111103
 1.6000e+000 111273 -2.6468e+001 -1.0278e+002 -1.7474e+000 20934 110999,111155,111025
 1.6000e+000 111250  5.8842e+000 -5.9902e+001 -6.0098e+000 20934 111103,111155,111129
 1.6000e+000 111227 -3.3735e+001 -1.0331e+002 -1.5967e+001 20934 111051,111103,111077
 1.6000e+000 111204 -3.6226e+001 -8.7992e+001 -9.5119e+000 20934 111025,111103,111051
 1.6000e+000 111181 -3.9919e+000 -1.0300e+002  8.1742e+000 20934 110973,111155,110999
 1.6000e+000 111930 -2.5701e+001 -2.8465e+001 -1.2941e+001 20494 111662,111714,111688
 1.6000e+000 111907  1.5024e+001 -3.7730e+001 -1.1655e+001 20494 111584,111714,111662
 1.6000e+000 111884 -1.5033e+001 -5.3781e+001 -4.8094e+000 20494 111584,111766,111714
 1.6000e+000 111861 -4.6249e+000 -8.8445e+001  1.2072e+001 20494 111584,111636,111610
 1.6000e+000 111838 -1.5133e+001 -6.9779e+001  4.2945e+000 20494 111584,111662,111636
 1.6000e+000 111815  2.0627e+001 -3.8620e+001 -2.7619e+000 20494 111558,111766,111584
 1.6000e+000 111792 -9.6826e+000 -4.4284e+001 -1.0397e+001 20494 111714,111766,111740
 1.6000e+000 112249 -2.8290e+001 -1.0144e+002  6.1092e+000 19940 111975,112053,112001
 1.6000e+000 112226 -1.1803e+001 -7.4957e+001 -3.2506e+000 19940 111975,112131,112053
 1.6000e+000 112203  1.5827e+000 -9.5278e+001  0.0000e+000 19940 112053,112105,112079
 1.6000e+000 112180 -2.1790e+001 -1.0177e+002 -2.2488e+000 19940 112053,112131,112105
 1.6000e+000 112157 -1.7334e+001 -9.4325e+001  2.5590e+000 19940 112001,112053,112027
 1.6000e+000 112757 -7.8524e+000 -6.3380e+001 -1.0432e+001 19486 112780,112538,112486
 1.6000e+000 112734 -1.1813e+001 -7.1329e+001 -2.9756e+000 19486 112780,112486,112460
 1.6000e+000 112711 -1.6071e+001 -6.3435e+001 -5.9872e-001 19486 112852,112616,112590
 1.6000e+000 112688  1.7459e+001 -8.1529e+001 -1.4811e+001 19486 112486,112538,112512
 1.6000e+000 112665 -2.6535e+001 -7.8496e+001 -5.7155e+000 19486 112434,112616,112460
 1.6000e+000 112642 -2.3646e+001 -6.2450e+001 -7.5686e+000 19486 112538,112590,112564
 1.6000e+000 112806 -2.1069e+001 -6.9636e+001 -8.4588e+000 19486 112590,112538,112780
 1.6000e+000 112829 -1.1824e+001 -6.6091e+001 -2.3820e+000 19486 112852,112590,112780
 1.6000e+000 112878 -1.8185e+001 -6.7306e+001  3.4806e-001 19486 112460,112616,112852
 1.6000e+000 112901 -1.5595e+001 -7.1776e+001 -5.9895e-001 19486 112460,112852,112780
 1.6000e+000 113252 -5.0198e+001 -8.8431e+001 -1.5435e+000 19096 113105,113157,113131
 1.6000e+000 113229 -4.6700e+001 -6.9921e+001 -8.9897e-001 19096 113053,113157,113105
 1.6000e+000 113206 -4.2631e+001 -6.6173e+001  1.4254e+000 19096 113027,113157,113053
 1.6000e+000 113183 -6.1760e+001 -9.7925e+001  4.7863e+000 19096 113053,113105,113079
 1.6000e+000 113451 -6.7942e-001 -7.5211e+001  2.7070e+001 18642 113327,113379,113353
 1.6000e+000 113428 -1.2458e+001 -7.3180e+001 -1.9451e+000 18642 113301,113379,113327
 1.6000e+000 113405 -2.9373e+000 -7.0349e+001 -4.7490e-001 18642 113275,113379,113301
 1.6000e+000 113699 -1.0045e+001 -7.7405e+001 -2.5726e-001 18138 113474,113552,113526
 1.6000e+000 113676 -1.3170e+000 -7.8081e+001 -4.6478e+000 18138 113474,113578,113552
 1.6000e+000 113653 -4.7971e+000 -7.8709e+001 -3.3241e+000 18138 113474,113604,113578
 1.6000e+000 113630  3.7175e-003 -7.1382e+001  5.1327e+000 18138 113474,113526,113500
 1.6000e+000 113851 -1.8759e+001 -8.8501e+001 -1.4130e-001 17682 113750,113802,113776
 1.6000e+000 113828 -1.6653e+001 -8.5913e+001  9.9791e-001 17682 113724,113802,113750
 1.6000e+000 114383 -1.8289e+001 -6.2080e+001 -1.2021e+000 17106 114086,114242,114164
 1.6000e+000 114360 -3.6602e+001 -6.9560e+001  2.6705e+000 17106 114060,114242,114086
 1.6000e+000 114337 -4.0039e+001 -9.9437e+001  9.7977e+000 17106 114086,114164,114138
 1.6000e+000 114314  1.3615e+000 -1.1724e+002 -1.4672e+001 17106 114190,114242,114216
 1.6000e+000 114291 -3.1072e+001 -9.8990e+001 -4.1617e+000 17106 114164,114242,114190
 1.6000e+000 114268 -2.4082e+001 -9.4441e+001  2.2298e+001 17106 114086,114138,114112
 1.6000e+000 114680 -2.4997e+001 -7.4820e+001  2.3931e+000 16766 114703,114432,114406
 1.6000e+000 114657 -2.7043e+001 -7.3484e+001  5.4268e-001 16766 114703,114406,114510
 1.6000e+000 114634 -2.2570e+001 -5.7704e+001  1.0675e+000 16766 114406,114536,114510
 1.6000e+000 114611 -1.7385e+001 -7.8874e+001 -3.8450e+000 16766 114432,114484,114458
 1.6000e+000 114588 -1.6958e+001 -5.8399e+001  8.5306e+000 16766 114406,114562,114536
 1.6000e+000 114729 -1.6945e+001 -7.3175e+001  3.0952e+000 16766 114484,114432,114703
 1.6000e+000 114752 -2.3935e+001 -7.5239e+001  1.3609e+000 16766 114484,114703,114510
 1.6000e+000 114902  1.4575e+001 -8.1444e+001 -6.8552e+000 16362 114775,114827,114801
 1.6000e+000 114879  5.8681e+001 -6.0637e+001 -1.8108e+001 16362 114775,114853,114827
 1.6000e+000 115054 -9.8282e+001 -1.7089e+002  3.8066e+000 15908 114953,115005,114979
 1.6000e+000 115031 -9.7132e+001 -1.6022e+002  4.8406e+000 15908 114927,115005,114953
 1.6000e+000 115326 -2.4434e+001 -7.5598e+001  1.2101e+001 15251 115101,115179,115153
 1.6000e+000 115303 -1.8122e+001 -6.8775e+001 -3.0856e+000 15251 115101,115231,115179
 1.6000e+000 115280 -2.0507e+001 -7.4120e+001 -2.5300e+000 15251 115179,115231,115205
 1.6000e+000 115257 -4.5288e+000 -1.4872e+002  4.1580e+001 15251 115101,115153,115127
 1.6000e+000 115429 -2.4444e+001 -8.4234e+001  1.0548e+001 421 115351,115403,115377
 1.7000e+000 66230 -3.5727e+000 -2.6468e-001  8.4306e-001 65954 66152,66204,66178
 1.7000e+000 66429 -1.2328e+001 -2.9130e+001  3.5902e+000 65642 66279,66331,66305
 1.7000e+000 66406 -2.2491e+000 -2.9764e+000  3.1988e+000 65642 66279,66357,66331
 1.7000e+000 66383 -5.5812e-001  1.1773e+000  1.7969e+000 65642 66253,66357,66279
 1.7000e+000 66628  5.7990e+000 -7.5683e+001  1.3248e+001 65444 66452,66530,66478
 1.7000e+000 66605  4.0282e+000 -8.3313e+001  1.0291e+001 65444 66452,66556,66530
 1.7000e+000 66582 -1.1229e+001 -6.9421e+001  1.6755e+001 65444 66478,66530,66504
 1.7000e+000 67006 -8.4253e+000 -5.2437e+001  1.2733e+000 65246 66732,66810,66758
 1.7000e+000 66983  1.1524e+001 -3.4238e+001  8.8641e+000 65246 66732,66836,66810
 1.7000e+000 66960 -7.3650e+000 -6.1721e+001 -5.3293e+000 65246 66732,66862,66836
 1.7000e+000 66937 -8.1468e+000 -4.7013e+001  2.1479e+000 65246 66758,66810,66784
 1.7000e+000 66914  4.5459e+000 -6.2558e+001 -1.6729e+001 65246 66732,66888,66862
 1.7000e+000 67107  2.2777e+001 -2.4971e+001 -6.4931e+000 64934 67029,67081,67055
 1.7000e+000 67306  1.7962e+001 -5.8571e+001  4.7639e+000 64736 67156,67208,67182
 1.7000e+000 67283 -1.6438e+000 -4.6458e+001  4.9448e+000 64736 67130,67208,67156
 1.7000e+000 67260 -5.0174e+000 -6.8799e+001  4.3974e+000 64736 67130,67234,67208
 1.7000e+000 67507 -5.6389e+000 -4.3425e+001 -1.7393e+001 64389 67357,67409,67383
 1.7000e+000 67484  2.3375e+000 -6.9630e+001 -1.4023e+001 64389 67357,67435,67409
 1.7000e+000 67461  1.0420e+000 -7.4468e+001 -1.2384e+001 64389 67331,67435,67357
 1.7000e+000 67708 -3.4048e+000 -4.9492e+001  5.5477e+000 63985 67731,67584,67558
 1.7000e+000 67685 -1.1124e+001 -3.0404e+001  2.4133e+000 63985 67731,67558,67636
 1.7000e+000 67662 -1.5365e+001 -3.3349e+001  7.6877e-001 63985 67532,67636,67558
 1.7000e+000 67757 -7.1792e+000 -5.8889e+001  3.9529e+000 63985 67610,67584,67731
 1.7000e+000 67780 -1.8385e+001 -4.5265e+001 -2.4185e-001 63985 67610,67731,67636
 1.7000e+000 67981  1.2081e+001 -1.9434e+001  6.0291e+000 63787 67857,67909,67883
 1.7000e+000 67958 -7.5302e+000 -2.8774e+001  9.9725e+000 63787 67831,67909,67857
 1.7000e+000 67935 -1.0576e+001  2.5793e+000  2.0903e+000 63787 67805,67909,67831
 1.7000e+000 68231  1.6611e+001 -5.1961e+001  7.1851e+000 63589 68254,68084,68032
 1.7000e+000 68208  1.9203e+001 -3.2989e+001  8.2840e+000 63589 68254,68032,68006
 1.7000e+000 68185  7.6451e+000 -4.0477e+001 -4.6006e+000 63589 68326,68136,68110
 1.7000e+000 68162  4.1113e+001 -3.9179e+001 -6.0136e-001 63589 68032,68084,68058
 1.7000e+000 68280  3.1580e+001 -3.7325e+001  1.9783e-001 63589 68110,68084,68254
 1.7000e+000 68303  1.1810e+001 -3.8505e+001 -2.2095e-001 63589 68326,68110,68254
 1.7000e+000 68352  9.4255e+000 -3.1332e+001  3.6404e+000 63589 68006,68136,68326
 1.7000e+000 68375  1.4606e+001 -3.0984e+001  7.9657e+000 63589 68006,68326,68254
 1.7000e+000 68836  3.2696e+001 -1.4304e+001  1.2992e+001 63128 68859,68588,68562
 1.7000e+000 68813 -3.7266e+000 -2.8523e+001  1.4408e+001 63128 68859,68562,68692
 1.7000e+000 68790 -7.5343e+000 -3.6220e+001 -1.3630e+001 63128 68614,68692,68666
 1.7000e+000 68767 -2.2761e+001 -3.8965e+001  8.9488e+000 63128 68562,68718,68692
 1.7000e+000 68744 -5.6833e+000 -3.2074e+001 -1.4533e+001 63128 68614,68666,68640
 1.7000e+000 68885  3.5781e+001 -1.0241e+001 -2.0091e+001 63128 68614,68588,68859
 1.7000e+000 68908  2.6219e+000 -2.2523e+001 -1.8061e+001 63128 68614,68859,68692
 1.7000e+000 69237  1.7049e+000 -4.6351e+001  2.9330e+000 62731 69064,69116,69090
 1.7000e+000 69214 -3.6181e-001 -5.5689e+001  8.6795e-001 62731 69064,69142,69116
 1.7000e+000 69191 -8.1814e+000 -8.8078e+001  1.7974e-001 62731 69038,69142,69064
 1.7000e+000 69168 -2.3437e-001 -6.7380e+001  4.4273e+000 62731 69012,69142,69038
 1.7000e+000 69539 -6.5133e-001 -1.6840e+000  1.2487e+000 62433 69389,69467,69441
 1.7000e+000 69516  6.4332e-001 -5.2007e+000  1.7616e+000 62433 69363,69467,69389
 1.7000e+000 69493 -8.2218e-002 -2.0166e+000  2.3122e+000 62433 69389,69441,69415
 1.7000e+000 69966  1.2814e+000 -1.8260e+001 -2.7449e+000 62235 69989,69773,69721
 1.7000e+000 69943  5.3574e+000 -4.2505e+001 -2.6411e+001 62235 70061,69989,69721
 1.7000e+000 69920  1.1997e+001 -7.9453e+001 -1.8682e+001 62235 70061,69721,69643
 1.7000e+000 69897 -3.0572e+000 -2.2125e+000 -5.9904e+000 62235 69721,69773,69747
 1.7000e+000 69874 -4.4785e+001 -2.1023e+002 -9.3634e+000 62235 69643,69721,69695
 1.7000e+000 69851  3.6814e+001  6.6272e+001 -2.2244e+001 62235 69643,69695,69669
 1.7000e+000 70015 -3.9158e+000 -4.9197e+001 -1.6503e+001 62235 69799,69773,69989
 1.7000e+000 70038 -2.1797e+001 -6.1981e+001 -3.4511e+001 62235 69799,69989,69825
 1.7000e+000 70087 -1.9486e+001 -7.7968e+001 -1.4259e+001 62235 69825,69989,70061
 1.7000e+000 70110  5.5964e+000 -9.6484e+001 -1.3146e+001 62235 69825,70061,69643
 1.7000e+000 70260 -1.3721e+000 -5.0462e+001  3.6675e+000 62037 70133,70185,70159
 1.7000e+000 70237 -9.3241e+000 -7.1292e+001  1.5010e+000 62037 70133,70211,70185
 1.7000e+000 70640 -3.7864e+000 -3.6000e+001  4.7178e+000 61583 70735,70663,70418
 1.7000e+000 70617 -9.1254e+000 -5.1611e+001  4.7771e+000 61583 70663,70366,70522
 1.7000e+000 70594 -2.0714e+000 -2.4344e+001 -3.1188e-001 61583 70735,70418,70392
 1.7000e+000 70571 -4.5311e+000 -4.0207e+001  1.0089e+001 61583 70418,70496,70444
 1.7000e+000 70548 -1.8063e+001 -2.4038e+001  8.7479e+000 61583 70444,70496,70470
 1.7000e+000 70689 -1.1955e+001 -4.2407e+001  1.5633e+000 61583 70496,70418,70663
 1.7000e+000 70712 -2.0101e+001 -3.1167e+001  3.6979e+000 61583 70496,70663,70522
 1.7000e+000 70761  5.2089e+000 -2.8396e+001 -8.2252e+000 61583 70366,70663,70735
 1.7000e+000 70784  1.8834e+000 -1.9165e+001 -1.2175e+001 61583 70366,70735,70392
 1.7000e+000 71054  5.8083e+000 -3.0169e+001  8.6880e+000 61313 71077,70881,70855
 1.7000e+000 71031  1.2231e+001 -2.1548e+001  1.3200e+001 61313 71077,70855,70829
 1.7000e+000 71008 -6.4589e+000 -1.9168e+001  9.1018e+000 61313 70829,70959,70933
 1.7000e+000 70985  1.0349e+001 -2.6304e+001 -3.9827e+000 61313 70881,70933,70907
 1.7000e+000 71103 -5.1432e-002 -2.6239e+001  2.9618e+000 61313 70933,70881,71077
 1.7000e+000 71126  5.5970e+000 -2.1460e+001  6.7409e+000 61313 70933,71077,70829
 1.7000e+000 71604 -2.2349e+001 -6.0010e+001  7.1182e-001 60909 71627,71232,71414
 1.7000e+000 71581 -2.6496e+001 -5.5426e+001 -5.7944e+000 60909 71232,71440,71414
 1.7000e+000 71558 -1.3998e+001 -5.5226e+001  3.9512e+000 60909 71627,71414,71336
 1.7000e+000 71535  1.2413e+001 -8.4263e+001  1.0952e+001 60909 71362,71414,71388
 1.7000e+000 71512 -2.3327e+001 -7.9415e+001  2.8649e+000 60909 71336,71414,71362
 1.7000e+000 71489 -7.2131e+000 -4.2950e+001  6.7899e-001 60909 71258,71336,71310
 1.7000e+000 71466 -1.7054e+001 -4.9630e+001  3.7349e+000 60909 71258,71310,71284
 1.7000e+000 71653 -2.6460e+001 -5.3411e+001  4.4174e+000 60909 71258,71232,71627
 1.7000e+000 71676 -2.0380e+001 -5.1168e+001  5.7017e+000 60909 71258,71627,71336
 1.7000e+000 71875 -1.1634e+001 -6.1335e+001  3.9802e+000 60611 71898,71725,71699
 1.7000e+000 71852 -2.3134e+001 -4.6683e+001  1.6305e+001 60611 71898,71699,71803
 1.7000e+000 71829  4.0376e-001 -2.0819e+001  1.8633e+001 60611 71970,71751,71725
 1.7000e+000 71924 -1.1831e+001 -4.2726e+001  8.0738e+000 60611 71970,71725,71898
 1.7000e+000 71947 -3.4386e+000 -3.0520e+001  3.8611e+000 60611 71777,71898,71803
 1.7000e+000 71996  1.3874e+001 -4.4765e+001  2.2647e+001 60611 71777,71751,71970
 1.7000e+000 72019  1.3120e+001 -4.8804e+001  1.5605e+001 60611 71777,71970,71898
 1.7000e+000 72576 -2.6301e+001 -9.3040e+001  2.2642e+001 60142 72599,72256,72230
 1.7000e+000 72553 -1.0578e+001 -7.4902e+001  1.3073e+001 60142 72671,72599,72230
 1.7000e+000 72530 -2.3217e+001 -6.0095e+001  6.3015e-001 60142 72671,72230,72204
 1.7000e+000 72507 -3.0008e+001 -4.3501e+001  1.3139e+001 60142 72743,72360,72334
 1.7000e+000 72484 -3.4296e+001 -6.4007e+001  2.2752e+001 60142 72815,72282,72256
 1.7000e+000 72461  1.9600e+001 -4.7534e+001  1.9149e+001 60142 72887,72308,72282
 1.7000e+000 72438 -2.4094e+001 -9.2178e+001 -5.0297e+000 60142 72204,72412,72386
 1.7000e+000 72625 -2.5264e+001 -7.6123e+001  7.8172e+000 60142 72815,72256,72599
 1.7000e+000 72648 -2.3538e+001 -5.8817e+001  1.0241e+001 60142 72743,72334,72599
 1.7000e+000 72697 -2.1947e+001 -9.5697e+001  8.1118e+000 60142 72386,72599,72671
 1.7000e+000 72720 -3.2224e+001 -8.0154e+001 -1.2025e+000 60142 72386,72671,72204
 1.7000e+000 72769 -5.8091e+000 -5.5240e+001  4.3432e+001 60142 72386,72360,72743
 1.7000e+000 72792 -1.3233e+001 -9.0051e+001  2.5438e+001 60142 72386,72743,72599
 1.7000e+000 72841 -1.0918e+001 -6.0257e+001  2.2523e+001 60142 72887,72282,72815
 1.7000e+000 72864 -2.3060e+001 -6.0913e+001  1.4277e+001 60142 72334,72815,72599
 1.7000e+000 72913 -1.9049e+001 -4.0353e+001  6.7961e+000 60142 72334,72308,72887
 1.7000e+000 72936 -2.8474e+001 -4.4339e+001  7.7181e+000 60142 72334,72887,72815
 1.7000e+000 73491 -1.1224e+001 -8.7540e+001 -1.7857e+001 59738 73145,73327,73171
 1.7000e+000 73468  3.1283e+001 -3.9765e+001  1.0009e-001 59738 73119,73327,73145
 1.7000e+000 73445 -5.6077e+000 -4.2173e+001 -3.3055e+000 59738 73171,73327,73301
 1.7000e+000 73422  5.2159e+000 -5.2714e+001  1.3231e+000 59738 73514,73275,73249
 1.7000e+000 73399 -1.1710e+001 -5.2582e+001  3.4735e+000 59738 73586,73514,73249
 1.7000e+000 73376 -8.3829e+000 -2.3792e+001  2.1503e+001 59738 73197,73249,73223
 1.7000e+000 73353 -1.0930e+001 -5.4370e+001  9.0275e+000 59738 73586,73249,73197
 1.7000e+000 73540 -9.9151e+000 -7.2282e+001 -6.7330e+000 59738 73301,73275,73514
 1.7000e+000 73563 -6.6207e+000 -4.8071e+001 -3.4344e+000 59738 73301,73514,73171
 1.7000e+000 73612 -8.0505e+000 -4.3122e+001  3.1422e+000 59738 73171,73514,73586
 1.7000e+000 73635 -7.4870e+000 -4.6527e+001  8.0446e+000 59738 73171,73586,73197
 1.7000e+000 73964 -2.3685e+000 -5.8493e+001  5.9973e+000 59334 73791,73843,73817
 1.7000e+000 73941  4.9229e+000 -6.2030e+001  4.0592e+000 59334 73791,73869,73843
 1.7000e+000 73918 -1.2506e+001 -1.0378e+002  6.5232e+000 59334 73739,73869,73791
 1.7000e+000 73895  1.7194e+001 -1.2425e+002  7.4526e+000 59334 73739,73791,73765
 1.7000e+000 74261 -1.7016e+001 -7.5344e+001  1.8066e+001 58630 74065,74117,74091
 1.7000e+000 74238 -1.8332e+001 -4.8849e+001  1.4410e+001 58630 74356,74284,74065
 1.7000e+000 74215 -1.1367e+001 -2.7768e+001  8.5799e+000 58630 74284,74013,73987
 1.7000e+000 74192 -1.7816e+001 -4.6205e+001  1.2173e+001 58630 74356,74065,74039
 1.7000e+000 74169 -5.0156e+000 -4.2603e+001 -6.8117e+000 58630 73987,74143,74117
 1.7000e+000 74310 -1.1095e+001 -7.2951e+001  1.8392e+001 58630 74117,74065,74284
 1.7000e+000 74333 -2.9400e+000 -4.6524e+001  8.5732e+000 58630 74117,74284,73987
 1.7000e+000 74382 -1.3985e+001 -5.0515e+001  1.0422e+001 58630 74013,74284,74356
 1.7000e+000 74405 -1.3083e+001 -4.7253e+001  8.1277e+000 58630 74013,74356,74039
 1.7000e+000 74815 -1.0245e+000 -2.8735e+001 -9.6345e+000 58226 74590,74642,74616
 1.7000e+000 74792 -8.1794e+000 -4.5389e+001 -7.5262e+000 58226 74590,74694,74642
 1.7000e+000 74769  3.0786e+001 -6.0636e+001  9.4245e-001 58226 74590,74720,74694
 1.7000e+000 74746 -7.2327e+000 -3.1689e+001 -6.6283e+000 58226 74642,74694,74668
 1.7000e+000 75014  1.6156e+001 -5.7865e+001  5.9131e-002 57786 75037,74864,74838
 1.7000e+000 74991  1.1266e+001 -3.5496e+001  1.0537e+001 57786 75037,74838,74916
 1.7000e+000 74968  1.7224e+001 -3.8461e+001  1.9763e+001 57786 74838,74942,74916
 1.7000e+000 75063  6.2940e+000 -7.9454e+001 -7.2402e+000 57786 74890,74864,75037
 1.7000e+000 75086  5.0462e+000 -5.3507e+001  4.2034e+000 57786 74890,75037,74916
 1.7000e+000 75368  1.0519e+001 -2.7839e+001  8.4774e+000 57496 75192,75270,75218
 1.7000e+000 75345  3.2954e+001 -1.5183e+001  1.4882e+001 57496 75192,75296,75270
 1.7000e+000 75322  3.0244e+000 -3.4973e+001  4.2760e+000 57496 75218,75270,75244
 1.7000e+000 75648 -5.0088e+000 -4.3509e+001  2.5333e+000 57206 75472,75550,75498
 1.7000e+000 75625 -2.1725e+000 -3.1904e+001  2.2963e+000 57206 75472,75576,75550
 1.7000e+000 75602  2.0135e+001 -3.3247e+001  3.8182e+000 57206 75671,75550,75524
 1.7000e+000 75697 -1.5648e+001 -4.7535e+001 -5.5276e+000 57206 75498,75550,75671
 1.7000e+000 76154  7.6308e+000 -5.4444e+001 -1.1031e+001 56802 75958,76010,75984
 1.7000e+000 76131  6.6453e+000 -4.5064e+001 -9.0833e+000 56802 75932,76010,75958
 1.7000e+000 76108  1.5722e+001 -6.5283e+001  1.4442e+001 56802 75906,76010,75932
 1.7000e+000 76085 -2.7398e+000 -2.9702e+001  1.1289e+001 56802 75880,76010,75906
 1.7000e+000 76062  7.8721e+000 -2.9311e+001 -4.6823e-001 56802 75880,76036,76010
 1.7000e+000 76505  2.6265e+001 -3.7006e+000 -8.4245e+000 56504 76306,76384,76332
 1.7000e+000 76482  1.1150e+001  1.3684e+001 -1.5153e+001 56504 76306,76410,76384
 1.7000e+000 76459  3.9406e+001  3.2293e+001  2.1085e+001 56504 76332,76384,76358
 1.7000e+000 76436  4.0473e-001  2.1344e+001 -4.7642e+000 56504 76280,76410,76306
 1.7000e+000 77011  5.3283e+000 -2.7634e+001 -8.6559e+000 56050 76740,76818,76792
 1.7000e+000 76988  1.2270e+001 -2.5330e+001 -6.5625e+000 56050 76714,76818,76740
 1.7000e+000 76965 -9.0068e+000 -3.7417e+001  3.1824e-001 56050 76688,76818,76714
 1.7000e+000 76942 -7.4092e+000 -2.8714e+001 -1.5161e+000 56050 76688,76844,76818
 1.7000e+000 76919 -2.2857e+000 -2.4389e+001 -7.2765e+000 56050 76740,76792,76766
 1.7000e+000 76896 -1.2379e+001 -4.8456e+001 -3.7250e+000 56050 76688,76870,76844
 1.7000e+000 77517 -1.6440e+001 -4.3781e+001  3.5844e+000 55738 77220,77350,77324
 1.7000e+000 77494 -1.7249e+001 -5.2212e+001 -3.3623e+000 55738 77220,77376,77350
 1.7000e+000 77471 -8.4551e+000 -3.3039e+001 -9.1621e-001 55738 77194,77376,77220
 1.7000e+000 77448 -1.4482e+001 -1.8308e+001  3.0080e+000 55738 77220,77298,77246
 1.7000e+000 77425 -9.2119e+000 -3.2051e+001 -5.0231e+000 55738 77220,77324,77298
 1.7000e+000 77402 -1.5330e+000 -1.2616e+001  4.7729e+000 55738 77246,77298,77272
 1.7000e+000 78064 -1.7649e+001 -1.0147e+002  1.1590e+001 55227 78231,78087,77773
 1.7000e+000 78041 -2.2935e+001 -1.3017e+002  1.2206e+001 55227 78087,77695,77643
 1.7000e+000 78018 -3.1899e+001 -1.3125e+002  1.4565e+001 55227 78159,77799,77773
 1.7000e+000 77995 -1.1618e+001 -9.5379e+001  8.8835e+000 55227 78231,77773,77721
 1.7000e+000 77972  4.4638e+000 -7.1848e+001  3.2123e+001 55227 77643,77695,77669
 1.7000e+000 77949 -5.4179e+001 -1.0586e+002  1.8421e+001 55227 77643,77877,77851
 1.7000e+000 77926 -3.9012e+001 -1.2327e+002  2.3313e+001 55227 77799,77851,77825
 1.7000e+000 77903 -9.4184e+000 -7.8103e+001 -1.8740e+000 55227 77721,77773,77747
 1.7000e+000 78113 -2.7241e+001 -1.2513e+002  1.6600e+001 55227 78159,77773,78087
 1.7000e+000 78136 -1.0585e+001 -1.0166e+002  1.7335e+001 55227 77851,78087,77643
 1.7000e+000 78185 -4.1873e+001 -1.1936e+002  1.1301e+001 55227 77851,77799,78159
 1.7000e+000 78208 -3.8297e+001 -1.1489e+002  1.2848e+001 55227 77851,78159,78087
 1.7000e+000 78257 -2.7831e+000 -1.1850e+002  6.8543e+000 55227 77695,78087,78231
 1.7000e+000 78280  7.7631e+000 -1.0724e+002  2.4002e+000 55227 77695,78231,77721
 1.7000e+000 78737  4.2129e+000 -2.2670e+001 -2.3485e+001 54773 78463,78541,78515
 1.7000e+000 78714 -1.3518e+001 -6.1390e+001 -9.7603e+000 54773 78463,78619,78541
 1.7000e+000 78691 -4.6247e+000 -3.8260e+001 -9.6823e+000 54773 78463,78515,78489
 1.7000e+000 78668 -1.8694e+001 -3.2821e+001 -9.0613e+000 54773 78541,78593,78567
 1.7000e+000 78645 -4.0535e+000 -4.1360e+001 -1.2638e+001 54773 78541,78619,78593
 1.7000e+000 78838  1.2768e+001 -1.3542e+002 -1.9263e+001 54211 78760,78812,78786
 1.7000e+000 79297 -1.2835e+001 -6.4027e+001  3.6327e+000 53814 79520,79153,79049
 1.7000e+000 79274 -7.3779e+000 -5.8208e+001 -1.0511e+000 53814 79520,79049,79023
 1.7000e+000 79251 -2.7141e+001 -8.9582e+001  1.3681e+001 53814 79320,79101,79049
 1.7000e+000 79228 -1.7260e+001 -6.5558e+001  5.0490e+000 53814 79320,79049,79153
 1.7000e+000 79205  9.3770e-001 -9.6629e+001  1.7403e+001 53814 79049,79101,79075
 1.7000e+000 79346 -1.5712e+001 -6.4524e+001 -5.2145e+000 53814 79392,79320,79127
 1.7000e+000 79369  6.8187e+000 -5.3952e+001 -1.6525e+001 53814 79127,79320,79153
 1.7000e+000 79418 -3.2856e+001 -9.0684e+001 -1.3595e+001 53814 79101,79320,79392
 1.7000e+000 79546 -1.9649e+001 -7.6823e+001  1.5645e+001 53814 79179,79153,79520
 1.7000e+000 79569  3.1161e+000 -6.3059e+001  8.3595e+000 53814 79179,79520,79023
 1.7000e+000 80075 -1.1903e+001 -1.4888e+001  2.2743e+001 53039 80098,79908,79830
 1.7000e+000 80052 -1.8624e+001 -1.2614e+001 -3.0890e-001 53039 80098,79830,79804
 1.7000e+000 80029  1.4329e+001  6.4132e+000  8.6155e+000 53039 79752,79934,79804
 1.7000e+000 80006  2.7526e+001  6.0744e+000  1.8541e+001 53039 79856,79908,79882
 1.7000e+000 79983  8.8601e+000 -2.2462e+001  2.7139e+001 53039 79830,79908,79856
 1.7000e+000 79960 -7.5968e+000 -8.3931e+000 -1.0252e+001 53039 79752,79804,79778
 1.7000e+000 80124  2.4674e+001  2.7858e+000  2.8153e+001 53039 79934,79908,80098
 1.7000e+000 80147 -2.4094e+000 -4.3642e+000  3.7734e+000 53039 79934,80098,79804
 1.7000e+000 80555 -2.3571e+001 -4.8614e+001  3.0807e+000 52699 80356,80434,80408
 1.7000e+000 80532  3.0150e-001 -4.5465e+001 -2.3178e+000 52699 80356,80460,80434
 1.7000e+000 80509 -8.5632e+000 -4.5218e+001  1.7319e-001 52699 80330,80460,80356
 1.7000e+000 80486 -2.4185e+001 -5.2828e+001  1.9726e+000 52699 80356,80408,80382
 1.7000e+000 80776  6.6660e+000 -2.4797e+001  2.5357e+000 52295 80600,80678,80626
 1.7000e+000 80753  1.6544e+001 -2.0291e+001  4.8541e-001 52295 80600,80704,80678
 1.7000e+000 80730  2.2192e+001 -1.8173e+001  2.7403e+000 52295 80626,80678,80652
 1.7000e+000 81156 -3.2580e+001 -8.4299e+001  1.4155e+001 51891 81179,80960,80908
 1.7000e+000 81133 -2.6613e+001 -7.2514e+001  6.3246e+000 51891 81179,80908,81012
 1.7000e+000 81110 -3.4530e+001 -7.8439e+001  8.9237e+000 51891 80882,81012,80908
 1.7000e+000 81087 -1.7343e+001 -1.2345e+002  9.9949e+000 51891 80908,80960,80934
 1.7000e+000 81064 -2.5207e+001 -5.3244e+001  1.0715e+001 51891 80882,81038,81012
 1.7000e+000 81205 -2.3293e+001 -8.4312e+001  5.5621e+000 51891 80986,80960,81179
 1.7000e+000 81228 -2.2442e+001 -7.2547e+001 -1.7891e+000 51891 80986,81179,81012
 1.7000e+000 81606 -1.1349e+001 -1.1464e+002 -3.5740e+001 51544 81410,81462,81436
 1.7000e+000 81583 -4.9664e+000 -7.1319e+001 -1.7663e+001 51544 81384,81462,81410
 1.7000e+000 81560 -1.5512e+001 -5.9100e+001 -1.9307e+001 51544 81358,81462,81384
 1.7000e+000 81537 -1.0434e+001 -6.1659e+001 -1.0165e+001 51544 81358,81488,81462
 1.7000e+000 81514  1.2321e+000 -7.9039e+000 -6.8310e+000 51544 81332,81488,81358
 1.7000e+000 81854  3.5833e+001 -5.4063e+001  2.9114e+000 51004 81877,81655,81629
 1.7000e+000 81831  2.4306e+001 -4.6449e+001  3.6468e+000 51004 81877,81629,81759
 1.7000e+000 81808  8.8424e+000 -2.4296e+001  2.2341e+001 51004 81655,81707,81681
 1.7000e+000 81785  1.4324e+001 -7.6620e+001 -1.5505e+001 51004 81707,81759,81733
 1.7000e+000 81903  2.5844e+001 -5.0414e+001 -1.5984e+000 51004 81707,81655,81877
 1.7000e+000 81926  6.4558e+000 -5.1910e+001 -4.5945e+000 51004 81707,81877,81759
 1.7000e+000 82257  1.8647e+000 -3.2147e+001 -6.4719e+000 50642 82058,82136,82110
 1.7000e+000 82234 -3.0069e+000 -3.6292e+001 -4.7052e+000 50642 82058,82162,82136
 1.7000e+000 82211 -1.3061e+001 -5.2059e+001  1.5822e+001 50642 82058,82110,82084
 1.7000e+000 82188 -6.1026e+000 -3.7133e+001 -1.0990e+001 50642 82032,82162,82058
 1.7000e+000 82684  9.1096e+000 -7.0588e+001  5.8631e-001 49931 82779,82707,82465
 1.7000e+000 82661 -3.7705e+000 -8.3312e+001  1.0815e+001 49931 82707,82413,82361
 1.7000e+000 82638  7.6078e+000 -6.3889e+001 -1.8721e+001 49931 82779,82465,82439
 1.7000e+000 82615 -1.8050e+001 -9.9533e+001  1.4087e+001 49931 82465,82543,82491
 1.7000e+000 82592  4.9332e+000 -5.3108e+001  7.1783e+000 49931 82361,82413,82387
 1.7000e+000 82569  1.1271e+001 -6.5816e+001  1.5455e+000 49931 82491,82543,82517
 1.7000e+000 82733 -8.3062e+000 -7.6351e+001  4.9471e+000 49931 82543,82465,82707
 1.7000e+000 82756 -3.2543e-002 -5.6297e+001  1.0158e+001 49931 82543,82707,82361
 1.7000e+000 82805 -2.1210e+000 -9.7331e+001  1.7473e+000 49931 82413,82707,82779
 1.7000e+000 82828 -3.2822e+000 -8.8156e+001 -1.6347e+001 49931 82413,82779,82439
 1.7000e+000 83255 -2.9685e+001 -1.1610e+002 -1.3790e+001 49327 82984,83114,83036
 1.7000e+000 83232 -3.3335e+001 -1.2349e+002 -2.4348e+001 49327 82958,83114,82984
 1.7000e+000 83209  1.8112e+000 -1.1529e+002 -1.6412e+001 49327 83036,83114,83088
 1.7000e+000 83186 -1.2350e+001 -1.0363e+002 -8.1405e+000 49327 82984,83036,83010
 1.7000e+000 83163 -1.9260e+001 -1.1943e+002 -2.3051e+001 49327 82932,83114,82958
 1.7000e+000 83140 -4.3930e+001 -2.0860e+002 -8.8561e-001 49327 83036,83088,83062
 1.7000e+000 83938 -4.5864e+001 -1.2336e+002  1.6604e+001 48965 83961,83673,83647
 1.7000e+000 83915 -2.4609e+001 -8.4571e+001  8.3233e+000 48965 83961,83647,83543
 1.7000e+000 83892 -2.5280e+001 -8.7005e+001 -1.1534e+001 48965 83517,83725,83543
 1.7000e+000 83869 -1.3906e+000 -9.1152e+001 -1.7648e+001 48965 83673,83725,83699
 1.7000e+000 83846 -2.1599e+001 -7.0594e+001 -3.5418e+000 48965 83543,83647,83621
 1.7000e+000 83823 -1.1326e+001 -6.3933e+001 -8.0150e+000 48965 83543,83621,83569
 1.7000e+000 83800  2.7706e+001 -6.4355e+001 -1.0319e+001 48965 83517,83751,83725
 1.7000e+000 83777  3.9379e-001 -5.3590e+001  5.9248e+000 48965 83569,83621,83595
 1.7000e+000 83987 -2.6132e+001 -1.0950e+002 -7.3984e+000 48965 83725,83673,83961
 1.7000e+000 84010 -2.1141e+001 -9.8141e+001 -1.0879e+001 48965 83725,83961,83543
 1.7000e+000 84258 -6.0880e+000 -9.3308e+001  2.5011e+001 48447 84281,84059,84033
 1.7000e+000 84235  1.9539e+000 -7.2895e+001  1.7812e+001 48447 84281,84033,84163
 1.7000e+000 84212  3.7568e+000 -6.8662e+001  2.5744e+000 48447 84059,84111,84085
 1.7000e+000 84189  1.6130e+001 -7.4260e+001  5.5401e+000 48447 84111,84163,84137
 1.7000e+000 84307  1.8051e+000 -9.0316e+001  1.0447e+001 48447 84111,84059,84281
 1.7000e+000 84330  1.0724e+001 -7.7343e+001  3.1766e+000 48447 84111,84281,84163
 1.7000e+000 84529 -1.0431e+001 -7.5872e+001 -1.8239e+000 47993 84552,84405,84379
 1.7000e+000 84506 -3.6396e+001 -8.3158e+001  9.9305e-001 47993 84552,84379,84353
 1.7000e+000 84483 -1.3134e+001 -7.5930e+001 -8.0602e+000 47993 84624,84457,84431
 1.7000e+000 84578 -7.5193e+000 -7.9964e+001 -6.5941e+000 47993 84431,84405,84552
 1.7000e+000 84601 -1.4667e+001 -8.1886e+001 -4.5741e+000 47993 84624,84431,84552
 1.7000e+000 84650 -1.3851e+001 -7.1857e+001 -9.2151e+000 47993 84353,84457,84624
 1.7000e+000 84673 -1.2189e+001 -7.1377e+001 -4.8837e+000 47993 84353,84624,84552
 1.7000e+000 85104 -2.8168e+001 -9.5987e+001 -1.1805e+001 47588 85199,85127,84885
 1.7000e+000 85081 -1.5791e+001 -9.1342e+001 -1.4784e+001 47588 85127,84781,84963
 1.7000e+000 85058 -3.5765e+001 -9.5498e+001 -3.3268e+000 47588 85199,84885,84807
 1.7000e+000 85035 -1.7800e+001 -8.0701e+001  3.5261e+001 47588 84885,84937,84911
 1.7000e+000 85012 -3.7294e+001 -7.2262e+001 -9.7042e+000 47588 84807,84885,84833
 1.7000e+000 84989 -3.0923e+001 -6.9473e+001 -7.6047e+000 47588 84833,84885,84859
 1.7000e+000 85153 -2.0580e+001 -1.2516e+002  3.6983e+000 47588 84937,84885,85127
 1.7000e+000 85176  2.9704e+001 -1.0233e+002 -3.6654e+000 47588 84937,85127,84963
 1.7000e+000 85225 -4.2037e+001 -1.0014e+002 -9.5384e+000 47588 84781,85127,85199
 1.7000e+000 85248 -4.7501e+001 -1.0059e+002  8.9798e-002 47588 84781,85199,84807
 1.7000e+000 85518  3.0088e+000 -8.1828e+001  3.8772e+000 47226 85293,85397,85319
 1.7000e+000 85495 -1.3843e+001 -8.8341e+001  4.7791e+000 47226 85293,85423,85397
 1.7000e+000 85472 -2.0150e+001 -9.4488e+001 -3.4588e+000 47226 85319,85397,85345
 1.7000e+000 85449 -3.4630e+000 -5.3095e+001  1.4266e+000 47226 85345,85397,85371
 1.7000e+000 85849  4.4154e-001 -6.9114e+001 -9.4509e+000 46572 85624,85702,85650
 1.7000e+000 85826 -1.3059e+001 -1.0305e+002 -8.9483e+000 46572 85624,85754,85702
 1.7000e+000 85803  7.4923e+000 -7.9162e+001 -7.4852e-002 46572 85702,85754,85728
 1.7000e+000 85780  1.6000e+001 -6.4391e+001 -4.2675e+000 46572 85650,85702,85676
 1.7000e+000 86070 -6.4918e+001 -1.1320e+002 -3.3960e+000 46374 85920,85972,85946
 1.7000e+000 86047 -6.0731e+001 -1.0270e+002  3.6095e-001 46374 85920,85998,85972
 1.7000e+000 86024 -2.4778e+001 -8.6682e+001  2.3816e+001 46374 85894,85998,85920
 1.7000e+000 86401 -1.9330e+001 -8.3063e+001  7.4233e-001 46034 86424,86280,86228
 1.7000e+000 86378 -2.0777e+001 -9.8800e+001 -4.0844e+000 46034 86424,86228,86176
 1.7000e+000 86355 -2.6094e+001 -9.4400e+001 -1.9320e+001 46034 86176,86228,86202
 1.7000e+000 86332 -7.7974e-001 -7.5116e+001  7.4853e-001 46034 86228,86280,86254
 1.7000e+000 86450 -8.9145e+000 -1.0084e+002  1.0804e+000 46034 86306,86280,86424
 1.7000e+000 86473 -1.5229e+001 -1.1788e+002 -7.8856e+000 46034 86306,86424,86176
 1.7000e+000 87058 -1.1982e+001 -8.6298e+001 -2.5654e+000 45516 86813,86917,86865
 1.7000e+000 87035 -2.2095e+001 -1.0801e+002  3.0799e-001 45516 86787,86917,86813
 1.7000e+000 87012 -1.9752e+001 -1.1841e+002  2.8352e+000 45516 86735,86917,86787
 1.7000e+000 86989  1.3682e+001 -6.7374e+001 -1.0820e+001 45516 86865,86917,86891
 1.7000e+000 86966 -2.1639e-001 -8.1035e+001  1.1899e+000 45516 86813,86865,86839
 1.7000e+000 86943 -1.0437e+001 -1.3588e+002 -1.3837e+001 45516 86735,86787,86761
 1.7000e+000 87208 -1.7948e+001 -6.8747e+001  3.9668e+000 45226 87231,87133,87107
 1.7000e+000 87185  9.7425e+000 -6.7954e+001  1.2088e+001 45226 87081,87159,87133
 1.7000e+000 87257  2.1300e+001 -5.9312e+001 -1.1248e+001 45226 87081,87133,87231
 1.7000e+000 87537  7.4528e+000 -9.4128e+001  9.6947e+000 44772 87387,87439,87413
 1.7000e+000 87514 -1.8351e+001 -1.0300e+002  7.1527e+000 44772 87361,87439,87387
 1.7000e+000 87491  1.3349e+001 -9.0502e+001 -2.3456e+000 44772 87361,87465,87439
 1.7000e+000 87996  3.8195e+000 -5.6779e+001 -8.1883e+000 44425 87748,87878,87852
 1.7000e+000 87973  2.8197e+001 -4.5803e+001 -1.8071e+001 44425 87722,87878,87748
 1.7000e+000 87950  4.2355e+001 -7.3841e+001 -1.4525e+001 44425 87800,87852,87826
 1.7000e+000 87927 -5.4181e+000 -7.8080e+001 -9.9781e-001 44425 87748,87852,87800
 1.7000e+000 87904  1.8914e+001 -8.9480e+001  2.0766e+001 44425 87748,87800,87774
 1.7000e+000 88423  5.6557e+000 -8.0256e+001 -7.5272e+000 44078 88590,88230,88204
 1.7000e+000 88400  5.9250e-001 -8.4588e+001 -5.6739e-001 44078 88518,88446,88204
 1.7000e+000 88377 -3.1785e+000 -8.1184e+001 -2.2883e+000 44078 88446,88126,88282
 1.7000e+000 88354  1.4427e+000 -8.6932e+001  7.5917e-001 44078 88518,88204,88178
 1.7000e+000 88331  4.3648e+000 -9.8009e+001  3.0788e+000 44078 88100,88282,88126
 1.7000e+000 88308  2.9548e-002 -7.1218e+001  3.3846e+001 44078 88126,88178,88152
 1.7000e+000 88472  5.5533e+000 -8.1608e+001 -3.7881e+000 44078 88590,88204,88446
 1.7000e+000 88495 -2.8007e+000 -8.3220e+001 -3.9634e+000 44078 88256,88446,88282
 1.7000e+000 88544  7.0644e-001 -7.9407e+001 -6.9138e-001 44078 88126,88446,88518
 1.7000e+000 88567  1.0544e-001 -8.3798e+001  4.5374e-001 44078 88126,88518,88178
 1.7000e+000 88616 -3.7061e+001 -1.0851e+002 -2.5185e+001 44078 88256,88230,88590
 1.7000e+000 88639 -2.4017e+000 -8.4708e+001 -4.5751e+000 44078 88256,88590,88446
 1.7000e+000 89039 -1.6088e+001 -7.4171e+001  1.4426e+000 43716 88791,88921,88895
 1.7000e+000 89016 -2.9834e+001 -7.2114e+001 -7.6538e-001 43716 88765,88921,88791
 1.7000e+000 88993 -1.8616e+001 -9.0894e+001  1.1901e+001 43716 88817,88895,88869
 1.7000e+000 88970 -6.1756e+001 -9.9426e+001  1.1859e+001 43716 88791,88895,88817
 1.7000e+000 88947  9.9381e+000 -7.4462e+001  5.0366e+000 43716 88817,88869,88843
 1.7000e+000 89496 -7.0519e+000 -9.3512e+001 -6.1092e+000 43162 89519,89274,89248
 1.7000e+000 89473 -4.8664e+000 -8.6778e+001 -4.4949e+000 43162 89519,89248,89222
 1.7000e+000 89450 -1.4202e+001 -8.0341e+001 -3.0341e+001 43162 89326,89378,89352
 1.7000e+000 89427 -1.8278e+001 -1.0895e+002 -6.2358e+000 43162 89274,89378,89326
 1.7000e+000 89404  2.8207e+000 -6.9343e+001  5.9680e+000 43162 89274,89326,89300
 1.7000e+000 89545 -8.2593e+000 -8.6818e+001 -3.8748e+000 43162 89378,89274,89519
 1.7000e+000 89568 -5.5886e+000 -7.9523e+001 -2.1322e+000 43162 89378,89519,89222
 1.7000e+000 89946 -8.0237e+000 -9.5237e+001 -8.5940e+000 42594 90041,89969,89750
 1.7000e+000 89923  1.2918e+001 -7.2701e+001 -1.5199e+001 42594 89969,89698,89828
 1.7000e+000 89900 -6.0865e+000 -9.8501e+001 -7.2151e+000 42594 90041,89750,89724
 1.7000e+000 89877 -3.0105e+001 -1.1372e+002  3.1885e+000 42594 89750,89802,89776
 1.7000e+000 89854  2.1783e+001 -1.1646e+001 -1.6317e+001 42594 89672,89828,89698
 1.7000e+000 89995 -1.9865e+001 -8.2365e+001  8.1373e-001 42594 89802,89750,89969
 1.7000e+000 90018  5.2962e+000 -7.2722e+001  2.5212e+000 42594 89802,89969,89828
 1.7000e+000 90067 -7.7141e+000 -8.1208e+001 -7.8156e+000 42594 89698,89969,90041
 1.7000e+000 90090 -1.4034e+001 -9.4351e+001 -3.8018e+000 42594 89698,90041,89724
 1.7000e+000 90517 -3.9968e+001 -1.1817e+002  6.9663e+000 42140 90540,90220,90194
 1.7000e+000 90494 -3.1054e+001 -1.1594e+002  3.2058e+000 42140 90540,90194,90376
 1.7000e+000 90471 -2.1639e+001 -1.2170e+002  2.9119e-001 42140 90612,90350,90272
 1.7000e+000 90448 -2.9790e+001 -1.3513e+002 -3.2386e+000 42140 90272,90350,90298
 1.7000e+000 90425 -1.0779e+001 -1.0807e+002 -1.8569e+001 42140 90298,90350,90324
 1.7000e+000 90402 -2.0887e+001 -1.2050e+002  3.1020e+001 42140 90220,90272,90246
 1.7000e+000 90566 -3.0677e+001 -1.2171e+002  9.4363e+000 42140 90272,90220,90540
 1.7000e+000 90589 -2.0809e+001 -1.1954e+002  4.5569e+000 42140 90612,90272,90540
 1.7000e+000 90638 -2.6346e+001 -1.2131e+002  1.4606e+000 42140 90376,90350,90612
 1.7000e+000 90661 -3.3429e+001 -1.2363e+002  5.3718e+000 42140 90376,90612,90540
 1.7000e+000 91167 -1.1139e+001 -8.3895e+001 -4.0533e+000 41636 91190,90870,90844
 1.7000e+000 91144 -1.6005e+001 -1.0539e+002 -1.9836e+000 41636 91190,90844,91026
 1.7000e+000 91121  7.7200e+000 -8.8072e+001 -3.5101e+001 41636 90870,90922,90896
 1.7000e+000 91098 -2.3859e+001 -9.8536e+001  7.4608e+000 41636 90922,91026,90948
 1.7000e+000 91075  1.6748e+000 -7.8203e+001 -4.3803e+000 41636 90948,91026,91000
 1.7000e+000 91052 -1.1481e+001 -1.0011e+002  1.2198e+000 41636 90948,91000,90974
 1.7000e+000 91216 -1.6723e+001 -7.6002e+001 -4.2276e+000 41636 90922,90870,91190
 1.7000e+000 91239 -1.2255e+001 -8.4235e+001 -5.3444e-001 41636 90922,91190,91026
 1.7000e+000 91696 -4.1706e+001 -9.0433e+001 -1.6222e+001 40449 91448,91526,91474
 1.7000e+000 91673 -4.4641e+001 -9.5242e+001 -8.6949e+000 40449 91448,91578,91526
 1.7000e+000 91650 -2.6303e+001 -8.5365e+001 -8.7532e+000 40449 91474,91526,91500
 1.7000e+000 91627 -2.8975e+001 -9.6022e+001 -1.2097e+001 40449 91422,91578,91448
 1.7000e+000 91604 -2.6269e+001 -5.6376e+001 -2.0190e+001 40449 91526,91578,91552
 1.7000e+000 92123 -3.9613e+000 -7.5665e+001 -3.0372e+000 39995 92146,91904,91826
 1.7000e+000 92100  2.3087e+001 -6.7198e+001 -2.4240e+001 39995 92146,91826,91800
 1.7000e+000 92077 -8.1115e+000 -7.5488e+001 -2.7167e+000 39995 91826,91904,91852
 1.7000e+000 92054 -2.0204e+001 -1.2231e+002  9.7572e+000 39995 91904,91982,91930
 1.7000e+000 92031  1.4302e+001 -7.0044e+001 -1.2614e+001 39995 91852,91904,91878
 1.7000e+000 92008 -1.4616e+001 -8.5255e+001  1.1212e+001 39995 91930,91982,91956
 1.7000e+000 92172 -1.3169e+001 -8.2866e+001  3.5772e+000 39995 91982,91904,92146
 1.7000e+000 92195 -2.1419e+000 -1.0195e+002 -1.1993e+001 39995 91982,92146,91800
 1.7000e+000 92652 -1.7849e+001 -7.1778e+001  4.0216e+000 39633 92404,92534,92456
 1.7000e+000 92629 -1.9129e+001 -7.8958e+001  3.0055e+000 39633 92378,92534,92404
 1.7000e+000 92606  2.1613e-002 -6.1850e+001  2.0321e+001 39633 92404,92456,92430
 1.7000e+000 92583 -3.7946e+001 -1.2322e+002  8.0106e+000 39633 92456,92534,92508
 1.7000e+000 92560 -1.1986e+001 -7.4379e+001  1.8712e+001 39633 92456,92508,92482
 1.7000e+000 93079 -1.7241e+001 -8.1675e+001 -1.0347e+001 39093 93102,92808,92756
 1.7000e+000 93056 -1.5717e+001 -7.8679e+001 -1.2476e+001 39093 93102,92756,92938
 1.7000e+000 93033 -2.4676e+001 -9.0161e+001 -3.9636e+000 39093 93174,92912,92834
 1.7000e+000 93010 -4.1094e+001 -9.2336e+001 -4.4560e+000 39093 92834,92912,92860
 1.7000e+000 92987 -3.6531e+000 -1.0088e+002 -2.8344e+001 39093 92756,92808,92782
 1.7000e+000 92964 -4.1846e+001 -1.3304e+002 -4.4109e+001 39093 92860,92912,92886
 1.7000e+000 93128 -1.6735e+001 -7.5155e+001 -9.6042e+000 39093 92834,92808,93102
 1.7000e+000 93151 -2.2576e+001 -8.3639e+001 -6.9583e+000 39093 93174,92834,93102
 1.7000e+000 93200 -2.1762e+001 -8.6934e+001 -9.5853e+000 39093 92938,92912,93174
 1.7000e+000 93223 -1.7394e+001 -8.2877e+001 -1.2758e+001 39093 92938,93174,93102
 1.7000e+000 93680  1.4233e+001 -5.7154e+001 -1.2886e+000 38639 93703,93536,93484
 1.7000e+000 93657  1.5764e+000 -5.6358e+001  2.3223e+000 38639 93703,93484,93432
 1.7000e+000 93634  3.0634e+001 -6.3529e+001  2.2783e+001 38639 93432,93484,93458
 1.7000e+000 93611  9.1364e+000 -7.2539e+001 -1.0836e+001 38639 93484,93536,93510
 1.7000e+000 93588 -1.5324e+001 -3.8426e+001  1.0239e+001 38639 93406,93562,93432
 1.7000e+000 93729  2.1722e+000 -4.2915e+001 -2.1011e+000 38639 93562,93536,93703
 1.7000e+000 93752 -2.4152e+001 -5.6581e+001  7.1346e+000 38639 93562,93703,93432
 1.7000e+000 94160 -8.4293e+000 -5.1054e+001 -1.4869e+001 38292 93935,94039,93961
 1.7000e+000 94137 -4.2504e+000 -5.8720e+001  8.2587e+000 38292 93935,94065,94039
 1.7000e+000 94114 -6.0427e+001 -5.4307e+001 -1.1919e+001 38292 93961,94013,93987
 1.7000e+000 94091 -4.3187e+001 -4.8848e+001 -3.1794e+000 38292 93961,94039,94013
 1.7000e+000 94408 -8.3703e+000 -7.9897e+001  2.0092e+000 37880 94431,94261,94235
 1.7000e+000 94385 -1.0703e+001 -7.0206e+001  8.2825e-001 37880 94431,94235,94313
 1.7000e+000 94362 -1.0871e+001 -7.0840e+001  7.2895e-001 37880 94209,94313,94235
 1.7000e+000 94339 -7.0028e+000 -6.6533e+001  8.9593e+000 37880 94183,94313,94209
 1.7000e+000 94457 -2.9875e+000 -7.1595e+001 -1.1031e+000 37880 94287,94261,94431
 1.7000e+000 94480 -1.0202e+001 -6.6413e+001 -2.7339e-001 37880 94287,94431,94313
 1.7000e+000 94728 -9.7767e+000 -7.5031e+001 -1.9711e-001 37426 94529,94607,94555
 1.7000e+000 94705 -1.6680e+001 -9.6789e+001  2.3947e+000 37426 94529,94633,94607
 1.7000e+000 94682  3.0190e+001 -9.6564e+001  2.5000e+000 37426 94503,94633,94529
 1.7000e+000 94659 -1.3544e+001 -3.1585e+001 -2.2157e+001 37426 94555,94607,94581
 1.7000e+000 95257 -1.0435e+000 -9.0293e+001 -2.1237e+000 36722 95496,95280,94862
 1.7000e+000 95234  1.7026e+001 -8.2158e+001  8.5196e-001 36722 95496,94862,94836
 1.7000e+000 95211  6.8430e+000 -7.8976e+001  4.0178e+000 36722 95352,95280,95070
 1.7000e+000 95188  8.7140e+000 -6.1374e+001  8.8488e+000 36722 95352,95070,95044
 1.7000e+000 95165  4.0549e+000 -9.7498e+001 -1.4198e+001 36722 95424,94888,94862
 1.7000e+000 95142  1.8402e+001 -6.3511e+001  4.1555e+000 36722 94914,94966,94940
 1.7000e+000 95119 -8.5136e+000 -1.3668e+002  3.9830e+001 36722 94966,95044,95018
 1.7000e+000 95096 -8.3178e+000 -1.2355e+002  3.3465e+001 36722 94966,95018,94992
 1.7000e+000 95306 -7.7847e+000 -8.2058e+001 -8.3569e+000 36722 95424,94862,95280
 1.7000e+000 95329 -6.8248e+000 -7.9549e+001 -5.6828e+000 36722 94914,95280,94966
 1.7000e+000 95378  4.7737e+000 -8.5134e+001 -4.3925e+000 36722 94966,95280,95352
 1.7000e+000 95401  3.8357e-001 -7.8593e+001  7.9815e-001 36722 94966,95352,95044
 1.7000e+000 95450 -1.5823e+001 -9.5865e+001 -2.2007e+001 36722 94914,94888,95424
 1.7000e+000 95473 -1.9798e+001 -9.2093e+001 -1.5408e+001 36722 94914,95424,95280
 1.7000e+000 95522 -3.2528e+000 -8.7436e+001 -1.2554e+000 36722 95070,95280,95496
 1.7000e+000 95545 -3.1658e+000 -8.7939e+001 -1.5684e+000 36722 95070,95496,94836
 1.7000e+000 96130 -3.2229e+001 -6.9062e+001  4.4258e-001 36268 96153,95911,95859
 1.7000e+000 96107 -3.5030e+001 -8.7096e+001 -9.4400e-001 36268 96153,95859,95807
 1.7000e+000 96084 -4.0166e+001 -1.1166e+002 -1.2573e+001 36268 95807,95859,95833
 1.7000e+000 96061 -3.9898e+001 -1.1451e+002  1.2529e+001 36268 95911,95989,95937
 1.7000e+000 96038 -3.1919e+001 -6.9966e+001 -4.3534e+000 36268 95859,95911,95885
 1.7000e+000 96015 -1.8450e+001 -9.9477e+001  5.8481e+000 36268 95937,95989,95963
 1.7000e+000 96179 -2.2719e+001 -8.5341e+001  4.6843e+000 36268 95989,95911,96153
 1.7000e+000 96202 -2.9186e+001 -1.0858e+002  2.5467e+000 36268 95989,96153,95807
 1.7000e+000 96531  1.2384e+001 -8.8692e+001 -5.4021e-001 35728 96358,96410,96384
 1.7000e+000 96508 -2.5122e+001 -1.0949e+002  8.1009e+000 35728 96332,96410,96358
 1.7000e+000 96485 -9.4431e+000 -7.6728e+001  3.4575e+000 35728 96332,96436,96410
 1.7000e+000 96462  6.2728e+000 -6.0112e+001 -8.1175e+000 35728 96306,96436,96332
 1.7000e+000 96860 -1.9278e+001 -8.1232e+001 -1.1743e+001 35324 96687,96765,96713
 1.7000e+000 96837 -3.6768e+001 -1.1967e+002 -5.4643e+000 35324 96661,96765,96687
 1.7000e+000 96814 -3.9553e+001 -9.4955e+001 -5.7769e+000 35324 96713,96765,96739
 1.7000e+000 96791 -3.4213e+001 -1.4288e+002 -1.1553e+001 35324 96635,96765,96661
 1.7000e+000 97366 -4.3386e+001 -1.1237e+002 -4.3446e+000 34920 97389,97069,97043
 1.7000e+000 97343 -3.9102e+001 -1.0538e+002 -2.2957e+000 34920 97389,97043,97199
 1.7000e+000 97320 -3.9971e+001 -1.0347e+002 -1.2201e+000 34920 97043,97225,97199
 1.7000e+000 97297 -3.0724e+001 -1.3496e+002 -1.2424e+001 34920 97069,97121,97095
 1.7000e+000 97274 -6.0348e+001 -9.7638e+001 -1.1524e+001 34920 97121,97199,97173
 1.7000e+000 97251 -5.3821e+001 -8.3588e+001 -2.0961e+001 34920 97121,97173,97147
 1.7000e+000 97415 -4.9621e+001 -1.1277e+002 -1.4410e+001 34920 97121,97069,97389
 1.7000e+000 97438 -4.2510e+001 -9.7565e+001 -1.1895e+001 34920 97121,97389,97199
 1.7000e+000 97708 -3.2810e+001 -1.1142e+002 -6.7240e+000 34722 97509,97587,97535
 1.7000e+000 97685 -1.8380e+001 -1.1526e+002 -8.7858e+000 34722 97509,97613,97587
 1.7000e+000 97662 -5.2579e+001 -1.3217e+002 -1.4431e+001 34722 97483,97613,97509
 1.7000e+000 97639 -1.9083e+001 -9.2182e+001  1.9024e+001 34722 97535,97587,97561
 1.7000e+000 98216 -1.9868e+001 -1.2217e+002  9.5573e+000 34318 97971,98075,97997
 1.7000e+000 98193 -1.3608e+001 -9.7772e+001  5.3145e+000 34318 97893,98075,97971
 1.7000e+000 98170 -5.1749e+000 -9.3862e+001  1.2165e+000 34318 97893,97971,97919
 1.7000e+000 98147 -1.1194e+001 -9.5845e+001  9.4436e+000 34318 97997,98075,98049
 1.7000e+000 98124 -3.2774e+000 -8.3416e+001 -3.9736e+000 34318 97919,97971,97945
 1.7000e+000 98101 -1.1245e+001 -9.4483e+001  1.3009e+001 34318 97997,98049,98023
 1.7000e+000 98594 -2.4151e+001 -9.1257e+001 -2.1034e+000 33814 98961,98617,98424
 1.7000e+000 98571 -2.6888e+001 -9.4519e+001 -7.4219e-001 33814 98689,98617,98372
 1.7000e+000 98548 -2.3907e+001 -7.3147e+001 -3.8200e+000 33814 99033,98689,98372
 1.7000e+000 98525 -1.7468e+001 -6.2567e+001  1.5291e+001 33814 98761,98476,98450
 1.7000e+000 98502 -2.7958e+001 -8.5106e+001 -2.8007e+000 33814 98961,98424,98398
 1.7000e+000 98643 -3.9665e+001 -9.9174e+001 -4.9879e+000 33814 98450,98424,98617
 1.7000e+000 98666 -2.4635e+001 -7.7893e+001  2.3821e+000 33814 98761,98450,98617
 1.7000e+000 98715 -3.3902e+001 -9.9340e+001 -3.5603e-001 33814 99161,98689,98320
 1.7000e+000 98738 -2.7834e+001 -1.0727e+002 -2.3351e-001 33814 98320,98689,98346
 1.7000e+000 98787 -5.2906e+001 -9.0906e+001  1.6682e+001 33814 98833,98761,98320
 1.7000e+000 98810 -3.1796e+001 -1.0094e+002  3.3787e+000 33814 99161,98320,98761
 1.7000e+000 98859 -2.2997e+001 -6.0924e+001  4.6023e+000 33814 98476,98761,98833
 1.7000e+000 98987 -2.2053e+001 -8.2981e+001 -3.9115e+000 33814 98372,98617,98961
 1.7000e+000 99010 -2.3566e+001 -7.3763e+001 -5.0170e+000 33814 98372,98961,98398
 1.7000e+000 99059 -4.7789e+001 -1.2357e+002 -1.3545e+001 33814 98346,98689,99033
 1.7000e+000 99187 -3.1240e+001 -9.3628e+001  3.6794e-001 33814 98617,98689,99161
 1.7000e+000 99210 -2.9203e+001 -9.5847e+001  4.2772e+000 33814 98617,99161,98761
 1.7000e+000 99588 -6.2981e+000 -5.4348e+001  4.8019e+000 33566 99366,99444,99392
 1.7000e+000 99565  8.8920e+000 -6.3314e+001  6.2983e+000 33566 99314,99444,99366
 1.7000e+000 99542  1.0865e+001 -8.3089e+001 -5.5506e+000 33566 99314,99366,99340
 1.7000e+000 99519  2.7937e+001 -7.7309e+001  3.6121e+001 33566 99314,99470,99444
 1.7000e+000 99496 -1.9160e+000 -4.9779e+001  1.7458e+000 33566 99392,99444,99418
 1.7000e+000 99787 -7.2456e+000 -8.5494e+001 -5.2988e+000 33105 99637,99689,99663
 1.7000e+000 99764 -4.2007e+000 -8.6502e+001 -1.5269e+000 33105 99611,99689,99637
 1.7000e+000 99741 -1.0483e+001 -7.7242e+001  5.0068e+000 33105 99611,99715,99689
 1.7000e+000 100167 -3.2727e+001 -8.8259e+001  1.3427e+001 32651 100190,99971,99919
 1.7000e+000 100144 -1.4433e+001 -7.4284e+001  6.8226e+000 32651 100262,100190,99919
 1.7000e+000 100121 -1.4164e+001 -7.3194e+001  5.6567e+000 32651 100262,99919,100049
 1.7000e+000 100098  7.5982e-001 -6.6331e+001 -7.3436e+000 32651 99893,100049,99919
 1.7000e+000 100075 -9.3854e+000 -8.8968e+001  2.8957e+001 32651 99919,99971,99945
 1.7000e+000 100216 -1.3115e+001 -8.7121e+001  5.6274e+000 32651 99997,99971,100190
 1.7000e+000 100239 -9.4956e+000 -8.4961e+001  2.3026e+000 32651 99997,100190,100023
 1.7000e+000 100288 -1.0229e+001 -8.2633e+001  6.5453e+000 32651 100023,100190,100262
 1.7000e+000 100311  8.6903e-001 -7.4984e+001  1.2685e+000 32651 100023,100262,100049
 1.7000e+000 100608 -1.9222e+001 -9.4042e+001  5.1830e+000 32254 100386,100490,100464
 1.7000e+000 100585 -3.2252e+001 -9.0214e+001 -7.7846e+000 32254 100360,100490,100386
 1.7000e+000 100562  1.6967e+001 -1.0588e+002 -6.1701e+000 32254 100386,100464,100412
 1.7000e+000 100539  1.7818e+001 -6.9327e+001 -6.6119e+000 32254 100334,100490,100360
 1.7000e+000 100516 -1.1683e+001 -5.7803e+001 -3.7382e+001 32254 100412,100464,100438
 1.7000e+000 100758  2.6173e+000 -2.7493e+001  1.4348e+001 31914 100985,100781,100683
 1.7000e+000 100735 -3.3816e+001 -5.8758e+001  2.7927e+000 31914 100853,100781,100657
 1.7000e+000 100807 -6.1702e-001 -6.1406e+001  9.0427e+000 31914 100709,100683,100781
 1.7000e+000 100830  2.2790e+001 -5.2997e+001  4.0925e+000 31914 100709,100781,100631
 1.7000e+000 100879  1.4769e+001 -4.4005e+001 -1.6475e+001 31914 100631,100781,100853
 1.7000e+000 101011 -2.0459e+001 -5.3568e+001  2.6997e+000 31914 100657,100781,100985
 1.7000e+000 101191 -1.3021e+001 -1.0679e+002  1.1147e+001 31418 101113,101165,101139
 1.7000e+000 101341 -2.9993e+001 -8.6049e+001 -5.1235e+000 31106 101214,101266,101240
 1.7000e+000 101318 -2.7012e+001 -7.9350e+001 -5.6484e+000 31106 101214,101292,101266
 1.7000e+000 101591 -1.9963e+001 -7.9603e+001  1.3724e+001 30552 101614,101470,101444
 1.7000e+000 101568  1.1722e+001 -7.7211e+001  1.3227e+001 30552 101366,101496,101470
 1.7000e+000 101545 -1.7188e+001 -7.8307e+001  1.1452e+001 30552 101614,101444,101392
 1.7000e+000 101522  1.0952e+001 -6.3067e+001  5.5902e+000 30552 101392,101444,101418
 1.7000e+000 101640 -1.6000e+001 -8.0115e+001  1.2018e+001 30552 101366,101470,101614
 1.7000e+000 101663 -1.3625e+001 -7.9159e+001  9.7763e+000 30552 101366,101614,101392
 1.7000e+000 102301 -3.3767e+001 -9.8088e+001  7.3639e+000 30042 102396,102324,102059
 1.7000e+000 102278 -2.0865e+001 -8.4238e+001  5.3048e+000 30042 102324,101981,101955
 1.7000e+000 102255 -3.9258e+001 -9.5557e+001  1.2226e+001 30042 102396,102059,102033
 1.7000e+000 102232 -2.4785e+001 -7.2310e+001  2.0894e+000 30042 101929,102111,101955
 1.7000e+000 102209 -2.0667e+001 -9.6917e+001 -6.9980e+000 30042 102059,102111,102085
 1.7000e+000 102186 -2.0910e+001 -7.0330e+001  1.1242e+000 30042 101929,102137,102111
 1.7000e+000 102163  3.2537e+001 -5.7458e+001  1.3481e+000 30042 101981,102033,102007
 1.7000e+000 102350 -3.0981e+001 -9.2920e+001 -2.3184e+000 30042 102111,102059,102324
 1.7000e+000 102373 -2.7704e+001 -8.2426e+001 -2.6834e+000 30042 102111,102324,101955
 1.7000e+000 102422 -2.5329e+001 -8.9068e+001  3.4553e+000 30042 101981,102324,102396
 1.7000e+000 102445 -3.1198e+001 -8.6702e+001  8.3734e+000 30042 101981,102396,102033
 1.7000e+000 103000 -1.1815e+001 -9.1772e+001  1.8591e+000 29730 103023,102706,102654
 1.7000e+000 102977 -2.3571e+001 -9.0623e+001 -2.9711e+000 29730 103023,102654,102810
 1.7000e+000 102954 -3.3356e+001 -1.2918e+002 -1.0454e+001 29730 102732,102810,102784
 1.7000e+000 102931 -3.5889e+001 -8.7439e+001 -3.6676e+000 29730 102628,102810,102654
 1.7000e+000 102908 -1.2802e+001 -9.1923e+001  2.6046e+000 29730 102654,102706,102680
 1.7000e+000 102885 -2.6514e+001 -8.9142e+001 -3.1886e+001 29730 102732,102784,102758
 1.7000e+000 102862 -4.9359e+001 -9.3785e+001 -1.3416e+000 29730 102628,102836,102810
 1.7000e+000 103049 -1.9449e+001 -9.9129e+001 -3.1453e+000 29730 102732,102706,103023
 1.7000e+000 103072 -2.6472e+001 -9.2212e+001 -6.8959e+000 29730 102732,103023,102810
 1.7000e+000 103222 -9.1902e+000 -6.0042e+001 -1.5439e+001 29226 103095,103147,103121
 1.7000e+000 103199 -2.3650e+001 -8.7486e+001 -4.3017e+000 29226 103095,103173,103147
 1.7000e+000 103730 -1.2613e+001 -8.6691e+001 -6.3820e+000 28822 103537,103589,103563
 1.7000e+000 103707 -1.6815e+001 -9.1026e+001 -4.3276e+000 28822 103433,103589,103537
 1.7000e+000 103684 -4.6257e+001 -9.8970e+001 -1.1057e+001 28822 103433,103537,103459
 1.7000e+000 103661 -2.5400e+001 -9.3116e+001 -7.5602e+000 28822 103407,103589,103433
 1.7000e+000 103638 -3.2387e+001 -5.4398e+001  5.7406e+000 28822 103459,103511,103485
 1.7000e+000 103615 -1.1048e+001 -5.8669e+001  7.9389e+000 28822 103459,103537,103511
 1.7000e+000 103880 -3.4875e+000 -8.5062e+001  9.3080e+000 28368 103975,103903,103779
 1.7000e+000 103857 -5.7384e+000 -1.0605e+002  4.0202e+000 28368 103903,103753,103831
 1.7000e+000 103929 -8.7077e+000 -9.0603e+001  6.8349e+000 28368 103805,103779,103903
 1.7000e+000 103952  3.2386e+000 -8.7300e+001  7.6284e+000 28368 104105,103903,103831
 1.7000e+000 104001 -3.6915e+000 -8.9820e+001  1.3056e+000 28368 103753,103903,103975
 1.7000e+000 104131 -9.0416e+000 -9.2329e+001  7.3367e+000 28368 103805,103903,104105
 1.7000e+000 104539 -1.3061e+001 -5.9123e+001  5.4944e+000 28028 104562,104340,104314
 1.7000e+000 104516 -1.9271e+001 -4.3937e+001  1.3004e+001 28028 104634,104562,104314
 1.7000e+000 104493 -2.1804e+001 -6.0952e+001 -5.5560e+000 28028 104762,104366,104340
 1.7000e+000 104470 -1.8041e+001 -5.8763e+001 -1.5430e+001 28028 104366,104418,104392
 1.7000e+000 104588 -2.2216e+001 -6.6458e+001 -6.5541e-001 28028 104762,104340,104562
 1.7000e+000 104611 -3.2865e+001 -5.1932e+001  5.1322e+000 28028 104418,104562,104444
 1.7000e+000 104660 -3.7367e+001 -5.3711e+001  6.2921e+000 28028 104444,104562,104634
 1.7000e+000 104788 -2.4883e+001 -5.3611e+001 -4.7804e+000 28028 104418,104366,104762
 1.7000e+000 104811 -2.3353e+001 -5.6661e+001  1.6390e-001 28028 104418,104762,104562
 1.7000e+000 105010  8.0440e+000 -6.0734e+001  1.1660e+001 27324 105033,104886,104860
 1.7000e+000 104987  4.1563e+000 -6.1762e+001  1.3249e+001 27324 105033,104860,104834
 1.7000e+000 104964  5.9994e+000 -6.2790e+001  1.0739e+001 27324 105105,104912,104886
 1.7000e+000 105059  7.1892e+000 -6.2210e+001  1.1121e+001 27324 105105,104886,105033
 1.7000e+000 105082  6.2902e+000 -5.5981e+001  1.2999e+001 27324 104938,105033,104834
 1.7000e+000 105131  2.4323e+000 -6.2233e+001  8.8580e+000 27324 104938,104912,105105
 1.7000e+000 105154  4.7734e+000 -5.9949e+001  9.8257e+000 27324 104938,105105,105033
 1.7000e+000 105402 -6.9306e+001 -9.1956e+001 -3.2554e+000 27012 105229,105281,105255
 1.7000e+000 105379 -4.8355e+001 -8.5564e+001 -7.2682e+000 27012 105229,105307,105281
 1.7000e+000 105356 -3.5864e+001 -8.1849e+001 -5.5756e+000 27012 105177,105307,105229
 1.7000e+000 105333 -4.2257e+001 -5.3451e+001 -2.4380e+001 27012 105177,105229,105203
 1.7000e+000 105603  3.9483e+000 -3.2349e+001  7.5765e+000 26508 105626,105453,105427
 1.7000e+000 105580  4.6225e+000 -3.0172e+001 -3.5733e+000 26508 105626,105427,105505
 1.7000e+000 105557  5.4581e+001 -9.8229e+000 -9.9874e+000 26508 105427,105531,105505
 1.7000e+000 105652  1.3189e+001 -2.8290e+001  5.2368e+000 26508 105479,105453,105626
 1.7000e+000 105675  1.5170e+001 -2.7585e+001 -4.8999e+000 26508 105479,105626,105505
 1.7000e+000 106057 -2.5832e+001 -8.0682e+001  1.7183e+001 25947 106080,105887,105861
 1.7000e+000 106034 -1.9834e+001 -7.5246e+001  3.5288e+000 25947 106080,105861,105783
 1.7000e+000 106011 -2.7495e+001 -5.7079e+001  2.3672e+000 25947 105783,105835,105809
 1.7000e+000 105988 -3.3613e+001 -5.9330e+001  4.6769e+000 25947 105783,105861,105835
 1.7000e+000 105965  2.7131e+001 -4.8983e+001 -7.7974e-001 25947 105887,105939,105913
 1.7000e+000 106106 -1.9656e+001 -7.5703e+001  1.1043e+001 25947 105939,105887,106080
 1.7000e+000 106129 -2.4906e+000 -6.2086e+001 -4.1883e+000 25947 105939,106080,105783
 1.7000e+000 106714 -3.6133e+001 -6.0891e+001 -2.3507e+000 25557 106809,106737,106547
 1.7000e+000 106691 -3.5083e+001 -6.4713e+001  2.2742e+000 25557 106737,106417,106391
 1.7000e+000 106668 -3.3352e+001 -6.0764e+001 -2.3899e+000 25557 106809,106547,106495
 1.7000e+000 106645 -4.6343e+001 -9.6261e+001  5.1233e+000 25557 106417,106495,106469
 1.7000e+000 106622 -3.2722e+001 -6.2879e+001 -5.6460e+000 25557 106495,106547,106521
 1.7000e+000 106599 -2.8005e+001 -1.0953e+002  1.0507e+001 25557 106417,106469,106443
 1.7000e+000 106763 -3.9488e+001 -6.0194e+001  4.3269e-001 25557 106573,106547,106737
 1.7000e+000 106786 -3.2289e+001 -5.7469e+001  3.5585e+000 25557 106573,106737,106391
 1.7000e+000 106835 -3.2818e+001 -6.0460e+001 -1.0917e+000 25557 106417,106737,106809
 1.7000e+000 106858 -3.1423e+001 -6.1615e+001 -1.6133e+000 25557 106417,106809,106495
 1.7000e+000 107364 -5.4067e+000 -5.2663e+001 -2.0455e+001 25153 107459,107387,107171
 1.7000e+000 107341 -2.9171e+001 -6.1310e+001 -2.8538e+000 25153 107387,107119,107067
 1.7000e+000 107318  4.9798e+000 -4.9131e+001 -2.0479e+001 25153 107459,107171,107145
 1.7000e+000 107295 -2.3736e+001 -6.7695e+001 -1.9673e+001 25153 107531,107223,107197
 1.7000e+000 107272 -2.9491e+001 -6.0755e+001 -1.3184e+000 25153 107067,107119,107093
 1.7000e+000 107249 -2.2162e+001 -5.1658e+001 -7.6689e+000 25153 107041,107223,107067
 1.7000e+000 107413 -2.5069e+001 -6.6392e+001 -1.2961e+001 25153 107197,107171,107387
 1.7000e+000 107436 -1.5994e+001 -6.7882e+001 -1.4794e+001 25153 107531,107197,107387
 1.7000e+000 107485 -9.4894e+000 -5.5795e+001  2.2030e+000 25153 107119,107387,107459
 1.7000e+000 107508  1.8182e+001 -4.4644e+001  2.8668e+000 25153 107119,107459,107145
 1.7000e+000 107557 -2.6908e+001 -6.1974e+001 -1.0104e+001 25153 107067,107223,107531
 1.7000e+000 107580 -1.6099e+001 -5.7184e+001 -4.6798e+000 25153 107067,107531,107387
 1.7000e+000 107958 -2.9660e+001 -7.9773e+001 -6.5540e+000 24741 107736,107814,107788
 1.7000e+000 107935 -3.3075e+001 -8.4053e+001 -9.8788e+000 24741 107736,107840,107814
 1.7000e+000 107912 -3.6187e+001 -9.2652e+001 -1.0911e+001 24741 107684,107840,107736
 1.7000e+000 107889 -3.7151e+001 -7.9030e+001 -6.3768e+000 24741 107736,107788,107762
 1.7000e+000 107866 -3.1536e+001 -1.1900e+002 -3.8066e+001 24741 107684,107736,107710
 1.7000e+000 108157 -2.1362e+001 -6.1010e+001  7.0583e+000 24237 108180,108059,108007
 1.7000e+000 108134 -9.3155e+000 -4.1362e+001  2.1691e+001 24237 108180,108007,107981
 1.7000e+000 108111 -3.0310e+000 -6.0175e+001  3.5844e+000 24237 108007,108059,108033
 1.7000e+000 108206 -1.1526e+001 -4.4161e+001  2.0287e+001 24237 108085,108059,108180
 1.7000e+000 108229 -1.1602e-001 -2.4790e+001  3.4796e+001 24237 108085,108180,107981
 1.7000e+000 108658 -1.6784e+001 -8.1402e+001 -1.0192e+001 23776 108361,108413,108387
 1.7000e+000 108635 -3.4598e+000 -7.5853e+001  6.9128e-001 23776 108753,108681,108361
 1.7000e+000 108612  1.1169e+001 -5.7273e+001 -1.1228e+001 23776 108681,108465,108439
 1.7000e+000 108589 -2.6156e+000 -7.9017e+001  3.6631e+000 23776 108753,108361,108335
 1.7000e+000 108566 -1.8412e+001 -8.4273e+001  2.6466e+001 23776 108335,108517,108465
 1.7000e+000 108543 -1.6078e+001 -9.5061e+001  2.8959e+001 23776 108465,108517,108491
 1.7000e+000 108707 -3.4350e+000 -6.8109e+001  6.2584e-001 23776 108413,108361,108681
 1.7000e+000 108730 -2.7702e+000 -7.5497e+001 -3.9389e+000 23776 108413,108681,108439
 1.7000e+000 108779 -2.9413e+000 -6.4655e+001 -5.1837e-001 23776 108465,108681,108753
 1.7000e+000 108802 -5.2542e+000 -7.3018e+001  1.8907e+000 23776 108465,108753,108335
 1.7000e+000 109023  1.1413e+001 -3.5249e+001  8.2122e+000 23414 108873,108925,108899
 1.7000e+000 109000 -6.7141e+000 -4.1569e+001  8.0045e+000 23414 108847,108925,108873
 1.7000e+000 108977  1.3119e+001  5.4690e-001  1.6994e+000 23414 108847,108951,108925
 1.7000e+000 109474 -3.4475e+001 -7.9689e+001  2.7310e+000 23024 109151,109307,109177
 1.7000e+000 109451 -3.7729e+001 -8.0291e+001  3.8082e+000 23024 109151,109333,109307
 1.7000e+000 109428 -3.9106e+001 -1.0494e+002 -6.7902e+000 23024 109177,109281,109203
 1.7000e+000 109405 -6.8209e+001 -1.0565e+002 -9.1022e+000 23024 109177,109307,109281
 1.7000e+000 109382 -2.6991e+001 -9.3961e+001 -1.4262e+000 23024 109203,109281,109229
 1.7000e+000 109359 -2.8409e+001 -9.7345e+001 -1.8939e+000 23024 109229,109281,109255
 1.7000e+000 109820 -1.9989e+001 -7.1764e+001  7.0331e+000 22506 109843,109601,109523
 1.7000e+000 109797 -9.3929e+000 -6.5794e+001  4.3687e+000 22506 109843,109523,109497
 1.7000e+000 109774 -7.7709e+000 -7.4937e+001  6.2925e+000 22506 109915,109653,109627
 1.7000e+000 109751 -8.3697e+000 -6.7297e+001  6.0334e+000 22506 109497,109679,109653
 1.7000e+000 109728 -2.8145e+001 -9.2509e+001 -1.4676e+001 22506 109523,109601,109575
 1.7000e+000 109705 -5.5431e+001 -1.3288e+002 -2.6540e+001 22506 109523,109575,109549
 1.7000e+000 109869 -8.2579e+000 -6.9131e+001  8.3704e+000 22506 109627,109601,109843
 1.7000e+000 109892 -6.6144e+000 -7.2593e+001  6.7865e+000 22506 109915,109627,109843
 1.7000e+000 109941 -8.4699e+000 -7.2937e+001  4.8467e+000 22506 109497,109653,109915
 1.7000e+000 109964 -8.3043e+000 -7.2634e+001  5.0825e+000 22506 109497,109915,109843
 1.7000e+000 110163 -7.2093e+000 -6.4030e+001  2.2456e+000 21936 110186,110039,110013
 1.7000e+000 110140 -1.0666e+001 -6.0097e+001  4.9687e+000 21936 110390,110186,110013
 1.7000e+000 110117 -1.9237e+001 -6.5598e+001 -5.1820e-001 21936 110390,110013,109987
 1.7000e+000 110212 -3.5501e+000 -5.6616e+001 -6.9196e-001 21936 110065,110039,110186
 1.7000e+000 110235  1.6758e+001 -4.0362e+001  1.9793e+001 21936 110258,110186,110091
 1.7000e+000 110284 -2.0159e+001 -7.0435e+001  6.8291e+000 21936 110065,110186,110258
 1.7000e+000 110416  7.4419e+000 -7.0696e+001  9.1827e+000 21936 110091,110186,110390
 1.7000e+000 110439 -3.3720e+000 -7.7623e+001  3.7041e+000 21936 110091,110390,109987
 1.7000e+000 110709 -1.9876e+001 -7.6936e+001  7.7271e-001 21338 110510,110614,110588
 1.7000e+000 110686 -3.3051e+001 -9.3094e+001 -4.9586e+000 21338 110484,110614,110510
 1.7000e+000 110663 -1.9035e+001 -5.1024e+001 -5.1261e+000 21338 110510,110562,110536
 1.7000e+000 110640 -3.1661e+001 -7.9601e+001 -1.1202e+000 21338 110510,110588,110562
 1.7000e+000 111296 -1.8506e+001 -8.1130e+001 -2.9276e+000 20934 111025,111155,111103
 1.7000e+000 111273 -2.7338e+001 -1.1672e+002 -2.3500e+000 20934 110999,111155,111025
 1.7000e+000 111250  9.6317e+000 -6.8100e+001 -7.3957e+000 20934 111103,111155,111129
 1.7000e+000 111227 -3.4589e+001 -1.1727e+002 -2.0196e+001 20934 111051,111103,111077
 1.7000e+000 111204 -3.8870e+001 -1.0017e+002 -1.1667e+001 20934 111025,111103,111051
 1.7000e+000 111181 -3.4857e-001 -1.1888e+002  9.5714e+000 20934 110973,111155,110999
 1.7000e+000 111930 -3.3373e+001 -3.6742e+001 -1.4930e+001 20494 111662,111714,111688
 1.7000e+000 111907  9.2437e+000 -4.6371e+001 -1.3557e+001 20494 111584,111714,111662
 1.7000e+000 111884 -2.3407e+001 -6.0080e+001 -7.8564e+000 20494 111584,111766,111714
 1.7000e+000 111861 -1.1686e+001 -9.6862e+001  1.4519e+001 20494 111584,111636,111610
 1.7000e+000 111838 -2.5014e+001 -7.9178e+001  5.2275e+000 20494 111584,111662,111636
 1.7000e+000 111815  2.0274e+000 -4.7774e+001 -4.0690e+000 20494 111558,111766,111584
 1.7000e+000 111792 -1.9428e+001 -5.5272e+001 -1.6018e+001 20494 111714,111766,111740
 1.7000e+000 112249 -3.2432e+001 -1.1739e+002  7.3297e+000 19940 111975,112053,112001
 1.7000e+000 112226 -1.2997e+001 -8.6530e+001 -3.9029e+000 19940 111975,112131,112053
 1.7000e+000 112203  2.5767e+000 -1.1023e+002  0.0000e+000 19940 112053,112105,112079
 1.7000e+000 112180 -2.4954e+001 -1.1835e+002 -2.8871e+000 19940 112053,112131,112105
 1.7000e+000 112157 -1.5120e+001 -1.0777e+002  3.4324e+000 19940 112001,112053,112027
 1.7000e+000 112757 -4.4398e+000 -6.9868e+001 -1.2949e+001 19486 112780,112538,112486
 1.7000e+000 112734 -9.1396e+000 -7.9220e+001 -3.6692e+000 19486 112780,112486,112460
 1.7000e+000 112711 -1.4551e+001 -7.0849e+001 -1.0602e+000 19486 112852,112616,112590
 1.7000e+000 112688  2.7185e+001 -9.2050e+001 -1.8256e+001 19486 112486,112538,112512
 1.7000e+000 112665 -2.6982e+001 -8.7302e+001 -7.0055e+000 19486 112434,112616,112460
 1.7000e+000 112642 -2.2190e+001 -6.8020e+001 -9.6734e+000 19486 112538,112590,112564
 1.7000e+000 112806 -2.0104e+001 -7.7406e+001 -1.0313e+001 19486 112590,112538,112780
 1.7000e+000 112829 -9.2069e+000 -7.3735e+001 -3.0519e+000 19486 112852,112590,112780
 1.7000e+000 112878 -1.7400e+001 -7.4853e+001  1.8716e-001 19486 112460,112616,112852
 1.7000e+000 112901 -1.4184e+001 -7.9987e+001 -8.6995e-001 19486 112460,112852,112780
 1.7000e+000 113252 -5.5841e+001 -1.0182e+002 -2.0121e+000 19096 113105,113157,113131
 1.7000e+000 113229 -5.1747e+001 -7.9857e+001 -1.2776e+000 19096 113053,113157,113105
 1.7000e+000 113206 -4.7119e+001 -7.4940e+001  1.9920e+000 19096 113027,113157,113053
 1.7000e+000 113183 -6.9519e+001 -1.1276e+002  5.4663e+000 19096 113053,113105,113079
 1.7000e+000 113451 -1.1227e+001 -8.7953e+001  3.0217e+001 18642 113327,113379,113353
 1.7000e+000 113428 -2.5356e+001 -8.8246e+001 -1.9762e+000 18642 113301,113379,113327
 1.7000e+000 113405 -5.9060e+000 -8.3444e+001  6.5029e-001 18642 113275,113379,113301
 1.7000e+000 113699 -6.1592e+000 -9.1272e+001 -1.2170e+000 18138 113474,113552,113526
 1.7000e+000 113676  5.4314e+000 -9.4658e+001 -7.1555e+000 18138 113474,113578,113552
 1.7000e+000 113653  1.8622e+000 -9.4636e+001 -5.8317e+000 18138 113474,113604,113578
 1.7000e+000 113630  5.8179e+000 -8.2602e+001  5.0398e+000 18138 113474,113526,113500
 1.7000e+000 113851 -1.6457e+001 -1.0277e+002 -8.1367e-001 17682 113750,113802,113776
 1.7000e+000 113828 -1.5866e+001 -9.9551e+001  6.1507e-001 17682 113724,113802,113750
 1.7000e+000 114383 -2.5922e+001 -7.5904e+001 -2.2844e+000 17106 114086,114242,114164
 1.7000e+000 114360 -4.6861e+001 -8.4557e+001  1.0483e+000 17106 114060,114242,114086
 1.7000e+000 114337 -5.0461e+001 -1.1662e+002  9.9204e+000 17106 114086,114164,114138
 1.7000e+000 114314 -3.6567e+000 -1.4393e+002 -1.7055e+001 17106 114190,114242,114216
 1.7000e+000 114291 -4.0301e+001 -1.1820e+002 -5.4970e+000 17106 114164,114242,114190
 1.7000e+000 114268 -3.2331e+001 -1.1011e+002  2.3900e+001 17106 114086,114138,114112
 1.7000e+000 114680 -2.9803e+001 -9.1151e+001  3.1276e+000 16766 114703,114432,114406
 1.7000e+000 114657 -3.2798e+001 -8.9177e+001  4.1647e-001 16766 114703,114406,114510
 1.7000e+000 114634 -3.1206e+001 -7.0413e+001  4.5157e+000 16766 114406,114536,114510
 1.7000e+000 114611 -1.8505e+001 -9.5900e+001 -4.8986e+000 16766 114432,114484,114458
 1.7000e+000 114588 -2.1234e+001 -6.9423e+001  1.2230e+001 16766 114406,114562,114536
 1.7000e+000 114729 -1.8026e+001 -8.8712e+001  4.1230e+000 16766 114484,114432,114703
 1.7000e+000 114752 -2.8252e+001 -9.1699e+001  1.5931e+000 16766 114484,114703,114510
 1.7000e+000 114902  8.6819e+000 -9.5775e+001 -7.7917e+000 16362 114775,114827,114801
 1.7000e+000 114879  5.6476e+001 -7.3533e+001 -1.9899e+001 16362 114775,114853,114827
 1.7000e+000 115054 -1.1198e+002 -1.9290e+002  3.6143e+000 15908 114953,115005,114979
 1.7000e+000 115031 -1.1004e+002 -1.8218e+002  4.9347e+000 15908 114927,115005,114953
 1.7000e+000 115326 -2.4323e+001 -8.3981e+001  1.4134e+001 15251 115101,115179,115153
 1.7000e+000 115303 -1.7098e+001 -7.6059e+001 -3.7351e+000 15251 115101,115231,115179
 1.7000e+000 115280 -2.0257e+001 -8.3182e+001 -3.0176e+000 15251 115179,115231,115205
 1.7000e+000 115257 -8.0614e-001 -1.6925e+002  4.8626e+001 15251 115101,115153,115127
 1.7000e+000 115429 -2.5131e+001 -1.0230e+002  1.4194e+001 421 115351,115403,115377
 1.8000e+000 66230 -5.2146e+000 -1.0814e-001  2.2562e+000 65954 66152,66204,66178
 1.8000e+000 66429 -1.2610e+001 -3.0843e+001  1.9348e+000 65642 66279,66331,66305
 1.8000e+000 66406 -3.7316e+000 -4.5370e+000  3.2209e+000 65642 66279,66357,66331
 1.8000e+000 66383 -2.0573e+000 -2.5968e+000  2.4467e+000 65642 66253,66357,66279
 1.8000e+000 66628  5.6596e+000 -8.6692e+001  1.5469e+001 65444 66452,66530,66478
 1.8000e+000 66605  5.1277e+000 -9.6137e+001  1.1874e+001 65444 66452,66556,66530
 1.8000e+000 66582 -1.3226e+001 -7.9433e+001  1.9332e+001 65444 66478,66530,66504
 1.8000e+000 67006 -9.9706e+000 -6.0325e+001  1.4998e+000 65246 66732,66810,66758
 1.8000e+000 66983  1.2809e+001 -3.8601e+001  1.0384e+001 65246 66732,66836,66810
 1.8000e+000 66960 -8.7164e+000 -6.9707e+001 -5.9382e+000 65246 66732,66862,66836
 1.8000e+000 66937 -8.4537e+000 -5.2456e+001  1.9332e+000 65246 66758,66810,66784
 1.8000e+000 66914  6.2058e+000 -7.0636e+001 -2.0172e+001 65246 66732,66888,66862
 1.8000e+000 67107  2.4797e+001 -2.8807e+001 -7.4156e+000 64934 67029,67081,67055
 1.8000e+000 67306  1.8352e+001 -6.7012e+001  6.1588e+000 64736 67156,67208,67182
 1.8000e+000 67283 -2.5082e+000 -5.1780e+001  5.7885e+000 64736 67130,67208,67156
 1.8000e+000 67260 -5.6483e+000 -8.0078e+001  5.6645e+000 64736 67130,67234,67208
 1.8000e+000 67507 -6.1796e+000 -4.9088e+001 -2.0203e+001 64389 67357,67409,67383
 1.8000e+000 67484  3.6736e+000 -7.9242e+001 -1.6042e+001 64389 67357,67435,67409
 1.8000e+000 67461 -6.4802e-001 -8.5362e+001 -1.3713e+001 64389 67331,67435,67357
 1.8000e+000 67708 -3.4447e+000 -5.6264e+001  7.1391e+000 63985 67731,67584,67558
 1.8000e+000 67685 -1.1518e+001 -3.3227e+001  3.1504e+000 63985 67731,67558,67636
 1.8000e+000 67662 -1.5227e+001 -3.6503e+001  9.0654e-001 63985 67532,67636,67558
 1.8000e+000 67757 -7.0068e+000 -6.7993e+001  5.6697e+000 63985 67610,67584,67731
 1.8000e+000 67780 -1.9408e+001 -5.1578e+001  5.5754e-001 63985 67610,67731,67636
 1.8000e+000 67981  9.8870e+000 -1.9806e+001  7.7631e+000 63787 67857,67909,67883
 1.8000e+000 67958 -8.2834e+000 -2.6494e+001  1.0502e+001 63787 67831,67909,67857
 1.8000e+000 67935 -1.0634e+001  6.7653e+000  2.7796e+000 63787 67805,67909,67831
 1.8000e+000 68231  2.0345e+001 -5.8670e+001  8.6944e+000 63589 68254,68084,68032
 1.8000e+000 68208  2.3856e+001 -3.7134e+001  1.0199e+001 63589 68254,68032,68006
 1.8000e+000 68185  9.6877e+000 -4.6046e+001 -4.9661e+000 63589 68326,68136,68110
 1.8000e+000 68162  4.6222e+001 -4.5337e+001  1.0029e+000 63589 68032,68084,68058
 1.8000e+000 68280  3.6923e+001 -4.2018e+001  9.8043e-001 63589 68110,68084,68254
 1.8000e+000 68303  1.4657e+001 -4.3694e+001  3.6214e-001 63589 68326,68110,68254
 1.8000e+000 68352  1.1983e+001 -3.4957e+001  4.5455e+000 63589 68006,68136,68326
 1.8000e+000 68375  1.8055e+001 -3.4640e+001  9.8130e+000 63589 68006,68326,68254
 1.8000e+000 68836  4.0185e+001 -1.5958e+001  1.9439e+001 63128 68859,68588,68562
 1.8000e+000 68813 -3.7997e+000 -3.2129e+001  1.9995e+001 63128 68859,68562,68692
 1.8000e+000 68790 -9.0937e+000 -4.1354e+001 -1.3440e+001 63128 68614,68692,68666
 1.8000e+000 68767 -2.7478e+001 -4.3511e+001  1.3614e+001 63128 68562,68718,68692
 1.8000e+000 68744 -5.7922e+000 -3.4260e+001 -1.6515e+001 63128 68614,68666,68640
 1.8000e+000 68885  4.3084e+001 -1.3019e+001 -2.0033e+001 63128 68614,68588,68859
 1.8000e+000 68908  3.1288e+000 -2.6492e+001 -1.8724e+001 63128 68614,68859,68692
 1.8000e+000 69237  3.0158e+000 -5.1547e+001  4.0749e+000 62731 69064,69116,69090
 1.8000e+000 69214 -1.0579e+000 -6.3259e+001  1.1424e+000 62731 69064,69142,69116
 1.8000e+000 69191 -9.6468e+000 -9.8851e+001  3.8056e-001 62731 69038,69142,69064
 1.8000e+000 69168  7.5194e-001 -7.6395e+001  5.5909e+000 62731 69012,69142,69038
 1.8000e+000 69539 -1.3009e+000 -3.9777e+000  1.5276e-001 62433 69389,69467,69441
 1.8000e+000 69516  2.3162e-001 -6.0435e+000  3.1293e-001 62433 69363,69467,69389
 1.8000e+000 69493  1.2884e+000 -3.0522e+000  3.5626e+000 62433 69389,69441,69415
 1.8000e+000 69966 -6.7295e-001 -2.6708e+001 -1.6353e+000 62235 69989,69773,69721
 1.8000e+000 69943  1.4187e+000 -5.3283e+001 -2.6881e+001 62235 70061,69989,69721
 1.8000e+000 69920  7.9146e+000 -9.0898e+001 -1.9178e+001 62235 70061,69721,69643
 1.8000e+000 69897 -8.1947e+000 -1.3331e+001 -3.7279e+000 62235 69721,69773,69747
 1.8000e+000 69874 -4.9382e+001 -2.2448e+002 -1.0764e+001 62235 69643,69721,69695
 1.8000e+000 69851  3.6771e+001  6.2049e+001 -2.2447e+001 62235 69643,69695,69669
 1.8000e+000 70015 -5.5871e+000 -5.9757e+001 -1.7535e+001 62235 69799,69773,69989
 1.8000e+000 70038 -2.7037e+001 -7.4464e+001 -3.6958e+001 62235 69799,69989,69825
 1.8000e+000 70087 -2.3433e+001 -8.9596e+001 -1.4553e+001 62235 69825,69989,70061
 1.8000e+000 70110  1.7141e+000 -1.0850e+002 -1.3512e+001 62235 69825,70061,69643
 1.8000e+000 70260 -3.1690e+000 -5.6933e+001  3.5942e+000 62037 70133,70185,70159
 1.8000e+000 70237 -1.1662e+001 -7.9923e+001  1.3928e+000 62037 70133,70211,70185
 1.8000e+000 70640 -4.5574e+000 -4.1239e+001  5.7455e+000 61583 70735,70663,70418
 1.8000e+000 70617 -1.0687e+001 -5.9851e+001  5.3355e+000 61583 70663,70366,70522
 1.8000e+000 70594 -2.5888e+000 -2.7724e+001 -1.3126e-001 61583 70735,70418,70392
 1.8000e+000 70571 -5.7184e+000 -4.6456e+001  1.2093e+001 61583 70418,70496,70444
 1.8000e+000 70548 -2.2244e+001 -2.7559e+001  1.0318e+001 61583 70444,70496,70470
 1.8000e+000 70689 -1.3770e+001 -4.8773e+001  2.1557e+000 61583 70496,70418,70663
 1.8000e+000 70712 -2.2525e+001 -3.5796e+001  4.3886e+000 61583 70496,70663,70522
 1.8000e+000 70761  5.9811e+000 -3.2384e+001 -9.2478e+000 61583 70366,70663,70735
 1.8000e+000 70784  2.0623e+000 -2.1705e+001 -1.3869e+001 61583 70366,70735,70392
 1.8000e+000 71054  5.8216e+000 -3.5757e+001  1.0321e+001 61313 71077,70881,70855
 1.8000e+000 71031  1.3044e+001 -2.5650e+001  1.5173e+001 61313 71077,70855,70829
 1.8000e+000 71008 -6.9610e+000 -2.2839e+001  1.0447e+001 61313 70829,70959,70933
 1.8000e+000 70985  1.2246e+001 -3.0470e+001 -4.7303e+000 61313 70881,70933,70907
 1.8000e+000 71103 -6.8654e-001 -3.1207e+001  3.7755e+000 61313 70933,70881,71077
 1.8000e+000 71126  5.5317e+000 -2.5538e+001  7.8198e+000 61313 70933,71077,70829
 1.8000e+000 71604 -2.5331e+001 -6.8528e+001  6.9892e-001 60909 71627,71232,71414
 1.8000e+000 71581 -2.8557e+001 -6.2130e+001 -7.4136e+000 60909 71232,71440,71414
 1.8000e+000 71558 -1.5774e+001 -6.2983e+001  4.4094e+000 60909 71627,71414,71336
 1.8000e+000 71535  1.2181e+001 -9.7230e+001  1.2927e+001 60909 71362,71414,71388
 1.8000e+000 71512 -2.6456e+001 -9.0562e+001  3.2621e+000 60909 71336,71414,71362
 1.8000e+000 71489 -9.3687e+000 -4.9449e+001  7.6382e-001 60909 71258,71336,71310
 1.8000e+000 71466 -2.0374e+001 -5.6972e+001  4.2195e+000 60909 71258,71310,71284
 1.8000e+000 71653 -3.0094e+001 -6.0921e+001  4.9913e+000 60909 71258,71232,71627
 1.8000e+000 71676 -2.3204e+001 -5.8341e+001  6.4576e+000 60909 71258,71627,71336
 1.8000e+000 71875 -1.2571e+001 -6.8130e+001  3.2133e+000 60611 71898,71725,71699
 1.8000e+000 71852 -2.3986e+001 -5.1731e+001  1.6742e+001 60611 71898,71699,71803
 1.8000e+000 71829 -6.1165e-001 -2.4481e+001  2.2554e+001 60611 71970,71751,71725
 1.8000e+000 71924 -1.4462e+001 -4.8112e+001  8.9134e+000 60611 71970,71725,71898
 1.8000e+000 71947 -2.8307e+000 -3.4624e+001  3.3267e+000 60611 71777,71898,71803
 1.8000e+000 71996  1.6578e+001 -5.0052e+001  2.6408e+001 60611 71777,71751,71970
 1.8000e+000 72019  1.6485e+001 -5.3380e+001  1.6772e+001 60611 71777,71970,71898
 1.8000e+000 72576 -2.6038e+001 -1.0445e+002  2.5121e+001 60142 72599,72256,72230
 1.8000e+000 72553 -9.3252e+000 -8.4940e+001  1.5040e+001 60142 72671,72599,72230
 1.8000e+000 72530 -2.4140e+001 -6.8198e+001  8.5158e-001 60142 72671,72230,72204
 1.8000e+000 72507 -3.3764e+001 -4.2917e+001  1.5549e+001 60142 72743,72360,72334
 1.8000e+000 72484 -3.0888e+001 -6.7219e+001  1.8648e+001 60142 72815,72282,72256
 1.8000e+000 72461  1.1444e+001 -4.8480e+001  2.1548e+001 60142 72887,72308,72282
 1.8000e+000 72438 -2.6756e+001 -1.0484e+002 -5.0860e+000 60142 72204,72412,72386
 1.8000e+000 72625 -2.6564e+001 -8.4387e+001  7.0236e+000 60142 72815,72256,72599
 1.8000e+000 72648 -2.5674e+001 -6.2172e+001  1.1917e+001 60142 72743,72334,72599
 1.8000e+000 72697 -2.2654e+001 -1.0870e+002  9.2276e+000 60142 72386,72599,72671
 1.8000e+000 72720 -3.4429e+001 -9.0916e+001 -1.4554e+000 60142 72386,72671,72204
 1.8000e+000 72769 -2.5050e+000 -5.7468e+001  5.4050e+001 60142 72386,72360,72743
 1.8000e+000 72792 -1.2341e+001 -1.0179e+002  3.1260e+001 60142 72386,72743,72599
 1.8000e+000 72841 -1.4589e+001 -5.9620e+001  2.1446e+001 60142 72887,72282,72815
 1.8000e+000 72864 -2.6268e+001 -6.5926e+001  1.4832e+001 60142 72334,72815,72599
 1.8000e+000 72913 -2.1923e+001 -4.6931e+001  1.0465e+001 60142 72334,72308,72887
 1.8000e+000 72936 -3.0653e+001 -5.0762e+001  8.8009e+000 60142 72334,72887,72815
 1.8000e+000 73491 -1.2537e+001 -9.7967e+001 -1.9717e+001 59738 73145,73327,73171
 1.8000e+000 73468  3.5454e+001 -4.4304e+001  5.3278e-001 59738 73119,73327,73145
 1.8000e+000 73445 -5.7519e+000 -4.6953e+001 -3.9485e+000 59738 73171,73327,73301
 1.8000e+000 73422  4.2144e+000 -5.8539e+001  1.8459e+000 59738 73514,73275,73249
 1.8000e+000 73399 -1.3063e+001 -5.7619e+001  3.8267e+000 59738 73586,73514,73249
 1.8000e+000 73376 -9.8458e+000 -2.6032e+001  2.3026e+001 59738 73197,73249,73223
 1.8000e+000 73353 -1.1918e+001 -5.9293e+001  9.4724e+000 59738 73586,73249,73197
 1.8000e+000 73540 -1.1026e+001 -8.0896e+001 -7.2703e+000 59738 73301,73275,73514
 1.8000e+000 73563 -6.7371e+000 -5.3544e+001 -4.0149e+000 59738 73301,73514,73171
 1.8000e+000 73612 -9.2013e+000 -4.7980e+001  3.7592e+000 59738 73171,73514,73586
 1.8000e+000 73635 -8.4724e+000 -5.1389e+001  8.7469e+000 59738 73171,73586,73197
 1.8000e+000 73964 -1.8987e+000 -6.4118e+001  5.6292e+000 59334 73791,73843,73817
 1.8000e+000 73941  5.5869e+000 -6.9579e+001  2.7621e+000 59334 73791,73869,73843
 1.8000e+000 73918 -1.5257e+001 -1.2024e+002  7.7552e+000 59334 73739,73869,73791
 1.8000e+000 73895  2.0281e+001 -1.4418e+002  8.7381e+000 59334 73739,73791,73765
 1.8000e+000 74261 -1.9709e+001 -8.8668e+001  1.9762e+001 58630 74065,74117,74091
 1.8000e+000 74238 -2.2051e+001 -5.7937e+001  1.6779e+001 58630 74356,74284,74065
 1.8000e+000 74215 -1.2923e+001 -3.2582e+001  1.0814e+001 58630 74284,74013,73987
 1.8000e+000 74192 -2.1874e+001 -5.5416e+001  1.3458e+001 58630 74356,74065,74039
 1.8000e+000 74169 -6.0243e+000 -5.0499e+001 -7.1780e+000 58630 73987,74143,74117
 1.8000e+000 74310 -1.2798e+001 -8.4337e+001  2.1769e+001 58630 74117,74065,74284
 1.8000e+000 74333 -3.4100e+000 -5.4580e+001  1.0702e+001 58630 74117,74284,73987
 1.8000e+000 74382 -1.5853e+001 -5.8838e+001  1.2908e+001 58630 74013,74284,74356
 1.8000e+000 74405 -1.5216e+001 -5.5665e+001  9.5154e+000 58630 74013,74356,74039
 1.8000e+000 74815  5.4121e-001 -3.3405e+001 -1.2106e+001 58226 74590,74642,74616
 1.8000e+000 74792 -8.7069e+000 -5.1487e+001 -8.7375e+000 58226 74590,74694,74642
 1.8000e+000 74769  3.6070e+001 -6.8226e+001  6.6461e-001 58226 74590,74720,74694
 1.8000e+000 74746 -7.6855e+000 -3.6332e+001 -7.7604e+000 58226 74642,74694,74668
 1.8000e+000 75014  1.8880e+001 -6.6595e+001  3.9425e-001 57786 75037,74864,74838
 1.8000e+000 74991  1.3166e+001 -4.0935e+001  1.2519e+001 57786 75037,74838,74916
 1.8000e+000 74968  1.7131e+001 -4.5669e+001  2.3427e+001 57786 74838,74942,74916
 1.8000e+000 75063  7.3273e+000 -9.1264e+001 -7.9836e+000 57786 74890,74864,75037
 1.8000e+000 75086  5.8130e+000 -6.1489e+001  5.2616e+000 57786 74890,75037,74916
 1.8000e+000 75368  1.1246e+001 -3.0951e+001  9.1512e+000 57496 75192,75270,75218
 1.8000e+000 75345  3.8405e+001 -1.5800e+001  1.6624e+001 57496 75192,75296,75270
 1.8000e+000 75322  3.0191e+000 -3.8249e+001  4.4360e+000 57496 75218,75270,75244
 1.8000e+000 75648 -5.2871e+000 -4.8573e+001  3.5786e+000 57206 75472,75550,75498
 1.8000e+000 75625 -1.4274e+000 -3.4817e+001  2.9794e+000 57206 75472,75576,75550
 1.8000e+000 75602  2.4574e+001 -3.6533e+001  4.3543e+000 57206 75671,75550,75524
 1.8000e+000 75697 -1.6798e+001 -5.2834e+001 -6.3858e+000 57206 75498,75550,75671
 1.8000e+000 76154  1.2209e+001 -6.0366e+001 -1.0475e+001 56802 75958,76010,75984
 1.8000e+000 76131  9.3212e+000 -4.2695e+001 -6.1472e+000 56802 75932,76010,75958
 1.8000e+000 76108  1.8020e+001 -6.6088e+001  1.8532e+001 56802 75906,76010,75932
 1.8000e+000 76085  4.3820e-001 -2.6124e+001  1.6033e+001 56802 75880,76010,75906
 1.8000e+000 76062  1.1088e+001 -2.7757e+001 -1.7305e+000 56802 75880,76036,76010
 1.8000e+000 76505  4.7320e+000 -4.9620e+000  7.8698e+000 56504 76306,76384,76332
 1.8000e+000 76482  2.2307e+001  2.0042e+001 -2.6618e+000 56504 76306,76410,76384
 1.8000e+000 76459 -5.2683e+000 -1.2261e+001  4.0818e+000 56504 76332,76384,76358
 1.8000e+000 76436 -1.5113e+000  1.8794e+001  3.3408e+000 56504 76280,76410,76306
 1.8000e+000 77011  6.2414e+000 -2.9525e+001 -9.6544e+000 56050 76740,76818,76792
 1.8000e+000 76988  1.3630e+001 -2.7038e+001 -7.5464e+000 56050 76714,76818,76740
 1.8000e+000 76965 -1.0026e+001 -4.0859e+001  1.7353e-001 56050 76688,76818,76714
 1.8000e+000 76942 -8.4633e+000 -3.0539e+001 -2.3950e+000 56050 76688,76844,76818
 1.8000e+000 76919 -1.0892e+000 -2.4449e+001 -8.6260e+000 56050 76740,76792,76766
 1.8000e+000 76896 -1.4392e+001 -5.3667e+001 -4.8641e+000 56050 76688,76870,76844
 1.8000e+000 77517 -1.7117e+001 -4.8171e+001  3.4063e+000 55738 77220,77350,77324
 1.8000e+000 77494 -1.8474e+001 -5.7174e+001 -3.8921e+000 55738 77220,77376,77350
 1.8000e+000 77471 -7.9719e+000 -3.5467e+001 -5.9664e-001 55738 77194,77376,77220
 1.8000e+000 77448 -1.4920e+001 -1.7550e+001  3.3528e+000 55738 77220,77298,77246
 1.8000e+000 77425 -8.9863e+000 -3.5026e+001 -6.2240e+000 55738 77220,77324,77298
 1.8000e+000 77402 -1.7738e+000 -1.1744e+001  5.4656e+000 55738 77246,77298,77272
 1.8000e+000 78064 -1.7792e+001 -1.2038e+002  1.0335e+000 55227 78231,78087,77773
 1.8000e+000 78041 -2.2173e+001 -1.6174e+002  1.1291e+001 55227 78087,77695,77643
 1.8000e+000 78018 -3.0501e+001 -1.5241e+002  1.3097e+001 55227 78159,77799,77773
 1.8000e+000 77995 -2.2929e+001 -1.0197e+002  4.0281e+000 55227 78231,77773,77721
 1.8000e+000 77972 -3.5569e+001 -6.1610e+001  3.7391e+001 55227 77643,77695,77669
 1.8000e+000 77949 -4.5856e+001 -8.9150e+001  2.3083e+001 55227 77643,77877,77851
 1.8000e+000 77926 -2.5499e+001 -1.2906e+002  2.8156e+001 55227 77799,77851,77825
 1.8000e+000 77903 -1.7708e+001 -8.1784e+001 -8.2131e+000 55227 77721,77773,77747
 1.8000e+000 78113 -2.7492e+001 -1.4616e+002  1.4385e+001 55227 78159,77773,78087
 1.8000e+000 78136  4.4813e+000 -1.0020e+002  2.9343e+001 55227 77851,78087,77643
 1.8000e+000 78185 -3.7263e+001 -1.4094e+002  9.7093e+000 55227 77851,77799,78159
 1.8000e+000 78208 -3.5309e+001 -1.3625e+002  1.0644e+001 55227 77851,78159,78087
 1.8000e+000 78257 -1.8651e+001 -1.4553e+002 -7.5522e+000 55227 77695,78087,78231
 1.8000e+000 78280 -2.3711e+001 -1.2453e+002 -6.9125e+000 55227 77695,78231,77721
 1.8000e+000 78737 -7.6417e+000 -2.9020e+001 -1.7371e+001 54773 78463,78541,78515
 1.8000e+000 78714 -1.4497e+001 -5.9424e+001 -7.2760e+000 54773 78463,78619,78541
 1.8000e+000 78691  1.3116e+000 -1.0526e+001 -2.3942e+001 54773 78463,78515,78489
 1.8000e+000 78668 -2.1801e+001 -3.8196e+001 -6.1077e+000 54773 78541,78593,78567
 1.8000e+000 78645 -8.1161e+000 -4.6147e+001 -9.4196e+000 54773 78541,78619,78593
 1.8000e+000 78838  6.9872e-001 -3.3893e+001  4.9983e+000 54211 78760,78812,78786
 1.8000e+000 79297 -1.4784e+001 -6.6432e+001  3.9230e+000 53814 79520,79153,79049
 1.8000e+000 79274 -8.1830e+000 -6.0955e+001  1.6086e-001 53814 79520,79049,79023
 1.8000e+000 79251 -3.0565e+001 -9.7868e+001  1.2904e+001 53814 79320,79101,79049
 1.8000e+000 79228 -1.9324e+001 -7.0860e+001  5.7440e+000 53814 79320,79049,79153
 1.8000e+000 79205 -1.8340e+000 -1.0044e+002  1.7727e+001 53814 79049,79101,79075
 1.8000e+000 79346 -1.8681e+001 -7.4425e+001 -8.2553e+000 53814 79392,79320,79127
 1.8000e+000 79369  5.7309e+000 -5.8589e+001 -2.0216e+001 53814 79127,79320,79153
 1.8000e+000 79418 -3.8801e+001 -9.9949e+001 -1.7223e+001 53814 79101,79320,79392
 1.8000e+000 79546 -2.1569e+001 -7.8860e+001  1.7001e+001 53814 79179,79153,79520
 1.8000e+000 79569  3.9228e+000 -6.4689e+001  1.0616e+001 53814 79179,79520,79023
 1.8000e+000 80075 -1.2306e+001 -1.5362e+001  2.6319e+001 53039 80098,79908,79830
 1.8000e+000 80052 -2.0060e+001 -1.2686e+001 -2.2787e-001 53039 80098,79830,79804
 1.8000e+000 80029  1.7683e+001  9.1900e+000  9.9795e+000 53039 79752,79934,79804
 1.8000e+000 80006  3.6160e+001  1.0936e+001  2.0622e+001 53039 79856,79908,79882
 1.8000e+000 79983  1.2152e+001 -2.4020e+001  3.1506e+001 53039 79830,79908,79856
 1.8000e+000 79960 -7.5080e+000 -9.3441e+000 -1.1077e+001 53039 79752,79804,79778
 1.8000e+000 80124  2.9852e+001  4.9664e+000  3.2493e+001 53039 79934,79908,80098
 1.8000e+000 80147 -1.3400e+000 -3.1845e+000  4.4317e+000 53039 79934,80098,79804
 1.8000e+000 80555 -2.6849e+001 -5.4894e+001  4.5450e+000 52699 80356,80434,80408
 1.8000e+000 80532  1.7046e+000 -4.9578e+001 -2.2291e+000 52699 80356,80460,80434
 1.8000e+000 80509 -7.7355e+000 -4.7344e+001  2.1101e+000 52699 80330,80460,80356
 1.8000e+000 80486 -2.7013e+001 -6.0480e+001  2.2847e+000 52699 80356,80408,80382
 1.8000e+000 80776  6.4781e+000 -2.6597e+001  2.5328e+000 52295 80600,80678,80626
 1.8000e+000 80753  1.6688e+001 -2.2858e+001  7.8624e-001 52295 80600,80704,80678
 1.8000e+000 80730  2.4754e+001 -1.8692e+001  3.2594e+000 52295 80626,80678,80652
 1.8000e+000 81156 -3.2132e+001 -9.2216e+001  1.6921e+001 51891 81179,80960,80908
 1.8000e+000 81133 -2.5784e+001 -8.0313e+001  6.3621e+000 51891 81179,80908,81012
 1.8000e+000 81110 -3.7350e+001 -9.0432e+001  1.0863e+001 51891 80882,81012,80908
 1.8000e+000 81087 -1.7034e+001 -1.4756e+002  9.6485e+000 51891 80908,80960,80934
 1.8000e+000 81064 -2.5658e+001 -5.9128e+001  1.2856e+001 51891 80882,81038,81012
 1.8000e+000 81205 -1.9374e+001 -9.0658e+001  8.6701e+000 51891 80986,80960,81179
 1.8000e+000 81228 -2.0377e+001 -7.9781e+001 -1.5377e+000 51891 80986,81179,81012
 1.8000e+000 81606 -1.1526e+001 -1.3413e+002 -4.2881e+001 51544 81410,81462,81436
 1.8000e+000 81583 -4.3744e+000 -8.2454e+001 -2.0595e+001 51544 81384,81462,81410
 1.8000e+000 81560 -1.4961e+001 -6.7288e+001 -2.1912e+001 51544 81358,81462,81384
 1.8000e+000 81537 -9.1450e+000 -7.0130e+001 -1.1600e+001 51544 81358,81488,81462
 1.8000e+000 81514  4.0910e+000 -5.2124e+000 -8.0332e+000 51544 81332,81488,81358
 1.8000e+000 81854  3.7284e+001 -6.3496e+001  3.8212e+000 51004 81877,81655,81629
 1.8000e+000 81831  3.1933e+001 -4.4743e+001  1.0922e+000 51004 81877,81629,81759
 1.8000e+000 81808  9.6555e+000 -3.9023e+001  3.1212e+001 51004 81655,81707,81681
 1.8000e+000 81785 -1.2302e+001 -1.2930e+002  6.0872e+000 51004 81707,81759,81733
 1.8000e+000 81903  3.4240e+001 -6.9070e+001  2.5034e+000 51004 81707,81655,81877
 1.8000e+000 81926  1.9110e+001 -6.4217e+001 -4.4717e+000 51004 81707,81877,81759
 1.8000e+000 82257  2.3555e+000 -3.4226e+001 -7.3334e+000 50642 82058,82136,82110
 1.8000e+000 82234 -4.6125e+000 -3.9811e+001 -4.9080e+000 50642 82058,82162,82136
 1.8000e+000 82211 -1.4786e+001 -5.6821e+001  1.8697e+001 50642 82058,82110,82084
 1.8000e+000 82188 -8.7349e+000 -4.1021e+001 -1.2096e+001 50642 82032,82162,82058
 1.8000e+000 82684  1.2119e+001 -7.9752e+001 -8.1701e-002 49931 82779,82707,82465
 1.8000e+000 82661 -3.1940e+000 -9.5312e+001  1.2352e+001 49931 82707,82413,82361
 1.8000e+000 82638  1.0997e+001 -7.1521e+001 -2.3023e+001 49931 82779,82465,82439
 1.8000e+000 82615 -2.0440e+001 -1.1318e+002  1.5596e+001 49931 82465,82543,82491
 1.8000e+000 82592  6.9241e+000 -5.9121e+001  7.5485e+000 49931 82361,82413,82387
 1.8000e+000 82569  1.2446e+001 -7.5308e+001  1.5269e+000 49931 82491,82543,82517
 1.8000e+000 82733 -9.4003e+000 -8.6924e+001  5.3157e+000 49931 82543,82465,82707
 1.8000e+000 82756  1.1517e+000 -6.3629e+001  1.1593e+001 49931 82543,82707,82361
 1.8000e+000 82805 -1.0815e+000 -1.1141e+002  1.9221e+000 49931 82413,82707,82779
 1.8000e+000 82828 -2.1294e+000 -1.0037e+002 -1.9579e+001 49931 82413,82779,82439
 1.8000e+000 83255 -3.6302e+001 -1.3387e+002 -1.1372e+001 49327 82984,83114,83036
 1.8000e+000 83232 -3.6731e+001 -1.3356e+002 -2.3485e+001 49327 82958,83114,82984
 1.8000e+000 83209  2.7881e+000 -1.3068e+002 -1.5373e+001 49327 83036,83114,83088
 1.8000e+000 83186 -1.5659e+001 -1.2026e+002 -5.4333e+000 49327 82984,83036,83010
 1.8000e+000 83163 -2.5475e+001 -1.3224e+002 -2.3455e+001 49327 82932,83114,82958
 1.8000e+000 83140 -4.7942e+001 -2.3654e+002  1.3328e+000 49327 83036,83088,83062
 1.8000e+000 83938 -5.0131e+001 -1.3395e+002  1.3611e+001 48965 83961,83673,83647
 1.8000e+000 83915 -2.8999e+001 -9.6429e+001  5.0501e+000 48965 83961,83647,83543
 1.8000e+000 83892 -3.5124e+001 -1.0015e+002 -1.6185e+001 48965 83517,83725,83543
 1.8000e+000 83869 -4.0921e+000 -9.8784e+001 -2.0350e+001 48965 83673,83725,83699
 1.8000e+000 83846 -2.9525e+001 -8.3720e+001 -6.6758e+000 48965 83543,83647,83621
 1.8000e+000 83823 -1.5788e+001 -7.6861e+001 -1.2653e+001 48965 83543,83621,83569
 1.8000e+000 83800  3.7732e+001 -6.6979e+001 -7.0672e+000 48965 83517,83751,83725
 1.8000e+000 83777 -1.7513e+000 -6.2675e+001  8.3882e+000 48965 83569,83621,83595
 1.8000e+000 83987 -3.0046e+001 -1.2014e+002 -9.5206e+000 48965 83725,83673,83961
 1.8000e+000 84010 -2.5282e+001 -1.0935e+002 -1.3420e+001 48965 83725,83961,83543
 1.8000e+000 84258 -9.9376e+000 -1.0955e+002  2.9894e+001 48447 84281,84059,84033
 1.8000e+000 84235 -2.8227e+000 -9.0331e+001  1.8413e+001 48447 84281,84033,84163
 1.8000e+000 84212  6.1172e+000 -8.4089e+001  7.1989e+000 48447 84059,84111,84085
 1.8000e+000 84189  1.8795e+001 -8.9414e+001  7.2190e+000 48447 84111,84163,84137
 1.8000e+000 84307  4.8474e-001 -1.0546e+002  1.5181e+001 48447 84111,84059,84281
 1.8000e+000 84330  1.1387e+001 -9.2498e+001  3.9804e+000 48447 84111,84281,84163
 1.8000e+000 84529 -7.7785e+000 -8.7623e+001 -2.0155e+000 47993 84552,84405,84379
 1.8000e+000 84506 -3.5886e+001 -9.5262e+001  1.3437e+000 47993 84552,84379,84353
 1.8000e+000 84483 -1.2151e+001 -8.7696e+001 -8.9387e+000 47993 84624,84457,84431
 1.8000e+000 84578 -3.7681e+000 -9.1402e+001 -7.8713e+000 47993 84431,84405,84552
 1.8000e+000 84601 -1.3124e+001 -9.3913e+001 -5.2228e+000 47993 84624,84431,84552
 1.8000e+000 84650 -1.2263e+001 -8.3618e+001 -9.6790e+000 47993 84353,84457,84624
 1.8000e+000 84673 -9.6914e+000 -8.2769e+001 -4.9301e+000 47993 84353,84624,84552
 1.8000e+000 85104 -3.1477e+001 -1.1050e+002 -1.4600e+001 47588 85199,85127,84885
 1.8000e+000 85081 -1.7310e+001 -1.0419e+002 -1.7938e+001 47588 85127,84781,84963
 1.8000e+000 85058 -4.0958e+001 -1.1005e+002 -4.1261e+000 47588 85199,84885,84807
 1.8000e+000 85035 -2.0703e+001 -9.1976e+001  4.0784e+001 47588 84885,84937,84911
 1.8000e+000 85012 -4.2369e+001 -8.1265e+001 -1.2112e+001 47588 84807,84885,84833
 1.8000e+000 84989 -3.4720e+001 -7.7893e+001 -9.0465e+000 47588 84833,84885,84859
 1.8000e+000 85153 -2.2551e+001 -1.4424e+002  3.5590e+000 47588 84937,84885,85127
 1.8000e+000 85176  3.5839e+001 -1.1776e+002 -4.9593e+000 47588 84937,85127,84963
 1.8000e+000 85225 -4.8678e+001 -1.1544e+002 -1.1464e+001 47588 84781,85127,85199
 1.8000e+000 85248 -5.5654e+001 -1.1641e+002  4.5541e-001 47588 84781,85199,84807
 1.8000e+000 85518  3.4955e+000 -9.2844e+001  4.9438e+000 47226 85293,85397,85319
 1.8000e+000 85495 -1.5932e+001 -1.0043e+002  6.0661e+000 47226 85293,85423,85397
 1.8000e+000 85472 -2.1716e+001 -1.0687e+002 -3.6249e+000 47226 85319,85397,85345
 1.8000e+000 85449 -3.2169e+000 -5.7892e+001  1.3227e+000 47226 85345,85397,85371
 1.8000e+000 85849  5.4560e+000 -7.7380e+001 -1.1307e+001 46572 85624,85702,85650
 1.8000e+000 85826 -1.0404e+001 -1.1744e+002 -1.0832e+001 46572 85624,85754,85702
 1.8000e+000 85803  1.2964e+001 -8.8639e+001 -4.2168e-001 46572 85702,85754,85728
 1.8000e+000 85780  2.5909e+001 -7.0890e+001 -5.2935e+000 46572 85650,85702,85676
 1.8000e+000 86070 -8.5855e+001 -1.4955e+002 -3.7413e+000 46374 85920,85972,85946
 1.8000e+000 86047 -7.1151e+001 -1.1407e+002  1.5497e+000 46374 85920,85998,85972
 1.8000e+000 86024 -3.0983e+001 -9.4415e+001  2.7398e+001 46374 85894,85998,85920
 1.8000e+000 86401 -1.9472e+001 -9.4985e+001  2.4298e+000 46034 86424,86280,86228
 1.8000e+000 86378 -1.9864e+001 -1.1227e+002 -2.7477e+000 46034 86424,86228,86176
 1.8000e+000 86355 -2.6844e+001 -1.1003e+002 -1.9609e+001 46034 86176,86228,86202
 1.8000e+000 86332  2.9324e-002 -8.6662e+001 -6.4664e-001 46034 86228,86280,86254
 1.8000e+000 86450 -1.0110e+001 -1.1434e+002  3.2622e+000 46034 86306,86280,86424
 1.8000e+000 86473 -1.4795e+001 -1.3231e+002 -6.3709e+000 46034 86306,86424,86176
 1.8000e+000 87058 -1.0560e+001 -9.8583e+001 -6.8582e+000 45516 86813,86917,86865
 1.8000e+000 87035 -2.3493e+001 -1.2392e+002 -7.1036e-001 45516 86787,86917,86813
 1.8000e+000 87012 -2.2981e+001 -1.3305e+002  5.8515e-001 45516 86735,86917,86787
 1.8000e+000 86989  3.0274e+001 -7.4867e+001 -1.7305e+001 45516 86865,86917,86891
 1.8000e+000 86966  4.8575e+000 -9.3048e+001 -2.1383e+000 45516 86813,86865,86839
 1.8000e+000 86943 -1.3565e+001 -1.5072e+002 -1.6257e+001 45516 86735,86787,86761
 1.8000e+000 87208 -3.3969e+001 -8.6750e+001  8.3126e+000 45226 87231,87133,87107
 1.8000e+000 87185 -4.6056e+000 -8.7539e+001  1.7909e+001 45226 87081,87159,87133
 1.8000e+000 87257  1.1343e+001 -7.1628e+001 -9.4394e+000 45226 87081,87133,87231
 1.8000e+000 87537  6.7137e+000 -1.1250e+002  1.8263e+001 44772 87387,87439,87413
 1.8000e+000 87514 -1.9302e+001 -1.1773e+002  9.0206e+000 44772 87361,87439,87387
 1.8000e+000 87491  1.4952e+001 -1.0652e+002 -8.7344e-001 44772 87361,87465,87439
 1.8000e+000 87996  6.9237e+000 -6.3530e+001 -9.8034e+000 44425 87748,87878,87852
 1.8000e+000 87973  3.4309e+001 -5.1182e+001 -2.1189e+001 44425 87722,87878,87748
 1.8000e+000 87950  5.1484e+001 -8.2493e+001 -1.6877e+001 44425 87800,87852,87826
 1.8000e+000 87927 -3.5048e+000 -8.7693e+001 -1.6516e+000 44425 87748,87852,87800
 1.8000e+000 87904  2.4016e+001 -1.0108e+002  2.3065e+001 44425 87748,87800,87774
 1.8000e+000 88423  7.6562e+000 -9.1211e+001 -9.2464e+000 44078 88590,88230,88204
 1.8000e+000 88400  3.8989e+000 -9.4371e+001 -2.6234e+000 44078 88518,88446,88204
 1.8000e+000 88377  1.6768e-001 -9.3363e+001 -3.5967e+000 44078 88446,88126,88282
 1.8000e+000 88354  6.5956e+000 -9.6119e+001 -1.4848e+000 44078 88518,88204,88178
 1.8000e+000 88331  1.0028e+001 -1.1138e+002  3.1165e+000 44078 88100,88282,88126
 1.8000e+000 88308  8.8717e+000 -7.6256e+001  3.8346e+001 44078 88126,88178,88152
 1.8000e+000 88472  7.5143e+000 -9.2774e+001 -5.0928e+000 44078 88590,88204,88446
 1.8000e+000 88495  9.1264e-001 -9.4957e+001 -5.5584e+000 44078 88256,88446,88282
 1.8000e+000 88544  6.1413e+000 -9.0668e+001 -1.6631e+000 44078 88126,88446,88518
 1.8000e+000 88567  7.5662e+000 -9.4290e+001 -1.0309e+000 44078 88126,88518,88178
 1.8000e+000 88616 -4.0660e+001 -1.2446e+002 -2.9271e+001 44078 88256,88230,88590
 1.8000e+000 88639 -1.3331e+000 -9.6182e+001 -6.1011e+000 44078 88256,88590,88446
 1.8000e+000 89039 -1.7178e+001 -8.3577e+001  1.3754e+000 43716 88791,88921,88895
 1.8000e+000 89016 -3.1980e+001 -8.2517e+001 -1.2430e+000 43716 88765,88921,88791
 1.8000e+000 88993 -1.9582e+001 -1.0211e+002  1.3140e+001 43716 88817,88895,88869
 1.8000e+000 88970 -6.8298e+001 -1.1184e+002  1.3033e+001 43716 88791,88895,88817
 1.8000e+000 88947  1.1345e+001 -8.3738e+001  5.1487e+000 43716 88817,88869,88843
 1.8000e+000 89496 -3.9174e+000 -1.1209e+002 -1.0364e+001 43162 89519,89274,89248
 1.8000e+000 89473 -1.3094e+000 -1.0395e+002 -8.4216e+000 43162 89519,89248,89222
 1.8000e+000 89450 -1.2512e+001 -9.5007e+001 -3.7326e+001 43162 89326,89378,89352
 1.8000e+000 89427 -1.5331e+001 -1.2521e+002 -1.1488e+001 43162 89274,89378,89326
 1.8000e+000 89404  4.7385e+000 -8.3433e+001  9.4988e-001 43162 89274,89326,89300
 1.8000e+000 89545 -5.2882e+000 -1.0407e+002 -7.7438e+000 43162 89378,89274,89519
 1.8000e+000 89568 -2.1045e+000 -9.5271e+001 -5.6509e+000 43162 89378,89519,89222
 1.8000e+000 89946 -6.9859e+000 -1.0739e+002 -1.1464e+001 42594 90041,89969,89750
 1.8000e+000 89923  1.7644e+001 -8.2161e+001 -1.8702e+001 42594 89969,89698,89828
 1.8000e+000 89900 -3.8482e+000 -1.1136e+002 -9.7926e+000 42594 90041,89750,89724
 1.8000e+000 89877 -3.3514e+001 -1.2912e+002  2.8042e+000 42594 89750,89802,89776
 1.8000e+000 89854  2.9461e+001 -8.7774e+000 -1.9375e+001 42594 89672,89828,89698
 1.8000e+000 89995 -2.1771e+001 -9.3076e+001  4.0001e-002 42594 89802,89750,89969
 1.8000e+000 90018  9.0638e+000 -8.1438e+001  1.9730e+000 42594 89802,89969,89828
 1.8000e+000 90067 -5.6529e+000 -9.1757e+001 -1.0230e+001 42594 89698,89969,90041
 1.8000e+000 90090 -1.1258e+001 -1.0647e+002 -6.0019e+000 42594 89698,90041,89724
 1.8000e+000 90517 -4.8029e+001 -1.3973e+002  5.0356e+000 42140 90540,90220,90194
 1.8000e+000 90494 -4.5874e+001 -1.4084e+002  4.1461e+000 42140 90540,90194,90376
 1.8000e+000 90471 -4.1166e+001 -1.4119e+002  1.9720e+000 42140 90612,90350,90272
 1.8000e+000 90448 -5.2999e+001 -1.5596e+002 -3.2140e+000 42140 90272,90350,90298
 1.8000e+000 90425 -3.5001e+001 -1.3130e+002 -1.8446e+001 42140 90298,90350,90324
 1.8000e+000 90402 -3.4621e+001 -1.3981e+002  3.4293e+001 42140 90220,90272,90246
 1.8000e+000 90566 -4.4841e+001 -1.4035e+002  5.9450e+000 42140 90272,90220,90540
 1.8000e+000 90589 -4.0736e+001 -1.4009e+002  3.8866e+000 42140 90612,90272,90540
 1.8000e+000 90638 -4.3245e+001 -1.4111e+002  2.4222e+000 42140 90376,90350,90612
 1.8000e+000 90661 -4.6342e+001 -1.4198e+002  4.1480e+000 42140 90376,90612,90540
 1.8000e+000 91167 -4.1963e+000 -9.4232e+001 -6.8158e+000 41636 91190,90870,90844
 1.8000e+000 91144 -1.2540e+001 -1.2256e+002 -3.2315e+000 41636 91190,90844,91026
 1.8000e+000 91121  1.2258e+001 -9.6616e+001 -4.1142e+001 41636 90870,90922,90896
 1.8000e+000 91098 -2.5496e+001 -1.1296e+002  8.5881e+000 41636 90922,91026,90948
 1.8000e+000 91075  5.6765e+000 -8.8840e+001 -5.1728e+000 41636 90948,91026,91000
 1.8000e+000 91052 -1.1105e+001 -1.1588e+002  2.2033e+000 41636 90948,91000,90974
 1.8000e+000 91216 -1.3361e+001 -8.2930e+001 -7.3640e+000 41636 90922,90870,91190
 1.8000e+000 91239 -9.8511e+000 -9.4089e+001 -2.3616e+000 41636 90922,91190,91026
 1.8000e+000 91696 -4.5327e+001 -1.0165e+002 -1.9242e+001 40449 91448,91526,91474
 1.8000e+000 91673 -4.8582e+001 -1.0691e+002 -1.1022e+001 40449 91448,91578,91526
 1.8000e+000 91650 -2.6754e+001 -9.5483e+001 -1.0227e+001 40449 91474,91526,91500
 1.8000e+000 91627 -3.0019e+001 -1.0715e+002 -1.4547e+001 40449 91422,91578,91448
 1.8000e+000 91604 -2.4917e+001 -6.1286e+001 -2.4944e+001 40449 91526,91578,91552
 1.8000e+000 92123 -3.2469e+000 -8.5425e+001 -3.7605e+000 39995 92146,91904,91826
 1.8000e+000 92100  2.8062e+001 -7.5663e+001 -2.8586e+001 39995 92146,91826,91800
 1.8000e+000 92077 -7.3662e+000 -8.4472e+001 -3.6913e+000 39995 91826,91904,91852
 1.8000e+000 92054 -2.2128e+001 -1.3861e+002  1.0401e+001 39995 91904,91982,91930
 1.8000e+000 92031  1.8805e+001 -7.8376e+001 -1.5923e+001 39995 91852,91904,91878
 1.8000e+000 92008 -1.5238e+001 -9.7425e+001  1.1586e+001 39995 91930,91982,91956
 1.8000e+000 92172 -1.3844e+001 -9.4023e+001  3.7504e+000 39995 91982,91904,92146
 1.8000e+000 92195 -1.1696e+000 -1.1646e+002 -1.4509e+001 39995 91982,92146,91800
 1.8000e+000 92652 -1.1267e+001 -6.5043e+001  5.9933e+000 39633 92404,92534,92456
 1.8000e+000 92629 -1.4764e+001 -7.7664e+001  3.7966e+000 39633 92378,92534,92404
 1.8000e+000 92606  7.6804e+000 -5.4358e+001  2.4342e+001 39633 92404,92456,92430
 1.8000e+000 92583 -3.2424e+001 -1.2652e+002  8.3339e+000 39633 92456,92534,92508
 1.8000e+000 92560 -9.8059e+000 -6.7549e+001  1.6722e+001 39633 92456,92508,92482
 1.8000e+000 93079 -2.0292e+001 -8.9135e+001 -9.0962e+000 39093 93102,92808,92756
 1.8000e+000 93056 -1.3670e+001 -7.9284e+001 -1.5699e+001 39093 93102,92756,92938
 1.8000e+000 93033 -2.0412e+001 -9.9261e+001 -4.1719e+000 39093 93174,92912,92834
 1.8000e+000 93010 -4.4633e+001 -1.0592e+002 -6.5634e+000 39093 92834,92912,92860
 1.8000e+000 92987 -1.4313e+000 -9.6657e+001 -2.8526e+001 39093 92756,92808,92782
 1.8000e+000 92964 -4.0356e+001 -1.4313e+002 -5.5136e+001 39093 92860,92912,92886
 1.8000e+000 93128 -1.4367e+001 -9.1672e+001 -7.4163e+000 39093 92834,92808,93102
 1.8000e+000 93151 -1.7884e+001 -9.2188e+001 -6.2632e+000 39093 93174,92834,93102
 1.8000e+000 93200 -1.8056e+001 -9.6234e+001 -9.8500e+000 39093 92938,92912,93174
 1.8000e+000 93223 -1.4439e+001 -9.2188e+001 -1.2228e+001 39093 92938,93174,93102
 1.8000e+000 93680 -1.0653e+001 -5.6077e+001 -4.6401e+000 38639 93703,93536,93484
 1.8000e+000 93657 -2.0535e+001 -5.5816e+001 -1.7836e+000 38639 93703,93484,93432
 1.8000e+000 93634 -1.2800e+001 -6.0892e+001  7.3321e+000 38639 93432,93484,93458
 1.8000e+000 93611 -2.3477e+001 -8.4318e+001  5.1873e-001 38639 93484,93536,93510
 1.8000e+000 93588 -3.8033e+001 -4.4341e+001  2.4781e+000 38639 93406,93562,93432
 1.8000e+000 93729 -2.0195e+001 -4.4225e+001 -5.1960e+000 38639 93562,93536,93703
 1.8000e+000 93752 -4.1141e+001 -5.5769e+001  2.2285e+000 38639 93562,93703,93432
 1.8000e+000 94160 -6.1630e+000 -5.5311e+001 -1.8205e+001 38292 93935,94039,93961
 1.8000e+000 94137 -1.1865e+000 -6.3705e+001  8.5537e+000 38292 93935,94065,94039
 1.8000e+000 94114 -6.7064e+001 -5.3988e+001 -1.7739e+001 38292 93961,94013,93987
 1.8000e+000 94091 -4.3895e+001 -5.1976e+001 -5.6226e+000 38292 93961,94039,94013
 1.8000e+000 94408 -5.8102e+000 -9.0399e+001  1.6124e+000 37880 94431,94261,94235
 1.8000e+000 94385 -8.8252e+000 -7.7787e+001  7.9291e-002 37880 94431,94235,94313
 1.8000e+000 94362 -9.2491e+000 -7.8023e+001  5.3799e-001 37880 94209,94313,94235
 1.8000e+000 94339 -4.5447e+000 -7.3012e+001  1.0961e+001 37880 94183,94313,94209
 1.8000e+000 94457  1.1449e+000 -7.9596e+001 -2.4340e+000 37880 94287,94261,94431
 1.8000e+000 94480 -8.2119e+000 -7.2844e+001 -1.3528e+000 37880 94287,94431,94313
 1.8000e+000 94728 -9.0425e+000 -8.4920e+001  3.9413e-001 37426 94529,94607,94555
 1.8000e+000 94705 -1.6273e+001 -1.1051e+002  3.0081e+000 37426 94529,94633,94607
 1.8000e+000 94682  3.6261e+001 -1.1052e+002  3.0016e+000 37426 94503,94633,94529
 1.8000e+000 94659 -1.0600e+001 -3.2021e+001 -2.6163e+001 37426 94555,94607,94581
 1.8000e+000 95257  3.9301e+000 -9.2801e+001 -4.9529e+000 36722 95496,95280,94862
 1.8000e+000 95234  2.6928e+001 -8.2934e+001 -4.3949e+000 36722 95496,94862,94836
 1.8000e+000 95211  1.3151e+001 -8.1097e+001  2.7112e+000 36722 95352,95280,95070
 1.8000e+000 95188  1.4698e+001 -6.4382e+001  7.5474e+000 36722 95352,95070,95044
 1.8000e+000 95165  1.3684e+001 -9.2850e+001 -2.0343e+001 36722 95424,94888,94862
 1.8000e+000 95142  2.5415e+001 -6.3006e+001  6.8528e+000 36722 94914,94966,94940
 1.8000e+000 95119 -4.1536e+000 -1.4955e+002  4.6242e+001 36722 94966,95044,95018
 1.8000e+000 95096 -4.1897e+000 -1.3328e+002  3.8000e+001 36722 94966,95018,94992
 1.8000e+000 95306 -3.4121e+000 -8.3160e+001 -1.2185e+001 36722 95424,94862,95280
 1.8000e+000 95329 -3.7824e+000 -8.2486e+001 -5.9668e+000 36722 94914,95280,94966
 1.8000e+000 95378  1.0677e+001 -8.7097e+001 -5.1905e+000 36722 94966,95280,95352
 1.8000e+000 95401  6.3277e+000 -8.0762e+001 -9.0996e-002 36722 94966,95352,95044
 1.8000e+000 95450 -1.2969e+001 -9.7127e+001 -2.4606e+001 36722 94914,94888,95424
 1.8000e+000 95473 -1.7155e+001 -9.2270e+001 -1.7279e+001 36722 94914,95424,95280
 1.8000e+000 95522  9.1477e-001 -9.0940e+001 -3.7370e+000 36722 95070,95280,95496
 1.8000e+000 95545  1.7284e+000 -9.2227e+001 -4.6052e+000 36722 95070,95496,94836
 1.8000e+000 96130 -2.6245e+001 -5.6718e+001  7.5485e+000 36268 96153,95911,95859
 1.8000e+000 96107 -3.0437e+001 -7.4366e+001  5.5790e+000 36268 96153,95859,95807
 1.8000e+000 96084 -2.6268e+001 -7.0432e+001 -4.4428e-001 36268 95807,95859,95833
 1.8000e+000 96061 -3.5577e+001 -1.1542e+002  1.7545e+001 36268 95911,95989,95937
 1.8000e+000 96038 -1.6991e+001 -5.2427e+001  9.2557e+000 36268 95859,95911,95885
 1.8000e+000 96015 -1.5193e+001 -9.3754e+001  6.7149e+000 36268 95937,95989,95963
 1.8000e+000 96179 -1.5448e+001 -7.3130e+001  1.1704e+001 36268 95989,95911,96153
 1.8000e+000 96202 -2.3281e+001 -9.6010e+001  8.8560e+000 36268 95989,96153,95807
 1.8000e+000 96531  1.5424e+001 -9.9791e+001  8.3805e-002 35728 96358,96410,96384
 1.8000e+000 96508 -2.5245e+001 -1.2303e+002  9.8105e+000 35728 96332,96410,96358
 1.8000e+000 96485 -7.2837e+000 -8.6530e+001  3.8284e+000 35728 96332,96436,96410
 1.8000e+000 96462  9.8801e+000 -6.7646e+001 -9.5702e+000 35728 96306,96436,96332
 1.8000e+000 96860 -1.9290e+001 -9.0169e+001 -1.3286e+001 35324 96687,96765,96713
 1.8000e+000 96837 -3.8735e+001 -1.3319e+002 -7.0175e+000 35324 96661,96765,96687
 1.8000e+000 96814 -4.1938e+001 -1.0488e+002 -6.9558e+000 35324 96713,96765,96739
 1.8000e+000 96791 -3.7697e+001 -1.5961e+002 -1.4176e+001 35324 96635,96765,96661
 1.8000e+000 97366 -4.6384e+001 -1.2418e+002 -5.2363e+000 34920 97389,97069,97043
 1.8000e+000 97343 -4.1239e+001 -1.1659e+002 -2.4573e+000 34920 97389,97043,97199
 1.8000e+000 97320 -4.2621e+001 -1.1579e+002 -1.2224e+000 34920 97043,97225,97199
 1.8000e+000 97297 -3.4036e+001 -1.5132e+002 -1.3466e+001 34920 97069,97121,97095
 1.8000e+000 97274 -6.5744e+001 -1.0859e+002 -1.2645e+001 34920 97121,97199,97173
 1.8000e+000 97251 -5.8456e+001 -9.0224e+001 -2.5240e+001 34920 97121,97173,97147
 1.8000e+000 97415 -5.3707e+001 -1.2482e+002 -1.6347e+001 34920 97121,97069,97389
 1.8000e+000 97438 -4.5810e+001 -1.0833e+002 -1.2971e+001 34920 97121,97389,97199
 1.8000e+000 97708 -3.5809e+001 -1.1353e+002 -6.5994e+000 34722 97509,97587,97535
 1.8000e+000 97685 -1.7966e+001 -1.1749e+002 -9.3063e+000 34722 97509,97613,97587
 1.8000e+000 97662 -5.6085e+001 -1.3645e+002 -1.5752e+001 34722 97483,97613,97509
 1.8000e+000 97639 -2.0061e+001 -9.3662e+001  1.8817e+001 34722 97535,97587,97561
 1.8000e+000 98216 -1.8557e+001 -1.4104e+002  1.1371e+001 34318 97971,98075,97997
 1.8000e+000 98193 -1.0289e+001 -1.0968e+002  6.2264e+000 34318 97893,98075,97971
 1.8000e+000 98170 -1.2666e+000 -1.0542e+002  1.8492e+000 34318 97893,97971,97919
 1.8000e+000 98147 -7.2937e+000 -1.0761e+002  1.0986e+001 34318 97997,98075,98049
 1.8000e+000 98124 -3.0793e-001 -9.4063e+001 -3.8523e+000 34318 97919,97971,97945
 1.8000e+000 98101 -6.5699e+000 -1.0393e+002  1.5750e+001 34318 97997,98049,98023
 1.8000e+000 98594 -1.4939e+001 -8.1652e+001 -4.3286e+000 33814 98961,98617,98424
 1.8000e+000 98571 -2.1261e+001 -9.0301e+001 -8.3638e-001 33814 98689,98617,98372
 1.8000e+000 98548 -2.1051e+001 -7.1197e+001 -2.8241e+000 33814 99033,98689,98372
 1.8000e+000 98525 -1.3219e+001 -5.5186e+001  2.3350e+001 33814 98761,98476,98450
 1.8000e+000 98502 -1.4773e+001 -8.0237e+001 -4.1505e+000 33814 98961,98424,98398
 1.8000e+000 98643 -3.0332e+001 -8.3706e+001  1.2505e+000 33814 98450,98424,98617
 1.8000e+000 98666 -2.1081e+001 -7.4453e+001  6.7709e+000 33814 98761,98450,98617
 1.8000e+000 98715 -3.2953e+001 -9.5765e+001  1.8422e+000 33814 99161,98689,98320
 1.8000e+000 98738 -2.5732e+001 -1.0413e+002  1.7914e+000 33814 98320,98689,98346
 1.8000e+000 98787 -5.1682e+001 -8.6418e+001  2.2939e+001 33814 98833,98761,98320
 1.8000e+000 98810 -2.9841e+001 -9.8436e+001  7.8439e+000 33814 99161,98320,98761
 1.8000e+000 98859 -2.2231e+001 -6.2031e+001  1.2407e+001 33814 98476,98761,98833
 1.8000e+000 98987 -1.6453e+001 -7.8783e+001 -4.4037e+000 33814 98372,98617,98961
 1.8000e+000 99010 -1.5573e+001 -7.6402e+001 -4.0624e+000 33814 98372,98961,98398
 1.8000e+000 99059 -4.5715e+001 -1.2227e+002 -1.4380e+001 33814 98346,98689,99033
 1.8000e+000 99187 -2.8808e+001 -8.6412e+001  2.5632e+000 33814 98617,98689,99161
 1.8000e+000 99210 -2.6083e+001 -9.0209e+001  8.8818e+000 33814 98617,99161,98761
 1.8000e+000 99588 -3.5228e+001 -8.0954e+001 -5.6839e+000 33566 99366,99444,99392
 1.8000e+000 99565 -2.0242e+001 -7.5872e+001 -1.5623e+000 33566 99314,99444,99366
 1.8000e+000 99542 -2.9914e+001 -9.3209e+001  2.6155e+000 33566 99314,99366,99340
 1.8000e+000 99519 -1.7309e+001 -8.5467e+001  1.3467e+001 33566 99314,99470,99444
 1.8000e+000 99496 -1.8984e+001 -7.0355e+001 -1.9406e+001 33566 99392,99444,99418
 1.8000e+000 99787 -3.6150e-001 -9.6221e+001 -6.5648e+000 33105 99637,99689,99663
 1.8000e+000 99764 -1.4902e+000 -9.9972e+001 -9.2738e-001 33105 99611,99689,99637
 1.8000e+000 99741 -6.8138e+000 -8.7355e+001  5.5563e+000 33105 99611,99715,99689
 1.8000e+000 100167 -3.3826e+001 -9.5774e+001  1.7890e+001 32651 100190,99971,99919
 1.8000e+000 100144 -1.2172e+001 -7.8384e+001  9.9322e+000 32651 100262,100190,99919
 1.8000e+000 100121 -1.2160e+001 -7.6974e+001  8.2815e+000 32651 100262,99919,100049
 1.8000e+000 100098  4.4850e+000 -6.9325e+001 -6.5229e+000 32651 99893,100049,99919
 1.8000e+000 100075 -6.7199e+000 -9.2814e+001  3.5393e+001 32651 99919,99971,99945
 1.8000e+000 100216 -1.0586e+001 -9.5070e+001  7.8465e+000 32651 99997,99971,100190
 1.8000e+000 100239 -5.9465e+000 -9.1468e+001  3.9357e+000 32651 99997,100190,100023
 1.8000e+000 100288 -7.4971e+000 -8.8654e+001  9.4760e+000 32651 100023,100190,100262
 1.8000e+000 100311  5.1191e+000 -7.9566e+001  2.8455e+000 32651 100023,100262,100049
 1.8000e+000 100608 -1.8833e+001 -1.0854e+002  6.2683e+000 32254 100386,100490,100464
 1.8000e+000 100585 -3.5012e+001 -1.0405e+002 -9.7435e+000 32254 100360,100490,100386
 1.8000e+000 100562  3.0298e+001 -1.2295e+002 -8.2057e+000 32254 100386,100464,100412
 1.8000e+000 100539  2.8546e+001 -7.7335e+001 -7.8480e+000 32254 100334,100490,100360
 1.8000e+000 100516 -6.5349e+000 -6.3206e+001 -4.7813e+001 32254 100412,100464,100438
 1.8000e+000 100758  1.7848e+001 -1.1879e+001  2.4659e+001 31914 100985,100781,100683
 1.8000e+000 100735 -2.3386e+001 -4.7083e+001  6.9729e+000 31914 100853,100781,100657
 1.8000e+000 100807  1.7386e+001 -5.0330e+001  1.6084e+001 31914 100709,100683,100781
 1.8000e+000 100830  3.6125e+001 -4.5495e+001  5.6466e+000 31914 100709,100781,100631
 1.8000e+000 100879  3.1786e+001 -2.7232e+001 -1.4997e+001 31914 100631,100781,100853
 1.8000e+000 101011 -9.4453e+000 -3.9565e+001  1.0348e+001 31914 100657,100781,100985
 1.8000e+000 101191 -1.0899e+001 -1.2442e+002  1.3530e+001 31418 101113,101165,101139
 1.8000e+000 101341 -3.2648e+001 -9.4809e+001 -4.6930e+000 31106 101214,101266,101240
 1.8000e+000 101318 -2.8350e+001 -8.5642e+001 -5.8871e+000 31106 101214,101292,101266
 1.8000e+000 101591 -1.4236e+001 -8.5103e+001  1.8859e+001 30552 101614,101470,101444
 1.8000e+000 101568  1.8218e+001 -7.2912e+001  1.7933e+001 30552 101366,101496,101470
 1.8000e+000 101545 -1.3848e+001 -8.8128e+001  1.7530e+001 30552 101614,101444,101392
 1.8000e+000 101522  2.9034e+001 -6.5857e+001  9.2896e+000 30552 101392,101444,101418
 1.8000e+000 101640 -1.3228e+001 -8.2973e+001  2.0571e+001 30552 101366,101470,101614
 1.8000e+000 101663 -1.2992e+001 -8.5971e+001  1.9170e+001 30552 101366,101614,101392
 1.8000e+000 102301 -3.3462e+001 -1.0925e+002  9.2149e+000 30042 102396,102324,102059
 1.8000e+000 102278 -1.8687e+001 -9.2422e+001  7.0143e+000 30042 102324,101981,101955
 1.8000e+000 102255 -3.9763e+001 -1.0657e+002  1.4544e+001 30042 102396,102059,102033
 1.8000e+000 102232 -2.4437e+001 -7.8734e+001  1.9040e+000 30042 101929,102111,101955
 1.8000e+000 102209 -2.0393e+001 -1.1102e+002 -7.2150e+000 30042 102059,102111,102085
 1.8000e+000 102186 -2.0146e+001 -7.6627e+001  1.0437e+000 30042 101929,102137,102111
 1.8000e+000 102163  4.2142e+001 -6.3407e+001  1.5572e+000 30042 101981,102033,102007
 1.8000e+000 102350 -3.0477e+001 -1.0311e+002 -2.5968e+000 30042 102111,102059,102324
 1.8000e+000 102373 -2.6503e+001 -8.9681e+001 -3.2966e+000 30042 102111,102324,101955
 1.8000e+000 102422 -2.3764e+001 -9.9463e+001  4.6824e+000 30042 101981,102324,102396
 1.8000e+000 102445 -3.0519e+001 -9.6988e+001  1.0066e+001 30042 101981,102396,102033
 1.8000e+000 103000 -1.6663e+001 -1.0914e+002 -3.7661e+000 29730 103023,102706,102654
 1.8000e+000 102977 -2.6413e+001 -1.0567e+002 -1.0231e+001 29730 103023,102654,102810
 1.8000e+000 102954 -4.0067e+001 -1.6489e+002 -1.7001e+001 29730 102732,102810,102784
 1.8000e+000 102931 -5.5564e+001 -1.1455e+002 -1.6431e+001 29730 102628,102810,102654
 1.8000e+000 102908 -1.9623e+001 -1.0538e+002 -5.9881e-001 29730 102654,102706,102680
 1.8000e+000 102885 -2.8064e+001 -1.0768e+002 -4.2926e+001 29730 102732,102784,102758
 1.8000e+000 102862 -5.1803e+001 -1.1216e+002 -1.9227e+001 29730 102628,102836,102810
 1.8000e+000 103049 -2.3539e+001 -1.1937e+002 -7.1630e+000 29730 102732,102706,103023
 1.8000e+000 103072 -2.9160e+001 -1.0966e+002 -1.2253e+001 29730 102732,103023,102810
 1.8000e+000 103222 -2.9407e+000 -6.0675e+001 -2.0334e+001 29226 103095,103147,103121
 1.8000e+000 103199 -2.2545e+001 -9.9216e+001 -4.7256e+000 29226 103095,103173,103147
 1.8000e+000 103730 -2.1662e+001 -9.1518e+001 -1.8961e+000 28822 103537,103589,103563
 1.8000e+000 103707 -2.5585e+001 -1.0179e+002 -6.7862e-001 28822 103433,103589,103537
 1.8000e+000 103684 -5.3296e+001 -1.0776e+002 -9.6988e+000 28822 103433,103537,103459
 1.8000e+000 103661 -2.4372e+001 -1.1178e+002 -7.9460e-001 28822 103407,103589,103433
 1.8000e+000 103638 -3.6691e+001 -6.0460e+001  6.8851e+000 28822 103459,103511,103485
 1.8000e+000 103615 -1.7627e+001 -6.6415e+001  9.8188e+000 28822 103459,103537,103511
 1.8000e+000 103880 -1.4981e+001 -9.3499e+001  7.1518e+000 28368 103975,103903,103779
 1.8000e+000 103857 -1.5199e+001 -1.0895e+002 -1.4357e+000 28368 103903,103753,103831
 1.8000e+000 103929 -1.8551e+001 -1.0254e+002  5.9368e+000 28368 103805,103779,103903
 1.8000e+000 103952 -1.4107e+000 -9.9041e+001  5.1053e+000 28368 104105,103903,103831
 1.8000e+000 104001 -2.2233e+001 -1.0091e+002 -6.1195e-001 28368 103753,103903,103975
 1.8000e+000 104131 -1.9608e+001 -1.0527e+002  6.8045e+000 28368 103805,103903,104105
 1.8000e+000 104539 -1.3219e+001 -6.3232e+001  8.6126e+000 28028 104562,104340,104314
 1.8000e+000 104516 -1.8829e+001 -4.3906e+001  1.6460e+001 28028 104634,104562,104314
 1.8000e+000 104493 -2.1962e+001 -6.6009e+001 -4.6849e+000 28028 104762,104366,104340
 1.8000e+000 104470 -1.8028e+001 -6.4583e+001 -1.6346e+001 28028 104366,104418,104392
 1.8000e+000 104588 -2.2468e+001 -7.1823e+001  4.7348e-001 28028 104762,104340,104562
 1.8000e+000 104611 -3.3159e+001 -5.4369e+001  6.3156e+000 28028 104418,104562,104444
 1.8000e+000 104660 -3.9503e+001 -5.6789e+001  8.6385e+000 28028 104444,104562,104634
 1.8000e+000 104788 -2.5314e+001 -5.8282e+001 -3.8940e+000 28028 104418,104366,104762
 1.8000e+000 104811 -2.3765e+001 -6.1506e+001  1.3043e+000 28028 104418,104762,104562
 1.8000e+000 105010  1.7381e+001 -6.4511e+001  1.6774e+001 27324 105033,104886,104860
 1.8000e+000 104987  1.1045e+001 -6.6213e+001  1.9283e+001 27324 105033,104860,104834
 1.8000e+000 104964  1.4841e+001 -6.8283e+001  1.5377e+001 27324 105105,104912,104886
 1.8000e+000 105059  1.5921e+001 -6.7016e+001  1.5838e+001 27324 105105,104886,105033
 1.8000e+000 105082  1.4647e+001 -5.7382e+001  1.8575e+001 27324 104938,105033,104834
 1.8000e+000 105131  1.0342e+001 -6.7074e+001  1.2468e+001 27324 104938,104912,105105
 1.8000e+000 105154  1.3179e+001 -6.3192e+001  1.3718e+001 27324 104938,105105,105033
 1.8000e+000 105402 -7.4599e+001 -1.0208e+002 -4.5246e+000 27012 105229,105281,105255
 1.8000e+000 105379 -5.4267e+001 -9.4260e+001 -8.9213e+000 27012 105229,105307,105281
 1.8000e+000 105356 -3.7055e+001 -9.0608e+001 -7.2101e+000 27012 105177,105307,105229
 1.8000e+000 105333 -4.4119e+001 -4.8062e+001 -3.2572e+001 27012 105177,105229,105203
 1.8000e+000 105603  7.2063e+000 -3.0775e+001  1.0072e+001 26508 105626,105453,105427
 1.8000e+000 105580  8.5575e+000 -2.6900e+001 -5.1135e+000 26508 105626,105427,105505
 1.8000e+000 105557  7.7566e+001  3.7552e+000 -1.5551e+001 26508 105427,105531,105505
 1.8000e+000 105652  1.9972e+001 -2.5157e+001  6.4354e+000 26508 105479,105453,105626
 1.8000e+000 105675  2.2873e+001 -2.3795e+001 -7.3583e+000 26508 105479,105626,105505
 1.8000e+000 106057 -2.2147e+001 -9.0521e+001  1.9606e+001 25947 106080,105887,105861
 1.8000e+000 106034 -1.5025e+001 -8.3525e+001  4.2741e+000 25947 106080,105861,105783
 1.8000e+000 106011 -2.5912e+001 -6.0177e+001  2.9848e+000 25947 105783,105835,105809
 1.8000e+000 105988 -3.3504e+001 -6.2072e+001  5.7960e+000 25947 105783,105861,105835
 1.8000e+000 105965  3.9824e+001 -5.2751e+001 -2.0303e+000 25947 105887,105939,105913
 1.8000e+000 106106 -1.5349e+001 -8.4753e+001  1.2115e+001 25947 105939,105887,106080
 1.8000e+000 106129  4.4678e+000 -6.8137e+001 -5.0500e+000 25947 105939,106080,105783
 1.8000e+000 106714 -3.5107e+001 -6.4727e+001 -2.3855e+000 25557 106809,106737,106547
 1.8000e+000 106691 -3.4634e+001 -7.0700e+001  1.9696e+000 25557 106737,106417,106391
 1.8000e+000 106668 -3.2303e+001 -6.3629e+001 -2.8564e+000 25557 106809,106547,106495
 1.8000e+000 106645 -4.7144e+001 -1.0617e+002  5.3895e+000 25557 106417,106495,106469
 1.8000e+000 106622 -3.0860e+001 -6.5869e+001 -6.7084e+000 25557 106495,106547,106521
 1.8000e+000 106599 -2.7105e+001 -1.1772e+002  1.1475e+001 25557 106417,106469,106443
 1.8000e+000 106763 -3.9616e+001 -6.6546e+001  7.5319e-001 25557 106573,106547,106737
 1.8000e+000 106786 -3.1682e+001 -6.3373e+001  2.6867e+000 25557 106573,106737,106391
 1.8000e+000 106835 -3.1614e+001 -6.6447e+001 -1.1615e+000 25557 106417,106737,106809
 1.8000e+000 106858 -2.9832e+001 -6.5952e+001 -1.8847e+000 25557 106417,106809,106495
 1.8000e+000 107364 -2.1398e-001 -5.3976e+001 -2.5209e+001 25153 107459,107387,107171
 1.8000e+000 107341 -2.9617e+001 -6.4238e+001 -3.3413e+000 25153 107387,107119,107067
 1.8000e+000 107318  1.2636e+001 -5.0178e+001 -2.5835e+001 25153 107459,107171,107145
 1.8000e+000 107295 -2.3402e+001 -7.1309e+001 -2.2420e+001 25153 107531,107223,107197
 1.8000e+000 107272 -3.1052e+001 -6.4076e+001  8.4547e-001 25153 107067,107119,107093
 1.8000e+000 107249 -2.5285e+001 -5.5613e+001 -8.4332e+000 25153 107041,107223,107067
 1.8000e+000 107413 -2.3532e+001 -6.9792e+001 -1.6817e+001 25153 107197,107171,107387
 1.8000e+000 107436 -1.3390e+001 -7.0224e+001 -1.8127e+001 25153 107531,107197,107387
 1.8000e+000 107485 -5.7050e+000 -5.8914e+001  2.5310e+000 25153 107119,107387,107459
 1.8000e+000 107508  2.8370e+001 -4.5621e+001  2.6686e+000 25153 107119,107459,107145
 1.8000e+000 107557 -2.8151e+001 -6.5770e+001 -1.0240e+001 25153 107067,107223,107531
 1.8000e+000 107580 -1.4916e+001 -5.9949e+001 -5.2405e+000 25153 107067,107531,107387
 1.8000e+000 107958 -3.2732e+001 -9.2514e+001 -7.8110e+000 24741 107736,107814,107788
 1.8000e+000 107935 -3.4152e+001 -9.6328e+001 -1.1370e+001 24741 107736,107840,107814
 1.8000e+000 107912 -3.8170e+001 -1.1037e+002 -1.2465e+001 24741 107684,107840,107736
 1.8000e+000 107889 -4.0989e+001 -9.0700e+001 -7.9744e+000 24741 107736,107788,107762
 1.8000e+000 107866 -2.8943e+001 -1.4110e+002 -5.0786e+001 24741 107684,107736,107710
 1.8000e+000 108157 -2.0698e+001 -6.5983e+001  6.8866e+000 24237 108180,108059,108007
 1.8000e+000 108134 -4.1610e+000 -4.0686e+001  2.5393e+001 24237 108180,108007,107981
 1.8000e+000 108111 -1.3362e+000 -6.2019e+001  2.5409e+000 24237 108007,108059,108033
 1.8000e+000 108206 -7.9966e+000 -4.4547e+001  2.4682e+001 24237 108085,108059,108180
 1.8000e+000 108229  7.6453e+000 -1.9670e+001  4.3021e+001 24237 108085,108180,107981
 1.8000e+000 108658 -1.4470e+001 -9.3159e+001 -1.2770e+001 23776 108361,108413,108387
 1.8000e+000 108635  2.4966e+000 -8.4359e+001  1.9867e+000 23776 108753,108681,108361
 1.8000e+000 108612  2.0619e+001 -6.1607e+001 -1.3334e+001 23776 108681,108465,108439
 1.8000e+000 108589  3.0173e+000 -8.8220e+001  5.4784e+000 23776 108753,108361,108335
 1.8000e+000 108566 -1.5384e+001 -9.1985e+001  3.3100e+001 23776 108335,108517,108465
 1.8000e+000 108543 -1.4801e+001 -1.0378e+002  3.4660e+001 23776 108465,108517,108491
 1.8000e+000 108707  3.2577e+000 -7.5492e+001  1.5994e+000 23776 108413,108361,108681
 1.8000e+000 108730  3.2098e+000 -8.5641e+001 -4.5644e+000 23776 108413,108681,108439
 1.8000e+000 108779  2.6719e+000 -7.0994e+001  2.5549e-001 23776 108465,108681,108753
 1.8000e+000 108802 -4.6875e-001 -8.0905e+001  3.1743e+000 23776 108465,108753,108335
 1.8000e+000 109023  2.0457e+001 -3.4304e+001  9.7246e+000 23414 108873,108925,108899
 1.8000e+000 109000 -8.0184e-001 -4.1564e+001  9.6376e+000 23414 108847,108925,108873
 1.8000e+000 108977  2.3800e+001  1.1900e+001  3.1578e+000 23414 108847,108951,108925
 1.8000e+000 109474 -3.6618e+001 -8.6745e+001  3.1194e+000 23024 109151,109307,109177
 1.8000e+000 109451 -4.0977e+001 -8.7778e+001  4.5860e+000 23024 109151,109333,109307
 1.8000e+000 109428 -4.1927e+001 -1.1889e+002 -7.6440e+000 23024 109177,109281,109203
 1.8000e+000 109405 -7.4780e+001 -1.1787e+002 -1.1301e+001 23024 109177,109307,109281
 1.8000e+000 109382 -2.7269e+001 -1.0505e+002 -8.0041e-001 23024 109203,109281,109229
 1.8000e+000 109359 -2.4738e+001 -1.0855e+002  1.1164e+000 23024 109229,109281,109255
 1.8000e+000 109820 -2.7933e+001 -7.8512e+001  7.3870e+000 22506 109843,109601,109523
 1.8000e+000 109797 -1.4848e+001 -7.0091e+001  3.6732e+000 22506 109843,109523,109497
 1.8000e+000 109774 -1.2283e+001 -8.2490e+001  5.3633e+000 22506 109915,109653,109627
 1.8000e+000 109751 -1.2670e+001 -7.5447e+001  3.2306e+000 22506 109497,109679,109653
 1.8000e+000 109728 -3.6101e+001 -9.9202e+001 -1.3022e+001 22506 109523,109601,109575
 1.8000e+000 109705 -6.1985e+001 -1.3877e+002 -2.4260e+001 22506 109523,109575,109549
 1.8000e+000 109869 -1.2887e+001 -7.5717e+001  8.8676e+000 22506 109627,109601,109843
 1.8000e+000 109892 -1.0450e+001 -7.9309e+001  6.7437e+000 22506 109915,109627,109843
 1.8000e+000 109941 -1.4210e+001 -8.0038e+001  3.4273e+000 22506 109497,109653,109915
 1.8000e+000 109964 -1.3985e+001 -7.9853e+001  4.3641e+000 22506 109497,109915,109843
 1.8000e+000 110163 -5.9081e+000 -6.9924e+001  9.7525e-001 21936 110186,110039,110013
 1.8000e+000 110140 -1.1421e+001 -6.6617e+001  3.5454e+000 21936 110390,110186,110013
 1.8000e+000 110117 -2.3039e+001 -7.2293e+001 -4.2803e+000 21936 110390,110013,109987
 1.8000e+000 110212 -2.3409e+000 -6.2698e+001 -1.8889e+000 21936 110065,110039,110186
 1.8000e+000 110235  2.3832e+001 -4.2996e+001  2.2339e+001 21936 110258,110186,110091
 1.8000e+000 110284 -2.0225e+001 -7.8495e+001  6.9905e+000 21936 110065,110186,110258
 1.8000e+000 110416  1.3238e+001 -7.8944e+001  8.4152e+000 21936 110091,110186,110390
 1.8000e+000 110439 -1.6248e+000 -8.6690e+001  7.2217e-001 21936 110091,110390,109987
 1.8000e+000 110709 -2.0832e+001 -8.7416e+001  9.0548e-001 21338 110510,110614,110588
 1.8000e+000 110686 -3.5528e+001 -1.0643e+002 -5.6292e+000 21338 110484,110614,110510
 1.8000e+000 110663 -1.9559e+001 -5.6655e+001 -5.9623e+000 21338 110510,110562,110536
 1.8000e+000 110640 -3.4428e+001 -9.0348e+001 -1.4494e+000 21338 110510,110588,110562
 1.8000e+000 111296 -2.0910e+001 -8.9216e+001 -7.0285e-001 20934 111025,111155,111103
 1.8000e+000 111273 -3.1812e+001 -1.3308e+002  2.3457e-002 20934 110999,111155,111025
 1.8000e+000 111250  9.4657e+000 -7.5724e+001 -3.3189e+000 20934 111103,111155,111129
 1.8000e+000 111227 -3.9831e+001 -1.2435e+002 -1.8492e+001 20934 111051,111103,111077
 1.8000e+000 111204 -4.4073e+001 -1.0951e+002 -1.0621e+001 20934 111025,111103,111051
 1.8000e+000 111181 -8.7903e-001 -1.4024e+002  1.3701e+001 20934 110973,111155,110999
 1.8000e+000 111930 -3.3105e+001 -3.6895e+001 -1.7908e+001 20494 111662,111714,111688
 1.8000e+000 111907  1.8487e+001 -4.8706e+001 -1.6271e+001 20494 111584,111714,111662
 1.8000e+000 111884 -2.0886e+001 -6.5009e+001 -9.5026e+000 20494 111584,111766,111714
 1.8000e+000 111861 -7.3316e+000 -1.1000e+002  1.7273e+001 20494 111584,111636,111610
 1.8000e+000 111838 -2.3008e+001 -8.9135e+001  6.3589e+000 20494 111584,111662,111636
 1.8000e+000 111815  9.6312e+000 -5.0177e+001 -4.8515e+000 20494 111558,111766,111584
 1.8000e+000 111792 -1.5896e+001 -5.8618e+001 -1.9093e+001 20494 111714,111766,111740
 1.8000e+000 112249 -3.4325e+001 -1.3480e+002  8.7733e+000 19940 111975,112053,112001
 1.8000e+000 112226 -1.0661e+001 -9.7731e+001 -5.1805e+000 19940 111975,112131,112053
 1.8000e+000 112203  9.3563e+000 -1.2541e+002  0.0000e+000 19940 112053,112105,112079
 1.8000e+000 112180 -2.4786e+001 -1.3573e+002 -3.7010e+000 19940 112053,112131,112105
 1.8000e+000 112157 -1.3031e+001 -1.2302e+002  4.0309e+000 19940 112001,112053,112027
 1.8000e+000 112757 -4.7976e+000 -7.7672e+001 -1.3569e+001 19486 112780,112538,112486
 1.8000e+000 112734 -1.0322e+001 -8.8847e+001 -3.7128e+000 19486 112780,112486,112460
 1.8000e+000 112711 -1.5428e+001 -7.7384e+001 -7.2814e-002 19486 112852,112616,112590
 1.8000e+000 112688  2.7317e+001 -1.0404e+002 -2.0276e+001 19486 112486,112538,112512
 1.8000e+000 112665 -2.9279e+001 -9.8358e+001 -7.7012e+000 19486 112434,112616,112460
 1.8000e+000 112642 -2.6456e+001 -7.7646e+001 -9.9478e+000 19486 112538,112590,112564
 1.8000e+000 112806 -2.3351e+001 -8.6365e+001 -1.1016e+001 19486 112590,112538,112780
 1.8000e+000 112829 -1.0452e+001 -8.1238e+001 -2.5677e+000 19486 112852,112590,112780
 1.8000e+000 112878 -1.7599e+001 -8.2954e+001  9.3711e-001 19486 112460,112616,112852
 1.8000e+000 112901 -1.4541e+001 -8.9045e+001 -4.0903e-001 19486 112460,112852,112780
 1.8000e+000 113252 -6.4045e+001 -1.1218e+002 -1.6342e+000 19096 113105,113157,113131
 1.8000e+000 113229 -5.9411e+001 -8.8901e+001 -7.0022e-001 19096 113053,113157,113105
 1.8000e+000 113206 -5.5330e+001 -8.3355e+001  3.3420e+000 19096 113027,113157,113053
 1.8000e+000 113183 -7.8311e+001 -1.2440e+002  6.3484e+000 19096 113053,113105,113079
 1.8000e+000 113451 -7.7935e+000 -1.0149e+002  3.6030e+001 18642 113327,113379,113353
 1.8000e+000 113428 -2.4013e+001 -1.0031e+002 -2.2447e+000 18642 113301,113379,113327
 1.8000e+000 113405 -2.1498e+000 -9.6233e+001  2.0278e-001 18642 113275,113379,113301
 1.8000e+000 113699 -7.9016e+000 -1.0221e+002 -2.1663e+000 18138 113474,113552,113526
 1.8000e+000 113676  7.8468e+000 -1.0723e+002 -1.0250e+001 18138 113474,113578,113552
 1.8000e+000 113653  5.3743e+000 -1.0570e+002 -9.4088e+000 18138 113474,113604,113578
 1.8000e+000 113630  3.6672e+000 -9.0778e+001  3.5364e+000 18138 113474,113526,113500
 1.8000e+000 113851 -2.0530e+001 -1.1235e+002 -1.2518e+000 17682 113750,113802,113776
 1.8000e+000 113828 -2.0856e+001 -1.0787e+002  7.4498e-001 17682 113724,113802,113750
 1.8000e+000 114383 -2.5443e+001 -8.4553e+001 -2.6221e+000 17106 114086,114242,114164
 1.8000e+000 114360 -5.1817e+001 -9.5453e+001  1.5485e+000 17106 114060,114242,114086
 1.8000e+000 114337 -5.4572e+001 -1.3445e+002  1.2092e+001 17106 114086,114164,114138
 1.8000e+000 114314  1.2017e+000 -1.6710e+002 -2.0810e+001 17106 114190,114242,114216
 1.8000e+000 114291 -4.3284e+001 -1.3573e+002 -6.8080e+000 17106 114164,114242,114190
 1.8000e+000 114268 -3.1391e+001 -1.2556e+002  2.9822e+001 17106 114086,114138,114112
 1.8000e+000 114680 -3.3333e+001 -1.0536e+002  2.7699e+000 16766 114703,114432,114406
 1.8000e+000 114657 -3.6409e+001 -1.0345e+002  9.7216e-003 16766 114703,114406,114510
 1.8000e+000 114634 -3.3843e+001 -7.9991e+001  4.6029e+000 16766 114406,114536,114510
 1.8000e+000 114611 -2.1785e+001 -1.1084e+002 -6.2287e+000 16766 114432,114484,114458
 1.8000e+000 114588 -2.5608e+001 -8.0305e+001  1.3776e+001 16766 114406,114562,114536
 1.8000e+000 114729 -2.1308e+001 -1.0294e+002  3.8491e+000 16766 114484,114432,114703
 1.8000e+000 114752 -3.1750e+001 -1.0610e+002  1.2440e+000 16766 114484,114703,114510
 1.8000e+000 114902  1.8436e+001 -1.0926e+002 -9.3726e+000 16362 114775,114827,114801
 1.8000e+000 114879  7.5943e+001 -8.1994e+001 -2.4086e+001 16362 114775,114853,114827
 1.8000e+000 115054 -1.3155e+002 -2.2956e+002  4.1572e+000 15908 114953,115005,114979
 1.8000e+000 115031 -1.2950e+002 -2.1454e+002  5.7658e+000 15908 114927,115005,114953
 1.8000e+000 115326 -2.6821e+001 -9.4370e+001  1.6063e+001 15251 115101,115179,115153
 1.8000e+000 115303 -1.8008e+001 -8.5307e+001 -3.5934e+000 15251 115101,115231,115179
 1.8000e+000 115280 -2.1368e+001 -9.2828e+001 -2.8080e+000 15251 115179,115231,115205
 1.8000e+000 115257 -1.9866e-001 -1.9132e+002  5.5096e+001 15251 115101,115153,115127
 1.8000e+000 115429 -2.7771e+001 -1.1765e+002  1.6750e+001 421 115351,115403,115377
 1.9000e+000 66230 -8.0926e+000  5.7886e+000  2.7361e+000 65954 66152,66204,66178
 1.9000e+000 66429 -2.0616e+001 -3.7811e+001  3.8656e+000 65642 66279,66331,66305
 1.9000e+000 66406 -5.4402e+000  3.7959e+000  4.3936e+000 65642 66279,66357,66331
 1.9000e+000 66383  2.5230e+000  6.2630e+000  2.7028e+000 65642 66253,66357,66279
 1.9000e+000 66628  6.5516e+000 -9.8308e+001  1.6571e+001 65444 66452,66530,66478
 1.9000e+000 66605  6.4530e+000 -1.0819e+002  1.2826e+001 65444 66452,66556,66530
 1.9000e+000 66582 -1.3916e+001 -8.8234e+001  2.0452e+001 65444 66478,66530,66504
 1.9000e+000 67006 -9.6588e+000 -6.7464e+001  1.3823e+000 65246 66732,66810,66758
 1.9000e+000 66983  1.4233e+001 -4.3507e+001  1.0970e+001 65246 66732,66836,66810
 1.9000e+000 66960 -9.5902e+000 -7.7947e+001 -7.0939e+000 65246 66732,66862,66836
 1.9000e+000 66937 -9.5777e+000 -6.0642e+001  2.6875e+000 65246 66758,66810,66784
 1.9000e+000 66914  4.6441e+000 -8.0851e+001 -2.1268e+001 65246 66732,66888,66862
 1.9000e+000 67107  2.8963e+001 -3.2395e+001 -7.9981e+000 64934 67029,67081,67055
 1.9000e+000 67306  2.2732e+001 -7.3909e+001  6.3881e+000 64736 67156,67208,67182
 1.9000e+000 67283 -2.1988e+000 -5.8970e+001  6.7418e+000 64736 67130,67208,67156
 1.9000e+000 67260 -5.3039e+000 -8.9477e+001  6.7436e+000 64736 67130,67234,67208
 1.9000e+000 67507 -7.8363e+000 -5.5700e+001 -2.3381e+001 64389 67357,67409,67383
 1.9000e+000 67484  3.9758e+000 -8.8734e+001 -1.8379e+001 64389 67357,67435,67409
 1.9000e+000 67461  1.5151e+000 -9.6314e+001 -1.5771e+001 64389 67331,67435,67357
 1.9000e+000 67708 -2.7016e+000 -6.3615e+001  6.9614e+000 63985 67731,67584,67558
 1.9000e+000 67685 -1.3053e+001 -3.8459e+001  2.8656e+000 63985 67731,67558,67636
 1.9000e+000 67662 -1.7316e+001 -4.1945e+001  6.0557e-001 63985 67532,67636,67558
 1.9000e+000 67757 -7.6639e+000 -7.5989e+001  4.8652e+000 63985 67610,67584,67731
 1.9000e+000 67780 -2.2631e+001 -5.8042e+001 -6.4078e-001 63985 67610,67731,67636
 1.9000e+000 67981  1.3442e+001 -1.8422e+001  8.3175e+000 63787 67857,67909,67883
 1.9000e+000 67958 -9.0221e+000 -2.8553e+001  1.2577e+001 63787 67831,67909,67857
 1.9000e+000 67935 -1.0761e+001  1.2039e+001  4.0003e+000 63787 67805,67909,67831
 1.9000e+000 68231  2.3739e+001 -6.6812e+001  8.8457e+000 63589 68254,68084,68032
 1.9000e+000 68208  2.6626e+001 -4.1814e+001  1.0074e+001 63589 68254,68032,68006
 1.9000e+000 68185  1.2188e+001 -5.0908e+001 -5.9336e+000 63589 68326,68136,68110
 1.9000e+000 68162  5.6240e+001 -5.0230e+001 -2.9106e-001 63589 68032,68084,68058
 1.9000e+000 68280  4.2989e+001 -4.7383e+001 -1.0822e-001 63589 68110,68084,68254
 1.9000e+000 68303  1.7467e+001 -4.8416e+001 -4.1925e-001 63589 68326,68110,68254
 1.9000e+000 68352  1.4461e+001 -3.9526e+001  4.1702e+000 63589 68006,68136,68326
 1.9000e+000 68375  2.0944e+001 -3.9114e+001  9.6111e+000 63589 68006,68326,68254
 1.9000e+000 68836  4.8769e+001 -1.5104e+001  2.2404e+001 63128 68859,68588,68562
 1.9000e+000 68813 -1.1767e+000 -3.1793e+001  2.1123e+001 63128 68859,68562,68692
 1.9000e+000 68790 -8.1863e+000 -4.2246e+001 -1.6316e+001 63128 68614,68692,68666
 1.9000e+000 68767 -2.6523e+001 -4.4767e+001  1.4101e+001 63128 68562,68718,68692
 1.9000e+000 68744 -5.8317e+000 -3.7744e+001 -2.1319e+001 63128 68614,68666,68640
 1.9000e+000 68885  5.0905e+001 -1.4336e+001 -2.1868e+001 63128 68614,68588,68859
 1.9000e+000 68908  5.7129e+000 -2.7353e+001 -2.2267e+001 63128 68614,68859,68692
 1.9000e+000 69237  3.3869e+000 -5.7906e+001  4.3772e+000 62731 69064,69116,69090
 1.9000e+000 69214 -1.8743e+000 -7.0803e+001  9.6909e-001 62731 69064,69142,69116
 1.9000e+000 69191 -1.1734e+001 -1.1053e+002  3.2608e-001 62731 69038,69142,69064
 1.9000e+000 69168 -5.1980e-001 -8.7324e+001  5.8689e+000 62731 69012,69142,69038
 1.9000e+000 69539 -1.2285e-002  5.8022e+000  6.6451e-001 62433 69389,69467,69441
 1.9000e+000 69516  1.2667e+000 -1.7930e+000  2.0566e+000 62433 69363,69467,69389
 1.9000e+000 69493 -8.3022e-001 -1.4947e+000  3.7191e+000 62433 69389,69441,69415
 1.9000e+000 69966  4.4197e-001 -2.7391e+001 -8.7152e-001 62235 69989,69773,69721
 1.9000e+000 69943  3.9227e+000 -5.7590e+001 -2.9947e+001 62235 70061,69989,69721
 1.9000e+000 69920  1.1966e+001 -9.9552e+001 -2.0945e+001 62235 70061,69721,69643
 1.9000e+000 69897 -6.3412e+000 -1.3526e+001 -3.1933e+000 62235 69721,69773,69747
 1.9000e+000 69874 -5.4444e+001 -2.5279e+002 -1.0272e+001 62235 69643,69721,69695
 1.9000e+000 69851  4.2114e+001  8.2638e+001 -2.8339e+001 62235 69643,69695,69669
 1.9000e+000 70015 -5.2083e+000 -6.4761e+001 -1.8696e+001 62235 69799,69773,69989
 1.9000e+000 70038 -3.0384e+001 -8.2156e+001 -4.2001e+001 62235 69799,69989,69825
 1.9000e+000 70087 -2.5261e+001 -9.7502e+001 -1.6047e+001 62235 69825,69989,70061
 1.9000e+000 70110  3.8977e+000 -1.1846e+002 -1.4694e+001 62235 69825,70061,69643
 1.9000e+000 70260 -2.8587e+000 -6.4187e+001  3.3722e+000 62037 70133,70185,70159
 1.9000e+000 70237 -1.1729e+001 -8.9108e+001  1.2101e+000 62037 70133,70211,70185
 1.9000e+000 70640 -4.7287e+000 -4.6430e+001  6.2044e+000 61583 70735,70663,70418
 1.9000e+000 70617 -1.0919e+001 -6.7457e+001  5.3935e+000 61583 70663,70366,70522
 1.9000e+000 70594 -2.6800e+000 -3.1211e+001 -7.1634e-001 61583 70735,70418,70392
 1.9000e+000 70571 -5.8453e+000 -5.2722e+001  1.3397e+001 61583 70418,70496,70444
 1.9000e+000 70548 -2.3317e+001 -3.2512e+001  1.1542e+001 61583 70444,70496,70470
 1.9000e+000 70689 -1.4158e+001 -5.5040e+001  2.4379e+000 61583 70496,70418,70663
 1.9000e+000 70712 -2.3125e+001 -4.0557e+001  4.6455e+000 61583 70496,70663,70522
 1.9000e+000 70761  7.7949e+000 -3.6229e+001 -1.0537e+001 61583 70366,70663,70735
 1.9000e+000 70784  2.9469e+000 -2.4326e+001 -1.6028e+001 61583 70366,70735,70392
 1.9000e+000 71054  6.6347e+000 -3.9071e+001  1.2360e+001 61313 71077,70881,70855
 1.9000e+000 71031  1.4937e+001 -2.7274e+001  1.7838e+001 61313 71077,70855,70829
 1.9000e+000 71008 -8.7555e+000 -2.4382e+001  1.2184e+001 61313 70829,70959,70933
 1.9000e+000 70985  1.5238e+001 -3.2306e+001 -5.5557e+000 61313 70881,70933,70907
 1.9000e+000 71103 -5.6283e-001 -3.3675e+001  4.7698e+000 61313 70933,70881,71077
 1.9000e+000 71126  6.5455e+000 -2.7021e+001  9.3404e+000 61313 70933,71077,70829
 1.9000e+000 71604 -2.7349e+001 -7.6762e+001  8.2749e-001 60909 71627,71232,71414
 1.9000e+000 71581 -3.2270e+001 -7.0230e+001 -8.0511e+000 60909 71232,71440,71414
 1.9000e+000 71558 -1.7756e+001 -7.0480e+001  4.5981e+000 60909 71627,71414,71336
 1.9000e+000 71535  1.4952e+001 -1.0784e+002  1.3156e+001 60909 71362,71414,71388
 1.9000e+000 71512 -2.9301e+001 -1.0109e+002  2.6560e+000 60909 71336,71414,71362
 1.9000e+000 71489 -9.2661e+000 -5.5253e+001 -1.6253e-001 60909 71258,71336,71310
 1.9000e+000 71466 -2.0331e+001 -6.3253e+001  3.6385e+000 60909 71258,71310,71284
 1.9000e+000 71653 -3.1848e+001 -6.8587e+001  5.0330e+000 60909 71258,71232,71627
 1.9000e+000 71676 -2.5128e+001 -6.5601e+001  6.6099e+000 60909 71258,71627,71336
 1.9000e+000 71875 -1.4069e+001 -7.5780e+001  4.7557e+000 60611 71898,71725,71699
 1.9000e+000 71852 -2.7588e+001 -5.7415e+001  2.0051e+001 60611 71898,71699,71803
 1.9000e+000 71829  7.7092e-001 -2.5486e+001  2.5787e+001 60611 71970,71751,71725
 1.9000e+000 71924 -1.5298e+001 -5.3214e+001  1.0500e+001 60611 71970,71725,71898
 1.9000e+000 71947 -3.2645e+000 -4.0192e+001  4.0294e+000 60611 71777,71898,71803
 1.9000e+000 71996  2.0163e+001 -5.5659e+001  3.0445e+001 60611 71777,71751,71970
 1.9000e+000 72019  1.9841e+001 -5.9828e+001  1.9817e+001 60611 71777,71970,71898
 1.9000e+000 72576 -2.7858e+001 -1.1542e+002  2.8192e+001 60142 72599,72256,72230
 1.9000e+000 72553 -1.0222e+001 -9.4883e+001  1.7546e+001 60142 72671,72599,72230
 1.9000e+000 72530 -2.7522e+001 -7.6466e+001  1.7598e+000 60142 72671,72230,72204
 1.9000e+000 72507 -3.8722e+001 -4.3826e+001  1.7845e+001 60142 72743,72360,72334
 1.9000e+000 72484 -3.4124e+001 -7.4426e+001  2.0879e+001 60142 72815,72282,72256
 1.9000e+000 72461  1.5458e+001 -5.1755e+001  2.6269e+001 60142 72887,72308,72282
 1.9000e+000 72438 -3.2749e+001 -1.1720e+002 -4.1701e+000 60142 72204,72412,72386
 1.9000e+000 72625 -2.9222e+001 -9.3232e+001  7.9517e+000 60142 72815,72256,72599
 1.9000e+000 72648 -2.8375e+001 -6.6947e+001  1.3588e+001 60142 72743,72334,72599
 1.9000e+000 72697 -2.5657e+001 -1.2148e+002  1.0815e+001 60142 72386,72599,72671
 1.9000e+000 72720 -3.9045e+001 -1.0161e+002 -1.1439e+000 60142 72386,72671,72204
 1.9000e+000 72769 -4.7984e+000 -6.1829e+001  6.3040e+001 60142 72386,72360,72743
 1.9000e+000 72792 -1.4072e+001 -1.1359e+002  3.6354e+001 60142 72386,72743,72599
 1.9000e+000 72841 -1.4887e+001 -6.4905e+001  2.4506e+001 60142 72887,72282,72815
 1.9000e+000 72864 -3.0182e+001 -7.3447e+001  1.6307e+001 60142 72334,72815,72599
 1.9000e+000 72913 -2.3814e+001 -5.2238e+001  1.3043e+001 60142 72334,72308,72887
 1.9000e+000 72936 -3.4261e+001 -5.6899e+001  9.7075e+000 60142 72334,72887,72815
 1.9000e+000 73491 -1.4522e+001 -1.0984e+002 -2.2747e+001 59738 73145,73327,73171
 1.9000e+000 73468  3.8731e+001 -5.1073e+001 -3.3999e-001 59738 73119,73327,73145
 1.9000e+000 73445 -6.9635e+000 -5.3308e+001 -5.3170e+000 59738 73171,73327,73301
 1.9000e+000 73422  3.2839e+000 -6.5340e+001  1.6275e+000 59738 73514,73275,73249
 1.9000e+000 73399 -1.4985e+001 -6.4119e+001  3.6542e+000 59738 73586,73514,73249
 1.9000e+000 73376 -1.2072e+001 -2.9159e+001  2.4837e+001 59738 73197,73249,73223
 1.9000e+000 73353 -1.3439e+001 -6.5860e+001  9.9095e+000 59738 73586,73249,73197
 1.9000e+000 73540 -1.2501e+001 -9.0361e+001 -8.5200e+000 59738 73301,73275,73514
 1.9000e+000 73563 -7.4204e+000 -5.9758e+001 -5.1100e+000 59738 73301,73514,73171
 1.9000e+000 73612 -1.0537e+001 -5.3411e+001  3.8965e+000 59738 73171,73514,73586
 1.9000e+000 73635 -9.6822e+000 -5.7178e+001  9.4322e+000 59738 73171,73586,73197
 1.9000e+000 73964 -1.6066e+000 -7.2666e+001  6.7133e+000 59334 73791,73843,73817
 1.9000e+000 73941  7.2021e+000 -7.9328e+001  3.2208e+000 59334 73791,73869,73843
 1.9000e+000 73918 -1.5838e+001 -1.3566e+002  9.6432e+000 59334 73739,73869,73791
 1.9000e+000 73895  2.4823e+001 -1.6309e+002  1.0756e+001 59334 73739,73791,73765
 1.9000e+000 74261 -1.9113e+001 -9.7884e+001  2.0639e+001 58630 74065,74117,74091
 1.9000e+000 74238 -2.3257e+001 -6.3746e+001  1.7809e+001 58630 74356,74284,74065
 1.9000e+000 74215 -1.3535e+001 -3.6291e+001  1.0743e+001 58630 74284,74013,73987
 1.9000e+000 74192 -2.2815e+001 -6.0904e+001  1.4960e+001 58630 74356,74065,74039
 1.9000e+000 74169 -5.1144e+000 -5.5820e+001 -9.4560e+000 58630 73987,74143,74117
 1.9000e+000 74310 -1.3415e+001 -9.3467e+001  2.3170e+001 58630 74117,74065,74284
 1.9000e+000 74333 -2.1936e+000 -6.0541e+001  1.0865e+001 58630 74117,74284,73987
 1.9000e+000 74382 -1.7816e+001 -6.5312e+001  1.3469e+001 58630 74013,74284,74356
 1.9000e+000 74405 -1.6923e+001 -6.1778e+001  1.0553e+001 58630 74013,74356,74039
 1.9000e+000 74815  1.7025e+000 -3.6305e+001 -1.4030e+001 58226 74590,74642,74616
 1.9000e+000 74792 -9.0123e+000 -5.8216e+001 -1.0305e+001 58226 74590,74694,74642
 1.9000e+000 74769  4.2828e+001 -7.7957e+001  8.0270e-001 58226 74590,74720,74694
 1.9000e+000 74746 -7.3355e+000 -4.1521e+001 -9.0209e+000 58226 74642,74694,74668
 1.9000e+000 75014  2.4015e+001 -7.5027e+001 -1.5121e+000 57786 75037,74864,74838
 1.9000e+000 74991  1.7044e+001 -4.5122e+001  1.2899e+001 57786 75037,74838,74916
 1.9000e+000 74968  2.3600e+001 -4.9831e+001  2.5530e+001 57786 74838,74942,74916
 1.9000e+000 75063  1.0175e+001 -1.0377e+002 -1.1319e+001 57786 74890,74864,75037
 1.9000e+000 75086  8.1627e+000 -6.9027e+001  4.4228e+000 57786 74890,75037,74916
 1.9000e+000 75368  1.1919e+001 -3.4960e+001  9.3099e+000 57496 75192,75270,75218
 1.9000e+000 75345  4.1876e+001 -1.8118e+001  1.7775e+001 57496 75192,75296,75270
 1.9000e+000 75322  2.6507e+000 -4.2161e+001  3.7966e+000 57496 75218,75270,75244
 1.9000e+000 75648 -3.5338e+000 -5.3860e+001  2.5179e+000 57206 75472,75550,75498
 1.9000e+000 75625  6.2024e-001 -3.8843e+001  1.9048e+000 57206 75472,75576,75550
 1.9000e+000 75602  2.6441e+001 -3.9031e+001  4.0067e+000 57206 75671,75550,75524
 1.9000e+000 75697 -1.9381e+001 -5.9895e+001 -8.5350e+000 57206 75498,75550,75671
 1.9000e+000 76154  1.5892e+001 -6.6979e+001 -1.1524e+001 56802 75958,76010,75984
 1.9000e+000 76131  1.2614e+001 -4.5469e+001 -6.3963e+000 56802 75932,76010,75958
 1.9000e+000 76108  2.2261e+001 -7.2669e+001  2.1539e+001 56802 75906,76010,75932
 1.9000e+000 76085  3.3215e+000 -2.7531e+001  1.9069e+001 56802 75880,76010,75906
 1.9000e+000 76062  1.4093e+001 -3.0070e+001 -1.6353e+000 56802 75880,76036,76010
 1.9000e+000 76505  8.1430e+000 -3.6469e+000  9.8360e+000 56504 76306,76384,76332
 1.9000e+000 76482  2.9178e+001  2.5614e+001 -2.4944e+000 56504 76306,76410,76384
 1.9000e+000 76459 -5.5997e+000 -1.2411e+001  5.8008e+000 56504 76332,76384,76358
 1.9000e+000 76436 -4.4047e+000  2.1591e+001  3.8552e+000 56504 76280,76410,76306
 1.9000e+000 77011  3.8859e+000 -3.3629e+001 -1.0779e+001 56050 76740,76818,76792
 1.9000e+000 76988  1.2775e+001 -3.0390e+001 -9.0920e+000 56050 76714,76818,76740
 1.9000e+000 76965 -1.3420e+001 -4.6589e+001 -3.8403e-001 56050 76688,76818,76714
 1.9000e+000 76942 -1.0815e+001 -3.4708e+001 -2.3805e+000 56050 76688,76844,76818
 1.9000e+000 76919 -2.3868e+000 -2.6913e+001 -1.0265e+001 56050 76740,76792,76766
 1.9000e+000 76896 -1.7253e+001 -6.0500e+001 -5.3274e+000 56050 76688,76870,76844
 1.9000e+000 77517 -1.8417e+001 -5.3007e+001  2.7209e+000 55738 77220,77350,77324
 1.9000e+000 77494 -2.0971e+001 -6.3693e+001 -5.7069e+000 55738 77220,77376,77350
 1.9000e+000 77471 -9.4840e+000 -4.0018e+001 -2.0802e+000 55738 77194,77376,77220
 1.9000e+000 77448 -1.5405e+001 -1.8627e+001  3.0259e+000 55738 77220,77298,77246
 1.9000e+000 77425 -9.4831e+000 -3.9138e+001 -7.3339e+000 55738 77220,77324,77298
 1.9000e+000 77402 -2.8117e+000 -1.2953e+001  6.2865e+000 55738 77246,77298,77272
 1.9000e+000 78064 -1.7029e+001 -1.3322e+002  8.4027e-001 55227 78231,78087,77773
 1.9000e+000 78041 -2.1878e+001 -1.8167e+002  1.2457e+001 55227 78087,77695,77643
 1.9000e+000 78018 -3.1633e+001 -1.7331e+002  1.5787e+001 55227 78159,77799,77773
 1.9000e+000 77995 -2.3241e+001 -1.1133e+002  4.4321e+000 55227 78231,77773,77721
 1.9000e+000 77972 -3.9033e+001 -6.5202e+001  4.2422e+001 55227 77643,77695,77669
 1.9000e+000 77949 -4.8448e+001 -9.4121e+001  2.5438e+001 55227 77643,77877,77851
 1.9000e+000 77926 -2.5891e+001 -1.4629e+002  3.1283e+001 55227 77799,77851,77825
 1.9000e+000 77903 -1.7718e+001 -8.7732e+001 -9.9674e+000 55227 77721,77773,77747
 1.9000e+000 78113 -2.8951e+001 -1.6475e+002  1.6898e+001 55227 78159,77773,78087
 1.9000e+000 78136  9.3211e+000 -1.0956e+002  3.3915e+001 55227 77851,78087,77643
 1.9000e+000 78185 -3.8337e+001 -1.5836e+002  1.1209e+001 55227 77851,77799,78159
 1.9000e+000 78208 -3.7064e+001 -1.5183e+002  1.1953e+001 55227 77851,78159,78087
 1.9000e+000 78257 -1.8331e+001 -1.6313e+002 -9.3731e+000 55227 77695,78087,78231
 1.9000e+000 78280 -2.4491e+001 -1.3818e+002 -8.5693e+000 55227 77695,78231,77721
 1.9000e+000 78737 -5.3552e+000 -2.6390e+001 -2.0003e+001 54773 78463,78541,78515
 1.9000e+000 78714 -1.4707e+001 -6.4540e+001 -7.2513e+000 54773 78463,78619,78541
 1.9000e+000 78691  3.3855e+000 -9.3791e+000 -2.9085e+001 54773 78463,78515,78489
 1.9000e+000 78668 -2.2036e+001 -4.1303e+001 -5.1314e+000 54773 78541,78593,78567
 1.9000e+000 78645 -8.4540e+000 -5.1633e+001 -9.4456e+000 54773 78541,78619,78593
 1.9000e+000 78838  1.5858e-001 -3.2062e+001  6.7011e+000 54211 78760,78812,78786
 1.9000e+000 79297 -1.5614e+001 -7.2350e+001  4.6312e+000 53814 79520,79153,79049
 1.9000e+000 79274 -8.5553e+000 -6.5630e+001 -4.4694e-001 53814 79520,79049,79023
 1.9000e+000 79251 -3.3271e+001 -1.0681e+002  1.3584e+001 53814 79320,79101,79049
 1.9000e+000 79228 -2.1425e+001 -7.8457e+001  7.0184e+000 53814 79320,79049,79153
 1.9000e+000 79205  7.0347e-001 -1.0876e+002  1.9520e+001 53814 79049,79101,79075
 1.9000e+000 79346 -2.0184e+001 -8.3188e+001 -8.4343e+000 53814 79392,79320,79127
 1.9000e+000 79369  7.2563e+000 -6.4455e+001 -2.1824e+001 53814 79127,79320,79153
 1.9000e+000 79418 -4.5512e+001 -1.1049e+002 -1.8918e+001 53814 79101,79320,79392
 1.9000e+000 79546 -2.3666e+001 -8.7270e+001  1.9518e+001 53814 79179,79153,79520
 1.9000e+000 79569  4.8665e+000 -7.0686e+001  1.1341e+001 53814 79179,79520,79023
 1.9000e+000 80075 -1.1013e+001 -1.5378e+001  2.8653e+001 53039 80098,79908,79830
 1.9000e+000 80052 -1.9363e+001 -1.1478e+001 -1.1607e+000 53039 80098,79830,79804
 1.9000e+000 80029  2.3173e+001  1.3279e+001  9.6297e+000 53039 79752,79934,79804
 1.9000e+000 80006  3.9382e+001  1.2640e+001  2.2495e+001 53039 79856,79908,79882
 1.9000e+000 79983  1.4437e+001 -2.5119e+001  3.3932e+001 53039 79830,79908,79856
 1.9000e+000 79960 -5.0162e+000 -8.9319e+000 -1.3350e+001 53039 79752,79804,79778
 1.9000e+000 80124  3.6273e+001  6.8233e+000  3.4640e+001 53039 79934,79908,80098
 1.9000e+000 80147  1.7170e+000 -1.1021e+000  3.2189e+000 53039 79934,80098,79804
 1.9000e+000 80555 -2.7836e+001 -5.9923e+001  4.9429e+000 52699 80356,80434,80408
 1.9000e+000 80532  3.0465e+000 -5.4474e+001 -2.3289e+000 52699 80356,80460,80434
 1.9000e+000 80509 -8.8660e+000 -5.1503e+001  3.2763e+000 52699 80330,80460,80356
 1.9000e+000 80486 -2.8205e+001 -6.7199e+001  2.1828e+000 52699 80356,80408,80382
 1.9000e+000 80776  6.2876e+000 -3.0202e+001  2.6901e+000 52295 80600,80678,80626
 1.9000e+000 80753  1.9009e+001 -2.5518e+001  5.0347e-001 52295 80600,80704,80678
 1.9000e+000 80730  2.6961e+001 -2.1255e+001  3.5360e+000 52295 80626,80678,80652
 1.9000e+000 81156 -3.5696e+001 -1.0408e+002  2.0164e+001 51891 81179,80960,80908
 1.9000e+000 81133 -2.8272e+001 -9.0321e+001  7.3395e+000 51891 81179,80908,81012
 1.9000e+000 81110 -4.0163e+001 -9.9974e+001  1.1607e+001 51891 80882,81012,80908
 1.9000e+000 81087 -1.6586e+001 -1.6884e+002  1.1949e+001 51891 80908,80960,80934
 1.9000e+000 81064 -2.6862e+001 -6.4553e+001  1.3701e+001 51891 80882,81038,81012
 1.9000e+000 81205 -2.0084e+001 -1.0189e+002  1.0706e+001 51891 80986,80960,81179
 1.9000e+000 81228 -2.1673e+001 -8.9560e+001 -1.7443e+000 51891 80986,81179,81012
 1.9000e+000 81606 -9.2729e+000 -1.5074e+002 -5.2493e+001 51544 81410,81462,81436
 1.9000e+000 81583 -1.9334e+000 -9.1891e+001 -2.5848e+001 51544 81384,81462,81410
 1.9000e+000 81560 -1.2906e+001 -7.5114e+001 -2.7100e+001 51544 81358,81462,81384
 1.9000e+000 81537 -8.5094e+000 -7.9089e+001 -1.5645e+001 51544 81358,81488,81462
 1.9000e+000 81514  9.0288e+000 -5.9590e+000 -1.0325e+001 51544 81332,81488,81358
 1.9000e+000 81854  4.6352e+001 -6.8978e+001  4.5361e+000 51004 81877,81655,81629
 1.9000e+000 81831  4.0309e+001 -4.6701e+001  1.2421e+000 51004 81877,81629,81759
 1.9000e+000 81808  1.5056e+001 -3.9418e+001  3.7480e+001 51004 81655,81707,81681
 1.9000e+000 81785 -1.2293e+001 -1.4808e+002  7.6444e+000 51004 81707,81759,81733
 1.9000e+000 81903  4.3114e+001 -7.5754e+001  3.1404e+000 51004 81707,81655,81877
 1.9000e+000 81926  2.5580e+001 -6.9865e+001 -5.1321e+000 51004 81707,81877,81759
 1.9000e+000 82257  2.2643e-001 -3.8784e+001 -7.8267e+000 50642 82058,82136,82110
 1.9000e+000 82234 -6.4465e+000 -4.4616e+001 -5.3614e+000 50642 82058,82162,82136
 1.9000e+000 82211 -1.6966e+001 -6.1016e+001  1.8898e+001 50642 82058,82110,82084
 1.9000e+000 82188 -1.0564e+001 -4.5752e+001 -1.3481e+001 50642 82032,82162,82058
 1.9000e+000 82684  1.2811e+001 -8.8408e+001 -1.0497e+000 49931 82779,82707,82465
 1.9000e+000 82661 -3.0195e+000 -1.0547e+002  1.2629e+001 49931 82707,82413,82361
 1.9000e+000 82638  1.0923e+001 -7.9360e+001 -2.7042e+001 49931 82779,82465,82439
 1.9000e+000 82615 -2.4292e+001 -1.2337e+002  1.6266e+001 49931 82465,82543,82491
 1.9000e+000 82592  8.5074e+000 -6.5405e+001  7.7263e+000 49931 82361,82413,82387
 1.9000e+000 82569  1.0029e+001 -8.2319e+001  1.5104e+000 49931 82491,82543,82517
 1.9000e+000 82733 -1.2635e+001 -9.5644e+001  5.0474e+000 49931 82543,82465,82707
 1.9000e+000 82756  4.3705e-001 -6.8591e+001  1.2531e+001 49931 82543,82707,82361
 1.9000e+000 82805 -2.2318e+000 -1.2428e+002  6.7726e-001 49931 82413,82707,82779
 1.9000e+000 82828 -3.7303e+000 -1.1191e+002 -2.3699e+001 49931 82413,82779,82439
 1.9000e+000 83255 -3.8861e+001 -1.5144e+002 -1.2752e+001 49327 82984,83114,83036
 1.9000e+000 83232 -3.9495e+001 -1.5142e+002 -2.6330e+001 49327 82958,83114,82984
 1.9000e+000 83209  5.3142e+000 -1.4795e+002 -1.7245e+001 49327 83036,83114,83088
 1.9000e+000 83186 -1.4541e+001 -1.3698e+002 -6.7494e+000 49327 82984,83036,83010
 1.9000e+000 83163 -2.7108e+001 -1.4885e+002 -2.5716e+001 49327 82932,83114,82958
 1.9000e+000 83140 -5.2555e+001 -2.7077e+002  1.3676e+000 49327 83036,83088,83062
 1.9000e+000 83938 -5.8155e+001 -1.5100e+002  1.7807e+001 48965 83961,83673,83647
 1.9000e+000 83915 -3.1070e+001 -1.0570e+002  5.9643e+000 48965 83961,83647,83543
 1.9000e+000 83892 -3.6969e+001 -1.0978e+002 -1.9355e+001 48965 83517,83725,83543
 1.9000e+000 83869 -3.7945e+000 -1.0864e+002 -2.1591e+001 48965 83673,83725,83699
 1.9000e+000 83846 -3.0705e+001 -9.0284e+001 -7.9877e+000 48965 83543,83647,83621
 1.9000e+000 83823 -1.6692e+001 -8.2551e+001 -1.4083e+001 48965 83543,83621,83569
 1.9000e+000 83800  4.7054e+001 -7.1556e+001 -8.9536e+000 48965 83517,83751,83725
 1.9000e+000 83777 -1.6144e+000 -6.7008e+001  9.2137e+000 48965 83569,83621,83595
 1.9000e+000 83987 -3.1200e+001 -1.3320e+002 -1.0079e+001 48965 83725,83673,83961
 1.9000e+000 84010 -2.5718e+001 -1.2092e+002 -1.6233e+001 48965 83725,83961,83543
 1.9000e+000 84258 -8.2910e+000 -1.2289e+002  3.4788e+001 48447 84281,84059,84033
 1.9000e+000 84235 -4.3436e-001 -1.0143e+002  2.0983e+001 48447 84281,84033,84163
 1.9000e+000 84212  1.1676e+001 -9.4145e+001  9.0888e+000 48447 84059,84111,84085
 1.9000e+000 84189  2.5796e+001 -1.0169e+002  8.6719e+000 48447 84111,84163,84137
 1.9000e+000 84307  3.9915e+000 -1.1805e+002  1.8094e+001 48447 84111,84059,84281
 1.9000e+000 84330  1.6666e+001 -1.0346e+002  4.6814e+000 48447 84111,84281,84163
 1.9000e+000 84529 -4.5611e+000 -9.8302e+001 -1.2615e+000 47993 84552,84405,84379
 1.9000e+000 84506 -3.7095e+001 -1.0773e+002  1.8949e+000 47993 84552,84379,84353
 1.9000e+000 84483 -1.0818e+001 -9.9684e+001 -1.0477e+001 47993 84624,84457,84431
 1.9000e+000 84578  3.6816e-001 -1.0341e+002 -8.6324e+000 47993 84431,84405,84552
 1.9000e+000 84601 -1.1391e+001 -1.0693e+002 -6.0749e+000 47993 84624,84431,84552
 1.9000e+000 84650 -1.0373e+001 -9.5263e+001 -1.0891e+001 47993 84353,84457,84624
 1.9000e+000 84673 -6.6356e+000 -9.3966e+001 -5.1465e+000 47993 84353,84624,84552
 1.9000e+000 85104 -3.6124e+001 -1.2615e+002 -1.8091e+001 47588 85199,85127,84885
 1.9000e+000 85081 -2.0104e+001 -1.1885e+002 -2.1496e+001 47588 85127,84781,84963
 1.9000e+000 85058 -4.6900e+001 -1.2586e+002 -6.3254e+000 47588 85199,84885,84807
 1.9000e+000 85035 -2.6163e+001 -1.1085e+002  3.9455e+001 47588 84885,84937,84911
 1.9000e+000 85012 -4.6747e+001 -9.3489e+001 -1.5556e+001 47588 84807,84885,84833
 1.9000e+000 84989 -3.7578e+001 -8.9402e+001 -1.0914e+001 47588 84833,84885,84859
 1.9000e+000 85153 -2.6025e+001 -1.6290e+002  2.1432e+000 47588 84937,84885,85127
 1.9000e+000 85176  3.8906e+001 -1.3391e+002 -6.9850e+000 47588 84937,85127,84963
 1.9000e+000 85225 -5.5405e+001 -1.3147e+002 -1.4248e+001 47588 84781,85127,85199
 1.9000e+000 85248 -6.3489e+001 -1.3303e+002 -8.4434e-001 47588 84781,85199,84807
 1.9000e+000 85518  2.2499e+000 -1.0007e+002  5.4325e+000 47226 85293,85397,85319
 1.9000e+000 85495 -1.8859e+001 -1.0799e+002  6.3205e+000 47226 85293,85423,85397
 1.9000e+000 85472 -2.5572e+001 -1.1541e+002 -3.6762e+000 47226 85319,85397,85345
 1.9000e+000 85449 -4.9677e+000 -6.5418e+001  2.5293e+000 47226 85345,85397,85371
 1.9000e+000 85849  1.0130e+001 -8.4992e+001 -1.3791e+001 46572 85624,85702,85650
 1.9000e+000 85826 -8.5587e+000 -1.3309e+002 -1.3752e+001 46572 85624,85754,85702
 1.9000e+000 85803  1.8532e+001 -9.8880e+001 -1.5285e+000 46572 85702,85754,85728
 1.9000e+000 85780  3.1316e+001 -7.7906e+001 -8.6128e+000 46572 85650,85702,85676
 1.9000e+000 86070 -9.0709e+001 -1.6110e+002 -3.2789e+000 46374 85920,85972,85946
 1.9000e+000 86047 -7.6317e+001 -1.2658e+002  1.2623e+000 46374 85920,85998,85972
 1.9000e+000 86024 -3.1662e+001 -1.0511e+002  3.0060e+001 46374 85894,85998,85920
 1.9000e+000 86401 -1.9012e+001 -1.0635e+002  2.6347e+000 46034 86424,86280,86228
 1.9000e+000 86378 -1.9123e+001 -1.2624e+002 -3.2972e+000 46034 86424,86228,86176
 1.9000e+000 86355 -2.7225e+001 -1.2257e+002 -2.3753e+001 46034 86176,86228,86202
 1.9000e+000 86332  2.2460e+000 -9.7279e+001 -1.7874e+000 46034 86228,86280,86254
 1.9000e+000 86450 -8.9270e+000 -1.2846e+002  3.7239e+000 46034 86306,86280,86424
 1.9000e+000 86473 -1.3624e+001 -1.4890e+002 -7.2894e+000 46034 86306,86424,86176
 1.9000e+000 87058 -8.2662e+000 -1.0842e+002 -7.5842e+000 45516 86813,86917,86865
 1.9000e+000 87035 -2.2330e+001 -1.3548e+002 -3.9067e-001 45516 86787,86917,86813
 1.9000e+000 87012 -2.2446e+001 -1.4653e+002  7.3823e-001 45516 86735,86917,86787
 1.9000e+000 86989  3.8697e+001 -8.1338e+001 -1.9516e+001 45516 86865,86917,86891
 1.9000e+000 86966  1.0642e+001 -9.9803e+001 -1.5210e+000 45516 86813,86865,86839
 1.9000e+000 86943 -1.2886e+001 -1.6541e+002 -1.6711e+001 45516 86735,86787,86761
 1.9000e+000 87208 -3.0967e+001 -9.4377e+001  7.6294e+000 45226 87231,87133,87107
 1.9000e+000 87185 -1.0612e+000 -9.6703e+001  2.1651e+001 45226 87081,87159,87133
 1.9000e+000 87257  1.7080e+001 -7.9929e+001 -1.1121e+001 45226 87081,87133,87231
 1.9000e+000 87537  1.1023e+001 -1.2705e+002  2.2992e+001 44772 87387,87439,87413
 1.9000e+000 87514 -1.7936e+001 -1.3158e+002  1.0419e+001 44772 87361,87439,87387
 1.9000e+000 87491  2.1566e+001 -1.1831e+002 -1.0629e+000 44772 87361,87465,87439
 1.9000e+000 87996  1.6996e+000 -7.2187e+001 -1.0865e+001 44425 87748,87878,87852
 1.9000e+000 87973  3.3326e+001 -5.7956e+001 -2.3589e+001 44425 87722,87878,87748
 1.9000e+000 87950  4.7474e+001 -9.3377e+001 -1.9545e+001 44425 87800,87852,87826
 1.9000e+000 87927 -6.2009e+000 -9.6777e+001 -2.8875e+000 44425 87748,87852,87800
 1.9000e+000 87904  2.3438e+001 -1.1231e+002  2.4002e+001 44425 87748,87800,87774
 1.9000e+000 88423  1.2717e+001 -1.0125e+002 -9.5246e+000 44078 88590,88230,88204
 1.9000e+000 88400  8.7149e+000 -1.0507e+002 -2.0957e+000 44078 88518,88446,88204
 1.9000e+000 88377  5.7857e+000 -1.0356e+002 -4.3617e+000 44078 88446,88126,88282
 1.9000e+000 88354  1.2749e+001 -1.0723e+002 -6.3405e-001 44078 88518,88204,88178
 1.9000e+000 88331  1.8237e+001 -1.2612e+002  4.0936e+000 44078 88100,88282,88126
 1.9000e+000 88308  1.5468e+001 -8.6310e+001  4.3586e+001 44078 88126,88178,88152
 1.9000e+000 88472  1.2418e+001 -1.0339e+002 -4.6145e+000 44078 88590,88204,88446
 1.9000e+000 88495  5.6903e+000 -1.0726e+002 -6.2701e+000 44078 88256,88446,88282
 1.9000e+000 88544  1.2103e+001 -1.0059e+002 -6.0608e-001 44078 88126,88446,88518
 1.9000e+000 88567  1.4483e+001 -1.0520e+002  1.0744e-001 44078 88126,88518,88178
 1.9000e+000 88616 -4.5697e+001 -1.4574e+002 -3.3892e+001 44078 88256,88230,88590
 1.9000e+000 88639  2.4235e+000 -1.0710e+002 -6.2502e+000 44078 88256,88590,88446
 1.9000e+000 89039 -1.9927e+001 -9.2359e+001  2.8324e-001 43716 88791,88921,88895
 1.9000e+000 89016 -3.4919e+001 -9.0722e+001 -2.2537e+000 43716 88765,88921,88791
 1.9000e+000 88993 -2.4750e+001 -1.1346e+002  1.2429e+001 43716 88817,88895,88869
 1.9000e+000 88970 -7.4048e+001 -1.2247e+002  1.2839e+001 43716 88791,88895,88817
 1.9000e+000 88947  5.9783e+000 -9.5847e+001  5.1082e+000 43716 88817,88869,88843
 1.9000e+000 89496  1.0226e+000 -1.2365e+002 -1.1643e+001 43162 89519,89274,89248
 1.9000e+000 89473  3.7022e+000 -1.1516e+002 -9.6243e+000 43162 89519,89248,89222
 1.9000e+000 89450 -8.6508e+000 -1.0734e+002 -4.1680e+001 43162 89326,89378,89352
 1.9000e+000 89427 -1.2368e+001 -1.4059e+002 -1.3410e+001 43162 89274,89378,89326
 1.9000e+000 89404  1.1295e+001 -9.1101e+001  1.3008e+000 43162 89274,89326,89300
 1.9000e+000 89545 -3.6424e-001 -1.1533e+002 -8.9480e+000 43162 89378,89274,89519
 1.9000e+000 89568  2.9121e+000 -1.0613e+002 -6.7745e+000 43162 89378,89519,89222
 1.9000e+000 89946 -1.0029e+001 -1.2148e+002 -1.7431e+001 42594 90041,89969,89750
 1.9000e+000 89923  1.8951e+001 -9.3513e+001 -2.5432e+001 42594 89969,89698,89828
 1.9000e+000 89900 -3.9928e+000 -1.2679e+002 -1.5192e+001 42594 90041,89750,89724
 1.9000e+000 89877 -4.1776e+001 -1.4627e+002 -2.9600e-001 42594 89750,89802,89776
 1.9000e+000 89854  2.8170e+001 -1.1941e+001 -2.8567e+001 42594 89672,89828,89698
 1.9000e+000 89995 -2.8532e+001 -1.0574e+002 -3.3674e+000 42594 89802,89750,89969
 1.9000e+000 90018  9.2332e+000 -9.2378e+001 -1.7768e+000 42594 89802,89969,89828
 1.9000e+000 90067 -6.0007e+000 -1.0371e+002 -1.5099e+001 42594 89698,89969,90041
 1.9000e+000 90090 -8.7189e+000 -1.2058e+002 -1.0916e+001 42594 89698,90041,89724
 1.9000e+000 90517 -5.2413e+001 -1.5528e+002  5.2012e+000 42140 90540,90220,90194
 1.9000e+000 90494 -4.6575e+001 -1.5343e+002  2.7336e+000 42140 90540,90194,90376
 1.9000e+000 90471 -4.2316e+001 -1.5697e+002  2.2635e+000 42140 90612,90350,90272
 1.9000e+000 90448 -5.5967e+001 -1.7414e+002 -3.7173e+000 42140 90272,90350,90298
 1.9000e+000 90425 -3.7152e+001 -1.4843e+002 -1.9676e+001 42140 90298,90350,90324
 1.9000e+000 90402 -3.4416e+001 -1.5617e+002  3.9199e+001 42140 90220,90272,90246
 1.9000e+000 90566 -4.7076e+001 -1.5722e+002  6.6321e+000 42140 90272,90220,90540
 1.9000e+000 90589 -4.2045e+001 -1.5623e+002  4.1418e+000 42140 90612,90272,90540
 1.9000e+000 90638 -4.4514e+001 -1.5671e+002  2.8628e+000 42140 90376,90350,90612
 1.9000e+000 90661 -4.7755e+001 -1.5799e+002  4.6309e+000 42140 90376,90612,90540
 1.9000e+000 91167 -2.4731e+000 -1.0554e+002 -7.5004e+000 41636 91190,90870,90844
 1.9000e+000 91144 -1.2131e+001 -1.3987e+002 -3.3439e+000 41636 91190,90844,91026
 1.9000e+000 91121  1.8415e+001 -1.0641e+002 -4.5840e+001 41636 90870,90922,90896
 1.9000e+000 91098 -2.6534e+001 -1.2929e+002  9.9900e+000 41636 90922,91026,90948
 1.9000e+000 91075  1.0974e+001 -1.0100e+002 -5.8576e+000 41636 90948,91026,91000
 1.9000e+000 91052 -1.1509e+001 -1.3183e+002  5.4128e+000 41636 90948,91000,90974
 1.9000e+000 91216 -1.3015e+001 -9.2115e+001 -8.0810e+000 41636 90922,90870,91190
 1.9000e+000 91239 -8.2389e+000 -1.0558e+002 -2.0231e+000 41636 90922,91190,91026
 1.9000e+000 91696 -5.0089e+001 -1.1431e+002 -2.2639e+001 40449 91448,91526,91474
 1.9000e+000 91673 -5.3976e+001 -1.2007e+002 -1.3843e+001 40449 91448,91578,91526
 1.9000e+000 91650 -2.8235e+001 -1.0413e+002 -1.2138e+001 40449 91474,91526,91500
 1.9000e+000 91627 -3.2296e+001 -1.2017e+002 -1.7798e+001 40449 91422,91578,91448
 1.9000e+000 91604 -2.6049e+001 -6.4936e+001 -3.0562e+001 40449 91526,91578,91552
 1.9000e+000 92123 -8.8114e+000 -9.4360e+001 -7.7397e+000 39995 92146,91904,91826
 1.9000e+000 92100  3.0361e+001 -8.1934e+001 -3.6898e+001 39995 92146,91826,91800
 1.9000e+000 92077 -9.4026e+000 -9.1720e+001 -8.5336e+000 39995 91826,91904,91852
 1.9000e+000 92054 -3.0250e+001 -1.5515e+002  1.1968e+001 39995 91904,91982,91930
 1.9000e+000 92031 -2.5295e+000 -9.0135e+001 -1.1741e+001 39995 91852,91904,91878
 1.9000e+000 92008 -2.1744e+001 -1.0926e+002  1.2748e+001 39995 91930,91982,91956
 1.9000e+000 92172 -2.2428e+001 -1.0355e+002  2.4704e+000 39995 91982,91904,92146
 1.9000e+000 92195 -5.7894e+000 -1.2928e+002 -1.8809e+001 39995 91982,92146,91800
 1.9000e+000 92652 -8.0001e+000 -6.8876e+001  7.2428e+000 39633 92404,92534,92456
 1.9000e+000 92629 -1.2647e+001 -8.4452e+001  4.4223e+000 39633 92378,92534,92404
 1.9000e+000 92606  1.3987e+001 -5.6291e+001  2.9737e+001 39633 92404,92456,92430
 1.9000e+000 92583 -3.2342e+001 -1.4167e+002  9.4153e+000 39633 92456,92534,92508
 1.9000e+000 92560 -3.8309e+000 -7.1861e+001  2.0232e+001 39633 92456,92508,92482
 1.9000e+000 93079 -1.7300e+001 -9.8586e+001 -9.0718e+000 39093 93102,92808,92756
 1.9000e+000 93056 -1.0467e+001 -8.6591e+001 -1.7411e+001 39093 93102,92756,92938
 1.9000e+000 93033 -1.8051e+001 -1.0959e+002 -3.6823e+000 39093 93174,92912,92834
 1.9000e+000 93010 -4.8102e+001 -1.1666e+002 -6.0617e+000 39093 92834,92912,92860
 1.9000e+000 92987  4.9338e+000 -1.0590e+002 -3.1515e+001 39093 92756,92808,92782
 1.9000e+000 92964 -4.4749e+001 -1.6274e+002 -6.1324e+001 39093 92860,92912,92886
 1.9000e+000 93128 -1.1248e+001 -1.0428e+002 -7.6340e+000 39093 92834,92808,93102
 1.9000e+000 93151 -1.5593e+001 -1.0231e+002 -6.4575e+000 39093 93174,92834,93102
 1.9000e+000 93200 -1.5198e+001 -1.0618e+002 -9.8124e+000 39093 92938,92912,93174
 1.9000e+000 93223 -1.0895e+001 -1.0187e+002 -1.2832e+001 39093 92938,93174,93102
 1.9000e+000 93680 -7.1223e+000 -5.9094e+001 -5.6089e+000 38639 93703,93536,93484
 1.9000e+000 93657 -1.8702e+001 -5.9149e+001 -2.2202e+000 38639 93703,93484,93432
 1.9000e+000 93634 -1.1501e+001 -6.4711e+001  7.2372e+000 38639 93432,93484,93458
 1.9000e+000 93611 -2.2006e+001 -9.1241e+001  2.1685e+000 38639 93484,93536,93510
 1.9000e+000 93588 -3.9899e+001 -4.4024e+001  2.6438e+000 38639 93406,93562,93432
 1.9000e+000 93729 -1.8400e+001 -4.4477e+001 -6.1762e+000 38639 93562,93536,93703
 1.9000e+000 93752 -4.3342e+001 -5.8874e+001  2.7366e+000 38639 93562,93703,93432
 1.9000e+000 94160 -3.2287e+000 -6.0895e+001 -2.0839e+001 38292 93935,94039,93961
 1.9000e+000 94137  2.1430e+000 -6.9867e+001  8.2550e+000 38292 93935,94065,94039
 1.9000e+000 94114 -7.0972e+001 -5.7432e+001 -1.8659e+001 38292 93961,94013,93987
 1.9000e+000 94091 -4.7380e+001 -5.6177e+001 -6.2378e+000 38292 93961,94039,94013
 1.9000e+000 94408 -4.5434e+000 -1.0839e+002 -4.4701e+000 37880 94431,94261,94235
 1.9000e+000 94385  2.9150e-001 -9.0831e+001 -2.5247e+000 37880 94431,94235,94313
 1.9000e+000 94362  1.3524e-001 -8.3686e+001  1.3507e+000 37880 94209,94313,94235
 1.9000e+000 94339  2.3124e+000 -8.4481e+001  1.1663e+001 37880 94183,94313,94209
 1.9000e+000 94457 -1.1323e+001 -9.0755e+001 -9.3648e+000 37880 94287,94261,94431
 1.9000e+000 94480 -8.9510e+000 -7.7326e+001 -5.0505e+000 37880 94287,94431,94313
 1.9000e+000 94728 -1.6008e+001 -1.0337e+002  5.9052e-001 37426 94529,94607,94555
 1.9000e+000 94705 -2.1253e+001 -1.2451e+002  2.3974e+000 37426 94529,94633,94607
 1.9000e+000 94682  3.2027e+001 -1.2321e+002  2.9679e+000 37426 94503,94633,94529
 1.9000e+000 94659 -1.6029e+001 -4.0229e+001 -3.1004e+001 37426 94555,94607,94581
 1.9000e+000 95257  8.7175e+000 -1.0205e+002 -4.9002e+000 36722 95496,95280,94862
 1.9000e+000 95234  3.3809e+001 -9.1343e+001 -4.6460e+000 36722 95496,94862,94836
 1.9000e+000 95211  1.8921e+001 -8.9053e+001  3.5119e+000 36722 95352,95280,95070
 1.9000e+000 95188  2.0341e+001 -7.1620e+001  8.7588e+000 36722 95352,95070,95044
 1.9000e+000 95165  2.0692e+001 -1.0110e+002 -2.2913e+001 36722 95424,94888,94862
 1.9000e+000 95142  3.2785e+001 -6.6607e+001  8.9439e+000 36722 94914,94966,94940
 1.9000e+000 95119 -1.0080e+000 -1.6760e+002  5.2985e+001 36722 94966,95044,95018
 1.9000e+000 95096 -1.4797e-001 -1.4639e+002  4.3480e+001 36722 94966,95018,94992
 1.9000e+000 95306  2.9177e-001 -9.0971e+001 -1.3224e+001 36722 95424,94862,95280
 1.9000e+000 95329 -2.1501e-001 -8.8942e+001 -6.0344e+000 36722 94914,95280,94966
 1.9000e+000 95378  1.6070e+001 -9.5407e+001 -4.7001e+000 36722 94966,95280,95352
 1.9000e+000 95401  1.1340e+001 -8.8761e+001  7.7917e-001 36722 94966,95352,95044
 1.9000e+000 95450 -1.0838e+001 -1.0695e+002 -2.7207e+001 36722 94914,94888,95424
 1.9000e+000 95473 -1.5659e+001 -1.0121e+002 -1.8715e+001 36722 94914,95424,95280
 1.9000e+000 95522  5.4251e+000 -1.0016e+002 -3.5732e+000 36722 95070,95280,95496
 1.9000e+000 95545  6.3650e+000 -1.0168e+002 -4.5943e+000 36722 95070,95496,94836
 1.9000e+000 96130 -2.3277e+001 -5.9192e+001  9.6475e+000 36268 96153,95911,95859
 1.9000e+000 96107 -2.7802e+001 -7.8804e+001  7.5142e+000 36268 96153,95859,95807
 1.9000e+000 96084 -2.0869e+001 -6.9439e+001  2.3421e-001 36268 95807,95859,95833
 1.9000e+000 96061 -3.5519e+001 -1.2791e+002  2.1310e+001 36268 95911,95989,95937
 1.9000e+000 96038 -1.3770e+001 -5.4682e+001  1.1872e+001 36268 95859,95911,95885
 1.9000e+000 96015 -1.4388e+001 -1.0422e+002  9.3338e+000 36268 95937,95989,95963
 1.9000e+000 96179 -1.1435e+001 -7.7416e+001  1.4279e+001 36268 95989,95911,96153
 1.9000e+000 96202 -2.0007e+001 -1.0284e+002  1.1182e+001 36268 95989,96153,95807
 1.9000e+000 96531 -2.1134e-002 -1.2928e+002  7.3791e+000 35728 96358,96410,96384
 1.9000e+000 96508 -3.3165e+001 -1.3808e+002  9.9988e+000 35728 96332,96410,96358
 1.9000e+000 96485 -1.8413e+001 -1.0358e+002  7.9806e+000 35728 96332,96436,96410
 1.9000e+000 96462  5.9083e+000 -7.6160e+001 -1.1706e+001 35728 96306,96436,96332
 1.9000e+000 96860 -1.9037e+001 -9.9448e+001 -1.4183e+001 35324 96687,96765,96713
 1.9000e+000 96837 -4.1106e+001 -1.4757e+002 -5.5370e+000 35324 96661,96765,96687
 1.9000e+000 96814 -4.7287e+001 -1.1986e+002 -5.1720e+000 35324 96713,96765,96739
 1.9000e+000 96791 -3.6978e+001 -1.7973e+002 -1.3862e+001 35324 96635,96765,96661
 1.9000e+000 97366 -4.7450e+001 -1.3329e+002 -1.6486e+000 34920 97389,97069,97043
 1.9000e+000 97343 -4.1281e+001 -1.2285e+002  1.1583e+000 34920 97389,97043,97199
 1.9000e+000 97320 -4.6724e+001 -1.3792e+002  2.1891e+000 34920 97043,97225,97199
 1.9000e+000 97297 -3.8222e+001 -1.6083e+002 -1.3263e+001 34920 97069,97121,97095
 1.9000e+000 97274 -6.6091e+001 -1.1310e+002 -1.3539e+001 34920 97121,97199,97173
 1.9000e+000 97251 -5.6769e+001 -8.4794e+001 -3.3380e+001 34920 97121,97173,97147
 1.9000e+000 97415 -5.6460e+001 -1.3386e+002 -1.6535e+001 34920 97121,97069,97389
 1.9000e+000 97438 -4.5954e+001 -1.1120e+002 -1.3083e+001 34920 97121,97389,97199
 1.9000e+000 97708 -3.7479e+001 -1.2459e+002 -7.8997e+000 34722 97509,97587,97535
 1.9000e+000 97685 -1.6345e+001 -1.3012e+002 -1.0930e+001 34722 97509,97613,97587
 1.9000e+000 97662 -6.1423e+001 -1.5274e+002 -1.8854e+001 34722 97483,97613,97509
 1.9000e+000 97639 -1.8572e+001 -1.0151e+002  2.1132e+001 34722 97535,97587,97561
 1.9000e+000 98216 -2.3861e+001 -1.7402e+002 -1.3062e+001 34318 97971,98075,97997
 1.9000e+000 98193  9.4252e+000 -1.2502e+002  7.9569e+000 34318 97893,98075,97971
 1.9000e+000 98170  1.5554e+001 -1.0442e+002  5.8526e+000 34318 97893,97971,97919
 1.9000e+000 98147 -3.2755e+001 -1.2247e+002  1.0991e+001 34318 97997,98075,98049
 1.9000e+000 98124  1.2377e+001 -8.3318e+001 -5.0299e+000 34318 97919,97971,97945
 1.9000e+000 98101 -4.1449e+001 -1.3677e+002  2.5355e+001 34318 97997,98049,98023
 1.9000e+000 98594 -1.0800e+001 -8.7604e+001 -5.1495e+000 33814 98961,98617,98424
 1.9000e+000 98571 -1.7916e+001 -9.7622e+001 -1.8368e+000 33814 98689,98617,98372
 1.9000e+000 98548 -1.7234e+001 -7.4321e+001 -4.3896e+000 33814 99033,98689,98372
 1.9000e+000 98525 -9.0787e+000 -5.5619e+001  2.7088e+001 33814 98761,98476,98450
 1.9000e+000 98502 -1.1083e+001 -8.5394e+001 -5.0471e+000 33814 98961,98424,98398
 1.9000e+000 98643 -2.6928e+001 -8.9032e+001  1.7454e+000 33814 98450,98424,98617
 1.9000e+000 98666 -1.7258e+001 -7.8296e+001  7.2460e+000 33814 98761,98450,98617
 1.9000e+000 98715 -3.1690e+001 -1.0367e+002  1.6493e+000 33814 99161,98689,98320
 1.9000e+000 98738 -2.4359e+001 -1.1449e+002  2.0262e+000 33814 98320,98689,98346
 1.9000e+000 98787 -5.3392e+001 -9.2264e+001  2.6752e+001 33814 98833,98761,98320
 1.9000e+000 98810 -2.8001e+001 -1.0683e+002  8.7557e+000 33814 99161,98320,98761
 1.9000e+000 98859 -1.9669e+001 -6.4438e+001  1.4721e+001 33814 98476,98761,98833
 1.9000e+000 98987 -1.2070e+001 -8.3678e+001 -5.4490e+000 33814 98372,98617,98961
 1.9000e+000 99010 -1.1350e+001 -8.0111e+001 -5.2316e+000 33814 98372,98961,98398
 1.9000e+000 99059 -4.6747e+001 -1.3580e+002 -1.7626e+001 33814 98346,98689,99033
 1.9000e+000 99187 -2.6803e+001 -9.2587e+001  2.4518e+000 33814 98617,98689,99161
 1.9000e+000 99210 -2.3604e+001 -9.7090e+001  9.9361e+000 33814 98617,99161,98761
 1.9000e+000 99588 -3.4544e+001 -8.7336e+001 -5.7938e+000 33566 99366,99444,99392
 1.9000e+000 99565 -1.9891e+001 -8.1579e+001 -1.6142e+000 33566 99314,99444,99366
 1.9000e+000 99542 -3.0561e+001 -9.9082e+001  3.7618e+000 33566 99314,99366,99340
 1.9000e+000 99519 -1.6457e+001 -9.1115e+001  1.3605e+001 33566 99314,99470,99444
 1.9000e+000 99496 -1.6387e+001 -7.7370e+001 -2.1838e+001 33566 99392,99444,99418
 1.9000e+000 99787 -1.6480e+001 -1.2652e+002  5.8045e+000 33105 99637,99689,99663
 1.9000e+000 99764 -3.5937e+000 -1.1724e+002 -1.3789e+000 33105 99611,99689,99637
 1.9000e+000 99741 -8.2559e+000 -9.7245e+001  6.0672e+000 33105 99611,99715,99689
 1.9000e+000 100167 -3.4746e+001 -1.0208e+002  2.0165e+001 32651 100190,99971,99919
 1.9000e+000 100144 -1.0486e+001 -8.2477e+001  1.1233e+001 32651 100262,100190,99919
 1.9000e+000 100121 -1.0273e+001 -8.1089e+001  9.6884e+000 32651 100262,99919,100049
 1.9000e+000 100098  8.0182e+000 -7.2716e+001 -6.4647e+000 32651 99893,100049,99919
 1.9000e+000 100075 -2.4451e+000 -9.6100e+001  4.0690e+001 32651 99919,99971,99945
 1.9000e+000 100216 -8.7586e+000 -1.0215e+002  7.8688e+000 32651 99997,99971,100190
 1.9000e+000 100239 -2.2728e+000 -9.5793e+001  2.9597e+000 32651 99997,100190,100023
 1.9000e+000 100288 -5.8022e+000 -9.2281e+001  1.0862e+001 32651 100023,100190,100262
 1.9000e+000 100311  6.7675e+000 -8.3408e+001  4.5275e+000 32651 100023,100262,100049
 1.9000e+000 100608 -2.5184e+001 -1.1341e+002 -4.0163e+000 32254 100386,100490,100464
 1.9000e+000 100585 -4.0402e+001 -1.2468e+002 -1.4663e+001 32254 100360,100490,100386
 1.9000e+000 100562 -2.9096e+001 -1.1589e+002 -5.0751e+000 32254 100386,100464,100412
 1.9000e+000 100539  1.2132e+001 -9.8429e+001 -4.3790e+000 32254 100334,100490,100360
 1.9000e+000 100516 -2.8578e+001 -8.0966e+001 -1.1757e+001 32254 100412,100464,100438
 1.9000e+000 100758  2.6482e+001 -5.4235e+000  2.8915e+001 31914 100985,100781,100683
 1.9000e+000 100735 -1.9999e+001 -4.6845e+001  8.1962e+000 31914 100853,100781,100657
 1.9000e+000 100807  2.5098e+001 -5.0887e+001  1.9474e+001 31914 100709,100683,100781
 1.9000e+000 100830  4.6847e+001 -4.5426e+001  6.8835e+000 31914 100709,100781,100631
 1.9000e+000 100879  4.1887e+001 -2.5052e+001 -1.6409e+001 31914 100631,100781,100853
 1.9000e+000 101011 -5.2493e+000 -3.8495e+001  1.2417e+001 31914 100657,100781,100985
 1.9000e+000 101191 -1.2475e+001 -1.3756e+002  1.4004e+001 31418 101113,101165,101139
 1.9000e+000 101341 -3.4010e+001 -1.0386e+002 -5.3719e+000 31106 101214,101266,101240
 1.9000e+000 101318 -2.8576e+001 -9.2436e+001 -7.0266e+000 31106 101214,101292,101266
 1.9000e+000 101591 -1.3708e+001 -9.1823e+001  2.3222e+001 30552 101614,101470,101444
 1.9000e+000 101568  2.3607e+001 -8.1226e+001  2.3061e+001 30552 101366,101496,101470
 1.9000e+000 101545 -1.2541e+001 -9.4282e+001  2.1324e+001 30552 101614,101444,101392
 1.9000e+000 101522  3.8354e+001 -6.6695e+001  1.0710e+001 30552 101392,101444,101418
 1.9000e+000 101640 -1.1687e+001 -8.9886e+001  2.4439e+001 30552 101366,101470,101614
 1.9000e+000 101663 -1.0771e+001 -9.2406e+001  2.2481e+001 30552 101366,101614,101392
 1.9000e+000 102301 -3.1463e+001 -1.1995e+002  1.1281e+001 30042 102396,102324,102059
 1.9000e+000 102278 -1.4503e+001 -9.9581e+001  8.7680e+000 30042 102324,101981,101955
 1.9000e+000 102255 -3.8863e+001 -1.1655e+002  1.7813e+001 30042 102396,102059,102033
 1.9000e+000 102232 -2.2209e+001 -8.4559e+001  1.5853e+000 30042 101929,102111,101955
 1.9000e+000 102209 -1.6791e+001 -1.2456e+002 -8.8433e+000 30042 102059,102111,102085
 1.9000e+000 102186 -1.9336e+001 -8.1427e+001 -3.1352e+000 30042 101929,102137,102111
 1.9000e+000 102163  5.5303e+001 -6.5708e+001  2.3087e+000 30042 101981,102033,102007
 1.9000e+000 102350 -2.8797e+001 -1.1279e+002 -3.3224e+000 30042 102111,102059,102324
 1.9000e+000 102373 -2.3533e+001 -9.6000e+001 -3.8773e+000 30042 102111,102324,101955
 1.9000e+000 102422 -2.0244e+001 -1.0776e+002  6.0994e+000 30042 101981,102324,102396
 1.9000e+000 102445 -2.8134e+001 -1.0457e+002  1.2708e+001 30042 101981,102396,102033
 1.9000e+000 103000 -1.4690e+001 -1.2026e+002 -4.4083e+000 29730 103023,102706,102654
 1.9000e+000 102977 -2.5710e+001 -1.1649e+002 -1.1575e+001 29730 103023,102654,102810
 1.9000e+000 102954 -4.1374e+001 -1.8453e+002 -1.9372e+001 29730 102732,102810,102784
 1.9000e+000 102931 -5.9121e+001 -1.2792e+002 -1.9032e+001 29730 102628,102810,102654
 1.9000e+000 102908 -1.8325e+001 -1.1493e+002 -3.6589e-001 29730 102654,102706,102680
 1.9000e+000 102885 -2.6690e+001 -1.1636e+002 -4.9599e+001 29730 102732,102784,102758
 1.9000e+000 102862 -5.6144e+001 -1.2595e+002 -2.1515e+001 29730 102628,102836,102810
 1.9000e+000 103049 -2.2431e+001 -1.3161e+002 -8.2872e+000 29730 102732,102706,103023
 1.9000e+000 103072 -2.8804e+001 -1.2088e+002 -1.3928e+001 29730 102732,103023,102810
 1.9000e+000 103222  5.3164e+000 -1.0261e+002 -1.0281e+001 29226 103095,103147,103121
 1.9000e+000 103199  1.5360e+000 -1.0322e+002 -9.9042e+000 29226 103095,103173,103147
 1.9000e+000 103730 -2.7142e+001 -9.9543e+001  4.0249e-001 28822 103537,103589,103563
 1.9000e+000 103707 -2.7405e+001 -1.1155e+002 -7.8901e-001 28822 103433,103589,103537
 1.9000e+000 103684 -5.9095e+001 -1.1745e+002 -1.2788e+001 28822 103433,103537,103459
 1.9000e+000 103661 -2.3309e+001 -1.2502e+002 -5.0775e-002 28822 103407,103589,103433
 1.9000e+000 103638 -3.7568e+001 -6.4281e+001  2.6989e+000 28822 103459,103511,103485
 1.9000e+000 103615 -2.7028e+001 -7.4828e+001  7.6175e+000 28822 103459,103537,103511
 1.9000e+000 103880 -6.8941e+000 -1.0149e+002  7.7594e+000 28368 103975,103903,103779
 1.9000e+000 103857 -8.6789e+000 -1.1526e+002 -8.6234e-001 28368 103903,103753,103831
 1.9000e+000 103929 -1.1687e+001 -1.0890e+002  5.6988e+000 28368 103805,103779,103903
 1.9000e+000 103952  4.4426e+000 -1.0662e+002  5.4052e+000 28368 104105,103903,103831
 1.9000e+000 104001 -1.6694e+001 -1.0959e+002  5.4208e-001 28368 103753,103903,103975
 1.9000e+000 104131 -1.6422e+001 -1.1362e+002  7.6029e+000 28368 103805,103903,104105
 1.9000e+000 104539 -1.5258e+001 -6.5409e+001  1.0300e+001 28028 104562,104340,104314
 1.9000e+000 104516 -1.9770e+001 -4.3373e+001  1.7830e+001 28028 104634,104562,104314
 1.9000e+000 104493 -2.4961e+001 -6.9766e+001 -6.0904e+000 28028 104762,104366,104340
 1.9000e+000 104470 -1.9384e+001 -6.9029e+001 -1.9317e+001 28028 104366,104418,104392
 1.9000e+000 104588 -2.4413e+001 -7.5643e+001 -5.6505e-001 28028 104762,104340,104562
 1.9000e+000 104611 -3.1456e+001 -5.2643e+001  4.5914e+000 28028 104418,104562,104444
 1.9000e+000 104660 -3.9968e+001 -5.5570e+001  1.0215e+001 28028 104444,104562,104634
 1.9000e+000 104788 -2.7274e+001 -6.1595e+001 -5.0015e+000 28028 104418,104366,104762
 1.9000e+000 104811 -2.4622e+001 -6.4727e+001  6.4658e-001 28028 104418,104762,104562
 1.9000e+000 105010  2.5550e+001 -6.6186e+001  1.9107e+001 27324 105033,104886,104860
 1.9000e+000 104987  1.6954e+001 -6.8191e+001  2.3324e+001 27324 105033,104860,104834
 1.9000e+000 104964  2.3173e+001 -7.0076e+001  1.7365e+001 27324 105105,104912,104886
 1.9000e+000 105059  2.3998e+001 -6.8500e+001  1.7809e+001 27324 105105,104886,105033
 1.9000e+000 105082  2.2185e+001 -5.6478e+001  2.1952e+001 27324 104938,105033,104834
 1.9000e+000 105131  1.8450e+001 -6.8579e+001  1.4067e+001 27324 104938,104912,105105
 1.9000e+000 105154  2.1276e+001 -6.4035e+001  1.5357e+001 27324 104938,105105,105033
 1.9000e+000 105402 -4.6591e+001 -7.7418e+001 -5.4262e+000 27012 105229,105281,105255
 1.9000e+000 105379 -2.8842e+001 -6.7215e+001 -1.0322e+001 27012 105229,105307,105281
 1.9000e+000 105356 -1.4525e+001 -5.8322e+001 -6.4199e+000 27012 105177,105307,105229
 1.9000e+000 105333 -3.9949e+001 -6.5575e+001 -3.2579e+001 27012 105177,105229,105203
 1.9000e+000 105603  2.0502e+000 -2.8594e+001  1.1714e+001 26508 105626,105453,105427
 1.9000e+000 105580  2.8018e+000 -2.6521e+001  6.4953e+000 26508 105626,105427,105505
 1.9000e+000 105557 -1.0687e+000 -1.9914e+001  1.8618e+000 26508 105427,105531,105505
 1.9000e+000 105652  6.5580e+000 -2.6588e+001  1.0074e+001 26508 105479,105453,105626
 1.9000e+000 105675  7.6669e+000 -2.5801e+001  5.3319e+000 26508 105479,105626,105505
 1.9000e+000 106057 -1.9498e+001 -8.3461e+001  2.8287e+001 25947 106080,105887,105861
 1.9000e+000 106034 -1.3816e+001 -8.5632e+001  3.8316e+000 25947 106080,105861,105783
 1.9000e+000 106011 -2.3620e+001 -6.2014e+001  2.0608e+000 25947 105783,105835,105809
 1.9000e+000 105988 -3.3414e+001 -6.4413e+001  5.6877e+000 25947 105783,105861,105835
 1.9000e+000 105965 -8.9647e-001 -3.7080e+001  1.0444e+001 25947 105887,105939,105913
 1.9000e+000 106106 -6.0732e+000 -7.7481e+001  2.7191e+001 25947 105939,105887,106080
 1.9000e+000 106129  1.6921e+001 -7.2217e+001  8.4380e-001 25947 105939,106080,105783
 1.9000e+000 106714 -3.3834e+001 -6.9046e+001 -4.0225e+000 25557 106809,106737,106547
 1.9000e+000 106691 -3.2498e+001 -7.5364e+001  1.4850e+000 25557 106737,106417,106391
 1.9000e+000 106668 -3.1060e+001 -6.8165e+001 -4.3975e+000 25557 106809,106547,106495
 1.9000e+000 106645 -4.7996e+001 -1.1478e+002  3.3595e+000 25557 106417,106495,106469
 1.9000e+000 106622 -3.0766e+001 -7.1319e+001 -8.9207e+000 25557 106495,106547,106521
 1.9000e+000 106599 -2.7301e+001 -1.2469e+002  9.7809e+000 25557 106417,106469,106443
 1.9000e+000 106763 -3.9110e+001 -6.9787e+001 -4.3238e-002 25557 106573,106547,106737
 1.9000e+000 106786 -2.8885e+001 -6.5818e+001  3.5017e+000 25557 106573,106737,106391
 1.9000e+000 106835 -3.0451e+001 -7.0205e+001 -2.8143e+000 25557 106417,106737,106809
 1.9000e+000 106858 -2.8763e+001 -7.0061e+001 -3.4906e+000 25557 106417,106809,106495
 1.9000e+000 107364 -1.2515e+000 -6.0119e+001 -2.6818e+001 25153 107459,107387,107171
 1.9000e+000 107341 -3.2412e+001 -7.1841e+001 -2.2327e+000 25153 107387,107119,107067
 1.9000e+000 107318  1.3087e+001 -5.5059e+001 -2.6653e+001 25153 107459,107171,107145
 1.9000e+000 107295 -2.5086e+001 -7.5221e+001 -2.1305e+001 25153 107531,107223,107197
 1.9000e+000 107272 -3.2777e+001 -6.9493e+001  1.5204e+000 25153 107067,107119,107093
 1.9000e+000 107249 -2.6909e+001 -6.0933e+001 -7.3930e+000 25153 107041,107223,107067
 1.9000e+000 107413 -4.0297e+001 -8.0448e+001 -1.9466e+001 25153 107197,107171,107387
 1.9000e+000 107436 -1.5066e+001 -7.3502e+001 -1.7994e+001 25153 107531,107197,107387
 1.9000e+000 107485 -6.7619e+000 -6.4137e+001  4.4550e+000 25153 107119,107387,107459
 1.9000e+000 107508  3.1414e+001 -4.8615e+001  5.5735e+000 25153 107119,107459,107145
 1.9000e+000 107557 -3.0103e+001 -7.0616e+001 -9.2692e+000 25153 107067,107223,107531
 1.9000e+000 107580 -1.7222e+001 -6.4981e+001 -5.2476e+000 25153 107067,107531,107387
 1.9000e+000 107958 -3.3496e+001 -1.0118e+002 -9.9910e+000 24741 107736,107814,107788
 1.9000e+000 107935 -3.6812e+001 -1.0623e+002 -1.4179e+001 24741 107736,107840,107814
 1.9000e+000 107912 -4.0274e+001 -1.2203e+002 -1.4823e+001 24741 107684,107840,107736
 1.9000e+000 107889 -4.4069e+001 -9.8868e+001 -1.0196e+001 24741 107736,107788,107762
 1.9000e+000 107866 -3.0245e+001 -1.5954e+002 -5.9273e+001 24741 107684,107736,107710
 1.9000e+000 108157 -1.6032e+001 -5.4712e+001  5.2491e+000 24237 108180,108059,108007
 1.9000e+000 108134 -1.3509e+001 -4.1754e+001  1.6525e+001 24237 108180,108007,107981
 1.9000e+000 108111  1.5067e+000 -6.0265e+001  3.3173e+000 24237 108007,108059,108033
 1.9000e+000 108206 -9.6506e+000 -4.2026e+001  1.0145e+001 24237 108085,108059,108180
 1.9000e+000 108229 -7.3370e+000 -2.9125e+001  2.1347e+001 24237 108085,108180,107981
 1.9000e+000 108658 -1.1841e+001 -1.0154e+002 -1.5301e+001 23776 108361,108413,108387
 1.9000e+000 108635  7.7354e+000 -9.2719e+001  2.3752e+000 23776 108753,108681,108361
 1.9000e+000 108612  2.9625e+001 -6.4811e+001 -1.6108e+001 23776 108681,108465,108439
 1.9000e+000 108589  7.9878e+000 -9.7528e+001  6.6200e+000 23776 108753,108361,108335
 1.9000e+000 108566 -1.2488e+001 -9.8035e+001  3.8262e+001 23776 108335,108517,108465
 1.9000e+000 108543 -1.3277e+001 -1.1248e+002  3.9280e+001 23776 108465,108517,108491
 1.9000e+000 108707  8.8880e+000 -8.1521e+001  1.8052e+000 23776 108413,108361,108681
 1.9000e+000 108730  8.5513e+000 -9.3329e+001 -5.3379e+000 23776 108413,108681,108439
 1.9000e+000 108779  7.6057e+000 -7.6258e+001  1.8846e-002 23776 108465,108681,108753
 1.9000e+000 108802  3.4449e+000 -8.8377e+001  3.6395e+000 23776 108465,108753,108335
 1.9000e+000 109023  1.4115e+001 -4.0204e+001  1.3540e+001 23414 108873,108925,108899
 1.9000e+000 109000 -1.1975e+001 -5.0295e+001  1.2231e+001 23414 108847,108925,108873
 1.9000e+000 108977  5.9913e+000 -1.7355e+001  7.8088e-001 23414 108847,108951,108925
 1.9000e+000 109474 -3.9366e+001 -9.4588e+001  2.9983e+000 23024 109151,109307,109177
 1.9000e+000 109451 -4.3298e+001 -9.7615e+001  4.5168e+000 23024 109151,109333,109307
 1.9000e+000 109428 -4.2624e+001 -1.2912e+002 -8.9465e+000 23024 109177,109281,109203
 1.9000e+000 109405 -8.0398e+001 -1.2855e+002 -1.2805e+001 23024 109177,109307,109281
 1.9000e+000 109382 -2.6982e+001 -1.1290e+002 -7.3563e-001 23024 109203,109281,109229
 1.9000e+000 109359 -2.1445e+001 -1.1535e+002  2.8714e+000 23024 109229,109281,109255
 1.9000e+000 109820 -3.0049e+001 -8.6322e+001  6.9468e+000 22506 109843,109601,109523
 1.9000e+000 109797 -1.3319e+001 -7.9350e+001  3.7356e+000 22506 109843,109523,109497
 1.9000e+000 109774 -1.0196e+001 -8.9561e+001  5.5647e+000 22506 109915,109653,109627
 1.9000e+000 109751 -1.0284e+001 -8.1347e+001  4.6365e+000 22506 109497,109679,109653
 1.9000e+000 109728 -3.8305e+001 -1.0734e+002 -1.4809e+001 22506 109523,109601,109575
 1.9000e+000 109705 -6.3751e+001 -1.4554e+002 -2.5863e+001 22506 109523,109575,109549
 1.9000e+000 109869 -1.1944e+001 -8.1215e+001  9.4349e+000 22506 109627,109601,109843
 1.9000e+000 109892 -8.9034e+000 -8.7328e+001  6.5500e+000 22506 109915,109627,109843
 1.9000e+000 109941 -1.1583e+001 -8.7859e+001  4.2116e+000 22506 109497,109653,109915
 1.9000e+000 109964 -1.1424e+001 -8.7729e+001  4.8827e+000 22506 109497,109915,109843
 1.9000e+000 110163 -1.1309e+000 -7.5272e+001  1.3406e+000 21936 110186,110039,110013
 1.9000e+000 110140 -7.1498e+000 -7.0819e+001  4.6493e+000 21936 110390,110186,110013
 1.9000e+000 110117 -2.0588e+001 -7.6674e+001 -4.5589e+000 21936 110390,110013,109987
 1.9000e+000 110212  3.5534e+000 -6.5574e+001 -1.9014e+000 21936 110065,110039,110186
 1.9000e+000 110235  3.3072e+001 -4.3945e+001  2.5983e+001 21936 110258,110186,110091
 1.9000e+000 110284 -1.7196e+001 -8.4109e+001  8.5778e+000 21936 110065,110186,110258
 1.9000e+000 110416  2.1339e+001 -8.4259e+001  9.9501e+000 21936 110091,110186,110390
 1.9000e+000 110439  4.0750e+000 -9.2557e+001  9.4536e-001 21936 110091,110390,109987
 1.9000e+000 110709 -1.8400e+001 -9.1318e+001  6.5107e-001 21338 110510,110614,110588
 1.9000e+000 110686 -3.5581e+001 -1.1130e+002 -6.6667e+000 21338 110484,110614,110510
 1.9000e+000 110663 -1.7622e+001 -5.8295e+001 -6.6287e+000 21338 110510,110562,110536
 1.9000e+000 110640 -3.3902e+001 -9.5122e+001 -1.4846e+000 21338 110510,110588,110562
 1.9000e+000 111296 -1.7547e+001 -9.4543e+001 -2.0474e-001 20934 111025,111155,111103
 1.9000e+000 111273 -3.0661e+001 -1.4585e+002  8.9412e-001 20934 110999,111155,111025
 1.9000e+000 111250  1.7964e+001 -7.9178e+001 -1.6859e+000 20934 111103,111155,111129
 1.9000e+000 111227 -3.6574e+001 -1.2491e+002 -2.0828e+001 20934 111051,111103,111077
 1.9000e+000 111204 -4.4265e+001 -1.1631e+002 -1.1621e+001 20934 111025,111103,111051
 1.9000e+000 111181  3.2686e+000 -1.5633e+002  1.5915e+001 20934 110973,111155,110999
 1.9000e+000 111930 -3.3678e+001 -3.7414e+001 -2.1618e+001 20494 111662,111714,111688
 1.9000e+000 111907  2.7918e+001 -5.2614e+001 -1.9967e+001 20494 111584,111714,111662
 1.9000e+000 111884 -1.8436e+001 -7.0453e+001 -1.2629e+001 20494 111584,111766,111714
 1.9000e+000 111861 -3.0835e+000 -1.2245e+002  1.9124e+001 20494 111584,111636,111610
 1.9000e+000 111838 -2.0936e+001 -9.9565e+001  6.7995e+000 20494 111584,111662,111636
 1.9000e+000 111815  1.6858e+001 -5.2858e+001 -6.5599e+000 20494 111558,111766,111584
 1.9000e+000 111792 -1.3621e+001 -6.4173e+001 -2.1708e+001 20494 111714,111766,111740
 1.9000e+000 112249 -4.2252e+001 -1.5189e+002  9.0954e+000 19940 111975,112053,112001
 1.9000e+000 112226 -1.6963e+001 -1.1353e+002 -6.5295e+000 19940 111975,112131,112053
 1.9000e+000 112203  3.0951e+000 -1.4204e+002  0.0000e+000 19940 112053,112105,112079
 1.9000e+000 112180 -3.1629e+001 -1.5385e+002 -4.4132e+000 19940 112053,112131,112105
 1.9000e+000 112157 -1.2135e+001 -1.3735e+002  4.6420e+000 19940 112001,112053,112027
 1.9000e+000 112757  3.6062e-001 -8.2675e+001 -1.6148e+001 19486 112780,112538,112486
 1.9000e+000 112734 -5.6887e+000 -9.4776e+001 -4.6097e+000 19486 112780,112486,112460
 1.9000e+000 112711 -1.1912e+001 -8.1456e+001 -8.6172e-001 19486 112852,112616,112590
 1.9000e+000 112688  3.8918e+001 -1.1092e+002 -2.3040e+001 19486 112486,112538,112512
 1.9000e+000 112665 -2.7879e+001 -1.0547e+002 -9.6692e+000 19486 112434,112616,112460
 1.9000e+000 112642 -2.3490e+001 -8.3176e+001 -1.3084e+001 19486 112538,112590,112564
 1.9000e+000 112806 -2.1284e+001 -9.2567e+001 -1.3771e+001 19486 112590,112538,112780
 1.9000e+000 112829 -5.9789e+000 -8.6039e+001 -3.8296e+000 19486 112852,112590,112780
 1.9000e+000 112878 -1.4524e+001 -8.8095e+001  3.5143e-001 19486 112460,112616,112852
 1.9000e+000 112901 -1.0879e+001 -9.5344e+001 -1.2499e+000 19486 112460,112852,112780
 1.9000e+000 113252 -6.8487e+001 -1.2281e+002 -1.3001e+000 19096 113105,113157,113131
 1.9000e+000 113229 -6.3685e+001 -9.7326e+001 -4.2314e-001 19096 113053,113157,113105
 1.9000e+000 113206 -5.8027e+001 -9.1062e+001  3.8140e+000 19096 113027,113157,113053
 1.9000e+000 113183 -8.4853e+001 -1.3686e+002  7.5275e+000 19096 113053,113105,113079
 1.9000e+000 113451 -3.2191e+000 -1.1250e+002  4.1529e+001 18642 113327,113379,113353
 1.9000e+000 113428 -2.2535e+001 -1.1266e+002 -2.4835e+000 18642 113301,113379,113327
 1.9000e+000 113405  2.8129e+000 -1.0647e+002  9.1122e-001 18642 113275,113379,113301
 1.9000e+000 113699 -4.3397e+000 -1.1209e+002 -2.6532e+000 18138 113474,113552,113526
 1.9000e+000 113676  1.4430e+001 -1.1721e+002 -1.2247e+001 18138 113474,113578,113552
 1.9000e+000 113653  1.1321e+001 -1.1761e+002 -1.1075e+001 18138 113474,113604,113578
 1.9000e+000 113630  7.5547e+000 -9.7809e+001  2.9280e+000 18138 113474,113526,113500
 1.9000e+000 113851 -1.9294e+001 -1.2209e+002 -1.2420e+000 17682 113750,113802,113776
 1.9000e+000 113828 -2.0673e+001 -1.1704e+002  1.0189e+000 17682 113724,113802,113750
 1.9000e+000 114383 -2.7824e+001 -9.6130e+001 -2.0115e+000 17106 114086,114242,114164
 1.9000e+000 114360 -5.6338e+001 -1.0811e+002  4.0297e-001 17106 114060,114242,114086
 1.9000e+000 114337 -5.9644e+001 -1.5495e+002  1.4686e+001 17106 114086,114164,114138
 1.9000e+000 114314 -2.0889e+000 -1.9256e+002 -2.2565e+001 17106 114190,114242,114216
 1.9000e+000 114291 -4.9857e+001 -1.5566e+002 -7.7370e+000 17106 114164,114242,114190
 1.9000e+000 114268 -3.1433e+001 -1.4424e+002  3.6294e+001 17106 114086,114138,114112
 1.9000e+000 114680 -3.3889e+001 -1.1661e+002  3.8615e+000 16766 114703,114432,114406
 1.9000e+000 114657 -3.7275e+001 -1.1395e+002  7.0953e-001 16766 114703,114406,114510
 1.9000e+000 114634 -3.4928e+001 -8.7462e+001  6.4133e+000 16766 114406,114536,114510
 1.9000e+000 114611 -2.1288e+001 -1.2344e+002 -6.8204e+000 16766 114432,114484,114458
 1.9000e+000 114588 -2.6738e+001 -8.8940e+001  1.8461e+001 16766 114406,114562,114536
 1.9000e+000 114729 -2.0408e+001 -1.1356e+002  4.7783e+000 16766 114484,114432,114703
 1.9000e+000 114752 -3.2171e+001 -1.1661e+002  1.9513e+000 16766 114484,114703,114510
 1.9000e+000 114902  2.8090e+001 -1.2424e+002 -1.1112e+001 16362 114775,114827,114801
 1.9000e+000 114879  9.7467e+001 -9.0572e+001 -2.9082e+001 16362 114775,114853,114827
 1.9000e+000 115054 -1.5296e+002 -2.6940e+002  4.6369e+000 15908 114953,115005,114979
 1.9000e+000 115031 -1.5052e+002 -2.5030e+002  6.6205e+000 15908 114927,115005,114953
 1.9000e+000 115326 -2.4602e+001 -1.0054e+002  1.8038e+001 15251 115101,115179,115153
 1.9000e+000 115303 -1.4984e+001 -9.0297e+001 -4.7487e+000 15251 115101,115231,115179
 1.9000e+000 115280 -1.9279e+001 -9.9983e+001 -3.7740e+000 15251 115179,115231,115205
 1.9000e+000 115257  5.5525e+000 -2.0933e+002  6.1943e+001 15251 115101,115153,115127
 1.9000e+000 115429 -2.7286e+001 -1.2971e+002  1.9254e+001 421 115351,115403,115377
 2.0000e+000 66230  1.9277e+000 -3.8223e+000  1.7703e+000 65954 66152,66204,66178
 2.0000e+000 66429 -9.3095e+000 -5.5073e+001 -7.8033e+000 65642 66279,66331,66305
 2.0000e+000 66406 -6.6712e-001 -1.2293e+001  1.9900e+000 65642 66279,66357,66331
 2.0000e+000 66383 -5.0475e+000 -9.5336e+000  1.7150e+000 65642 66253,66357,66279
 2.0000e+000 66628 -3.5946e-001 -8.2588e+001  1.2240e+001 65444 66452,66530,66478
 2.0000e+000 66605  9.5883e+000 -1.0131e+002  5.6223e+000 65444 66452,66556,66530
 2.0000e+000 66582 -4.7609e+000 -8.2962e+001  1.3422e+001 65444 66478,66530,66504
 2.0000e+000 67006 -3.1784e+000 -6.5801e+001  1.6916e+000 65246 66732,66810,66758
 2.0000e+000 66983  1.5131e+001 -3.4241e+001  1.2093e+001 65246 66732,66836,66810
 2.0000e+000 66960 -1.1822e+001 -7.2286e+001 -8.9266e+000 65246 66732,66862,66836
 2.0000e+000 66937 -3.5865e+000 -4.9959e+001  5.2147e+000 65246 66758,66810,66784
 2.0000e+000 66914  9.7642e-001 -8.0749e+001 -2.3452e+001 65246 66732,66888,66862
 2.0000e+000 67107  2.6733e+001 -3.0060e+001 -8.7179e+000 64934 67029,67081,67055
 2.0000e+000 67306  1.9573e+001 -6.1341e+001  4.9167e+000 64736 67156,67208,67182
 2.0000e+000 67283  2.4033e+000 -5.6723e+001  6.5102e+000 64736 67130,67208,67156
 2.0000e+000 67260 -4.7534e+000 -7.7594e+001  3.9620e+000 64736 67130,67234,67208
 2.0000e+000 67507 -1.1884e+000 -5.8578e+001 -1.0559e+001 64389 67357,67409,67383
 2.0000e+000 67484 -4.5266e+000 -7.5584e+001 -1.2123e+001 64389 67357,67435,67409
 2.0000e+000 67461  5.5575e+000 -8.6450e+001 -9.7145e+000 64389 67331,67435,67357
 2.0000e+000 67708  8.0866e+000 -6.0350e+001  5.2812e+000 63985 67731,67584,67558
 2.0000e+000 67685  2.3948e-002 -4.1210e+001  2.1660e+000 63985 67731,67558,67636
 2.0000e+000 67662 -1.3681e+001 -4.5704e+001  2.5964e+000 63985 67532,67636,67558
 2.0000e+000 67757  4.0257e+000 -6.9683e+001  3.5590e+000 63985 67610,67584,67731
 2.0000e+000 67780 -7.4971e+000 -5.6014e+001 -6.6001e-001 63985 67610,67731,67636
 2.0000e+000 67981  8.0293e+000 -2.6650e+001  2.5721e+000 63787 67857,67909,67883
 2.0000e+000 67958 -7.9236e+000 -4.6389e+001  1.1408e+001 63787 67831,67909,67857
 2.0000e+000 67935 -9.7908e+000 -2.3280e+000  2.1030e+000 63787 67805,67909,67831
 2.0000e+000 68231 -2.1013e+000 -6.9112e+001  3.3656e+000 63589 68254,68084,68032
 2.0000e+000 68208  9.0067e-001 -4.7340e+001  4.6264e+000 63589 68254,68032,68006
 2.0000e+000 68185  2.6478e-001 -4.1243e+001  4.3209e+000 63589 68326,68136,68110
 2.0000e+000 68162  1.4883e+000 -6.3983e+001 -7.7871e+000 63589 68032,68084,68058
 2.0000e+000 68280 -4.5836e+000 -4.9219e+001  5.9719e+000 63589 68110,68084,68254
 2.0000e+000 68303 -2.8058e+000 -4.2378e+001  9.0066e+000 63589 68326,68110,68254
 2.0000e+000 68352  7.1027e+000 -3.0352e+001 -4.6086e+000 63589 68006,68136,68326
 2.0000e+000 68375  7.4803e-001 -3.5077e+001  5.1202e-001 63589 68006,68326,68254
 2.0000e+000 68836  1.7712e-001 -1.9690e+001 -8.7600e+000 63128 68859,68588,68562
 2.0000e+000 68813 -9.0432e+000 -3.8324e+001  8.8189e+000 63128 68859,68562,68692
 2.0000e+000 68790  3.5486e+000 -3.8971e+001 -6.1932e+000 63128 68614,68692,68666
 2.0000e+000 68767 -2.2867e+001 -3.4066e+001  7.9047e+000 63128 68562,68718,68692
 2.0000e+000 68744  3.8034e+000 -4.2206e+001 -2.6570e+001 63128 68614,68666,68640
 2.0000e+000 68885  1.1442e+001  5.7433e+000 -2.3107e+001 63128 68614,68588,68859
 2.0000e+000 68908  1.2048e+000 -1.8051e+001 -5.7983e+000 63128 68614,68859,68692
 2.0000e+000 69237  3.6944e+000 -5.3368e+001  5.1407e+000 62731 69064,69116,69090
 2.0000e+000 69214 -1.1258e+000 -6.8232e+001  1.4978e+000 62731 69064,69142,69116
 2.0000e+000 69191 -1.0481e+001 -1.0256e+002  1.5707e+000 62731 69038,69142,69064
 2.0000e+000 69168 -2.4953e+000 -8.6100e+001  5.5180e+000 62731 69012,69142,69038
 2.0000e+000 69539 -5.7451e-001  1.3838e+001 -5.8489e-001 62433 69389,69467,69441
 2.0000e+000 69516  3.9532e+000 -9.1648e+000  3.4743e+000 62433 69363,69467,69389
 2.0000e+000 69493 -2.8458e-001 -6.2990e+000  1.1568e+001 62433 69389,69441,69415
 2.0000e+000 69966  6.3437e+000 -1.8391e+001 -4.6207e-001 62235 69989,69773,69721
 2.0000e+000 69943  1.2220e+001 -5.3000e+001 -3.4426e+001 62235 70061,69989,69721
 2.0000e+000 69920  1.8480e+001 -8.7939e+001 -2.7225e+001 62235 70061,69721,69643
 2.0000e+000 69897 -2.7479e+000 -2.5653e+000 -2.8874e+000 62235 69721,69773,69747
 2.0000e+000 69874 -5.9134e+001 -2.5380e+002 -6.6510e+000 62235 69643,69721,69695
 2.0000e+000 69851  6.5073e+001  1.3620e+002 -1.4850e+001 62235 69643,69695,69669
 2.0000e+000 70015 -5.9388e+000 -6.3406e+001 -1.1560e+001 62235 69799,69773,69989
 2.0000e+000 70038 -1.5038e+001 -7.5910e+001 -4.1659e+001 62235 69799,69989,69825
 2.0000e+000 70087 -1.1169e+001 -8.6779e+001 -2.2925e+001 62235 69825,69989,70061
 2.0000e+000 70110  1.2487e+001 -1.0426e+002 -2.1959e+001 62235 69825,70061,69643
 2.0000e+000 70260 -4.6950e+000 -6.2937e+001  2.4041e+000 62037 70133,70185,70159
 2.0000e+000 70237 -1.3338e+001 -8.4214e+001 -1.4914e-001 62037 70133,70211,70185
 2.0000e+000 70640 -1.1664e+001 -5.2333e+001  5.5438e+000 61583 70735,70663,70418
 2.0000e+000 70617 -1.5677e+001 -7.1534e+001  4.6368e+000 61583 70663,70366,70522
 2.0000e+000 70594 -1.0265e+001 -3.9069e+001 -1.1776e+000 61583 70735,70418,70392
 2.0000e+000 70571 -9.9954e+000 -5.6114e+001  1.2584e+001 61583 70418,70496,70444
 2.0000e+000 70548 -2.3427e+001 -4.4308e+001  1.0649e+001 61583 70444,70496,70470
 2.0000e+000 70689 -1.8455e+001 -5.8639e+001  2.8200e+000 61583 70496,70418,70663
 2.0000e+000 70712 -2.5104e+001 -4.7279e+001  4.4062e+000 61583 70496,70663,70522
 2.0000e+000 70761  1.0438e+000 -4.2842e+001 -8.6055e+000 61583 70366,70663,70735
 2.0000e+000 70784 -4.1554e+000 -3.2721e+001 -1.4053e+001 61583 70366,70735,70392
 2.0000e+000 71054  6.2606e+000 -4.0301e+001  1.4766e+001 61313 71077,70881,70855
 2.0000e+000 71031  1.5698e+001 -2.5324e+001  2.0141e+001 61313 71077,70855,70829
 2.0000e+000 71008 -5.9275e+000 -2.8469e+001  8.7705e+000 61313 70829,70959,70933
 2.0000e+000 70985  1.4459e+001 -3.6978e+001 -5.6087e+000 61313 70881,70933,70907
 2.0000e+000 71103 -1.2673e+000 -3.3233e+001  5.4121e+000 61313 70933,70881,71077
 2.0000e+000 71126  6.2285e+000 -2.4738e+001  9.8117e+000 61313 70933,71077,70829
 2.0000e+000 71604 -1.0637e+001 -7.5383e+001  3.8751e+000 60909 71627,71232,71414
 2.0000e+000 71581 -2.2526e+001 -6.6622e+001 -9.8987e+000 60909 71232,71440,71414
 2.0000e+000 71558 -9.0170e+000 -5.7837e+001  5.6108e+000 60909 71627,71414,71336
 2.0000e+000 71535  1.6222e+001 -1.0631e+002  1.6524e+001 60909 71362,71414,71388
 2.0000e+000 71512 -2.5097e+001 -9.7735e+001  5.2745e+000 60909 71336,71414,71362
 2.0000e+000 71489 -1.7324e+000 -4.6801e+001  3.8443e+000 60909 71258,71336,71310
 2.0000e+000 71466 -1.2031e+001 -5.9525e+001  1.1354e+001 60909 71258,71310,71284
 2.0000e+000 71653 -6.7257e+000 -6.0607e+001  3.4877e+000 60909 71258,71232,71627
 2.0000e+000 71676 -1.1275e+001 -5.1762e+001  5.8460e+000 60909 71258,71627,71336
 2.0000e+000 71875 -1.1898e+001 -7.8411e+001  4.5860e+000 60611 71898,71725,71699
 2.0000e+000 71852 -2.8333e+001 -6.0336e+001  2.0135e+001 60611 71898,71699,71803
 2.0000e+000 71829  6.1722e+000 -2.4529e+001  1.8918e+001 60611 71970,71751,71725
 2.0000e+000 71924 -9.4703e+000 -5.4203e+001  7.8250e+000 60611 71970,71725,71898
 2.0000e+000 71947 -2.8541e+000 -4.2623e+001  3.3097e+000 60611 71777,71898,71803
 2.0000e+000 71996  2.0756e+001 -5.7630e+001  2.5103e+001 60611 71777,71751,71970
 2.0000e+000 72019  1.8815e+001 -6.4344e+001  1.8523e+001 60611 71777,71970,71898
 2.0000e+000 72576 -1.2193e+001 -1.3063e+002  3.0310e+001 60142 72599,72256,72230
 2.0000e+000 72553  2.5249e+000 -9.0915e+001  2.8651e+001 60142 72671,72599,72230
 2.0000e+000 72530 -2.4532e+001 -5.9768e+001  2.1742e+000 60142 72671,72230,72204
 2.0000e+000 72507 -3.9541e+001 -3.0674e+001  2.1126e+001 60142 72743,72360,72334
 2.0000e+000 72484 -5.6973e+001 -7.5724e+001  2.2854e+001 60142 72815,72282,72256
 2.0000e+000 72461  1.9926e+001 -4.4105e+001  3.2156e+001 60142 72887,72308,72282
 2.0000e+000 72438 -3.4666e+001 -1.2060e+002 -6.0251e+000 60142 72204,72412,72386
 2.0000e+000 72625 -4.6539e+001 -1.0674e+002 -9.9760e-001 60142 72815,72256,72599
 2.0000e+000 72648 -2.4062e+001 -6.2698e+001  1.5471e+001 60142 72743,72334,72599
 2.0000e+000 72697 -2.1714e+001 -1.3500e+002  1.8107e+001 60142 72386,72599,72671
 2.0000e+000 72720 -4.3557e+001 -1.0204e+002 -1.8158e+000 60142 72386,72671,72204
 2.0000e+000 72769  9.9385e-001 -5.6206e+001  8.1834e+001 60142 72386,72360,72743
 2.0000e+000 72792 -7.2580e+000 -1.2542e+002  4.6196e+001 60142 72386,72743,72599
 2.0000e+000 72841 -2.4004e+001 -6.3435e+001  2.6687e+001 60142 72887,72282,72815
 2.0000e+000 72864 -3.0413e+001 -7.5442e+001  1.2353e+001 60142 72334,72815,72599
 2.0000e+000 72913 -3.7429e+001 -4.9392e+001  1.2455e+001 60142 72334,72308,72887
 2.0000e+000 72936 -5.3255e+001 -5.6591e+001  5.2118e+000 60142 72334,72887,72815
 2.0000e+000 73491 -1.6213e+001 -1.0694e+002 -1.9567e+001 59738 73145,73327,73171
 2.0000e+000 73468  4.1799e+001 -3.9274e+001  5.1415e+000 59738 73119,73327,73145
 2.0000e+000 73445 -7.6713e+000 -5.4889e+001 -5.5223e+000 59738 73171,73327,73301
 2.0000e+000 73422  5.6006e+000 -6.5469e+001  1.1926e+000 59738 73514,73275,73249
 2.0000e+000 73399 -1.4708e+001 -6.4395e+001  3.5233e+000 59738 73586,73514,73249
 2.0000e+000 73376 -8.7354e+000 -2.7558e+001  2.6918e+001 59738 73197,73249,73223
 2.0000e+000 73353 -1.1479e+001 -6.6001e+001  1.1259e+001 59738 73586,73249,73197
 2.0000e+000 73540 -1.1859e+001 -9.2746e+001 -9.8806e+000 59738 73301,73275,73514
 2.0000e+000 73563 -7.4615e+000 -5.9081e+001 -5.1163e+000 59738 73301,73514,73171
 2.0000e+000 73612 -8.5666e+000 -5.1062e+001  5.0362e+000 59738 73171,73514,73586
 2.0000e+000 73635 -7.0792e+000 -5.5582e+001  1.1911e+001 59738 73171,73586,73197
 2.0000e+000 73964  4.8971e+000 -7.7387e+001  1.3565e+000 59334 73791,73843,73817
 2.0000e+000 73941  1.2377e+001 -8.3136e+001 -1.6473e+000 59334 73791,73869,73843
 2.0000e+000 73918 -1.3267e+001 -1.4706e+002  8.9780e+000 59334 73739,73869,73791
 2.0000e+000 73895  3.0473e+001 -1.8377e+002  1.2050e+001 59334 73739,73791,73765
 2.0000e+000 74261 -1.9344e+001 -1.0713e+002  2.4103e+001 58630 74065,74117,74091
 2.0000e+000 74238 -2.2311e+001 -6.6420e+001  1.6406e+001 58630 74356,74284,74065
 2.0000e+000 74215 -1.7352e+000 -4.0677e+001  7.0215e+000 58630 74284,74013,73987
 2.0000e+000 74192 -2.2606e+001 -6.3966e+001  1.1403e+001 58630 74356,74065,74039
 2.0000e+000 74169  2.1876e+001 -5.0921e+001 -1.4213e+001 58630 73987,74143,74117
 2.0000e+000 74310 -6.1820e+000 -1.0185e+002  2.4834e+001 58630 74117,74065,74284
 2.0000e+000 74333  2.1541e+001 -6.5787e+001  1.0372e+001 58630 74117,74284,73987
 2.0000e+000 74382 -1.3490e+001 -6.6382e+001  1.2518e+001 58630 74013,74284,74356
 2.0000e+000 74405 -1.3202e+001 -6.3202e+001  7.4263e+000 58630 74013,74356,74039
 2.0000e+000 74815 -4.9463e+000 -4.0936e+001 -1.2608e+001 58226 74590,74642,74616
 2.0000e+000 74792 -1.5225e+001 -6.2878e+001 -9.2048e+000 58226 74590,74694,74642
 2.0000e+000 74769  3.4828e+001 -8.4127e+001  2.5854e+000 58226 74590,74720,74694
 2.0000e+000 74746 -1.6346e+001 -4.9015e+001 -9.1091e+000 58226 74642,74694,74668
 2.0000e+000 75014 -2.4775e+001 -9.0498e+001  5.3854e+000 57786 75037,74864,74838
 2.0000e+000 74991 -2.2402e+001 -5.3968e+001  1.3264e+001 57786 75037,74838,74916
 2.0000e+000 74968 -7.4937e+000 -4.0940e+001  9.2304e-001 57786 74838,74942,74916
 2.0000e+000 75063 -2.5800e+001 -1.3019e+002 -5.9305e+000 57786 74890,74864,75037
 2.0000e+000 75086 -1.8753e+001 -8.7924e+001  2.7050e+000 57786 74890,75037,74916
 2.0000e+000 75368  1.9921e+001 -3.1468e+001  1.4496e+001 57496 75192,75270,75218
 2.0000e+000 75345  4.2866e+001 -1.8402e+001  2.1267e+001 57496 75192,75296,75270
 2.0000e+000 75322  3.1759e+000 -4.3877e+001  4.4202e+000 57496 75218,75270,75244
 2.0000e+000 75648  1.2164e+000 -6.0571e+001 -5.1828e+000 57206 75472,75550,75498
 2.0000e+000 75625 -2.4432e+000 -6.0699e+001 -2.8357e+000 57206 75472,75576,75550
 2.0000e+000 75602  1.6887e+001 -4.8879e+001  1.6164e-001 57206 75671,75550,75524
 2.0000e+000 75697 -2.9364e+001 -7.3119e+001 -1.3246e+001 57206 75498,75550,75671
 2.0000e+000 76154  2.8688e+001 -5.8551e+001 -1.1154e+001 56802 75958,76010,75984
 2.0000e+000 76131  2.1797e+001 -3.0364e+001 -2.7607e+000 56802 75932,76010,75958
 2.0000e+000 76108  3.2213e+001 -5.7053e+001  2.5951e+001 56802 75906,76010,75932
 2.0000e+000 76085  1.4185e+001 -9.5334e+000  2.3992e+001 56802 75880,76010,75906
 2.0000e+000 76062  1.9832e+001 -1.6936e+001 -4.9033e+000 56802 75880,76036,76010
 2.0000e+000 76505  1.4710e+001  6.9732e+000  1.2790e+001 56504 76306,76384,76332
 2.0000e+000 76482  4.3319e+001  4.2765e+001 -2.3532e+000 56504 76306,76410,76384
 2.0000e+000 76459 -2.6796e+000 -8.0604e+000  3.9605e+000 56504 76332,76384,76358
 2.0000e+000 76436 -1.2001e+000  3.5720e+001  4.4690e+000 56504 76280,76410,76306
 2.0000e+000 77011  6.9544e+000 -3.9802e+001 -1.3097e+001 56050 76740,76818,76792
 2.0000e+000 76988  1.9637e+001 -3.5278e+001 -1.0347e+001 56050 76714,76818,76740
 2.0000e+000 76965 -1.4269e+001 -5.4057e+001  5.3230e-001 56050 76688,76818,76714
 2.0000e+000 76942 -1.1876e+001 -4.0669e+001 -2.3639e+000 56050 76688,76844,76818
 2.0000e+000 76919 -4.4950e-001 -3.4027e+001 -1.2160e+001 56050 76740,76792,76766
 2.0000e+000 76896 -1.8687e+001 -6.9129e+001 -5.9372e+000 56050 76688,76870,76844
 2.0000e+000 77517 -2.0210e+001 -6.2716e+001  2.5142e+000 55738 77220,77350,77324
 2.0000e+000 77494 -1.9922e+001 -7.5433e+001 -8.3533e+000 55738 77220,77376,77350
 2.0000e+000 77471 -6.5691e+000 -5.8916e+001 -7.0033e-001 55738 77194,77376,77220
 2.0000e+000 77448 -1.1523e+001 -2.2746e+001 -7.1616e-001 55738 77220,77298,77246
 2.0000e+000 77425 -7.8531e+000 -4.5416e+001 -9.6916e+000 55738 77220,77324,77298
 2.0000e+000 77402 -1.1159e+000 -1.7881e+001  3.8718e+000 55738 77246,77298,77272
 2.0000e+000 78064 -1.5277e+001 -1.4350e+002 -4.8454e-001 55227 78231,78087,77773
 2.0000e+000 78041 -2.0599e+001 -1.9958e+002  1.4861e+001 55227 78087,77695,77643
 2.0000e+000 78018 -3.1573e+001 -1.8519e+002  1.6940e+001 55227 78159,77799,77773
 2.0000e+000 77995 -2.3592e+001 -1.1787e+002  4.1965e+000 55227 78231,77773,77721
 2.0000e+000 77972 -4.2898e+001 -6.5422e+001  4.8744e+001 55227 77643,77695,77669
 2.0000e+000 77949 -5.3302e+001 -9.9739e+001  3.2706e+001 55227 77643,77877,77851
 2.0000e+000 77926 -2.5750e+001 -1.5461e+002  3.3624e+001 55227 77799,77851,77825
 2.0000e+000 77903 -1.7077e+001 -9.1458e+001 -1.1886e+001 55227 77721,77773,77747
 2.0000e+000 78113 -2.7871e+001 -1.7721e+002  1.8520e+001 55227 78159,77773,78087
 2.0000e+000 78136  1.6587e+001 -1.1348e+002  4.0699e+001 55227 77851,78087,77643
 2.0000e+000 78185 -4.0176e+001 -1.7070e+002  1.2648e+001 55227 77851,77799,78159
 2.0000e+000 78208 -3.7826e+001 -1.6470e+002  1.3784e+001 55227 77851,78159,78087
 2.0000e+000 78257 -1.8711e+001 -1.7758e+002 -1.2240e+001 55227 77695,78087,78231
 2.0000e+000 78280 -2.7518e+001 -1.4886e+002 -1.0710e+001 55227 77695,78231,77721
 2.0000e+000 78737 -1.1321e+001 -3.4624e+001 -1.5166e+001 54773 78463,78541,78515
 2.0000e+000 78714 -1.8809e+001 -6.6606e+001 -4.4997e+000 54773 78463,78619,78541
 2.0000e+000 78691 -6.0949e+000 -1.9144e+001 -6.8539e+000 54773 78463,78515,78489
 2.0000e+000 78668 -2.8276e+001 -4.7294e+001 -4.9368e+000 54773 78541,78593,78567
 2.0000e+000 78645 -1.2303e+001 -5.4290e+001 -7.8084e+000 54773 78541,78619,78593
 2.0000e+000 78838  1.2924e+000 -1.9199e+001  1.0345e+001 54211 78760,78812,78786
 2.0000e+000 79297 -1.5103e+001 -7.2264e+001 -1.5424e+000 53814 79520,79153,79049
 2.0000e+000 79274 -7.2383e+000 -6.7975e+001 -3.2887e+000 53814 79520,79049,79023
 2.0000e+000 79251 -3.5436e+001 -1.1342e+002  1.2111e+001 53814 79320,79101,79049
 2.0000e+000 79228 -2.3707e+001 -8.5032e+001  2.4743e+000 53814 79320,79049,79153
 2.0000e+000 79205 -1.4730e+000 -1.0952e+002  1.9300e+001 53814 79049,79101,79075
 2.0000e+000 79346 -2.1267e+001 -9.2420e+001 -1.2466e+001 53814 79392,79320,79127
 2.0000e+000 79369  1.6035e+001 -6.6058e+001 -3.0614e+001 53814 79127,79320,79153
 2.0000e+000 79418 -4.8037e+001 -1.1714e+002 -2.2853e+001 53814 79101,79320,79392
 2.0000e+000 79546 -2.1197e+001 -8.2804e+001  1.2482e+001 53814 79179,79153,79520
 2.0000e+000 79569  6.9945e+000 -6.9143e+001  8.3017e+000 53814 79179,79520,79023
 2.0000e+000 80075 -1.5526e+001 -1.5646e+001  3.2560e+001 53039 80098,79908,79830
 2.0000e+000 80052 -2.2643e+001 -1.0278e+001  4.6463e+000 53039 80098,79830,79804
 2.0000e+000 80029  2.5830e+001  2.1393e+001  1.6865e+001 53039 79752,79934,79804
 2.0000e+000 80006  3.9046e+001  1.8088e+001  2.4017e+001 53039 79856,79908,79882
 2.0000e+000 79983  9.0127e+000 -2.5376e+001  3.7600e+001 53039 79830,79908,79856
 2.0000e+000 79960 -8.9119e+000 -1.1442e+001 -9.2567e+000 53039 79752,79804,79778
 2.0000e+000 80124  2.8669e+001  3.9588e+000  3.6362e+001 53039 79934,79908,80098
 2.0000e+000 80147 -2.7941e+000 -1.1294e+000  7.1023e+000 53039 79934,80098,79804
 2.0000e+000 80555 -3.4107e+001 -6.9178e+001  6.2217e+000 52699 80356,80434,80408
 2.0000e+000 80532 -1.6778e-001 -6.5845e+001 -1.2405e+000 52699 80356,80460,80434
 2.0000e+000 80509 -1.3444e+001 -7.0301e+001 -1.6325e+000 52699 80330,80460,80356
 2.0000e+000 80486 -3.4713e+001 -7.9245e+001  2.5155e+000 52699 80356,80408,80382
 2.0000e+000 80776  8.9060e+000 -3.4384e+001  3.5181e+000 52295 80600,80678,80626
 2.0000e+000 80753  2.1141e+001 -2.8381e+001  8.0734e-001 52295 80600,80704,80678
 2.0000e+000 80730  3.0926e+001 -2.5032e+001  3.6183e+000 52295 80626,80678,80652
 2.0000e+000 81156 -3.4033e+001 -1.1091e+002  2.2769e+001 51891 81179,80960,80908
 2.0000e+000 81133 -2.6001e+001 -9.6581e+001  7.0496e+000 51891 81179,80908,81012
 2.0000e+000 81110 -4.0037e+001 -1.0076e+002  8.6145e+000 51891 80882,81012,80908
 2.0000e+000 81087 -1.2114e+001 -1.6551e+002  1.7098e+001 51891 80908,80960,80934
 2.0000e+000 81064 -2.8674e+001 -6.8973e+001  1.1658e+001 51891 80882,81038,81012
 2.0000e+000 81205 -1.4888e+001 -1.0728e+002  1.3327e+001 51891 80986,80960,81179
 2.0000e+000 81228 -1.8193e+001 -9.5340e+001 -2.1183e+000 51891 80986,81179,81012
 2.0000e+000 81606 -1.4657e+001 -1.6919e+002 -5.5263e+001 51544 81410,81462,81436
 2.0000e+000 81583 -6.7877e+000 -1.0589e+002 -2.6619e+001 51544 81384,81462,81410
 2.0000e+000 81560 -1.6875e+001 -8.5047e+001 -2.7152e+001 51544 81358,81462,81384
 2.0000e+000 81537 -1.2664e+001 -8.7437e+001 -1.8997e+001 51544 81358,81488,81462
 2.0000e+000 81514  6.8622e+000 -1.3267e+001 -1.2715e+001 51544 81332,81488,81358
 2.0000e+000 81854  5.0917e+001 -8.5770e+001  8.5641e+000 51004 81877,81655,81629
 2.0000e+000 81831  4.0145e+001 -7.4462e+001  8.4196e+000 51004 81877,81629,81759
 2.0000e+000 81808  1.4369e+001 -4.5577e+001  4.0738e+001 51004 81655,81707,81681
 2.0000e+000 81785 -7.3228e+000 -1.4367e+002  1.0552e+001 51004 81707,81759,81733
 2.0000e+000 81903  4.2014e+001 -8.4500e+001  4.5725e+000 51004 81707,81655,81877
 2.0000e+000 81926  2.2193e+001 -8.4373e+001  2.4838e-001 51004 81707,81877,81759
 2.0000e+000 82257  1.8272e+000 -4.4577e+001 -9.0438e+000 50642 82058,82136,82110
 2.0000e+000 82234 -5.5133e+000 -5.0807e+001 -6.3864e+000 50642 82058,82162,82136
 2.0000e+000 82211 -1.7941e+001 -7.1732e+001  1.9399e+001 50642 82058,82110,82084
 2.0000e+000 82188 -8.6026e+000 -5.1466e+001 -1.5020e+001 50642 82032,82162,82058
 2.0000e+000 82684  1.5956e+001 -9.6438e+001 -2.1348e+000 49931 82779,82707,82465
 2.0000e+000 82661 -3.1206e+000 -1.1619e+002  1.3482e+001 49931 82707,82413,82361
 2.0000e+000 82638  1.4599e+001 -8.6058e+001 -3.1085e+001 49931 82779,82465,82439
 2.0000e+000 82615 -2.4070e+001 -1.3631e+002  1.7712e+001 49931 82465,82543,82491
 2.0000e+000 82592  9.1442e+000 -7.3706e+001  8.3254e+000 49931 82361,82413,82387
 2.0000e+000 82569  1.4635e+001 -9.0131e+001  1.0779e+000 49931 82491,82543,82517
 2.0000e+000 82733 -1.1208e+001 -1.0570e+002  4.7139e+000 49931 82543,82465,82707
 2.0000e+000 82756  2.1894e+000 -7.6869e+001  1.2556e+001 49931 82543,82707,82361
 2.0000e+000 82805 -6.4465e-001 -1.3627e+002  5.1708e-001 49931 82413,82707,82779
 2.0000e+000 82828 -1.9519e+000 -1.2235e+002 -2.6632e+001 49931 82413,82779,82439
 2.0000e+000 83255 -4.5682e+001 -1.7059e+002 -1.4051e+001 49327 82984,83114,83036
 2.0000e+000 83232 -4.7403e+001 -1.7286e+002 -2.9723e+001 49327 82958,83114,82984
 2.0000e+000 83209 -1.0545e-001 -1.7029e+002 -1.7577e+001 49327 83036,83114,83088
 2.0000e+000 83186 -1.7948e+001 -1.5325e+002 -6.6708e+000 49327 82984,83036,83010
 2.0000e+000 83163 -3.2400e+001 -1.6957e+002 -2.8890e+001 49327 82932,83114,82958
 2.0000e+000 83140 -5.9823e+001 -3.0074e+002  8.2926e-001 49327 83036,83088,83062
 2.0000e+000 83938 -6.1907e+001 -1.6791e+002  2.0527e+001 48965 83961,83673,83647
 2.0000e+000 83915 -3.1290e+001 -1.1522e+002  7.6036e+000 48965 83961,83647,83543
 2.0000e+000 83892 -4.0131e+001 -1.1950e+002 -2.2428e+001 48965 83517,83725,83543
 2.0000e+000 83869  1.1836e+000 -1.2097e+002 -2.5847e+001 48965 83673,83725,83699
 2.0000e+000 83846 -3.3083e+001 -9.7528e+001 -9.0450e+000 48965 83543,83647,83621
 2.0000e+000 83823 -1.8413e+001 -8.8865e+001 -1.5429e+001 48965 83543,83621,83569
 2.0000e+000 83800  5.2814e+001 -7.6601e+001 -8.6934e+000 48965 83517,83751,83725
 2.0000e+000 83777 -1.0167e+000 -7.1881e+001  9.1117e+000 48965 83569,83621,83595
 2.0000e+000 83987 -3.2017e+001 -1.4780e+002 -1.2006e+001 48965 83725,83673,83961
 2.0000e+000 84010 -2.5536e+001 -1.3318e+002 -1.8329e+001 48965 83725,83961,83543
 2.0000e+000 84258 -5.1013e+000 -1.3513e+002  3.5848e+001 48447 84281,84059,84033
 2.0000e+000 84235  2.6398e+000 -1.1381e+002  2.1329e+001 48447 84281,84033,84163
 2.0000e+000 84212  1.3354e+001 -1.0417e+002  9.4213e+000 48447 84059,84111,84085
 2.0000e+000 84189  3.2560e+001 -1.1460e+002  1.0199e+001 48447 84111,84163,84137
 2.0000e+000 84307  7.6057e+000 -1.3012e+002  1.9044e+001 48447 84111,84059,84281
 2.0000e+000 84330  2.0622e+001 -1.1553e+002  4.9785e+000 48447 84111,84281,84163
 2.0000e+000 84529 -3.5150e+000 -1.1024e+002 -7.1222e-001 47993 84552,84405,84379
 2.0000e+000 84506 -3.7915e+001 -1.2001e+002  2.8597e+000 47993 84552,84379,84353
 2.0000e+000 84483 -9.9519e+000 -1.1163e+002 -9.3191e+000 47993 84624,84457,84431
 2.0000e+000 84578  2.1538e+000 -1.1491e+002 -8.7237e+000 47993 84431,84405,84552
 2.0000e+000 84601 -1.0409e+001 -1.1832e+002 -5.2462e+000 47993 84624,84431,84552
 2.0000e+000 84650 -9.4402e+000 -1.0743e+002 -9.6527e+000 47993 84353,84457,84624
 2.0000e+000 84673 -5.8928e+000 -1.0619e+002 -4.3272e+000 47993 84353,84624,84552
 2.0000e+000 85104 -4.2114e+001 -1.3921e+002 -1.8528e+001 47588 85199,85127,84885
 2.0000e+000 85081 -2.4853e+001 -1.3191e+002 -2.2560e+001 47588 85127,84781,84963
 2.0000e+000 85058 -5.2742e+001 -1.3871e+002 -6.8739e+000 47588 85199,84885,84807
 2.0000e+000 85035 -3.1368e+001 -1.2250e+002  4.3924e+001 47588 84885,84937,84911
 2.0000e+000 85012 -5.2465e+001 -1.0356e+002 -1.6935e+001 47588 84807,84885,84833
 2.0000e+000 84989 -4.1791e+001 -9.8782e+001 -1.1224e+001 47588 84833,84885,84859
 2.0000e+000 85153 -3.1493e+001 -1.7940e+002  3.2732e+000 47588 84937,84885,85127
 2.0000e+000 85176  3.8088e+001 -1.4766e+002 -6.9891e+000 47588 84937,85127,84963
 2.0000e+000 85225 -6.1330e+001 -1.4477e+002 -1.5145e+001 47588 84781,85127,85199
 2.0000e+000 85248 -6.9152e+001 -1.4578e+002 -1.8749e+000 47588 84781,85199,84807
 2.0000e+000 85518  3.1055e+000 -1.1194e+002  5.4161e+000 47226 85293,85397,85319
 2.0000e+000 85495 -1.9359e+001 -1.2028e+002  6.2745e+000 47226 85293,85423,85397
 2.0000e+000 85472 -2.7668e+001 -1.2896e+002 -4.7772e+000 47226 85319,85397,85345
 2.0000e+000 85449 -3.9703e+000 -7.2813e+001  2.5658e+000 47226 85345,85397,85371
 2.0000e+000 85849  9.2743e+000 -9.6770e+001 -1.3588e+001 46572 85624,85702,85650
 2.0000e+000 85826 -9.8054e+000 -1.4572e+002 -1.3442e+001 46572 85624,85754,85702
 2.0000e+000 85803  1.7308e+001 -1.1008e+002 -9.3834e-001 46572 85702,85754,85728
 2.0000e+000 85780  3.8909e+001 -8.6991e+001 -5.8969e+000 46572 85650,85702,85676
 2.0000e+000 86070 -9.3546e+001 -1.6850e+002 -6.3428e+000 46374 85920,85972,85946
 2.0000e+000 86047 -7.9839e+001 -1.3477e+002  1.3463e+000 46374 85920,85998,85972
 2.0000e+000 86024 -2.8805e+001 -1.1066e+002  3.4318e+001 46374 85894,85998,85920
 2.0000e+000 86401 -2.1163e+001 -1.1892e+002  3.0710e+000 46034 86424,86280,86228
 2.0000e+000 86378 -2.2467e+001 -1.4070e+002 -3.5578e+000 46034 86424,86228,86176
 2.0000e+000 86355 -3.0620e+001 -1.3383e+002 -2.6884e+001 46034 86176,86228,86202
 2.0000e+000 86332  3.3512e+000 -1.0846e+002 -2.3871e+000 46034 86228,86280,86254
 2.0000e+000 86450 -7.8581e+000 -1.4342e+002  3.7621e+000 46034 86306,86280,86424
 2.0000e+000 86473 -1.5343e+001 -1.6661e+002 -8.5535e+000 46034 86306,86424,86176
 2.0000e+000 87058 -4.8615e+000 -1.1605e+002 -8.8903e+000 45516 86813,86917,86865
 2.0000e+000 87035 -2.1937e+001 -1.4933e+002 -5.8756e-001 45516 86787,86917,86813
 2.0000e+000 87012 -2.1384e+001 -1.6020e+002  9.2014e-001 45516 86735,86917,86787
 2.0000e+000 86989  4.9552e+001 -8.5368e+001 -2.2424e+001 45516 86865,86917,86891
 2.0000e+000 86966  1.6220e+001 -1.0845e+002 -2.4317e+000 45516 86813,86865,86839
 2.0000e+000 86943 -1.0800e+001 -1.8276e+002 -1.9019e+001 45516 86735,86787,86761
 2.0000e+000 87208 -3.2045e+001 -9.8909e+001  1.0104e+001 45226 87231,87133,87107
 2.0000e+000 87185  3.0582e+000 -1.0379e+002  2.6964e+001 45226 87081,87159,87133
 2.0000e+000 87257  2.3184e+001 -8.6698e+001 -1.1252e+001 45226 87081,87133,87231
 2.0000e+000 87537  1.3983e+001 -1.3827e+002  2.5677e+001 44772 87387,87439,87413
 2.0000e+000 87514 -2.1556e+001 -1.4525e+002  1.2796e+001 44772 87361,87439,87387
 2.0000e+000 87491  2.2694e+001 -1.2788e+002 -4.8735e-001 44772 87361,87465,87439
 2.0000e+000 87996  4.6332e+000 -7.8795e+001 -1.2750e+001 44425 87748,87878,87852
 2.0000e+000 87973  4.0990e+001 -6.2495e+001 -2.6309e+001 44425 87722,87878,87748
 2.0000e+000 87950  5.5914e+001 -1.0302e+002 -2.2068e+001 44425 87800,87852,87826
 2.0000e+000 87927 -5.4205e+000 -1.0724e+002 -3.4085e+000 44425 87748,87852,87800
 2.0000e+000 87904  2.8111e+001 -1.2513e+002  2.7076e+001 44425 87748,87800,87774
 2.0000e+000 88423  1.6495e+001 -1.1316e+002 -1.0675e+001 44078 88590,88230,88204
 2.0000e+000 88400  1.2187e+001 -1.1711e+002 -2.3364e+000 44078 88518,88446,88204
 2.0000e+000 88377  9.0564e+000 -1.1578e+002 -4.6938e+000 44078 88446,88126,88282
 2.0000e+000 88354  1.5967e+001 -1.1922e+002 -9.1792e-001 44078 88518,88204,88178
 2.0000e+000 88331  2.2885e+001 -1.4157e+002  4.7589e+000 44078 88100,88282,88126
 2.0000e+000 88308  1.8773e+001 -9.6053e+001  4.8294e+001 44078 88126,88178,88152
 2.0000e+000 88472  1.6380e+001 -1.1504e+002 -5.1489e+000 44078 88590,88204,88446
 2.0000e+000 88495  8.7345e+000 -1.1990e+002 -6.5002e+000 44078 88256,88446,88282
 2.0000e+000 88544  1.5419e+001 -1.1279e+002 -9.1702e-001 44078 88126,88446,88518
 2.0000e+000 88567  1.7621e+001 -1.1724e+002 -2.0825e-001 44078 88126,88518,88178
 2.0000e+000 88616 -4.7899e+001 -1.5734e+002 -3.7404e+001 44078 88256,88230,88590
 2.0000e+000 88639  4.5176e+000 -1.1963e+002 -6.4549e+000 44078 88256,88590,88446
 2.0000e+000 89039 -2.1339e+001 -1.0212e+002  4.6481e-001 43716 88791,88921,88895
 2.0000e+000 89016 -3.8165e+001 -9.9179e+001 -2.1553e+000 43716 88765,88921,88791
 2.0000e+000 88993 -2.6258e+001 -1.2608e+002  1.4186e+001 43716 88817,88895,88869
 2.0000e+000 88970 -8.2120e+001 -1.3610e+002  1.4766e+001 43716 88791,88895,88817
 2.0000e+000 88947  8.6622e+000 -1.0620e+002  6.0044e+000 43716 88817,88869,88843
 2.0000e+000 89496  5.7979e+000 -1.3384e+002 -1.2983e+001 43162 89519,89274,89248
 2.0000e+000 89473  8.9602e+000 -1.2367e+002 -1.0576e+001 43162 89519,89248,89222
 2.0000e+000 89450 -6.1225e+000 -1.1369e+002 -4.8694e+001 43162 89326,89378,89352
 2.0000e+000 89427 -9.8777e+000 -1.5354e+002 -1.4709e+001 43162 89274,89378,89326
 2.0000e+000 89404  1.7690e+001 -9.7216e+001  2.1619e+000 43162 89274,89326,89300
 2.0000e+000 89545  4.0641e+000 -1.2404e+002 -9.7320e+000 43162 89378,89274,89519
 2.0000e+000 89568  7.9383e+000 -1.1304e+002 -7.1416e+000 43162 89378,89519,89222
 2.0000e+000 89946 -1.0914e+001 -1.3446e+002 -1.9329e+001 42594 90041,89969,89750
 2.0000e+000 89923  2.0912e+001 -1.0336e+002 -2.8678e+001 42594 89969,89698,89828
 2.0000e+000 89900 -4.1182e+000 -1.4046e+002 -1.6797e+001 42594 90041,89750,89724
 2.0000e+000 89877 -4.5601e+001 -1.6260e+002 -9.4234e-001 42594 89750,89802,89776
 2.0000e+000 89854  3.0830e+001 -1.5777e+001 -3.2043e+001 42594 89672,89828,89698
 2.0000e+000 89995 -3.0622e+001 -1.1704e+002 -4.2605e+000 42594 89802,89750,89969
 2.0000e+000 90018  9.9285e+000 -1.0328e+002 -3.0714e+000 42594 89802,89969,89828
 2.0000e+000 90067 -6.3871e+000 -1.1449e+002 -1.6710e+001 42594 89698,89969,90041
 2.0000e+000 90090 -9.4390e+000 -1.3348e+002 -1.1998e+001 42594 89698,90041,89724
 2.0000e+000 90517 -5.7059e+001 -1.7381e+002  5.8778e+000 42140 90540,90220,90194
 2.0000e+000 90494 -5.0270e+001 -1.7211e+002  3.0141e+000 42140 90540,90194,90376
 2.0000e+000 90471 -4.6593e+001 -1.7555e+002  3.5282e+000 42140 90612,90350,90272
 2.0000e+000 90448 -6.2105e+001 -1.9388e+002 -3.2837e+000 42140 90272,90350,90298
 2.0000e+000 90425 -4.1027e+001 -1.6452e+002 -2.0738e+001 42140 90298,90350,90324
 2.0000e+000 90402 -3.5374e+001 -1.7372e+002  4.5097e+001 42140 90220,90272,90246
 2.0000e+000 90566 -5.1304e+001 -1.7552e+002  7.4602e+000 42140 90272,90220,90540
 2.0000e+000 90589 -4.6476e+001 -1.7519e+002  5.0408e+000 42140 90612,90272,90540
 2.0000e+000 90638 -4.8378e+001 -1.7517e+002  4.1362e+000 42140 90376,90350,90612
 2.0000e+000 90661 -5.1117e+001 -1.7649e+002  5.6074e+000 42140 90376,90612,90540
 2.0000e+000 91167 -5.1095e-001 -1.1654e+002 -8.0516e+000 41636 91190,90870,90844
 2.0000e+000 91144 -1.1553e+001 -1.5297e+002 -3.2838e+000 41636 91190,90844,91026
 2.0000e+000 91121  2.1453e+001 -1.1843e+002 -5.1093e+001 41636 90870,90922,90896
 2.0000e+000 91098 -2.8206e+001 -1.4124e+002  1.0976e+001 41636 90922,91026,90948
 2.0000e+000 91075  1.0556e+001 -1.1153e+002 -5.8997e+000 41636 90948,91026,91000
 2.0000e+000 91052 -1.1023e+001 -1.4458e+002  4.0234e+000 41636 90948,91000,90974
 2.0000e+000 91216 -1.2523e+001 -1.0193e+002 -8.8296e+000 41636 90922,90870,91190
 2.0000e+000 91239 -8.4050e+000 -1.1632e+002 -2.3478e+000 41636 90922,91190,91026
 2.0000e+000 91696 -5.5644e+001 -1.2798e+002 -2.4645e+001 40449 91448,91526,91474
 2.0000e+000 91673 -5.8605e+001 -1.3344e+002 -1.5666e+001 40449 91448,91578,91526
 2.0000e+000 91650 -3.1694e+001 -1.1695e+002 -1.3122e+001 40449 91474,91526,91500
 2.0000e+000 91627 -3.7436e+001 -1.3369e+002 -1.9620e+001 40449 91422,91578,91448
 2.0000e+000 91604 -3.0690e+001 -7.3855e+001 -3.3303e+001 40449 91526,91578,91552
 2.0000e+000 92123 -8.9839e+000 -1.0524e+002 -8.5665e+000 39995 92146,91904,91826
 2.0000e+000 92100  3.4770e+001 -9.1419e+001 -4.1493e+001 39995 92146,91826,91800
 2.0000e+000 92077 -9.7246e+000 -1.0207e+002 -9.5186e+000 39995 91826,91904,91852
 2.0000e+000 92054 -3.2814e+001 -1.7359e+002  1.3392e+001 39995 91904,91982,91930
 2.0000e+000 92031 -2.5167e+000 -1.0050e+002 -1.3127e+001 39995 91852,91904,91878
 2.0000e+000 92008 -2.2894e+001 -1.2228e+002  1.4010e+001 39995 91930,91982,91956
 2.0000e+000 92172 -2.4117e+001 -1.1577e+002  2.6752e+000 39995 91982,91904,92146
 2.0000e+000 92195 -5.6516e+000 -1.4495e+002 -2.1393e+001 39995 91982,92146,91800
 2.0000e+000 92652 -4.3994e+000 -7.3094e+001  8.3544e+000 39633 92404,92534,92456
 2.0000e+000 92629 -9.7352e+000 -9.0617e+001  5.1454e+000 39633 92378,92534,92404
 2.0000e+000 92606  2.1034e+001 -5.8404e+001  3.5196e+001 39633 92404,92456,92430
 2.0000e+000 92583 -3.3525e+001 -1.5789e+002  1.1544e+001 39633 92456,92534,92508
 2.0000e+000 92560 -1.5528e+000 -7.7902e+001  2.3566e+001 39633 92456,92508,92482
 2.0000e+000 93079 -1.6084e+001 -1.0750e+002 -1.0007e+001 39093 93102,92808,92756
 2.0000e+000 93056 -9.3134e+000 -9.3357e+001 -2.0156e+001 39093 93102,92756,92938
 2.0000e+000 93033 -1.9010e+001 -1.2105e+002 -3.6902e+000 39093 93174,92912,92834
 2.0000e+000 93010 -5.2272e+001 -1.2979e+002 -6.7665e+000 39093 92834,92912,92860
 2.0000e+000 92987  8.3336e+000 -1.1530e+002 -3.4572e+001 39093 92756,92808,92782
 2.0000e+000 92964 -4.8071e+001 -1.8040e+002 -6.8645e+001 39093 92860,92912,92886
 2.0000e+000 93128 -1.0173e+001 -1.1460e+002 -8.7401e+000 39093 92834,92808,93102
 2.0000e+000 93151 -1.5986e+001 -1.1206e+002 -7.1563e+000 39093 93174,92834,93102
 2.0000e+000 93200 -1.5496e+001 -1.1683e+002 -1.1284e+001 39093 92938,92912,93174
 2.0000e+000 93223 -1.0151e+001 -1.1151e+002 -1.5051e+001 39093 92938,93174,93102
 2.0000e+000 93680 -6.6190e+000 -6.3039e+001 -6.0469e+000 38639 93703,93536,93484
 2.0000e+000 93657 -1.8717e+001 -6.3346e+001 -2.4779e+000 38639 93703,93484,93432
 2.0000e+000 93634 -1.2017e+001 -7.0007e+001  8.0494e+000 38639 93432,93484,93458
 2.0000e+000 93611 -2.4661e+001 -1.0222e+002  2.7815e+000 38639 93484,93536,93510
 2.0000e+000 93588 -4.1459e+001 -4.7487e+001  2.5394e+000 38639 93406,93562,93432
 2.0000e+000 93729 -1.8473e+001 -4.7376e+001 -6.5985e+000 38639 93562,93536,93703
 2.0000e+000 93752 -4.4754e+001 -6.2950e+001  2.8384e+000 38639 93562,93703,93432
 2.0000e+000 94160 -2.8272e+000 -6.5915e+001 -2.2834e+001 38292 93935,94039,93961
 2.0000e+000 94137  2.4078e+000 -7.7596e+001  9.6159e+000 38292 93935,94065,94039
 2.0000e+000 94114 -7.8881e+001 -6.3905e+001 -2.1133e+001 38292 93961,94013,93987
 2.0000e+000 94091 -5.1456e+001 -6.2114e+001 -6.6864e+000 38292 93961,94039,94013
 2.0000e+000 94408 -4.4180e+000 -1.2078e+002 -5.1535e+000 37880 94431,94261,94235
 2.0000e+000 94385  1.3309e+000 -1.0179e+002 -2.8159e+000 37880 94431,94235,94313
 2.0000e+000 94362  1.6120e+000 -9.1843e+001  1.8886e+000 37880 94209,94313,94235
 2.0000e+000 94339  3.1067e+000 -9.4811e+001  1.3197e+001 37880 94183,94313,94209
 2.0000e+000 94457 -1.2595e+001 -1.0162e+002 -1.0402e+001 37880 94287,94261,94431
 2.0000e+000 94480 -9.1485e+000 -8.6871e+001 -5.5787e+000 37880 94287,94431,94313
 2.0000e+000 94728 -1.6801e+001 -1.1600e+002  1.1300e+000 37426 94529,94607,94555
 2.0000e+000 94705 -2.1970e+001 -1.3943e+002  2.8173e+000 37426 94529,94633,94607
 2.0000e+000 94682  3.8932e+001 -1.3776e+002  3.5331e+000 37426 94503,94633,94529
 2.0000e+000 94659 -1.5229e+001 -4.2906e+001 -3.5319e+001 37426 94555,94607,94581
 2.0000e+000 95257  1.1302e+001 -1.1165e+002 -5.7149e+000 36722 95496,95280,94862
 2.0000e+000 95234  3.9903e+001 -9.9475e+001 -5.6578e+000 36722 95496,94862,94836
 2.0000e+000 95211  2.3006e+001 -9.7140e+001  3.9328e+000 36722 95352,95280,95070
 2.0000e+000 95188  2.4560e+001 -7.7498e+001  9.8906e+000 36722 95352,95070,95044
 2.0000e+000 95165  2.5492e+001 -1.0981e+002 -2.6247e+001 36722 95424,94888,94862
 2.0000e+000 95142  3.8544e+001 -7.1784e+001  1.0822e+001 36722 94914,94966,94940
 2.0000e+000 95119  4.1766e-001 -1.8513e+002  5.9155e+001 36722 94966,95044,95018
 2.0000e+000 95096  6.0844e-001 -1.6269e+002  4.8179e+001 36722 94966,95018,94992
 2.0000e+000 95306  2.0047e+000 -9.9088e+001 -1.5125e+001 36722 95424,94862,95280
 2.0000e+000 95329  1.1167e+000 -9.7437e+001 -6.6670e+000 36722 94914,95280,94966
 2.0000e+000 95378  1.9598e+001 -1.0437e+002 -5.2977e+000 36722 94966,95280,95352
 2.0000e+000 95401  1.4256e+001 -9.6828e+001  8.9764e-001 36722 94966,95352,95044
 2.0000e+000 95450 -1.0689e+001 -1.1704e+002 -3.0703e+001 36722 94914,94888,95424
 2.0000e+000 95473 -1.6142e+001 -1.1052e+002 -2.1096e+001 36722 94914,95424,95280
 2.0000e+000 95522  7.5645e+000 -1.0960e+002 -4.2091e+000 36722 95070,95280,95496
 2.0000e+000 95545  8.7381e+000 -1.1136e+002 -5.4003e+000 36722 95070,95496,94836
 2.0000e+000 96130 -2.3553e+001 -6.3382e+001  1.1151e+001 36268 96153,95911,95859
 2.0000e+000 96107 -2.9015e+001 -8.5167e+001  8.5981e+000 36268 96153,95859,95807
 2.0000e+000 96084 -2.0325e+001 -7.3080e+001 -1.8728e-001 36268 95807,95859,95833
 2.0000e+000 96061 -3.7204e+001 -1.3970e+002  2.4701e+001 36268 95911,95989,95937
 2.0000e+000 96038 -1.4213e+001 -5.8800e+001  1.4031e+001 36268 95859,95911,95885
 2.0000e+000 96015 -1.3695e+001 -1.1207e+002  1.0604e+001 36268 95937,95989,95963
 2.0000e+000 96179 -9.9047e+000 -8.3625e+001  1.6253e+001 36268 95989,95911,96153
 2.0000e+000 96202 -1.9873e+001 -1.1190e+002  1.2593e+001 36268 95989,96153,95807
 2.0000e+000 96531  8.2098e-001 -1.4476e+002  9.0005e+000 35728 96358,96410,96384
 2.0000e+000 96508 -3.5642e+001 -1.5444e+002  1.1880e+001 35728 96332,96410,96358
 2.0000e+000 96485 -1.8677e+001 -1.1552e+002  9.0757e+000 35728 96332,96436,96410
 2.0000e+000 96462  8.2739e+000 -8.4992e+001 -1.2895e+001 35728 96306,96436,96332
 2.0000e+000 96860 -1.9358e+001 -1.0995e+002 -1.5373e+001 35324 96687,96765,96713
 2.0000e+000 96837 -4.3863e+001 -1.6352e+002 -6.1132e+000 35324 96661,96765,96687
 2.0000e+000 96814 -5.2007e+001 -1.3316e+002 -5.1610e+000 35324 96713,96765,96739
 2.0000e+000 96791 -4.0142e+001 -1.9959e+002 -1.5561e+001 35324 96635,96765,96661
 2.0000e+000 97366 -5.2537e+001 -1.4853e+002 -5.8871e-001 34920 97389,97069,97043
 2.0000e+000 97343 -4.5760e+001 -1.3656e+002  2.2965e+000 34920 97389,97043,97199
 2.0000e+000 97320 -5.2664e+001 -1.5531e+002  3.6851e+000 34920 97043,97225,97199
 2.0000e+000 97297 -4.1535e+001 -1.8077e+002 -1.3782e+001 34920 97069,97121,97095
 2.0000e+000 97274 -7.2348e+001 -1.2475e+002 -1.4465e+001 34920 97121,97199,97173
 2.0000e+000 97251 -6.3677e+001 -9.3385e+001 -3.6795e+001 34920 97121,97173,97147
 2.0000e+000 97415 -6.2643e+001 -1.4909e+002 -1.7691e+001 34920 97121,97069,97389
 2.0000e+000 97438 -5.0652e+001 -1.2299e+002 -1.4107e+001 34920 97121,97389,97199
 2.0000e+000 97708 -3.8349e+001 -1.4069e+002 -9.4699e+000 34722 97509,97587,97535
 2.0000e+000 97685 -1.5084e+001 -1.4274e+002 -1.3623e+001 34722 97509,97613,97587
 2.0000e+000 97662 -6.6306e+001 -1.6742e+002 -2.1065e+001 34722 97483,97613,97509
 2.0000e+000 97639 -1.7594e+001 -1.1474e+002  2.3460e+001 34722 97535,97587,97561
 2.0000e+000 98216 -2.5843e+001 -1.9599e+002 -1.5429e+001 34318 97971,98075,97997
 2.0000e+000 98193  1.3052e+001 -1.3918e+002  9.4292e+000 34318 97893,98075,97971
 2.0000e+000 98170  1.9709e+001 -1.1643e+002  7.1555e+000 34318 97893,97971,97919
 2.0000e+000 98147 -3.6146e+001 -1.3629e+002  1.2359e+001 34318 97997,98075,98049
 2.0000e+000 98124  1.5056e+001 -9.2154e+001 -5.4264e+000 34318 97919,97971,97945
 2.0000e+000 98101 -4.6282e+001 -1.5290e+002  2.9284e+001 34318 97997,98049,98023
 2.0000e+000 98594 -8.2380e+000 -9.4601e+001 -5.1456e+000 33814 98961,98617,98424
 2.0000e+000 98571 -1.6163e+001 -1.0500e+002 -1.6905e+000 33814 98689,98617,98372
 2.0000e+000 98548 -1.6238e+001 -7.9638e+001 -4.2166e+000 33814 99033,98689,98372
 2.0000e+000 98525 -5.7535e+000 -6.0107e+001  3.0578e+001 33814 98761,98476,98450
 2.0000e+000 98502 -8.5426e+000 -9.1959e+001 -5.0123e+000 33814 98961,98424,98398
 2.0000e+000 98643 -2.5875e+001 -9.5936e+001  2.7149e+000 33814 98450,98424,98617
 2.0000e+000 98666 -1.5262e+001 -8.5015e+001  8.9747e+000 33814 98761,98450,98617
 2.0000e+000 98715 -3.1623e+001 -1.1410e+002  1.5713e+000 33814 99161,98689,98320
 2.0000e+000 98738 -2.3398e+001 -1.2299e+002  1.3999e+000 33814 98320,98689,98346
 2.0000e+000 98787 -5.6160e+001 -1.0162e+002  3.0766e+001 33814 98833,98761,98320
 2.0000e+000 98810 -2.7185e+001 -1.1807e+002  1.0403e+001 33814 99161,98320,98761
 2.0000e+000 98859 -1.6954e+001 -6.7919e+001  1.6419e+001 33814 98476,98761,98833
 2.0000e+000 98987 -9.8142e+000 -8.9871e+001 -5.4958e+000 33814 98372,98617,98961
 2.0000e+000 99010 -8.9134e+000 -8.5597e+001 -5.2171e+000 33814 98372,98961,98398
 2.0000e+000 99059 -4.7725e+001 -1.4516e+002 -1.8435e+001 33814 98346,98689,99033
 2.0000e+000 99187 -2.5603e+001 -1.0032e+002  2.4475e+000 33814 98617,98689,99161
 2.0000e+000 99210 -2.1846e+001 -1.0600e+002  1.1756e+001 33814 98617,99161,98761
 2.0000e+000 99588 -3.6313e+001 -9.5203e+001 -6.0002e+000 33566 99366,99444,99392
 2.0000e+000 99565 -2.0162e+001 -8.7780e+001 -1.1880e+000 33566 99314,99444,99366
 2.0000e+000 99542 -3.3360e+001 -1.0819e+002  6.0471e+000 33566 99314,99366,99340
 2.0000e+000 99519 -1.6708e+001 -9.8020e+001  1.5047e+001 33566 99314,99470,99444
 2.0000e+000 99496 -1.5424e+001 -8.1618e+001 -2.3640e+001 33566 99392,99444,99418
 2.0000e+000 99787 -1.6290e+001 -1.4186e+002  7.2511e+000 33105 99637,99689,99663
 2.0000e+000 99764 -1.9517e+000 -1.3129e+002 -1.1540e+000 33105 99611,99689,99637
 2.0000e+000 99741 -6.9012e+000 -1.0891e+002  6.9826e+000 33105 99611,99715,99689
 2.0000e+000 100167 -3.8338e+001 -1.1385e+002  2.3585e+001 32651 100190,99971,99919
 2.0000e+000 100144 -1.0040e+001 -9.0723e+001  1.3124e+001 32651 100262,100190,99919
 2.0000e+000 100121 -9.6443e+000 -8.9278e+001  1.1587e+001 32651 100262,99919,100049
 2.0000e+000 100098  1.1458e+001 -7.9616e+001 -7.3763e+000 32651 99893,100049,99919
 2.0000e+000 100075 -1.5299e+000 -1.0632e+002  4.6877e+001 32651 99919,99971,99945
 2.0000e+000 100216 -7.9708e+000 -1.1429e+002  8.7872e+000 32651 99997,99971,100190
 2.0000e+000 100239 -5.9708e-002 -1.0600e+002  3.0182e+000 32651 99997,100190,100023
 2.0000e+000 100288 -4.4306e+000 -1.0165e+002  1.2811e+001 32651 100023,100190,100262
 2.0000e+000 100311  1.0291e+001 -9.1564e+001  5.8789e+000 32651 100023,100262,100049
 2.0000e+000 100608 -2.7611e+001 -1.2688e+002 -4.4606e+000 32254 100386,100490,100464
 2.0000e+000 100585 -4.4712e+001 -1.3995e+002 -1.6309e+001 32254 100360,100490,100386
 2.0000e+000 100562 -3.1989e+001 -1.2885e+002 -5.1590e+000 32254 100386,100464,100412
 2.0000e+000 100539  1.7479e+001 -1.0940e+002 -5.2384e+000 32254 100334,100490,100360
 2.0000e+000 100516 -3.1199e+001 -8.9834e+001 -1.2471e+001 32254 100412,100464,100438
 2.0000e+000 100758  3.2009e+001 -3.4409e+000  3.1928e+001 31914 100985,100781,100683
 2.0000e+000 100735 -1.8615e+001 -4.8977e+001  8.7780e+000 31914 100853,100781,100657
 2.0000e+000 100807  2.9752e+001 -5.3989e+001  2.2026e+001 31914 100709,100683,100781
 2.0000e+000 100830  5.4931e+001 -4.7526e+001  7.9599e+000 31914 100709,100781,100631
 2.0000e+000 100879  4.9117e+001 -2.5425e+001 -1.8122e+001 31914 100631,100781,100853
 2.0000e+000 101011 -3.0780e+000 -3.9911e+001  1.3666e+001 31914 100657,100781,100985
 2.0000e+000 101191 -1.1746e+001 -1.5514e+002  1.6092e+001 31418 101113,101165,101139
 2.0000e+000 101341 -3.4496e+001 -1.0812e+002 -5.2432e+000 31106 101214,101266,101240
 2.0000e+000 101318 -2.8940e+001 -9.7425e+001 -7.7961e+000 31106 101214,101292,101266
 2.0000e+000 101591 -1.3408e+001 -9.8458e+001  2.5966e+001 30552 101614,101470,101444
 2.0000e+000 101568  2.9644e+001 -8.6442e+001  2.6467e+001 30552 101366,101496,101470
 2.0000e+000 101545 -1.1607e+001 -1.0194e+002  2.3138e+001 30552 101614,101444,101392
 2.0000e+000 101522  4.5783e+001 -7.0953e+001  1.1259e+001 30552 101392,101444,101418
 2.0000e+000 101640 -1.0382e+001 -9.5677e+001  2.7674e+001 30552 101366,101470,101614
 2.0000e+000 101663 -8.9573e+000 -9.9257e+001  2.4759e+001 30552 101366,101614,101392
 2.0000e+000 102301 -3.1930e+001 -1.3114e+002  1.3065e+001 30042 102396,102324,102059
 2.0000e+000 102278 -1.2052e+001 -1.0763e+002  1.0221e+001 30042 102324,101981,101955
 2.0000e+000 102255 -4.0511e+001 -1.2703e+002  2.0813e+001 30042 102396,102059,102033
 2.0000e+000 102232 -2.2410e+001 -9.1605e+001  1.5949e+000 30042 101929,102111,101955
 2.0000e+000 102209 -1.5266e+001 -1.3658e+002 -1.0281e+001 30042 102059,102111,102085
 2.0000e+000 102186 -1.9311e+001 -8.8495e+001 -2.8507e+000 30042 101929,102137,102111
 2.0000e+000 102163  6.5531e+001 -6.8883e+001  2.8686e+000 30042 101981,102033,102007
 2.0000e+000 102350 -2.9124e+001 -1.2293e+002 -3.9064e+000 30042 102111,102059,102324
 2.0000e+000 102373 -2.2799e+001 -1.0371e+002 -4.2206e+000 30042 102111,102324,101955
 2.0000e+000 102422 -1.9004e+001 -1.1659e+002  7.1300e+000 30042 101981,102324,102396
 2.0000e+000 102445 -2.8126e+001 -1.1271e+002  1.4973e+001 30042 101981,102396,102033
 2.0000e+000 103000 -1.3173e+001 -1.3116e+002 -4.5921e+000 29730 103023,102706,102654
 2.0000e+000 102977 -2.5879e+001 -1.2621e+002 -1.3449e+001 29730 103023,102654,102810
 2.0000e+000 102954 -4.2853e+001 -2.0133e+002 -2.2119e+001 29730 102732,102810,102784
 2.0000e+000 102931 -6.2913e+001 -1.3872e+002 -2.1672e+001 29730 102628,102810,102654
 2.0000e+000 102908 -1.8019e+001 -1.2514e+002  5.5323e-001 29730 102654,102706,102680
 2.0000e+000 102885 -2.7967e+001 -1.2800e+002 -5.6884e+001 29730 102732,102784,102758
 2.0000e+000 102862 -5.8649e+001 -1.3597e+002 -2.4977e+001 29730 102628,102836,102810
 2.0000e+000 103049 -2.2227e+001 -1.4522e+002 -8.8862e+000 29730 102732,102706,103023
 2.0000e+000 103072 -2.9523e+001 -1.3189e+002 -1.5871e+001 29730 102732,103023,102810
 2.0000e+000 103222  8.8646e+000 -1.1427e+002 -1.1831e+001 29226 103095,103147,103121
 2.0000e+000 103199  3.5071e+000 -1.1547e+002 -1.1167e+001 29226 103095,103173,103147
 2.0000e+000 103730 -2.8116e+001 -1.0637e+002  6.9864e-001 28822 103537,103589,103563
 2.0000e+000 103707 -2.8185e+001 -1.2196e+002 -1.0142e+000 28822 103433,103589,103537
 2.0000e+000 103684 -6.3319e+001 -1.2860e+002 -1.4121e+001 28822 103433,103537,103459
 2.0000e+000 103661 -2.3620e+001 -1.3677e+002 -1.8108e-001 28822 103407,103589,103433
 2.0000e+000 103638 -3.9774e+001 -6.9589e+001  2.9103e+000 28822 103459,103511,103485
 2.0000e+000 103615 -2.8269e+001 -8.1498e+001  8.4580e+000 28822 103459,103537,103511
 2.0000e+000 103880 -4.0269e+000 -1.0894e+002  8.8256e+000 28368 103975,103903,103779
 2.0000e+000 103857 -6.0779e+000 -1.2528e+002 -1.2713e+000 28368 103903,103753,103831
 2.0000e+000 103929 -9.6263e+000 -1.1677e+002  6.3434e+000 28368 103805,103779,103903
 2.0000e+000 103952  8.4914e+000 -1.1543e+002  5.6739e+000 28368 104105,103903,103831
 2.0000e+000 104001 -1.5071e+001 -1.1834e+002  2.2703e-001 28368 103753,103903,103975
 2.0000e+000 104131 -1.5411e+001 -1.2308e+002  8.8137e+000 28368 103805,103903,104105
 2.0000e+000 104539 -1.5297e+001 -7.1437e+001  1.1994e+001 28028 104562,104340,104314
 2.0000e+000 104516 -2.0390e+001 -4.6695e+001  2.0462e+001 28028 104634,104562,104314
 2.0000e+000 104493 -2.6495e+001 -7.6646e+001 -6.2981e+000 28028 104762,104366,104340
 2.0000e+000 104470 -2.0612e+001 -7.5689e+001 -2.0113e+001 28028 104366,104418,104392
 2.0000e+000 104588 -2.5910e+001 -8.3088e+001 -2.4471e-001 28028 104762,104340,104562
 2.0000e+000 104611 -3.3058e+001 -5.7048e+001  5.1912e+000 28028 104418,104562,104444
 2.0000e+000 104660 -4.3489e+001 -6.0676e+001  1.1749e+001 28028 104444,104562,104634
 2.0000e+000 104788 -2.8924e+001 -6.7926e+001 -5.1286e+000 28028 104418,104366,104762
 2.0000e+000 104811 -2.6069e+001 -7.1384e+001  1.0717e+000 28028 104418,104762,104562
 2.0000e+000 105010  3.2891e+001 -7.0028e+001  2.1776e+001 27324 105033,104886,104860
 2.0000e+000 104987  2.4323e+001 -7.2414e+001  2.4930e+001 27324 105033,104860,104834
 2.0000e+000 104964  2.9730e+001 -7.5743e+001  1.9975e+001 27324 105105,104912,104886
 2.0000e+000 105059  3.0755e+001 -7.3827e+001  2.0521e+001 27324 105105,104886,105033
 2.0000e+000 105082  2.9116e+001 -6.0749e+001  2.3958e+001 27324 104938,105033,104834
 2.0000e+000 105131  2.3927e+001 -7.3923e+001  1.5943e+001 27324 104938,104912,105105
 2.0000e+000 105154  2.7400e+001 -6.8378e+001  1.7526e+001 27324 104938,105105,105033
 2.0000e+000 105402 -4.9088e+001 -8.3121e+001 -5.9790e+000 27012 105229,105281,105255
 2.0000e+000 105379 -2.8713e+001 -7.2050e+001 -1.1398e+001 27012 105229,105307,105281
 2.0000e+000 105356 -1.4501e+001 -6.2924e+001 -7.3981e+000 27012 105177,105307,105229
 2.0000e+000 105333 -4.2679e+001 -7.0763e+001 -3.6506e+001 27012 105177,105229,105203
 2.0000e+000 105603  3.6280e+000 -2.9955e+001  1.3609e+001 26508 105626,105453,105427
 2.0000e+000 105580  4.6279e+000 -2.7272e+001  7.8124e+000 26508 105626,105427,105505
 2.0000e+000 105557 -7.0871e-001 -2.0143e+001  2.6656e+000 26508 105427,105531,105505
 2.0000e+000 105652  8.7044e+000 -2.7690e+001  1.1592e+001 26508 105479,105453,105626
 2.0000e+000 105675  1.0007e+001 -2.6650e+001  6.3267e+000 26508 105479,105626,105505
 2.0000e+000 106057 -1.9669e+001 -9.2019e+001  3.2174e+001 25947 106080,105887,105861
 2.0000e+000 106034 -1.3344e+001 -9.4468e+001  4.9040e+000 25947 106080,105861,105783
 2.0000e+000 106011 -2.4886e+001 -6.7385e+001  2.9832e+000 25947 105783,105835,105809
 2.0000e+000 105988 -3.5205e+001 -6.9472e+001  6.7787e+000 25947 105783,105861,105835
 2.0000e+000 105965  2.6037e-001 -3.9842e+001  1.2132e+001 25947 105887,105939,105913
 2.0000e+000 106106 -4.6478e+000 -8.5331e+001  3.0952e+001 25947 105939,105887,106080
 2.0000e+000 106129  2.0979e+001 -7.9495e+001  1.5767e+000 25947 105939,106080,105783
 2.0000e+000 106714 -3.5577e+001 -7.5144e+001 -4.5885e+000 25557 106809,106737,106547
 2.0000e+000 106691 -3.4376e+001 -8.2169e+001  1.5128e+000 25557 106737,106417,106391
 2.0000e+000 106668 -3.2364e+001 -7.4179e+001 -4.9982e+000 25557 106809,106547,106495
 2.0000e+000 106645 -5.0903e+001 -1.2549e+002  2.9944e+000 25557 106417,106495,106469
 2.0000e+000 106622 -3.2350e+001 -7.7796e+001 -1.0019e+001 25557 106495,106547,106521
 2.0000e+000 106599 -2.8125e+001 -1.3458e+002  1.0184e+001 25557 106417,106469,106443
 2.0000e+000 106763 -4.1060e+001 -7.5985e+001 -4.6695e-001 25557 106573,106547,106737
 2.0000e+000 106786 -3.0401e+001 -7.1863e+001  3.3468e+000 25557 106573,106737,106391
 2.0000e+000 106835 -3.1689e+001 -7.6372e+001 -3.1959e+000 25557 106417,106737,106809
 2.0000e+000 106858 -2.9755e+001 -7.6301e+001 -3.9680e+000 25557 106417,106809,106495
 2.0000e+000 107364  8.2609e-001 -6.5199e+001 -3.0357e+001 25153 107459,107387,107171
 2.0000e+000 107341 -3.4166e+001 -7.8217e+001 -2.3543e+000 25153 107387,107119,107067
 2.0000e+000 107318  1.7160e+001 -5.8988e+001 -2.9696e+001 25153 107459,107171,107145
 2.0000e+000 107295 -2.6438e+001 -8.2320e+001 -2.4107e+001 25153 107531,107223,107197
 2.0000e+000 107272 -3.4323e+001 -7.4740e+001  2.1330e+000 25153 107067,107119,107093
 2.0000e+000 107249 -2.8945e+001 -6.8116e+001 -8.1749e+000 25153 107041,107223,107067
 2.0000e+000 107413 -4.3495e+001 -8.8088e+001 -2.2215e+001 25153 107197,107171,107387
 2.0000e+000 107436 -1.4722e+001 -8.0129e+001 -2.0509e+001 25153 107531,107197,107387
 2.0000e+000 107485 -5.0981e+000 -6.8914e+001  5.3356e+000 25153 107119,107387,107459
 2.0000e+000 107508  3.8390e+001 -5.0894e+001  7.1311e+000 25153 107119,107459,107145
 2.0000e+000 107557 -3.2394e+001 -7.7232e+001 -1.0086e+001 25153 107067,107223,107531
 2.0000e+000 107580 -1.7441e+001 -7.0698e+001 -5.6588e+000 25153 107067,107531,107387
 2.0000e+000 107958 -3.5668e+001 -1.1066e+002 -1.1811e+001 24741 107736,107814,107788
 2.0000e+000 107935 -3.8565e+001 -1.1637e+002 -1.6856e+001 24741 107736,107840,107814
 2.0000e+000 107912 -4.2152e+001 -1.3393e+002 -1.7427e+001 24741 107684,107840,107736
 2.0000e+000 107889 -4.6964e+001 -1.0656e+002 -1.2616e+001 24741 107736,107788,107762
 2.0000e+000 107866 -2.9978e+001 -1.7478e+002 -6.7968e+001 24741 107684,107736,107710
 2.0000e+000 108157 -1.6148e+001 -5.9373e+001  6.4320e+000 24237 108180,108059,108007
 2.0000e+000 108134 -1.3928e+001 -4.5348e+001  1.8789e+001 24237 108180,108007,107981
 2.0000e+000 108111  2.7259e+000 -6.4957e+001  4.2649e+000 24237 108007,108059,108033
 2.0000e+000 108206 -9.2732e+000 -4.5534e+001  1.1342e+001 24237 108085,108059,108180
 2.0000e+000 108229 -7.2623e+000 -3.1563e+001  2.3619e+001 24237 108085,108180,107981
 2.0000e+000 108658 -1.0044e+001 -1.1141e+002 -1.7134e+001 23776 108361,108413,108387
 2.0000e+000 108635  1.1813e+001 -1.0190e+002  2.9952e+000 23776 108753,108681,108361
 2.0000e+000 108612  3.6751e+001 -6.9820e+001 -1.8105e+001 23776 108681,108465,108439
 2.0000e+000 108589  1.1838e+001 -1.0750e+002  7.8594e+000 23776 108753,108361,108335
 2.0000e+000 108566 -1.1743e+001 -1.0788e+002  4.3693e+001 23776 108335,108517,108465
 2.0000e+000 108543 -1.3331e+001 -1.2257e+002  4.4261e+001 23776 108465,108517,108491
 2.0000e+000 108707  1.3395e+001 -8.8841e+001  2.2312e+000 23776 108413,108361,108681
 2.0000e+000 108730  1.2716e+001 -1.0206e+002 -5.7407e+000 23776 108413,108681,108439
 2.0000e+000 108779  1.1362e+001 -8.2976e+001  9.3174e-002 23776 108465,108681,108753
 2.0000e+000 108802  6.3541e+000 -9.6912e+001  4.2917e+000 23776 108465,108753,108335
 2.0000e+000 109023  1.8483e+001 -4.2401e+001  1.5373e+001 23414 108873,108925,108899
 2.0000e+000 109000 -1.0756e+001 -5.3845e+001  1.3770e+001 23414 108847,108925,108873
 2.0000e+000 108977  7.7503e+000 -2.0791e+001  1.0040e+000 23414 108847,108951,108925
 2.0000e+000 109474 -4.1382e+001 -1.0297e+002  2.8945e+000 23024 109151,109307,109177
 2.0000e+000 109451 -4.7530e+001 -1.0513e+002  5.0306e+000 23024 109151,109333,109307
 2.0000e+000 109428 -4.5016e+001 -1.4029e+002 -1.0315e+001 23024 109177,109281,109203
 2.0000e+000 109405 -8.6791e+001 -1.4011e+002 -1.4327e+001 23024 109177,109307,109281
 2.0000e+000 109382 -2.6111e+001 -1.2186e+002 -1.1334e+000 23024 109203,109281,109229
 2.0000e+000 109359 -2.0005e+001 -1.2212e+002  2.5783e+000 23024 109229,109281,109255
 2.0000e+000 109820 -3.0268e+001 -9.2868e+001  7.7181e+000 22506 109843,109601,109523
 2.0000e+000 109797 -1.1420e+001 -8.4742e+001  3.9916e+000 22506 109843,109523,109497
 2.0000e+000 109774 -7.5910e+000 -9.6218e+001  5.7324e+000 22506 109915,109653,109627
 2.0000e+000 109751 -8.2967e+000 -8.6701e+001  5.1752e+000 22506 109497,109679,109653
 2.0000e+000 109728 -3.9870e+001 -1.1725e+002 -1.6291e+001 22506 109523,109601,109575
 2.0000e+000 109705 -6.7855e+001 -1.5784e+002 -2.8468e+001 22506 109523,109575,109549
 2.0000e+000 109869 -9.7475e+000 -8.7535e+001  1.0355e+001 22506 109627,109601,109843
 2.0000e+000 109892 -6.1397e+000 -9.3908e+001  7.0602e+000 22506 109915,109627,109843
 2.0000e+000 109941 -9.4465e+000 -9.4552e+001  4.3321e+000 22506 109497,109653,109915
 2.0000e+000 109964 -9.2891e+000 -9.4531e+001  5.2936e+000 22506 109497,109915,109843
 2.0000e+000 110163  1.9369e+000 -8.1721e+001  1.0542e+000 21936 110186,110039,110013
 2.0000e+000 110140 -4.0517e+000 -7.5930e+001  5.1596e+000 21936 110390,110186,110013
 2.0000e+000 110117 -1.9180e+001 -8.2669e+001 -5.1769e+000 21936 110390,110013,109987
 2.0000e+000 110212  7.7440e+000 -6.9386e+001 -2.1950e+000 21936 110065,110039,110186
 2.0000e+000 110235  4.1096e+001 -4.5904e+001  2.9543e+001 21936 110258,110186,110091
 2.0000e+000 110284 -1.5358e+001 -9.0740e+001  1.0081e+001 21936 110065,110186,110258
 2.0000e+000 110416  2.8024e+001 -9.1210e+001  1.1198e+001 21936 110091,110186,110390
 2.0000e+000 110439  8.6242e+000 -1.0068e+002  1.0830e+000 21936 110091,110390,109987
 2.0000e+000 110709 -1.7294e+001 -9.7986e+001  5.1698e-001 21338 110510,110614,110588
 2.0000e+000 110686 -3.6134e+001 -1.1921e+002 -7.4103e+000 21338 110484,110614,110510
 2.0000e+000 110663 -1.6800e+001 -6.2152e+001 -7.1070e+000 21338 110510,110562,110536
 2.0000e+000 110640 -3.4611e+001 -1.0247e+002 -1.5954e+000 21338 110510,110588,110562
 2.0000e+000 111296 -1.6598e+001 -1.0293e+002  9.2389e-002 20934 111025,111155,111103
 2.0000e+000 111273 -3.0812e+001 -1.5969e+002  1.1203e+000 20934 110999,111155,111025
 2.0000e+000 111250  2.3530e+001 -8.5708e+001 -1.0447e+000 20934 111103,111155,111129
 2.0000e+000 111227 -3.8186e+001 -1.3643e+002 -2.2571e+001 20934 111051,111103,111077
 2.0000e+000 111204 -4.6312e+001 -1.2640e+002 -1.2593e+001 20934 111025,111103,111051
 2.0000e+000 111181  8.5817e+000 -1.7158e+002  1.8559e+001 20934 110973,111155,110999
 2.0000e+000 111930 -3.5454e+001 -3.9174e+001 -2.5375e+001 20494 111662,111714,111688
 2.0000e+000 111907  3.5160e+001 -5.5649e+001 -2.3163e+001 20494 111584,111714,111662
 2.0000e+000 111884 -1.8221e+001 -7.6398e+001 -1.4615e+001 20494 111584,111766,111714
 2.0000e+000 111861 -7.5708e-001 -1.3322e+002  2.0963e+001 20494 111584,111636,111610
 2.0000e+000 111838 -2.0655e+001 -1.0940e+002  7.4026e+000 20494 111584,111662,111636
 2.0000e+000 111815  2.1612e+001 -5.6736e+001 -8.0722e+000 20494 111558,111766,111584
 2.0000e+000 111792 -1.3623e+001 -7.0741e+001 -2.3895e+001 20494 111714,111766,111740
 2.0000e+000 112249 -4.6000e+001 -1.6941e+002  1.0304e+001 19940 111975,112053,112001
 2.0000e+000 112226 -1.7212e+001 -1.2597e+002 -7.6079e+000 19940 111975,112131,112053
 2.0000e+000 112203  5.8674e+000 -1.5807e+002  0.0000e+000 19940 112053,112105,112079
 2.0000e+000 112180 -3.3858e+001 -1.7179e+002 -5.1595e+000 19940 112053,112131,112105
 2.0000e+000 112157 -1.0770e+001 -1.5256e+002  5.2641e+000 19940 112001,112053,112027
 2.0000e+000 112757  3.9668e+000 -8.8803e+001 -1.7895e+001 19486 112780,112538,112486
 2.0000e+000 112734 -2.4447e+000 -1.0148e+002 -4.8872e+000 19486 112780,112486,112460
 2.0000e+000 112711 -9.6474e+000 -8.6878e+001 -1.2360e+000 19486 112852,112616,112590
 2.0000e+000 112688  4.7277e+001 -1.2077e+002 -2.5724e+001 19486 112486,112538,112512
 2.0000e+000 112665 -2.7804e+001 -1.1455e+002 -1.1027e+001 19486 112434,112616,112460
 2.0000e+000 112642 -2.2598e+001 -8.8239e+001 -1.5140e+001 19486 112538,112590,112564
 2.0000e+000 112806 -2.0348e+001 -9.9679e+001 -1.5798e+001 19486 112590,112538,112780
 2.0000e+000 112829 -2.9567e+000 -9.1988e+001 -4.5505e+000 19486 112852,112590,112780
 2.0000e+000 112878 -1.2605e+001 -9.4355e+001  1.3732e-001 19486 112460,112616,112852
 2.0000e+000 112901 -8.4859e+000 -1.0245e+002 -1.6445e+000 19486 112460,112852,112780
 2.0000e+000 113252 -7.3265e+001 -1.3373e+002 -1.7949e+000 19096 113105,113157,113131
 2.0000e+000 113229 -6.7245e+001 -1.0447e+002 -5.1864e-001 19096 113053,113157,113105
 2.0000e+000 113206 -6.2468e+001 -9.8373e+001  3.8355e+000 19096 113027,113157,113053
 2.0000e+000 113183 -9.1433e+001 -1.5040e+002  8.3793e+000 19096 113053,113105,113079
 2.0000e+000 113451 -6.2911e-001 -1.2149e+002  4.6032e+001 18642 113327,113379,113353
 2.0000e+000 113428 -2.2905e+001 -1.2325e+002 -3.1285e+000 18642 113301,113379,113327
 2.0000e+000 113405  6.1915e+000 -1.1798e+002  6.2157e-002 18642 113275,113379,113301
 2.0000e+000 113699 -9.6870e-001 -1.2266e+002 -3.3404e+000 18138 113474,113552,113526
 2.0000e+000 113676  2.0820e+001 -1.2917e+002 -1.4499e+001 18138 113474,113578,113552
 2.0000e+000 113653  1.7311e+001 -1.2935e+002 -1.3190e+001 18138 113474,113604,113578
 2.0000e+000 113630  1.2510e+001 -1.0605e+002  2.9358e+000 18138 113474,113526,113500
 2.0000e+000 113851 -1.7546e+001 -1.3316e+002 -1.6645e+000 17682 113750,113802,113776
 2.0000e+000 113828 -1.9727e+001 -1.2783e+002  7.2494e-001 17682 113724,113802,113750
 2.0000e+000 114383 -2.9628e+001 -1.0629e+002 -2.4187e+000 17106 114086,114242,114164
 2.0000e+000 114360 -6.1106e+001 -1.1961e+002 -8.5267e-001 17106 114060,114242,114086
 2.0000e+000 114337 -6.5680e+001 -1.7294e+002  1.6504e+001 17106 114086,114164,114138
 2.0000e+000 114314 -5.7223e-001 -2.1636e+002 -2.5650e+001 17106 114190,114242,114216
 2.0000e+000 114291 -5.4652e+001 -1.7386e+002 -8.9287e+000 17106 114164,114242,114190
 2.0000e+000 114268 -3.3731e+001 -1.6070e+002  4.0949e+001 17106 114086,114138,114112
 2.0000e+000 114680 -3.5000e+001 -1.2716e+002  3.5425e+000 16766 114703,114432,114406
 2.0000e+000 114657 -3.9028e+001 -1.2520e+002  4.4296e-002 16766 114703,114406,114510
 2.0000e+000 114634 -3.6582e+001 -9.3189e+001  7.3139e+000 16766 114406,114536,114510
 2.0000e+000 114611 -1.9459e+001 -1.3340e+002 -7.8264e+000 16766 114432,114484,114458
 2.0000e+000 114588 -3.0538e+001 -9.5554e+001  1.9312e+001 16766 114406,114562,114536
 2.0000e+000 114729 -1.9382e+001 -1.2441e+002  5.2818e+000 16766 114484,114432,114703
 2.0000e+000 114752 -3.2819e+001 -1.2901e+002  1.8128e+000 16766 114484,114703,114510
 2.0000e+000 114902  3.4601e+001 -1.3818e+002 -1.3195e+001 16362 114775,114827,114801
 2.0000e+000 114879  1.1426e+002 -9.9650e+001 -3.3797e+001 16362 114775,114853,114827
 2.0000e+000 115054 -1.7215e+002 -3.0308e+002  5.1069e+000 15908 114953,115005,114979
 2.0000e+000 115031 -1.6904e+002 -2.8126e+002  7.4842e+000 15908 114927,115005,114953
 2.0000e+000 115326 -2.4309e+001 -1.0808e+002  1.9719e+001 15251 115101,115179,115153
 2.0000e+000 115303 -1.3167e+001 -9.6603e+001 -5.3238e+000 15251 115101,115231,115179
 2.0000e+000 115280 -1.7851e+001 -1.0713e+002 -4.2480e+000 15251 115179,115231,115205
 2.0000e+000 115257  8.7653e+000 -2.2701e+002  6.7708e+001 15251 115101,115153,115127
 2.0000e+000 115429 -2.6219e+001 -1.4163e+002  2.2674e+001 421 115351,115403,115377
 2.1000e+000 66230 -9.3534e+000 -1.1961e-001  3.6874e+000 65954 66152,66204,66178
 2.1000e+000 66429 -9.8597e+000 -5.6359e+001 -1.0183e+001 65642 66279,66331,66305
 2.1000e+000 66406  1.9740e+000  6.3355e+000  5.2982e+000 65642 66279,66357,66331
 2.1000e+000 66383  6.0360e+000  7.3083e+000  4.4978e+000 65642 66253,66357,66279
 2.1000e+000 66628 -4.7064e-001 -8.6836e+001  1.3558e+001 65444 66452,66530,66478
 2.1000e+000 66605  2.5961e+000 -1.0976e+002  5.0093e+000 65444 66452,66556,66530
 2.1000e+000 66582 -9.3386e+000 -8.9668e+001  1.6254e+001 65444 66478,66530,66504
 2.1000e+000 67006 -1.5134e+000 -7.3499e+001 -1.1846e+000 65246 66732,66810,66758
 2.1000e+000 66983  1.4443e+001 -3.7684e+001  9.8084e+000 65246 66732,66836,66810
 2.1000e+000 66960 -1.2459e+001 -7.3673e+001 -1.2574e+001 65246 66732,66862,66836
 2.1000e+000 66937 -4.4430e+000 -5.4238e+001  4.9649e+000 65246 66758,66810,66784
 2.1000e+000 66914 -1.5206e+000 -8.6925e+001 -2.6789e+001 65246 66732,66888,66862
 2.1000e+000 67107  2.8351e+001 -3.3006e+001 -1.0019e+001 64934 67029,67081,67055
 2.1000e+000 67306 -1.7966e+001 -7.4256e+001  2.6430e+001 64736 67156,67208,67182
 2.1000e+000 67283  1.7483e+001 -4.9798e+001  1.4854e+001 64736 67130,67208,67156
 2.1000e+000 67260 -9.0940e+000 -8.4035e+001  3.0532e+000 64736 67130,67234,67208
 2.1000e+000 67507  3.8310e+000 -6.3569e+001 -8.3469e+000 64389 67357,67409,67383
 2.1000e+000 67484 -2.4078e+000 -8.3132e+001 -1.1190e+001 64389 67357,67435,67409
 2.1000e+000 67461 -1.0077e+000 -9.5956e+001 -7.3526e+000 64389 67331,67435,67357
 2.1000e+000 67708  2.4389e+001 -6.9466e+001  7.2258e+000 63985 67731,67584,67558
 2.1000e+000 67685  2.1587e+000 -3.4471e+001  2.7701e+000 63985 67731,67558,67636
 2.1000e+000 67662 -1.6968e+001 -4.5773e+001 -2.3890e+000 63985 67532,67636,67558
 2.1000e+000 67757  1.1456e+001 -8.4461e+001  1.5362e+000 63985 67610,67584,67731
 2.1000e+000 67780 -1.6527e+001 -5.9343e+001 -5.8515e+000 63985 67610,67731,67636
 2.1000e+000 67981  9.6663e+000 -1.8225e+001  3.4413e+000 63787 67857,67909,67883
 2.1000e+000 67958 -5.6497e+000 -4.4489e+001  1.5276e+001 63787 67831,67909,67857
 2.1000e+000 67935 -7.2557e+000  1.2424e+001  3.9072e+000 63787 67805,67909,67831
 2.1000e+000 68231 -2.2613e+000 -8.5305e+001  6.1660e+000 63589 68254,68084,68032
 2.1000e+000 68208  6.2588e-001 -5.0774e+001  7.3726e+000 63589 68254,68032,68006
 2.1000e+000 68185  4.7233e-001 -4.2629e+001  6.2320e+000 63589 68326,68136,68110
 2.1000e+000 68162 -2.7661e-001 -7.9850e+001 -7.8550e+000 63589 68032,68084,68058
 2.1000e+000 68280 -3.2123e+000 -5.4681e+001  8.7107e+000 63589 68110,68084,68254
 2.1000e+000 68303 -3.7556e+000 -4.4195e+001  1.3409e+001 63589 68326,68110,68254
 2.1000e+000 68352  1.0813e+001 -2.5653e+001 -6.6248e+000 63589 68006,68136,68326
 2.1000e+000 68375  1.7752e+000 -3.2617e+001  1.1923e+000 63589 68006,68326,68254
 2.1000e+000 68836 -1.1218e+000 -1.6913e+001 -6.7385e+000 63128 68859,68588,68562
 2.1000e+000 68813 -8.2059e+000 -3.6437e+001  1.2563e+001 63128 68859,68562,68692
 2.1000e+000 68790  7.8320e+000 -4.1403e+001 -2.2394e+000 63128 68614,68692,68666
 2.1000e+000 68767 -2.2282e+001 -3.5190e+001  1.0875e+001 63128 68562,68718,68692
 2.1000e+000 68744  7.6359e+000 -4.6893e+001 -3.0386e+001 63128 68614,68666,68640
 2.1000e+000 68885  1.1124e+001  1.1101e+001 -1.9720e+001 63128 68614,68588,68859
 2.1000e+000 68908  2.6179e+000 -1.4304e+001 -7.8615e-001 63128 68614,68859,68692
 2.1000e+000 69237  3.5983e+000 -5.5893e+001  4.7905e+000 62731 69064,69116,69090
 2.1000e+000 69214 -1.9199e+000 -6.9951e+001  1.1251e+000 62731 69064,69142,69116
 2.1000e+000 69191 -1.0481e+001 -1.0470e+002  5.1039e-001 62731 69038,69142,69064
 2.1000e+000 69168 -2.4823e+000 -9.3684e+001  4.0508e+000 62731 69012,69142,69038
 2.1000e+000 69539  1.1805e+000  1.8147e+001 -4.8441e-001 62433 69389,69467,69441
 2.1000e+000 69516  5.9364e+000 -1.6817e+001  6.0460e+000 62433 69363,69467,69389
 2.1000e+000 69493 -8.8364e-001 -1.4300e+001  1.5133e+001 62433 69389,69441,69415
 2.1000e+000 69966  1.1511e+001 -3.9250e+001  5.5703e+000 62235 69989,69773,69721
 2.1000e+000 69943  4.7679e+000 -7.0199e+001 -2.1442e+001 62235 70061,69989,69721
 2.1000e+000 69920  7.7827e+000 -9.0513e+001 -1.7657e+001 62235 70061,69721,69643
 2.1000e+000 69897  1.1132e+001  2.6365e+001 -1.0081e+001 62235 69721,69773,69747
 2.1000e+000 69874 -5.7588e+001 -2.4065e+002 -6.7731e+000 62235 69643,69721,69695
 2.1000e+000 69851  6.5204e+001  1.4240e+002 -1.4007e+001 62235 69643,69695,69669
 2.1000e+000 70015  6.8800e+000 -7.3189e+001 -1.1973e+001 62235 69799,69773,69989
 2.1000e+000 70038 -1.7865e+001 -9.0677e+001 -3.7017e+001 62235 69799,69989,69825
 2.1000e+000 70087 -7.7244e+000 -9.0151e+001 -1.4919e+001 62235 69825,69989,70061
 2.1000e+000 70110  5.1052e+000 -1.0043e+002 -1.4590e+001 62235 69825,70061,69643
 2.1000e+000 70260 -3.1041e+000 -5.5983e+001 -5.5878e+000 62037 70133,70185,70159
 2.1000e+000 70237 -9.3739e+000 -9.1370e+001 -4.3986e+000 62037 70133,70211,70185
 2.1000e+000 70640 -1.7377e+001 -4.6220e+001  2.7621e+000 61583 70735,70663,70418
 2.1000e+000 70617 -3.3943e+001 -5.9371e+001 -1.2648e+001 61583 70663,70366,70522
 2.1000e+000 70594 -1.2868e+001 -4.3150e+001  8.5545e+000 61583 70735,70418,70392
 2.1000e+000 70571 -3.5871e+000 -6.3417e+001  1.5231e+001 61583 70418,70496,70444
 2.1000e+000 70548 -1.9984e+001 -2.6366e+001  1.5816e+001 61583 70444,70496,70470
 2.1000e+000 70689 -2.3771e+001 -7.0263e+001 -1.6061e+000 61583 70496,70418,70663
 2.1000e+000 70712 -1.4228e+001 -5.3593e+001 -6.0510e+000 61583 70496,70663,70522
 2.1000e+000 70761 -3.2732e+001 -5.0242e+001 -5.7680e+000 61583 70366,70663,70735
 2.1000e+000 70784 -2.3362e+001 -4.5077e+001 -3.6624e-003 61583 70366,70735,70392
 2.1000e+000 71054  8.8503e+000 -3.8013e+001  1.2444e+001 61313 71077,70881,70855
 2.1000e+000 71031  1.9608e+001 -2.4186e+001  2.0377e+001 61313 71077,70855,70829
 2.1000e+000 71008 -3.4408e+000 -3.1531e+001  6.7503e+000 61313 70829,70959,70933
 2.1000e+000 70985  1.2263e+001 -3.5419e+001 -6.6580e+000 61313 70881,70933,70907
 2.1000e+000 71103 -1.7010e+000 -3.2003e+001  3.1249e+000 61313 70933,70881,71077
 2.1000e+000 71126  7.9898e+000 -2.4381e+001  9.7898e+000 61313 70933,71077,70829
 2.1000e+000 71604 -7.0192e+000 -8.7048e+001 -1.6750e+000 60909 71627,71232,71414
 2.1000e+000 71581 -2.9692e+001 -8.2115e+001 -1.5267e+001 60909 71232,71440,71414
 2.1000e+000 71558 -9.2802e+000 -5.7734e+001 -4.9334e-001 60909 71627,71414,71336
 2.1000e+000 71535  1.4239e+001 -1.1131e+002  1.3988e+001 60909 71362,71414,71388
 2.1000e+000 71512 -2.7651e+001 -1.0073e+002  1.3741e+000 60909 71336,71414,71362
 2.1000e+000 71489  3.9535e-001 -4.5892e+001  8.7956e-003 60909 71258,71336,71310
 2.1000e+000 71466 -1.0448e+001 -5.6192e+001  5.5871e+000 60909 71258,71310,71284
 2.1000e+000 71653  2.7408e+000 -6.3904e+001 -4.6969e+000 60909 71258,71232,71627
 2.1000e+000 71676 -9.4683e+000 -4.9050e+001 -1.1549e+000 60909 71258,71627,71336
 2.1000e+000 71875 -1.0367e+001 -7.2795e+001  3.1026e+000 60611 71898,71725,71699
 2.1000e+000 71852 -2.5935e+001 -5.4399e+001  1.8702e+001 60611 71898,71699,71803
 2.1000e+000 71829  7.4136e+000 -1.9381e+001  2.2555e+001 60611 71970,71751,71725
 2.1000e+000 71924 -9.7336e+000 -4.9911e+001  7.4354e+000 60611 71970,71725,71898
 2.1000e+000 71947 -7.4011e-002 -4.0638e+001  6.2817e-001 60611 71777,71898,71803
 2.1000e+000 71996  2.6667e+001 -5.2723e+001  2.8105e+001 60611 71777,71751,71970
 2.1000e+000 72019  2.5801e+001 -5.8123e+001  1.7935e+001 60611 71777,71970,71898
 2.1000e+000 72576 -4.2030e+000 -1.4238e+002  3.0603e+001 60142 72599,72256,72230
 2.1000e+000 72553  1.2880e+001 -8.8156e+001  3.1239e+001 60142 72671,72599,72230
 2.1000e+000 72530 -2.2587e+001 -5.7101e+001  3.3937e+000 60142 72671,72230,72204
 2.1000e+000 72507 -3.5359e+001 -2.9240e+001  1.7327e+001 60142 72743,72360,72334
 2.1000e+000 72484 -5.6533e+001 -7.0866e+001  2.1287e+001 60142 72815,72282,72256
 2.1000e+000 72461  3.6797e+001 -2.7975e+001  4.0576e+001 60142 72887,72308,72282
 2.1000e+000 72438 -3.3504e+001 -1.2485e+002 -8.6504e+000 60142 72204,72412,72386
 2.1000e+000 72625 -4.5441e+001 -1.1293e+002 -7.7305e+000 60142 72815,72256,72599
 2.1000e+000 72648 -1.8355e+001 -6.2415e+001  1.1630e+001 60142 72743,72334,72599
 2.1000e+000 72697 -1.8241e+001 -1.3569e+002  1.7674e+001 60142 72386,72599,72671
 2.1000e+000 72720 -4.3173e+001 -9.9977e+001 -4.0360e+000 60142 72386,72671,72204
 2.1000e+000 72769  1.5497e+000 -5.6651e+001  7.8867e+001 60142 72386,72360,72743
 2.1000e+000 72792 -3.3640e+000 -1.2626e+002  4.2856e+001 60142 72386,72743,72599
 2.1000e+000 72841 -1.6859e+001 -5.2139e+001  2.8219e+001 60142 72887,72282,72815
 2.1000e+000 72864 -2.3264e+001 -7.2511e+001  9.5282e+000 60142 72334,72815,72599
 2.1000e+000 72913 -3.4186e+001 -4.2473e+001  1.5578e+001 60142 72334,72308,72887
 2.1000e+000 72936 -5.4723e+001 -5.2061e+001  1.9408e+000 60142 72334,72887,72815
 2.1000e+000 73491 -1.9750e+001 -1.1181e+002 -2.2237e+001 59738 73145,73327,73171
 2.1000e+000 73468  3.2359e+001 -4.5932e+001  3.8373e-001 59738 73119,73327,73145
 2.1000e+000 73445 -1.1429e+001 -6.0842e+001 -8.4366e+000 59738 73171,73327,73301
 2.1000e+000 73422 -2.2056e-001 -7.0038e+001  6.7534e-001 59738 73514,73275,73249
 2.1000e+000 73399 -1.9934e+001 -6.8749e+001  2.8686e+000 59738 73586,73514,73249
 2.1000e+000 73376 -1.6905e+001 -3.7754e+001  2.3621e+001 59738 73197,73249,73223
 2.1000e+000 73353 -1.8130e+001 -7.0784e+001  1.0185e+001 59738 73586,73249,73197
 2.1000e+000 73540 -1.6977e+001 -9.8784e+001 -1.0922e+001 59738 73301,73275,73514
 2.1000e+000 73563 -1.0346e+001 -6.3586e+001 -7.6617e+000 59738 73301,73514,73171
 2.1000e+000 73612 -1.4750e+001 -5.6234e+001  3.1215e+000 59738 73171,73514,73586
 2.1000e+000 73635 -1.3733e+001 -6.0629e+001  9.5947e+000 59738 73171,73586,73197
 2.1000e+000 73964  1.9401e+000 -8.0244e+001  1.4113e+000 59334 73791,73843,73817
 2.1000e+000 73941  1.1557e+001 -8.9408e+001 -3.2807e+000 59334 73791,73869,73843
 2.1000e+000 73918 -1.2629e+001 -1.5027e+002  8.5432e+000 59334 73739,73869,73791
 2.1000e+000 73895  3.1777e+001 -1.8192e+002  1.0256e+001 59334 73739,73791,73765
 2.1000e+000 74261  1.5861e+001 -6.6853e+001  3.0385e+001 58630 74065,74117,74091
 2.1000e+000 74238  1.8076e+001 -6.3695e+001  8.9856e+000 58630 74356,74284,74065
 2.1000e+000 74215 -1.0595e+001 -4.3427e+001 -1.7821e+000 58630 74284,74013,73987
 2.1000e+000 74192  2.5331e+001 -5.3164e+001  2.0037e+001 58630 74356,74065,74039
 2.1000e+000 74169 -1.7065e+001 -4.4008e+001 -3.3013e+000 58630 73987,74143,74117
 2.1000e+000 74310  3.1959e+000 -9.7862e+001  2.8866e+000 58630 74117,74065,74284
 2.1000e+000 74333 -2.5742e+001 -6.1756e+001 -8.3059e+000 58630 74117,74284,73987
 2.1000e+000 74382  4.0018e+000 -8.1144e+001 -5.8829e+000 58630 74013,74284,74356
 2.1000e+000 74405  1.1337e+001 -6.9074e+001  5.1939e+000 58630 74013,74356,74039
 2.1000e+000 74815 -7.7287e+000 -4.1671e+001 -9.8560e+000 58226 74590,74642,74616
 2.1000e+000 74792 -1.7822e+001 -6.7185e+001 -7.2378e+000 58226 74590,74694,74642
 2.1000e+000 74769  3.7479e+001 -9.4573e+001  7.8150e+000 58226 74590,74720,74694
 2.1000e+000 74746 -1.4394e+001 -4.1640e+001 -4.9711e+000 58226 74642,74694,74668
 2.1000e+000 75014 -8.5914e+000 -8.2710e+001 -3.2062e+000 57786 75037,74864,74838
 2.1000e+000 74991 -5.7126e+000 -4.2238e+001  5.2376e+000 57786 75037,74838,74916
 2.1000e+000 74968  7.0435e+000 -2.5518e+001 -1.5025e+001 57786 74838,74942,74916
 2.1000e+000 75063 -9.3235e+000 -1.2698e+002 -1.5726e+001 57786 74890,74864,75037
 2.1000e+000 75086 -1.2772e+000 -8.0116e+001 -6.4661e+000 57786 74890,75037,74916
 2.1000e+000 75368  1.3980e+001 -3.3903e+001  1.3069e+001 57496 75192,75270,75218
 2.1000e+000 75345  3.6675e+001 -2.2628e+001  1.6996e+001 57496 75192,75296,75270
 2.1000e+000 75322 -3.5366e+000 -4.8231e+001  2.7919e+000 57496 75218,75270,75244
 2.1000e+000 75648 -6.8829e-001 -6.8443e+001 -6.3606e+000 57206 75472,75550,75498
 2.1000e+000 75625  1.1725e+000 -6.2412e+001 -6.7323e+000 57206 75472,75576,75550
 2.1000e+000 75602  2.0183e+001 -5.3222e+001 -1.3106e+000 57206 75671,75550,75524
 2.1000e+000 75697 -2.9366e+001 -8.0081e+001 -1.5883e+001 57206 75498,75550,75671
 2.1000e+000 76154  2.2649e+001 -5.5446e+001 -9.5261e+000 56802 75958,76010,75984
 2.1000e+000 76131  1.8837e+001 -2.6842e+001 -3.1133e+000 56802 75932,76010,75958
 2.1000e+000 76108  2.9225e+001 -5.2172e+001  2.5009e+001 56802 75906,76010,75932
 2.1000e+000 76085  1.4334e+001 -1.1295e+001  2.3472e+001 56802 75880,76010,75906
 2.1000e+000 76062  2.2234e+001 -1.8064e+001 -6.1591e+000 56802 75880,76036,76010
 2.1000e+000 76505 -3.3383e+000  3.7824e+001  9.7496e-001 56504 76306,76384,76332
 2.1000e+000 76482  4.7347e+000  1.5682e+001  9.8186e+000 56504 76306,76410,76384
 2.1000e+000 76459  2.2063e-001  2.8469e+001 -8.8107e+000 56504 76332,76384,76358
 2.1000e+000 76436  1.5102e+000  1.0276e+000 -2.8710e+000 56504 76280,76410,76306
 2.1000e+000 77011  8.6180e-002 -4.8624e+001 -1.6096e+001 56050 76740,76818,76792
 2.1000e+000 76988  1.3371e+001 -4.3947e+001 -1.3002e+001 56050 76714,76818,76740
 2.1000e+000 76965 -2.2332e+001 -6.2382e+001 -1.7852e+000 56050 76688,76818,76714
 2.1000e+000 76942 -2.0130e+001 -4.6083e+001 -6.1614e+000 56050 76688,76844,76818
 2.1000e+000 76919 -4.9727e+000 -4.4842e+001 -1.5432e+001 56050 76740,76792,76766
 2.1000e+000 76896 -2.9886e+001 -7.3355e+001 -5.9892e+000 56050 76688,76870,76844
 2.1000e+000 77517 -2.5312e+001 -7.0930e+001 -1.6070e+000 55738 77220,77350,77324
 2.1000e+000 77494 -2.9073e+001 -8.4449e+001 -1.2121e+001 55738 77220,77376,77350
 2.1000e+000 77471 -1.4319e+001 -6.2990e+001 -4.6617e+000 55738 77194,77376,77220
 2.1000e+000 77448 -1.5658e+001 -2.8658e+001 -2.7110e+000 55738 77220,77298,77246
 2.1000e+000 77425 -1.1823e+001 -5.4561e+001 -1.2648e+001 55738 77220,77324,77298
 2.1000e+000 77402 -2.3110e+000 -2.2033e+001  7.1528e+000 55738 77246,77298,77272
 2.1000e+000 78064 -1.8656e+001 -1.5879e+002 -7.1291e-001 55227 78231,78087,77773
 2.1000e+000 78041 -2.7312e+001 -2.1967e+002  1.5327e+001 55227 78087,77695,77643
 2.1000e+000 78018 -3.6108e+001 -2.0711e+002  1.6487e+001 55227 78159,77799,77773
 2.1000e+000 77995 -2.8521e+001 -1.3054e+002  4.7667e+000 55227 78231,77773,77721
 2.1000e+000 77972 -5.3050e+001 -7.0677e+001  5.2641e+001 55227 77643,77695,77669
 2.1000e+000 77949 -5.6731e+001 -1.1174e+002  3.1865e+001 55227 77643,77877,77851
 2.1000e+000 77926 -2.7524e+001 -1.7098e+002  3.4028e+001 55227 77799,77851,77825
 2.1000e+000 77903 -2.1008e+001 -1.0212e+002 -1.2479e+001 55227 77721,77773,77747
 2.1000e+000 78113 -3.3056e+001 -1.9654e+002  1.7737e+001 55227 78159,77773,78087
 2.1000e+000 78136  1.2603e+001 -1.2710e+002  4.0654e+001 55227 77851,78087,77643
 2.1000e+000 78185 -4.3641e+001 -1.8931e+002  1.0983e+001 55227 77851,77799,78159
 2.1000e+000 78208 -4.2280e+001 -1.8116e+002  1.1821e+001 55227 77851,78159,78087
 2.1000e+000 78257 -2.3672e+001 -1.9569e+002 -1.3526e+001 55227 77695,78087,78231
 2.1000e+000 78280 -3.4447e+001 -1.6437e+002 -1.1445e+001 55227 77695,78231,77721
 2.1000e+000 78737 -1.1783e+001 -3.1500e+001 -1.4354e+001 54773 78463,78541,78515
 2.1000e+000 78714 -2.0882e+001 -6.2444e+001 -3.8324e+000 54773 78463,78619,78541
 2.1000e+000 78691 -7.2137e+000 -1.7076e+001 -4.9088e+000 54773 78463,78515,78489
 2.1000e+000 78668 -2.5441e+001 -3.5415e+001 -5.5671e+000 54773 78541,78593,78567
 2.1000e+000 78645 -1.0996e+001 -4.4034e+001 -9.1229e+000 54773 78541,78619,78593
 2.1000e+000 78838 -6.9878e-001 -2.1257e+001 -1.3686e+000 54211 78760,78812,78786
 2.1000e+000 79297 -9.6008e+000 -7.0856e+001 -2.7007e+000 53814 79520,79153,79049
 2.1000e+000 79274 -2.3824e+000 -6.7645e+001 -3.4134e+000 53814 79520,79049,79023
 2.1000e+000 79251 -3.4514e+001 -1.1734e+002  1.4168e+001 53814 79320,79101,79049
 2.1000e+000 79228 -2.1515e+001 -8.5795e+001  2.5071e+000 53814 79320,79049,79153
 2.1000e+000 79205  8.5825e+000 -1.1415e+002  2.2911e+001 53814 79049,79101,79075
 2.1000e+000 79346 -1.8792e+001 -9.5228e+001 -1.3925e+001 53814 79392,79320,79127
 2.1000e+000 79369  2.5072e+001 -6.3628e+001 -3.5234e+001 53814 79127,79320,79153
 2.1000e+000 79418 -4.7689e+001 -1.2109e+002 -2.4999e+001 53814 79101,79320,79392
 2.1000e+000 79546 -1.4359e+001 -7.8818e+001  9.0773e+000 53814 79179,79153,79520
 2.1000e+000 79569  9.9634e+000 -6.7714e+001  6.4507e+000 53814 79179,79520,79023
 2.1000e+000 80075 -2.2280e+001 -1.2243e+001  3.3520e+001 53039 80098,79908,79830
 2.1000e+000 80052 -2.5622e+001  7.7780e-002  8.1940e+000 53039 80098,79830,79804
 2.1000e+000 80029 -1.2719e+001  9.6739e+000  4.2830e+000 53039 79752,79934,79804
 2.1000e+000 80006  3.9266e+001  1.3779e+001  2.3438e+001 53039 79856,79908,79882
 2.1000e+000 79983  5.4046e+000 -2.9834e+001  3.8267e+001 53039 79830,79908,79856
 2.1000e+000 79960 -4.3247e+000  2.0977e+001  9.2305e+000 53039 79752,79804,79778
 2.1000e+000 80124  1.7576e+001  4.3854e-001  2.9108e+001 53039 79934,79908,80098
 2.1000e+000 80147 -6.9810e+000  5.9893e+000  3.2565e+000 53039 79934,80098,79804
 2.1000e+000 80555 -3.3110e+001 -6.8030e+001  8.1882e+000 52699 80356,80434,80408
 2.1000e+000 80532  5.7213e+000 -6.9476e+001  7.0676e-001 52699 80356,80460,80434
 2.1000e+000 80509 -1.2215e+001 -7.7278e+001 -1.3519e+000 52699 80330,80460,80356
 2.1000e+000 80486 -3.5256e+001 -8.1535e+001  4.8354e+000 52699 80356,80408,80382
 2.1000e+000 80776 -4.9143e+000 -4.0849e+001  2.2576e+000 52295 80600,80678,80626
 2.1000e+000 80753  9.6753e+000 -3.6119e+001  1.0670e-002 52295 80600,80704,80678
 2.1000e+000 80730  1.8027e+001 -3.0845e+001  3.5368e+000 52295 80626,80678,80652
 2.1000e+000 81156 -3.2161e+001 -1.1003e+002  2.5575e+001 51891 81179,80960,80908
 2.1000e+000 81133 -2.6603e+001 -1.0220e+002  7.7412e+000 51891 81179,80908,81012
 2.1000e+000 81110 -4.5805e+001 -1.0519e+002  8.5625e+000 51891 80882,81012,80908
 2.1000e+000 81087 -1.2845e+001 -1.6840e+002  1.8693e+001 51891 80908,80960,80934
 2.1000e+000 81064 -1.5549e+001 -3.3468e+001  6.0375e+000 51891 80882,81038,81012
 2.1000e+000 81205 -1.0331e+001 -1.0275e+002  2.1900e+001 51891 80986,80960,81179
 2.1000e+000 81228 -1.8537e+001 -9.9692e+001  3.7540e+000 51891 80986,81179,81012
 2.1000e+000 81606 -2.7577e+001 -1.8410e+002 -5.4957e+001 51544 81410,81462,81436
 2.1000e+000 81583 -1.2918e+001 -1.0204e+002 -2.5413e+001 51544 81384,81462,81410
 2.1000e+000 81560 -2.6893e+001 -1.0331e+002 -2.9624e+001 51544 81358,81462,81384
 2.1000e+000 81537  5.0693e+000 -9.1260e+001 -2.7944e+001 51544 81358,81488,81462
 2.1000e+000 81514  2.9856e+001  8.2043e+000 -2.0197e+001 51544 81332,81488,81358
 2.1000e+000 81854  4.9051e+001 -9.0648e+001  5.3830e+000 51004 81877,81655,81629
 2.1000e+000 81831  3.5659e+001 -8.0461e+001  5.9622e+000 51004 81877,81629,81759
 2.1000e+000 81808  1.2730e+001 -4.2123e+001  4.0378e+001 51004 81655,81707,81681
 2.1000e+000 81785 -1.7328e+001 -1.4557e+002  8.8568e+000 51004 81707,81759,81733
 2.1000e+000 81903  3.7694e+001 -8.7158e+001  2.5486e-001 51004 81707,81655,81877
 2.1000e+000 81926  1.4612e+001 -8.8422e+001 -3.7220e+000 51004 81707,81877,81759
 2.1000e+000 82257 -7.3757e+000 -4.7397e+001 -1.4912e+001 50642 82058,82136,82110
 2.1000e+000 82234 -2.5704e+001 -6.2991e+001 -8.2657e+000 50642 82058,82162,82136
 2.1000e+000 82211 -3.2614e+001 -8.7173e+001  1.4047e+001 50642 82058,82110,82084
 2.1000e+000 82188 -2.2929e+001 -6.1142e+001 -1.6938e+001 50642 82032,82162,82058
 2.1000e+000 82684  1.2109e+001 -1.0147e+002 -2.8452e+000 49931 82779,82707,82465
 2.1000e+000 82661 -4.7423e+000 -1.2726e+002  1.1343e+001 49931 82707,82413,82361
 2.1000e+000 82638  9.7821e-001 -9.0465e+001 -4.4022e+001 49931 82779,82465,82439
 2.1000e+000 82615 -2.6968e+001 -1.3806e+002  1.9566e+001 49931 82465,82543,82491
 2.1000e+000 82592  8.6832e+000 -8.2050e+001  6.2978e+000 49931 82361,82413,82387
 2.1000e+000 82569  2.1869e+001 -9.7577e+001 -5.6001e-001 49931 82491,82543,82517
 2.1000e+000 82733 -1.6617e+001 -1.1325e+002  4.8398e+000 49931 82543,82465,82707
 2.1000e+000 82756 -4.3309e+000 -7.9588e+001  1.3177e+001 49931 82543,82707,82361
 2.1000e+000 82805 -1.3053e+001 -1.5891e+002 -7.4619e+000 49931 82413,82707,82779
 2.1000e+000 82828 -1.9586e+001 -1.4094e+002 -4.6225e+001 49931 82413,82779,82439
 2.1000e+000 83255 -5.1082e+001 -1.9261e+002 -1.3959e+001 49327 82984,83114,83036
 2.1000e+000 83232 -5.2762e+001 -1.9422e+002 -3.4489e+001 49327 82958,83114,82984
 2.1000e+000 83209  7.2150e+000 -1.9424e+002 -1.7786e+001 49327 83036,83114,83088
 2.1000e+000 83186 -2.7441e+001 -1.7080e+002 -3.2019e+000 49327 82984,83036,83010
 2.1000e+000 83163 -2.8351e+001 -1.9054e+002 -3.4006e+001 49327 82932,83114,82958
 2.1000e+000 83140 -6.1392e+001 -3.4829e+002  2.4822e+000 49327 83036,83088,83062
 2.1000e+000 83938 -6.7627e+001 -1.9020e+002  2.4439e+001 48965 83961,83673,83647
 2.1000e+000 83915 -3.0810e+001 -1.2629e+002  9.0804e+000 48965 83961,83647,83543
 2.1000e+000 83892 -4.1643e+001 -1.3210e+002 -2.7368e+001 48965 83517,83725,83543
 2.1000e+000 83869  8.9823e+000 -1.3098e+002 -3.2154e+001 48965 83673,83725,83699
 2.1000e+000 83846 -3.3694e+001 -1.0562e+002 -1.0613e+001 48965 83543,83647,83621
 2.1000e+000 83823 -1.8052e+001 -9.4114e+001 -1.7423e+001 48965 83543,83621,83569
 2.1000e+000 83800  6.3164e+001 -8.4266e+001 -1.3889e+001 48965 83517,83751,83725
 2.1000e+000 83777  3.3085e-001 -7.5746e+001  9.5128e+000 48965 83569,83621,83595
 2.1000e+000 83987 -3.1902e+001 -1.6604e+002 -1.5033e+001 48965 83725,83673,83961
 2.1000e+000 84010 -2.3985e+001 -1.4815e+002 -2.2372e+001 48965 83725,83961,83543
 2.1000e+000 84258 -2.0784e+001 -1.5931e+002  3.2418e+001 48447 84281,84059,84033
 2.1000e+000 84235 -6.2172e+000 -1.2222e+002  1.8384e+001 48447 84281,84033,84163
 2.1000e+000 84212  2.0824e+001 -1.4428e+002  7.8105e-001 48447 84059,84111,84085
 2.1000e+000 84189  4.0792e+000 -1.0822e+002 -1.1422e+001 48447 84111,84163,84137
 2.1000e+000 84307 -5.6515e+000 -1.5355e+002  5.6677e+000 48447 84111,84059,84281
 2.1000e+000 84330  1.0974e+001 -1.2997e+002 -8.3793e+000 48447 84111,84281,84163
 2.1000e+000 84529  2.4411e+001 -8.8131e+001  4.3588e+000 47993 84552,84405,84379
 2.1000e+000 84506 -2.1911e+001 -1.0981e+002 -1.5089e+000 47993 84552,84379,84353
 2.1000e+000 84483  1.4697e+001 -1.0569e+002 -1.7028e+001 47993 84624,84457,84431
 2.1000e+000 84578  2.8185e+001 -1.0767e+002 -7.2123e+000 47993 84431,84405,84552
 2.1000e+000 84601  1.5022e+001 -1.1497e+002 -1.1253e+001 47993 84624,84431,84552
 2.1000e+000 84650  1.6324e+001 -1.0022e+002 -1.6802e+001 47993 84353,84457,84624
 2.1000e+000 84673  2.2530e+001 -9.7954e+001 -9.0592e+000 47993 84353,84624,84552
 2.1000e+000 85104 -4.2608e+001 -1.4583e+002 -1.4466e+001 47588 85199,85127,84885
 2.1000e+000 85081 -2.5888e+001 -1.4440e+002 -2.2342e+001 47588 85127,84781,84963
 2.1000e+000 85058 -5.4892e+001 -1.4231e+002  1.7936e-002 47588 85199,84885,84807
 2.1000e+000 85035 -2.2659e+001 -1.0599e+002  7.1664e+001 47588 84885,84937,84911
 2.1000e+000 85012 -5.0550e+001 -1.0601e+002 -1.0907e+001 47588 84807,84885,84833
 2.1000e+000 84989 -4.3176e+001 -1.0280e+002 -9.4895e+000 47588 84833,84885,84859
 2.1000e+000 85153 -3.3898e+001 -1.9709e+002  8.9995e+000 47588 84937,84885,85127
 2.1000e+000 85176  4.5603e+001 -1.5885e+002 -4.1110e+000 47588 84937,85127,84963
 2.1000e+000 85225 -6.6513e+001 -1.5562e+002 -1.5113e+001 47588 84781,85127,85199
 2.1000e+000 85248 -7.3586e+001 -1.5033e+002  1.2072e+000 47588 84781,85199,84807
 2.1000e+000 85518 -2.5826e+001 -1.4119e+002  5.7251e+000 47226 85293,85397,85319
 2.1000e+000 85495 -4.9037e+001 -1.4691e+002  3.7252e+000 47226 85293,85423,85397
 2.1000e+000 85472 -5.8914e+001 -1.5829e+002 -2.4469e+000 47226 85319,85397,85345
 2.1000e+000 85449 -2.9524e+001 -1.3125e+002  1.3122e+001 47226 85345,85397,85371
 2.1000e+000 85849 -4.2751e+000 -1.2114e+002 -6.4403e+000 46572 85624,85702,85650
 2.1000e+000 85826 -1.8012e+001 -1.5758e+002 -7.0278e+000 46572 85624,85754,85702
 2.1000e+000 85803 -3.1303e-001 -1.2558e+002  2.8134e+000 46572 85702,85754,85728
 2.1000e+000 85780  6.6424e+001 -9.3578e+001 -5.3524e-001 46572 85650,85702,85676
 2.1000e+000 86070 -9.8309e+001 -1.6871e+002 -4.0483e+000 46374 85920,85972,85946
 2.1000e+000 86047 -8.8147e+001 -1.4375e+002  2.0341e+000 46374 85920,85998,85972
 2.1000e+000 86024 -3.6642e+001 -1.2011e+002  3.5435e+001 46374 85894,85998,85920
 2.1000e+000 86401 -1.2225e+000 -1.1532e+002 -3.8739e+000 46034 86424,86280,86228
 2.1000e+000 86378 -8.5223e+000 -1.2648e+002 -7.9974e+000 46034 86424,86228,86176
 2.1000e+000 86355 -2.4288e+001 -1.3451e+002 -3.4712e+001 46034 86176,86228,86202
 2.1000e+000 86332  1.3854e+001 -1.0890e+002 -1.1160e+001 46034 86228,86280,86254
 2.1000e+000 86450  1.8001e+001 -1.2948e+002 -6.2877e+000 46034 86306,86280,86424
 2.1000e+000 86473  1.2231e+000 -1.4575e+002 -1.3977e+001 46034 86306,86424,86176
 2.1000e+000 87058 -6.7252e+000 -1.2493e+002 -1.1600e+001 45516 86813,86917,86865
 2.1000e+000 87035 -2.4312e+001 -1.5750e+002 -1.3116e+000 45516 86787,86917,86813
 2.1000e+000 87012 -2.4326e+001 -1.6792e+002 -1.8960e-001 45516 86735,86917,86787
 2.1000e+000 86989  5.7917e+001 -8.6979e+001 -2.8304e+001 45516 86865,86917,86891
 2.1000e+000 86966  1.9425e+001 -1.1636e+002 -3.7129e+000 45516 86813,86865,86839
 2.1000e+000 86943 -1.4215e+001 -1.9091e+002 -1.9766e+001 45516 86735,86787,86761
 2.1000e+000 87208 -3.1526e+001 -1.0343e+002  1.1824e+001 45226 87231,87133,87107
 2.1000e+000 87185  6.9676e+000 -1.1200e+002  3.4967e+001 45226 87081,87159,87133
 2.1000e+000 87257  3.0499e+001 -9.3911e+001 -1.1942e+001 45226 87081,87133,87231
 2.1000e+000 87537  2.1718e+001 -1.4216e+002  2.8282e+001 44772 87387,87439,87413
 2.1000e+000 87514 -2.1429e+001 -1.5025e+002  1.1913e+001 44772 87361,87439,87387
 2.1000e+000 87491  2.0057e+001 -1.2575e+002 -1.9034e+000 44772 87361,87465,87439
 2.1000e+000 87996 -3.1245e+001 -9.9466e+001  4.6179e+000 44425 87748,87878,87852
 2.1000e+000 87973  2.9206e+001 -7.3172e+001 -2.9775e+000 44425 87722,87878,87748
 2.1000e+000 87950 -8.2751e+000 -1.0512e+002 -5.3864e+000 44425 87800,87852,87826
 2.1000e+000 87927 -3.1656e+001 -1.0309e+002  5.7021e+000 44425 87748,87852,87800
 2.1000e+000 87904 -2.3002e+001 -1.3714e+002  2.0083e+001 44425 87748,87800,87774
 2.1000e+000 88423  1.7907e+001 -1.2427e+002 -1.2981e+001 44078 88590,88230,88204
 2.1000e+000 88400 -1.3380e+000 -1.2771e+002  7.1454e+000 44078 88518,88446,88204
 2.1000e+000 88377 -8.9283e+000 -1.2314e+002 -1.1326e+001 44078 88446,88126,88282
 2.1000e+000 88354 -6.4701e-001 -1.3167e+002  9.3429e+000 44078 88518,88204,88178
 2.1000e+000 88331 -8.9845e+000 -1.4461e+002 -9.7639e+000 44078 88100,88282,88126
 2.1000e+000 88308 -9.5077e+000 -1.2089e+002  5.8940e+001 44078 88126,88178,88152
 2.1000e+000 88472  1.7509e+001 -1.2681e+002 -7.2581e+000 44078 88590,88204,88446
 2.1000e+000 88495 -1.6038e+001 -1.6266e+002 -2.2899e+001 44078 88256,88446,88282
 2.1000e+000 88544 -1.8404e+000 -1.1882e+002  6.5858e+000 44078 88126,88446,88518
 2.1000e+000 88567 -3.5288e+000 -1.2613e+002  8.6084e+000 44078 88126,88518,88178
 2.1000e+000 88616 -5.1756e+001 -1.8006e+002 -4.2195e+001 44078 88256,88230,88590
 2.1000e+000 88639  5.8980e+000 -1.3104e+002 -9.4513e+000 44078 88256,88590,88446
 2.1000e+000 89039 -8.2478e+000 -8.8908e+001 -8.5051e-001 43716 88791,88921,88895
 2.1000e+000 89016 -1.7332e+001 -7.1782e+001  9.5849e-001 43716 88765,88921,88791
 2.1000e+000 88993 -1.6276e+001 -9.7142e+001  6.7217e+000 43716 88817,88895,88869
 2.1000e+000 88970 -4.6154e+001 -1.0690e+002  4.3094e+000 43716 88791,88895,88817
 2.1000e+000 88947  1.8557e+001 -7.5838e+001 -2.8800e+000 43716 88817,88869,88843
 2.1000e+000 89496  4.8920e+000 -1.4253e+002 -1.3171e+001 43162 89519,89274,89248
 2.1000e+000 89473  6.9731e+000 -1.3303e+002 -1.1131e+001 43162 89519,89248,89222
 2.1000e+000 89450 -7.9625e+000 -1.2131e+002 -5.2680e+001 43162 89326,89378,89352
 2.1000e+000 89427 -1.0600e+001 -1.6446e+002 -1.5531e+001 43162 89274,89378,89326
 2.1000e+000 89404  1.8943e+001 -1.0339e+002  2.6881e+000 43162 89274,89326,89300
 2.1000e+000 89545  3.8825e+000 -1.3360e+002 -1.0637e+001 43162 89378,89274,89519
 2.1000e+000 89568  6.5882e+000 -1.2334e+002 -8.4566e+000 43162 89378,89519,89222
 2.1000e+000 89946  8.2182e+000 -1.2986e+002 -2.5773e+001 42594 90041,89969,89750
 2.1000e+000 89923  4.1292e+001 -1.0246e+002 -2.8820e+001 42594 89969,89698,89828
 2.1000e+000 89900  1.7435e+001 -1.3603e+002 -2.3169e+001 42594 90041,89750,89724
 2.1000e+000 89877 -2.9004e+001 -1.2889e+002 -1.2634e+001 42594 89750,89802,89776
 2.1000e+000 89854  7.4207e+001  4.5703e+000 -2.0614e+001 42594 89672,89828,89698
 2.1000e+000 89995 -1.8719e+001 -1.1365e+002 -6.2476e+000 42594 89802,89750,89969
 2.1000e+000 90018  3.3751e+001 -9.0416e+001  5.1751e-002 42594 89802,89969,89828
 2.1000e+000 90067  1.5454e+001 -1.1321e+002 -2.2296e+001 42594 89698,89969,90041
 2.1000e+000 90090  1.8031e+001 -1.2936e+002 -1.9219e+001 42594 89698,90041,89724
 2.1000e+000 90517 -6.1350e+001 -1.8472e+002  5.6378e+000 42140 90540,90220,90194
 2.1000e+000 90494 -5.0631e+001 -1.8094e+002  1.1070e+000 42140 90540,90194,90376
 2.1000e+000 90471 -4.8688e+001 -1.8703e+002  4.3259e+000 42140 90612,90350,90272
 2.1000e+000 90448 -6.8575e+001 -2.0366e+002 -4.5031e+000 42140 90272,90350,90298
 2.1000e+000 90425 -4.4863e+001 -1.7220e+002 -2.5231e+001 42140 90298,90350,90324
 2.1000e+000 90402 -3.6950e+001 -1.8368e+002  4.6492e+001 42140 90220,90272,90246
 2.1000e+000 90566 -5.3542e+001 -1.8566e+002  7.9281e+000 42140 90272,90220,90540
 2.1000e+000 90589 -4.8600e+001 -1.8676e+002  5.3849e+000 42140 90612,90272,90540
 2.1000e+000 90638 -4.9940e+001 -1.8699e+002  4.5895e+000 42140 90376,90350,90612
 2.1000e+000 90661 -5.1800e+001 -1.8780e+002  5.5970e+000 42140 90376,90612,90540
 2.1000e+000 91167  2.7905e+001 -1.1677e+002 -1.5724e+001 41636 91190,90870,90844
 2.1000e+000 91144 -5.0268e+000 -1.7436e+002 -1.3664e+000 41636 91190,90844,91026
 2.1000e+000 91121 -4.1310e+001 -1.1564e+002 -4.1457e+001 41636 90870,90922,90896
 2.1000e+000 91098 -5.7871e+001 -1.5747e+002  2.1008e+001 41636 90922,91026,90948
 2.1000e+000 91075 -2.6888e+000 -1.1202e+002 -6.3015e+000 41636 90948,91026,91000
 2.1000e+000 91052 -2.0901e+001 -1.4277e+002  1.3275e+000 41636 90948,91000,90974
 2.1000e+000 91216 -4.7794e+000 -8.6024e+001 -1.9374e+001 41636 90922,90870,91190
 2.1000e+000 91239 -1.7461e+001 -1.1131e+002 -8.0707e+000 41636 90922,91190,91026
 2.1000e+000 91696 -7.0461e+001 -1.3964e+002 -2.6518e+001 40449 91448,91526,91474
 2.1000e+000 91673 -6.7593e+001 -1.4551e+002 -1.1581e+001 40449 91448,91578,91526
 2.1000e+000 91650 -3.2659e+001 -1.0974e+002 -8.8954e+000 40449 91474,91526,91500
 2.1000e+000 91627 -3.8415e+001 -1.4551e+002 -1.6754e+001 40449 91422,91578,91448
 2.1000e+000 91604 -4.3319e+001 -8.9677e+001 -2.7777e+001 40449 91526,91578,91552
 2.1000e+000 92123 -4.0640e+001 -1.1951e+002 -3.5901e+000 39995 92146,91904,91826
 2.1000e+000 92100 -2.3828e+001 -1.1495e+002 -2.1017e+001 39995 92146,91826,91800
 2.1000e+000 92077 -4.9240e+001 -1.2666e+002 -5.2433e-001 39995 91826,91904,91852
 2.1000e+000 92054 -6.0591e+001 -2.0319e+002  8.9147e+000 39995 91904,91982,91930
 2.1000e+000 92031 -2.5821e+001 -1.1895e+002 -5.5201e+000 39995 91852,91904,91878
 2.1000e+000 92008 -1.3308e+001 -1.3431e+002 -1.2105e+001 39995 91930,91982,91956
 2.1000e+000 92172 -4.5518e+001 -1.2762e+002 -1.4440e+000 39995 91982,91904,92146
 2.1000e+000 92195 -4.0348e+001 -1.4491e+002 -1.4588e+001 39995 91982,92146,91800
 2.1000e+000 92652 -6.8238e+000 -7.4450e+001  9.8198e+000 39633 92404,92534,92456
 2.1000e+000 92629 -1.2713e+001 -9.5976e+001  6.0962e+000 39633 92378,92534,92404
 2.1000e+000 92606  1.9901e+001 -5.8839e+001  3.9137e+001 39633 92404,92456,92430
 2.1000e+000 92583 -3.8979e+001 -1.6775e+002  1.3429e+001 39633 92456,92534,92508
 2.1000e+000 92560 -3.7579e+000 -8.6499e+001  2.7062e+001 39633 92456,92508,92482
 2.1000e+000 93079 -5.3612e+000 -1.1109e+002 -1.3890e+001 39093 93102,92808,92756
 2.1000e+000 93056  2.7692e+000 -8.8159e+001 -3.1059e+001 39093 93102,92756,92938
 2.1000e+000 93033 -1.5026e+001 -1.3744e+002 -5.5443e+000 39093 93174,92912,92834
 2.1000e+000 93010 -7.0169e+001 -1.4754e+002 -8.5533e+000 39093 92834,92912,92860
 2.1000e+000 92987  2.1476e+001 -1.1337e+002 -3.9009e+001 39093 92756,92808,92782
 2.1000e+000 92964 -6.5435e+001 -1.7217e+002 -4.5364e+001 39093 92860,92912,92886
 2.1000e+000 93128  1.8790e+000 -1.1914e+002 -1.2269e+001 39093 92834,92808,93102
 2.1000e+000 93151 -7.6337e+000 -1.1794e+002 -9.4016e+000 39093 93174,92834,93102
 2.1000e+000 93200 -9.9945e+000 -1.2984e+002 -2.0711e+001 39093 92938,92912,93174
 2.1000e+000 93223 -1.9452e+000 -1.1944e+002 -2.5502e+001 39093 92938,93174,93102
 2.1000e+000 93680 -4.7198e+000 -6.5346e+001 -8.5663e+000 38639 93703,93536,93484
 2.1000e+000 93657 -1.8370e+001 -6.6281e+001 -4.4758e+000 38639 93703,93484,93432
 2.1000e+000 93634 -1.0764e+001 -7.2824e+001  6.3034e+000 38639 93432,93484,93458
 2.1000e+000 93611 -2.4323e+001 -1.0883e+002 -1.5887e+000 38639 93484,93536,93510
 2.1000e+000 93588 -4.2441e+001 -4.7805e+001  3.2721e+000 38639 93406,93562,93432
 2.1000e+000 93729 -1.8199e+001 -4.6336e+001 -9.0236e+000 38639 93562,93536,93703
 2.1000e+000 93752 -4.8532e+001 -6.5392e+001  1.9850e+000 38639 93562,93703,93432
 2.1000e+000 94160  7.9631e+000 -6.2577e+001 -1.8227e+001 38292 93935,94039,93961
 2.1000e+000 94137  9.4461e+000 -8.2700e+001  1.3868e+001 38292 93935,94065,94039
 2.1000e+000 94114 -9.5814e+001 -9.3302e+001 -2.5184e+001 38292 93961,94013,93987
 2.1000e+000 94091 -4.5210e+001 -7.9629e+001  9.6383e-001 38292 93961,94039,94013
 2.1000e+000 94408  1.4415e+001 -1.1760e+002 -2.3058e+000 37880 94431,94261,94235
 2.1000e+000 94385  1.0599e+001 -9.9377e+001 -4.3435e+000 37880 94431,94235,94313
 2.1000e+000 94362  1.1705e+001 -8.6536e+001  7.0660e-001 37880 94209,94313,94235
 2.1000e+000 94339  5.5923e+000 -9.9827e+001 -1.3369e+000 37880 94183,94313,94209
 2.1000e+000 94457  2.3483e+001 -1.0175e+002 -8.1562e+000 37880 94287,94261,94431
 2.1000e+000 94480  1.0854e+001 -9.1746e+001 -6.4880e+000 37880 94287,94431,94313
 2.1000e+000 94728 -5.1716e+001 -1.4659e+002  1.0589e+001 37426 94529,94607,94555
 2.1000e+000 94705 -3.3086e+001 -1.7764e+002  3.8428e-001 37426 94529,94633,94607
 2.1000e+000 94682  2.6665e+001 -1.7409e+002  1.9420e+000 37426 94503,94633,94529
 2.1000e+000 94659 -2.0655e+001 -5.5470e+001 -3.3375e+001 37426 94555,94607,94581
 2.1000e+000 95257  2.6841e+001 -1.0347e+002 -1.8477e+001 36722 95496,95280,94862
 2.1000e+000 95234 -3.9008e+000 -1.1337e+002  3.2697e+000 36722 95496,94862,94836
 2.1000e+000 95211  5.4754e+001 -1.1327e+002 -4.4407e+000 36722 95352,95280,95070
 2.1000e+000 95188  2.9432e+001 -1.1731e+002  2.2872e+001 36722 95352,95070,95044
 2.1000e+000 95165  2.3277e-001 -1.2543e+002 -1.7501e+001 36722 95424,94888,94862
 2.1000e+000 95142  4.0415e+001 -7.0383e+001  2.1705e+001 36722 94914,94966,94940
 2.1000e+000 95119 -3.9883e+001 -1.9904e+002  4.5513e+001 36722 94966,95044,95018
 2.1000e+000 95096 -3.5580e+001 -1.6420e+002  3.3788e+001 36722 94966,95018,94992
 2.1000e+000 95306 -2.3974e+000 -1.1350e+002 -1.5988e+001 36722 95424,94862,95280
 2.1000e+000 95329  1.4812e+001 -9.6892e+001 -4.6408e+000 36722 94914,95280,94966
 2.1000e+000 95378  7.2885e+000 -1.2531e+002  5.8942e+000 36722 94966,95280,95352
 2.1000e+000 95401 -1.3295e+001 -1.1551e+002  2.5415e+001 36722 94966,95352,95044
 2.1000e+000 95450 -5.6536e+000 -1.2061e+002 -2.3919e+001 36722 94914,94888,95424
 2.1000e+000 95473 -7.5586e+000 -1.1935e+002 -2.0975e+001 36722 94914,95424,95280
 2.1000e+000 95522  3.2266e+001 -9.3660e+001 -2.0877e+001 36722 95070,95280,95496
 2.1000e+000 95545  2.6380e+001 -8.7431e+001 -1.6415e+001 36722 95070,95496,94836
 2.1000e+000 96130 -1.6337e+001 -4.6132e+001  1.5008e+001 36268 96153,95911,95859
 2.1000e+000 96107 -2.5533e+001 -8.6881e+001  1.0673e+001 36268 96153,95859,95807
 2.1000e+000 96084 -1.5661e+001 -7.5153e+001 -1.2328e+000 36268 95807,95859,95833
 2.1000e+000 96061 -1.8229e+001 -1.6319e+002  2.2738e+001 36268 95911,95989,95937
 2.1000e+000 96038 -1.3126e+001 -4.7476e+001  2.4732e+000 36268 95859,95911,95885
 2.1000e+000 96015 -5.2911e+001 -1.1696e+002 -9.5132e+000 36268 95937,95989,95963
 2.1000e+000 96179  8.2512e+000 -8.3773e+001  2.4669e+001 36268 95989,95911,96153
 2.1000e+000 96202 -9.4447e+000 -1.3678e+002  1.8364e+001 36268 95989,96153,95807
 2.1000e+000 96531 -1.2593e+001 -1.6125e+002  1.3863e+001 35728 96358,96410,96384
 2.1000e+000 96508 -4.3366e+001 -1.5343e+002  7.9291e+000 35728 96332,96410,96358
 2.1000e+000 96485 -3.0069e+001 -1.2651e+002  3.4409e+000 35728 96332,96436,96410
 2.1000e+000 96462  1.7074e+001 -8.7344e+001 -2.0396e+001 35728 96306,96436,96332
 2.1000e+000 96860 -5.5364e+000 -1.0354e+002 -2.1751e+001 35324 96687,96765,96713
 2.1000e+000 96837 -3.5897e+001 -1.6971e+002 -9.8915e+000 35324 96661,96765,96687
 2.1000e+000 96814 -4.9526e+001 -1.3383e+002 -8.5241e+000 35324 96713,96765,96739
 2.1000e+000 96791 -5.1213e+001 -2.1414e+002 -2.4073e+001 35324 96635,96765,96661
 2.1000e+000 97366 -5.4896e+001 -1.6826e+002  2.5701e+000 34920 97389,97069,97043
 2.1000e+000 97343 -4.7444e+001 -1.5278e+002  4.8096e+000 34920 97389,97043,97199
 2.1000e+000 97320 -5.0469e+001 -1.7566e+002  2.3827e+000 34920 97043,97225,97199
 2.1000e+000 97297 -3.9276e+001 -1.9346e+002 -1.7798e+001 34920 97069,97121,97095
 2.1000e+000 97274 -7.2638e+001 -1.3338e+002 -1.5211e+001 34920 97121,97199,97173
 2.1000e+000 97251 -6.6359e+001 -9.9198e+001 -4.0223e+001 34920 97121,97173,97147
 2.1000e+000 97415 -6.6462e+001 -1.6846e+002 -1.9131e+001 34920 97121,97069,97389
 2.1000e+000 97438 -5.1403e+001 -1.3460e+002 -1.6228e+001 34920 97121,97389,97199
 2.1000e+000 97708 -5.1814e+001 -1.4747e+002 -7.5088e+000 34722 97509,97587,97535
 2.1000e+000 97685 -2.0798e+001 -1.5011e+002 -1.3063e+001 34722 97509,97613,97587
 2.1000e+000 97662 -7.8944e+001 -1.7864e+002 -2.2303e+001 34722 97483,97613,97509
 2.1000e+000 97639 -2.7506e+001 -1.2099e+002  2.3821e+001 34722 97535,97587,97561
 2.1000e+000 98216 -2.3008e+001 -2.0394e+002 -9.2629e+000 34318 97971,98075,97997
 2.1000e+000 98193  1.2457e+001 -1.6197e+002  1.8903e+001 34318 97893,98075,97971
 2.1000e+000 98170  2.9259e+001 -1.2807e+002  1.2038e+001 34318 97893,97971,97919
 2.1000e+000 98147 -3.5087e+001 -1.3131e+002  2.4030e+001 34318 97997,98075,98049
 2.1000e+000 98124  1.8104e+001 -9.9802e+001 -2.9183e+000 34318 97919,97971,97945
 2.1000e+000 98101 -5.1861e+001 -1.6398e+002  3.9844e+001 34318 97997,98049,98023
 2.1000e+000 98594 -4.8977e+000 -9.8053e+001 -6.5384e+000 33814 98961,98617,98424
 2.1000e+000 98571 -1.2935e+001 -1.1036e+002 -4.1946e-001 33814 98689,98617,98372
 2.1000e+000 98548 -1.8504e+001 -8.2803e+001 -1.4545e+000 33814 99033,98689,98372
 2.1000e+000 98525 -6.8235e+000 -6.1807e+001  3.2728e+001 33814 98761,98476,98450
 2.1000e+000 98502 -5.0780e+000 -9.6004e+001 -6.4167e+000 33814 98961,98424,98398
 2.1000e+000 98643 -2.4931e+001 -9.8489e+001  3.9576e+000 33814 98450,98424,98617
 2.1000e+000 98666 -1.4346e+001 -8.7127e+001  1.0083e+001 33814 98761,98450,98617
 2.1000e+000 98715 -3.5860e+001 -1.1961e+002  3.4335e+000 33814 99161,98689,98320
 2.1000e+000 98738 -3.0028e+001 -1.3007e+002  4.0716e+000 33814 98320,98689,98346
 2.1000e+000 98787 -6.5414e+001 -1.0658e+002  3.4879e+001 33814 98833,98761,98320
 2.1000e+000 98810 -3.0874e+001 -1.2365e+002  1.2714e+001 33814 99161,98320,98761
 2.1000e+000 98859 -1.7124e+001 -6.5675e+001  1.7372e+001 33814 98476,98761,98833
 2.1000e+000 98987 -6.2781e+000 -9.4287e+001 -6.7858e+000 33814 98372,98617,98961
 2.1000e+000 99010 -5.5014e+000 -9.0944e+001 -6.5319e+000 33814 98372,98961,98398
 2.1000e+000 99059 -5.3676e+001 -1.5445e+002 -1.9627e+001 33814 98346,98689,99033
 2.1000e+000 99187 -2.9387e+001 -1.0531e+002  4.8403e+000 33814 98617,98689,99161
 2.1000e+000 99210 -2.4814e+001 -1.1101e+002  1.4581e+001 33814 98617,99161,98761
 2.1000e+000 99588 -3.2633e+001 -9.8786e+001 -9.6696e+000 33566 99366,99444,99392
 2.1000e+000 99565 -1.6090e+001 -8.7080e+001 -3.9660e+000 33566 99314,99444,99366
 2.1000e+000 99542 -3.2538e+001 -1.1204e+002  5.2780e+000 33566 99314,99366,99340
 2.1000e+000 99519 -1.5857e+001 -9.9631e+001  1.3803e+001 33566 99314,99470,99444
 2.1000e+000 99496 -9.2004e+000 -7.5642e+001 -2.6473e+001 33566 99392,99444,99418
 2.1000e+000 99787 -3.2318e+001 -1.5599e+002  4.8630e+000 33105 99637,99689,99663
 2.1000e+000 99764 -2.6016e+001 -1.4963e+002 -1.7642e+000 33105 99611,99689,99637
 2.1000e+000 99741 -1.4876e+001 -8.6273e+001  2.4405e+000 33105 99611,99715,99689
 2.1000e+000 100167 -5.1824e+001 -1.2044e+002  2.4715e+001 32651 100190,99971,99919
 2.1000e+000 100144 -1.0900e+001 -9.5073e+001  1.0956e+001 32651 100262,100190,99919
 2.1000e+000 100121 -1.1054e+001 -9.3227e+001  8.7123e+000 32651 100262,99919,100049
 2.1000e+000 100098 -1.2048e+001 -9.2679e+001 -1.9719e+001 32651 99893,100049,99919
 2.1000e+000 100075  4.1205e+000 -1.1068e+002  6.0226e+001 32651 99919,99971,99945
 2.1000e+000 100216 -9.0281e+000 -1.1625e+002  9.9095e+000 32651 99997,99971,100190
 2.1000e+000 100239  8.2116e-001 -1.1254e+002 -4.3902e-002 32651 99997,100190,100023
 2.1000e+000 100288 -5.1198e+000 -1.0846e+002  1.0302e+001 32651 100023,100190,100262
 2.1000e+000 100311  1.0717e+001 -9.6846e+001  1.6283e+000 32651 100023,100262,100049
 2.1000e+000 100608 -3.2081e+001 -1.3485e+002 -8.8807e-001 32254 100386,100490,100464
 2.1000e+000 100585 -5.0166e+001 -1.4875e+002 -1.3405e+001 32254 100360,100490,100386
 2.1000e+000 100562 -3.6866e+001 -1.4302e+002 -5.2868e+000 32254 100386,100464,100412
 2.1000e+000 100539  8.2790e+000 -1.1808e+002  1.0395e+000 32254 100334,100490,100360
 2.1000e+000 100516 -3.5928e+001 -9.6556e+001 -1.4001e+001 32254 100412,100464,100438
 2.1000e+000 100758  2.4842e+001 -2.7319e-001  4.0420e+001 31914 100985,100781,100683
 2.1000e+000 100735  1.2836e+000 -5.4204e+001  6.9644e+000 31914 100853,100781,100657
 2.1000e+000 100807  2.0086e+001 -4.4196e+001  3.4002e+001 31914 100709,100683,100781
 2.1000e+000 100830  6.4461e-002 -6.4916e+001 -9.4356e+000 31914 100709,100781,100631
 2.1000e+000 100879  3.0091e+001  6.4783e+000 -6.3668e+000 31914 100631,100781,100853
 2.1000e+000 101011 -1.5371e+001 -5.2207e+001  2.1195e+001 31914 100657,100781,100985
 2.1000e+000 101191  5.9942e+001 -1.1523e+002  1.1600e+001 31418 101113,101165,101139
 2.1000e+000 101341 -5.9609e+001 -1.4974e+002 -9.4342e+000 31106 101214,101266,101240
 2.1000e+000 101318 -4.5037e+001 -1.1127e+002 -7.0603e+000 31106 101214,101292,101266
 2.1000e+000 101591 -2.8089e+001 -1.1309e+002  3.1188e+001 30552 101614,101470,101444
 2.1000e+000 101568  2.1971e+001 -1.1827e+002  3.1902e+001 30552 101366,101496,101470
 2.1000e+000 101545 -2.1212e+001 -1.0816e+002  2.6098e+001 30552 101614,101444,101392
 2.1000e+000 101522  5.4711e+001 -7.4991e+001  1.6057e+001 30552 101392,101444,101418
 2.1000e+000 101640 -1.8532e+001 -1.1548e+002  2.5957e+001 30552 101366,101470,101614
 2.1000e+000 101663 -1.2600e+001 -1.1144e+002  2.0986e+001 30552 101366,101614,101392
 2.1000e+000 102301 -3.5612e+001 -1.4677e+002  1.3706e+001 30042 102396,102324,102059
 2.1000e+000 102278 -5.1302e+001 -1.2585e+002  1.6402e+000 30042 102324,101981,101955
 2.1000e+000 102255 -4.5092e+001 -1.3601e+002  2.9095e+001 30042 102396,102059,102033
 2.1000e+000 102232 -2.7096e+001 -1.0080e+002  6.0999e-001 30042 101929,102111,101955
 2.1000e+000 102209 -1.3682e+001 -1.5128e+002 -1.1589e+001 30042 102059,102111,102085
 2.1000e+000 102186 -2.4712e+001 -9.8728e+001 -2.0447e+000 30042 101929,102137,102111
 2.1000e+000 102163 -3.4821e+000 -7.1324e+001 -7.1362e+000 30042 101981,102033,102007
 2.1000e+000 102350 -3.5115e+001 -1.4008e+002 -1.8005e+000 30042 102111,102059,102324
 2.1000e+000 102373 -2.9082e+001 -1.1311e+002 -5.2582e+000 30042 102111,102324,101955
 2.1000e+000 102422 -2.4965e+001 -1.1116e+002  1.0493e+001 30042 101981,102324,102396
 2.1000e+000 102445 -3.4064e+001 -1.0016e+002  2.6342e+001 30042 101981,102396,102033
 2.1000e+000 103000 -2.2628e+001 -1.4671e+002 -1.7587e+000 29730 103023,102706,102654
 2.1000e+000 102977 -3.7804e+001 -1.4047e+002 -1.2627e+001 29730 103023,102654,102810
 2.1000e+000 102954 -5.9062e+001 -2.2849e+002 -2.1555e+001 29730 102732,102810,102784
 2.1000e+000 102931 -7.1387e+001 -1.5543e+002 -2.1063e+001 29730 102628,102810,102654
 2.1000e+000 102908 -2.6492e+001 -1.3884e+002  3.0295e+000 29730 102654,102706,102680
 2.1000e+000 102885 -4.2061e+001 -1.4239e+002 -6.3459e+001 29730 102732,102784,102758
 2.1000e+000 102862 -5.6028e+001 -1.4734e+002 -2.6634e+001 29730 102628,102836,102810
 2.1000e+000 103049 -3.3529e+001 -1.6410e+002 -6.7803e+000 29730 102732,102706,103023
 2.1000e+000 103072 -4.2236e+001 -1.4769e+002 -1.5347e+001 29730 102732,103023,102810
 2.1000e+000 103222 -4.2233e+000 -1.2432e+002 -1.2423e+001 29226 103095,103147,103121
 2.1000e+000 103199 -5.6568e+000 -1.2307e+002 -1.2849e+001 29226 103095,103173,103147
 2.1000e+000 103730 -2.3285e+001 -1.1329e+002 -2.6769e+000 28822 103537,103589,103563
 2.1000e+000 103707 -2.5222e+001 -1.3078e+002 -3.4746e+000 28822 103433,103589,103537
 2.1000e+000 103684 -6.6703e+001 -1.3854e+002 -1.9062e+001 28822 103433,103537,103459
 2.1000e+000 103661 -1.6822e+001 -1.4844e+002 -1.4159e+000 28822 103407,103589,103433
 2.1000e+000 103638 -4.3183e+001 -7.7234e+001  3.0771e+000 28822 103459,103511,103485
 2.1000e+000 103615 -2.8917e+001 -8.4958e+001  6.7604e+000 28822 103459,103537,103511
 2.1000e+000 103880 -2.4477e+000 -1.1932e+002  9.6318e+000 28368 103975,103903,103779
 2.1000e+000 103857 -4.8272e-001 -1.3341e+002 -3.9304e+000 28368 103903,103753,103831
 2.1000e+000 103929 -5.6358e+000 -1.2851e+002  8.6469e+000 28368 103805,103779,103903
 2.1000e+000 103952  1.8357e+001 -1.2977e+002  5.5202e+000 28368 104105,103903,103831
 2.1000e+000 104001 -1.6331e+001 -1.3046e+002 -4.2255e-002 28368 103753,103903,103975
 2.1000e+000 104131 -1.1458e+001 -1.3789e+002  1.1933e+001 28368 103805,103903,104105
 2.1000e+000 104539 -1.4110e+001 -7.6690e+001  9.5297e+000 28028 104562,104340,104314
 2.1000e+000 104516 -2.1495e+001 -5.4523e+001  1.9203e+001 28028 104634,104562,104314
 2.1000e+000 104493 -2.7348e+001 -8.2017e+001 -7.0518e+000 28028 104762,104366,104340
 2.1000e+000 104470 -2.1323e+001 -8.1478e+001 -2.1948e+001 28028 104366,104418,104392
 2.1000e+000 104588 -2.7254e+001 -8.8402e+001 -1.1908e+000 28028 104762,104340,104562
 2.1000e+000 104611 -3.4981e+001 -6.2532e+001  4.0428e+000 28028 104418,104562,104444
 2.1000e+000 104660 -4.7244e+001 -6.7048e+001  9.7569e+000 28028 104444,104562,104634
 2.1000e+000 104788 -3.0389e+001 -7.3304e+001 -6.0119e+000 28028 104418,104366,104762
 2.1000e+000 104811 -2.8017e+001 -7.6762e+001 -5.7435e-002 28028 104418,104762,104562
 2.1000e+000 105010  3.7853e+001 -7.0413e+001  2.4001e+001 27324 105033,104886,104860
 2.1000e+000 104987  2.7523e+001 -7.5391e+001  2.2134e+001 27324 105033,104860,104834
 2.1000e+000 104964  2.9769e+001 -7.9358e+001  1.9717e+001 27324 105105,104912,104886
 2.1000e+000 105059  3.3145e+001 -7.8200e+001  2.0733e+001 27324 105105,104886,105033
 2.1000e+000 105082  3.1136e+001 -6.8154e+001  2.0925e+001 27324 104938,105033,104834
 2.1000e+000 105131  2.0540e+001 -7.8300e+001  1.5244e+001 27324 104938,104912,105105
 2.1000e+000 105154  2.6684e+001 -7.3068e+001  1.7732e+001 27324 104938,105105,105033
 2.1000e+000 105402 -6.0641e+001 -9.7159e+001 -5.7759e+000 27012 105229,105281,105255
 2.1000e+000 105379 -3.9251e+001 -8.2287e+001 -1.2484e+001 27012 105229,105307,105281
 2.1000e+000 105356 -2.3899e+001 -7.0909e+001 -7.5210e+000 27012 105177,105307,105229
 2.1000e+000 105333 -5.4603e+001 -8.2248e+001 -3.8130e+001 27012 105177,105229,105203
 2.1000e+000 105603  5.8294e+000 -3.1677e+001  1.6335e+001 26508 105626,105453,105427
 2.1000e+000 105580  6.6904e+000 -2.9289e+001  9.9343e+000 26508 105626,105427,105505
 2.1000e+000 105557 -2.6593e-001 -2.1998e+001  4.4787e+000 26508 105427,105531,105505
 2.1000e+000 105652  1.1346e+001 -2.9228e+001  1.4394e+001 26508 105479,105453,105626
 2.1000e+000 105675  1.2677e+001 -2.8339e+001  8.5788e+000 26508 105479,105626,105505
 2.1000e+000 106057 -2.2704e+001 -1.0218e+002  3.8855e+001 25947 106080,105887,105861
 2.1000e+000 106034 -1.6254e+001 -1.0500e+002  1.0589e+001 25947 106080,105861,105783
 2.1000e+000 106011 -2.9161e+001 -7.4158e+001  8.5878e+000 25947 105783,105835,105809
 2.1000e+000 105988 -3.8617e+001 -7.6794e+001  1.2111e+001 25947 105783,105861,105835
 2.1000e+000 105965 -1.2562e+000 -5.0386e+001  1.9197e+001 25947 105887,105939,105913
 2.1000e+000 106106 -7.1068e+000 -9.5325e+001  3.7818e+001 25947 105939,105887,106080
 2.1000e+000 106129  1.9290e+001 -8.9727e+001  7.3966e+000 25947 105939,106080,105783
 2.1000e+000 106714 -4.1541e+001 -8.4181e+001 -3.1115e+000 25557 106809,106737,106547
 2.1000e+000 106691 -4.1258e+001 -9.4157e+001  4.7169e+000 25557 106737,106417,106391
 2.1000e+000 106668 -3.7302e+001 -8.2698e+001 -3.7454e+000 25557 106809,106547,106495
 2.1000e+000 106645 -5.6828e+001 -1.3956e+002  5.2902e+000 25557 106417,106495,106469
 2.1000e+000 106622 -3.6986e+001 -8.6422e+001 -9.0731e+000 25557 106495,106547,106521
 2.1000e+000 106599 -3.0807e+001 -1.4829e+002  1.3610e+001 25557 106417,106469,106443
 2.1000e+000 106763 -4.7275e+001 -8.5772e+001  1.0428e+000 25557 106573,106547,106737
 2.1000e+000 106786 -3.6043e+001 -8.1474e+001  5.4718e+000 25557 106573,106737,106391
 2.1000e+000 106835 -3.6367e+001 -8.6293e+001 -1.2815e+000 25557 106417,106737,106809
 2.1000e+000 106858 -3.3736e+001 -8.5841e+001 -2.3423e+000 25557 106417,106809,106495
 2.1000e+000 107364  9.1501e-001 -7.2392e+001 -3.2467e+001 25153 107459,107387,107171
 2.1000e+000 107341 -3.8212e+001 -8.6496e+001 -1.4386e+000 25153 107387,107119,107067
 2.1000e+000 107318  1.9074e+001 -6.5148e+001 -3.1374e+001 25153 107459,107171,107145
 2.1000e+000 107295 -2.9681e+001 -9.2288e+001 -2.6321e+001 25153 107531,107223,107197
 2.1000e+000 107272 -3.8465e+001 -8.2304e+001  4.1482e+000 25153 107067,107119,107093
 2.1000e+000 107249 -3.2846e+001 -7.6488e+001 -8.4542e+000 25153 107041,107223,107067
 2.1000e+000 107413 -4.5782e+001 -9.7323e+001 -2.2998e+001 25153 107197,107171,107387
 2.1000e+000 107436 -1.6413e+001 -9.0104e+001 -2.1782e+001 25153 107531,107197,107387
 2.1000e+000 107485 -5.4113e+000 -7.5854e+001  7.2678e+000 25153 107119,107387,107459
 2.1000e+000 107508  4.2937e+001 -5.5563e+001  9.6594e+000 25153 107119,107459,107145
 2.1000e+000 107557 -3.6275e+001 -8.6059e+001 -1.0397e+001 25153 107067,107223,107531
 2.1000e+000 107580 -1.9179e+001 -7.8576e+001 -4.9237e+000 25153 107067,107531,107387
 2.1000e+000 107958 -4.0105e+001 -1.1921e+002 -1.2814e+001 24741 107736,107814,107788
 2.1000e+000 107935 -4.9508e+001 -1.2958e+002 -2.0436e+001 24741 107736,107840,107814
 2.1000e+000 107912 -4.7169e+001 -1.4505e+002 -1.7899e+001 24741 107684,107840,107736
 2.1000e+000 107889 -5.1856e+001 -1.1748e+002 -1.2742e+001 24741 107736,107788,107762
 2.1000e+000 107866 -3.0994e+001 -1.8423e+002 -7.4486e+001 24741 107684,107736,107710
 2.1000e+000 108157 -1.9997e+001 -6.7392e+001  9.1112e+000 24237 108180,108059,108007
 2.1000e+000 108134 -1.8019e+001 -5.0785e+001  2.3932e+001 24237 108180,108007,107981
 2.1000e+000 108111  3.3639e+000 -7.4448e+001  6.4650e+000 24237 108007,108059,108033
 2.1000e+000 108206 -1.1873e+001 -5.0836e+001  1.4486e+001 24237 108085,108059,108180
 2.1000e+000 108229 -1.0128e+001 -3.4290e+001  2.9210e+001 24237 108085,108180,107981
 2.1000e+000 108658 -1.2257e+001 -1.2128e+002 -1.9769e+001 23776 108361,108413,108387
 2.1000e+000 108635  9.5378e+000 -1.1519e+002  2.4684e+000 23776 108753,108681,108361
 2.1000e+000 108612  3.5318e+001 -7.9514e+001 -1.9229e+001 23776 108681,108465,108439
 2.1000e+000 108589  9.9554e+000 -1.2171e+002  8.2358e+000 23776 108753,108361,108335
 2.1000e+000 108566 -1.6673e+001 -1.2271e+002  4.7829e+001 23776 108335,108517,108465
 2.1000e+000 108543 -1.7738e+001 -1.3580e+002  4.8536e+001 23776 108465,108517,108491
 2.1000e+000 108707  1.2205e+001 -9.9414e+001  1.2262e+000 23776 108413,108361,108681
 2.1000e+000 108730  1.0512e+001 -1.1202e+002 -6.2592e+000 23776 108413,108681,108439
 2.1000e+000 108779  9.3976e+000 -9.2948e+001 -6.8488e-001 23776 108465,108681,108753
 2.1000e+000 108802  3.8209e+000 -1.0939e+002  4.2165e+000 23776 108465,108753,108335
 2.1000e+000 109023  1.9974e+001 -4.6763e+001  1.6726e+001 23414 108873,108925,108899
 2.1000e+000 109000 -1.2296e+001 -5.9229e+001  1.5126e+001 23414 108847,108925,108873
 2.1000e+000 108977  9.9070e+000 -1.8200e+001  1.3167e+000 23414 108847,108951,108925
 2.1000e+000 109474 -2.8256e+001 -1.0144e+002  8.8501e+000 23024 109151,109307,109177
 2.1000e+000 109451 -2.3249e+001 -7.0201e+001  4.3551e+000 23024 109151,109333,109307
 2.1000e+000 109428 -4.1152e+001 -1.6105e+002 -3.8148e+000 23024 109177,109281,109203
 2.1000e+000 109405 -7.6380e+001 -1.4874e+002 -1.4119e+001 23024 109177,109307,109281
 2.1000e+000 109382 -3.9600e+001 -1.3824e+002  1.0335e+001 23024 109203,109281,109229
 2.1000e+000 109359 -2.9245e+001 -1.0669e+002  1.3080e+001 23024 109229,109281,109255
 2.1000e+000 109820 -3.1059e+001 -1.0075e+002  1.1308e+001 22506 109843,109601,109523
 2.1000e+000 109797 -1.3108e+001 -9.1656e+001  7.2114e+000 22506 109843,109523,109497
 2.1000e+000 109774 -9.1773e+000 -1.0479e+002  8.3395e+000 22506 109915,109653,109627
 2.1000e+000 109751 -1.4838e+001 -9.2693e+001  1.0668e+001 22506 109497,109679,109653
 2.1000e+000 109728 -4.1290e+001 -1.2693e+002 -1.6442e+001 22506 109523,109601,109575
 2.1000e+000 109705 -7.0226e+001 -1.6286e+002 -2.9112e+001 22506 109523,109575,109549
 2.1000e+000 109869 -1.0783e+001 -9.5487e+001  1.3908e+001 22506 109627,109601,109843
 2.1000e+000 109892 -6.9972e+000 -1.0151e+002  1.0547e+001 22506 109915,109627,109843
 2.1000e+000 109941 -1.2265e+001 -1.0260e+002  6.3991e+000 22506 109497,109653,109915
 2.1000e+000 109964 -1.2021e+001 -1.0262e+002  8.0470e+000 22506 109497,109915,109843
 2.1000e+000 110163 -2.2662e+000 -8.9749e+001  2.7288e+000 21936 110186,110039,110013
 2.1000e+000 110140 -7.2612e+000 -8.4348e+001  6.4972e+000 21936 110390,110186,110013
 2.1000e+000 110117 -2.1895e+001 -8.7236e+001 -4.2784e+000 21936 110390,110013,109987
 2.1000e+000 110212  3.4994e+000 -7.7894e+001 -1.4723e+000 21936 110065,110039,110186
 2.1000e+000 110235  3.5255e+001 -5.4332e+001  2.8492e+001 21936 110258,110186,110091
 2.1000e+000 110284 -2.3350e+001 -9.8351e+001  9.0877e+000 21936 110065,110186,110258
 2.1000e+000 110416  2.3973e+001 -9.4962e+001  1.0569e+001 21936 110091,110186,110390
 2.1000e+000 110439  4.7458e+000 -1.0079e+002  2.4808e-001 21936 110091,110390,109987
 2.1000e+000 110709 -2.5514e+001 -1.0840e+002  2.9678e+000 21338 110510,110614,110588
 2.1000e+000 110686 -4.1661e+001 -1.4024e+002 -5.7713e+000 21338 110484,110614,110510
 2.1000e+000 110663 -2.0799e+001 -5.8743e+001 -9.6417e-001 21338 110510,110562,110536
 2.1000e+000 110640 -4.2410e+001 -1.0984e+002 -2.5958e+000 21338 110510,110588,110562
 2.1000e+000 111296 -9.5660e+000 -1.0299e+002  3.3666e+000 20934 111025,111155,111103
 2.1000e+000 111273 -1.8390e+001 -1.8218e+002 -2.3724e+000 20934 110999,111155,111025
 2.1000e+000 111250  3.9590e+001 -7.9510e+001 -7.2489e+000 20934 111103,111155,111129
 2.1000e+000 111227 -3.7882e+001 -1.4365e+002 -1.9636e+001 20934 111051,111103,111077
 2.1000e+000 111204 -4.4798e+001 -1.3742e+002 -1.1792e+001 20934 111025,111103,111051
 2.1000e+000 111181 -2.6185e+001 -2.0000e+002 -5.7078e+000 20934 110973,111155,110999
 2.1000e+000 111930 -4.0174e+001 -4.4722e+001 -2.7992e+001 20494 111662,111714,111688
 2.1000e+000 111907  3.6368e+001 -6.2854e+001 -2.5657e+001 20494 111584,111714,111662
 2.1000e+000 111884 -2.1894e+001 -8.5726e+001 -1.6223e+001 20494 111584,111766,111714
 2.1000e+000 111861 -3.8828e+000 -1.4451e+002  2.1333e+001 20494 111584,111636,111610
 2.1000e+000 111838 -2.4192e+001 -1.2088e+002  7.5667e+000 20494 111584,111662,111636
 2.1000e+000 111815  2.3574e+001 -6.4142e+001 -1.0097e+001 20494 111558,111766,111584
 2.1000e+000 111792 -1.6944e+001 -7.9555e+001 -2.6073e+001 20494 111714,111766,111740
 2.1000e+000 112249 -4.9699e+001 -1.8706e+002  1.1888e+001 19940 111975,112053,112001
 2.1000e+000 112226 -1.7828e+001 -1.3757e+002 -7.1393e+000 19940 111975,112131,112053
 2.1000e+000 112203  6.7254e+000 -1.7370e+002  0.0000e+000 19940 112053,112105,112079
 2.1000e+000 112180 -3.6654e+001 -1.8801e+002 -5.2958e+000 19940 112053,112131,112105
 2.1000e+000 112157 -1.0338e+001 -1.6815e+002  6.1627e+000 19940 112001,112053,112027
 2.1000e+000 112757  3.9355e+000 -1.0068e+002 -2.2118e+001 19486 112780,112538,112486
 2.1000e+000 112734 -1.3013e+000 -1.1029e+002 -7.4611e+000 19486 112780,112486,112460
 2.1000e+000 112711 -1.7431e+001 -9.5518e+001 -5.8619e+000 19486 112852,112616,112590
 2.1000e+000 112688  6.2063e+001 -1.3642e+002 -3.0168e+001 19486 112486,112538,112512
 2.1000e+000 112665 -4.4501e+001 -1.3194e+002 -8.4543e+000 19486 112434,112616,112460
 2.1000e+000 112642 -2.0077e+001 -9.4972e+001 -1.6534e+001 19486 112538,112590,112564
 2.1000e+000 112806 -1.3531e+001 -1.0921e+002 -1.8863e+001 19486 112590,112538,112780
 2.1000e+000 112829  2.3976e-001 -1.0121e+002 -1.0296e+001 19486 112852,112590,112780
 2.1000e+000 112878 -2.8429e+001 -1.0263e+002 -1.2555e+000 19486 112460,112616,112852
 2.1000e+000 112901 -1.7980e+001 -1.1526e+002 -3.5234e+000 19486 112460,112852,112780
 2.1000e+000 113252 -8.1801e+001 -1.4982e+002 -9.5585e-001 19096 113105,113157,113131
 2.1000e+000 113229 -7.4797e+001 -1.1777e+002  6.5744e-001 19096 113053,113157,113105
 2.1000e+000 113206 -6.7610e+001 -1.0964e+002  6.2024e+000 19096 113027,113157,113053
 2.1000e+000 113183 -1.0215e+002 -1.7073e+002  1.0469e+001 19096 113053,113105,113079
 2.1000e+000 113451 -2.6018e+000 -1.2946e+002  4.8949e+001 18642 113327,113379,113353
 2.1000e+000 113428 -2.7780e+001 -1.3473e+002 -3.4884e+000 18642 113301,113379,113327
 2.1000e+000 113405  5.2134e+000 -1.2749e+002  6.0903e-001 18642 113275,113379,113301
 2.1000e+000 113699 -3.2980e+000 -1.3357e+002 -2.2489e+000 18138 113474,113552,113526
 2.1000e+000 113676  1.8281e+001 -1.3966e+002 -1.3281e+001 18138 113474,113578,113552
 2.1000e+000 113653  1.3863e+001 -1.4031e+002 -1.1612e+001 18138 113474,113604,113578
 2.1000e+000 113630  1.4313e+001 -1.1631e+002  6.4462e+000 18138 113474,113526,113500
 2.1000e+000 113851 -2.1569e+001 -1.4949e+002 -7.9899e-001 17682 113750,113802,113776
 2.1000e+000 113828 -1.8955e+001 -1.4121e+002  2.8728e+000 17682 113724,113802,113750
 2.1000e+000 114383 -3.4708e+001 -1.1885e+002 -2.7332e+000 17106 114086,114242,114164
 2.1000e+000 114360 -6.9339e+001 -1.3355e+002 -1.4435e+000 17106 114060,114242,114086
 2.1000e+000 114337 -7.4159e+001 -1.9190e+002  1.7992e+001 17106 114086,114164,114138
 2.1000e+000 114314 -2.1883e+000 -2.4177e+002 -2.8460e+001 17106 114190,114242,114216
 2.1000e+000 114291 -6.2358e+001 -1.9335e+002 -9.9525e+000 17106 114164,114242,114190
 2.1000e+000 114268 -3.8240e+001 -1.7785e+002  4.5399e+001 17106 114086,114138,114112
 2.1000e+000 114680 -4.0404e+001 -1.3748e+002  3.9987e+000 16766 114703,114432,114406
 2.1000e+000 114657 -4.4856e+001 -1.3589e+002  2.5224e-001 16766 114703,114406,114510
 2.1000e+000 114634 -4.2369e+001 -1.0319e+002  7.6922e+000 16766 114406,114536,114510
 2.1000e+000 114611 -2.4309e+001 -1.4706e+002 -7.5689e+000 16766 114432,114484,114458
 2.1000e+000 114588 -3.2624e+001 -1.0395e+002  1.9472e+001 16766 114406,114562,114536
 2.1000e+000 114729 -2.3175e+001 -1.3498e+002  6.3776e+000 16766 114484,114432,114703
 2.1000e+000 114752 -3.7844e+001 -1.4064e+002  2.4513e+000 16766 114484,114703,114510
 2.1000e+000 114902  3.5834e+001 -1.5206e+002 -1.4791e+001 16362 114775,114827,114801
 2.1000e+000 114879  1.2250e+002 -1.1141e+002 -3.6848e+001 16362 114775,114853,114827
 2.1000e+000 115054 -1.9028e+002 -3.3482e+002  5.4586e+000 15908 114953,115005,114979
 2.1000e+000 115031 -1.8668e+002 -3.1089e+002  8.1326e+000 15908 114927,115005,114953
 2.1000e+000 115326 -2.9857e+001 -1.1848e+002  2.4357e+001 15251 115101,115179,115153
 2.1000e+000 115303 -2.1455e+001 -1.0696e+002 -5.2263e+000 15251 115101,115231,115179
 2.1000e+000 115280 -2.5623e+001 -1.1647e+002 -4.3241e+000 15251 115179,115231,115205
 2.1000e+000 115257 -7.0883e+001 -2.9971e+002  2.9853e+001 15251 115101,115153,115127
 2.1000e+000 115429 -3.2684e+001 -1.5510e+002  2.3706e+001 421 115351,115403,115377
 2.2000e+000 66230 -1.3466e+001  2.1982e+000  3.4987e+000 65954 66152,66204,66178
 2.2000e+000 66429 -1.6548e+001 -6.3414e+001 -8.9910e+000 65642 66279,66331,66305
 2.2000e+000 66406 -6.4142e-001  1.2040e+001  7.4557e+000 65642 66279,66357,66331
 2.2000e+000 66383  7.2348e+000  1.3059e+001  6.1711e+000 65642 66253,66357,66279
 2.2000e+000 66628 -7.7849e-002 -9.0926e+001  1.4299e+001 65444 66452,66530,66478
 2.2000e+000 66605  1.1737e+001 -1.1723e+002  4.8193e+000 65444 66452,66556,66530
 2.2000e+000 66582 -9.7336e+000 -9.6204e+001  1.7552e+001 65444 66478,66530,66504
 2.2000e+000 67006  8.6802e-001 -7.6697e+001 -1.9790e+000 65246 66732,66810,66758
 2.2000e+000 66983  1.4127e+001 -3.6687e+001  9.5497e+000 65246 66732,66836,66810
 2.2000e+000 66960 -1.3649e+001 -7.4602e+001 -1.2968e+001 65246 66732,66862,66836
 2.2000e+000 66937 -3.7739e+000 -5.3954e+001  6.2274e+000 65246 66758,66810,66784
 2.2000e+000 66914 -3.4184e+000 -9.0784e+001 -2.7432e+001 65246 66732,66888,66862
 2.2000e+000 67107  2.9456e+001 -3.2810e+001 -9.4653e+000 64934 67029,67081,67055
 2.2000e+000 67306 -2.0279e+001 -8.4095e+001  2.9640e+001 64736 67156,67208,67182
 2.2000e+000 67283  1.6321e+001 -5.4033e+001  1.6531e+001 64736 67130,67208,67156
 2.2000e+000 67260 -1.1123e+001 -9.3076e+001  4.5398e+000 64736 67130,67234,67208
 2.2000e+000 67507  5.1515e+000 -6.8304e+001 -7.6781e+000 64389 67357,67409,67383
 2.2000e+000 67484 -4.1084e+000 -8.9616e+001 -1.1840e+001 64389 67357,67435,67409
 2.2000e+000 67461  7.5022e+000 -1.0251e+002 -9.0147e+000 64389 67331,67435,67357
 2.2000e+000 67708  2.6022e+001 -7.6079e+001  1.0495e+001 63985 67731,67584,67558
 2.2000e+000 67685  2.8588e+000 -2.7791e+001  3.0424e+000 63985 67731,67558,67636
 2.2000e+000 67662 -1.6370e+001 -4.0861e+001 -4.1002e+000 63985 67532,67636,67558
 2.2000e+000 67757  1.4033e+001 -9.8934e+001  5.3589e+000 63985 67610,67584,67731
 2.2000e+000 67780 -1.7711e+001 -6.4388e+001 -5.2108e+000 63985 67610,67731,67636
 2.2000e+000 67981  8.9750e+000 -1.8394e+001  3.5716e+000 63787 67857,67909,67883
 2.2000e+000 67958 -5.4317e+000 -4.7435e+001  1.6679e+001 63787 67831,67909,67857
 2.2000e+000 67935 -8.0591e+000  1.7749e+001  3.1324e+000 63787 67805,67909,67831
 2.2000e+000 68231 -1.6443e+000 -9.1680e+001  8.6610e+000 63589 68254,68084,68032
 2.2000e+000 68208 -4.6852e-001 -5.2571e+001  9.1287e+000 63589 68254,68032,68006
 2.2000e+000 68185  3.0097e+000 -4.2255e+001  8.8679e+000 63589 68326,68136,68110
 2.2000e+000 68162 -6.8250e-001 -8.5073e+001 -9.9823e+000 63589 68032,68084,68058
 2.2000e+000 68280 -3.7226e+000 -5.7228e+001  1.2096e+001 63589 68110,68084,68254
 2.2000e+000 68303 -3.0364e+000 -4.4567e+001  1.7774e+001 63589 68326,68110,68254
 2.2000e+000 68352  1.6019e+001 -2.1395e+001 -8.3233e+000 63589 68006,68136,68326
 2.2000e+000 68375  3.7173e+000 -3.0514e+001  1.4135e+000 63589 68006,68326,68254
 2.2000e+000 68836 -1.8274e+000 -1.9610e+001 -7.0033e+000 63128 68859,68588,68562
 2.2000e+000 68813 -8.7820e+000 -3.9879e+001  1.3099e+001 63128 68859,68562,68692
 2.2000e+000 68790  7.5668e+000 -4.4102e+001 -1.9104e+000 63128 68614,68692,68666
 2.2000e+000 68767 -2.4353e+001 -3.3783e+001  1.2475e+001 63128 68562,68718,68692
 2.2000e+000 68744  6.7096e+000 -5.1196e+001 -3.1643e+001 63128 68614,68666,68640
 2.2000e+000 68885  1.0837e+001  9.4902e+000 -2.0129e+001 63128 68614,68588,68859
 2.2000e+000 68908  2.3618e+000 -1.6932e+001 -4.2190e-001 63128 68614,68859,68692
 2.2000e+000 69237  3.1068e+000 -5.3621e+001  4.5996e+000 62731 69064,69116,69090
 2.2000e+000 69214 -1.6919e+000 -6.9631e+001  7.6683e-001 62731 69064,69142,69116
 2.2000e+000 69191 -1.0537e+001 -1.0120e+002  1.0175e+000 62731 69038,69142,69064
 2.2000e+000 69168 -1.4135e+000 -9.3630e+001  4.6765e+000 62731 69012,69142,69038
 2.2000e+000 69539  9.9726e-001  2.2052e+001  1.4482e+000 62433 69389,69467,69441
 2.2000e+000 69516  7.2677e+000 -1.6493e+001  8.4090e+000 62433 69363,69467,69389
 2.2000e+000 69493 -2.1899e+000 -1.4031e+001  1.7363e+001 62433 69389,69441,69415
 2.2000e+000 69966  1.4767e+001 -4.3208e+001  6.1980e+000 62235 69989,69773,69721
 2.2000e+000 69943  6.1039e+000 -7.6754e+001 -2.2770e+001 62235 70061,69989,69721
 2.2000e+000 69920  9.2002e+000 -9.5330e+001 -1.9139e+001 62235 70061,69721,69643
 2.2000e+000 69897  1.3069e+001  3.2034e+001 -1.1448e+001 62235 69721,69773,69747
 2.2000e+000 69874 -6.2390e+001 -2.6065e+002 -7.8146e+000 62235 69643,69721,69695
 2.2000e+000 69851  7.0920e+001  1.6586e+002 -1.9347e+001 62235 69643,69695,69669
 2.2000e+000 70015  1.0540e+001 -7.8899e+001 -1.3608e+001 62235 69799,69773,69989
 2.2000e+000 70038 -1.8770e+001 -9.9049e+001 -4.1487e+001 62235 69799,69989,69825
 2.2000e+000 70087 -5.8336e+000 -9.4756e+001 -1.6761e+001 62235 69825,69989,70061
 2.2000e+000 70110  6.3773e+000 -1.0408e+002 -1.6379e+001 62235 69825,70061,69643
 2.2000e+000 70260 -1.3183e+000 -6.0122e+001 -4.6310e+000 62037 70133,70185,70159
 2.2000e+000 70237 -9.1303e+000 -1.0617e+002 -2.8195e+000 62037 70133,70211,70185
 2.2000e+000 70640 -1.3287e+001 -4.5176e+001  3.8409e+000 61583 70735,70663,70418
 2.2000e+000 70617 -3.5266e+001 -6.4600e+001 -1.7300e+001 61583 70663,70366,70522
 2.2000e+000 70594 -7.6646e+000 -4.1873e+001  1.1495e+001 61583 70735,70418,70392
 2.2000e+000 70571 -1.8920e+000 -6.8621e+001  1.6093e+001 61583 70418,70496,70444
 2.2000e+000 70548 -2.1128e+001 -1.9111e+001  1.7456e+001 61583 70444,70496,70470
 2.2000e+000 70689 -2.1259e+001 -7.5110e+001 -1.5692e+000 61583 70496,70418,70663
 2.2000e+000 70712 -7.3256e+000 -5.5081e+001 -7.7726e+000 61583 70496,70663,70522
 2.2000e+000 70761 -3.3555e+001 -5.0750e+001 -6.6793e+000 61583 70366,70663,70735
 2.2000e+000 70784 -2.1456e+001 -4.4636e+001  8.8936e-001 61583 70366,70735,70392
 2.2000e+000 71054  1.2627e+001 -3.4074e+001  9.9434e+000 61313 71077,70881,70855
 2.2000e+000 71031  2.4376e+001 -2.4504e+001  2.1647e+001 61313 71077,70855,70829
 2.2000e+000 71008 -4.2884e+000 -3.7475e+001  7.3167e+000 61313 70829,70959,70933
 2.2000e+000 70985  1.2674e+001 -4.0979e+001 -9.0038e+000 61313 70881,70933,70907
 2.2000e+000 71103 -2.1886e+000 -3.1191e+001  2.3210e+000 61313 70933,70881,71077
 2.2000e+000 71126  1.0403e+001 -2.6218e+001  1.2395e+001 61313 70933,71077,70829
 2.2000e+000 71604 -3.9164e-001 -8.6290e+001  8.0932e-001 60909 71627,71232,71414
 2.2000e+000 71581 -2.0041e+001 -7.8933e+001 -1.4187e+001 60909 71232,71440,71414
 2.2000e+000 71558 -5.2515e+000 -5.2522e+001  1.4142e+000 60909 71627,71414,71336
 2.2000e+000 71535  1.8208e+001 -1.1105e+002  1.5004e+001 60909 71362,71414,71388
 2.2000e+000 71512 -2.4657e+001 -9.9737e+001  1.8069e+000 60909 71336,71414,71362
 2.2000e+000 71489  7.1613e+000 -4.0022e+001  1.8833e+000 60909 71258,71336,71310
 2.2000e+000 71466 -5.0228e+000 -4.9945e+001  6.9057e+000 60909 71258,71310,71284
 2.2000e+000 71653  1.2293e+001 -6.0464e+001 -3.7571e+000 60909 71258,71232,71627
 2.2000e+000 71676 -3.8161e+000 -4.3282e+001  1.7701e-001 60909 71258,71627,71336
 2.2000e+000 71875 -1.1557e+001 -7.3714e+001  4.6658e+000 60611 71898,71725,71699
 2.2000e+000 71852 -2.8501e+001 -5.5800e+001  2.0143e+001 60611 71898,71699,71803
 2.2000e+000 71829  1.0999e+001 -1.4874e+001  1.9871e+001 60611 71970,71751,71725
 2.2000e+000 71924 -7.4405e+000 -4.9739e+001  6.5315e+000 60611 71970,71725,71898
 2.2000e+000 71947 -2.9878e+000 -4.9917e+001  4.8417e-001 60611 71777,71898,71803
 2.2000e+000 71996  2.8215e+001 -5.3564e+001  2.7129e+001 60611 71777,71751,71970
 2.2000e+000 72019  2.6015e+001 -6.1443e+001  1.9068e+001 60611 71777,71970,71898
 2.2000e+000 72576 -5.0686e+000 -1.5489e+002  3.0862e+001 60142 72599,72256,72230
 2.2000e+000 72553  1.0820e+001 -9.4804e+001  3.4522e+001 60142 72671,72599,72230
 2.2000e+000 72530 -2.5366e+001 -6.1217e+001  4.8593e+000 60142 72671,72230,72204
 2.2000e+000 72507 -3.7309e+001 -4.9730e+001  2.1336e+001 60142 72743,72360,72334
 2.2000e+000 72484 -5.6729e+001 -7.3505e+001  1.7103e+001 60142 72815,72282,72256
 2.2000e+000 72461  2.4467e+001 -2.2988e+001  5.3513e+001 60142 72887,72308,72282
 2.2000e+000 72438 -3.4870e+001 -1.3692e+002 -8.1879e+000 60142 72204,72412,72386
 2.2000e+000 72625 -5.2078e+001 -1.2579e+002 -8.7619e+000 60142 72815,72256,72599
 2.2000e+000 72648 -2.4705e+001 -7.8292e+001  1.6088e+001 60142 72743,72334,72599
 2.2000e+000 72697 -2.1026e+001 -1.4534e+002  2.0645e+001 60142 72386,72599,72671
 2.2000e+000 72720 -4.7262e+001 -1.0751e+002 -2.2702e+000 60142 72386,72671,72204
 2.2000e+000 72769  5.7409e+000 -7.1521e+001  7.7681e+001 60142 72386,72360,72743
 2.2000e+000 72792 -6.5379e+000 -1.3628e+002  4.4529e+001 60142 72386,72743,72599
 2.2000e+000 72841 -2.4422e+001 -4.6331e+001  2.9815e+001 60142 72887,72282,72815
 2.2000e+000 72864 -2.7094e+001 -7.9872e+001  1.0848e+001 60142 72334,72815,72599
 2.2000e+000 72913 -4.2330e+001 -5.4683e+001  2.8528e+001 60142 72334,72308,72887
 2.2000e+000 72936 -6.3644e+001 -6.5172e+001  5.7103e+000 60142 72334,72887,72815
 2.2000e+000 73491 -1.8070e+001 -1.0762e+002 -2.0579e+001 59738 73145,73327,73171
 2.2000e+000 73468  3.8123e+001 -4.0222e+001  3.5131e+000 59738 73119,73327,73145
 2.2000e+000 73445 -9.6480e+000 -5.9494e+001 -8.2548e+000 59738 73171,73327,73301
 2.2000e+000 73422  2.8524e-001 -6.5688e+001  1.5309e-001 59738 73514,73275,73249
 2.2000e+000 73399 -1.8463e+001 -6.3329e+001  1.9265e+000 59738 73586,73514,73249
 2.2000e+000 73376 -1.5454e+001 -3.2626e+001  2.1506e+001 59738 73197,73249,73223
 2.2000e+000 73353 -1.6304e+001 -6.4892e+001  8.3862e+000 59738 73586,73249,73197
 2.2000e+000 73540 -1.5560e+001 -9.4708e+001 -1.1508e+001 59738 73301,73275,73514
 2.2000e+000 73563 -9.2208e+000 -5.9584e+001 -8.0186e+000 59738 73301,73514,73171
 2.2000e+000 73612 -1.3556e+001 -5.2213e+001  2.7583e+000 59738 73171,73514,73586
 2.2000e+000 73635 -1.2536e+001 -5.6063e+001  8.4909e+000 59738 73171,73586,73197
 2.2000e+000 73964  7.4843e+000 -8.2442e+001  1.6662e+000 59334 73791,73843,73817
 2.2000e+000 73941  8.7539e+000 -9.7849e+001 -5.7598e+000 59334 73791,73869,73843
 2.2000e+000 73918 -1.4767e+001 -1.5846e+002  9.7918e+000 59334 73739,73869,73791
 2.2000e+000 73895  3.1062e+001 -1.8569e+002  1.0138e+001 59334 73739,73791,73765
 2.2000e+000 74261  3.1792e+001 -6.4675e+001  3.5462e+001 58630 74065,74117,74091
 2.2000e+000 74238  3.0175e+001 -6.8346e+001  8.9687e+000 58630 74356,74284,74065
 2.2000e+000 74215 -5.0631e+000 -3.6776e+001 -1.4266e+000 58630 74284,74013,73987
 2.2000e+000 74192  3.8056e+001 -5.7806e+001  2.2661e+001 58630 74356,74065,74039
 2.2000e+000 74169 -1.3797e+001 -3.8806e+001 -1.6103e+000 58630 73987,74143,74117
 2.2000e+000 74310  1.3105e+001 -1.0385e+002  1.8780e+000 58630 74117,74065,74284
 2.2000e+000 74333 -2.6050e+001 -6.2862e+001 -1.0549e+001 58630 74117,74284,73987
 2.2000e+000 74382  1.1592e+001 -8.7344e+001 -5.7263e+000 58630 74013,74284,74356
 2.2000e+000 74405  1.9358e+001 -7.5393e+001  8.0315e+000 58630 74013,74356,74039
 2.2000e+000 74815 -1.4709e+001 -4.2637e+001 -8.0188e+000 58226 74590,74642,74616
 2.2000e+000 74792 -2.1537e+001 -7.0715e+001 -8.2198e+000 58226 74590,74694,74642
 2.2000e+000 74769  3.3867e+001 -1.0903e+002  1.2266e+001 58226 74590,74720,74694
 2.2000e+000 74746 -9.7577e+000 -3.3502e+001 -2.3122e+000 58226 74642,74694,74668
 2.2000e+000 75014 -5.6864e+000 -8.3036e+001  1.0550e+000 57786 75037,74864,74838
 2.2000e+000 74991  3.5724e-001 -3.8056e+001  7.9329e+000 57786 75037,74838,74916
 2.2000e+000 74968  9.6242e+000 -1.9555e+001 -1.7774e+001 57786 74838,74942,74916
 2.2000e+000 75063 -2.3828e+000 -1.3337e+002 -1.2686e+001 57786 74890,74864,75037
 2.2000e+000 75086  9.0448e+000 -8.1315e+001 -5.1202e+000 57786 74890,75037,74916
 2.2000e+000 75368  2.2819e+001 -2.7312e+001  1.5792e+001 57496 75192,75270,75218
 2.2000e+000 75345  3.9984e+001 -1.9341e+001  1.7828e+001 57496 75192,75296,75270
 2.2000e+000 75322  1.1549e+000 -4.4035e+001  2.8862e+000 57496 75218,75270,75244
 2.2000e+000 75648  7.1897e-001 -7.0918e+001 -2.5260e+000 57206 75472,75550,75498
 2.2000e+000 75625  5.1381e+000 -6.4595e+001 -4.5100e+000 57206 75472,75576,75550
 2.2000e+000 75602  3.4979e+001 -5.1642e+001  6.3718e-001 57206 75671,75550,75524
 2.2000e+000 75697 -2.3508e+001 -8.0368e+001 -1.5840e+001 57206 75498,75550,75671
 2.2000e+000 76154  2.5598e+001 -5.9254e+001 -1.4809e+001 56802 75958,76010,75984
 2.2000e+000 76131  1.8022e+001 -2.8692e+001 -5.6734e+000 56802 75932,76010,75958
 2.2000e+000 76108  2.9221e+001 -5.2720e+001  2.2808e+001 56802 75906,76010,75932
 2.2000e+000 76085  9.4146e+000 -2.0324e+001  1.8988e+001 56802 75880,76010,75906
 2.2000e+000 76062  2.2063e+001 -2.3687e+001 -6.5649e+000 56802 75880,76036,76010
 2.2000e+000 76505 -2.1025e+000  4.3187e+001 -1.3776e+000 56504 76306,76384,76332
 2.2000e+000 76482  2.1288e+000  1.6126e+001  9.5646e+000 56504 76306,76410,76384
 2.2000e+000 76459  5.3019e+000  3.5018e+001 -1.1198e+001 56504 76332,76384,76358
 2.2000e+000 76436  1.8901e+000  1.0347e+000 -4.4074e+000 56504 76280,76410,76306
 2.2000e+000 77011  1.0004e+001 -4.2238e+001 -1.9874e+001 56050 76740,76818,76792
 2.2000e+000 76988  2.3609e+001 -3.7860e+001 -1.5297e+001 56050 76714,76818,76740
 2.2000e+000 76965 -1.3722e+001 -5.5524e+001 -3.8546e+000 56050 76688,76818,76714
 2.2000e+000 76942 -1.1067e+001 -3.6578e+001 -8.8263e+000 56050 76688,76844,76818
 2.2000e+000 76919  4.7357e+000 -3.6046e+001 -1.9529e+001 56050 76740,76792,76766
 2.2000e+000 76896 -2.2387e+001 -6.3900e+001 -6.9326e+000 56050 76688,76870,76844
 2.2000e+000 77517 -2.0643e+001 -7.0390e+001 -4.1594e-001 55738 77220,77350,77324
 2.2000e+000 77494 -2.5847e+001 -8.4003e+001 -1.0650e+001 55738 77220,77376,77350
 2.2000e+000 77471 -8.8637e+000 -6.2897e+001 -9.4384e-001 55738 77194,77376,77220
 2.2000e+000 77448 -1.3753e+001 -1.9041e+001 -1.3976e-002 55738 77220,77298,77246
 2.2000e+000 77425 -7.5088e+000 -5.1574e+001 -1.3773e+001 55738 77220,77324,77298
 2.2000e+000 77402 -2.8026e+000 -1.3619e+001  8.2734e+000 55738 77246,77298,77272
 2.2000e+000 78064  8.8495e+000 -1.5142e+002 -2.9046e+000 55227 78231,78087,77773
 2.2000e+000 78041 -3.1554e+001 -2.4594e+002  1.4088e+001 55227 78087,77695,77643
 2.2000e+000 78018 -3.4512e+001 -2.0203e+002 -8.4689e+000 55227 78159,77799,77773
 2.2000e+000 77995 -1.1930e+001 -1.0439e+002  8.1155e+000 55227 78231,77773,77721
 2.2000e+000 77972 -5.3910e+001 -7.1343e+001  5.8065e+001 55227 77643,77695,77669
 2.2000e+000 77949 -5.5753e+001 -1.1165e+002  2.8224e+001 55227 77643,77877,77851
 2.2000e+000 77926 -5.5666e+001 -1.8180e+002  4.2253e+001 55227 77799,77851,77825
 2.2000e+000 77903 -9.5767e+000 -6.7209e+001 -1.5519e+001 55227 77721,77773,77747
 2.2000e+000 78113 -1.2492e+001 -2.0220e+002  1.7038e+000 55227 78159,77773,78087
 2.2000e+000 78136  2.1441e+001 -1.2230e+002  3.5317e+001 55227 77851,78087,77643
 2.2000e+000 78185 -7.8006e+001 -1.9096e+002 -9.3508e+000 55227 77851,77799,78159
 2.2000e+000 78208 -5.6546e+001 -1.9295e+002 -1.0537e+000 55227 77851,78159,78087
 2.2000e+000 78257 -7.8574e+000 -2.0826e+002 -2.3189e+001 55227 77695,78087,78231
 2.2000e+000 78280 -3.2542e+001 -1.5833e+002 -1.7286e+001 55227 77695,78231,77721
 2.2000e+000 78737 -1.5987e+001 -3.3332e+001 -1.8152e+001 54773 78463,78541,78515
 2.2000e+000 78714 -2.4643e+001 -6.6093e+001 -7.1085e+000 54773 78463,78619,78541
 2.2000e+000 78691 -1.2307e+001 -2.0975e+001 -8.6438e+000 54773 78463,78515,78489
 2.2000e+000 78668 -2.0602e+001 -3.4739e+001 -9.7689e+000 54773 78541,78593,78567
 2.2000e+000 78645 -1.2998e+001 -4.5407e+001 -1.4253e+001 54773 78541,78619,78593
 2.2000e+000 78838 -1.3119e+000 -1.3942e+001 -2.7771e+000 54211 78760,78812,78786
 2.2000e+000 79297 -3.7636e+000 -6.2536e+001 -2.6105e+000 53814 79520,79153,79049
 2.2000e+000 79274  4.0455e+000 -5.6195e+001 -6.8958e+000 53814 79520,79049,79023
 2.2000e+000 79251 -3.3343e+001 -1.1582e+002  1.3864e+001 53814 79320,79101,79049
 2.2000e+000 79228 -1.8390e+001 -7.9842e+001  3.6480e+000 53814 79320,79049,79153
 2.2000e+000 79205  3.1344e-001 -8.5307e+001  2.6665e+001 53814 79049,79101,79075
 2.2000e+000 79346 -1.8989e+001 -9.3068e+001 -1.7113e+001 53814 79392,79320,79127
 2.2000e+000 79369  1.9087e+001 -6.1458e+001 -3.5335e+001 53814 79127,79320,79153
 2.2000e+000 79418 -4.1687e+001 -1.1741e+002 -2.6488e+001 53814 79101,79320,79392
 2.2000e+000 79546 -1.1720e+001 -7.7017e+001  1.2948e+001 53814 79179,79153,79520
 2.2000e+000 79569  1.8567e+001 -6.0335e+001  5.5806e+000 53814 79179,79520,79023
 2.2000e+000 80075 -2.2439e+001 -5.2192e+000  3.8843e+001 53039 80098,79908,79830
 2.2000e+000 80052 -2.6547e+001  8.0412e+000  1.0402e+001 53039 80098,79830,79804
 2.2000e+000 80029 -1.4728e+001  1.2410e+001  4.1114e+000 53039 79752,79934,79804
 2.2000e+000 80006  5.6702e+001  2.9994e+001  2.6363e+001 53039 79856,79908,79882
 2.2000e+000 79983  1.2920e+001 -2.4097e+001  4.5316e+001 53039 79830,79908,79856
 2.2000e+000 79960  4.9422e+000  3.2920e+001  1.7989e+001 53039 79752,79804,79778
 2.2000e+000 80124  2.2257e+001  9.4676e+000  3.4550e+001 53039 79934,79908,80098
 2.2000e+000 80147 -5.7775e+000  1.4867e+001  5.4886e+000 53039 79934,80098,79804
 2.2000e+000 80555 -2.5341e+001 -6.4350e+001  9.6585e+000 52699 80356,80434,80408
 2.2000e+000 80532  1.2012e+001 -6.9006e+001  3.0750e+000 52699 80356,80460,80434
 2.2000e+000 80509 -8.7582e+000 -7.7606e+001  1.0692e+000 52699 80330,80460,80356
 2.2000e+000 80486 -3.4086e+001 -8.5686e+001  1.0859e+001 52699 80356,80408,80382
 2.2000e+000 80776 -2.0816e+000 -3.1141e+001  8.2378e-001 52295 80600,80678,80626
 2.2000e+000 80753  1.1524e+001 -2.9998e+001  5.3982e-002 52295 80600,80704,80678
 2.2000e+000 80730  1.7460e+001 -2.2239e+001  3.6345e+000 52295 80626,80678,80652
 2.2000e+000 81156 -3.5763e+001 -1.1582e+002  2.4406e+001 51891 81179,80960,80908
 2.2000e+000 81133 -2.9442e+001 -1.0665e+002  4.9714e+000 51891 81179,80908,81012
 2.2000e+000 81110 -4.9409e+001 -1.1332e+002  7.5359e+000 51891 80882,81012,80908
 2.2000e+000 81087 -1.7991e+001 -1.7586e+002  1.6870e+001 51891 80908,80960,80934
 2.2000e+000 81064 -9.4941e+000 -1.6653e+001  5.8778e+000 51891 80882,81038,81012
 2.2000e+000 81205 -1.1957e+001 -1.0816e+002  1.9772e+001 51891 80986,80960,81179
 2.2000e+000 81228 -2.0563e+001 -1.0402e+002  4.6221e-002 51891 80986,81179,81012
 2.2000e+000 81606 -2.3966e+001 -2.0755e+002 -6.7354e+001 51544 81410,81462,81436
 2.2000e+000 81583 -1.0467e+001 -1.1306e+002 -2.7651e+001 51544 81384,81462,81410
 2.2000e+000 81560 -2.5176e+001 -1.1996e+002 -3.2715e+001 51544 81358,81462,81384
 2.2000e+000 81537  1.6488e+001 -1.0259e+002 -3.3833e+001 51544 81358,81488,81462
 2.2000e+000 81514  4.4108e+001  2.1978e+001 -2.5803e+001 51544 81332,81488,81358
 2.2000e+000 81854  4.9461e+001 -9.0907e+001  4.0555e+000 51004 81877,81655,81629
 2.2000e+000 81831  3.5730e+001 -8.3166e+001  5.2067e+000 51004 81877,81629,81759
 2.2000e+000 81808  1.3856e+001 -4.0978e+001  3.8702e+001 51004 81655,81707,81681
 2.2000e+000 81785 -1.7655e+001 -1.4541e+002  8.7076e+000 51004 81707,81759,81733
 2.2000e+000 81903  3.7523e+001 -8.6172e+001 -1.3343e+000 51004 81707,81655,81877
 2.2000e+000 81926  1.4946e+001 -8.8445e+001 -4.4078e+000 51004 81707,81877,81759
 2.2000e+000 82257 -3.8039e-001 -3.7623e+001 -1.9079e+001 50642 82058,82136,82110
 2.2000e+000 82234 -2.6072e+001 -5.9123e+001 -9.8691e+000 50642 82058,82162,82136
 2.2000e+000 82211 -3.2316e+001 -8.9096e+001  1.5968e+001 50642 82058,82110,82084
 2.2000e+000 82188 -2.6887e+001 -5.8833e+001 -1.8293e+001 50642 82032,82162,82058
 2.2000e+000 82684  2.3526e+001 -1.0431e+002 -4.4421e+000 49931 82779,82707,82465
 2.2000e+000 82661  1.1518e+000 -1.3662e+002  1.3482e+001 49931 82707,82413,82361
 2.2000e+000 82638  1.3019e+001 -9.0294e+001 -5.2815e+001 49931 82779,82465,82439
 2.2000e+000 82615 -2.0942e+001 -1.4771e+002  2.1496e+001 49931 82465,82543,82491
 2.2000e+000 82592  1.4696e+001 -8.4628e+001  5.0075e+000 49931 82361,82413,82387
 2.2000e+000 82569  3.9328e+001 -1.0495e+002 -2.9775e+000 49931 82491,82543,82517
 2.2000e+000 82733 -9.6817e+000 -1.2072e+002  5.0672e+000 49931 82543,82465,82707
 2.2000e+000 82756  4.1024e+000 -8.4010e+001  1.4246e+001 49931 82543,82707,82361
 2.2000e+000 82805 -5.5811e+000 -1.7151e+002 -7.5360e+000 49931 82413,82707,82779
 2.2000e+000 82828 -1.1921e+001 -1.4982e+002 -5.3074e+001 49931 82413,82779,82439
 2.2000e+000 83255 -4.3683e+001 -1.9514e+002 -1.5089e+001 49327 82984,83114,83036
 2.2000e+000 83232 -4.2497e+001 -1.9059e+002 -2.9595e+001 49327 82958,83114,82984
 2.2000e+000 83209  1.5162e+001 -2.0185e+002 -1.7299e+001 49327 83036,83114,83088
 2.2000e+000 83186 -2.5306e+001 -1.7117e+002 -2.2471e+000 49327 82984,83036,83010
 2.2000e+000 83163 -3.2177e+001 -1.9934e+002 -3.4805e+001 49327 82932,83114,82958
 2.2000e+000 83140 -5.7482e+001 -3.6301e+002  4.5474e+000 49327 83036,83088,83062
 2.2000e+000 83938 -4.9084e+001 -2.1275e+002  2.7580e+001 48965 83961,83673,83647
 2.2000e+000 83915 -1.3598e+001 -1.1389e+002  2.4249e+001 48965 83961,83647,83543
 2.2000e+000 83892 -3.2787e+001 -1.4637e+002 -3.2361e+001 48965 83517,83725,83543
 2.2000e+000 83869 -1.7629e+001 -1.4427e+002 -4.2177e+001 48965 83673,83725,83699
 2.2000e+000 83846 -2.9286e+001 -8.1210e+001 -1.0202e+001 48965 83543,83647,83621
 2.2000e+000 83823 -1.1067e+001 -8.6528e+001 -1.8095e+001 48965 83543,83621,83569
 2.2000e+000 83800  5.7938e+001 -1.0128e+002 -7.2579e+000 48965 83517,83751,83725
 2.2000e+000 83777 -1.2754e+000 -7.1322e+001  9.6506e+000 48965 83569,83621,83595
 2.2000e+000 83987 -3.0649e+001 -1.9102e+002 -3.5421e+001 48965 83725,83673,83961
 2.2000e+000 84010 -1.5183e+001 -1.5422e+002 -2.6831e+001 48965 83725,83961,83543
 2.2000e+000 84258 -2.4838e+001 -1.6960e+002  3.5409e+001 48447 84281,84059,84033
 2.2000e+000 84235 -9.7592e+000 -1.3042e+002  1.7452e+001 48447 84281,84033,84163
 2.2000e+000 84212  1.9745e+001 -1.5396e+002  1.7865e+000 48447 84059,84111,84085
 2.2000e+000 84189  6.3039e+000 -1.1783e+002 -1.3854e+001 48447 84111,84163,84137
 2.2000e+000 84307 -6.9523e+000 -1.6265e+002  6.4946e+000 48447 84111,84059,84281
 2.2000e+000 84330  1.2244e+001 -1.3727e+002 -1.1247e+001 48447 84111,84281,84163
 2.2000e+000 84529  2.3260e+001 -9.9499e+001 -5.3995e+000 47993 84552,84405,84379
 2.2000e+000 84506 -2.1339e+001 -1.1839e+002 -8.5620e+000 47993 84552,84379,84353
 2.2000e+000 84483  2.5122e+001 -1.0911e+002 -2.0956e+001 47993 84624,84457,84431
 2.2000e+000 84578  2.2133e+001 -1.1749e+002 -1.1045e+001 47993 84431,84405,84552
 2.2000e+000 84601  1.9690e+001 -1.2026e+002 -1.4735e+001 47993 84624,84431,84552
 2.2000e+000 84650  2.1464e+001 -1.0107e+002 -2.4780e+001 47993 84353,84457,84624
 2.2000e+000 84673  2.1122e+001 -1.0159e+002 -1.7590e+001 47993 84353,84624,84552
 2.2000e+000 85104 -4.3175e+001 -1.6349e+002 -1.9863e+001 47588 85199,85127,84885
 2.2000e+000 85081 -2.4270e+001 -1.6112e+002 -2.7872e+001 47588 85127,84781,84963
 2.2000e+000 85058 -5.9715e+001 -1.5991e+002 -8.7660e-001 47588 85199,84885,84807
 2.2000e+000 85035 -1.7777e+001 -1.3472e+002  6.3936e+001 47588 84885,84937,84911
 2.2000e+000 85012 -5.7201e+001 -1.1969e+002 -1.2738e+001 47588 84807,84885,84833
 2.2000e+000 84989 -4.7796e+001 -1.1553e+002 -9.3473e+000 47588 84833,84885,84859
 2.2000e+000 85153 -3.2963e+001 -2.1947e+002  6.5811e+000 47588 84937,84885,85127
 2.2000e+000 85176  5.7793e+001 -1.7799e+002 -6.7982e+000 47588 84937,85127,84963
 2.2000e+000 85225 -7.4528e+001 -1.7524e+002 -1.8913e+001 47588 84781,85127,85199
 2.2000e+000 85248 -8.4906e+001 -1.7071e+002  2.5675e+000 47588 84781,85199,84807
 2.2000e+000 85518 -2.7481e+001 -1.5887e+002  7.4041e+000 47226 85293,85397,85319
 2.2000e+000 85495 -5.6672e+001 -1.6570e+002  4.5266e+000 47226 85293,85423,85397
 2.2000e+000 85472 -6.6683e+001 -1.7912e+002 -2.2625e+000 47226 85319,85397,85345
 2.2000e+000 85449 -3.3470e+001 -1.5214e+002  1.5868e+001 47226 85345,85397,85371
 2.2000e+000 85849 -2.5364e+000 -1.3042e+002  8.9781e+000 46572 85624,85702,85650
 2.2000e+000 85826 -8.8158e+000 -1.7846e+002 -1.0203e+001 46572 85624,85754,85702
 2.2000e+000 85803  9.4585e+000 -1.3138e+002  2.6693e+000 46572 85702,85754,85728
 2.2000e+000 85780  1.3446e+001 -1.2118e+002  1.3632e+000 46572 85650,85702,85676
 2.2000e+000 86070 -1.1012e+002 -1.9528e+002 -4.9403e+000 46374 85920,85972,85946
 2.2000e+000 86047 -9.3676e+001 -1.5550e+002  1.7322e+000 46374 85920,85998,85972
 2.2000e+000 86024 -3.4647e+001 -1.2759e+002  3.9832e+001 46374 85894,85998,85920
 2.2000e+000 86401  1.8205e+000 -1.1777e+002 -4.2306e+000 46034 86424,86280,86228
 2.2000e+000 86378 -4.7642e+000 -1.3026e+002 -8.6786e+000 46034 86424,86228,86176
 2.2000e+000 86355 -2.3157e+001 -1.4744e+002 -3.2876e+001 46034 86176,86228,86202
 2.2000e+000 86332  1.4981e+001 -1.1216e+002 -1.2465e+001 46034 86228,86280,86254
 2.2000e+000 86450  2.0347e+001 -1.3323e+002 -6.2965e+000 46034 86306,86280,86424
 2.2000e+000 86473  4.6648e+000 -1.5038e+002 -1.4576e+001 46034 86306,86424,86176
 2.2000e+000 87058 -2.0304e+000 -1.1927e+002  2.1607e+000 45516 86813,86917,86865
 2.2000e+000 87035 -2.0564e+001 -1.6349e+002  2.8683e+000 45516 86787,86917,86813
 2.2000e+000 87012 -1.9516e+001 -1.7452e+002  4.6811e+000 45516 86735,86917,86787
 2.2000e+000 86989  1.8064e+000 -9.2968e+001 -8.8672e+000 45516 86865,86917,86891
 2.2000e+000 86966 -1.0774e+000 -1.1119e+002  3.6173e+000 45516 86813,86865,86839
 2.2000e+000 86943 -4.2016e+000 -2.0194e+002 -2.2216e+001 45516 86735,86787,86761
 2.2000e+000 87208 -1.7296e+001 -1.0289e+002  8.9752e+000 45226 87231,87133,87107
 2.2000e+000 87185 -1.8855e+001 -1.3500e+002  1.7089e+001 45226 87081,87159,87133
 2.2000e+000 87257  1.8569e+001 -6.3918e+001 -6.3020e+000 45226 87081,87133,87231
 2.2000e+000 87537  3.7970e+001 -1.4086e+002  3.5463e+001 44772 87387,87439,87413
 2.2000e+000 87514 -2.1181e+001 -1.4857e+002  7.2136e+000 44772 87361,87439,87387
 2.2000e+000 87491  2.1209e+001 -1.4742e+002 -3.0100e+000 44772 87361,87465,87439
 2.2000e+000 87996 -3.2121e+001 -1.0700e+002  8.3555e+000 44425 87748,87878,87852
 2.2000e+000 87973  4.5260e+001 -7.3552e+001  2.6831e+000 44425 87722,87878,87748
 2.2000e+000 87950 -5.4640e+000 -1.0798e+002 -3.0843e+000 44425 87800,87852,87826
 2.2000e+000 87927 -2.6697e+001 -1.0580e+002  7.3627e+000 44425 87748,87852,87800
 2.2000e+000 87904 -1.9848e+001 -1.5298e+002  2.3194e+001 44425 87748,87800,87774
 2.2000e+000 88423  2.1090e+001 -1.2620e+002 -1.2959e+001 44078 88590,88230,88204
 2.2000e+000 88400  2.1676e+000 -1.3010e+002  6.1496e+000 44078 88518,88446,88204
 2.2000e+000 88377 -5.1642e+000 -1.2443e+002 -1.3828e+001 44078 88446,88126,88282
 2.2000e+000 88354  4.7178e+000 -1.3488e+002  8.9184e+000 44078 88518,88204,88178
 2.2000e+000 88331 -5.3314e+000 -1.4828e+002 -1.2164e+001 44078 88100,88282,88126
 2.2000e+000 88308 -4.3633e+000 -1.2492e+002  6.1837e+001 44078 88126,88178,88152
 2.2000e+000 88472  1.9656e+001 -1.3108e+002 -7.6093e+000 44078 88590,88204,88446
 2.2000e+000 88495 -1.1898e+001 -1.6366e+002 -2.5823e+001 44078 88256,88446,88282
 2.2000e+000 88544  3.2638e+000 -1.1940e+002  6.3057e+000 44078 88126,88446,88518
 2.2000e+000 88567  2.7624e+000 -1.2851e+002  8.5663e+000 44078 88126,88518,88178
 2.2000e+000 88616 -5.7026e+001 -2.1696e+002 -4.6567e+001 44078 88256,88230,88590
 2.2000e+000 88639  1.0904e+001 -1.3320e+002 -1.2831e+001 44078 88256,88590,88446
 2.2000e+000 89039 -2.1456e+000 -8.9294e+001 -5.5301e-001 43716 88791,88921,88895
 2.2000e+000 89016 -9.1835e+000 -6.5413e+001  3.0490e+000 43716 88765,88921,88791
 2.2000e+000 88993 -9.7946e+000 -1.0033e+002  8.0297e+000 43716 88817,88895,88869
 2.2000e+000 88970 -4.3865e+001 -1.0999e+002  6.1812e+000 43716 88791,88895,88817
 2.2000e+000 88947  3.3910e+001 -7.2474e+001 -5.1044e+000 43716 88817,88869,88843
 2.2000e+000 89496  4.8143e+000 -1.5600e+002 -1.4202e+001 43162 89519,89274,89248
 2.2000e+000 89473  1.1215e+001 -1.4499e+002 -1.0886e+001 43162 89519,89248,89222
 2.2000e+000 89450 -1.1825e+001 -1.3559e+002 -5.3582e+001 43162 89326,89378,89352
 2.2000e+000 89427 -1.5693e+001 -1.7798e+002 -1.7406e+001 43162 89274,89378,89326
 2.2000e+000 89404  1.6134e+001 -1.1306e+002  2.0468e+000 43162 89274,89326,89300
 2.2000e+000 89545  1.1193e+000 -1.4420e+002 -9.0771e+000 43162 89378,89274,89519
 2.2000e+000 89568  8.4299e+000 -1.3222e+002 -5.4567e+000 43162 89378,89519,89222
 2.2000e+000 89946  9.7656e+000 -1.4192e+002 -3.1531e+001 42594 90041,89969,89750
 2.2000e+000 89923  4.5365e+001 -1.0896e+002 -3.7183e+001 42594 89969,89698,89828
 2.2000e+000 89900  2.2000e+001 -1.5016e+002 -2.8060e+001 42594 90041,89750,89724
 2.2000e+000 89877 -2.7989e+001 -1.3285e+002 -2.3705e+001 42594 89750,89802,89776
 2.2000e+000 89854  6.7525e+001  8.2936e+000 -3.6442e+001 42594 89672,89828,89698
 2.2000e+000 89995 -1.6027e+001 -1.2256e+002 -1.2266e+001 42594 89802,89750,89969
 2.2000e+000 90018  3.5749e+001 -1.0169e+002 -7.8600e+000 42594 89802,89969,89828
 2.2000e+000 90067  1.9379e+001 -1.1960e+002 -2.6897e+001 42594 89698,89969,90041
 2.2000e+000 90090  2.2688e+001 -1.4123e+002 -2.2758e+001 42594 89698,90041,89724
 2.2000e+000 90517 -6.2249e+001 -2.0057e+002  4.7171e+000 42140 90540,90220,90194
 2.2000e+000 90494 -4.3547e+001 -1.8641e+002 -3.2914e+000 42140 90540,90194,90376
 2.2000e+000 90471 -5.0318e+001 -2.0216e+002  8.7067e+000 42140 90612,90350,90272
 2.2000e+000 90448 -8.2947e+001 -2.2243e+002 -5.8567e+000 42140 90272,90350,90298
 2.2000e+000 90425 -5.6341e+001 -1.9272e+002 -3.3271e+001 42140 90298,90350,90324
 2.2000e+000 90402 -3.8252e+001 -2.0398e+002  5.2852e+001 42140 90220,90272,90246
 2.2000e+000 90566 -5.2182e+001 -2.0393e+002  7.4476e+000 42140 90272,90220,90540
 2.2000e+000 90589 -5.0947e+001 -2.0371e+002  6.8344e+000 42140 90612,90272,90540
 2.2000e+000 90638 -4.8525e+001 -2.0159e+002  8.7850e+000 42140 90376,90350,90612
 2.2000e+000 90661 -4.5874e+001 -2.0151e+002  7.2385e+000 42140 90376,90612,90540
 2.2000e+000 91167 -1.1172e+001 -1.1499e+002 -2.8210e+001 41636 91190,90870,90844
 2.2000e+000 91144 -2.1699e+001 -1.8620e+002 -2.3496e+001 41636 91190,90844,91026
 2.2000e+000 91121 -4.7692e+001 -1.1609e+002 -4.9359e+001 41636 90870,90922,90896
 2.2000e+000 91098 -4.8848e+001 -1.5474e+002  2.3899e+001 41636 90922,91026,90948
 2.2000e+000 91075  4.6129e+000 -1.0940e+002 -3.9377e+000 41636 90948,91026,91000
 2.2000e+000 91052 -1.5549e+001 -1.4515e+002  4.0732e+000 41636 90948,91000,90974
 2.2000e+000 91216 -2.4707e+001 -9.2304e+001 -2.8281e+001 41636 90922,90870,91190
 2.2000e+000 91239 -2.9665e+000 -1.1838e+002 -1.6124e+001 41636 90922,91190,91026
 2.2000e+000 91696 -6.7665e+001 -1.3968e+002 -3.1608e+001 40449 91448,91526,91474
 2.2000e+000 91673 -6.8298e+001 -1.4626e+002 -1.8163e+001 40449 91448,91578,91526
 2.2000e+000 91650 -2.2120e+001 -1.1589e+002 -9.8046e+000 40449 91474,91526,91500
 2.2000e+000 91627 -4.3502e+001 -1.3966e+002 -1.7843e+001 40449 91422,91578,91448
 2.2000e+000 91604 -2.2557e+001 -6.7789e+001 -4.3193e+001 40449 91526,91578,91552
 2.2000e+000 92123 -4.5408e+001 -1.3376e+002 -4.6902e+000 39995 92146,91904,91826
 2.2000e+000 92100 -2.8524e+001 -1.2962e+002 -2.5227e+001 39995 92146,91826,91800
 2.2000e+000 92077 -5.9457e+001 -1.4157e+002 -9.2470e-001 39995 91826,91904,91852
 2.2000e+000 92054 -6.6936e+001 -2.3044e+002  7.7725e+000 39995 91904,91982,91930
 2.2000e+000 92031 -2.8026e+001 -1.2977e+002 -3.9429e+000 39995 91852,91904,91878
 2.2000e+000 92008 -6.6196e+000 -1.5194e+002 -2.0298e+001 39995 91930,91982,91956
 2.2000e+000 92172 -4.9695e+001 -1.4445e+002 -3.9154e+000 39995 91982,91904,92146
 2.2000e+000 92195 -4.5694e+001 -1.6563e+002 -1.9611e+001 39995 91982,92146,91800
 2.2000e+000 92652 -6.3885e+000 -7.5705e+001  1.1268e+001 39633 92404,92534,92456
 2.2000e+000 92629 -1.2458e+001 -9.8906e+001  7.3451e+000 39633 92378,92534,92404
 2.2000e+000 92606  2.1779e+001 -5.9056e+001  4.3465e+001 39633 92404,92456,92430
 2.2000e+000 92583 -3.9961e+001 -1.7480e+002  1.4611e+001 39633 92456,92534,92508
 2.2000e+000 92560 -7.0402e-002 -8.7115e+001  3.0297e+001 39633 92456,92508,92482
 2.2000e+000 93079  3.7959e+000 -1.1575e+002 -1.4051e+001 39093 93102,92808,92756
 2.2000e+000 93056  6.9826e+000 -9.1078e+001 -3.3846e+001 39093 93102,92756,92938
 2.2000e+000 93033 -1.3028e+001 -1.4615e+002 -8.1497e+000 39093 93174,92912,92834
 2.2000e+000 93010 -7.5310e+001 -1.5937e+002 -1.2406e+001 39093 92834,92912,92860
 2.2000e+000 92987  3.6169e+001 -1.1486e+002 -4.3339e+001 39093 92756,92808,92782
 2.2000e+000 92964 -6.5476e+001 -1.7974e+002 -5.7441e+001 39093 92860,92912,92886
 2.2000e+000 93128  6.9303e+000 -1.2603e+002 -1.3956e+001 39093 92834,92808,93102
 2.2000e+000 93151 -3.7024e+000 -1.2264e+002 -1.0941e+001 39093 93174,92834,93102
 2.2000e+000 93200 -8.3840e+000 -1.3777e+002 -2.5831e+001 39093 92938,92912,93174
 2.2000e+000 93223 -4.7980e-001 -1.2583e+002 -2.9900e+001 39093 92938,93174,93102
 2.2000e+000 93680 -2.8777e+000 -6.6787e+001 -1.0780e+001 38639 93703,93536,93484
 2.2000e+000 93657 -1.6397e+001 -6.9312e+001 -6.5397e+000 38639 93703,93484,93432
 2.2000e+000 93634 -9.5723e+000 -7.8488e+001  6.9665e+000 38639 93432,93484,93458
 2.2000e+000 93611 -2.7751e+001 -1.2250e+002 -3.3694e+000 38639 93484,93536,93510
 2.2000e+000 93588 -4.2452e+001 -4.8753e+001  2.2790e+000 38639 93406,93562,93432
 2.2000e+000 93729 -1.6775e+001 -4.4536e+001 -1.0832e+001 38639 93562,93536,93703
 2.2000e+000 93752 -4.8677e+001 -6.7426e+001  1.0792e+000 38639 93562,93703,93432
 2.2000e+000 94160  5.8024e+000 -7.2382e+001 -2.1673e+001 38292 93935,94039,93961
 2.2000e+000 94137  1.0755e+001 -8.7342e+001  1.4903e+001 38292 93935,94065,94039
 2.2000e+000 94114 -1.0715e+002 -1.0218e+002 -2.9227e+001 38292 93961,94013,93987
 2.2000e+000 94091 -5.2533e+001 -8.1289e+001 -1.4077e+000 38292 93961,94039,94013
 2.2000e+000 94408  2.3606e+001 -1.2355e+002 -1.9096e+000 37880 94431,94261,94235
 2.2000e+000 94385  1.7528e+001 -1.0197e+002 -5.0293e+000 37880 94431,94235,94313
 2.2000e+000 94362  1.8319e+001 -8.9420e+001  3.0481e-001 37880 94209,94313,94235
 2.2000e+000 94339  1.0619e+001 -1.0651e+002 -1.6556e+000 37880 94183,94313,94209
 2.2000e+000 94457  3.7322e+001 -1.0519e+002 -8.9879e+000 37880 94287,94261,94431
 2.2000e+000 94480  1.9709e+001 -9.4042e+001 -7.5017e+000 37880 94287,94431,94313
 2.2000e+000 94728 -5.4995e+001 -1.6353e+002  1.3205e+001 37426 94529,94607,94555
 2.2000e+000 94705 -3.2721e+001 -2.0413e+002  8.4701e-001 37426 94529,94633,94607
 2.2000e+000 94682  3.8387e+001 -2.0303e+002  1.3078e+000 37426 94503,94633,94529
 2.2000e+000 94659 -2.1973e+001 -6.0493e+001 -3.6449e+001 37426 94555,94607,94581
 2.2000e+000 95257  3.2646e+001 -1.1242e+002 -2.1465e+001 36722 95496,95280,94862
 2.2000e+000 95234  2.1282e+000 -1.2203e+002  1.6510e+000 36722 95496,94862,94836
 2.2000e+000 95211  6.3198e+001 -1.2090e+002 -5.9268e+000 36722 95352,95280,95070
 2.2000e+000 95188  3.5362e+001 -1.2364e+002  2.4888e+001 36722 95352,95070,95044
 2.2000e+000 95165  3.0562e+000 -1.3433e+002 -2.1337e+001 36722 95424,94888,94862
 2.2000e+000 95142  4.7336e+001 -7.2815e+001  2.2970e+001 36722 94914,94966,94940
 2.2000e+000 95119 -4.1683e+001 -2.1190e+002  4.6647e+001 36722 94966,95044,95018
 2.2000e+000 95096 -3.8107e+001 -1.7577e+002  3.3372e+001 36722 94966,95018,94992
 2.2000e+000 95306 -2.8493e-002 -1.2219e+002 -1.9596e+001 36722 95424,94862,95280
 2.2000e+000 95329  1.9005e+001 -1.0275e+002 -7.2060e+000 36722 94914,95280,94966
 2.2000e+000 95378  1.0279e+001 -1.3491e+002  4.7112e+000 36722 94966,95280,95352
 2.2000e+000 95401 -1.2974e+001 -1.2342e+002  2.6924e+001 36722 94966,95352,95044
 2.2000e+000 95450 -3.4782e+000 -1.2959e+002 -2.7866e+001 36722 94914,94888,95424
 2.2000e+000 95473 -5.5140e+000 -1.2825e+002 -2.4719e+001 36722 94914,95424,95280
 2.2000e+000 95522  3.8091e+001 -1.0188e+002 -2.3884e+001 36722 95070,95280,95496
 2.2000e+000 95545  3.1900e+001 -9.5395e+001 -1.9220e+001 36722 95070,95496,94836
 2.2000e+000 96130 -1.4019e+001 -4.5687e+001  1.6720e+001 36268 96153,95911,95859
 2.2000e+000 96107 -2.4492e+001 -9.2143e+001  1.1770e+001 36268 96153,95859,95807
 2.2000e+000 96084 -1.2333e+001 -7.6728e+001 -1.9917e+000 36268 95807,95859,95833
 2.2000e+000 96061 -1.4994e+001 -1.7937e+002  2.4053e+001 36268 95911,95989,95937
 2.2000e+000 96038 -1.0673e+001 -4.7360e+001  2.3201e+000 36268 95859,95911,95885
 2.2000e+000 96015 -5.7050e+001 -1.2525e+002 -1.3890e+001 36268 95937,95989,95963
 2.2000e+000 96179  1.4003e+001 -8.8523e+001  2.7709e+001 36268 95989,95911,96153
 2.2000e+000 96202 -6.1833e+000 -1.4899e+002  2.0520e+001 36268 95989,96153,95807
 2.2000e+000 96531 -1.3694e+001 -1.7502e+002  1.6383e+001 35728 96358,96410,96384
 2.2000e+000 96508 -4.6146e+001 -1.6495e+002  9.1789e+000 35728 96332,96410,96358
 2.2000e+000 96485 -3.2222e+001 -1.3939e+002  2.8000e+000 35728 96332,96436,96410
 2.2000e+000 96462  2.6269e+001 -9.3220e+001 -2.4282e+001 35728 96306,96436,96332
 2.2000e+000 96860 -4.8884e+000 -1.0967e+002 -2.6100e+001 35324 96687,96765,96713
 2.2000e+000 96837 -3.6940e+001 -1.7883e+002 -1.2017e+001 35324 96661,96765,96687
 2.2000e+000 96814 -5.1078e+001 -1.4177e+002 -1.2049e+001 35324 96713,96765,96739
 2.2000e+000 96791 -5.4217e+001 -2.2775e+002 -2.7694e+001 35324 96635,96765,96661
 2.2000e+000 97366 -5.7460e+001 -1.7959e+002  2.0992e+000 34920 97389,97069,97043
 2.2000e+000 97343 -4.8833e+001 -1.6351e+002  5.4327e+000 34920 97389,97043,97199
 2.2000e+000 97320 -5.3077e+001 -1.9181e+002  2.8189e+000 34920 97043,97225,97199
 2.2000e+000 97297 -3.9722e+001 -2.0239e+002 -2.0691e+001 34920 97069,97121,97095
 2.2000e+000 97274 -7.5954e+001 -1.4166e+002 -1.4577e+001 34920 97121,97199,97173
 2.2000e+000 97251 -7.0901e+001 -1.0690e+002 -4.0287e+001 34920 97121,97173,97147
 2.2000e+000 97415 -7.0478e+001 -1.8015e+002 -2.0781e+001 34920 97121,97069,97389
 2.2000e+000 97438 -5.4512e+001 -1.4501e+002 -1.6590e+001 34920 97121,97389,97199
 2.2000e+000 97708 -5.5632e+001 -1.5575e+002 -7.9634e+000 34722 97509,97587,97535
 2.2000e+000 97685 -2.2521e+001 -1.5724e+002 -1.4160e+001 34722 97509,97613,97587
 2.2000e+000 97662 -8.4385e+001 -1.8732e+002 -2.3559e+001 34722 97483,97613,97509
 2.2000e+000 97639 -2.5207e+001 -1.2494e+002  2.6826e+001 34722 97535,97587,97561
 2.2000e+000 98216 -2.2511e+001 -2.1800e+002 -7.2746e+000 34318 97971,98075,97997
 2.2000e+000 98193  1.4116e+001 -1.7717e+002  2.3213e+001 34318 97893,98075,97971
 2.2000e+000 98170  3.5780e+001 -1.3593e+002  1.4244e+001 34318 97893,97971,97919
 2.2000e+000 98147 -3.6051e+001 -1.3978e+002  2.9084e+001 34318 97997,98075,98049
 2.2000e+000 98124  1.8858e+001 -1.0899e+002 -3.1912e-001 34318 97919,97971,97945
 2.2000e+000 98101 -5.5208e+001 -1.7774e+002  4.5711e+001 34318 97997,98049,98023
 2.2000e+000 98594 -4.0503e-001 -1.0200e+002 -8.5243e+000 33814 98961,98617,98424
 2.2000e+000 98571 -8.5934e+000 -1.1636e+002 -1.5441e+000 33814 98689,98617,98372
 2.2000e+000 98548 -1.4906e+001 -8.7919e+001 -2.4233e+000 33814 99033,98689,98372
 2.2000e+000 98525 -2.8723e+000 -6.3166e+001  3.4494e+001 33814 98761,98476,98450
 2.2000e+000 98502 -7.1220e-001 -1.0018e+002 -8.4633e+000 33814 98961,98424,98398
 2.2000e+000 98643 -2.2063e+001 -1.0186e+002  3.7251e+000 33814 98450,98424,98617
 2.2000e+000 98666 -1.0851e+001 -9.0188e+001  1.0305e+001 33814 98761,98450,98617
 2.2000e+000 98715 -3.3802e+001 -1.2539e+002  3.1951e+000 33814 99161,98689,98320
 2.2000e+000 98738 -2.7588e+001 -1.3744e+002  4.0384e+000 33814 98320,98689,98346
 2.2000e+000 98787 -6.5540e+001 -1.1128e+002  3.6999e+001 33814 98833,98761,98320
 2.2000e+000 98810 -2.8508e+001 -1.2974e+002  1.3120e+001 33814 99161,98320,98761
 2.2000e+000 98859 -1.3669e+001 -6.6683e+001  1.8017e+001 33814 98476,98761,98833
 2.2000e+000 98987 -1.3312e+000 -9.8782e+001 -8.7965e+000 33814 98372,98617,98961
 2.2000e+000 99010 -8.1707e-001 -9.5855e+001 -8.6547e+000 33814 98372,98961,98398
 2.2000e+000 99059 -5.2263e+001 -1.6375e+002 -2.2066e+001 33814 98346,98689,99033
 2.2000e+000 99187 -2.6897e+001 -1.1014e+002  4.6958e+000 33814 98617,98689,99161
 2.2000e+000 99210 -2.2047e+001 -1.1626e+002  1.5110e+001 33814 98617,99161,98761
 2.2000e+000 99588 -3.2663e+001 -1.0626e+002 -1.2680e+001 33566 99366,99444,99392
 2.2000e+000 99565 -1.4269e+001 -9.2385e+001 -6.1772e+000 33566 99314,99444,99366
 2.2000e+000 99542 -3.2766e+001 -1.1972e+002  4.5749e+000 33566 99314,99366,99340
 2.2000e+000 99519 -1.4013e+001 -1.0615e+002  1.3298e+001 33566 99314,99470,99444
 2.2000e+000 99496 -6.1874e+000 -7.7675e+001 -3.0754e+001 33566 99392,99444,99418
 2.2000e+000 99787 -3.2995e+001 -1.7176e+002  7.8395e+000 33105 99637,99689,99663
 2.2000e+000 99764 -2.6696e+001 -1.6386e+002 -1.4385e+000 33105 99611,99689,99637
 2.2000e+000 99741 -1.3939e+001 -9.2107e+001  3.2370e+000 33105 99611,99715,99689
 2.2000e+000 100167 -5.3923e+001 -1.2945e+002  2.4645e+001 32651 100190,99971,99919
 2.2000e+000 100144 -1.0050e+001 -1.0163e+002  9.7861e+000 32651 100262,100190,99919
 2.2000e+000 100121 -1.0438e+001 -9.9670e+001  7.3149e+000 32651 100262,99919,100049
 2.2000e+000 100098 -1.2877e+001 -9.9620e+001 -2.4105e+001 32651 99893,100049,99919
 2.2000e+000 100075  9.1466e+000 -1.1650e+002  6.4360e+001 32651 99919,99971,99945
 2.2000e+000 100216 -8.0666e+000 -1.2548e+002  8.0941e+000 32651 99997,99971,100190
 2.2000e+000 100239  2.9657e+000 -1.2036e+002 -2.6574e+000 32651 99997,100190,100023
 2.2000e+000 100288 -4.1643e+000 -1.1592e+002  9.0166e+000 32651 100023,100190,100262
 2.2000e+000 100311  1.2113e+001 -1.0375e+002 -2.7516e-001 32651 100023,100262,100049
 2.2000e+000 100608 -3.4548e+001 -1.4714e+002  1.6568e+000 32254 100386,100490,100464
 2.2000e+000 100585 -5.2934e+001 -1.6012e+002 -1.1402e+001 32254 100360,100490,100386
 2.2000e+000 100562 -3.8717e+001 -1.5650e+002 -3.5274e+000 32254 100386,100464,100412
 2.2000e+000 100539  8.4740e+000 -1.2834e+002  2.8565e+000 32254 100334,100490,100360
 2.2000e+000 100516 -3.6350e+001 -1.0335e+002 -1.2509e+001 32254 100412,100464,100438
 2.2000e+000 100758  3.2085e+001  4.1032e+000  4.4493e+001 31914 100985,100781,100683
 2.2000e+000 100735  8.3574e+000 -5.3885e+001  6.0642e+000 31914 100853,100781,100657
 2.2000e+000 100807  2.7165e+001 -4.3472e+001  3.7339e+001 31914 100709,100683,100781
 2.2000e+000 100830  2.2898e+000 -6.8129e+001 -1.3055e+001 31914 100709,100781,100631
 2.2000e+000 100879  3.7680e+001  1.3468e+001 -7.6741e+000 31914 100631,100781,100853
 2.2000e+000 101011 -1.0628e+001 -5.0607e+001  2.4005e+001 31914 100657,100781,100985
 2.2000e+000 101191  8.3968e+001 -1.2316e+002  1.1518e+001 31418 101113,101165,101139
 2.2000e+000 101341 -6.9295e+001 -1.6986e+002 -1.0594e+001 31106 101214,101266,101240
 2.2000e+000 101318 -4.7475e+001 -1.1285e+002 -7.5840e+000 31106 101214,101292,101266
 2.2000e+000 101591 -2.8606e+001 -1.2292e+002  3.3665e+001 30552 101614,101470,101444
 2.2000e+000 101568  2.6351e+001 -1.2946e+002  3.3646e+001 30552 101366,101496,101470
 2.2000e+000 101545 -2.0601e+001 -1.1651e+002  2.7953e+001 30552 101614,101444,101392
 2.2000e+000 101522  6.7978e+001 -7.8991e+001  1.7096e+001 30552 101392,101444,101418
 2.2000e+000 101640 -1.7500e+001 -1.2623e+002  2.7084e+001 30552 101366,101470,101614
 2.2000e+000 101663 -1.0584e+001 -1.2088e+002  2.1528e+001 30552 101366,101614,101392
 2.2000e+000 102301 -3.3470e+001 -1.5904e+002  1.5528e+001 30042 102396,102324,102059
 2.2000e+000 102278 -5.3187e+001 -1.3408e+002  8.4972e-001 30042 102324,101981,101955
 2.2000e+000 102255 -4.4837e+001 -1.4570e+002  3.4458e+001 30042 102396,102059,102033
 2.2000e+000 102232 -2.2953e+001 -1.0595e+002 -9.1614e-001 30042 101929,102111,101955
 2.2000e+000 102209 -9.2302e+000 -1.6319e+002 -1.3985e+001 30042 102059,102111,102085
 2.2000e+000 102186 -2.1394e+001 -1.0361e+002 -5.0313e+000 30042 101929,102137,102111
 2.2000e+000 102163 -3.3406e+000 -7.0916e+001 -8.0271e+000 30042 101981,102033,102007
 2.2000e+000 102350 -3.3226e+001 -1.5117e+002 -3.0149e+000 30042 102111,102059,102324
 2.2000e+000 102373 -2.5825e+001 -1.1875e+002 -6.9974e+000 30042 102111,102324,101955
 2.2000e+000 102422 -2.0826e+001 -1.1538e+002  1.1818e+001 30042 101981,102324,102396
 2.2000e+000 102445 -3.1704e+001 -1.0177e+002  3.1306e+001 30042 101981,102396,102033
 2.2000e+000 103000 -2.0152e+001 -1.6079e+002 -2.0201e+000 29730 103023,102706,102654
 2.2000e+000 102977 -3.7825e+001 -1.5299e+002 -1.5190e+001 29730 103023,102654,102810
 2.2000e+000 102954 -6.2498e+001 -2.5419e+002 -2.4937e+001 29730 102732,102810,102784
 2.2000e+000 102931 -7.7466e+001 -1.7200e+002 -2.5519e+001 29730 102628,102810,102654
 2.2000e+000 102908 -2.4489e+001 -1.5178e+002  3.3917e+000 29730 102654,102706,102680
 2.2000e+000 102885 -4.4246e+001 -1.5690e+002 -7.4774e+001 29730 102732,102784,102758
 2.2000e+000 102862 -6.0646e+001 -1.6210e+002 -3.5141e+001 29730 102628,102836,102810
 2.2000e+000 103049 -3.2932e+001 -1.8192e+002 -7.6789e+000 29730 102732,102706,103023
 2.2000e+000 103072 -4.3046e+001 -1.6198e+002 -1.8067e+001 29730 102732,103023,102810
 2.2000e+000 103222 -8.8391e-001 -1.3601e+002 -1.3097e+001 29226 103095,103147,103121
 2.2000e+000 103199 -1.3010e+000 -1.3380e+002 -1.3935e+001 29226 103095,103173,103147
 2.2000e+000 103730 -2.1174e+001 -1.2195e+002 -4.2277e+000 28822 103537,103589,103563
 2.2000e+000 103707 -2.3192e+001 -1.4153e+002 -5.2179e+000 28822 103433,103589,103537
 2.2000e+000 103684 -7.0899e+001 -1.5149e+002 -2.1268e+001 28822 103433,103537,103459
 2.2000e+000 103661 -1.2603e+001 -1.5947e+002 -2.3911e+000 28822 103407,103589,103433
 2.2000e+000 103638 -4.5286e+001 -8.0509e+001  2.5943e+000 28822 103459,103511,103485
 2.2000e+000 103615 -2.9253e+001 -9.1421e+001  7.7377e+000 28822 103459,103537,103511
 2.2000e+000 103880  4.2296e+000 -1.2736e+002  1.1341e+001 28368 103975,103903,103779
 2.2000e+000 103857  5.9602e+000 -1.4446e+002 -5.3188e+000 28368 103903,103753,103831
 2.2000e+000 103929 -1.8742e-001 -1.3842e+002  9.8248e+000 28368 103805,103779,103903
 2.2000e+000 103952  2.7034e+001 -1.4049e+002  5.2486e+000 28368 104105,103903,103831
 2.2000e+000 104001 -1.1520e+001 -1.4084e+002 -1.0726e+000 28368 103753,103903,103975
 2.2000e+000 104131 -7.9006e+000 -1.4942e+002  1.3801e+001 28368 103805,103903,104105
 2.2000e+000 104539 -1.6408e+001 -8.3334e+001  8.3263e+000 28028 104562,104340,104314
 2.2000e+000 104516 -2.4644e+001 -6.0113e+001  1.8833e+001 28028 104634,104562,104314
 2.2000e+000 104493 -3.0380e+001 -8.9173e+001 -7.4370e+000 28028 104762,104366,104340
 2.2000e+000 104470 -2.4031e+001 -9.0333e+001 -2.3895e+001 28028 104366,104418,104392
 2.2000e+000 104588 -3.0412e+001 -9.5138e+001 -1.9942e+000 28028 104762,104340,104562
 2.2000e+000 104611 -3.9557e+001 -7.0068e+001  3.8589e+000 28028 104418,104562,104444
 2.2000e+000 104660 -5.1328e+001 -7.4458e+001  8.9290e+000 28028 104444,104562,104634
 2.2000e+000 104788 -3.3233e+001 -8.1144e+001 -6.4901e+000 28028 104418,104366,104762
 2.2000e+000 104811 -3.1161e+001 -8.4403e+001 -9.6240e-001 28028 104418,104762,104562
 2.2000e+000 105010  4.9550e+001 -7.4641e+001  2.6864e+001 27324 105033,104886,104860
 2.2000e+000 104987  3.4155e+001 -8.2613e+001  2.2582e+001 27324 105033,104860,104834
 2.2000e+000 104964  3.5261e+001 -8.6581e+001  1.9426e+001 27324 105105,104912,104886
 2.2000e+000 105059  4.2250e+001 -8.6084e+001  2.1246e+001 27324 105105,104886,105033
 2.2000e+000 105082  3.8760e+001 -7.4208e+001  2.0791e+001 27324 104938,105033,104834
 2.2000e+000 105131  1.9762e+001 -8.6288e+001  1.3473e+001 27324 104938,104912,105105
 2.2000e+000 105154  3.0521e+001 -8.0296e+001  1.7613e+001 27324 104938,105105,105033
 2.2000e+000 105402 -6.1474e+001 -9.9743e+001 -6.0466e+000 27012 105229,105281,105255
 2.2000e+000 105379 -3.8967e+001 -8.3925e+001 -1.3158e+001 27012 105229,105307,105281
 2.2000e+000 105356 -2.1734e+001 -7.1168e+001 -7.5933e+000 27012 105177,105307,105229
 2.2000e+000 105333 -5.6025e+001 -8.5807e+001 -4.0999e+001 27012 105177,105229,105203
 2.2000e+000 105603  9.2080e+000 -3.0897e+001  1.9269e+001 26508 105626,105453,105427
 2.2000e+000 105580  1.0597e+001 -2.7211e+001  1.1794e+001 26508 105626,105427,105505
 2.2000e+000 105557  3.1715e-001 -1.9629e+001  5.7365e+000 26508 105427,105531,105505
 2.2000e+000 105652  1.5802e+001 -2.7949e+001  1.6531e+001 26508 105479,105453,105626
 2.2000e+000 105675  1.7515e+001 -2.6535e+001  9.7442e+000 26508 105479,105626,105505
 2.2000e+000 106057 -2.5703e+001 -1.1271e+002  4.7688e+001 25947 106080,105887,105861
 2.2000e+000 106034 -1.7750e+001 -1.1360e+002  1.6885e+001 25947 106080,105861,105783
 2.2000e+000 106011 -3.2493e+001 -7.8154e+001  1.4806e+001 25947 105783,105835,105809
 2.2000e+000 105988 -4.4719e+001 -8.5625e+001  1.9613e+001 25947 105783,105861,105835
 2.2000e+000 105965 -8.2815e-001 -5.6912e+001  2.4971e+001 25947 105887,105939,105913
 2.2000e+000 106106 -9.0448e+000 -1.0467e+002  4.4779e+001 25947 105939,105887,106080
 2.2000e+000 106129  2.1107e+001 -9.5108e+001  1.1458e+001 25947 105939,106080,105783
 2.2000e+000 106714 -5.1283e+001 -9.1209e+001  1.5277e+000 25557 106809,106737,106547
 2.2000e+000 106691 -4.9070e+001 -1.0104e+002  6.9660e+000 25557 106737,106417,106391
 2.2000e+000 106668 -4.9386e+001 -8.8896e+001  5.1015e-001 25557 106809,106547,106495
 2.2000e+000 106645 -6.8777e+001 -1.4444e+002  3.0419e+000 25557 106417,106495,106469
 2.2000e+000 106622 -5.8909e+001 -9.3617e+001 -1.0448e+000 25557 106495,106547,106521
 2.2000e+000 106599 -3.6715e+001 -1.5403e+002  1.3395e+001 25557 106417,106469,106443
 2.2000e+000 106763 -6.0652e+001 -9.5881e+001  7.8627e+000 25557 106573,106547,106737
 2.2000e+000 106786 -4.4963e+001 -8.9492e+001  1.0633e+001 25557 106573,106737,106391
 2.2000e+000 106835 -4.8519e+001 -9.6014e+001  2.3313e+000 25557 106417,106737,106809
 2.2000e+000 106858 -4.6714e+001 -9.3001e+001  1.5274e+000 25557 106417,106809,106495
 2.2000e+000 107364  3.5124e+000 -7.4133e+001 -3.4321e+001 25153 107459,107387,107171
 2.2000e+000 107341 -3.5746e+001 -9.0212e+001 -1.7628e+000 25153 107387,107119,107067
 2.2000e+000 107318  2.2496e+001 -6.6909e+001 -3.3543e+001 25153 107459,107171,107145
 2.2000e+000 107295 -2.8433e+001 -9.7154e+001 -2.7385e+001 25153 107531,107223,107197
 2.2000e+000 107272 -3.7180e+001 -8.9462e+001  3.1296e+000 25153 107067,107119,107093
 2.2000e+000 107249 -3.1532e+001 -7.8786e+001 -7.8094e+000 25153 107041,107223,107067
 2.2000e+000 107413 -4.6225e+001 -1.0113e+002 -2.3745e+001 25153 107197,107171,107387
 2.2000e+000 107436 -1.4058e+001 -9.4381e+001 -2.3092e+001 25153 107531,107197,107387
 2.2000e+000 107485 -3.3679e+000 -7.8413e+001  7.0865e+000 25153 107119,107387,107459
 2.2000e+000 107508  4.7115e+001 -5.7492e+001  9.1696e+000 25153 107119,107459,107145
 2.2000e+000 107557 -3.5752e+001 -9.1006e+001 -1.0239e+001 25153 107067,107223,107531
 2.2000e+000 107580 -1.7465e+001 -8.3020e+001 -4.9329e+000 25153 107067,107531,107387
 2.2000e+000 107958 -4.0155e+001 -1.2867e+002 -1.2642e+001 24741 107736,107814,107788
 2.2000e+000 107935 -5.2492e+001 -1.4382e+002 -2.4301e+001 24741 107736,107840,107814
 2.2000e+000 107912 -4.9169e+001 -1.6022e+002 -2.1145e+001 24741 107684,107840,107736
 2.2000e+000 107889 -5.3090e+001 -1.2160e+002 -1.4418e+001 24741 107736,107788,107762
 2.2000e+000 107866 -3.0354e+001 -2.0363e+002 -8.5313e+001 24741 107684,107736,107710
 2.2000e+000 108157 -1.9199e+001 -6.8518e+001  1.0761e+001 24237 108180,108059,108007
 2.2000e+000 108134 -1.7565e+001 -5.1123e+001  2.6416e+001 24237 108180,108007,107981
 2.2000e+000 108111  5.5115e+000 -7.5198e+001  7.7868e+000 24237 108007,108059,108033
 2.2000e+000 108206 -1.0689e+001 -5.1023e+001  1.6069e+001 24237 108085,108059,108180
 2.2000e+000 108229 -9.2848e+000 -3.3686e+001  3.1623e+001 24237 108085,108180,107981
 2.2000e+000 108658 -4.8535e+000 -1.2587e+002 -2.0851e+001 23776 108361,108413,108387
 2.2000e+000 108635  1.8076e+001 -1.2675e+002  1.7300e+000 23776 108753,108681,108361
 2.2000e+000 108612  4.5342e+001 -8.7562e+001 -1.8936e+001 23776 108681,108465,108439
 2.2000e+000 108589  1.1841e+001 -1.3455e+002  6.8653e+000 23776 108753,108361,108335
 2.2000e+000 108566 -1.8952e+001 -1.2641e+002  4.7355e+001 23776 108335,108517,108465
 2.2000e+000 108543 -1.9171e+001 -1.4085e+002  4.8702e+001 23776 108465,108517,108491
 2.2000e+000 108707  1.9763e+001 -1.0504e+002  8.5878e-001 23776 108413,108361,108681
 2.2000e+000 108730  1.8458e+001 -1.0868e+002 -1.2069e+000 23776 108413,108681,108439
 2.2000e+000 108779  1.1307e+001 -1.0371e+002 -5.8555e+000 23776 108465,108681,108753
 2.2000e+000 108802  2.6683e-001 -1.1965e+002 -2.1469e-001 23776 108465,108753,108335
 2.2000e+000 109023  2.4195e+001 -4.5294e+001  1.7639e+001 23414 108873,108925,108899
 2.2000e+000 109000 -9.6926e+000 -5.8437e+001  1.5908e+001 23414 108847,108925,108873
 2.2000e+000 108977  1.2853e+001 -1.6897e+001  1.7445e+000 23414 108847,108951,108925
 2.2000e+000 109474 -2.3226e+001 -1.0595e+002  1.0115e+001 23024 109151,109307,109177
 2.2000e+000 109451 -1.7345e+001 -6.5642e+001  4.5111e+000 23024 109151,109333,109307
 2.2000e+000 109428 -3.7556e+001 -1.7081e+002 -4.0027e+000 23024 109177,109281,109203
 2.2000e+000 109405 -7.6857e+001 -1.5789e+002 -1.5027e+001 23024 109177,109307,109281
 2.2000e+000 109382 -3.6555e+001 -1.4543e+002  1.1830e+001 23024 109203,109281,109229
 2.2000e+000 109359 -2.5513e+001 -1.0850e+002  1.4382e+001 23024 109229,109281,109255
 2.2000e+000 109820 -2.9363e+001 -1.0793e+002  1.2629e+001 22506 109843,109601,109523
 2.2000e+000 109797 -9.2933e+000 -9.7663e+001  8.0067e+000 22506 109843,109523,109497
 2.2000e+000 109774 -4.5604e+000 -1.1229e+002  8.7762e+000 22506 109915,109653,109627
 2.2000e+000 109751 -1.2483e+001 -9.9597e+001  1.2020e+001 22506 109497,109679,109653
 2.2000e+000 109728 -4.0509e+001 -1.3661e+002 -1.8825e+001 22506 109523,109601,109575
 2.2000e+000 109705 -7.4810e+001 -1.7949e+002 -3.3846e+001 22506 109523,109575,109549
 2.2000e+000 109869 -6.4615e+000 -1.0197e+002  1.5572e+001 22506 109627,109601,109843
 2.2000e+000 109892 -1.9814e+000 -1.0865e+002  1.1659e+001 22506 109915,109627,109843
 2.2000e+000 109941 -8.6185e+000 -1.0999e+002  6.6130e+000 22506 109497,109653,109915
 2.2000e+000 109964 -8.3672e+000 -1.1020e+002  8.8112e+000 22506 109497,109915,109843
 2.2000e+000 110163  2.2756e+000 -9.4777e+001  3.1431e+000 21936 110186,110039,110013
 2.2000e+000 110140 -2.3595e+000 -8.8857e+001  7.1840e+000 21936 110390,110186,110013
 2.2000e+000 110117 -1.9040e+001 -9.2327e+001 -5.0600e+000 21936 110390,110013,109987
 2.2000e+000 110212  9.4204e+000 -8.0339e+001 -2.6988e+000 21936 110065,110039,110186
 2.2000e+000 110235  4.6090e+001 -5.4651e+001  3.2383e+001 21936 110258,110186,110091
 2.2000e+000 110284 -2.4407e+001 -1.0517e+002  9.8082e+000 21936 110065,110186,110258
 2.2000e+000 110416  3.3225e+001 -1.0105e+002  1.1867e+001 21936 110091,110186,110390
 2.2000e+000 110439  1.1355e+001 -1.0784e+002  1.3383e-001 21936 110091,110390,109987
 2.2000e+000 110709 -2.1740e+001 -1.1553e+002  2.9172e+000 21338 110510,110614,110588
 2.2000e+000 110686 -3.9323e+001 -1.4833e+002 -6.3316e+000 21338 110484,110614,110510
 2.2000e+000 110663 -1.5640e+001 -5.9711e+001 -7.6883e-001 21338 110510,110562,110536
 2.2000e+000 110640 -4.0132e+001 -1.1759e+002 -2.5551e+000 21338 110510,110588,110562
 2.2000e+000 111296 -2.9319e+000 -1.0922e+002  4.1335e+000 20934 111025,111155,111103
 2.2000e+000 111273 -1.1952e+001 -2.0044e+002 -3.1928e+000 20934 110999,111155,111025
 2.2000e+000 111250  5.3348e+001 -8.2440e+001 -7.6274e+000 20934 111103,111155,111129
 2.2000e+000 111227 -3.5203e+001 -1.5398e+002 -2.2560e+001 20934 111051,111103,111077
 2.2000e+000 111204 -4.4096e+001 -1.5001e+002 -1.3588e+001 20934 111025,111103,111051
 2.2000e+000 111181 -2.5405e+001 -2.2499e+002 -9.0008e+000 20934 110973,111155,110999
 2.2000e+000 111930 -4.4284e+001 -6.8184e+001 -1.0638e+001 20494 111662,111714,111688
 2.2000e+000 111907 -1.5508e+001 -7.8211e+001 -1.0876e+001 20494 111584,111714,111662
 2.2000e+000 111884 -3.7744e+001 -8.2285e+001 -9.4791e+000 20494 111584,111766,111714
 2.2000e+000 111861  1.7847e+001 -1.3831e+002  2.1661e+001 20494 111584,111636,111610
 2.2000e+000 111838 -2.6074e+001 -1.0044e+002 -7.2974e+000 20494 111584,111662,111636
 2.2000e+000 111815  2.4212e+001 -6.1670e+001 -1.4787e+001 20494 111558,111766,111584
 2.2000e+000 111792 -4.3726e+001 -9.4346e+001 -5.8403e+000 20494 111714,111766,111740
 2.2000e+000 112249 -5.0601e+001 -1.9377e+002  1.2316e+001 19940 111975,112053,112001
 2.2000e+000 112226 -1.6951e+001 -1.4216e+002 -8.1360e+000 19940 111975,112131,112053
 2.2000e+000 112203  9.6796e+000 -1.7985e+002  0.0000e+000 19940 112053,112105,112079
 2.2000e+000 112180 -3.6564e+001 -1.9536e+002 -5.7732e+000 19940 112053,112131,112105
 2.2000e+000 112157 -9.4549e+000 -1.7343e+002  5.7309e+000 19940 112001,112053,112027
 2.2000e+000 112757  1.1599e+001 -1.0795e+002 -2.5509e+001 19486 112780,112538,112486
 2.2000e+000 112734  6.3907e+000 -1.1712e+002 -8.8534e+000 19486 112780,112486,112460
 2.2000e+000 112711 -1.2853e+001 -1.0106e+002 -7.9763e+000 19486 112852,112616,112590
 2.2000e+000 112688  7.7530e+001 -1.4828e+002 -3.4586e+001 19486 112486,112538,112512
 2.2000e+000 112665 -4.4017e+001 -1.4275e+002 -9.9945e+000 19486 112434,112616,112460
 2.2000e+000 112642 -1.4760e+001 -1.0006e+002 -1.9844e+001 19486 112538,112590,112564
 2.2000e+000 112806 -7.2895e+000 -1.1697e+002 -2.2486e+001 19486 112590,112538,112780
 2.2000e+000 112829  8.0441e+000 -1.0749e+002 -1.3050e+001 19486 112852,112590,112780
 2.2000e+000 112878 -2.6004e+001 -1.0894e+002 -2.4862e+000 19486 112460,112616,112852
 2.2000e+000 112901 -1.3668e+001 -1.2355e+002 -5.0752e+000 19486 112460,112852,112780
 2.2000e+000 113252 -8.7820e+001 -1.6594e+002 -2.4909e+000 19096 113105,113157,113131
 2.2000e+000 113229 -7.7924e+001 -1.2590e+002  1.3566e-001 19096 113053,113157,113105
 2.2000e+000 113206 -7.0178e+001 -1.1679e+002  6.4385e+000 19096 113027,113157,113053
 2.2000e+000 113183 -1.1000e+002 -1.8900e+002  1.1394e+001 19096 113053,113105,113079
 2.2000e+000 113451  1.6210e+001 -1.2617e+002  1.9494e+001 18642 113327,113379,113353
 2.2000e+000 113428 -7.0178e+000 -1.5093e+002 -1.0445e+001 18642 113301,113379,113327
 2.2000e+000 113405  1.0899e+001 -1.3598e+002 -4.0044e+000 18642 113275,113379,113301
 2.2000e+000 113699  2.0471e+000 -1.4446e+002 -2.8784e+000 18138 113474,113552,113526
 2.2000e+000 113676  2.7050e+001 -1.5123e+002 -1.5644e+001 18138 113474,113578,113552
 2.2000e+000 113653  2.2279e+001 -1.5206e+002 -1.3838e+001 18138 113474,113604,113578
 2.2000e+000 113630  2.1498e+001 -1.2612e+002  6.8033e+000 18138 113474,113526,113500
 2.2000e+000 113851 -1.8158e+001 -1.6123e+002 -1.4994e+000 17682 113750,113802,113776
 2.2000e+000 113828 -1.4887e+001 -1.5338e+002  1.9793e+000 17682 113724,113802,113750
 2.2000e+000 114383 -3.1394e+001 -1.2202e+002 -3.2069e+000 17106 114086,114242,114164
 2.2000e+000 114360 -6.5913e+001 -1.3663e+002 -1.5347e+000 17106 114060,114242,114086
 2.2000e+000 114337 -6.9371e+001 -1.9538e+002  1.7179e+001 17106 114086,114164,114138
 2.2000e+000 114314  5.4513e-001 -2.5087e+002 -2.9953e+001 17106 114190,114242,114216
 2.2000e+000 114291 -6.0763e+001 -1.9854e+002 -1.1276e+001 17106 114164,114242,114190
 2.2000e+000 114268 -2.5917e+001 -1.8314e+002  5.1526e+001 17106 114086,114138,114112
 2.2000e+000 114680 -4.1453e+001 -1.5078e+002  4.8812e+000 16766 114703,114432,114406
 2.2000e+000 114657 -4.6249e+001 -1.4842e+002  7.1172e-001 16766 114703,114406,114510
 2.2000e+000 114634 -4.1816e+001 -1.1245e+002  7.3115e+000 16766 114406,114536,114510
 2.2000e+000 114611 -2.3800e+001 -1.6067e+002 -8.5899e+000 16766 114432,114484,114458
 2.2000e+000 114588 -3.4853e+001 -1.1502e+002  2.0776e+001 16766 114406,114562,114536
 2.2000e+000 114729 -2.2714e+001 -1.4757e+002  7.0396e+000 16766 114484,114432,114703
 2.2000e+000 114752 -3.8782e+001 -1.5310e+002  2.8831e+000 16766 114484,114703,114510
 2.2000e+000 114902  4.7198e+001 -1.9199e+002 -2.3736e+001 16362 114775,114827,114801
 2.2000e+000 114879  3.2451e+001 -1.7572e+002 -2.6478e+001 16362 114775,114853,114827
 2.2000e+000 115054 -2.0847e+002 -3.3113e+002 -1.4074e+001 15908 114953,115005,114979
 2.2000e+000 115031 -1.9386e+002 -3.4505e+002 -9.7045e+000 15908 114927,115005,114953
 2.2000e+000 115326 -2.6004e+001 -1.2790e+002  2.8512e+001 15251 115101,115179,115153
 2.2000e+000 115303 -1.7004e+001 -1.1480e+002 -6.1348e+000 15251 115101,115231,115179
 2.2000e+000 115280 -2.1263e+001 -1.2452e+002 -5.2184e+000 15251 115179,115231,115205
 2.2000e+000 115257 -7.7775e+001 -3.4174e+002  3.2425e+001 15251 115101,115153,115127
 2.2000e+000 115429 -3.1939e+001 -1.6923e+002  2.7039e+001 421 115351,115403,115377
 2.3000e+000 66230 -2.0066e+001  1.2407e+001  8.1722e+000 65954 66152,66204,66178
 2.3000e+000 66429 -1.6908e+000 -4.8370e+001 -8.3754e+000 65642 66279,66331,66305
 2.3000e+000 66406  3.0206e+000 -9.5245e+000  4.6986e+000 65642 66279,66357,66331
 2.3000e+000 66383  5.6215e+000  1.3356e+001 -2.1257e+000 65642 66253,66357,66279
 2.3000e+000 66628 -6.1673e-001 -9.9710e+001  1.5191e+001 65444 66452,66530,66478
 2.3000e+000 66605  8.4010e+000 -1.2846e+002  4.6542e+000 65444 66452,66556,66530
 2.3000e+000 66582 -9.0555e+000 -1.0359e+002  1.7930e+001 65444 66478,66530,66504
 2.3000e+000 67006 -1.2733e-001 -8.3583e+001 -1.8044e+000 65246 66732,66810,66758
 2.3000e+000 66983  1.5637e+001 -3.9542e+001  1.1090e+001 65246 66732,66836,66810
 2.3000e+000 66960 -1.4938e+001 -8.0727e+001 -1.4077e+001 65246 66732,66862,66836
 2.3000e+000 66937 -4.7563e+000 -5.8477e+001  6.8935e+000 65246 66758,66810,66784
 2.3000e+000 66914 -4.8143e+000 -9.9462e+001 -2.9201e+001 65246 66732,66888,66862
 2.3000e+000 67107  3.2098e+001 -3.5102e+001 -1.0224e+001 64934 67029,67081,67055
 2.3000e+000 67306 -2.1950e+001 -9.0849e+001  3.1873e+001 64736 67156,67208,67182
 2.3000e+000 67283  1.7831e+001 -5.9282e+001  1.7888e+001 64736 67130,67208,67156
 2.3000e+000 67260 -1.1177e+001 -9.8802e+001  5.1238e+000 64736 67130,67234,67208
 2.3000e+000 67507  3.1961e+000 -7.3360e+001 -9.7708e+000 64389 67357,67409,67383
 2.3000e+000 67484 -5.3524e+000 -9.5563e+001 -1.3642e+001 64389 67357,67435,67409
 2.3000e+000 67461  4.6251e+000 -1.1259e+002 -9.3850e+000 64389 67331,67435,67357
 2.3000e+000 67708  2.8651e+001 -8.2925e+001  1.0883e+001 63985 67731,67584,67558
 2.3000e+000 67685  2.6325e+000 -3.3290e+001  3.6018e+000 63985 67731,67558,67636
 2.3000e+000 67662 -1.5589e+001 -4.5884e+001 -3.4088e+000 63985 67532,67636,67558
 2.3000e+000 67757  1.4707e+001 -1.0581e+002  4.8518e+000 63985 67610,67584,67731
 2.3000e+000 67780 -1.9973e+001 -7.0279e+001 -5.9025e+000 63985 67610,67731,67636
 2.3000e+000 67981  9.3834e+000 -2.0930e+001  1.1113e+000 63787 67857,67909,67883
 2.3000e+000 67958 -3.6861e+000 -4.2408e+001  1.0715e+001 63787 67831,67909,67857
 2.3000e+000 67935 -1.2546e+001 -5.2117e+000 -2.0092e+000 63787 67805,67909,67831
 2.3000e+000 68231 -1.4808e+000 -9.9483e+001  8.9056e+000 63589 68254,68084,68032
 2.3000e+000 68208 -1.8748e+000 -5.7242e+001  8.6935e+000 63589 68254,68032,68006
 2.3000e+000 68185  3.3881e+000 -4.6120e+001  8.9393e+000 63589 68326,68136,68110
 2.3000e+000 68162 -5.7748e-001 -9.2338e+001 -1.1337e+001 63589 68032,68084,68058
 2.3000e+000 68280 -2.0462e+000 -6.2583e+001  1.1714e+001 63589 68110,68084,68254
 2.3000e+000 68303 -3.0402e+000 -4.8597e+001  1.8008e+001 63589 68326,68110,68254
 2.3000e+000 68352  1.6861e+001 -2.4791e+001 -9.3779e+000 63589 68006,68136,68326
 2.3000e+000 68375  3.8667e+000 -3.4281e+001  5.5653e-001 63589 68006,68326,68254
 2.3000e+000 68836 -6.4706e-001 -1.9358e+001 -6.1738e+000 63128 68859,68588,68562
 2.3000e+000 68813 -9.0700e+000 -4.1773e+001  1.5545e+001 63128 68859,68562,68692
 2.3000e+000 68790  8.4822e+000 -4.7853e+001 -1.4952e+000 63128 68614,68692,68666
 2.3000e+000 68767 -2.5406e+001 -3.8617e+001  1.4102e+001 63128 68562,68718,68692
 2.3000e+000 68744  7.7778e+000 -5.4963e+001 -3.6064e+001 63128 68614,68666,68640
 2.3000e+000 68885  1.3143e+001  1.2574e+001 -2.1276e+001 63128 68614,68588,68859
 2.3000e+000 68908  3.1999e+000 -1.6398e+001  1.5061e-002 63128 68614,68859,68692
 2.3000e+000 69237  2.7072e+000 -5.8443e+001  5.1831e+000 62731 69064,69116,69090
 2.3000e+000 69214 -2.5530e+000 -7.5754e+001  1.0215e+000 62731 69064,69142,69116
 2.3000e+000 69191 -1.2622e+001 -1.1051e+002  1.5476e+000 62731 69038,69142,69064
 2.3000e+000 69168 -3.1217e+000 -1.0249e+002  5.3680e+000 62731 69012,69142,69038
 2.3000e+000 69539  1.3181e+000  2.3898e+001  9.5119e-001 62433 69389,69467,69441
 2.3000e+000 69516  8.5839e+000 -2.1940e+001  9.1803e+000 62433 69363,69467,69389
 2.3000e+000 69493 -2.8237e+000 -1.8922e+001  1.9077e+001 62433 69389,69441,69415
 2.3000e+000 69966  1.4723e+001 -5.1495e+001  3.3513e+000 62235 69989,69773,69721
 2.3000e+000 69943  5.2486e+000 -8.3195e+001 -2.3873e+001 62235 70061,69989,69721
 2.3000e+000 69920  8.4634e+000 -1.0119e+002 -2.0296e+001 62235 70061,69721,69643
 2.3000e+000 69897  1.2718e+001  3.3763e+001 -1.6354e+001 62235 69721,69773,69747
 2.3000e+000 69874 -7.6570e+001 -2.9998e+002 -8.4894e+000 62235 69643,69721,69695
 2.3000e+000 69851  9.1472e+001  2.3047e+002 -2.0108e+001 62235 69643,69695,69669
 2.3000e+000 70015  1.1769e+001 -8.4479e+001 -1.7206e+001 62235 69799,69773,69989
 2.3000e+000 70038 -2.0262e+001 -1.0510e+002 -4.3352e+001 62235 69799,69989,69825
 2.3000e+000 70087 -6.6950e+000 -1.0039e+002 -1.8041e+001 62235 69825,69989,70061
 2.3000e+000 70110  5.3955e+000 -1.0939e+002 -1.7669e+001 62235 69825,70061,69643
 2.3000e+000 70260 -2.6013e+000 -6.5603e+001 -5.7903e+000 62037 70133,70185,70159
 2.3000e+000 70237 -9.6649e+000 -1.1383e+002 -3.1444e+000 62037 70133,70211,70185
 2.3000e+000 70640 -1.4063e+001 -4.9937e+001  3.4675e+000 61583 70735,70663,70418
 2.3000e+000 70617 -3.6913e+001 -7.0682e+001 -1.9424e+001 61583 70663,70366,70522
 2.3000e+000 70594 -8.2825e+000 -4.7049e+001  1.1698e+001 61583 70735,70418,70392
 2.3000e+000 70571 -1.7634e+000 -7.4336e+001  1.6094e+001 61583 70418,70496,70444
 2.3000e+000 70548 -2.2562e+001 -2.1727e+001  1.7432e+001 61583 70444,70496,70470
 2.3000e+000 70689 -2.1629e+001 -8.1004e+001 -1.9265e+000 61583 70496,70418,70663
 2.3000e+000 70712 -5.6656e+000 -6.0824e+001 -8.8432e+000 61583 70496,70663,70522
 2.3000e+000 70761 -3.5613e+001 -5.6088e+001 -6.9278e+000 61583 70366,70663,70735
 2.3000e+000 70784 -2.2830e+001 -5.0151e+001  1.1631e+000 61583 70366,70735,70392
 2.3000e+000 71054  1.6105e+001 -3.4874e+001  9.0758e+000 61313 71077,70881,70855
 2.3000e+000 71031  2.8931e+001 -2.7543e+001  2.3510e+001 61313 71077,70855,70829
 2.3000e+000 71008 -3.3944e+000 -4.5058e+001  7.6897e+000 61313 70829,70959,70933
 2.3000e+000 70985  1.4595e+001 -4.7753e+001 -1.0871e+001 61313 70881,70933,70907
 2.3000e+000 71103 -1.8194e+000 -3.3697e+001  2.1520e+000 61313 70933,70881,71077
 2.3000e+000 71126  1.3029e+001 -3.0191e+001  1.4669e+001 61313 70933,71077,70829
 2.3000e+000 71604 -1.2515e+000 -9.4748e+001  7.7086e-001 60909 71627,71232,71414
 2.3000e+000 71581 -2.3027e+001 -8.7063e+001 -1.5320e+001 60909 71232,71440,71414
 2.3000e+000 71558 -5.9051e+000 -5.7706e+001  1.6801e+000 60909 71627,71414,71336
 2.3000e+000 71535  1.8632e+001 -1.2249e+002  1.7382e+001 60909 71362,71414,71388
 2.3000e+000 71512 -2.7270e+001 -1.0923e+002  2.5092e+000 60909 71336,71414,71362
 2.3000e+000 71489  5.1280e+000 -4.4163e+001  1.7495e+000 60909 71258,71336,71310
 2.3000e+000 71466 -7.4024e+000 -5.3881e+001  6.5462e+000 60909 71258,71310,71284
 2.3000e+000 71653  1.2155e+001 -6.6141e+001 -3.8524e+000 60909 71258,71232,71627
 2.3000e+000 71676 -4.9477e+000 -4.7352e+001  5.0989e-001 60909 71258,71627,71336
 2.3000e+000 71875 -1.3452e+001 -7.7928e+001  5.0885e+000 60611 71898,71725,71699
 2.3000e+000 71852 -3.1295e+001 -5.9984e+001  2.0760e+001 60611 71898,71699,71803
 2.3000e+000 71829  1.1281e+001 -1.6323e+001  1.9117e+001 60611 71970,71751,71725
 2.3000e+000 71924 -7.9953e+000 -5.3348e+001  6.0549e+000 60611 71970,71725,71898
 2.3000e+000 71947 -5.3387e+000 -5.7198e+001 -2.4483e-002 60611 71777,71898,71803
 2.3000e+000 71996  2.8357e+001 -5.7592e+001  2.7042e+001 60611 71777,71751,71970
 2.3000e+000 72019  2.5677e+001 -6.6414e+001  1.9506e+001 60611 71777,71970,71898
 2.3000e+000 72576 -7.9208e+000 -1.7029e+002  3.5908e+001 60142 72599,72256,72230
 2.3000e+000 72553  1.3119e+001 -1.0248e+002  3.7095e+001 60142 72671,72599,72230
 2.3000e+000 72530 -2.6545e+001 -6.9006e+001  7.0894e+000 60142 72671,72230,72204
 2.3000e+000 72507 -3.7804e+001 -4.9420e+001  1.9931e+001 60142 72743,72360,72334
 2.3000e+000 72484 -5.9089e+001 -7.1734e+001  1.3660e+001 60142 72815,72282,72256
 2.3000e+000 72461 -1.4886e+000 -2.2722e+001  5.8102e+001 60142 72887,72308,72282
 2.3000e+000 72438 -3.2252e+001 -1.4970e+002 -9.6062e+000 60142 72204,72412,72386
 2.3000e+000 72625 -6.1072e+001 -1.3598e+002 -9.7942e+000 60142 72815,72256,72599
 2.3000e+000 72648 -2.4485e+001 -8.0370e+001  1.4119e+001 60142 72743,72334,72599
 2.3000e+000 72697 -2.1682e+001 -1.5427e+002  2.1915e+001 60142 72386,72599,72671
 2.3000e+000 72720 -4.9067e+001 -1.1534e+002 -1.5786e+000 60142 72386,72671,72204
 2.3000e+000 72769  1.1132e+001 -7.2799e+001  8.1535e+001 60142 72386,72360,72743
 2.3000e+000 72792 -3.7173e+000 -1.4388e+002  4.5123e+001 60142 72386,72743,72599
 2.3000e+000 72841 -3.8885e+001 -4.1572e+001  2.9470e+001 60142 72887,72282,72815
 2.3000e+000 72864 -2.5053e+001 -8.1381e+001  1.3682e+001 60142 72334,72815,72599
 2.3000e+000 72913 -5.4212e+001 -6.2528e+001  3.7304e+001 60142 72334,72308,72887
 2.3000e+000 72936 -7.2780e+001 -7.1876e+001  1.1047e+001 60142 72334,72887,72815
 2.3000e+000 73491 -2.0427e+001 -1.1796e+002 -2.2200e+001 59738 73145,73327,73171
 2.3000e+000 73468  4.1576e+001 -4.3391e+001  4.3994e+000 59738 73119,73327,73145
 2.3000e+000 73445 -1.0941e+001 -6.4977e+001 -8.8950e+000 59738 73171,73327,73301
 2.3000e+000 73422 -7.0903e-001 -7.2164e+001  1.1881e-001 59738 73514,73275,73249
 2.3000e+000 73399 -2.0935e+001 -6.9538e+001  2.0106e+000 59738 73586,73514,73249
 2.3000e+000 73376 -1.7664e+001 -3.6061e+001  2.3459e+001 59738 73197,73249,73223
 2.3000e+000 73353 -1.8291e+001 -7.1175e+001  9.1916e+000 59738 73586,73249,73197
 2.3000e+000 73540 -1.7721e+001 -1.0396e+002 -1.2643e+001 59738 73301,73275,73514
 2.3000e+000 73563 -1.0789e+001 -6.5407e+001 -8.7836e+000 59738 73301,73514,73171
 2.3000e+000 73612 -1.5361e+001 -5.7162e+001  3.1599e+000 59738 73171,73514,73586
 2.3000e+000 73635 -1.4147e+001 -6.1417e+001  9.5376e+000 59738 73171,73586,73197
 2.3000e+000 73964  1.1668e+001 -8.7384e+001  8.3953e-001 59334 73791,73843,73817
 2.3000e+000 73941  9.3580e+000 -1.0523e+002 -7.6558e+000 59334 73791,73869,73843
 2.3000e+000 73918 -1.6495e+001 -1.7308e+002  1.2682e+001 59334 73739,73869,73791
 2.3000e+000 73895  3.4211e+001 -1.9417e+002  1.0674e+001 59334 73739,73791,73765
 2.3000e+000 74261  3.2929e+001 -6.8684e+001  3.7199e+001 58630 74065,74117,74091
 2.3000e+000 74238  3.1559e+001 -7.3927e+001  8.4518e+000 58630 74356,74284,74065
 2.3000e+000 74215 -5.8412e+000 -4.1202e+001 -2.6983e+000 58630 74284,74013,73987
 2.3000e+000 74192  4.0013e+001 -6.3005e+001  2.3811e+001 58630 74356,74065,74039
 2.3000e+000 74169 -1.3425e+001 -4.2629e+001 -7.5301e-001 58630 73987,74143,74117
 2.3000e+000 74310  1.3297e+001 -1.1094e+002  8.3825e-001 58630 74117,74065,74284
 2.3000e+000 74333 -2.7022e+001 -6.8571e+001 -1.2032e+001 58630 74117,74284,73987
 2.3000e+000 74382  1.0190e+001 -9.4275e+001 -6.6448e+000 58630 74013,74284,74356
 2.3000e+000 74405  1.8439e+001 -8.1953e+001  8.8030e+000 58630 74013,74356,74039
 2.3000e+000 74815 -1.6809e+001 -4.7975e+001 -8.3076e+000 58226 74590,74642,74616
 2.3000e+000 74792 -2.3803e+001 -7.6830e+001 -8.5355e+000 58226 74590,74694,74642
 2.3000e+000 74769  3.3865e+001 -1.1840e+002  1.3609e+001 58226 74590,74720,74694
 2.3000e+000 74746 -1.1187e+001 -3.7520e+001 -2.2246e+000 58226 74642,74694,74668
 2.3000e+000 75014 -7.3177e+000 -9.0674e+001  2.2712e+000 57786 75037,74864,74838
 2.3000e+000 74991  5.7264e-001 -4.3129e+001  8.2286e+000 57786 75037,74838,74916
 2.3000e+000 74968  6.3780e+000 -2.5757e+001 -1.7863e+001 57786 74838,74942,74916
 2.3000e+000 75063 -1.6110e+000 -1.4451e+002 -1.2184e+001 57786 74890,74864,75037
 2.3000e+000 75086  1.1782e+001 -8.9500e+001 -5.6145e+000 57786 74890,75037,74916
 2.3000e+000 75368  2.5658e+001 -2.9889e+001  1.7704e+001 57496 75192,75270,75218
 2.3000e+000 75345  4.2367e+001 -2.2025e+001  1.9862e+001 57496 75192,75296,75270
 2.3000e+000 75322  7.1505e-001 -4.8704e+001  2.7618e+000 57496 75218,75270,75244
 2.3000e+000 75648 -2.3331e+000 -7.9412e+001 -1.5485e+000 57206 75472,75550,75498
 2.3000e+000 75625  4.7759e+000 -7.2570e+001 -5.2018e+000 57206 75472,75576,75550
 2.3000e+000 75602  3.8466e+001 -5.4771e+001  1.5571e+000 57206 75671,75550,75524
 2.3000e+000 75697 -2.4571e+001 -8.7861e+001 -1.6683e+001 57206 75498,75550,75671
 2.3000e+000 76154  2.9614e+001 -6.5521e+001 -1.9704e+001 56802 75958,76010,75984
 2.3000e+000 76131  1.9360e+001 -3.3085e+001 -8.5341e+000 56802 75932,76010,75958
 2.3000e+000 76108  3.4193e+001 -5.5645e+001  2.4083e+001 56802 75906,76010,75932
 2.3000e+000 76085  1.1390e+001 -2.5842e+001  1.9134e+001 56802 75880,76010,75906
 2.3000e+000 76062  2.1478e+001 -3.0111e+001 -6.2214e+000 56802 75880,76036,76010
 2.3000e+000 76505 -1.9135e+000  4.6870e+001 -2.3100e+000 56504 76306,76384,76332
 2.3000e+000 76482  2.8816e+000  1.7680e+001  9.4963e+000 56504 76306,76410,76384
 2.3000e+000 76459  8.0247e+000  3.7514e+001 -1.4004e+001 56504 76332,76384,76358
 2.3000e+000 76436  4.6338e-001  4.0793e-001 -5.8460e+000 56504 76280,76410,76306
 2.3000e+000 77011  1.1029e+001 -4.6389e+001 -2.1936e+001 56050 76740,76818,76792
 2.3000e+000 76988  2.5816e+001 -4.1603e+001 -1.7058e+001 56050 76714,76818,76740
 2.3000e+000 76965 -1.4644e+001 -6.1499e+001 -4.5211e+000 56050 76688,76818,76714
 2.3000e+000 76942 -1.1869e+001 -4.0030e+001 -1.0432e+001 56050 76688,76844,76818
 2.3000e+000 76919  3.6529e+000 -4.0019e+001 -2.1095e+001 56050 76740,76792,76766
 2.3000e+000 76896 -2.5007e+001 -7.0335e+001 -7.6808e+000 56050 76688,76870,76844
 2.3000e+000 77517 -2.2665e+001 -7.7461e+001 -1.0059e-001 55738 77220,77350,77324
 2.3000e+000 77494 -2.8804e+001 -9.2597e+001 -1.1396e+001 55738 77220,77376,77350
 2.3000e+000 77471 -9.8701e+000 -7.0969e+001  9.9202e-003 55738 77194,77376,77220
 2.3000e+000 77448 -1.7426e+001 -2.0946e+001  7.6946e-001 55738 77220,77298,77246
 2.3000e+000 77425 -1.0992e+001 -5.8089e+001 -1.4374e+001 55738 77220,77324,77298
 2.3000e+000 77402 -4.5120e+000 -1.4535e+001  1.0840e+001 55738 77246,77298,77272
 2.3000e+000 78064  1.5815e+001 -1.5780e+002 -4.7402e+000 55227 78231,78087,77773
 2.3000e+000 78041 -2.8655e+001 -2.6453e+002  1.5162e+001 55227 78087,77695,77643
 2.3000e+000 78018 -2.9128e+001 -2.0708e+002 -1.2518e+001 55227 78159,77799,77773
 2.3000e+000 77995 -8.7685e+000 -1.0374e+002  8.1649e+000 55227 78231,77773,77721
 2.3000e+000 77972 -5.6728e+001 -7.3914e+001  6.2153e+001 55227 77643,77695,77669
 2.3000e+000 77949 -4.8453e+001 -1.1279e+002  2.2217e+001 55227 77643,77877,77851
 2.3000e+000 77926 -6.4830e+001 -2.1952e+002  3.3967e+001 55227 77799,77851,77825
 2.3000e+000 77903 -4.0144e+000 -6.1081e+001 -1.8712e+001 55227 77721,77773,77747
 2.3000e+000 78113 -6.5175e+000 -2.1050e+002 -1.9543e+000 55227 78159,77773,78087
 2.3000e+000 78136  2.7395e+001 -1.3353e+002  3.4217e+001 55227 77851,78087,77643
 2.3000e+000 78185 -7.3221e+001 -2.0099e+002 -1.1726e+001 55227 77851,77799,78159
 2.3000e+000 78208 -5.0674e+001 -2.0559e+002 -3.0318e+000 55227 77851,78159,78087
 2.3000e+000 78257 -4.6361e+000 -2.2245e+002 -2.7859e+001 55227 77695,78087,78231
 2.3000e+000 78280 -3.4040e+001 -1.6534e+002 -2.0752e+001 55227 77695,78231,77721
 2.3000e+000 78737 -2.0098e+001 -3.6812e+001 -1.9825e+001 54773 78463,78541,78515
 2.3000e+000 78714 -2.6160e+001 -7.1908e+001 -8.3219e+000 54773 78463,78619,78541
 2.3000e+000 78691 -1.6861e+001 -2.5860e+001 -1.1175e+001 54773 78463,78515,78489
 2.3000e+000 78668 -2.0645e+001 -3.6415e+001 -1.0738e+001 54773 78541,78593,78567
 2.3000e+000 78645 -1.3186e+001 -4.8241e+001 -1.5721e+001 54773 78541,78619,78593
 2.3000e+000 78838  2.0569e+000 -6.9640e+000 -2.9950e+000 54211 78760,78812,78786
 2.3000e+000 79297 -2.1728e-001 -7.2679e+001 -2.7688e+000 53814 79520,79153,79049
 2.3000e+000 79274  7.1964e+000 -7.0078e+001 -2.6586e+000 53814 79520,79049,79023
 2.3000e+000 79251 -3.0936e+001 -1.4585e+002  2.7701e+001 53814 79320,79101,79049
 2.3000e+000 79228 -3.9816e+000 -7.9297e+001 -8.8278e-001 53814 79320,79049,79153
 2.3000e+000 79205 -3.4325e+001 -9.0881e+001  3.8888e+001 53814 79049,79101,79075
 2.3000e+000 79346 -6.9681e+000 -6.0202e+001 -2.2364e+001 53814 79392,79320,79127
 2.3000e+000 79369  2.1348e+001 -6.6003e+001 -3.8043e+001 53814 79127,79320,79153
 2.3000e+000 79418 -1.2214e+001 -1.3368e+002 -3.6260e+001 53814 79101,79320,79392
 2.3000e+000 79546 -4.5519e+000 -7.9849e+001  9.0207e+000 53814 79179,79153,79520
 2.3000e+000 79569  2.0012e+001 -6.9300e+001  7.3093e+000 53814 79179,79520,79023
 2.3000e+000 80075 -2.1336e+001 -7.1637e+000  3.9636e+001 53039 80098,79908,79830
 2.3000e+000 80052 -2.5622e+001  5.9767e+000  1.1047e+001 53039 80098,79830,79804
 2.3000e+000 80029 -1.5192e+001  9.6452e+000  4.5839e+000 53039 79752,79934,79804
 2.3000e+000 80006  6.0976e+001  2.7656e+001  2.6488e+001 53039 79856,79908,79882
 2.3000e+000 79983  1.4361e+001 -2.5266e+001  4.6260e+001 53039 79830,79908,79856
 2.3000e+000 79960  5.8106e+000  3.1749e+001  1.9284e+001 53039 79752,79804,79778
 2.3000e+000 80124  2.3654e+001  7.8069e+000  3.5570e+001 53039 79934,79908,80098
 2.3000e+000 80147 -4.7294e+000  1.2947e+001  6.3455e+000 53039 79934,80098,79804
 2.3000e+000 80555 -2.5924e+001 -5.6596e+001  1.0279e+001 52699 80356,80434,80408
 2.3000e+000 80532  1.1511e+001 -6.7939e+001  4.9539e+000 52699 80356,80460,80434
 2.3000e+000 80509 -1.0325e+001 -8.2960e+001 -2.2927e+000 52699 80330,80460,80356
 2.3000e+000 80486 -3.5340e+001 -7.9242e+001  1.1707e+001 52699 80356,80408,80382
 2.3000e+000 80776 -3.5224e+000 -3.4974e+001  8.4371e-001 52295 80600,80678,80626
 2.3000e+000 80753  1.1829e+001 -3.3627e+001 -4.8584e-002 52295 80600,80704,80678
 2.3000e+000 80730  1.8644e+001 -2.4887e+001  3.9877e+000 52295 80626,80678,80652
 2.3000e+000 81156 -3.8469e+001 -1.1970e+002  2.5026e+001 51891 81179,80960,80908
 2.3000e+000 81133 -3.1865e+001 -1.1003e+002  4.8207e+000 51891 81179,80908,81012
 2.3000e+000 81110 -4.9767e+001 -1.1838e+002  8.2687e+000 51891 80882,81012,80908
 2.3000e+000 81087 -2.2197e+001 -1.8140e+002  1.6820e+001 51891 80908,80960,80934
 2.3000e+000 81064 -6.8910e+000 -1.5014e+001  6.1152e+000 51891 80882,81038,81012
 2.3000e+000 81205 -1.3721e+001 -1.1174e+002  2.0164e+001 51891 80986,80960,81179
 2.3000e+000 81228 -2.2634e+001 -1.0729e+002 -3.3056e-001 51891 80986,81179,81012
 2.3000e+000 81606 -1.7896e+001 -2.1743e+002 -7.3871e+001 51544 81410,81462,81436
 2.3000e+000 81583 -6.2841e+000 -1.1763e+002 -2.7270e+001 51544 81384,81462,81410
 2.3000e+000 81560 -2.6468e+001 -1.2523e+002 -3.3987e+001 51544 81358,81462,81384
 2.3000e+000 81537  1.9067e+001 -1.0738e+002 -3.3023e+001 51544 81358,81488,81462
 2.3000e+000 81514  4.9934e+001  2.6393e+001 -2.3744e+001 51544 81332,81488,81358
 2.3000e+000 81854  5.6249e+001 -9.4197e+001  2.6541e+000 51004 81877,81655,81629
 2.3000e+000 81831  4.0163e+001 -8.7776e+001  4.5516e+000 51004 81877,81629,81759
 2.3000e+000 81808  1.9302e+001 -3.5709e+001  4.0805e+001 51004 81655,81707,81681
 2.3000e+000 81785 -1.8077e+001 -1.4938e+002  7.7779e+000 51004 81707,81759,81733
 2.3000e+000 81903  4.1843e+001 -8.7173e+001 -3.8493e+000 51004 81707,81655,81877
 2.3000e+000 81926  1.6454e+001 -9.0794e+001 -6.4694e+000 51004 81707,81877,81759
 2.3000e+000 82257 -9.8384e-001 -4.0772e+001 -2.1235e+001 50642 82058,82136,82110
 2.3000e+000 82234 -2.8452e+001 -6.5140e+001 -1.0980e+001 50642 82058,82162,82136
 2.3000e+000 82211 -3.5930e+001 -9.7805e+001  1.6127e+001 50642 82058,82110,82084
 2.3000e+000 82188 -2.9354e+001 -6.4834e+001 -2.0140e+001 50642 82032,82162,82058
 2.3000e+000 82684  2.5775e+001 -1.1091e+002 -5.5733e+000 49931 82779,82707,82465
 2.3000e+000 82661  1.1990e+000 -1.4667e+002  1.4110e+001 49931 82707,82413,82361
 2.3000e+000 82638  1.5734e+001 -9.5352e+001 -5.7450e+001 49931 82779,82465,82439
 2.3000e+000 82615 -2.2114e+001 -1.5859e+002  2.2476e+001 49931 82465,82543,82491
 2.3000e+000 82592  1.4699e+001 -9.2701e+001  4.5223e+000 49931 82361,82413,82387
 2.3000e+000 82569  4.3894e+001 -1.1459e+002 -4.1836e+000 49931 82491,82543,82517
 2.3000e+000 82733 -1.0107e+001 -1.2981e+002  4.9653e+000 49931 82543,82465,82707
 2.3000e+000 82756  4.9001e+000 -9.2257e+001  1.4573e+001 49931 82543,82707,82361
 2.3000e+000 82805 -5.2120e+000 -1.8282e+002 -7.7409e+000 49931 82413,82707,82779
 2.3000e+000 82828 -1.1390e+001 -1.5928e+002 -5.6578e+001 49931 82413,82779,82439
 2.3000e+000 83255 -4.7795e+001 -2.1702e+002 -1.3753e+001 49327 82984,83114,83036
 2.3000e+000 83232 -4.2886e+001 -2.0329e+002 -3.1606e+001 49327 82958,83114,82984
 2.3000e+000 83209  1.7882e+001 -2.2198e+002 -1.7127e+001 49327 83036,83114,83088
 2.3000e+000 83186 -3.3465e+001 -1.9008e+002  1.5432e+000 49327 82984,83036,83010
 2.3000e+000 83163 -2.5150e+001 -2.1509e+002 -3.8897e+001 49327 82932,83114,82958
 2.3000e+000 83140 -6.3077e+001 -4.0926e+002  5.5353e+000 49327 83036,83088,83062
 2.3000e+000 83938 -5.9236e+001 -2.3778e+002  3.2652e+001 48965 83961,83673,83647
 2.3000e+000 83915 -9.2692e+000 -1.2314e+002  2.0396e+001 48965 83961,83647,83543
 2.3000e+000 83892 -5.2613e+001 -1.3588e+002 -5.1879e+001 48965 83517,83725,83543
 2.3000e+000 83869 -2.0754e+001 -1.5625e+002 -4.2203e+001 48965 83673,83725,83699
 2.3000e+000 83846 -3.4031e+001 -9.2473e+001 -1.4958e+001 48965 83543,83647,83621
 2.3000e+000 83823 -1.6277e+001 -9.7035e+001 -2.2632e+001 48965 83543,83621,83569
 2.3000e+000 83800 -7.2329e+000 -1.0285e+002 -3.3624e+000 48965 83517,83751,83725
 2.3000e+000 83777 -1.1812e+000 -7.7326e+001  1.0599e+001 48965 83569,83621,83595
 2.3000e+000 83987 -2.2580e+001 -2.0623e+002 -3.9710e+001 48965 83725,83673,83961
 2.3000e+000 84010 -5.9793e+000 -1.6734e+002 -3.7833e+001 48965 83725,83961,83543
 2.3000e+000 84258 -2.9827e+001 -1.8915e+002  4.0243e+001 48447 84281,84059,84033
 2.3000e+000 84235 -1.1631e+001 -1.4208e+002  1.9664e+001 48447 84281,84033,84163
 2.3000e+000 84212  2.5728e+001 -1.7935e+002  2.9954e+000 48447 84059,84111,84085
 2.3000e+000 84189  5.4850e+000 -1.3783e+002 -1.8246e+001 48447 84111,84163,84137
 2.3000e+000 84307 -8.8584e+000 -1.8096e+002  5.6602e+000 48447 84111,84059,84281
 2.3000e+000 84330  1.3591e+001 -1.5069e+002 -1.4717e+001 48447 84111,84281,84163
 2.3000e+000 84529  2.2232e+001 -1.1125e+002 -1.1916e+001 47993 84552,84405,84379
 2.3000e+000 84506 -2.7431e+001 -1.2799e+002 -9.9955e+000 47993 84552,84379,84353
 2.3000e+000 84483  3.2932e+001 -1.1291e+002 -1.7688e+001 47993 84624,84457,84431
 2.3000e+000 84578  2.0764e+001 -1.2416e+002 -1.5285e+001 47993 84431,84405,84552
 2.3000e+000 84601  2.3747e+001 -1.2196e+002 -1.3220e+001 47993 84624,84431,84552
 2.3000e+000 84650  2.4900e+001 -1.0480e+002 -2.4506e+001 47993 84353,84457,84624
 2.3000e+000 84673  1.8268e+001 -1.0786e+002 -2.0408e+001 47993 84353,84624,84552
 2.3000e+000 85104 -4.4977e+001 -1.7464e+002 -2.1113e+001 47588 85199,85127,84885
 2.3000e+000 85081 -2.5138e+001 -1.7380e+002 -2.9266e+001 47588 85127,84781,84963
 2.3000e+000 85058 -6.3243e+001 -1.7067e+002 -1.5469e-001 47588 85199,84885,84807
 2.3000e+000 85035 -1.9160e+001 -1.4410e+002  6.6396e+001 47588 84885,84937,84911
 2.3000e+000 85012 -5.9208e+001 -1.2607e+002 -1.3453e+001 47588 84807,84885,84833
 2.3000e+000 84989 -3.9436e+001 -1.1737e+002 -7.7554e+000 47588 84833,84885,84859
 2.3000e+000 85153 -3.4401e+001 -2.3275e+002  6.3427e+000 47588 84937,84885,85127
 2.3000e+000 85176  6.1685e+001 -1.9030e+002 -6.7567e+000 47588 84937,85127,84963
 2.3000e+000 85225 -7.9625e+001 -1.8761e+002 -2.0053e+001 47588 84781,85127,85199
 2.3000e+000 85248 -9.1104e+001 -1.8262e+002  3.6670e+000 47588 84781,85199,84807
 2.3000e+000 85518 -3.1849e+001 -1.7339e+002  8.0929e+000 47226 85293,85397,85319
 2.3000e+000 85495 -6.3015e+001 -1.8069e+002  5.0228e+000 47226 85293,85423,85397
 2.3000e+000 85472 -7.3465e+001 -1.9479e+002 -1.9255e+000 47226 85319,85397,85345
 2.3000e+000 85449 -3.7373e+001 -1.6749e+002  1.8078e+001 47226 85345,85397,85371
 2.3000e+000 85849 -5.7149e+000 -1.3819e+002  2.5182e+001 46572 85624,85702,85650
 2.3000e+000 85826 -1.6584e+000 -1.8947e+002 -1.2457e+001 46572 85624,85754,85702
 2.3000e+000 85803  1.7302e+001 -1.2731e+002  3.4969e+000 46572 85702,85754,85728
 2.3000e+000 85780 -8.2928e+000 -1.3809e+002  2.1758e+001 46572 85650,85702,85676
 2.3000e+000 86070 -1.2042e+002 -2.1757e+002 -4.9451e+000 46374 85920,85972,85946
 2.3000e+000 86047 -1.0043e+002 -1.6949e+002  1.8759e+000 46374 85920,85998,85972
 2.3000e+000 86024 -3.3733e+001 -1.3775e+002  4.4852e+001 46374 85894,85998,85920
 2.3000e+000 86401  7.1810e+000 -1.2213e+002 -5.9129e+000 46034 86424,86280,86228
 2.3000e+000 86378  4.2455e+000 -1.3519e+002 -1.0142e+001 46034 86424,86228,86176
 2.3000e+000 86355 -1.6863e+001 -1.5476e+002 -3.7946e+001 46034 86176,86228,86202
 2.3000e+000 86332  1.7441e+001 -1.1776e+002 -1.4064e+001 46034 86228,86280,86254
 2.3000e+000 86450  1.9038e+001 -1.3732e+002 -6.4176e+000 46034 86306,86280,86424
 2.3000e+000 86473  1.0406e+001 -1.5257e+002 -1.4246e+001 46034 86306,86424,86176
 2.3000e+000 87058  2.4286e+000 -1.2366e+002  2.9617e+000 45516 86813,86917,86865
 2.3000e+000 87035 -1.9739e+001 -1.7538e+002  5.0257e+000 45516 86787,86917,86813
 2.3000e+000 87012 -1.8222e+001 -1.9433e+002  7.9717e+000 45516 86735,86917,86787
 2.3000e+000 86989  3.0523e+000 -1.0797e+002 -3.6072e+000 45516 86865,86917,86891
 2.3000e+000 86966  4.0949e+000 -1.1822e+002  4.1999e+000 45516 86813,86865,86839
 2.3000e+000 86943  1.7625e+000 -2.1285e+002 -2.0665e+001 45516 86735,86787,86761
 2.3000e+000 87208 -2.0822e+001 -1.1749e+002  6.7983e+000 45226 87231,87133,87107
 2.3000e+000 87185 -2.4646e+001 -1.5359e+002  2.1778e+001 45226 87081,87159,87133
 2.3000e+000 87257  2.1088e+001 -7.0118e+001 -1.1127e+001 45226 87081,87133,87231
 2.3000e+000 87537  4.3801e+001 -1.5209e+002  3.7470e+001 44772 87387,87439,87413
 2.3000e+000 87514 -2.0617e+001 -1.5912e+002  4.2938e+000 44772 87361,87439,87387
 2.3000e+000 87491  1.3859e+001 -1.5637e+002 -4.3444e+000 44772 87361,87465,87439
 2.3000e+000 87996 -3.6426e+001 -1.1575e+002  9.9039e+000 44425 87748,87878,87852
 2.3000e+000 87973  4.9368e+001 -7.8696e+001  4.0652e+000 44425 87722,87878,87748
 2.3000e+000 87950 -4.7250e+000 -1.1521e+002 -3.5376e+000 44425 87800,87852,87826
 2.3000e+000 87927 -2.8251e+001 -1.1276e+002  8.0689e+000 44425 87748,87852,87800
 2.3000e+000 87904 -2.0732e+001 -1.6537e+002  2.5615e+001 44425 87748,87800,87774
 2.3000e+000 88423  1.5871e+001 -1.3649e+002 -7.1575e+000 44078 88590,88230,88204
 2.3000e+000 88400  1.4677e+000 -1.3243e+002  9.7396e+000 44078 88518,88446,88204
 2.3000e+000 88377 -6.1259e-001 -1.3671e+002 -1.6403e+001 44078 88446,88126,88282
 2.3000e+000 88354  3.9056e+000 -1.3238e+002  9.8864e+000 44078 88518,88204,88178
 2.3000e+000 88331 -4.9675e-001 -1.5317e+002 -1.5142e+001 44078 88100,88282,88126
 2.3000e+000 88308 -2.2493e+000 -1.3237e+002  6.5949e+001 44078 88126,88178,88152
 2.3000e+000 88472  1.3715e+001 -1.4300e+002 -1.9794e+000 44078 88590,88204,88446
 2.3000e+000 88495 -1.1868e+001 -1.8721e+002 -2.8168e+001 44078 88256,88446,88282
 2.3000e+000 88544  4.0325e+000 -1.3284e+002  1.1002e+001 44078 88126,88446,88518
 2.3000e+000 88567  6.2907e+000 -1.3314e+002  1.0707e+001 44078 88126,88518,88178
 2.3000e+000 88616 -6.9413e+001 -2.5624e+002 -4.4497e+001 44078 88256,88230,88590
 2.3000e+000 88639  7.4139e+000 -1.4336e+002 -9.6728e+000 44078 88256,88590,88446
 2.3000e+000 89039 -8.2944e-001 -9.2757e+001 -1.4389e+000 43716 88791,88921,88895
 2.3000e+000 89016 -6.4000e+000 -6.6593e+001  2.9155e+000 43716 88765,88921,88791
 2.3000e+000 88993 -1.0790e+001 -1.0520e+002  7.7531e+000 43716 88817,88895,88869
 2.3000e+000 88970 -4.6656e+001 -1.1537e+002  5.8123e+000 43716 88791,88895,88817
 2.3000e+000 88947  3.8027e+001 -7.0073e+001 -1.0815e+001 43716 88817,88869,88843
 2.3000e+000 89496  1.1023e+001 -1.6788e+002 -1.6637e+001 43162 89519,89274,89248
 2.3000e+000 89473  1.7755e+001 -1.5613e+002 -1.3121e+001 43162 89519,89248,89222
 2.3000e+000 89450 -8.0475e+000 -1.5001e+002 -5.7590e+001 43162 89326,89378,89352
 2.3000e+000 89427 -1.1618e+001 -1.9338e+002 -2.0466e+001 43162 89274,89378,89326
 2.3000e+000 89404  2.3252e+001 -1.2111e+002  1.0734e+000 43162 89274,89326,89300
 2.3000e+000 89545  7.2103e+000 -1.5543e+002 -1.1293e+001 43162 89378,89274,89519
 2.3000e+000 89568  1.4898e+001 -1.4265e+002 -7.4593e+000 43162 89378,89519,89222
 2.3000e+000 89946  1.0938e+001 -1.5381e+002 -3.1390e+001 42594 90041,89969,89750
 2.3000e+000 89923  4.8393e+001 -1.1526e+002 -3.8836e+001 42594 89969,89698,89828
 2.3000e+000 89900  2.3491e+001 -1.6299e+002 -2.7526e+001 42594 90041,89750,89724
 2.3000e+000 89877 -2.7612e+001 -1.4085e+002 -2.6914e+001 42594 89750,89802,89776
 2.3000e+000 89854  7.1109e+001  9.5380e+000 -3.8561e+001 42594 89672,89828,89698
 2.3000e+000 89995 -1.3606e+001 -1.3087e+002 -1.2416e+001 42594 89802,89750,89969
 2.3000e+000 90018  3.7210e+001 -1.1048e+002 -8.1860e+000 42594 89802,89969,89828
 2.3000e+000 90067  2.0280e+001 -1.2673e+002 -2.6636e+001 42594 89698,89969,90041
 2.3000e+000 90090  2.0936e+001 -1.5272e+002 -2.1059e+001 42594 89698,90041,89724
 2.3000e+000 90517 -6.6731e+001 -2.1632e+002  2.9143e+000 42140 90540,90220,90194
 2.3000e+000 90494 -4.8502e+001 -2.0603e+002 -4.8369e+000 42140 90540,90194,90376
 2.3000e+000 90471 -5.4526e+001 -2.1800e+002  7.4427e+000 42140 90612,90350,90272
 2.3000e+000 90448 -9.4156e+001 -2.4822e+002 -1.0186e+001 42140 90272,90350,90298
 2.3000e+000 90425 -6.3510e+001 -2.0965e+002 -3.8451e+001 42140 90298,90350,90324
 2.3000e+000 90402 -4.2211e+001 -2.1895e+002  5.5607e+001 42140 90220,90272,90246
 2.3000e+000 90566 -5.6769e+001 -2.1869e+002  5.7198e+000 42140 90272,90220,90540
 2.3000e+000 90589 -5.5416e+001 -2.2021e+002  4.9656e+000 42140 90612,90272,90540
 2.3000e+000 90638 -5.2549e+001 -2.1706e+002  7.7638e+000 42140 90376,90350,90612
 2.3000e+000 90661 -4.9212e+001 -2.1727e+002  5.7895e+000 42140 90376,90612,90540
 2.3000e+000 91167 -8.1477e+000 -1.1968e+002 -3.2103e+001 41636 91190,90870,90844
 2.3000e+000 91144 -1.5795e+001 -2.0132e+002 -2.8498e+001 41636 91190,90844,91026
 2.3000e+000 91121 -4.8251e+001 -1.2096e+002 -5.1526e+001 41636 90870,90922,90896
 2.3000e+000 91098 -4.6382e+001 -1.6685e+002  3.3227e+001 41636 90922,91026,90948
 2.3000e+000 91075  2.3202e+000 -1.2096e+002  3.1587e+000 41636 90948,91026,91000
 2.3000e+000 91052 -9.0142e+000 -1.4164e+002  7.4943e+000 41636 90948,91000,90974
 2.3000e+000 91216 -1.9643e+001 -9.5729e+001 -3.1514e+001 41636 90922,90870,91190
 2.3000e+000 91239  1.0717e+001 -1.2480e+002 -1.7767e+001 41636 90922,91190,91026
 2.3000e+000 91696 -7.0080e+001 -1.4621e+002 -3.0364e+001 40449 91448,91526,91474
 2.3000e+000 91673 -7.1470e+001 -1.5232e+002 -1.8534e+001 40449 91448,91578,91526
 2.3000e+000 91650 -1.8665e+001 -1.2855e+002 -5.3212e+000 40449 91474,91526,91500
 2.3000e+000 91627 -3.7051e+001 -1.3850e+002 -1.4766e+001 40449 91422,91578,91448
 2.3000e+000 91604 -2.2095e+001 -6.9108e+001 -4.5253e+001 40449 91526,91578,91552
 2.3000e+000 92123 -4.8208e+001 -1.4465e+002 -5.3955e+000 39995 92146,91904,91826
 2.3000e+000 92100 -3.0910e+001 -1.4056e+002 -2.7461e+001 39995 92146,91826,91800
 2.3000e+000 92077 -6.0704e+001 -1.5094e+002 -2.2563e+000 39995 91826,91904,91852
 2.3000e+000 92054 -7.1873e+001 -2.5162e+002  7.4991e+000 39995 91904,91982,91930
 2.3000e+000 92031 -3.1179e+001 -1.3849e+002 -1.6222e+000 39995 91852,91904,91878
 2.3000e+000 92008 -2.1120e+000 -1.6031e+002 -2.4895e+001 39995 91930,91982,91956
 2.3000e+000 92172 -5.2409e+001 -1.5647e+002 -5.0557e+000 39995 91982,91904,92146
 2.3000e+000 92195 -4.8717e+001 -1.7947e+002 -2.1978e+001 39995 91982,92146,91800
 2.3000e+000 92652 -7.2486e+000 -7.4201e+001  1.2383e+001 39633 92404,92534,92456
 2.3000e+000 92629 -1.2972e+001 -1.0363e+002  8.0573e+000 39633 92378,92534,92404
 2.3000e+000 92606 -2.4258e+001 -8.0896e+001  1.6409e+001 39633 92404,92456,92430
 2.3000e+000 92583 -4.7792e+001 -1.8859e+002  1.7782e+001 39633 92456,92534,92508
 2.3000e+000 92560 -3.2023e+000 -9.3379e+001  3.5464e+001 39633 92456,92508,92482
 2.3000e+000 93079  3.0609e+000 -1.2266e+002 -2.0041e+001 39093 93102,92808,92756
 2.3000e+000 93056  9.2721e+000 -9.3699e+001 -4.2677e+001 39093 93102,92756,92938
 2.3000e+000 93033 -1.5933e+001 -1.5937e+002 -1.0314e+001 39093 93174,92912,92834
 2.3000e+000 93010 -8.2367e+001 -1.7912e+002 -1.7591e+001 39093 92834,92912,92860
 2.3000e+000 92987  4.4575e+001 -1.1954e+002 -5.6943e+001 39093 92756,92808,92782
 2.3000e+000 92964 -6.5848e+001 -1.8578e+002 -6.5260e+001 39093 92860,92912,92886
 2.3000e+000 93128  8.5787e+000 -1.3133e+002 -1.9034e+001 39093 92834,92808,93102
 2.3000e+000 93151 -5.0329e+000 -1.3126e+002 -1.4770e+001 39093 93174,92834,93102
 2.3000e+000 93200 -9.5790e+000 -1.4887e+002 -3.1820e+001 39093 92938,92912,93174
 2.3000e+000 93223  9.4438e-001 -1.3423e+002 -3.7713e+001 39093 92938,93174,93102
 2.3000e+000 93680 -4.6967e-001 -6.4425e+001 -1.7128e+001 38639 93703,93536,93484
 2.3000e+000 93657 -1.3443e+001 -7.1759e+001 -1.2503e+001 38639 93703,93484,93432
 2.3000e+000 93634 -6.9557e+000 -8.2755e+001  3.0236e+000 38639 93432,93484,93458
 2.3000e+000 93611 -2.7423e+001 -1.2485e+002 -9.2660e+000 38639 93484,93536,93510
 2.3000e+000 93588 -4.2457e+001 -5.0298e+001  2.0631e+000 38639 93406,93562,93432
 2.3000e+000 93729 -1.5158e+001 -3.2361e+001 -1.5901e+001 38639 93562,93536,93703
 2.3000e+000 93752 -5.1396e+001 -6.6602e+001 -1.4251e+000 38639 93562,93703,93432
 2.3000e+000 94160  1.6180e+001 -7.0541e+001 -2.0352e+001 38292 93935,94039,93961
 2.3000e+000 94137  1.9556e+001 -9.1861e+001  2.0169e+001 38292 93935,94065,94039
 2.3000e+000 94114 -1.1471e+002 -1.0847e+002 -3.0331e+001 38292 93961,94013,93987
 2.3000e+000 94091 -4.9909e+001 -8.5266e+001  2.8939e+000 38292 93961,94039,94013
 2.3000e+000 94408  3.1849e+001 -1.3025e+002 -3.7962e+000 37880 94431,94261,94235
 2.3000e+000 94385  2.8766e+001 -1.1115e+002 -5.5088e+000 37880 94431,94235,94313
 2.3000e+000 94362  1.0466e+001 -1.0630e+002  2.1982e+001 37880 94209,94313,94235
 2.3000e+000 94339  3.1601e+000 -1.0910e+002 -3.1311e+000 37880 94183,94313,94209
 2.3000e+000 94457  3.9710e+001 -1.1344e+002 -9.8349e+000 37880 94287,94261,94431
 2.3000e+000 94480  2.8031e+001 -1.0255e+002 -7.7930e+000 37880 94287,94431,94313
 2.3000e+000 94728 -6.3728e+001 -1.7680e+002  1.0468e+001 37426 94529,94607,94555
 2.3000e+000 94705 -4.3960e+001 -2.2458e+002 -9.2035e-001 37426 94529,94633,94607
 2.3000e+000 94682  4.2645e+001 -2.2246e+002 -2.8646e-002 37426 94503,94633,94529
 2.3000e+000 94659 -2.6744e+001 -6.8601e+001 -4.1570e+001 37426 94555,94607,94581
 2.3000e+000 95257  2.7284e+001 -1.1936e+002 -2.3703e+001 36722 95496,95280,94862
 2.3000e+000 95234  2.2771e+000 -1.2678e+002 -1.4683e+000 36722 95496,94862,94836
 2.3000e+000 95211  6.0375e+001 -1.2843e+002 -5.7849e+000 36722 95352,95280,95070
 2.3000e+000 95188  3.2337e+001 -1.3412e+002  2.4124e+001 36722 95352,95070,95044
 2.3000e+000 95165 -8.5032e-001 -1.3730e+002 -2.7988e+001 36722 95424,94888,94862
 2.3000e+000 95142  4.2533e+001 -7.4368e+001  2.4507e+001 36722 94914,94966,94940
 2.3000e+000 95119 -4.4644e+001 -2.2498e+002  4.9083e+001 36722 94966,95044,95018
 2.3000e+000 95096 -4.0405e+001 -1.8107e+002  3.2854e+001 36722 94966,95018,94992
 2.3000e+000 95306 -9.8038e+000 -1.2738e+002 -2.3531e+001 36722 95424,94862,95280
 2.3000e+000 95329  1.0821e+001 -1.0601e+002 -6.4298e+000 36722 94914,95280,94966
 2.3000e+000 95378  7.9639e+000 -1.4142e+002  6.2333e+000 36722 94966,95280,95352
 2.3000e+000 95401 -1.4470e+001 -1.3107e+002  2.7514e+001 36722 94966,95352,95044
 2.3000e+000 95450 -1.5632e+001 -1.3698e+002 -3.2843e+001 36722 94914,94888,95424
 2.3000e+000 95473 -1.8379e+001 -1.3416e+002 -2.8124e+001 36722 94914,95424,95280
 2.3000e+000 95522  3.1991e+001 -1.0886e+002 -2.5811e+001 36722 95070,95280,95496
 2.3000e+000 95545  2.6210e+001 -1.0292e+002 -2.1522e+001 36722 95070,95496,94836
 2.3000e+000 96130 -1.5206e+001 -4.6587e+001  1.3655e+001 36268 96153,95911,95859
 2.3000e+000 96107 -2.7798e+001 -9.6521e+001  7.7697e+000 36268 96153,95859,95807
 2.3000e+000 96084 -1.4739e+001 -8.2392e+001 -9.3535e+000 36268 95807,95859,95833
 2.3000e+000 96061 -1.3730e+001 -1.8500e+002  2.2855e+001 36268 95911,95989,95937
 2.3000e+000 96038 -1.5229e+001 -5.0270e+001 -3.5005e+000 36268 95859,95911,95885
 2.3000e+000 96015 -5.6100e+001 -1.2320e+002 -1.9799e+001 36268 95937,95989,95963
 2.3000e+000 96179  1.6423e+001 -9.3253e+001  2.5534e+001 36268 95989,95911,96153
 2.3000e+000 96202 -6.7040e+000 -1.5846e+002  1.7100e+001 36268 95989,96153,95807
 2.3000e+000 96531 -1.2544e+001 -1.9003e+002  1.9343e+001 35728 96358,96410,96384
 2.3000e+000 96508 -4.6880e+001 -1.7382e+002  8.7837e+000 35728 96332,96410,96358
 2.3000e+000 96485 -3.2807e+001 -1.4744e+002  2.6889e+000 35728 96332,96436,96410
 2.3000e+000 96462  3.2528e+001 -9.6803e+001 -2.6619e+001 35728 96306,96436,96332
 2.3000e+000 96860  1.0266e+000 -1.1412e+002 -2.6682e+001 35324 96687,96765,96713
 2.3000e+000 96837 -3.4709e+001 -1.9124e+002 -1.1060e+001 35324 96661,96765,96687
 2.3000e+000 96814 -4.6787e+001 -1.4675e+002 -1.2461e+001 35324 96713,96765,96739
 2.3000e+000 96791 -5.9467e+001 -2.4613e+002 -2.9337e+001 35324 96635,96765,96661
 2.3000e+000 97366 -6.9873e+001 -2.0358e+002  1.2599e+001 34920 97389,97069,97043
 2.3000e+000 97343 -6.5271e+001 -1.8104e+002  8.7109e+000 34920 97389,97043,97199
 2.3000e+000 97320 -3.9447e+001 -1.8897e+002 -1.2482e+001 34920 97043,97225,97199
 2.3000e+000 97297 -4.4368e+001 -2.2363e+002 -1.7232e+001 34920 97069,97121,97095
 2.3000e+000 97274 -7.3007e+001 -1.4876e+002 -1.8909e+001 34920 97121,97199,97173
 2.3000e+000 97251 -7.1174e+001 -1.0849e+002 -4.9564e+001 34920 97121,97173,97147
 2.3000e+000 97415 -7.9536e+001 -2.0138e+002 -1.6600e+001 34920 97121,97069,97389
 2.3000e+000 97438 -5.9904e+001 -1.5201e+002 -2.0685e+001 34920 97121,97389,97199
 2.3000e+000 97708 -5.2289e+001 -1.6238e+002 -7.9366e+000 34722 97509,97587,97535
 2.3000e+000 97685 -2.4520e+001 -1.5617e+002 -1.4658e+001 34722 97509,97613,97587
 2.3000e+000 97662 -7.4740e+001 -1.7899e+002 -1.9857e+001 34722 97483,97613,97509
 2.3000e+000 97639 -2.3416e+001 -1.3191e+002  2.7366e+001 34722 97535,97587,97561
 2.3000e+000 98216 -2.1290e+001 -2.3688e+002 -8.9966e+000 34318 97971,98075,97997
 2.3000e+000 98193  2.4438e+001 -1.8425e+002  2.8324e+001 34318 97893,98075,97971
 2.3000e+000 98170  4.7734e+001 -1.5073e+002  1.8169e+001 34318 97893,97971,97919
 2.3000e+000 98147 -3.7133e+001 -1.4691e+002  3.2853e+001 34318 97997,98075,98049
 2.3000e+000 98124  2.8327e+001 -1.1207e+002 -2.5609e+000 34318 97919,97971,97945
 2.3000e+000 98101 -5.9510e+001 -1.9164e+002  5.1233e+001 34318 97997,98049,98023
 2.3000e+000 98594  7.8414e+000 -1.0625e+002 -1.0382e+001 33814 98961,98617,98424
 2.3000e+000 98571 -5.2515e+000 -1.2675e+002 -5.8363e+000 33814 98689,98617,98372
 2.3000e+000 98548 -1.9339e+001 -8.8153e+001 -5.3234e+000 33814 99033,98689,98372
 2.3000e+000 98525 -5.8867e-001 -6.1948e+001  3.5491e+001 33814 98761,98476,98450
 2.3000e+000 98502  8.9020e+000 -1.0479e+002 -9.9106e+000 33814 98961,98424,98398
 2.3000e+000 98643 -1.7934e+001 -1.0570e+002  4.7164e+000 33814 98450,98424,98617
 2.3000e+000 98666 -2.2032e+000 -8.5282e+001  1.2924e+001 33814 98761,98450,98617
 2.3000e+000 98715 -3.8885e+001 -1.3785e+002 -7.2641e+000 33814 99161,98689,98320
 2.3000e+000 98738 -6.2783e+001 -1.4964e+002  8.2536e-002 33814 98320,98689,98346
 2.3000e+000 98787 -4.6375e+001 -1.1188e+002  3.7166e+001 33814 98833,98761,98320
 2.3000e+000 98810 -2.7094e+001 -1.4276e+002  7.5910e+000 33814 99161,98320,98761
 2.3000e+000 98859 -8.4225e+000 -5.4765e+001  1.6676e+001 33814 98476,98761,98833
 2.3000e+000 98987  4.8646e+000 -1.0277e+002 -1.0193e+001 33814 98372,98617,98961
 2.3000e+000 99010  6.7463e+000 -1.0017e+002 -9.3674e+000 33814 98372,98961,98398
 2.3000e+000 99059 -5.6754e+001 -1.6370e+002 -2.5538e+001 33814 98346,98689,99033
 2.3000e+000 99187 -2.6957e+001 -1.1884e+002  1.8681e+000 33814 98617,98689,99161
 2.3000e+000 99210 -1.1512e+001 -1.2439e+002  1.6814e+001 33814 98617,99161,98761
 2.3000e+000 99588 -3.1787e+001 -1.1699e+002 -1.6075e+001 33566 99366,99444,99392
 2.3000e+000 99565 -1.0479e+001 -9.5704e+001 -7.5550e+000 33566 99314,99444,99366
 2.3000e+000 99542 -3.2069e+001 -1.2673e+002  5.3999e+000 33566 99314,99366,99340
 2.3000e+000 99519 -1.0617e+001 -1.0996e+002  1.2433e+001 33566 99314,99470,99444
 2.3000e+000 99496 -1.0598e+000 -7.8337e+001 -3.4960e+001 33566 99392,99444,99418
 2.3000e+000 99787 -3.7361e+001 -1.8537e+002  8.6854e+000 33105 99637,99689,99663
 2.3000e+000 99764 -2.5850e+001 -1.7551e+002 -4.2434e-001 33105 99611,99689,99637
 2.3000e+000 99741 -1.1245e+001 -9.6873e+001  4.2400e+000 33105 99611,99715,99689
 2.3000e+000 100167 -7.2153e+001 -1.3716e+002  3.5252e+001 32651 100190,99971,99919
 2.3000e+000 100144 -8.0460e+000 -1.0832e+002  1.5524e+001 32651 100262,100190,99919
 2.3000e+000 100121 -8.5706e+000 -1.0624e+002  1.2849e+001 32651 100262,99919,100049
 2.3000e+000 100098 -2.0097e+001 -1.0997e+002 -2.1379e+001 32651 99893,100049,99919
 2.3000e+000 100075 -1.0860e+001 -1.2410e+002  7.3676e+001 32651 99919,99971,99945
 2.3000e+000 100216 -6.7028e+000 -1.2504e+002  1.9755e+001 32651 99997,99971,100190
 2.3000e+000 100239  8.0398e+000 -1.2751e+002  1.4327e+000 32651 99997,100190,100023
 2.3000e+000 100288 -2.0749e+000 -1.2328e+002  1.4673e+001 32651 100023,100190,100262
 2.3000e+000 100311  1.4566e+001 -1.1065e+002  4.8884e+000 32651 100023,100262,100049
 2.3000e+000 100608 -3.3561e+001 -1.5712e+002  2.1576e+000 32254 100386,100490,100464
 2.3000e+000 100585 -5.5238e+001 -1.7144e+002 -1.3528e+001 32254 100360,100490,100386
 2.3000e+000 100562 -4.0802e+001 -1.6721e+002 -3.1205e+000 32254 100386,100464,100412
 2.3000e+000 100539  1.0949e+001 -1.3597e+002  4.3180e+000 32254 100334,100490,100360
 2.3000e+000 100516 -3.8875e+001 -1.1076e+002 -1.3120e+001 32254 100412,100464,100438
 2.3000e+000 100758  2.6802e+001 -4.3589e+000  3.1143e+001 31914 100985,100781,100683
 2.3000e+000 100735  1.2895e+001 -4.5512e+001 -2.0801e+000 31914 100853,100781,100657
 2.3000e+000 100807  1.9716e+001 -3.8047e+001  2.8985e+001 31914 100709,100683,100781
 2.3000e+000 100830  4.0870e+000 -5.6912e+001 -1.5106e+001 31914 100709,100781,100631
 2.3000e+000 100879  3.4731e+001  1.7112e+001 -1.2721e+001 31914 100631,100781,100853
 2.3000e+000 101011 -6.4387e+000 -4.3150e+001  1.4587e+001 31914 100657,100781,100985
 2.3000e+000 101191 -1.7190e+000 -1.3040e+002  1.0547e+001 31418 101113,101165,101139
 2.3000e+000 101341 -7.0549e+001 -1.7715e+002 -1.1256e+001 31106 101214,101266,101240
 2.3000e+000 101318 -4.8072e+001 -1.1757e+002 -7.4049e+000 31106 101214,101292,101266
 2.3000e+000 101591 -5.3474e+000 -1.3419e+002  2.7243e+001 30552 101614,101470,101444
 2.3000e+000 101568  2.0234e+001 -1.3794e+002  4.0784e+001 30552 101366,101496,101470
 2.3000e+000 101545 -2.4386e+001 -1.3584e+002  4.5412e+001 30552 101614,101444,101392
 2.3000e+000 101522 -8.0411e+000 -1.3609e+002  4.8476e+001 30552 101392,101444,101418
 2.3000e+000 101640 -3.3443e+001 -1.3619e+002  3.4096e+001 30552 101366,101470,101614
 2.3000e+000 101663 -4.9699e+001 -1.3584e+002  5.2269e+001 30552 101366,101614,101392
 2.3000e+000 102301 -2.9231e+001 -1.6376e+002  1.6581e+001 30042 102396,102324,102059
 2.3000e+000 102278 -5.4260e+001 -1.3821e+002  1.0003e+000 30042 102324,101981,101955
 2.3000e+000 102255 -4.0445e+001 -1.4924e+002  3.6732e+001 30042 102396,102059,102033
 2.3000e+000 102232 -2.2533e+001 -1.0932e+002 -1.1775e+000 30042 101929,102111,101955
 2.3000e+000 102209 -1.6656e+000 -1.7026e+002 -1.6312e+001 30042 102059,102111,102085
 2.3000e+000 102186 -2.8578e+001 -1.1097e+002 -3.2288e+000 30042 101929,102137,102111
 2.3000e+000 102163 -2.4119e+000 -6.9584e+001 -9.7174e+000 30042 101981,102033,102007
 2.3000e+000 102350 -3.0844e+001 -1.5621e+002 -2.9855e+000 30042 102111,102059,102324
 2.3000e+000 102373 -2.2412e+001 -1.2109e+002 -6.8575e+000 30042 102111,102324,101955
 2.3000e+000 102422 -1.7375e+001 -1.1652e+002  1.3555e+001 30042 101981,102324,102396
 2.3000e+000 102445 -2.7920e+001 -1.0165e+002  3.4328e+001 30042 101981,102396,102033
 2.3000e+000 103000  5.8793e+000 -1.7736e+002 -3.5290e+000 29730 103023,102706,102654
 2.3000e+000 102977 -3.8015e+001 -1.6972e+002 -2.5015e+001 29730 103023,102654,102810
 2.3000e+000 102954 -8.8291e+001 -2.6935e+002 -2.7630e+001 29730 102732,102810,102784
 2.3000e+000 102931 -7.9644e+001 -1.8764e+002 -3.5312e+001 29730 102628,102810,102654
 2.3000e+000 102908 -5.7601e+000 -1.4758e+002  1.2139e+001 29730 102654,102706,102680
 2.3000e+000 102885 -7.0762e+001 -2.1158e+002 -4.1445e+001 29730 102732,102784,102758
 2.3000e+000 102862 -6.2751e+001 -1.7527e+002 -5.3222e+001 29730 102628,102836,102810
 2.3000e+000 103049 -2.3108e+001 -2.1042e+002 -2.1104e+001 29730 102732,102706,103023
 2.3000e+000 103072 -4.9264e+001 -1.7933e+002 -3.7948e+001 29730 102732,103023,102810
 2.3000e+000 103222 -2.3649e+000 -1.4583e+002 -1.4056e+001 29226 103095,103147,103121
 2.3000e+000 103199 -5.6457e+000 -1.4281e+002 -1.5107e+001 29226 103095,103173,103147
 2.3000e+000 103730 -1.6845e+001 -1.2286e+002 -3.1797e+000 28822 103537,103589,103563
 2.3000e+000 103707 -1.8208e+001 -1.4511e+002 -4.8651e+000 28822 103433,103589,103537
 2.3000e+000 103684 -7.0822e+001 -1.5518e+002 -2.4193e+001 28822 103433,103537,103459
 2.3000e+000 103661 -9.0819e+000 -1.6681e+002 -2.7729e+000 28822 103407,103589,103433
 2.3000e+000 103638 -4.1682e+001 -7.6322e+001  1.2638e+000 28822 103459,103511,103485
 2.3000e+000 103615 -2.4594e+001 -8.9541e+001  7.4625e+000 28822 103459,103537,103511
 2.3000e+000 103880  9.6682e+000 -1.3213e+002  1.1782e+001 28368 103975,103903,103779
 2.3000e+000 103857  1.7116e+001 -1.4669e+002 -6.3616e+000 28368 103903,103753,103831
 2.3000e+000 103929  9.3033e+000 -1.3455e+002  1.1792e+001 28368 103805,103779,103903
 2.3000e+000 103952  3.7067e+001 -1.5118e+002  4.0796e+000 28368 104105,103903,103831
 2.3000e+000 104001 -7.0441e+000 -1.4560e+002  2.4239e-002 28368 103753,103903,103975
 2.3000e+000 104131  5.8935e-001 -1.5708e+002  1.8954e+001 28368 103805,103903,104105
 2.3000e+000 104539 -1.6146e+001 -9.3019e+001  1.5329e+001 28028 104562,104340,104314
 2.3000e+000 104516 -1.7901e+001 -6.1845e+001  2.2586e+001 28028 104634,104562,104314
 2.3000e+000 104493 -1.6606e+001 -9.4002e+001 -1.2105e+001 28028 104762,104366,104340
 2.3000e+000 104470 -1.5035e+001 -7.8133e+001 -1.8348e+001 28028 104366,104418,104392
 2.3000e+000 104588 -2.2072e+001 -1.0624e+002 -2.5384e+000 28028 104762,104340,104562
 2.3000e+000 104611 -3.3479e+001 -6.9699e+001  1.6482e-001 28028 104418,104562,104444
 2.3000e+000 104660 -5.4419e+001 -7.7477e+001  9.3720e+000 28028 104444,104562,104634
 2.3000e+000 104788 -2.8741e+001 -7.8398e+001 -1.1605e+001 28028 104418,104366,104762
 2.3000e+000 104811 -2.9826e+001 -8.5577e+001 -2.3592e+000 28028 104418,104762,104562
 2.3000e+000 105010 -3.3706e+001 -1.0826e+002 -2.1465e+000 27324 105033,104886,104860
 2.3000e+000 104987  2.1815e+001 -7.8137e+001  1.7259e+001 27324 105033,104860,104834
 2.3000e+000 104964  1.6016e+001 -7.5981e+001  2.8376e+001 27324 105105,104912,104886
 2.3000e+000 105059 -7.2760e+000 -7.3328e+001  2.3148e+001 27324 105105,104886,105033
 2.3000e+000 105082  6.0881e+000 -8.7759e+001  2.9303e+001 27324 104938,105033,104834
 2.3000e+000 105131  5.8826e+001 -7.2833e+001  4.0169e+001 27324 104938,104912,105105
 2.3000e+000 105154  2.7858e+001 -8.1252e+001  2.8957e+001 27324 104938,105105,105033
 2.3000e+000 105402 -7.1516e+001 -1.1600e+002 -5.7681e+000 27012 105229,105281,105255
 2.3000e+000 105379 -4.5382e+001 -9.3194e+001 -1.5422e+001 27012 105229,105307,105281
 2.3000e+000 105356 -2.3711e+001 -7.5548e+001 -7.7482e+000 27012 105177,105307,105229
 2.3000e+000 105333 -5.9636e+001 -9.0800e+001 -4.2838e+001 27012 105177,105229,105203
 2.3000e+000 105603  1.3933e+001 -2.5509e+001  2.1260e+001 26508 105626,105453,105427
 2.3000e+000 105580  1.3150e+001 -2.7066e+001  1.6520e+001 26508 105626,105427,105505
 2.3000e+000 105557  1.9179e+000 -1.8120e+001  9.4838e+000 26508 105427,105531,105505
 2.3000e+000 105652  1.7372e+001 -2.4049e+001  2.1601e+001 26508 105479,105453,105626
 2.3000e+000 105675  1.7785e+001 -2.4762e+001  1.7273e+001 26508 105479,105626,105505
 2.3000e+000 106057 -2.2157e+001 -1.1804e+002  5.4019e+001 25947 106080,105887,105861
 2.3000e+000 106034 -1.3011e+001 -1.1891e+002  1.8980e+001 25947 106080,105861,105783
 2.3000e+000 106011 -2.9401e+001 -7.7888e+001  1.6298e+001 25947 105783,105835,105809
 2.3000e+000 105988 -4.4934e+001 -8.7201e+001  2.2392e+001 25947 105783,105861,105835
 2.3000e+000 105965  1.0744e+000 -5.5018e+001  2.8324e+001 25947 105887,105939,105913
 2.3000e+000 106106 -3.2277e+000 -1.0884e+002  5.0542e+001 25947 105939,105887,106080
 2.3000e+000 106129  3.1207e+001 -9.7715e+001  1.2640e+001 25947 105939,106080,105783
 2.3000e+000 106714 -5.0036e+001 -9.1925e+001  4.5777e+000 25557 106809,106737,106547
 2.3000e+000 106691 -4.7491e+001 -9.9239e+001  5.6741e+000 25557 106737,106417,106391
 2.3000e+000 106668 -4.9575e+001 -8.9001e+001  3.2770e+000 25557 106809,106547,106495
 2.3000e+000 106645 -6.5410e+001 -1.3588e+002  4.4997e+000 25557 106417,106495,106469
 2.3000e+000 106622 -5.7944e+001 -9.0956e+001  4.9377e+000 25557 106495,106547,106521
 2.3000e+000 106599 -2.7793e+001 -1.3120e+002  1.7809e+001 25557 106417,106469,106443
 2.3000e+000 106763 -6.0808e+001 -9.9852e+001  1.1291e+001 25557 106573,106547,106737
 2.3000e+000 106786 -4.5852e+001 -9.3289e+001  9.7670e+000 25557 106573,106737,106391
 2.3000e+000 106835 -4.8757e+001 -9.8677e+001  4.7411e+000 25557 106417,106737,106809
 2.3000e+000 106858 -4.7419e+001 -9.3918e+001  4.0721e+000 25557 106417,106809,106495
 2.3000e+000 107364 -2.1747e+001 -8.4272e+001 -2.0331e+001 25153 107459,107387,107171
 2.3000e+000 107341 -1.7786e+001 -8.2270e+001 -9.7126e+000 25153 107387,107119,107067
 2.3000e+000 107318 -1.6641e+001 -6.4483e+001 -1.6355e+000 25153 107459,107171,107145
 2.3000e+000 107295 -2.9473e+001 -9.6240e+001 -2.7210e+001 25153 107531,107223,107197
 2.3000e+000 107272 -2.4617e+001 -8.4127e+001  7.0845e+000 25153 107067,107119,107093
 2.3000e+000 107249 -2.7425e+001 -8.0664e+001 -1.2447e+001 25153 107041,107223,107067
 2.3000e+000 107413 -4.7736e+001 -9.5194e+001 -1.8296e+001 25153 107197,107171,107387
 2.3000e+000 107436 -1.9830e+001 -9.6085e+001 -2.1680e+001 25153 107531,107197,107387
 2.3000e+000 107485 -1.0508e+001 -5.2446e+001 -2.3780e+000 25153 107119,107387,107459
 2.3000e+000 107508  6.4393e+000 -3.1676e+001  1.9069e+001 25153 107119,107459,107145
 2.3000e+000 107557 -3.3701e+001 -8.9649e+001 -1.5264e+001 25153 107067,107223,107531
 2.3000e+000 107580 -2.0437e+001 -8.3764e+001 -9.0593e+000 25153 107067,107531,107387
 2.3000e+000 107958 -2.7604e+001 -1.2447e+002 -1.0947e+001 24741 107736,107814,107788
 2.3000e+000 107935 -8.3588e+000 -1.2663e+002 -2.0330e+001 24741 107736,107840,107814
 2.3000e+000 107912 -5.5492e+001 -1.4831e+002 -4.4823e+001 24741 107684,107840,107736
 2.3000e+000 107889 -4.1738e+001 -1.0848e+002 -1.5867e+001 24741 107736,107788,107762
 2.3000e+000 107866 -6.3035e+001 -1.9511e+002 -6.4281e+001 24741 107684,107736,107710
 2.3000e+000 108157 -2.0758e+001 -6.4845e+001  1.2659e+001 24237 108180,108059,108007
 2.3000e+000 108134 -1.2412e+001 -4.4613e+001  2.8920e+001 24237 108180,108007,107981
 2.3000e+000 108111  7.2154e+000 -8.5841e+001  1.2320e+001 24237 108007,108059,108033
 2.3000e+000 108206 -1.0729e+001 -4.6356e+001  2.3417e+001 24237 108085,108059,108180
 2.3000e+000 108229 -2.8984e+000 -2.6336e+001  3.9554e+001 24237 108085,108180,107981
 2.3000e+000 108658 -5.0814e+001 -1.2879e+002  9.4122e+000 23776 108361,108413,108387
 2.3000e+000 108635 -3.9849e+000 -1.3151e+002 -1.1513e+001 23776 108753,108681,108361
 2.3000e+000 108612  4.4382e+001 -9.5045e+001 -3.1036e+001 23776 108681,108465,108439
 2.3000e+000 108589  8.8576e+000 -1.3478e+002 -5.0793e+000 23776 108753,108361,108335
 2.3000e+000 108566 -4.6023e+000 -1.1552e+002  6.3846e+001 23776 108335,108517,108465
 2.3000e+000 108543 -5.1559e+000 -1.4362e+002  6.6455e+001 23776 108465,108517,108491
 2.3000e+000 108707 -4.6574e+001 -1.1058e+002  6.1588e+000 23776 108413,108361,108681
 2.3000e+000 108730  2.4926e+000 -1.0966e+002  1.2068e+000 23776 108413,108681,108439
 2.3000e+000 108779  8.3864e+000 -1.1325e+002 -6.0224e+000 23776 108465,108681,108753
 2.3000e+000 108802  1.3652e+001 -1.2878e+002 -2.9207e+000 23776 108465,108753,108335
 2.3000e+000 109023  3.1181e+001 -4.3349e+001  1.7674e+001 23414 108873,108925,108899
 2.3000e+000 109000 -4.5458e+000 -5.6493e+001  1.6578e+001 23414 108847,108925,108873
 2.3000e+000 108977  2.6684e+001  7.0568e+000  3.5831e+000 23414 108847,108951,108925
 2.3000e+000 109474 -2.1238e+001 -1.0783e+002  1.0980e+001 23024 109151,109307,109177
 2.3000e+000 109451 -1.3219e+001 -6.4186e+001  4.3934e+000 23024 109151,109333,109307
 2.3000e+000 109428 -3.5843e+001 -1.8079e+002 -4.1225e+000 23024 109177,109281,109203
 2.3000e+000 109405 -7.8221e+001 -1.6512e+002 -1.6993e+001 23024 109177,109307,109281
 2.3000e+000 109382 -3.5768e+001 -1.5334e+002  1.3127e+001 23024 109203,109281,109229
 2.3000e+000 109359 -2.4786e+001 -1.1181e+002  1.5119e+001 23024 109229,109281,109255
 2.3000e+000 109820 -2.4119e+001 -1.0834e+002  1.1486e+001 22506 109843,109601,109523
 2.3000e+000 109797 -2.6745e-001 -9.2989e+001  4.7169e+000 22506 109843,109523,109497
 2.3000e+000 109774  3.7776e+000 -1.1624e+002  8.6589e+000 22506 109915,109653,109627
 2.3000e+000 109751  2.6150e+000 -8.5031e+001  9.3855e+000 22506 109497,109679,109653
 2.3000e+000 109728 -3.6649e+001 -1.4039e+002 -2.1871e+001 22506 109523,109601,109575
 2.3000e+000 109705 -7.1582e+001 -1.8102e+002 -3.7210e+001 22506 109523,109575,109549
 2.3000e+000 109869  3.0881e+000 -1.0284e+002  1.4336e+001 22506 109627,109601,109843
 2.3000e+000 109892  7.1374e+000 -1.0992e+002  1.0641e+001 22506 109915,109627,109843
 2.3000e+000 109941  9.5441e-001 -1.1114e+002  4.8175e+000 22506 109497,109653,109915
 2.3000e+000 109964  1.4169e+000 -1.1049e+002  6.0176e+000 22506 109497,109915,109843
 2.3000e+000 110163 -1.6244e+001 -9.5619e+001  2.2612e+000 21936 110186,110039,110013
 2.3000e+000 110140 -1.5289e+001 -8.1915e+001  1.0373e+001 21936 110390,110186,110013
 2.3000e+000 110117 -8.0986e+000 -9.1208e+001  1.7904e+001 21936 110390,110013,109987
 2.3000e+000 110212 -5.7732e+000 -7.8726e+001 -1.7025e+001 21936 110065,110039,110186
 2.3000e+000 110235 -1.6237e+001 -6.1005e+001  2.7898e+000 21936 110258,110186,110091
 2.3000e+000 110284 -5.3714e+001 -9.8346e+001 -1.2526e+001 21936 110065,110186,110258
 2.3000e+000 110416 -3.1260e+001 -8.8857e+001  1.3494e+001 21936 110091,110186,110390
 2.3000e+000 110439 -2.0357e+001 -9.5747e+001  2.0101e+001 21936 110091,110390,109987
 2.3000e+000 110709 -1.8655e+001 -1.1748e+002  3.5326e+000 21338 110510,110614,110588
 2.3000e+000 110686 -3.7667e+001 -1.5571e+002 -6.8578e+000 21338 110484,110614,110510
 2.3000e+000 110663 -1.2734e+001 -5.7270e+001 -8.3652e-001 21338 110510,110562,110536
 2.3000e+000 110640 -3.8875e+001 -1.1916e+002 -3.1922e+000 21338 110510,110588,110562
 2.3000e+000 111296  4.2040e+000 -1.0885e+002  4.5557e+000 20934 111025,111155,111103
 2.3000e+000 111273 -4.5829e+000 -2.0797e+002 -4.0276e+000 20934 110999,111155,111025
 2.3000e+000 111250  6.5729e+001 -7.9547e+001 -8.4446e+000 20934 111103,111155,111129
 2.3000e+000 111227 -2.9438e+001 -1.5263e+002 -2.4064e+001 20934 111051,111103,111077
 2.3000e+000 111204 -4.0655e+001 -1.5505e+002 -1.4787e+001 20934 111025,111103,111051
 2.3000e+000 111181 -2.2898e+001 -2.3658e+002 -1.1977e+001 20934 110973,111155,110999
 2.3000e+000 111930 -4.8052e+001 -7.6931e+001 -1.2390e+001 20494 111662,111714,111688
 2.3000e+000 111907 -1.6429e+001 -8.0464e+001 -1.0308e+001 20494 111584,111714,111662
 2.3000e+000 111884 -3.3315e+001 -8.8912e+001 -6.7457e+000 20494 111584,111766,111714
 2.3000e+000 111861  2.0645e+001 -1.5183e+002  1.7163e+001 20494 111584,111636,111610
 2.3000e+000 111838 -2.1129e+001 -1.0633e+002 -1.1553e+001 20494 111584,111662,111636
 2.3000e+000 111815  4.9824e+001 -5.7418e+001 -7.8011e+000 20494 111558,111766,111584
 2.3000e+000 111792 -3.7217e+001 -9.2379e+001  3.0966e+000 20494 111714,111766,111740
 2.3000e+000 112249 -4.1470e+001 -2.0826e+002  1.5062e+001 19940 111975,112053,112001
 2.3000e+000 112226 -4.1286e+000 -1.3906e+002 -8.6291e-001 19940 111975,112131,112053
 2.3000e+000 112203  1.8597e+001 -1.8677e+002  0.0000e+000 19940 112053,112105,112079
 2.3000e+000 112180 -2.9620e+001 -1.9892e+002 -4.0370e+000 19940 112053,112131,112105
 2.3000e+000 112157 -8.7002e+000 -1.8020e+002 -2.7394e+000 19940 112001,112053,112027
 2.3000e+000 112757  1.9659e+001 -1.0880e+002 -2.8230e+001 19486 112780,112538,112486
 2.3000e+000 112734  1.3746e+001 -1.1933e+002 -1.0120e+001 19486 112780,112486,112460
 2.3000e+000 112711 -8.0456e+000 -1.0103e+002 -8.8405e+000 19486 112852,112616,112590
 2.3000e+000 112688  9.2351e+001 -1.5256e+002 -3.8007e+001 19486 112486,112538,112512
 2.3000e+000 112665 -4.3217e+001 -1.4754e+002 -1.0698e+001 19486 112434,112616,112460
 2.3000e+000 112642 -7.8353e+000 -9.7453e+001 -2.1724e+001 19486 112538,112590,112564
 2.3000e+000 112806 -6.2182e-002 -1.1849e+002 -2.4388e+001 19486 112590,112538,112780
 2.3000e+000 112829  1.5998e+001 -1.0824e+002 -1.4560e+001 19486 112852,112590,112780
 2.3000e+000 112878 -2.3264e+001 -1.0987e+002 -2.4993e+000 19486 112460,112616,112852
 2.3000e+000 112901 -9.0619e+000 -1.2645e+002 -5.4028e+000 19486 112460,112852,112780
 2.3000e+000 113252 -8.5444e+001 -1.7209e+002 -3.4072e+000 19096 113105,113157,113131
 2.3000e+000 113229 -7.5186e+001 -1.2886e+002 -7.9649e-001 19096 113053,113157,113105
 2.3000e+000 113206 -6.7957e+001 -1.2071e+002  4.7547e+000 19096 113027,113157,113053
 2.3000e+000 113183 -1.1001e+002 -1.9676e+002  1.1577e+001 19096 113053,113105,113079
 2.3000e+000 113451  1.6358e+001 -1.2710e+002  9.8267e+000 18642 113327,113379,113353
 2.3000e+000 113428 -8.9126e+000 -1.6590e+002 -1.1681e+001 18642 113301,113379,113327
 2.3000e+000 113405 -5.5256e+000 -1.4522e+002 -3.6436e+000 18642 113275,113379,113301
 2.3000e+000 113699 -2.3095e-001 -1.5378e+002 -2.5641e+000 18138 113474,113552,113526
 2.3000e+000 113676  2.7346e+001 -1.6036e+002 -1.6599e+001 18138 113474,113578,113552
 2.3000e+000 113653  2.1854e+001 -1.5590e+002 -1.4794e+001 18138 113474,113604,113578
 2.3000e+000 113630  2.5552e+001 -1.3786e+002  1.1195e+001 18138 113474,113526,113500
 2.3000e+000 113851 -1.2084e+001 -1.7466e+002 -1.9754e+000 17682 113750,113802,113776
 2.3000e+000 113828 -7.7707e+000 -1.6567e+002  2.0029e+000 17682 113724,113802,113750
 2.3000e+000 114383 -1.0883e+001 -1.2207e+002 -9.0780e+000 17106 114086,114242,114164
 2.3000e+000 114360 -5.8670e+001 -1.4151e+002  1.8220e+000 17106 114060,114242,114086
 2.3000e+000 114337 -6.5463e+001 -2.1944e+002  1.9059e+001 17106 114086,114164,114138
 2.3000e+000 114314 -6.0817e+001 -3.1718e+002 -1.2031e+001 17106 114190,114242,114216
 2.3000e+000 114291 -5.2420e+001 -2.3472e+002 -1.9851e+001 17106 114164,114242,114190
 2.3000e+000 114268 -1.9064e+001 -2.0192e+002  5.4589e+001 17106 114086,114138,114112
 2.3000e+000 114680 -6.3337e+001 -1.6785e+002  6.9425e+000 16766 114703,114432,114406
 2.3000e+000 114657 -6.6350e+001 -1.6338e+002  3.6932e+000 16766 114703,114406,114510
 2.3000e+000 114634 -6.6158e+001 -1.3266e+002  1.2656e+001 16766 114406,114536,114510
 2.3000e+000 114611 -5.1893e+001 -1.7506e+002 -8.1195e+000 16766 114432,114484,114458
 2.3000e+000 114588 -6.2424e+001 -1.4411e+002  4.5400e+001 16766 114406,114562,114536
 2.3000e+000 114729 -5.1010e+001 -1.6329e+002  6.2417e+000 16766 114484,114432,114703
 2.3000e+000 114752 -6.2241e+001 -1.6401e+002  4.0140e+000 16766 114484,114703,114510
 2.3000e+000 114902  4.5078e+001 -2.1280e+002 -2.5934e+001 16362 114775,114827,114801
 2.3000e+000 114879  3.5389e+001 -1.9415e+002 -2.9967e+001 16362 114775,114853,114827
 2.3000e+000 115054 -2.3052e+002 -3.6983e+002 -1.5212e+001 15908 114953,115005,114979
 2.3000e+000 115031 -2.1458e+002 -3.8181e+002 -1.0252e+001 15908 114927,115005,114953
 2.3000e+000 115326 -2.2739e+001 -1.3102e+002  3.0032e+001 15251 115101,115179,115153
 2.3000e+000 115303 -1.3108e+001 -1.1702e+002 -7.0378e+000 15251 115101,115231,115179
 2.3000e+000 115280 -1.7914e+001 -1.2800e+002 -6.0096e+000 15251 115179,115231,115205
 2.3000e+000 115257 -7.9165e+001 -3.5712e+002  3.2893e+001 15251 115101,115153,115127
 2.3000e+000 115429 -4.9085e+001 -1.8320e+002  3.3640e+001 421 115351,115403,115377
 2.4000e+000 66230 -2.5530e+001  2.3272e+001  8.2531e+000 65954 66152,66204,66178
 2.4000e+000 66429  3.7419e-001 -5.3100e+001 -8.9095e+000 65642 66279,66331,66305
 2.4000e+000 66406  6.1190e+000 -8.9799e+000  5.4213e+000 65642 66279,66357,66331
 2.4000e+000 66383  6.6396e+000  2.5645e+001 -4.4513e+000 65642 66253,66357,66279
 2.4000e+000 66628  9.6363e-002 -1.0709e+002  1.6440e+001 65444 66452,66530,66478
 2.4000e+000 66605  9.6631e+000 -1.3802e+002  5.0750e+000 65444 66452,66556,66530
 2.4000e+000 66582 -1.1681e+001 -1.1099e+002  2.0051e+001 65444 66478,66530,66504
 2.4000e+000 67006  5.1949e-001 -8.9404e+001 -2.2352e+000 65246 66732,66810,66758
 2.4000e+000 66983  1.7276e+001 -4.2357e+001  1.1527e+001 65246 66732,66836,66810
 2.4000e+000 66960 -1.5551e+001 -8.6477e+001 -1.5573e+001 65246 66732,66862,66836
 2.4000e+000 66937 -4.1106e+000 -6.0783e+001  7.1987e+000 65246 66758,66810,66784
 2.4000e+000 66914 -2.8209e+000 -1.0509e+002 -3.3079e+001 65246 66732,66888,66862
 2.4000e+000 67107  3.4183e+001 -3.7347e+001 -1.1654e+001 64934 67029,67081,67055
 2.4000e+000 67306 -2.2917e+001 -9.7008e+001  3.3475e+001 64736 67156,67208,67182
 2.4000e+000 67283  2.1148e+001 -6.5165e+001  1.8727e+001 64736 67130,67208,67156
 2.4000e+000 67260 -1.4053e+001 -1.0629e+002  2.8865e+000 64736 67130,67234,67208
 2.4000e+000 67507  4.8735e+000 -7.8193e+001 -9.8983e+000 64389 67357,67409,67383
 2.4000e+000 67484 -4.6993e+000 -1.0250e+002 -1.4230e+001 64389 67357,67435,67409
 2.4000e+000 67461  4.7806e+000 -1.2035e+002 -9.6843e+000 64389 67331,67435,67357
 2.4000e+000 67708  2.9884e+001 -8.8386e+001  1.0738e+001 63985 67731,67584,67558
 2.4000e+000 67685  3.2606e+000 -3.6613e+001  3.0532e+000 63985 67731,67558,67636
 2.4000e+000 67662 -1.9587e+001 -5.1474e+001 -4.6713e+000 63985 67532,67636,67558
 2.4000e+000 67757  1.5684e+001 -1.1239e+002  4.6070e+000 63985 67610,67584,67731
 2.4000e+000 67780 -2.0003e+001 -7.5317e+001 -6.6418e+000 63985 67610,67731,67636
 2.4000e+000 67981  1.1610e+001 -2.5028e+001  2.6764e+000 63787 67857,67909,67883
 2.4000e+000 67958 -4.0174e+000 -4.6460e+001  1.2188e+001 63787 67831,67909,67857
 2.4000e+000 67935 -1.4631e+001 -6.5251e+000 -2.0761e+000 63787 67805,67909,67831
 2.4000e+000 68231 -7.0107e-001 -1.0645e+002  9.9204e+000 63589 68254,68084,68032
 2.4000e+000 68208 -9.4794e-001 -6.1469e+001  9.7840e+000 63589 68254,68032,68006
 2.4000e+000 68185  4.4130e+000 -4.9705e+001  9.9317e+000 63589 68326,68136,68110
 2.4000e+000 68162 -1.2017e+000 -9.9417e+001 -1.1657e+001 63589 68032,68084,68058
 2.4000e+000 68280 -1.4643e+000 -6.7155e+001  1.3016e+001 63589 68110,68084,68254
 2.4000e+000 68303 -2.3806e+000 -5.2331e+001  1.9697e+001 63589 68326,68110,68254
 2.4000e+000 68352  1.8819e+001 -2.6795e+001 -9.5755e+000 63589 68006,68136,68326
 2.4000e+000 68375  5.0156e+000 -3.6942e+001  1.1118e+000 63589 68006,68326,68254
 2.4000e+000 68836 -2.6564e+000 -2.0768e+001 -6.8781e+000 63128 68859,68588,68562
 2.4000e+000 68813 -1.1072e+001 -4.4642e+001  1.6295e+001 63128 68859,68562,68692
 2.4000e+000 68790  9.7290e+000 -5.1322e+001 -2.3962e+000 63128 68614,68692,68666
 2.4000e+000 68767 -2.8042e+001 -4.4760e+001  1.3938e+001 63128 68562,68718,68692
 2.4000e+000 68744  7.7995e+000 -6.1099e+001 -3.8131e+001 63128 68614,68666,68640
 2.4000e+000 68885  1.1931e+001  1.3235e+001 -2.2486e+001 63128 68614,68588,68859
 2.4000e+000 68908  1.8450e+000 -1.7669e+001  2.0902e-001 63128 68614,68859,68692
 2.4000e+000 69237  3.8408e+000 -6.1780e+001  5.7057e+000 62731 69064,69116,69090
 2.4000e+000 69214 -1.9230e+000 -8.0661e+001  1.1594e+000 62731 69064,69142,69116
 2.4000e+000 69191 -1.2197e+001 -1.1830e+002  1.2463e+000 62731 69038,69142,69064
 2.4000e+000 69168 -6.5471e-002 -1.0877e+002  6.0701e+000 62731 69012,69142,69038
 2.4000e+000 69539  2.5777e+000  2.5634e+001  2.0722e+000 62433 69389,69467,69441
 2.4000e+000 69516  9.1677e+000 -2.5580e+001  1.1469e+001 62433 69363,69467,69389
 2.4000e+000 69493 -3.2141e+000 -2.1123e+001  1.9805e+001 62433 69389,69441,69415
 2.4000e+000 69966  1.6731e+001 -5.6423e+001  5.7850e+000 62235 69989,69773,69721
 2.4000e+000 69943  8.2204e+000 -9.0184e+001 -2.3883e+001 62235 70061,69989,69721
 2.4000e+000 69920  1.3666e+001 -1.0914e+002 -1.8993e+001 62235 70061,69721,69643
 2.4000e+000 69897  1.6378e+001  4.2354e+001 -1.7160e+001 62235 69721,69773,69747
 2.4000e+000 69874 -8.0910e+001 -3.3065e+002 -6.2728e+000 62235 69643,69721,69695
 2.4000e+000 69851  1.0848e+002  2.8226e+002 -2.4215e+001 62235 69643,69695,69669
 2.4000e+000 70015  1.4651e+001 -9.0699e+001 -1.7794e+001 62235 69799,69773,69989
 2.4000e+000 70038 -2.5672e+001 -1.1570e+002 -4.7650e+001 62235 69799,69989,69825
 2.4000e+000 70087 -8.0944e+000 -1.0742e+002 -1.7175e+001 62235 69825,69989,70061
 2.4000e+000 70110  7.5731e+000 -1.1648e+002 -1.6200e+001 62235 69825,70061,69643
 2.4000e+000 70260 -5.2149e-001 -7.1789e+001 -4.7270e+000 62037 70133,70185,70159
 2.4000e+000 70237 -1.0978e+001 -1.2336e+002 -3.8732e+000 62037 70133,70211,70185
 2.4000e+000 70640 -1.3586e+001 -5.1963e+001  4.3563e+000 61583 70735,70663,70418
 2.4000e+000 70617 -4.0621e+001 -7.7256e+001 -2.2360e+001 61583 70663,70366,70522
 2.4000e+000 70594 -6.9516e+000 -4.9092e+001  1.4122e+001 61583 70735,70418,70392
 2.4000e+000 70571  2.3974e+000 -7.7829e+001  1.8031e+001 61583 70418,70496,70444
 2.4000e+000 70548 -2.2130e+001 -2.0139e+001  1.8985e+001 61583 70444,70496,70470
 2.4000e+000 70689 -2.2645e+001 -8.6536e+001 -1.8414e+000 61583 70496,70418,70663
 2.4000e+000 70712 -3.9425e+000 -6.4631e+001 -9.8248e+000 61583 70496,70663,70522
 2.4000e+000 70761 -3.9034e+001 -5.9449e+001 -7.1441e+000 61583 70366,70663,70735
 2.4000e+000 70784 -2.4050e+001 -5.2931e+001  2.4184e+000 61583 70366,70735,70392
 2.4000e+000 71054  1.6145e+001 -3.6891e+001  9.3184e+000 61313 71077,70881,70855
 2.4000e+000 71031  2.9456e+001 -2.9880e+001  2.4572e+001 61313 71077,70855,70829
 2.4000e+000 71008 -3.2696e+000 -5.0264e+001  7.0235e+000 61313 70829,70959,70933
 2.4000e+000 70985  1.4649e+001 -5.1246e+001 -1.1606e+001 61313 70881,70933,70907
 2.4000e+000 71103 -2.8010e+000 -3.5955e+001  2.3311e+000 61313 70933,70881,71077
 2.4000e+000 71126  1.2775e+001 -3.2745e+001  1.5559e+001 61313 70933,71077,70829
 2.4000e+000 71604 -2.6940e+000 -1.0209e+002  6.3882e-001 60909 71627,71232,71414
 2.4000e+000 71581 -2.5386e+001 -9.4116e+001 -1.6068e+001 60909 71232,71440,71414
 2.4000e+000 71558 -6.7878e+000 -6.2039e+001  1.9558e+000 60909 71627,71414,71336
 2.4000e+000 71535  2.2362e+001 -1.3159e+002  1.8714e+001 60909 71362,71414,71388
 2.4000e+000 71512 -2.9418e+001 -1.1721e+002  2.3055e+000 60909 71336,71414,71362
 2.4000e+000 71489  7.0133e+000 -4.5903e+001  1.6942e+000 60909 71258,71336,71310
 2.4000e+000 71466 -5.4527e+000 -5.6215e+001  6.9486e+000 60909 71258,71310,71284
 2.4000e+000 71653  1.1258e+001 -7.0938e+001 -3.9590e+000 60909 71258,71232,71627
 2.4000e+000 71676 -6.3145e+000 -5.0611e+001  8.5820e-001 60909 71258,71627,71336
 2.4000e+000 71875 -1.4090e+001 -8.3737e+001  6.8374e+000 60611 71898,71725,71699
 2.4000e+000 71852 -3.3855e+001 -6.4354e+001  2.3912e+001 60611 71898,71699,71803
 2.4000e+000 71829  1.3480e+001 -1.6593e+001  2.2198e+001 60611 71970,71751,71725
 2.4000e+000 71924 -7.8745e+000 -5.7432e+001  7.6040e+000 60611 71970,71725,71898
 2.4000e+000 71947 -5.2869e+000 -6.3046e+001  5.6542e-001 60611 71777,71898,71803
 2.4000e+000 71996  3.2641e+001 -6.2177e+001  3.0840e+001 60611 71777,71751,71970
 2.4000e+000 72019  2.9740e+001 -7.1776e+001  2.2397e+001 60611 71777,71970,71898
 2.4000e+000 72576 -5.1526e+000 -1.8226e+002  3.6752e+001 60142 72599,72256,72230
 2.4000e+000 72553  1.6432e+001 -1.0744e+002  3.9675e+001 60142 72671,72599,72230
 2.4000e+000 72530 -2.9346e+001 -7.1884e+001  7.3106e+000 60142 72671,72230,72204
 2.4000e+000 72507 -4.0223e+001 -5.3403e+001  2.0857e+001 60142 72743,72360,72334
 2.4000e+000 72484 -5.8079e+001 -7.3294e+001  1.1941e+001 60142 72815,72282,72256
 2.4000e+000 72461  4.5130e+000 -1.6585e+001  6.4874e+001 60142 72887,72308,72282
 2.4000e+000 72438 -3.7408e+001 -1.5990e+002 -1.1350e+001 60142 72204,72412,72386
 2.4000e+000 72625 -6.1836e+001 -1.4490e+002 -1.2576e+001 60142 72815,72256,72599
 2.4000e+000 72648 -2.5633e+001 -8.6208e+001  1.4745e+001 60142 72743,72334,72599
 2.4000e+000 72697 -2.3417e+001 -1.6383e+002  2.2288e+001 60142 72386,72599,72671
 2.4000e+000 72720 -5.3940e+001 -1.2131e+002 -3.3496e+000 60142 72386,72671,72204
 2.4000e+000 72769  9.3921e+000 -7.8592e+001  8.5428e+001 60142 72386,72360,72743
 2.4000e+000 72792 -4.6508e+000 -1.5293e+002  4.7242e+001 60142 72386,72743,72599
 2.4000e+000 72841 -3.6983e+001 -3.7687e+001  3.0935e+001 60142 72887,72282,72815
 2.4000e+000 72864 -2.5558e+001 -8.4824e+001  1.3252e+001 60142 72334,72815,72599
 2.4000e+000 72913 -5.4452e+001 -6.3998e+001  4.1393e+001 60142 72334,72308,72887
 2.4000e+000 72936 -7.5510e+001 -7.4636e+001  1.0426e+001 60142 72334,72887,72815
 2.4000e+000 73491 -2.1078e+001 -1.2684e+002 -2.4449e+001 59738 73145,73327,73171
 2.4000e+000 73468  4.5193e+001 -4.5033e+001  4.1565e+000 59738 73119,73327,73145
 2.4000e+000 73445 -1.0858e+001 -6.9546e+001 -1.0007e+001 59738 73171,73327,73301
 2.4000e+000 73422  1.4687e+000 -7.7356e+001  1.3152e-001 59738 73514,73275,73249
 2.4000e+000 73399 -2.1168e+001 -7.4716e+001  2.3328e+000 59738 73586,73514,73249
 2.4000e+000 73376 -1.7844e+001 -3.7753e+001  2.6039e+001 59738 73197,73249,73223
 2.4000e+000 73353 -1.8644e+001 -7.6676e+001  1.0226e+001 59738 73586,73249,73197
 2.4000e+000 73540 -1.7708e+001 -1.1200e+002 -1.3802e+001 59738 73301,73275,73514
 2.4000e+000 73563 -1.0149e+001 -6.9990e+001 -9.5952e+000 59738 73301,73514,73171
 2.4000e+000 73612 -1.5224e+001 -6.1166e+001  3.2738e+000 59738 73171,73514,73586
 2.4000e+000 73635 -1.4036e+001 -6.5894e+001  1.0278e+001 59738 73171,73586,73197
 2.4000e+000 73964  1.0692e+001 -9.0540e+001  3.1209e+000 59334 73791,73843,73817
 2.4000e+000 73941  1.0937e+001 -1.1292e+002 -7.6544e+000 59334 73791,73869,73843
 2.4000e+000 73918 -1.6128e+001 -1.8395e+002  1.3172e+001 59334 73739,73869,73791
 2.4000e+000 73895  3.9030e+001 -2.0498e+002  1.0426e+001 59334 73739,73791,73765
 2.4000e+000 74261  3.7572e+001 -7.5954e+001  4.0943e+001 58630 74065,74117,74091
 2.4000e+000 74238  3.4984e+001 -7.9480e+001  1.0823e+001 58630 74356,74284,74065
 2.4000e+000 74215 -6.6739e+000 -4.3772e+001 -2.3459e+000 58630 74284,74013,73987
 2.4000e+000 74192  4.4670e+001 -6.7250e+001  2.9017e+001 58630 74356,74065,74039
 2.4000e+000 74169 -1.4528e+001 -4.6587e+001 -1.6577e+000 58630 73987,74143,74117
 2.4000e+000 74310  1.4431e+001 -1.2174e+002  2.2818e+000 58630 74117,74065,74284
 2.4000e+000 74333 -2.8704e+001 -7.4267e+001 -1.2300e+001 58630 74117,74284,73987
 2.4000e+000 74382  9.5580e+000 -1.0284e+002 -6.0888e+000 58630 74013,74284,74356
 2.4000e+000 74405  1.8961e+001 -8.9063e+001  1.2222e+001 58630 74013,74356,74039
 2.4000e+000 74815 -1.7202e+001 -4.7168e+001 -8.0863e+000 58226 74590,74642,74616
 2.4000e+000 74792 -2.4461e+001 -8.2321e+001 -9.2790e+000 58226 74590,74694,74642
 2.4000e+000 74769  3.9175e+001 -1.2810e+002  1.5158e+001 58226 74590,74720,74694
 2.4000e+000 74746 -1.0251e+001 -3.8444e+001 -2.1876e+000 58226 74642,74694,74668
 2.4000e+000 75014 -6.4152e+000 -9.6923e+001  1.8047e+000 57786 75037,74864,74838
 2.4000e+000 74991  2.3584e+000 -4.6247e+001  7.8302e+000 57786 75037,74838,74916
 2.4000e+000 74968  1.0078e+001 -2.7445e+001 -1.9419e+001 57786 74838,74942,74916
 2.4000e+000 75063  2.2054e-001 -1.5447e+002 -1.3581e+001 57786 74890,74864,75037
 2.4000e+000 75086  1.4830e+001 -9.5811e+001 -6.9297e+000 57786 74890,75037,74916
 2.4000e+000 75368  2.9062e+001 -3.0847e+001  1.9377e+001 57496 75192,75270,75218
 2.4000e+000 75345  4.6188e+001 -2.2592e+001  2.1917e+001 57496 75192,75296,75270
 2.4000e+000 75322  1.1793e+000 -5.2411e+001  2.7829e+000 57496 75218,75270,75244
 2.4000e+000 75648 -6.8562e-001 -8.5319e+001 -2.2983e+000 57206 75472,75550,75498
 2.4000e+000 75625  6.7907e+000 -7.8163e+001 -6.1472e+000 57206 75472,75576,75550
 2.4000e+000 75602  3.9959e+001 -5.8680e+001  8.6872e-001 57206 75671,75550,75524
 2.4000e+000 75697 -2.5455e+001 -9.4765e+001 -1.8461e+001 57206 75498,75550,75671
 2.4000e+000 76154  3.0013e+001 -6.9921e+001 -1.9761e+001 56802 75958,76010,75984
 2.4000e+000 76131  1.9855e+001 -3.2190e+001 -7.8689e+000 56802 75932,76010,75958
 2.4000e+000 76108  3.4774e+001 -5.6021e+001  2.5394e+001 56802 75906,76010,75932
 2.4000e+000 76085  1.3709e+001 -2.5935e+001  2.1089e+001 56802 75880,76010,75906
 2.4000e+000 76062  2.5598e+001 -3.0374e+001 -7.3337e+000 56802 75880,76036,76010
 2.4000e+000 76505 -3.6500e-001  5.6604e+001 -2.8503e+000 56504 76306,76384,76332
 2.4000e+000 76482  3.4296e+000  2.1132e+001  1.1552e+001 56504 76306,76410,76384
 2.4000e+000 76459  9.9831e+000  4.6054e+001 -1.5784e+001 56504 76332,76384,76358
 2.4000e+000 76436  1.6423e+000  1.0600e+000 -6.5645e+000 56504 76280,76410,76306
 2.4000e+000 77011  1.3001e+001 -4.9754e+001 -2.3637e+001 56050 76740,76818,76792
 2.4000e+000 76988  2.8353e+001 -4.4810e+001 -1.8493e+001 56050 76714,76818,76740
 2.4000e+000 76965 -1.5007e+001 -6.6653e+001 -4.9629e+000 56050 76688,76818,76714
 2.4000e+000 76942 -1.2427e+001 -4.3167e+001 -1.1972e+001 56050 76688,76844,76818
 2.4000e+000 76919  5.8002e+000 -4.2539e+001 -2.2969e+001 56050 76740,76792,76766
 2.4000e+000 76896 -2.6892e+001 -7.5656e+001 -8.5993e+000 56050 76688,76870,76844
 2.4000e+000 77517 -2.5898e+001 -8.3717e+001 -9.9412e-002 55738 77220,77350,77324
 2.4000e+000 77494 -3.2020e+001 -1.0049e+002 -1.2790e+001 55738 77220,77376,77350
 2.4000e+000 77471 -1.0944e+001 -7.5714e+001 -3.1695e-001 55738 77194,77376,77220
 2.4000e+000 77448 -1.8737e+001 -2.2679e+001  1.0949e+000 55738 77220,77298,77246
 2.4000e+000 77425 -1.0933e+001 -6.1788e+001 -1.5754e+001 55738 77220,77324,77298
 2.4000e+000 77402 -5.8414e+000 -1.6220e+001  1.1890e+001 55738 77246,77298,77272
 2.4000e+000 78064  1.9100e+001 -1.7132e+002 -5.6664e+000 55227 78231,78087,77773
 2.4000e+000 78041 -2.7478e+001 -2.8901e+002  1.6951e+001 55227 78087,77695,77643
 2.4000e+000 78018 -2.8477e+001 -2.2095e+002 -1.3403e+001 55227 78159,77799,77773
 2.4000e+000 77995 -8.6655e+000 -1.1115e+002  8.7974e+000 55227 78231,77773,77721
 2.4000e+000 77972 -6.1926e+001 -7.6557e+001  6.8318e+001 55227 77643,77695,77669
 2.4000e+000 77949 -4.9407e+001 -1.1948e+002  2.2194e+001 55227 77643,77877,77851
 2.4000e+000 77926 -7.0370e+001 -2.4574e+002  3.6442e+001 55227 77799,77851,77825
 2.4000e+000 77903 -5.1100e+000 -6.4667e+001 -2.0751e+001 55227 77721,77773,77747
 2.4000e+000 78113 -4.3658e+000 -2.2679e+002 -2.0471e+000 55227 78159,77773,78087
 2.4000e+000 78136  3.3126e+001 -1.4718e+002  3.7797e+001 55227 77851,78087,77643
 2.4000e+000 78185 -7.5472e+001 -2.1787e+002 -1.1429e+001 55227 77851,77799,78159
 2.4000e+000 78208 -5.1096e+001 -2.2453e+002 -2.0392e+000 55227 77851,78159,78087
 2.4000e+000 78257 -4.0592e+000 -2.4325e+002 -3.1362e+001 55227 77695,78087,78231
 2.4000e+000 78280 -3.7261e+001 -1.7971e+002 -2.3337e+001 55227 77695,78231,77721
 2.4000e+000 78737 -1.8739e+001 -3.7491e+001 -2.0969e+001 54773 78463,78541,78515
 2.4000e+000 78714 -2.5982e+001 -7.6509e+001 -8.1410e+000 54773 78463,78619,78541
 2.4000e+000 78691 -1.5871e+001 -2.6763e+001 -1.0576e+001 54773 78463,78515,78489
 2.4000e+000 78668 -1.9121e+001 -3.4338e+001 -1.1493e+001 54773 78541,78593,78567
 2.4000e+000 78645 -1.0455e+001 -4.8825e+001 -1.7593e+001 54773 78541,78619,78593
 2.4000e+000 78838  7.1168e-001 -1.5106e+000 -3.3246e+000 54211 78760,78812,78786
 2.4000e+000 79297 -4.9422e-001 -7.4712e+001 -4.0814e+000 53814 79520,79153,79049
 2.4000e+000 79274  7.0550e+000 -7.1231e+001 -4.9822e+000 53814 79520,79049,79023
 2.4000e+000 79251 -3.0274e+001 -1.6085e+002  3.0898e+001 53814 79320,79101,79049
 2.4000e+000 79228  1.1148e+000 -8.3129e+001 -3.4574e+000 53814 79320,79049,79153
 2.4000e+000 79205 -3.5739e+001 -9.1620e+001  4.4785e+001 53814 79049,79101,79075
 2.4000e+000 79346 -4.0738e+000 -5.7611e+001 -2.7001e+001 53814 79392,79320,79127
 2.4000e+000 79369  2.1393e+001 -7.1908e+001 -4.1762e+001 53814 79127,79320,79153
 2.4000e+000 79418 -4.0012e-001 -1.4317e+002 -4.1039e+001 53814 79101,79320,79392
 2.4000e+000 79546 -5.6738e+000 -8.3661e+001  8.6654e+000 53814 79179,79153,79520
 2.4000e+000 79569  2.0383e+001 -7.1612e+001  5.6262e+000 53814 79179,79520,79023
 2.4000e+000 80075 -2.1417e+001 -6.7419e+000  4.2299e+001 53039 80098,79908,79830
 2.4000e+000 80052 -2.6107e+001  7.1619e+000  1.1726e+001 53039 80098,79830,79804
 2.4000e+000 80029 -1.6205e+001  1.0788e+001  4.7842e+000 53039 79752,79934,79804
 2.4000e+000 80006  6.2579e+001  3.0963e+001  2.9007e+001 53039 79856,79908,79882
 2.4000e+000 79983  1.5334e+001 -2.4510e+001  4.9207e+001 53039 79830,79908,79856
 2.4000e+000 79960  8.6141e+000  3.6032e+001  2.2471e+001 53039 79752,79804,79778
 2.4000e+000 80124  2.6717e+001  9.4021e+000  3.8118e+001 53039 79934,79908,80098
 2.4000e+000 80147 -3.7758e+000  1.4679e+001  6.8625e+000 53039 79934,80098,79804
 2.4000e+000 80555 -3.2338e+001 -6.1883e+001  1.2351e+001 52699 80356,80434,80408
 2.4000e+000 80532  9.1460e+000 -7.3117e+001  6.1584e+000 52699 80356,80460,80434
 2.4000e+000 80509 -1.3417e+001 -9.1043e+001 -3.4077e+000 52699 80330,80460,80356
 2.4000e+000 80486 -3.8067e+001 -8.5217e+001  8.9330e+000 52699 80356,80408,80382
 2.4000e+000 80776 -8.6253e-001 -3.6534e+001  9.7992e-001 52295 80600,80678,80626
 2.4000e+000 80753  1.4797e+001 -3.5640e+001  2.6398e-001 52295 80600,80704,80678
 2.4000e+000 80730  2.2072e+001 -2.6052e+001  4.4375e+000 52295 80626,80678,80652
 2.4000e+000 81156 -4.0484e+001 -1.3171e+002  3.0849e+001 51891 81179,80960,80908
 2.4000e+000 81133 -3.2305e+001 -1.1933e+002  7.2315e+000 51891 81179,80908,81012
 2.4000e+000 81110 -5.4014e+001 -1.3077e+002  1.2044e+001 51891 80882,81012,80908
 2.4000e+000 81087 -2.3156e+001 -2.0153e+002  2.1295e+001 51891 80908,80960,80934
 2.4000e+000 81064 -5.9668e+000 -1.6040e+001  8.7158e+000 51891 80882,81038,81012
 2.4000e+000 81205 -1.1479e+001 -1.2280e+002  2.4207e+001 51891 80986,80960,81179
 2.4000e+000 81228 -2.1330e+001 -1.1625e+002  3.3572e-001 51891 80986,81179,81012
 2.4000e+000 81606 -1.8034e+001 -2.3254e+002 -7.9637e+001 51544 81410,81462,81436
 2.4000e+000 81583 -6.3022e+000 -1.2617e+002 -2.8923e+001 51544 81384,81462,81410
 2.4000e+000 81560 -2.8507e+001 -1.3611e+002 -3.6495e+001 51544 81358,81462,81384
 2.4000e+000 81537  2.1975e+001 -1.1677e+002 -3.4540e+001 51544 81358,81488,81462
 2.4000e+000 81514  5.5095e+001  3.1689e+001 -2.4844e+001 51544 81332,81488,81358
 2.4000e+000 81854  6.1269e+001 -1.0372e+002  4.9712e+000 51004 81877,81655,81629
 2.4000e+000 81831  4.3757e+001 -9.5718e+001  6.8484e+000 51004 81877,81629,81759
 2.4000e+000 81808  2.4186e+001 -3.9679e+001  4.6708e+001 51004 81655,81707,81681
 2.4000e+000 81785 -1.9070e+001 -1.6674e+002  9.0022e+000 51004 81707,81759,81733
 2.4000e+000 81903  4.5669e+001 -9.6692e+001 -2.0530e+000 51004 81707,81655,81877
 2.4000e+000 81926  1.7599e+001 -1.0027e+002 -5.2628e+000 51004 81707,81877,81759
 2.4000e+000 82257  2.4032e-001 -4.2941e+001 -2.3292e+001 50642 82058,82136,82110
 2.4000e+000 82234 -3.0084e+001 -6.9498e+001 -1.2072e+001 50642 82058,82162,82136
 2.4000e+000 82211 -3.7410e+001 -1.0411e+002  1.7377e+001 50642 82058,82110,82084
 2.4000e+000 82188 -2.8856e+001 -6.8213e+001 -2.2157e+001 50642 82032,82162,82058
 2.4000e+000 82684  2.8952e+001 -1.1743e+002 -5.8591e+000 49931 82779,82707,82465
 2.4000e+000 82661  2.3887e+000 -1.5615e+002  1.5264e+001 49931 82707,82413,82361
 2.4000e+000 82638  1.8148e+001 -1.0061e+002 -6.1888e+001 49931 82779,82465,82439
 2.4000e+000 82615 -2.2224e+001 -1.6884e+002  2.4533e+001 49931 82465,82543,82491
 2.4000e+000 82592  1.7151e+001 -9.8490e+001  5.4565e+000 49931 82361,82413,82387
 2.4000e+000 82569  4.9391e+001 -1.2192e+002 -4.3467e+000 49931 82491,82543,82517
 2.4000e+000 82733 -9.3845e+000 -1.3807e+002  5.4967e+000 49931 82543,82465,82707
 2.4000e+000 82756  6.4403e+000 -9.8032e+001  1.5693e+001 49931 82543,82707,82361
 2.4000e+000 82805 -4.5011e+000 -1.9506e+002 -8.2330e+000 49931 82413,82707,82779
 2.4000e+000 82828 -1.1106e+001 -1.6959e+002 -6.1001e+001 49931 82413,82779,82439
 2.4000e+000 83255 -6.0040e+001 -2.3031e+002 -1.4289e+001 49327 82984,83114,83036
 2.4000e+000 83232 -6.0623e+001 -2.2805e+002 -4.1776e+001 49327 82958,83114,82984
 2.4000e+000 83209  1.5903e+001 -2.3926e+002 -1.7180e+001 49327 83036,83114,83088
 2.4000e+000 83186 -6.6452e+001 -1.8241e+002  1.7135e+001 49327 82984,83036,83010
 2.4000e+000 83163 -2.5827e+001 -2.2639e+002 -4.3056e+001 49327 82932,83114,82958
 2.4000e+000 83140 -7.1196e+001 -4.3937e+002  7.4674e+000 49327 83036,83088,83062
 2.4000e+000 83938 -5.5130e+001 -2.6748e+002  4.2117e+001 48965 83961,83673,83647
 2.4000e+000 83915  1.5823e+000 -1.2622e+002  3.1458e+001 48965 83961,83647,83543
 2.4000e+000 83892 -5.1003e+001 -1.4237e+002 -5.7072e+001 48965 83517,83725,83543
 2.4000e+000 83869 -2.6981e+001 -1.7138e+002 -4.6469e+001 48965 83673,83725,83699
 2.4000e+000 83846 -3.3359e+001 -8.5861e+001 -1.6024e+001 48965 83543,83647,83621
 2.4000e+000 83823 -1.5400e+001 -9.2355e+001 -2.3761e+001 48965 83543,83621,83569
 2.4000e+000 83800 -9.6452e+000 -1.0977e+002 -5.0956e+000 48965 83517,83751,83725
 2.4000e+000 83777 -2.4123e+000 -7.2266e+001  1.2318e+001 48965 83569,83621,83595
 2.4000e+000 83987 -1.8043e+001 -2.3244e+002 -4.7720e+001 48965 83725,83673,83961
 2.4000e+000 84010  3.1231e+000 -1.8244e+002 -4.0894e+001 48965 83725,83961,83543
 2.4000e+000 84258 -3.0746e+001 -2.0998e+002  4.5382e+001 48447 84281,84059,84033
 2.4000e+000 84235 -1.0280e+001 -1.5708e+002  2.2752e+001 48447 84281,84033,84163
 2.4000e+000 84212  3.2166e+001 -2.0500e+002  5.6750e+000 48447 84059,84111,84085
 2.4000e+000 84189  6.4628e+000 -1.5255e+002 -2.0550e+001 48447 84111,84163,84137
 2.4000e+000 84307 -7.5375e+000 -2.0084e+002  6.6171e+000 48447 84111,84059,84281
 2.4000e+000 84330  1.7363e+001 -1.6693e+002 -1.5822e+001 48447 84111,84281,84163
 2.4000e+000 84529  2.4770e+001 -1.1862e+002 -1.3769e+001 47993 84552,84405,84379
 2.4000e+000 84506 -2.3289e+001 -1.3566e+002 -1.2956e+001 47993 84552,84379,84353
 2.4000e+000 84483  3.6560e+001 -1.2160e+002 -1.8912e+001 47993 84624,84457,84431
 2.4000e+000 84578  2.2903e+001 -1.3212e+002 -1.6929e+001 47993 84431,84405,84552
 2.4000e+000 84601  2.7346e+001 -1.2947e+002 -1.5171e+001 47993 84624,84431,84552
 2.4000e+000 84650  2.8390e+001 -1.1429e+002 -2.5689e+001 47993 84353,84457,84624
 2.4000e+000 84673  2.0971e+001 -1.1764e+002 -2.2564e+001 47993 84353,84624,84552
 2.4000e+000 85104 -4.7137e+001 -1.8660e+002 -2.2910e+001 47588 85199,85127,84885
 2.4000e+000 85081 -2.5547e+001 -1.8540e+002 -3.1468e+001 47588 85127,84781,84963
 2.4000e+000 85058 -6.7548e+001 -1.8235e+002  3.6731e-001 47588 85199,84885,84807
 2.4000e+000 85035 -1.8582e+001 -1.5186e+002  7.1813e+001 47588 84885,84937,84911
 2.4000e+000 85012 -6.3472e+001 -1.3439e+002 -1.3930e+001 47588 84807,84885,84833
 2.4000e+000 84989 -4.0626e+001 -1.2434e+002 -7.7238e+000 47588 84833,84885,84859
 2.4000e+000 85153 -3.5704e+001 -2.4850e+002  6.6055e+000 47588 84937,84885,85127
 2.4000e+000 85176  6.8104e+001 -2.0326e+002 -7.0789e+000 47588 84937,85127,84963
 2.4000e+000 85225 -8.5589e+001 -2.0072e+002 -2.1325e+001 47588 84781,85127,85199
 2.4000e+000 85248 -9.8623e+001 -1.9567e+002  5.0479e+000 47588 84781,85199,84807
 2.4000e+000 85518 -3.4282e+001 -1.8572e+002  8.0928e+000 47226 85293,85397,85319
 2.4000e+000 85495 -6.7631e+001 -1.9340e+002  4.6722e+000 47226 85293,85423,85397
 2.4000e+000 85472 -7.9990e+001 -2.0908e+002 -2.5799e+000 47226 85319,85397,85345
 2.4000e+000 85449 -4.0643e+001 -1.8102e+002  1.9483e+001 47226 85345,85397,85371
 2.4000e+000 85849 -4.8833e+000 -1.4516e+002  2.5886e+001 46572 85624,85702,85650
 2.4000e+000 85826 -2.0015e+000 -2.0242e+002 -1.3592e+001 46572 85624,85754,85702
 2.4000e+000 85803  1.8610e+001 -1.3272e+002  4.1549e+000 46572 85702,85754,85728
 2.4000e+000 85780 -1.0757e+001 -1.4627e+002  2.2011e+001 46572 85650,85702,85676
 2.4000e+000 86070 -1.2775e+002 -2.2830e+002 -5.9565e+000 46374 85920,85972,85946
 2.4000e+000 86047 -1.0761e+002 -1.7987e+002  1.0743e+000 46374 85920,85998,85972
 2.4000e+000 86024 -4.0964e+001 -1.4812e+002  4.4023e+001 46374 85894,85998,85920
 2.4000e+000 86401  2.0573e+001 -1.2202e+002 -4.4485e+000 46034 86424,86280,86228
 2.4000e+000 86378  2.1168e+001 -1.3454e+002 -8.1464e+000 46034 86424,86228,86176
 2.4000e+000 86355  1.7631e+000 -1.5718e+002 -2.9574e+001 46034 86176,86228,86202
 2.4000e+000 86332  2.4659e+001 -1.2027e+002 -1.9764e+001 46034 86228,86280,86254
 2.4000e+000 86450  2.5640e+001 -1.3578e+002 -3.5364e+000 46034 86306,86280,86424
 2.4000e+000 86473  2.4005e+001 -1.4813e+002 -1.0357e+001 46034 86306,86424,86176
 2.4000e+000 87058  3.0506e+000 -1.2522e+002  3.4165e+000 45516 86813,86917,86865
 2.4000e+000 87035 -1.9521e+001 -1.7683e+002  6.5935e+000 45516 86787,86917,86813
 2.4000e+000 87012 -2.0583e+001 -2.0559e+002  9.0649e+000 45516 86735,86917,86787
 2.4000e+000 86989  4.7570e+000 -1.1302e+002 -1.7150e+000 45516 86865,86917,86891
 2.4000e+000 86966  8.7723e+000 -1.1743e+002  6.0267e+000 45516 86813,86865,86839
 2.4000e+000 86943  4.5112e+000 -2.1114e+002 -2.0228e+001 45516 86735,86787,86761
 2.4000e+000 87208 -2.4503e+000 -1.1454e+002  4.2176e+000 45226 87231,87133,87107
 2.4000e+000 87185 -1.0293e+001 -1.3901e+002  1.1577e+001 45226 87081,87159,87133
 2.4000e+000 87257  3.3557e+001 -5.2586e+001 -1.2063e+001 45226 87081,87133,87231
 2.4000e+000 87537  2.5234e+001 -1.8664e+002  4.5708e+001 44772 87387,87439,87413
 2.4000e+000 87514 -5.9526e+001 -2.0184e+002  1.2849e+001 44772 87361,87439,87387
 2.4000e+000 87491 -2.8896e+001 -1.7816e+002  1.6856e+000 44772 87361,87465,87439
 2.4000e+000 87996 -3.9240e+001 -1.2280e+002  1.0945e+001 44425 87748,87878,87852
 2.4000e+000 87973  5.3067e+001 -8.2971e+001  5.3693e+000 44425 87722,87878,87748
 2.4000e+000 87950 -4.8412e+000 -1.2168e+002 -3.6702e+000 44425 87800,87852,87826
 2.4000e+000 87927 -2.9395e+001 -1.1893e+002  8.6585e+000 44425 87748,87852,87800
 2.4000e+000 87904 -2.0873e+001 -1.7589e+002  2.7946e+001 44425 87748,87800,87774
 2.4000e+000 88423  1.6707e+001 -1.3815e+002 -6.9269e+000 44078 88590,88230,88204
 2.4000e+000 88400  2.1496e+000 -1.3549e+002  9.7521e+000 44078 88518,88446,88204
 2.4000e+000 88377  2.8697e+000 -1.3804e+002 -1.8993e+001 44078 88446,88126,88282
 2.4000e+000 88354  9.9549e+000 -1.3695e+002  1.1111e+001 44078 88518,88204,88178
 2.4000e+000 88331  3.0744e+000 -1.5337e+002 -1.7773e+001 44078 88100,88282,88126
 2.4000e+000 88308  2.4339e+000 -1.4583e+002  7.2241e+001 44078 88126,88178,88152
 2.4000e+000 88472  1.4226e+001 -1.4543e+002 -1.6908e+000 44078 88590,88204,88446
 2.4000e+000 88495 -1.0520e+001 -1.9506e+002 -3.1321e+001 44078 88256,88446,88282
 2.4000e+000 88544  9.5390e+000 -1.3299e+002  1.3260e+001 44078 88126,88446,88518
 2.4000e+000 88567  1.5733e+001 -1.3696e+002  1.3206e+001 44078 88126,88518,88178
 2.4000e+000 88616 -7.3136e+001 -2.7011e+002 -4.6444e+001 44078 88256,88230,88590
 2.4000e+000 88639  8.4623e+000 -1.4528e+002 -1.0363e+001 44078 88256,88590,88446
 2.4000e+000 89039 -2.1517e-001 -9.7268e+001 -1.7061e+000 43716 88791,88921,88895
 2.4000e+000 89016 -5.2672e+000 -6.8848e+001  3.2134e+000 43716 88765,88921,88791
 2.4000e+000 88993 -1.0911e+001 -1.1105e+002  8.2181e+000 43716 88817,88895,88869
 2.4000e+000 88970 -4.9607e+001 -1.2178e+002  6.2739e+000 43716 88791,88895,88817
 2.4000e+000 88947  4.2051e+001 -7.2658e+001 -1.2196e+001 43716 88817,88869,88843
 2.4000e+000 89496  1.1448e+001 -1.7434e+002 -1.4818e+001 43162 89519,89274,89248
 2.4000e+000 89473  1.4087e+001 -1.6578e+002 -1.2797e+001 43162 89519,89248,89222
 2.4000e+000 89450 -4.2300e+000 -1.5634e+002 -6.6907e+001 43162 89326,89378,89352
 2.4000e+000 89427 -1.1347e+001 -2.0907e+002 -2.2555e+001 43162 89274,89378,89326
 2.4000e+000 89404  3.1710e+001 -1.2582e+002  2.8048e+000 43162 89274,89326,89300
 2.4000e+000 89545  1.0082e+001 -1.6587e+002 -1.2105e+001 43162 89378,89274,89519
 2.4000e+000 89568  1.3325e+001 -1.5660e+002 -9.9275e+000 43162 89378,89519,89222
 2.4000e+000 89946  1.3814e+001 -1.6216e+002 -3.3207e+001 42594 90041,89969,89750
 2.4000e+000 89923  5.3293e+001 -1.2162e+002 -4.1432e+001 42594 89969,89698,89828
 2.4000e+000 89900  2.6583e+001 -1.7165e+002 -2.9212e+001 42594 90041,89750,89724
 2.4000e+000 89877 -2.6669e+001 -1.4796e+002 -2.9331e+001 42594 89750,89802,89776
 2.4000e+000 89854  7.8351e+001  1.1606e+001 -4.0667e+001 42594 89672,89828,89698
 2.4000e+000 89995 -1.1763e+001 -1.3823e+002 -1.3425e+001 42594 89802,89750,89969
 2.4000e+000 90018  4.1311e+001 -1.1723e+002 -9.2700e+000 42594 89802,89969,89828
 2.4000e+000 90067  2.3243e+001 -1.3387e+002 -2.8365e+001 42594 89698,89969,90041
 2.4000e+000 90090  2.3434e+001 -1.6100e+002 -2.2452e+001 42594 89698,90041,89724
 2.4000e+000 90517 -6.7850e+001 -2.4105e+002  3.4051e+000 42140 90540,90220,90194
 2.4000e+000 90494 -3.9828e+001 -2.2039e+002 -8.5660e+000 42140 90540,90194,90376
 2.4000e+000 90471 -5.1313e+001 -2.4523e+002  9.2381e+000 42140 90612,90350,90272
 2.4000e+000 90448 -8.8370e+001 -2.7452e+002 -7.2413e+000 42140 90272,90350,90298
 2.4000e+000 90425 -5.7127e+001 -2.1592e+002 -2.1776e+001 42140 90298,90350,90324
 2.4000e+000 90402 -3.3829e+001 -2.4186e+002  6.9976e+001 42140 90220,90272,90246
 2.4000e+000 90566 -5.2857e+001 -2.4210e+002  7.8917e+000 42140 90272,90220,90540
 2.4000e+000 90589 -5.1527e+001 -2.4585e+002  7.0466e+000 42140 90612,90272,90540
 2.4000e+000 90638 -4.8404e+001 -2.4616e+002  8.0145e+000 42140 90376,90350,90612
 2.4000e+000 90661 -4.4321e+001 -2.4408e+002  5.8346e+000 42140 90376,90612,90540
 2.4000e+000 91167 -1.0491e+001 -1.2430e+002 -3.1640e+001 41636 91190,90870,90844
 2.4000e+000 91144 -1.7402e+001 -2.1024e+002 -2.8312e+001 41636 91190,90844,91026
 2.4000e+000 91121 -4.8016e+001 -1.2444e+002 -5.1304e+001 41636 90870,90922,90896
 2.4000e+000 91098 -4.7624e+001 -1.7618e+002  3.5519e+001 41636 90922,91026,90948
 2.4000e+000 91075  4.9193e+000 -1.2888e+002  5.3033e+000 41636 90948,91026,91000
 2.4000e+000 91052 -5.9542e+000 -1.4470e+002  1.0465e+001 41636 90948,91000,90974
 2.4000e+000 91216 -2.1561e+001 -9.9702e+001 -3.0854e+001 41636 90922,90870,91190
 2.4000e+000 91239  1.1782e+001 -1.3010e+002 -1.6429e+001 41636 90922,91190,91026
 2.4000e+000 91696 -7.5026e+001 -1.5490e+002 -3.2732e+001 40449 91448,91526,91474
 2.4000e+000 91673 -7.7181e+001 -1.6175e+002 -1.9958e+001 40449 91448,91578,91526
 2.4000e+000 91650 -2.1178e+001 -1.3561e+002 -6.5220e+000 40449 91474,91526,91500
 2.4000e+000 91627 -3.8865e+001 -1.4510e+002 -1.4862e+001 40449 91422,91578,91448
 2.4000e+000 91604 -2.2427e+001 -7.2491e+001 -4.8981e+001 40449 91526,91578,91552
 2.4000e+000 92123 -5.0804e+001 -1.5448e+002 -5.4525e+000 39995 92146,91904,91826
 2.4000e+000 92100 -3.2679e+001 -1.5025e+002 -2.8841e+001 39995 92146,91826,91800
 2.4000e+000 92077 -6.4041e+001 -1.6121e+002 -2.1099e+000 39995 91826,91904,91852
 2.4000e+000 92054 -7.6607e+001 -2.6945e+002  7.7574e+000 39995 91904,91982,91930
 2.4000e+000 92031 -3.3003e+001 -1.4817e+002 -1.5625e+000 39995 91852,91904,91878
 2.4000e+000 92008 -1.1361e+000 -1.7191e+002 -2.7454e+001 39995 91930,91982,91956
 2.4000e+000 92172 -5.5138e+001 -1.6708e+002 -5.2251e+000 39995 91982,91904,92146
 2.4000e+000 92195 -5.1376e+001 -1.9152e+002 -2.3177e+001 39995 91982,92146,91800
 2.4000e+000 92652 -5.5695e-001 -6.7026e+001  1.9935e+001 39633 92404,92534,92456
 2.4000e+000 92629 -1.7972e+001 -1.0568e+002  1.0991e+001 39633 92378,92534,92404
 2.4000e+000 92606 -9.6667e+000 -7.2132e+001  1.1060e+001 39633 92404,92456,92430
 2.4000e+000 92583 -3.9787e+001 -2.0204e+002  1.8992e+001 39633 92456,92534,92508
 2.4000e+000 92560  8.5281e+000 -8.3450e+001  3.7198e+001 39633 92456,92508,92482
 2.4000e+000 93079 -7.7486e-001 -1.2349e+002 -2.4750e+001 39093 93102,92808,92756
 2.4000e+000 93056  9.2846e+000 -7.8477e+001 -5.9796e+001 39093 93102,92756,92938
 2.4000e+000 93033 -2.2970e+001 -1.7823e+002 -1.6286e+001 39093 93174,92912,92834
 2.4000e+000 93010 -9.7041e+001 -1.9959e+002 -2.4059e+001 39093 92834,92912,92860
 2.4000e+000 92987  4.7143e+001 -1.1977e+002 -6.7204e+001 39093 92756,92808,92782
 2.4000e+000 92964 -6.8823e+001 -1.9147e+002 -8.5375e+001 39093 92860,92912,92886
 2.4000e+000 93128  9.7003e+000 -1.4023e+002 -2.2863e+001 39093 92834,92808,93102
 2.4000e+000 93151 -5.2504e+000 -1.3512e+002 -1.8650e+001 39093 93174,92834,93102
 2.4000e+000 93200 -1.6504e+001 -1.6393e+002 -4.7808e+001 39093 92938,92912,93174
 2.4000e+000 93223 -4.6904e+000 -1.4293e+002 -5.2720e+001 39093 92938,93174,93102
 2.4000e+000 93680  4.5858e+000 -5.1794e+001 -1.7399e+001 38639 93703,93536,93484
 2.4000e+000 93657 -8.1871e+000 -6.1484e+001 -1.2565e+001 38639 93703,93484,93432
 2.4000e+000 93634 -4.7593e+000 -7.5112e+001  4.8009e+000 38639 93432,93484,93458
 2.4000e+000 93611 -2.6628e+001 -1.2131e+002 -7.0424e+000 38639 93484,93536,93510
 2.4000e+000 93588 -3.3918e+001 -2.2012e+001  4.8501e+000 38639 93406,93562,93432
 2.4000e+000 93729 -1.0521e+001 -1.5351e+001 -1.5638e+001 38639 93562,93536,93703
 2.4000e+000 93752 -4.8779e+001 -5.4880e+001  3.6062e-002 38639 93562,93703,93432
 2.4000e+000 94160  1.8716e+001 -7.3382e+001 -2.0576e+001 38292 93935,94039,93961
 2.4000e+000 94137  2.2657e+001 -9.4853e+001  2.2215e+001 38292 93935,94065,94039
 2.4000e+000 94114 -1.1499e+002 -1.0947e+002 -2.9885e+001 38292 93961,94013,93987
 2.4000e+000 94091 -5.0114e+001 -8.5290e+001  3.3329e+000 38292 93961,94039,94013
 2.4000e+000 94408  3.7705e+001 -1.3762e+002 -4.3913e+000 37880 94431,94261,94235
 2.4000e+000 94385  3.4828e+001 -1.1876e+002 -6.0104e+000 37880 94431,94235,94313
 2.4000e+000 94362  1.4005e+001 -1.1323e+002  2.5285e+001 37880 94209,94313,94235
 2.4000e+000 94339  6.2255e+000 -1.1514e+002 -3.2908e+000 37880 94183,94313,94209
 2.4000e+000 94457  4.5175e+001 -1.2096e+002 -1.0347e+001 37880 94287,94261,94431
 2.4000e+000 94480  3.3926e+001 -1.1013e+002 -8.2822e+000 37880 94287,94431,94313
 2.4000e+000 94728 -6.8427e+001 -1.9042e+002  1.1634e+001 37426 94529,94607,94555
 2.4000e+000 94705 -4.6762e+001 -2.4159e+002 -8.1829e-001 37426 94529,94633,94607
 2.4000e+000 94682  4.5646e+001 -2.3938e+002  9.6489e-002 37426 94503,94633,94529
 2.4000e+000 94659 -2.8283e+001 -7.3467e+001 -4.4533e+001 37426 94555,94607,94581
 2.4000e+000 95257  2.7392e+001 -1.2551e+002 -2.6755e+001 36722 95496,95280,94862
 2.4000e+000 95234  1.2764e+001 -1.2903e+002 -8.1648e+000 36722 95496,94862,94836
 2.4000e+000 95211  6.4833e+001 -1.3368e+002 -4.8080e+000 36722 95352,95280,95070
 2.4000e+000 95188  3.3988e+001 -1.4074e+002  2.7783e+001 36722 95352,95070,95044
 2.4000e+000 95165  1.7355e+000 -1.3373e+002 -3.6895e+001 36722 95424,94888,94862
 2.4000e+000 95142  3.9989e+001 -6.8104e+001  3.8323e+001 36722 94914,94966,94940
 2.4000e+000 95119 -4.9396e+001 -2.3908e+002  5.6851e+001 36722 94966,95044,95018
 2.4000e+000 95096 -4.3463e+001 -1.9742e+002  4.4042e+001 36722 94966,95018,94992
 2.4000e+000 95306 -1.5406e+001 -1.3131e+002 -2.8769e+001 36722 95424,94862,95280
 2.4000e+000 95329  6.0967e+000 -1.0835e+002 -4.9607e+000 36722 94914,95280,94966
 2.4000e+000 95378  7.3765e+000 -1.4763e+002  8.8087e+000 36722 94966,95280,95352
 2.4000e+000 95401 -1.7038e+001 -1.3656e+002  3.1911e+001 36722 94966,95352,95044
 2.4000e+000 95450 -2.3975e+001 -1.4184e+002 -3.7097e+001 36722 94914,94888,95424
 2.4000e+000 95473 -2.7265e+001 -1.3742e+002 -3.0977e+001 36722 94914,95424,95280
 2.4000e+000 95522  3.0614e+001 -1.1611e+002 -2.8231e+001 36722 95070,95280,95496
 2.4000e+000 95545  2.6052e+001 -1.1158e+002 -2.4950e+001 36722 95070,95496,94836
 2.4000e+000 96130 -1.4527e+001 -4.7263e+001  1.5496e+001 36268 96153,95911,95859
 2.4000e+000 96107 -2.6376e+001 -9.5663e+001  9.9562e+000 36268 96153,95859,95807
 2.4000e+000 96084 -1.1383e+001 -7.4465e+001 -4.8469e+000 36268 95807,95859,95833
 2.4000e+000 96061 -1.4456e+001 -1.8827e+002  2.2585e+001 36268 95911,95989,95937
 2.4000e+000 96038 -1.3426e+001 -5.0239e+001 -4.7330e-001 36268 95859,95911,95885
 2.4000e+000 96015 -5.6942e+001 -1.1814e+002 -2.5207e+001 36268 95937,95989,95963
 2.4000e+000 96179  1.5635e+001 -9.2273e+001  2.7015e+001 36268 95989,95911,96153
 2.4000e+000 96202 -6.3800e+000 -1.5540e+002  1.9051e+001 36268 95989,96153,95807
 2.4000e+000 96531 -1.1540e+001 -2.0251e+002  2.1092e+001 35728 96358,96410,96384
 2.4000e+000 96508 -4.8423e+001 -1.8483e+002  9.5911e+000 35728 96332,96410,96358
 2.4000e+000 96485 -3.3446e+001 -1.5713e+002  2.8649e+000 35728 96332,96436,96410
 2.4000e+000 96462  3.6872e+001 -1.0289e+002 -2.8414e+001 35728 96306,96436,96332
 2.4000e+000 96860  4.5236e+000 -1.2113e+002 -2.7611e+001 35324 96687,96765,96713
 2.4000e+000 96837 -3.4970e+001 -2.0622e+002 -1.0024e+001 35324 96661,96765,96687
 2.4000e+000 96814 -4.6904e+001 -1.5652e+002 -1.2159e+001 35324 96713,96765,96739
 2.4000e+000 96791 -6.0783e+001 -2.6017e+002 -2.8181e+001 35324 96635,96765,96661
 2.4000e+000 97366 -7.1274e+001 -2.1607e+002  1.5269e+001 34920 97389,97069,97043
 2.4000e+000 97343 -6.6655e+001 -1.9129e+002  1.0479e+001 34920 97389,97043,97199
 2.4000e+000 97320 -3.6996e+001 -2.0022e+002 -1.3780e+001 34920 97043,97225,97199
 2.4000e+000 97297 -4.3415e+001 -2.3585e+002 -1.7724e+001 34920 97069,97121,97095
 2.4000e+000 97274 -7.2196e+001 -1.5522e+002 -1.9706e+001 34920 97121,97199,97173
 2.4000e+000 97251 -7.2203e+001 -1.1227e+002 -5.2797e+001 34920 97121,97173,97147
 2.4000e+000 97415 -8.1275e+001 -2.1343e+002 -1.6684e+001 34920 97121,97069,97389
 2.4000e+000 97438 -5.9856e+001 -1.5913e+002 -2.1774e+001 34920 97121,97389,97199
 2.4000e+000 97708 -3.7052e+001 -1.6542e+002 -4.2934e+000 34722 97509,97587,97535
 2.4000e+000 97685 -1.9491e+001 -1.6227e+002 -8.3944e+000 34722 97509,97613,97587
 2.4000e+000 97662 -5.3201e+001 -1.7771e+002 -1.2062e+001 34722 97483,97613,97509
 2.4000e+000 97639 -2.2790e+001 -1.4203e+002  2.8813e+001 34722 97535,97587,97561
 2.4000e+000 98216 -1.8796e+001 -2.5289e+002 -1.0581e+001 34318 97971,98075,97997
 2.4000e+000 98193  3.1646e+001 -1.9564e+002  3.1146e+001 34318 97893,98075,97971
 2.4000e+000 98170  5.5794e+001 -1.5847e+002  2.0732e+001 34318 97893,97971,97919
 2.4000e+000 98147 -3.7175e+001 -1.5532e+002  3.5810e+001 34318 97997,98075,98049
 2.4000e+000 98124  3.2279e+001 -1.1643e+002 -1.9376e+000 34318 97919,97971,97945
 2.4000e+000 98101 -6.2030e+001 -2.0494e+002  5.6351e+001 34318 97997,98049,98023
 2.4000e+000 98594  1.9668e+001 -1.0699e+002 -9.8444e+000 33814 98961,98617,98424
 2.4000e+000 98571  2.9199e+000 -1.2890e+002 -7.0263e+000 33814 98689,98617,98372
 2.4000e+000 98548 -1.6957e+001 -8.8452e+001 -4.9749e+000 33814 99033,98689,98372
 2.4000e+000 98525  3.0270e+000 -5.6971e+001  3.9353e+001 33814 98761,98476,98450
 2.4000e+000 98502  2.3854e+001 -1.0823e+002 -8.5958e+000 33814 98961,98424,98398
 2.4000e+000 98643 -5.6172e+000 -1.0347e+002  9.1471e+000 33814 98450,98424,98617
 2.4000e+000 98666  9.8513e+000 -7.8508e+001  1.5970e+001 33814 98761,98450,98617
 2.4000e+000 98715 -3.7630e+001 -1.5306e+002 -8.0624e+000 33814 99161,98689,98320
 2.4000e+000 98738 -6.4334e+001 -1.5276e+002 -2.3382e+000 33814 98320,98689,98346
 2.4000e+000 98787 -5.7278e+001 -1.2257e+002  5.2698e+001 33814 98833,98761,98320
 2.4000e+000 98810 -2.3417e+001 -1.6134e+002  1.3722e+001 33814 99161,98320,98761
 2.4000e+000 98859  2.9265e+000 -2.8842e+001  1.9227e+001 33814 98476,98761,98833
 2.4000e+000 98987  1.2802e+001 -1.0573e+002 -8.3617e+000 33814 98372,98617,98961
 2.4000e+000 99010  1.7096e+001 -1.0679e+002 -6.2067e+000 33814 98372,98961,98398
 2.4000e+000 99059 -5.3061e+001 -1.6202e+002 -2.3593e+001 33814 98346,98689,99033
 2.4000e+000 99187 -2.1494e+001 -1.2251e+002  1.7667e-002 33814 98617,98689,99161
 2.4000e+000 99210 -5.2514e+000 -1.3324e+002  2.2405e+001 33814 98617,99161,98761
 2.4000e+000 99588 -3.1318e+001 -1.2556e+002 -1.5898e+001 33566 99366,99444,99392
 2.4000e+000 99565 -7.8755e+000 -1.0158e+002 -6.4166e+000 33566 99314,99444,99366
 2.4000e+000 99542 -3.3176e+001 -1.3680e+002  9.2671e+000 33566 99314,99366,99340
 2.4000e+000 99519 -9.0430e+000 -1.1574e+002  1.2968e+001 33566 99314,99470,99444
 2.4000e+000 99496  1.3651e+000 -8.2320e+001 -3.5131e+001 33566 99392,99444,99418
 2.4000e+000 99787 -3.7877e+001 -1.9889e+002  1.0454e+001 33105 99637,99689,99663
 2.4000e+000 99764 -2.5948e+001 -1.8809e+002  2.4953e-002 33105 99611,99689,99637
 2.4000e+000 99741 -9.8267e+000 -1.0306e+002  4.8348e+000 33105 99611,99715,99689
 2.4000e+000 100167 -7.0445e+001 -1.5228e+002  4.1512e+001 32651 100190,99971,99919
 2.4000e+000 100144 -4.5461e+000 -1.1291e+002  1.9595e+001 32651 100262,100190,99919
 2.4000e+000 100121 -4.0271e+000 -1.1067e+002  1.7170e+001 32651 100262,99919,100049
 2.4000e+000 100098 -1.1699e+001 -1.1263e+002 -1.9916e+001 32651 99893,100049,99919
 2.4000e+000 100075  1.1146e+000 -1.2315e+002  8.4403e+001 32651 99919,99971,99945
 2.4000e+000 100216 -1.7261e+000 -1.4613e+002  1.6779e+001 32651 99997,99971,100190
 2.4000e+000 100239  1.6309e+001 -1.3698e+002 -5.7370e-001 32651 99997,100190,100023
 2.4000e+000 100288  3.8648e+000 -1.2976e+002  1.9048e+001 32651 100023,100190,100262
 2.4000e+000 100311  2.6131e+001 -1.1435e+002  8.3433e+000 32651 100023,100262,100049
 2.4000e+000 100608 -3.5506e+001 -1.6823e+002  2.3853e+000 32254 100386,100490,100464
 2.4000e+000 100585 -5.9057e+001 -1.8419e+002 -1.4539e+001 32254 100360,100490,100386
 2.4000e+000 100562 -4.3649e+001 -1.7881e+002 -3.0900e+000 32254 100386,100464,100412
 2.4000e+000 100539  1.2174e+001 -1.4580e+002  5.1262e+000 32254 100334,100490,100360
 2.4000e+000 100516 -4.0141e+001 -1.1752e+002 -1.2877e+001 32254 100412,100464,100438
 2.4000e+000 100758  3.8342e+001 -1.2985e+000  3.2681e+001 31914 100985,100781,100683
 2.4000e+000 100735  1.8860e+001 -4.2899e+001 -4.3222e+000 31914 100853,100781,100657
 2.4000e+000 100807  4.2725e+001 -3.2598e+001  2.1769e+001 31914 100709,100683,100781
 2.4000e+000 100830  7.2274e+000 -6.0529e+001 -2.4263e+001 31914 100709,100781,100631
 2.4000e+000 100879  4.4356e+001  2.1939e+001 -1.6490e+001 31914 100631,100781,100853
 2.4000e+000 101011  1.1574e+000 -3.9304e+001  1.3267e+001 31914 100657,100781,100985
 2.4000e+000 101191 -1.0417e+000 -1.3936e+002  1.1317e+001 31418 101113,101165,101139
 2.4000e+000 101341 -5.3955e+001 -1.6735e+002 -9.2214e+000 31106 101214,101266,101240
 2.4000e+000 101318 -3.7055e+001 -1.2010e+002 -4.1572e+000 31106 101214,101292,101266
 2.4000e+000 101591 -5.8963e+001 -1.6190e+002  3.8579e+001 30552 101614,101470,101444
 2.4000e+000 101568  1.1790e+001 -1.4887e+002  4.7807e+001 30552 101366,101496,101470
 2.4000e+000 101545 -6.9436e+001 -1.6732e+002  4.7070e+001 30552 101614,101444,101392
 2.4000e+000 101522 -8.3315e+000 -1.5015e+002  4.5750e+001 30552 101392,101444,101418
 2.4000e+000 101640 -7.3737e+001 -1.5977e+002  4.5207e+001 30552 101366,101470,101614
 2.4000e+000 101663 -8.2787e+001 -1.6397e+002  5.3585e+001 30552 101366,101614,101392
 2.4000e+000 102301 -2.7923e+001 -1.6700e+002  1.8506e+001 30042 102396,102324,102059
 2.4000e+000 102278 -5.5170e+001 -1.4117e+002  4.9911e+000 30042 102324,101981,101955
 2.4000e+000 102255 -3.7399e+001 -1.5269e+002  3.7727e+001 30042 102396,102059,102033
 2.4000e+000 102232 -3.0447e+001 -1.1303e+002  4.0393e-001 30042 101929,102111,101955
 2.4000e+000 102209  1.2590e+000 -1.7752e+002 -1.8988e+001 30042 102059,102111,102085
 2.4000e+000 102186 -3.3855e+001 -1.1477e+002  1.1415e+000 30042 101929,102137,102111
 2.4000e+000 102163 -1.8707e+000 -7.1311e+001 -1.1965e+001 30042 101981,102033,102007
 2.4000e+000 102350 -3.4607e+001 -1.6090e+002 -2.6590e+000 30042 102111,102059,102324
 2.4000e+000 102373 -2.3490e+001 -1.2310e+002 -4.6685e+000 30042 102111,102324,101955
 2.4000e+000 102422 -1.9256e+001 -1.2076e+002  1.7116e+001 30042 101981,102324,102396
 2.4000e+000 102445 -2.7846e+001 -1.0599e+002  3.6983e+001 30042 101981,102396,102033
 2.4000e+000 103000  2.7993e+000 -1.8388e+002 -2.6716e+000 29730 103023,102706,102654
 2.4000e+000 102977 -3.6114e+001 -1.7362e+002 -2.5265e+001 29730 103023,102654,102810
 2.4000e+000 102954 -9.5241e+001 -2.9466e+002 -2.1224e+001 29730 102732,102810,102784
 2.4000e+000 102931 -8.1307e+001 -1.9915e+002 -3.8136e+001 29730 102628,102810,102654
 2.4000e+000 102908 -9.8013e+000 -1.4172e+002  1.6375e+001 29730 102654,102706,102680
 2.4000e+000 102885 -5.1772e+001 -1.8399e+002 -2.5397e+001 29730 102732,102784,102758
 2.4000e+000 102862 -6.0768e+001 -1.8423e+002 -5.9711e+001 29730 102628,102836,102810
 2.4000e+000 103049 -2.3728e+001 -2.1915e+002 -1.7204e+001 29730 102732,102706,103023
 2.4000e+000 103072 -4.6588e+001 -1.8598e+002 -3.5009e+001 29730 102732,103023,102810
 2.4000e+000 103222  1.0341e+000 -1.5489e+002 -1.4962e+001 29226 103095,103147,103121
 2.4000e+000 103199 -2.3082e+000 -1.5184e+002 -1.6025e+001 29226 103095,103173,103147
 2.4000e+000 103730 -1.4769e+001 -1.2395e+002 -1.8268e-001 28822 103537,103589,103563
 2.4000e+000 103707 -1.4629e+001 -1.4964e+002 -3.1494e+000 28822 103433,103589,103537
 2.4000e+000 103684 -7.2269e+001 -1.5989e+002 -2.5787e+001 28822 103433,103537,103459
 2.4000e+000 103661 -9.1044e+000 -1.7671e+002 -2.6411e+000 28822 103407,103589,103433
 2.4000e+000 103638 -3.9780e+001 -7.0501e+001 -2.0825e+000 28822 103459,103511,103485
 2.4000e+000 103615 -2.0340e+001 -9.0769e+001  7.3345e+000 28822 103459,103537,103511
 2.4000e+000 103880  1.2971e+001 -1.3173e+002  1.1384e+001 28368 103975,103903,103779
 2.4000e+000 103857  2.6616e+001 -1.4639e+002 -5.9674e+000 28368 103903,103753,103831
 2.4000e+000 103929  1.7343e+001 -1.2611e+002  1.3366e+001 28368 103805,103779,103903
 2.4000e+000 103952  4.7906e+001 -1.5339e+002  5.3234e+000 28368 104105,103903,103831
 2.4000e+000 104001 -3.7627e+000 -1.4390e+002  1.8865e+000 28368 103753,103903,103975
 2.4000e+000 104131  1.1677e+001 -1.5779e+002  2.2540e+001 28368 103805,103903,104105
 2.4000e+000 104539 -1.3288e+001 -9.1125e+001  1.5964e+001 28028 104562,104340,104314
 2.4000e+000 104516 -1.6933e+001 -6.0189e+001  2.4589e+001 28028 104634,104562,104314
 2.4000e+000 104493 -2.0754e+001 -9.1664e+001 -1.5981e+001 28028 104762,104366,104340
 2.4000e+000 104470 -1.8690e+001 -7.4077e+001 -2.3549e+001 28028 104366,104418,104392
 2.4000e+000 104588 -2.3308e+001 -1.0666e+002 -3.0988e+000 28028 104762,104340,104562
 2.4000e+000 104611 -3.3595e+001 -6.6269e+001  2.0216e+000 28028 104418,104562,104444
 2.4000e+000 104660 -5.4491e+001 -7.4041e+001  1.1203e+001 28028 104444,104562,104634
 2.4000e+000 104788 -3.0825e+001 -7.1906e+001 -1.4229e+001 28028 104418,104366,104762
 2.4000e+000 104811 -2.8050e+001 -8.0299e+001 -1.3725e+000 28028 104418,104762,104562
 2.4000e+000 105010 -3.1024e+001 -1.0648e+002 -1.1462e+001 27324 105033,104886,104860
 2.4000e+000 104987  5.2581e+001 -6.3741e+001  1.0544e+001 27324 105033,104860,104834
 2.4000e+000 104964  3.0561e+001 -6.6981e+001  3.2643e+001 27324 105105,104912,104886
 2.4000e+000 105059  5.2153e+000 -6.3381e+001  2.7106e+001 27324 105105,104886,105033
 2.4000e+000 105082  2.4628e+001 -7.4468e+001  3.3968e+001 27324 104938,105033,104834
 2.4000e+000 105131  7.5817e+001 -6.2940e+001  4.4269e+001 27324 104938,104912,105105
 2.4000e+000 105154  4.2819e+001 -7.0320e+001  3.2478e+001 27324 104938,105105,105033
 2.4000e+000 105402 -7.2275e+001 -1.2083e+002 -5.6385e+000 27012 105229,105281,105255
 2.4000e+000 105379 -4.5927e+001 -9.4711e+001 -1.6356e+001 27012 105229,105307,105281
 2.4000e+000 105356 -2.2037e+001 -7.6241e+001 -8.3103e+000 27012 105177,105307,105229
 2.4000e+000 105333 -6.1948e+001 -9.2769e+001 -4.7505e+001 27012 105177,105229,105203
 2.4000e+000 105603  1.8964e+001 -1.9350e+001  2.3195e+001 26508 105626,105453,105427
 2.4000e+000 105580  1.7462e+001 -2.2634e+001  1.9260e+001 26508 105626,105427,105505
 2.4000e+000 105557  3.2629e+000 -1.2496e+001  1.1102e+001 26508 105427,105531,105505
 2.4000e+000 105652  2.1388e+001 -1.8368e+001  2.4548e+001 26508 105479,105453,105626
 2.4000e+000 105675  2.1388e+001 -1.9776e+001  2.0937e+001 26508 105479,105626,105505
 2.4000e+000 106057 -1.8397e+001 -1.2386e+002  6.0239e+001 25947 106080,105887,105861
 2.4000e+000 106034 -8.6928e+000 -1.2447e+002  2.3495e+001 25947 106080,105861,105783
 2.4000e+000 106011 -2.8655e+001 -7.9989e+001  2.1262e+001 25947 105783,105835,105809
 2.4000e+000 105988 -4.3408e+001 -8.8898e+001  2.7059e+001 25947 105783,105861,105835
 2.4000e+000 105965  3.9755e+000 -5.7279e+001  3.2955e+001 25947 105887,105939,105913
 2.4000e+000 106106  1.4238e+000 -1.1413e+002  5.6356e+001 25947 105939,105887,106080
 2.4000e+000 106129  3.7701e+001 -1.0200e+002  1.6587e+001 25947 105939,106080,105783
 2.4000e+000 106714 -4.9360e+001 -8.7482e+001  5.5881e+000 25557 106809,106737,106547
 2.4000e+000 106691 -5.1094e+001 -1.0883e+002  1.1004e+001 25557 106737,106417,106391
 2.4000e+000 106668 -4.3570e+001 -8.0273e+001  2.4132e+000 25557 106809,106547,106495
 2.4000e+000 106645 -6.4959e+001 -1.6133e+002  2.7101e+001 25557 106417,106495,106469
 2.4000e+000 106622 -5.8003e+001 -8.0085e+001  1.0173e+001 25557 106495,106547,106521
 2.4000e+000 106599 -6.6358e+001 -1.3262e+002  2.8673e+001 25557 106417,106469,106443
 2.4000e+000 106763 -6.5532e+001 -1.0540e+002  1.4358e+001 25557 106573,106547,106737
 2.4000e+000 106786 -4.5519e+001 -9.6330e+001  9.7343e+000 25557 106573,106737,106391
 2.4000e+000 106835 -4.1098e+001 -1.0241e+002  7.9714e+000 25557 106417,106737,106809
 2.4000e+000 106858 -3.5514e+001 -9.2934e+001  5.4803e+000 25557 106417,106809,106495
 2.4000e+000 107364 -1.9251e+001 -8.4273e+001 -1.8879e+001 25153 107459,107387,107171
 2.4000e+000 107341 -1.1752e+001 -7.9111e+001 -9.0709e+000 25153 107387,107119,107067
 2.4000e+000 107318 -1.4957e+001 -6.1473e+001  3.1314e+000 25153 107459,107171,107145
 2.4000e+000 107295 -2.6154e+001 -9.4222e+001 -2.9434e+001 25153 107531,107223,107197
 2.4000e+000 107272 -2.0427e+001 -8.0891e+001  1.2845e+001 25153 107067,107119,107093
 2.4000e+000 107249 -2.2708e+001 -8.1656e+001 -1.4519e+001 25153 107041,107223,107067
 2.4000e+000 107413 -4.5827e+001 -9.4193e+001 -1.8181e+001 25153 107197,107171,107387
 2.4000e+000 107436 -1.6510e+001 -9.5377e+001 -2.1857e+001 25153 107531,107197,107387
 2.4000e+000 107485 -5.3946e+000 -4.6335e+001 -1.3668e+000 25153 107119,107387,107459
 2.4000e+000 107508  1.0082e+001 -2.3597e+001  2.3768e+001 25153 107119,107459,107145
 2.4000e+000 107557 -2.9802e+001 -8.5686e+001 -1.7183e+001 25153 107067,107223,107531
 2.4000e+000 107580 -1.5782e+001 -7.9400e+001 -8.9404e+000 25153 107067,107531,107387
 2.4000e+000 107958 -2.7913e+001 -1.2277e+002 -9.5630e+000 24741 107736,107814,107788
 2.4000e+000 107935 -3.5132e+001 -1.4157e+002 -2.6994e+001 24741 107736,107840,107814
 2.4000e+000 107912 -4.9742e+001 -1.3414e+002 -3.5719e+001 24741 107684,107840,107736
 2.4000e+000 107889 -4.0929e+001 -1.0843e+002 -1.3954e+001 24741 107736,107788,107762
 2.4000e+000 107866 -5.8559e+001 -2.0163e+002 -6.7580e+001 24741 107684,107736,107710
 2.4000e+000 108157 -2.1349e+001 -6.1948e+001  1.4617e+001 24237 108180,108059,108007
 2.4000e+000 108134 -1.0132e+001 -4.0725e+001  3.0934e+001 24237 108180,108007,107981
 2.4000e+000 108111  1.0140e+001 -8.4376e+001  1.3994e+001 24237 108007,108059,108033
 2.4000e+000 108206 -1.0755e+001 -4.3205e+001  2.7663e+001 24237 108085,108059,108180
 2.4000e+000 108229 -1.7378e-001 -2.2258e+001  4.3846e+001 24237 108085,108180,107981
 2.4000e+000 108658 -5.6592e+001 -1.2911e+002  1.2977e+001 23776 108361,108413,108387
 2.4000e+000 108635 -1.7485e+000 -1.5105e+002 -1.9940e+001 23776 108753,108681,108361
 2.4000e+000 108612  6.6237e+001 -8.7380e+001 -4.6518e+001 23776 108681,108465,108439
 2.4000e+000 108589  2.1453e+001 -1.5902e+002 -6.2891e+000 23776 108753,108361,108335
 2.4000e+000 108566  1.6867e+001 -1.1587e+002  5.8377e+001 23776 108335,108517,108465
 2.4000e+000 108543  3.5177e+000 -1.5146e+002  5.4284e+001 23776 108465,108517,108491
 2.4000e+000 108707 -5.7518e+001 -1.1058e+002  2.8793e+000 23776 108413,108361,108681
 2.4000e+000 108730  8.0711e+000 -1.0524e+002 -1.2353e+000 23776 108413,108681,108439
 2.4000e+000 108779  2.0439e+001 -1.1073e+002 -1.1201e+001 23776 108465,108681,108753
 2.4000e+000 108802  2.8017e+001 -1.4414e+002 -3.8216e+000 23776 108465,108753,108335
 2.4000e+000 109023  3.9955e+001 -3.8918e+001  1.8829e+001 23414 108873,108925,108899
 2.4000e+000 109000  1.7220e+000 -5.2924e+001  1.7720e+001 23414 108847,108925,108873
 2.4000e+000 108977  3.5408e+001  1.6555e+001  4.7244e+000 23414 108847,108951,108925
 2.4000e+000 109474 -3.0037e+001 -1.1153e+002  1.0007e+001 23024 109151,109307,109177
 2.4000e+000 109451 -2.3680e+001 -8.6933e+001  5.6978e+000 23024 109151,109333,109307
 2.4000e+000 109428 -3.9546e+001 -1.9150e+002 -5.2460e+000 23024 109177,109281,109203
 2.4000e+000 109405 -8.4899e+001 -1.7243e+002 -2.0328e+001 23024 109177,109307,109281
 2.4000e+000 109382 -3.8346e+001 -1.6160e+002  1.3380e+001 23024 109203,109281,109229
 2.4000e+000 109359 -2.7116e+001 -1.1264e+002  1.4671e+001 23024 109229,109281,109255
 2.4000e+000 109820 -2.4821e+001 -1.1794e+002  1.3473e+001 22506 109843,109601,109523
 2.4000e+000 109797 -5.6231e-001 -1.0305e+002  6.8792e+000 22506 109843,109523,109497
 2.4000e+000 109774  3.4595e+000 -1.2599e+002  1.0715e+001 22506 109915,109653,109627
 2.4000e+000 109751 -3.2336e+000 -8.6283e+001  1.7624e+001 22506 109497,109679,109653
 2.4000e+000 109728 -3.7549e+001 -1.5083e+002 -2.3778e+001 22506 109523,109601,109575
 2.4000e+000 109705 -7.7491e+001 -2.0001e+002 -4.1284e+001 22506 109523,109575,109549
 2.4000e+000 109869  2.7788e+000 -1.1161e+002  1.6671e+001 22506 109627,109601,109843
 2.4000e+000 109892  6.8984e+000 -1.1958e+002  1.2801e+001 22506 109915,109627,109843
 2.4000e+000 109941  5.0015e-001 -1.2084e+002  6.8150e+000 22506 109497,109653,109915
 2.4000e+000 109964  9.6981e-001 -1.2021e+002  8.0982e+000 22506 109497,109915,109843
 2.4000e+000 110163 -1.4784e+001 -1.0065e+002  5.8277e+000 21936 110186,110039,110013
 2.4000e+000 110140 -7.6742e+000 -8.4462e+001  1.4757e+001 21936 110390,110186,110013
 2.4000e+000 110117  2.7747e+000 -9.1603e+001  2.4341e+001 21936 110390,110013,109987
 2.4000e+000 110212 -1.8416e+000 -7.8983e+001 -1.6047e+001 21936 110065,110039,110186
 2.4000e+000 110235 -1.6942e+001 -6.4549e+001  3.2986e+000 21936 110258,110186,110091
 2.4000e+000 110284 -6.0257e+001 -1.0090e+002 -1.2250e+001 21936 110065,110186,110258
 2.4000e+000 110416 -3.0534e+001 -8.7330e+001  1.6290e+001 21936 110091,110186,110390
 2.4000e+000 110439 -1.5472e+001 -9.1495e+001  2.4956e+001 21936 110091,110390,109987
 2.4000e+000 110709 -1.9577e+001 -1.2290e+002  3.0833e+000 21338 110510,110614,110588
 2.4000e+000 110686 -4.0152e+001 -1.6184e+002 -7.8149e+000 21338 110484,110614,110510
 2.4000e+000 110663 -1.4295e+001 -6.0166e+001 -5.7341e-001 21338 110510,110562,110536
 2.4000e+000 110640 -4.1837e+001 -1.2548e+002 -3.4532e+000 21338 110510,110588,110562
 2.4000e+000 111296  7.3637e+000 -1.1310e+002  3.3589e+000 20934 111025,111155,111103
 2.4000e+000 111273 -3.9408e+000 -2.2261e+002 -5.0125e+000 20934 110999,111155,111025
 2.4000e+000 111250  6.7794e+001 -8.4369e+001 -9.2283e+000 20934 111103,111155,111129
 2.4000e+000 111227 -2.7579e+001 -1.6239e+002 -2.9663e+001 20934 111051,111103,111077
 2.4000e+000 111204 -4.2378e+001 -1.6821e+002 -1.8153e+001 20934 111025,111103,111051
 2.4000e+000 111181 -2.3911e+001 -2.5684e+002 -1.3650e+001 20934 110973,111155,110999
 2.4000e+000 111930 -6.5033e+001 -9.6934e+001 -2.3175e+001 20494 111662,111714,111688
 2.4000e+000 111907 -2.5608e+001 -8.4433e+001 -1.5367e+001 20494 111584,111714,111662
 2.4000e+000 111884 -2.8930e+001 -8.7772e+001 -1.3872e+001 20494 111584,111766,111714
 2.4000e+000 111861  1.4594e+001 -1.8219e+002  2.9555e+001 20494 111584,111636,111610
 2.4000e+000 111838 -4.2906e+001 -1.2274e+002 -9.8102e+000 20494 111584,111662,111636
 2.4000e+000 111815 -2.4043e+000 -5.8559e+001  1.4623e+001 20494 111558,111766,111584
 2.4000e+000 111792 -3.7341e+001 -9.4491e+001  8.1258e+000 20494 111714,111766,111740
 2.4000e+000 112249 -3.9572e+001 -2.2498e+002  1.7837e+001 19940 111975,112053,112001
 2.4000e+000 112226  1.7843e+000 -1.4527e+002  1.9443e+000 19940 111975,112131,112053
 2.4000e+000 112203  2.6684e+001 -1.9897e+002  0.0000e+000 19940 112053,112105,112079
 2.4000e+000 112180 -2.7571e+001 -2.1111e+002 -3.7901e+000 19940 112053,112131,112105
 2.4000e+000 112157 -2.8777e+000 -1.9274e+002 -2.9634e+000 19940 112001,112053,112027
 2.4000e+000 112757  2.3978e+001 -1.1521e+002 -3.2105e+001 19486 112780,112538,112486
 2.4000e+000 112734  1.8234e+001 -1.2483e+002 -1.1259e+001 19486 112780,112486,112460
 2.4000e+000 112711 -7.1752e+000 -1.0898e+002 -1.1509e+001 19486 112852,112616,112590
 2.4000e+000 112688  1.0714e+002 -1.6497e+002 -4.3202e+001 19486 112486,112538,112512
 2.4000e+000 112665 -4.6496e+001 -1.5644e+002 -1.3023e+001 19486 112434,112616,112460
 2.4000e+000 112642 -4.7539e+000 -1.0184e+002 -2.4878e+001 19486 112538,112590,112564
 2.4000e+000 112806  3.6081e+000 -1.2539e+002 -2.7712e+001 19486 112590,112538,112780
 2.4000e+000 112829  2.0400e+001 -1.1573e+002 -1.7226e+001 19486 112852,112590,112780
 2.4000e+000 112878 -2.5216e+001 -1.1661e+002 -4.0700e+000 19486 112460,112616,112852
 2.4000e+000 112901 -8.9980e+000 -1.3392e+002 -6.9240e+000 19486 112460,112852,112780
 2.4000e+000 113252 -9.3896e+001 -1.8787e+002 -3.8926e+000 19096 113105,113157,113131
 2.4000e+000 113229 -8.1629e+001 -1.4035e+002 -4.9601e-001 19096 113053,113157,113105
 2.4000e+000 113206 -7.2424e+001 -1.3009e+002  6.4635e+000 19096 113027,113157,113053
 2.4000e+000 113183 -1.1865e+002 -2.1364e+002  1.2387e+001 19096 113053,113105,113079
 2.4000e+000 113451  2.7216e+001 -1.3575e+002  9.1524e+000 18642 113327,113379,113353
 2.4000e+000 113428  1.3187e+000 -1.7514e+002 -1.3219e+001 18642 113301,113379,113327
 2.4000e+000 113405 -6.3037e+000 -1.5507e+002 -5.8654e+000 18642 113275,113379,113301
 2.4000e+000 113699  1.7514e+000 -1.6431e+002 -3.1171e+000 18138 113474,113552,113526
 2.4000e+000 113676  2.9874e+001 -1.7112e+002 -1.7436e+001 18138 113474,113578,113552
 2.4000e+000 113653  2.3429e+001 -1.6743e+002 -1.5239e+001 18138 113474,113604,113578
 2.4000e+000 113630  2.9905e+001 -1.4456e+002  1.1642e+001 18138 113474,113526,113500
 2.4000e+000 113851 -1.5534e+001 -1.8732e+002 -2.1319e+000 17682 113750,113802,113776
 2.4000e+000 113828 -7.9799e+000 -1.7701e+002  2.4132e+000 17682 113724,113802,113750
 2.4000e+000 114383 -3.4085e+000 -1.3130e+002 -1.0434e+001 17106 114086,114242,114164
 2.4000e+000 114360 -5.5681e+001 -1.5220e+002  5.1453e+000 17106 114060,114242,114086
 2.4000e+000 114337 -6.8751e+001 -2.4241e+002  2.2476e+001 17106 114086,114164,114138
 2.4000e+000 114314 -6.4095e+001 -3.5238e+002 -1.0637e+001 17106 114190,114242,114216
 2.4000e+000 114291 -4.8852e+001 -2.5902e+002 -2.1543e+001 17106 114164,114242,114190
 2.4000e+000 114268 -3.3428e+001 -2.2940e+002  4.9682e+001 17106 114086,114138,114112
 2.4000e+000 114680 -6.1882e+001 -1.7612e+002  7.8787e+000 16766 114703,114432,114406
 2.4000e+000 114657 -6.5390e+001 -1.7031e+002  3.9692e+000 16766 114703,114406,114510
 2.4000e+000 114634 -6.2081e+001 -1.4038e+002  9.7862e+000 16766 114406,114536,114510
 2.4000e+000 114611 -4.8155e+001 -1.8291e+002 -8.9691e+000 16766 114432,114484,114458
 2.4000e+000 114588 -6.0790e+001 -1.5273e+002  4.2337e+001 16766 114406,114562,114536
 2.4000e+000 114729 -4.7319e+001 -1.7036e+002  6.7216e+000 16766 114484,114432,114703
 2.4000e+000 114752 -6.0671e+001 -1.7069e+002  4.1857e+000 16766 114484,114703,114510
 2.4000e+000 114902  3.8848e+001 -2.2543e+002 -2.5873e+001 16362 114775,114827,114801
 2.4000e+000 114879  3.6865e+001 -2.0487e+002 -3.1403e+001 16362 114775,114853,114827
 2.4000e+000 115054 -2.4668e+002 -3.8840e+002 -1.1461e+001 15908 114953,115005,114979
 2.4000e+000 115031 -2.3163e+002 -4.0712e+002 -7.2153e+000 15908 114927,115005,114953
 2.4000e+000 115326 -2.3623e+001 -1.3653e+002  3.0696e+001 15251 115101,115179,115153
 2.4000e+000 115303 -1.2498e+001 -1.2155e+002 -7.6308e+000 15251 115101,115231,115179
 2.4000e+000 115280 -1.9406e+001 -1.3738e+002 -6.1664e+000 15251 115179,115231,115205
 2.4000e+000 115257 -8.0761e+001 -3.6742e+002  3.3968e+001 15251 115101,115153,115127
 2.4000e+000 115429 -4.7443e+001 -1.9256e+002  3.4285e+001 421 115351,115403,115377
 2.5000e+000 66230 -3.3366e+001  2.6943e+001  1.0349e+001 65954 66152,66204,66178
 2.5000e+000 66429 -3.4809e+000 -5.5476e+001 -7.8620e+000 65642 66279,66331,66305
 2.5000e+000 66406  3.0962e+000 -1.1716e+001  5.1843e+000 65642 66279,66357,66331
 2.5000e+000 66383  7.6197e+000  2.7845e+001 -6.5754e+000 65642 66253,66357,66279
 2.5000e+000 66628 -1.5157e+000 -1.1337e+002  1.7038e+001 65444 66452,66530,66478
 2.5000e+000 66605  9.0044e+000 -1.4710e+002  4.6441e+000 65444 66452,66556,66530
 2.5000e+000 66582 -1.0433e+001 -1.1827e+002  2.0047e+001 65444 66478,66530,66504
 2.5000e+000 67006  1.5253e+000 -9.4767e+001 -3.0750e+000 65246 66732,66810,66758
 2.5000e+000 66983  1.8051e+001 -4.6064e+001  1.1038e+001 65246 66732,66836,66810
 2.5000e+000 66960 -1.6331e+001 -9.0437e+001 -1.8649e+001 65246 66732,66862,66836
 2.5000e+000 66937 -5.3928e+000 -6.6648e+001  8.0167e+000 65246 66758,66810,66784
 2.5000e+000 66914 -5.4650e+000 -1.1209e+002 -3.5309e+001 65246 66732,66888,66862
 2.5000e+000 67107  3.6575e+001 -3.8543e+001 -1.1784e+001 64934 67029,67081,67055
 2.5000e+000 67306 -2.4362e+001 -1.0507e+002  3.5310e+001 64736 67156,67208,67182
 2.5000e+000 67283  2.0579e+001 -6.9605e+001  1.9554e+001 64736 67130,67208,67156
 2.5000e+000 67260 -1.6112e+001 -1.1107e+002  2.9702e+000 64736 67130,67234,67208
 2.5000e+000 67507  3.2762e+000 -8.5669e+001 -1.1698e+001 64389 67357,67409,67383
 2.5000e+000 67484 -6.2806e+000 -1.0973e+002 -1.6026e+001 64389 67357,67435,67409
 2.5000e+000 67461  3.0580e+000 -1.3015e+002 -1.0679e+001 64389 67331,67435,67357
 2.5000e+000 67708  2.9791e+001 -9.4736e+001  1.0627e+001 63985 67731,67584,67558
 2.5000e+000 67685  1.8703e+000 -4.0186e+001  2.4951e+000 63985 67731,67558,67636
 2.5000e+000 67662 -2.0054e+001 -5.4530e+001 -5.0123e+000 63985 67532,67636,67558
 2.5000e+000 67757  1.4907e+001 -1.2006e+002  4.2052e+000 63985 67610,67584,67731
 2.5000e+000 67780 -2.2568e+001 -8.0995e+001 -7.6694e+000 63985 67610,67731,67636
 2.5000e+000 67981  1.3747e+001 -2.5056e+001  3.1900e+000 63787 67857,67909,67883
 2.5000e+000 67958 -4.8131e+000 -4.8811e+001  1.3696e+001 63787 67831,67909,67857
 2.5000e+000 67935 -1.7590e+001 -9.0613e+000 -1.9377e+000 63787 67805,67909,67831
 2.5000e+000 68231 -1.0584e+000 -1.1554e+002  9.7005e+000 63589 68254,68084,68032
 2.5000e+000 68208 -1.9845e+000 -6.6016e+001  9.2712e+000 63589 68254,68032,68006
 2.5000e+000 68185  4.7248e+000 -5.2600e+001  1.0174e+001 63589 68326,68136,68110
 2.5000e+000 68162 -1.4998e+000 -1.0819e+002 -1.2683e+001 63589 68032,68084,68058
 2.5000e+000 68280 -7.5349e-001 -7.2216e+001  1.2515e+001 63589 68110,68084,68254
 2.5000e+000 68303 -2.7638e+000 -5.5526e+001  2.0055e+001 63589 68326,68110,68254
 2.5000e+000 68352  1.9636e+001 -2.9321e+001 -1.0815e+001 63589 68006,68136,68326
 2.5000e+000 68375  4.7532e+000 -3.9982e+001  3.5335e-002 63589 68006,68326,68254
 2.5000e+000 68836 -2.2431e+000 -2.1825e+001 -6.3981e+000 63128 68859,68588,68562
 2.5000e+000 68813 -1.1905e+001 -4.8200e+001  1.8898e+001 63128 68859,68562,68692
 2.5000e+000 68790  1.0658e+001 -5.7194e+001 -2.1107e+000 63128 68614,68692,68666
 2.5000e+000 68767 -3.2160e+001 -4.8029e+001  1.6196e+001 63128 68562,68718,68692
 2.5000e+000 68744  1.0148e+001 -6.4118e+001 -4.2596e+001 63128 68614,68666,68640
 2.5000e+000 68885  1.3550e+001  1.5195e+001 -2.4049e+001 63128 68614,68588,68859
 2.5000e+000 68908  2.1581e+000 -1.8785e+001  7.2063e-001 63128 68614,68859,68692
 2.5000e+000 69237  3.0291e+000 -6.5201e+001  5.6050e+000 62731 69064,69116,69090
 2.5000e+000 69214 -3.5237e+000 -8.3968e+001  8.9700e-001 62731 69064,69142,69116
 2.5000e+000 69191 -1.3861e+001 -1.2255e+002  8.4023e-001 62731 69038,69142,69064
 2.5000e+000 69168 -1.0776e+000 -1.1449e+002  5.7732e+000 62731 69012,69142,69038
 2.5000e+000 69539  1.8442e+000  2.7146e+001  2.0053e+000 62433 69389,69467,69441
 2.5000e+000 69516  1.0706e+001 -2.9684e+001  1.2100e+001 62433 69363,69467,69389
 2.5000e+000 69493 -3.1515e+000 -2.3110e+001  2.2743e+001 62433 69389,69441,69415
 2.5000e+000 69966  2.1491e+001 -5.8428e+001  8.6010e+000 62235 69989,69773,69721
 2.5000e+000 69943  1.2296e+001 -9.5214e+001 -2.3906e+001 62235 70061,69989,69721
 2.5000e+000 69920  1.8435e+001 -1.1342e+002 -1.8737e+001 62235 70061,69721,69643
 2.5000e+000 69897  2.0946e+001  4.9835e+001 -1.6351e+001 62235 69721,69773,69747
 2.5000e+000 69874 -8.2038e+001 -3.5103e+002 -6.7960e+000 62235 69643,69721,69695
 2.5000e+000 69851  1.1906e+002  3.2053e+002 -3.2928e+001 62235 69643,69695,69669
 2.5000e+000 70015  1.9004e+001 -9.5369e+001 -1.6524e+001 62235 69799,69773,69989
 2.5000e+000 70038 -2.5002e+001 -1.2281e+002 -5.0120e+001 62235 69799,69989,69825
 2.5000e+000 70087 -4.8748e+000 -1.1140e+002 -1.7232e+001 62235 69825,69989,70061
 2.5000e+000 70110  1.1466e+001 -1.1991e+002 -1.6055e+001 62235 69825,70061,69643
 2.5000e+000 70260 -2.7618e-001 -7.8510e+001 -5.9554e+000 62037 70133,70185,70159
 2.5000e+000 70237 -1.1799e+001 -1.3276e+002 -5.3860e+000 62037 70133,70211,70185
 2.5000e+000 70640 -1.6717e+001 -5.6930e+001  1.2345e+000 61583 70735,70663,70418
 2.5000e+000 70617 -4.2965e+001 -8.0839e+001 -2.6729e+001 61583 70663,70366,70522
 2.5000e+000 70594 -1.0060e+001 -5.4361e+001  1.1296e+001 61583 70735,70418,70392
 2.5000e+000 70571  5.3855e-001 -8.5121e+001  1.5836e+001 61583 70418,70496,70444
 2.5000e+000 70548 -2.4884e+001 -2.3349e+001  1.7017e+001 61583 70444,70496,70470
 2.5000e+000 70689 -2.4346e+001 -9.3728e+001 -4.7170e+000 61583 70496,70418,70663
 2.5000e+000 70712 -3.4513e+000 -7.0625e+001 -1.3540e+001 61583 70496,70663,70522
 2.5000e+000 70761 -4.2690e+001 -6.4731e+001 -1.0038e+001 61583 70366,70663,70735
 2.5000e+000 70784 -2.7411e+001 -5.8390e+001 -2.1115e-001 61583 70366,70735,70392
 2.5000e+000 71054  1.9257e+001 -3.8143e+001  9.6576e+000 61313 71077,70881,70855
 2.5000e+000 71031  3.3746e+001 -3.1409e+001  2.6750e+001 61313 71077,70855,70829
 2.5000e+000 71008 -2.7715e+000 -5.4800e+001  7.6318e+000 61313 70829,70959,70933
 2.5000e+000 70985  1.6967e+001 -5.5706e+001 -1.2808e+001 61313 70881,70933,70907
 2.5000e+000 71103 -2.0152e+000 -3.7830e+001  2.5312e+000 61313 70933,70881,71077
 2.5000e+000 71126  1.5283e+001 -3.4841e+001  1.7381e+001 61313 70933,71077,70829
 2.5000e+000 71604 -4.7463e-001 -1.0763e+002 -3.7834e-001 60909 71627,71232,71414
 2.5000e+000 71581 -2.6682e+001 -1.0053e+002 -1.7401e+001 60909 71232,71440,71414
 2.5000e+000 71558 -6.2284e+000 -6.5665e+001  5.0769e-001 60909 71627,71414,71336
 2.5000e+000 71535  2.6150e+001 -1.3844e+002  1.8713e+001 60909 71362,71414,71388
 2.5000e+000 71512 -2.9230e+001 -1.2211e+002  5.3889e-001 60909 71336,71414,71362
 2.5000e+000 71489  8.2989e+000 -4.9079e+001 -9.2244e-001 60909 71258,71336,71310
 2.5000e+000 71466 -2.2698e+000 -6.0054e+001  5.2044e+000 60909 71258,71310,71284
 2.5000e+000 71653  1.5077e+001 -7.5471e+001 -5.8940e+000 60909 71258,71232,71627
 2.5000e+000 71676 -4.6765e+000 -5.4142e+001 -9.5155e-001 60909 71258,71627,71336
 2.5000e+000 71875 -1.6136e+001 -9.0827e+001  7.8474e+000 60611 71898,71725,71699
 2.5000e+000 71852 -3.8168e+001 -7.0118e+001  2.6237e+001 60611 71898,71699,71803
 2.5000e+000 71829  1.4631e+001 -1.7832e+001  2.3546e+001 60611 71970,71751,71725
 2.5000e+000 71924 -8.6373e+000 -6.2594e+001  8.0293e+000 60611 71970,71725,71898
 2.5000e+000 71947 -6.9462e+000 -7.0048e+001  4.2992e-001 60611 71777,71898,71803
 2.5000e+000 71996  3.4836e+001 -6.7908e+001  3.3175e+001 60611 71777,71751,71970
 2.5000e+000 72019  3.1507e+001 -7.8662e+001  2.4331e+001 60611 71777,71970,71898
 2.5000e+000 72576 -4.2632e+000 -1.9335e+002  3.9821e+001 60142 72599,72256,72230
 2.5000e+000 72553  1.8421e+001 -1.1392e+002  4.3134e+001 60142 72671,72599,72230
 2.5000e+000 72530 -3.0162e+001 -7.5939e+001  8.6187e+000 60142 72671,72230,72204
 2.5000e+000 72507 -4.1440e+001 -5.5913e+001  2.2976e+001 60142 72743,72360,72334
 2.5000e+000 72484 -6.2711e+001 -7.6458e+001  1.3497e+001 60142 72815,72282,72256
 2.5000e+000 72461  4.9008e+000 -1.3876e+001  7.3623e+001 60142 72887,72308,72282
 2.5000e+000 72438 -3.7929e+001 -1.7151e+002 -1.1514e+001 60142 72204,72412,72386
 2.5000e+000 72625 -6.6958e+001 -1.5405e+002 -1.2936e+001 60142 72815,72256,72599
 2.5000e+000 72648 -2.6517e+001 -9.0548e+001  1.6444e+001 60142 72743,72334,72599
 2.5000e+000 72697 -2.3796e+001 -1.7395e+002  2.4714e+001 60142 72386,72599,72671
 2.5000e+000 72720 -5.6326e+001 -1.2862e+002 -2.6106e+000 60142 72386,72671,72204
 2.5000e+000 72769  1.4217e+001 -8.1897e+001  9.2175e+001 60142 72386,72360,72743
 2.5000e+000 72792 -2.8193e+000 -1.6190e+002  5.1241e+001 60142 72386,72743,72599
 2.5000e+000 72841 -3.9759e+001 -3.6810e+001  3.4726e+001 60142 72887,72282,72815
 2.5000e+000 72864 -2.6658e+001 -8.9562e+001  1.4808e+001 60142 72334,72815,72599
 2.5000e+000 72913 -5.8984e+001 -6.8765e+001  4.7910e+001 60142 72334,72308,72887
 2.5000e+000 72936 -8.2238e+001 -8.0556e+001  1.2618e+001 60142 72334,72887,72815
 2.5000e+000 73491 -2.2785e+001 -1.3421e+002 -2.6649e+001 59738 73145,73327,73171
 2.5000e+000 73468  4.3816e+001 -4.8867e+001  2.3598e+000 59738 73119,73327,73145
 2.5000e+000 73445 -1.1758e+001 -7.4237e+001 -1.1969e+001 59738 73171,73327,73301
 2.5000e+000 73422 -1.5934e+000 -8.1157e+001 -6.7678e-001 59738 73514,73275,73249
 2.5000e+000 73399 -2.2501e+001 -7.7289e+001  9.6088e-001 59738 73586,73514,73249
 2.5000e+000 73376 -2.1949e+001 -4.0104e+001  2.3455e+001 59738 73197,73249,73223
 2.5000e+000 73353 -1.9932e+001 -7.8824e+001  7.7897e+000 59738 73586,73249,73197
 2.5000e+000 73540 -1.9237e+001 -1.1678e+002 -1.4913e+001 59738 73301,73275,73514
 2.5000e+000 73563 -1.0670e+001 -7.4112e+001 -1.1393e+001 59738 73301,73514,73171
 2.5000e+000 73612 -1.7289e+001 -6.5517e+001  1.8729e+000 59738 73171,73514,73586
 2.5000e+000 73635 -1.5947e+001 -6.9482e+001  7.9238e+000 59738 73171,73586,73197
 2.5000e+000 73964  1.2298e+001 -9.7402e+001  3.2469e+000 59334 73791,73843,73817
 2.5000e+000 73941  1.2571e+001 -1.2004e+002 -7.6516e+000 59334 73791,73869,73843
 2.5000e+000 73918 -1.6791e+001 -1.9713e+002  1.5036e+001 59334 73739,73869,73791
 2.5000e+000 73895  4.1188e+001 -2.1785e+002  1.1788e+001 59334 73739,73791,73765
 2.5000e+000 74261  3.7885e+001 -8.2005e+001  4.4726e+001 58630 74065,74117,74091
 2.5000e+000 74238  3.6531e+001 -8.7008e+001  1.0712e+001 58630 74356,74284,74065
 2.5000e+000 74215 -7.1779e+000 -4.9927e+001 -3.2358e+000 58630 74284,74013,73987
 2.5000e+000 74192  4.6673e+001 -7.3824e+001  2.9247e+001 58630 74356,74065,74039
 2.5000e+000 74169 -1.5248e+001 -5.1960e+001 -1.7903e+000 58630 73987,74143,74117
 2.5000e+000 74310  1.4989e+001 -1.3204e+002  1.7923e+000 58630 74117,74065,74284
 2.5000e+000 74333 -3.0580e+001 -8.1675e+001 -1.3730e+001 58630 74117,74284,73987
 2.5000e+000 74382  1.0787e+001 -1.1160e+002 -7.5010e+000 58630 74013,74284,74356
 2.5000e+000 74405  2.0709e+001 -9.6699e+001  1.1145e+001 58630 74013,74356,74039
 2.5000e+000 74815 -1.7840e+001 -4.9589e+001 -8.1476e+000 58226 74590,74642,74616
 2.5000e+000 74792 -2.4296e+001 -8.7757e+001 -1.0457e+001 58226 74590,74694,74642
 2.5000e+000 74769  4.6395e+001 -1.3774e+002  1.6401e+001 58226 74590,74720,74694
 2.5000e+000 74746 -7.6997e+000 -4.1281e+001 -2.3596e+000 58226 74642,74694,74668
 2.5000e+000 75014 -4.9603e+000 -1.0563e+002 -1.0698e+000 57786 75037,74864,74838
 2.5000e+000 74991  3.8771e+000 -4.9578e+001  6.3540e+000 57786 75037,74838,74916
 2.5000e+000 74968  1.1078e+001 -3.0125e+001 -2.2354e+001 57786 74838,74942,74916
 2.5000e+000 75063  1.1142e+000 -1.6900e+002 -1.8160e+001 57786 74890,74864,75037
 2.5000e+000 75086  1.6570e+001 -1.0404e+002 -9.9718e+000 57786 74890,75037,74916
 2.5000e+000 75368  2.7660e+001 -3.4376e+001  1.7898e+001 57496 75192,75270,75218
 2.5000e+000 75345  4.5345e+001 -2.5499e+001  2.1116e+001 57496 75192,75296,75270
 2.5000e+000 75322  8.2931e-001 -5.2816e+001  1.4787e+000 57496 75218,75270,75244
 2.5000e+000 75648  3.1892e+000 -8.8952e+001 -5.4502e+000 57206 75472,75550,75498
 2.5000e+000 75625  1.0805e+001 -8.3551e+001 -9.6351e+000 57206 75472,75576,75550
 2.5000e+000 75602  4.0569e+001 -6.2469e+001 -4.3304e+000 57206 75671,75550,75524
 2.5000e+000 75697 -2.8694e+001 -1.0118e+002 -2.4897e+001 57206 75498,75550,75671
 2.5000e+000 76154  3.2242e+001 -7.1799e+001 -2.0658e+001 56802 75958,76010,75984
 2.5000e+000 76131  2.1269e+001 -3.0951e+001 -7.7838e+000 56802 75932,76010,75958
 2.5000e+000 76108  3.6367e+001 -5.6952e+001  2.6795e+001 56802 75906,76010,75932
 2.5000e+000 76085  1.5088e+001 -2.6150e+001  2.2508e+001 56802 75880,76010,75906
 2.5000e+000 76062  2.7540e+001 -3.0761e+001 -7.2941e+000 56802 75880,76036,76010
 2.5000e+000 76505 -1.3437e+000  6.2827e+001 -2.7804e+000 56504 76306,76384,76332
 2.5000e+000 76482  5.0473e+000  2.4414e+001  1.2778e+001 56504 76306,76410,76384
 2.5000e+000 76459  1.0169e+001  5.0359e+001 -1.7868e+001 56504 76332,76384,76358
 2.5000e+000 76436  2.7127e+000  1.9748e+000 -7.3617e+000 56504 76280,76410,76306
 2.5000e+000 77011  3.1675e+001 -5.4205e+001 -2.1750e+001 56050 76740,76818,76792
 2.5000e+000 76988  2.3722e+001 -5.8036e+001 -2.0074e+001 56050 76714,76818,76740
 2.5000e+000 76965 -1.6092e+001 -7.4938e+001 -8.2027e+000 56050 76688,76818,76714
 2.5000e+000 76942 -1.2932e+001 -4.2808e+001 -1.8222e+001 56050 76688,76844,76818
 2.5000e+000 76919 -4.8032e+000 -4.7490e+001 -1.3731e+001 56050 76740,76792,76766
 2.5000e+000 76896 -3.3773e+001 -8.4379e+001 -1.1300e+001 56050 76688,76870,76844
 2.5000e+000 77517 -2.2026e+001 -8.5955e+001 -1.8035e+000 55738 77220,77350,77324
 2.5000e+000 77494 -3.5852e+001 -1.0619e+002 -1.5490e+001 55738 77220,77376,77350
 2.5000e+000 77471 -1.5220e+001 -8.2248e+001 -3.1887e+000 55738 77194,77376,77220
 2.5000e+000 77448 -2.1158e+001 -2.6915e+001 -4.3419e+000 55738 77220,77298,77246
 2.5000e+000 77425 -1.2703e+001 -6.2098e+001 -2.0790e+001 55738 77220,77324,77298
 2.5000e+000 77402 -4.1589e+000 -1.8343e+001  1.0689e+001 55738 77246,77298,77272
 2.5000e+000 78064  2.2199e+001 -1.8120e+002 -5.7525e+000 55227 78231,78087,77773
 2.5000e+000 78041 -2.9301e+001 -3.0891e+002  1.9020e+001 55227 78087,77695,77643
 2.5000e+000 78018 -2.9227e+001 -2.3539e+002 -1.4800e+001 55227 78159,77799,77773
 2.5000e+000 77995 -7.9516e+000 -1.1599e+002  9.8799e+000 55227 78231,77773,77721
 2.5000e+000 77972 -6.5282e+001 -8.0637e+001  7.3932e+001 55227 77643,77695,77669
 2.5000e+000 77949 -5.5990e+001 -1.2801e+002  2.4692e+001 55227 77643,77877,77851
 2.5000e+000 77926 -7.4936e+001 -2.6322e+002  3.8231e+001 55227 77799,77851,77825
 2.5000e+000 77903 -3.1518e+000 -6.5498e+001 -2.2118e+001 55227 77721,77773,77747
 2.5000e+000 78113 -3.3359e+000 -2.4141e+002 -2.5697e+000 55227 78159,77773,78087
 2.5000e+000 78136  3.6259e+001 -1.5536e+002  4.0503e+001 55227 77851,78087,77643
 2.5000e+000 78185 -7.9618e+001 -2.3196e+002 -1.2781e+001 55227 77851,77799,78159
 2.5000e+000 78208 -5.3431e+001 -2.3886e+002 -2.6547e+000 55227 77851,78159,78087
 2.5000e+000 78257 -3.2491e+000 -2.5904e+002 -3.3541e+001 55227 77695,78087,78231
 2.5000e+000 78280 -3.9316e+001 -1.9019e+002 -2.4856e+001 55227 77695,78231,77721
 2.5000e+000 78737 -1.9019e+001 -3.6175e+001 -2.1899e+001 54773 78463,78541,78515
 2.5000e+000 78714 -2.5640e+001 -7.8371e+001 -8.1356e+000 54773 78463,78619,78541
 2.5000e+000 78691 -1.6517e+001 -2.5638e+001 -9.7664e+000 54773 78463,78515,78489
 2.5000e+000 78668 -1.7140e+001 -3.0257e+001 -1.2280e+001 54773 78541,78593,78567
 2.5000e+000 78645 -7.3643e+000 -4.4899e+001 -1.8425e+001 54773 78541,78619,78593
 2.5000e+000 78838  1.4064e+000  1.9823e+000 -3.0820e+000 54211 78760,78812,78786
 2.5000e+000 79297  7.0198e-001 -7.5958e+001 -4.2011e+000 53814 79520,79153,79049
 2.5000e+000 79274  9.0533e+000 -7.2601e+001 -4.5992e+000 53814 79520,79049,79023
 2.5000e+000 79251 -3.1588e+001 -1.6974e+002  3.3222e+001 53814 79320,79101,79049
 2.5000e+000 79228  2.2324e+000 -8.5952e+001 -3.3582e+000 53814 79320,79049,79153
 2.5000e+000 79205 -3.7276e+001 -9.2521e+001  4.8813e+001 53814 79049,79101,79075
 2.5000e+000 79346 -3.7176e+000 -5.8922e+001 -2.9144e+001 53814 79392,79320,79127
 2.5000e+000 79369  2.2438e+001 -7.4532e+001 -4.4408e+001 53814 79127,79320,79153
 2.5000e+000 79418  1.4079e+000 -1.5019e+002 -4.3929e+001 53814 79101,79320,79392
 2.5000e+000 79546 -4.5778e+000 -8.4942e+001  9.4945e+000 53814 79179,79153,79520
 2.5000e+000 79569  2.3677e+001 -7.2360e+001  6.8821e+000 53814 79179,79520,79023
 2.5000e+000 80075 -2.0378e+001 -2.2071e+000  4.5783e+001 53039 80098,79908,79830
 2.5000e+000 80052 -2.5002e+001  1.5156e+001  1.1293e+001 53039 80098,79830,79804
 2.5000e+000 80029 -1.1731e+001  1.9284e+001  2.2198e+000 53039 79752,79934,79804
 2.5000e+000 80006  6.8659e+001  3.9218e+001  3.2062e+001 53039 79856,79908,79882
 2.5000e+000 79983  2.0341e+001 -2.3171e+001  5.3207e+001 53039 79830,79908,79856
 2.5000e+000 79960  1.1373e+001  4.0971e+001  1.9368e+001 53039 79752,79804,79778
 2.5000e+000 80124  3.3852e+001  1.4920e+001  3.9337e+001 53039 79934,79908,80098
 2.5000e+000 80147  2.8861e-001  2.3120e+001  4.2539e+000 53039 79934,80098,79804
 2.5000e+000 80555 -3.3058e+001 -6.5065e+001  1.3417e+001 52699 80356,80434,80408
 2.5000e+000 80532  1.1148e+001 -7.5215e+001  6.4260e+000 52699 80356,80460,80434
 2.5000e+000 80509 -1.2766e+001 -9.3029e+001 -2.6975e+000 52699 80330,80460,80356
 2.5000e+000 80486 -3.8588e+001 -8.8475e+001  9.7016e+000 52699 80356,80408,80382
 2.5000e+000 80776 -1.1902e+001 -4.0900e+001  2.0625e-001 52295 80600,80678,80626
 2.5000e+000 80753  9.5346e+000 -4.2230e+001  2.5675e-001 52295 80600,80704,80678
 2.5000e+000 80730  1.8020e+001 -2.6902e+001  6.1967e+000 52295 80626,80678,80652
 2.5000e+000 81156 -4.0440e+001 -1.3737e+002  3.2672e+001 51891 81179,80960,80908
 2.5000e+000 81133 -3.2090e+001 -1.2477e+002  8.4336e+000 51891 81179,80908,81012
 2.5000e+000 81110 -5.4260e+001 -1.3914e+002  1.4643e+001 51891 80882,81012,80908
 2.5000e+000 81087 -2.2618e+001 -2.1393e+002  2.1929e+001 51891 80908,80960,80934
 2.5000e+000 81064 -1.8173e+000 -1.3246e+001  1.1547e+001 51891 80882,81038,81012
 2.5000e+000 81205 -1.0620e+001 -1.2813e+002  2.6029e+001 51891 80986,80960,81179
 2.5000e+000 81228 -2.0796e+001 -1.2157e+002  1.5208e+000 51891 80986,81179,81012
 2.5000e+000 81606 -1.4827e+001 -2.5017e+002 -8.8727e+001 51544 81410,81462,81436
 2.5000e+000 81583 -5.4760e-001 -1.2427e+002 -2.9608e+001 51544 81384,81462,81410
 2.5000e+000 81560 -2.6246e+001 -1.3879e+002 -3.8726e+001 51544 81358,81462,81384
 2.5000e+000 81537  2.6776e+001 -1.1887e+002 -3.5887e+001 51544 81358,81488,81462
 2.5000e+000 81514  5.8677e+001  3.7307e+001 -2.7214e+001 51544 81332,81488,81358
 2.5000e+000 81854  6.4160e+001 -1.0734e+002  4.3195e+000 51004 81877,81655,81629
 2.5000e+000 81831  4.6839e+001 -1.0010e+002  6.3219e+000 51004 81877,81629,81759
 2.5000e+000 81808  2.6772e+001 -3.8791e+001  4.9605e+001 51004 81655,81707,81681
 2.5000e+000 81785 -1.8700e+001 -1.7377e+002  1.0528e+001 51004 81707,81759,81733
 2.5000e+000 81903  4.8750e+001 -1.0007e+002 -2.6080e+000 51004 81707,81655,81877
 2.5000e+000 81926  2.1254e+001 -1.0385e+002 -5.5255e+000 51004 81707,81877,81759
 2.5000e+000 82257 -3.0410e+001 -8.3842e+001 -1.0665e+001 50642 82058,82136,82110
 2.5000e+000 82234 -3.7891e+001 -7.7860e+001 -1.1609e+001 50642 82058,82162,82136
 2.5000e+000 82211 -4.5788e+001 -1.0133e+002  1.6304e+001 50642 82058,82110,82084
 2.5000e+000 82188 -4.3711e+001 -7.9543e+001 -2.2297e+001 50642 82032,82162,82058
 2.5000e+000 82684  4.6433e+001 -1.3445e+002 -6.3276e+000 49931 82779,82707,82465
 2.5000e+000 82661 -3.5650e+001 -1.8830e+002  4.2689e+001 49931 82707,82413,82361
 2.5000e+000 82638  5.1818e+001 -1.0391e+002 -7.8264e+001 49931 82779,82465,82439
 2.5000e+000 82615 -1.1460e+001 -1.9237e+002  3.6296e+001 49931 82465,82543,82491
 2.5000e+000 82592 -1.9699e+001 -8.4029e+001  1.0221e+001 49931 82361,82413,82387
 2.5000e+000 82569  1.0459e+001 -1.7282e+002  2.7151e+001 49931 82491,82543,82517
 2.5000e+000 82733 -2.1569e+000 -1.6884e+002  9.9691e+000 49931 82543,82465,82707
 2.5000e+000 82756  8.9470e+000 -9.4986e+001  2.4541e+001 49931 82543,82707,82361
 2.5000e+000 82805  6.9022e+000 -2.3281e+002  8.8816e+000 49931 82413,82707,82779
 2.5000e+000 82828  8.1623e+000 -1.9496e+002 -5.8655e+001 49931 82413,82779,82439
 2.5000e+000 83255 -6.3479e+001 -2.4564e+002 -1.4458e+001 49327 82984,83114,83036
 2.5000e+000 83232 -6.3790e+001 -2.4241e+002 -4.3543e+001 49327 82958,83114,82984
 2.5000e+000 83209  1.6699e+001 -2.5649e+002 -1.7088e+001 49327 83036,83114,83088
 2.5000e+000 83186 -7.2924e+001 -1.9497e+002  1.9194e+001 49327 82984,83036,83010
 2.5000e+000 83163 -2.6807e+001 -2.4028e+002 -4.4733e+001 49327 82932,83114,82958
 2.5000e+000 83140 -7.4169e+001 -4.6688e+002  8.2536e+000 49327 83036,83088,83062
 2.5000e+000 83938 -5.6664e+001 -2.8466e+002  4.5255e+001 48965 83961,83673,83647
 2.5000e+000 83915  4.3277e+000 -1.3321e+002  3.3613e+001 48965 83961,83647,83543
 2.5000e+000 83892 -5.2742e+001 -1.5010e+002 -6.1607e+001 48965 83517,83725,83543
 2.5000e+000 83869 -2.9074e+001 -1.7935e+002 -4.8698e+001 48965 83673,83725,83699
 2.5000e+000 83846 -3.4924e+001 -8.9418e+001 -1.8357e+001 48965 83543,83647,83621
 2.5000e+000 83823 -1.6248e+001 -9.8735e+001 -2.6393e+001 48965 83543,83621,83569
 2.5000e+000 83800 -1.0599e+001 -1.1583e+002 -5.4358e+000 48965 83517,83751,83725
 2.5000e+000 83777 -1.2987e+000 -7.7703e+001  9.9883e+000 48965 83569,83621,83595
 2.5000e+000 83987 -1.6508e+001 -2.4703e+002 -5.1136e+001 48965 83725,83673,83961
 2.5000e+000 84010  6.1547e+000 -1.9350e+002 -4.3960e+001 48965 83725,83961,83543
 2.5000e+000 84258 -3.1868e+001 -2.2001e+002  4.8817e+001 48447 84281,84059,84033
 2.5000e+000 84235 -9.8986e+000 -1.6294e+002  2.3417e+001 48447 84281,84033,84163
 2.5000e+000 84212  3.7303e+001 -2.1749e+002  6.8458e+000 48447 84059,84111,84085
 2.5000e+000 84189  1.0422e+001 -1.5846e+002 -2.2983e+001 48447 84111,84163,84137
 2.5000e+000 84307 -6.1296e+000 -2.0979e+002  6.7830e+000 48447 84111,84059,84281
 2.5000e+000 84330  2.1190e+001 -1.7310e+002 -1.8326e+001 48447 84111,84281,84163
 2.5000e+000 84529  2.8988e+001 -1.2109e+002 -1.6354e+001 47993 84552,84405,84379
 2.5000e+000 84506 -1.8642e+001 -1.3812e+002 -1.5724e+001 47993 84552,84379,84353
 2.5000e+000 84483  3.8557e+001 -1.2540e+002 -2.0974e+001 47993 84624,84457,84431
 2.5000e+000 84578  2.8646e+001 -1.3371e+002 -2.0867e+001 47993 84431,84405,84552
 2.5000e+000 84601  3.0734e+001 -1.3155e+002 -1.8122e+001 47993 84624,84431,84552
 2.5000e+000 84650  3.1528e+001 -1.1944e+002 -2.6749e+001 47993 84353,84457,84624
 2.5000e+000 84673  2.4904e+001 -1.2240e+002 -2.4527e+001 47993 84353,84624,84552
 2.5000e+000 85104 -3.9751e+001 -1.8839e+002 -3.1006e+001 47588 85199,85127,84885
 2.5000e+000 85081 -2.3128e+001 -1.8728e+002 -4.1862e+001 47588 85127,84781,84963
 2.5000e+000 85058 -6.5144e+001 -1.8236e+002 -2.0772e+000 47588 85199,84885,84807
 2.5000e+000 85035 -2.9231e+001 -1.4918e+002  6.9079e+001 47588 84885,84937,84911
 2.5000e+000 85012 -4.8611e+001 -1.1850e+002 -2.2537e+001 47588 84807,84885,84833
 2.5000e+000 84989 -3.0873e+001 -1.1017e+002 -7.9080e+000 47588 84833,84885,84859
 2.5000e+000 85153 -3.1268e+001 -2.5308e+002 -2.9825e+000 47588 84937,84885,85127
 2.5000e+000 85176  7.0154e+001 -2.0721e+002 -1.7466e+001 47588 84937,85127,84963
 2.5000e+000 85225 -8.7890e+001 -2.0667e+002 -3.0114e+001 47588 84781,85127,85199
 2.5000e+000 85248 -1.0379e+002 -1.9890e+002  2.6851e+000 47588 84781,85199,84807
 2.5000e+000 85518 -2.5187e+001 -1.8461e+002  1.3675e-001 47226 85293,85397,85319
 2.5000e+000 85495 -5.3182e+001 -2.0259e+002  8.7556e+000 47226 85293,85423,85397
 2.5000e+000 85472 -6.2731e+001 -2.0023e+002 -3.5390e-001 47226 85319,85397,85345
 2.5000e+000 85449 -2.9678e+001 -1.5513e+002  1.4921e+001 47226 85345,85397,85371
 2.5000e+000 85849  1.6045e-001 -1.4499e+002  2.7041e+001 46572 85624,85702,85650
 2.5000e+000 85826  7.3346e-001 -2.1426e+002 -1.6161e+001 46572 85624,85754,85702
 2.5000e+000 85803  2.1108e+001 -1.2965e+002  4.3828e+000 46572 85702,85754,85728
 2.5000e+000 85780 -9.0885e+000 -1.4630e+002  1.9777e+001 46572 85650,85702,85676
 2.5000e+000 86070 -1.3424e+002 -2.3934e+002 -4.8320e+000 46374 85920,85972,85946
 2.5000e+000 86047 -1.1590e+002 -1.9508e+002  2.4582e+000 46374 85920,85998,85972
 2.5000e+000 86024 -4.6936e+001 -1.6269e+002  4.6962e+001 46374 85894,85998,85920
 2.5000e+000 86401  2.4186e+001 -1.2690e+002 -4.4162e+000 46034 86424,86280,86228
 2.5000e+000 86378  2.5817e+001 -1.4093e+002 -8.4671e+000 46034 86424,86228,86176
 2.5000e+000 86355  4.9816e+000 -1.6576e+002 -3.0960e+001 46034 86176,86228,86202
 2.5000e+000 86332  2.6775e+001 -1.2575e+002 -2.2585e+001 46034 86228,86280,86254
 2.5000e+000 86450  2.7970e+001 -1.4199e+002 -2.9907e+000 46034 86306,86280,86424
 2.5000e+000 86473  2.8079e+001 -1.5514e+002 -1.0427e+001 46034 86306,86424,86176
 2.5000e+000 87058  4.9718e+000 -1.3173e+002  3.5678e+000 45516 86813,86917,86865
 2.5000e+000 87035 -1.8399e+001 -1.8525e+002  6.7674e+000 45516 86787,86917,86813
 2.5000e+000 87012 -1.9528e+001 -2.1544e+002  9.3510e+000 45516 86735,86917,86787
 2.5000e+000 86989  5.4258e+000 -1.2059e+002 -1.1036e+000 45516 86865,86917,86891
 2.5000e+000 86966  1.1895e+001 -1.2408e+002  6.4586e+000 45516 86813,86865,86839
 2.5000e+000 86943  4.4127e+000 -2.2459e+002 -2.0052e+001 45516 86735,86787,86761
 2.5000e+000 87208 -1.8769e+000 -1.2289e+002  4.6292e+000 45226 87231,87133,87107
 2.5000e+000 87185 -9.3299e+000 -1.4702e+002  1.2589e+001 45226 87081,87159,87133
 2.5000e+000 87257  3.7039e+001 -5.5974e+001 -1.2957e+001 45226 87081,87133,87231
 2.5000e+000 87537  2.8172e+001 -1.9842e+002  4.8944e+001 44772 87387,87439,87413
 2.5000e+000 87514 -6.1990e+001 -2.1391e+002  1.2924e+001 44772 87361,87439,87387
 2.5000e+000 87491 -3.0783e+001 -1.9002e+002  1.5816e+000 44772 87361,87465,87439
 2.5000e+000 87996 -3.3187e+001 -1.1267e+002  9.2749e+000 44425 87748,87878,87852
 2.5000e+000 87973  3.7831e+001 -8.1483e+001 -4.2300e+000 44425 87722,87878,87748
 2.5000e+000 87950 -2.0653e+000 -1.1317e+002 -1.9627e+000 44425 87800,87852,87826
 2.5000e+000 87927 -3.6738e+001 -1.1425e+002  1.0152e+001 44425 87748,87852,87800
 2.5000e+000 87904 -1.4953e+001 -1.3969e+002  3.2819e+001 44425 87748,87800,87774
 2.5000e+000 88423  2.2365e+001 -1.4380e+002 -7.7874e+000 44078 88590,88230,88204
 2.5000e+000 88400  6.4244e+000 -1.4086e+002  1.0133e+001 44078 88518,88446,88204
 2.5000e+000 88377  6.8821e+000 -1.4377e+002 -2.1502e+001 44078 88446,88126,88282
 2.5000e+000 88354  1.4345e+001 -1.4236e+002  1.1526e+001 44078 88518,88204,88178
 2.5000e+000 88331  7.3989e+000 -1.5748e+002 -2.0232e+001 44078 88100,88282,88126
 2.5000e+000 88308  5.4730e+000 -1.5363e+002  7.5858e+001 44078 88126,88178,88152
 2.5000e+000 88472  1.9413e+001 -1.5223e+002 -2.3087e+000 44078 88590,88204,88446
 2.5000e+000 88495 -7.5038e+000 -2.0539e+002 -3.4961e+001 44078 88256,88446,88282
 2.5000e+000 88544  1.3989e+001 -1.3833e+002  1.3726e+001 44078 88126,88446,88518
 2.5000e+000 88567  2.0281e+001 -1.4238e+002  1.3677e+001 44078 88126,88518,88178
 2.5000e+000 88616 -7.6801e+001 -2.9428e+002 -5.1555e+001 44078 88256,88230,88590
 2.5000e+000 88639  1.3618e+001 -1.5170e+002 -1.2349e+001 44078 88256,88590,88446
 2.5000e+000 89039  2.0696e-002 -9.2090e+001  8.9996e+000 43716 88791,88921,88895
 2.5000e+000 89016 -1.5442e+001 -9.6871e+001  5.0501e+000 43716 88765,88921,88791
 2.5000e+000 88993  2.8036e+000 -8.9905e+001  2.2970e+001 43716 88817,88895,88869
 2.5000e+000 88970 -6.0209e+001 -1.1753e+002  1.3549e+001 43716 88791,88895,88817
 2.5000e+000 88947 -1.1465e+001 -6.0145e+001 -1.0047e+001 43716 88817,88869,88843
 2.5000e+000 89496  1.6397e+001 -1.8521e+002 -1.5920e+001 43162 89519,89274,89248
 2.5000e+000 89473  1.8521e+001 -1.7494e+002 -1.3744e+001 43162 89519,89248,89222
 2.5000e+000 89450 -6.3449e-001 -1.6426e+002 -7.2974e+001 43162 89326,89378,89352
 2.5000e+000 89427 -7.6648e+000 -2.2205e+002 -2.4227e+001 43162 89274,89378,89326
 2.5000e+000 89404  3.8806e+001 -1.3300e+002  2.9836e+000 43162 89274,89326,89300
 2.5000e+000 89545  1.5301e+001 -1.7563e+002 -1.3188e+001 43162 89378,89274,89519
 2.5000e+000 89568  1.8099e+001 -1.6455e+002 -1.0863e+001 43162 89378,89519,89222
 2.5000e+000 89946 -3.9144e+000 -1.7780e+002 -3.6787e+001 42594 90041,89969,89750
 2.5000e+000 89923 -7.2514e+000 -1.2654e+002 -1.2921e+001 42594 89969,89698,89828
 2.5000e+000 89900  2.5650e+000 -1.8958e+002 -3.1718e+001 42594 90041,89750,89724
 2.5000e+000 89877  6.7409e+000 -1.5288e+002 -2.7567e+001 42594 89750,89802,89776
 2.5000e+000 89854  9.8329e+000 -4.6162e+001 -1.1675e+001 42594 89672,89828,89698
 2.5000e+000 89995  7.0516e+000 -1.3333e+002 -3.7875e+001 42594 89802,89750,89969
 2.5000e+000 90018  1.4548e+000 -9.2288e+001 -1.3692e+000 42594 89802,89969,89828
 2.5000e+000 90067 -3.5623e+000 -1.2636e+002 -3.4452e+001 42594 89698,89969,90041
 2.5000e+000 90090 -2.7833e+001 -1.7439e+002 -1.9422e+001 42594 89698,90041,89724
 2.5000e+000 90517 -7.2565e+001 -2.5784e+002  2.9533e+000 42140 90540,90220,90194
 2.5000e+000 90494 -4.0706e+001 -2.3517e+002 -1.0641e+001 42140 90540,90194,90376
 2.5000e+000 90471 -5.3359e+001 -2.6145e+002  1.0331e+001 42140 90612,90350,90272
 2.5000e+000 90448 -9.4123e+001 -2.9285e+002 -7.8037e+000 42140 90272,90350,90298
 2.5000e+000 90425 -6.1059e+001 -2.2940e+002 -2.2123e+001 42140 90298,90350,90324
 2.5000e+000 90402 -3.7564e+001 -2.6167e+002  7.6386e+001 42140 90220,90272,90246
 2.5000e+000 90566 -5.5552e+001 -2.6070e+002  7.8763e+000 42140 90272,90220,90540
 2.5000e+000 90589 -5.4221e+001 -2.6364e+002  7.0674e+000 42140 90612,90272,90540
 2.5000e+000 90638 -4.9836e+001 -2.6148e+002  9.6505e+000 42140 90376,90350,90612
 2.5000e+000 90661 -4.4702e+001 -2.6033e+002  6.7622e+000 42140 90376,90612,90540
 2.5000e+000 91167 -8.3626e+000 -1.3047e+002 -3.5718e+001 41636 91190,90870,90844
 2.5000e+000 91144 -1.5262e+001 -2.2952e+002 -3.2250e+001 41636 91190,90844,91026
 2.5000e+000 91121 -4.9047e+001 -1.2807e+002 -5.4506e+001 41636 90870,90922,90896
 2.5000e+000 91098 -4.6447e+001 -1.9226e+002  3.7969e+001 41636 90922,91026,90948
 2.5000e+000 91075  1.2259e+001 -1.3230e+002 -3.1303e+000 41636 90948,91026,91000
 2.5000e+000 91052 -1.7971e+001 -1.9346e+002  6.9885e+000 41636 90948,91000,90974
 2.5000e+000 91216 -2.0059e+001 -1.0276e+002 -3.4667e+001 41636 90922,90870,91190
 2.5000e+000 91239  1.9632e+001 -1.3757e+002 -1.8019e+001 41636 90922,91190,91026
 2.5000e+000 91696 -6.5651e+001 -1.7065e+002 -3.1167e+001 40449 91448,91526,91474
 2.5000e+000 91673 -7.6895e+001 -1.8681e+002 -5.9123e+000 40449 91448,91578,91526
 2.5000e+000 91650 -3.0482e+001 -1.4752e+002 -1.4435e+001 40449 91474,91526,91500
 2.5000e+000 91627 -2.3137e+001 -1.9369e+002 -2.0015e+001 40449 91422,91578,91448
 2.5000e+000 91604 -2.0572e+001 -1.2263e+002 -3.0102e+001 40449 91526,91578,91552
 2.5000e+000 92123 -4.6122e+001 -1.6590e+002 -1.1812e+001 39995 92146,91904,91826
 2.5000e+000 92100 -3.0199e+001 -1.6133e+002 -2.5967e+001 39995 92146,91826,91800
 2.5000e+000 92077 -7.2535e+001 -1.7071e+002 -7.9380e+000 39995 91826,91904,91852
 2.5000e+000 92054 -6.8215e+001 -2.8304e+002  1.1845e+001 39995 91904,91982,91930
 2.5000e+000 92031 -3.3161e+001 -1.5586e+002 -1.1505e+001 39995 91852,91904,91878
 2.5000e+000 92008  1.8553e+000 -1.9917e+002 -2.1728e+001 39995 91930,91982,91956
 2.5000e+000 92172 -5.1145e+001 -1.7159e+002 -8.7851e+000 39995 91982,91904,92146
 2.5000e+000 92195 -4.5332e+001 -1.8509e+002 -1.9286e+001 39995 91982,92146,91800
 2.5000e+000 92652  3.6643e+000 -6.6424e+001  2.2366e+001 39633 92404,92534,92456
 2.5000e+000 92629 -1.5253e+001 -1.0714e+002  1.2754e+001 39633 92378,92534,92404
 2.5000e+000 92606 -9.6843e+000 -7.3612e+001  1.1435e+001 39633 92404,92456,92430
 2.5000e+000 92583 -3.8922e+001 -2.1327e+002  2.1268e+001 39633 92456,92534,92508
 2.5000e+000 92560  1.3387e+001 -8.4030e+001  4.0914e+001 39633 92456,92508,92482
 2.5000e+000 93079  1.8403e+000 -1.2877e+002 -2.7492e+001 39093 93102,92808,92756
 2.5000e+000 93056  1.2792e+001 -8.0014e+001 -6.5397e+001 39093 93102,92756,92938
 2.5000e+000 93033 -2.2157e+001 -1.8845e+002 -1.8302e+001 39093 93174,92912,92834
 2.5000e+000 93010 -1.0359e+002 -2.1199e+002 -2.6860e+001 39093 92834,92912,92860
 2.5000e+000 92987  5.3094e+001 -1.2501e+002 -7.2960e+001 39093 92756,92808,92782
 2.5000e+000 92964 -7.2307e+001 -2.0064e+002 -9.2431e+001 39093 92860,92912,92886
 2.5000e+000 93128  1.3407e+001 -1.4639e+002 -2.5339e+001 39093 92834,92808,93102
 2.5000e+000 93151 -2.7617e+000 -1.4133e+002 -2.0730e+001 39093 93174,92834,93102
 2.5000e+000 93200 -1.5244e+001 -1.7288e+002 -5.2623e+001 39093 92938,92912,93174
 2.5000e+000 93223 -2.4581e+000 -1.4992e+002 -5.7856e+001 39093 92938,93174,93102
 2.5000e+000 93680  6.7574e+000 -5.1720e+001 -1.9674e+001 38639 93703,93536,93484
 2.5000e+000 93657 -6.1912e+000 -6.2855e+001 -1.4623e+001 38639 93703,93484,93432
 2.5000e+000 93634 -6.1891e+000 -7.8460e+001  3.6086e+000 38639 93432,93484,93458
 2.5000e+000 93611 -2.6505e+001 -1.2575e+002 -8.4569e+000 38639 93484,93536,93510
 2.5000e+000 93588 -3.3887e+001 -2.0096e+001  4.2004e+000 38639 93406,93562,93432
 2.5000e+000 93729 -8.9568e+000 -1.1570e+001 -1.7494e+001 38639 93562,93536,93703
 2.5000e+000 93752 -4.9419e+001 -5.5156e+001 -7.0860e-001 38639 93562,93703,93432
 2.5000e+000 94160  2.0105e+001 -7.9107e+001 -1.9041e+001 38292 93935,94039,93961
 2.5000e+000 94137  2.7038e+001 -9.5348e+001  2.7124e+001 38292 93935,94065,94039
 2.5000e+000 94114 -1.2482e+002 -1.1717e+002 -2.9368e+001 38292 93961,94013,93987
 2.5000e+000 94091 -5.4629e+001 -8.5092e+001  6.2511e+000 38292 93961,94039,94013
 2.5000e+000 94408  3.2684e+001 -1.5175e+002 -6.3596e+000 37880 94431,94261,94235
 2.5000e+000 94385  2.2703e+001 -1.2185e+002 -1.1475e+001 37880 94431,94235,94313
 2.5000e+000 94362 -5.9865e-001 -1.1283e+002  2.4729e+001 37880 94209,94313,94235
 2.5000e+000 94339 -2.8282e+000 -1.1646e+002  2.1899e+001 37880 94183,94313,94209
 2.5000e+000 94457  5.4506e+001 -1.2685e+002 -1.6276e+001 37880 94287,94261,94431
 2.5000e+000 94480  2.7404e+001 -1.1209e+002 -1.4785e+001 37880 94287,94431,94313
 2.5000e+000 94728 -8.8756e+001 -2.1361e+002  6.3523e+000 37426 94529,94607,94555
 2.5000e+000 94705 -3.2237e+001 -2.5578e+002 -2.2612e+001 37426 94529,94633,94607
 2.5000e+000 94682 -1.7714e+001 -2.6809e+002 -2.7873e+001 37426 94503,94633,94529
 2.5000e+000 94659 -3.3779e+001 -8.8214e+001 -5.3433e+001 37426 94555,94607,94581
 2.5000e+000 95257  3.1945e+001 -1.3300e+002 -2.9359e+001 36722 95496,95280,94862
 2.5000e+000 95234  1.2643e+001 -1.3835e+002 -9.5964e+000 36722 95496,94862,94836
 2.5000e+000 95211  7.3848e+001 -1.4232e+002 -5.1465e+000 36722 95352,95280,95070
 2.5000e+000 95188  3.9571e+001 -1.5124e+002  3.0747e+001 36722 95352,95070,95044
 2.5000e+000 95165  3.5137e+000 -1.4013e+002 -4.0607e+001 36722 95424,94888,94862
 2.5000e+000 95142  4.4704e+001 -6.9447e+001  4.3508e+001 36722 94914,94966,94940
 2.5000e+000 95119 -5.2166e+001 -2.5709e+002  6.1981e+001 36722 94966,95044,95018
 2.5000e+000 95096 -4.5466e+001 -2.1010e+002  4.7621e+001 36722 94966,95018,94992
 2.5000e+000 95306 -1.5503e+001 -1.3936e+002 -3.1625e+001 36722 95424,94862,95280
 2.5000e+000 95329  8.3983e+000 -1.1372e+002 -4.7979e+000 36722 94914,95280,94966
 2.5000e+000 95378  1.0148e+001 -1.5748e+002  1.0496e+001 36722 94966,95280,95352
 2.5000e+000 95401 -1.6673e+001 -1.4562e+002  3.5847e+001 36722 94966,95352,95044
 2.5000e+000 95450 -2.4675e+001 -1.5017e+002 -3.9729e+001 36722 94914,94888,95424
 2.5000e+000 95473 -2.8059e+001 -1.4527e+002 -3.3263e+001 36722 94914,95424,95280
 2.5000e+000 95522  3.5767e+001 -1.2343e+002 -3.1086e+001 36722 95070,95280,95496
 2.5000e+000 95545  3.0753e+001 -1.1834e+002 -2.7402e+001 36722 95070,95496,94836
 2.5000e+000 96130 -1.2332e+001 -4.4213e+001  1.6903e+001 36268 96153,95911,95859
 2.5000e+000 96107 -2.6408e+001 -9.7067e+001  1.0364e+001 36268 96153,95859,95807
 2.5000e+000 96084 -1.0724e+001 -7.5769e+001 -6.0038e+000 36268 95807,95859,95833
 2.5000e+000 96061 -1.0045e+001 -1.9893e+002  2.3497e+001 36268 95911,95989,95937
 2.5000e+000 96038 -1.1076e+001 -4.7535e+001 -1.0795e+000 36268 95859,95911,95885
 2.5000e+000 96015 -5.7242e+001 -1.2152e+002 -2.9313e+001 36268 95937,95989,95963
 2.5000e+000 96179  2.1826e+001 -9.3864e+001  2.9522e+001 36268 95989,95911,96153
 2.5000e+000 96202 -3.4302e+000 -1.6299e+002  2.0217e+001 36268 95989,96153,95807
 2.5000e+000 96531 -1.7134e+001 -2.2156e+002  2.1031e+001 35728 96358,96410,96384
 2.5000e+000 96508 -5.1680e+001 -2.0405e+002  9.7286e+000 35728 96332,96410,96358
 2.5000e+000 96485 -3.6095e+001 -1.7237e+002  4.5573e+000 35728 96332,96436,96410
 2.5000e+000 96462  4.4298e+001 -1.1187e+002 -2.9690e+001 35728 96306,96436,96332
 2.5000e+000 96860  6.6877e+000 -1.2746e+002 -2.7914e+001 35324 96687,96765,96713
 2.5000e+000 96837 -3.7486e+001 -2.2288e+002 -8.9099e+000 35324 96661,96765,96687
 2.5000e+000 96814 -4.6336e+001 -1.7151e+002 -7.8529e+000 35324 96713,96765,96739
 2.5000e+000 96791 -6.4682e+001 -2.8335e+002 -2.9026e+001 35324 96635,96765,96661
 2.5000e+000 97366 -7.4831e+001 -2.3075e+002  1.8057e+001 34920 97389,97069,97043
 2.5000e+000 97343 -6.9796e+001 -2.0377e+002  1.2826e+001 34920 97389,97043,97199
 2.5000e+000 97320 -4.3862e+001 -2.1147e+002 -8.3390e+000 34920 97043,97225,97199
 2.5000e+000 97297 -4.7071e+001 -2.5180e+002 -1.7602e+001 34920 97069,97121,97095
 2.5000e+000 97274 -7.3521e+001 -1.6269e+002 -1.9297e+001 34920 97121,97199,97173
 2.5000e+000 97251 -7.5479e+001 -1.1578e+002 -5.5848e+001 34920 97121,97173,97147
 2.5000e+000 97415 -8.5724e+001 -2.2790e+002 -1.6788e+001 34920 97121,97069,97389
 2.5000e+000 97438 -6.2391e+001 -1.6876e+002 -2.2341e+001 34920 97121,97389,97199
 2.5000e+000 97708 -3.6701e+001 -1.7484e+002 -4.0277e+000 34722 97509,97587,97535
 2.5000e+000 97685 -1.9126e+001 -1.6937e+002 -8.6038e+000 34722 97509,97613,97587
 2.5000e+000 97662 -5.1984e+001 -1.8392e+002 -1.1418e+001 34722 97483,97613,97509
 2.5000e+000 97639 -2.1827e+001 -1.5014e+002  3.1044e+001 34722 97535,97587,97561
 2.5000e+000 98216 -2.1583e+001 -2.7148e+002 -1.2556e+001 34318 97971,98075,97997
 2.5000e+000 98193  3.2567e+001 -2.0648e+002  3.0407e+001 34318 97893,98075,97971
 2.5000e+000 98170  5.3470e+001 -1.6792e+002  2.1676e+001 34318 97893,97971,97919
 2.5000e+000 98147 -3.8446e+001 -1.6551e+002  3.4737e+001 34318 97997,98075,98049
 2.5000e+000 98124  2.7594e+001 -1.2417e+002 -2.0398e+000 34318 97919,97971,97945
 2.5000e+000 98101 -6.7129e+001 -2.2159e+002  6.1109e+001 34318 97997,98049,98023
 2.5000e+000 98594  2.4987e+001 -1.1015e+002 -1.0178e+001 33814 98961,98617,98424
 2.5000e+000 98571  8.3552e+000 -1.3407e+002 -8.0562e+000 33814 98689,98617,98372
 2.5000e+000 98548 -1.3648e+001 -9.1149e+001 -5.5856e+000 33814 99033,98689,98372
 2.5000e+000 98525  8.7558e+000 -5.6046e+001  4.2860e+001 33814 98761,98476,98450
 2.5000e+000 98502  2.8727e+001 -1.1137e+002 -9.0723e+000 33814 98961,98424,98398
 2.5000e+000 98643  7.6291e-001 -1.0442e+002  1.1436e+001 33814 98450,98424,98617
 2.5000e+000 98666  1.5731e+001 -7.9279e+001  1.7784e+001 33814 98761,98450,98617
 2.5000e+000 98715 -3.5628e+001 -1.6041e+002 -9.5263e+000 33814 99161,98689,98320
 2.5000e+000 98738 -6.5470e+001 -1.5943e+002 -3.2501e+000 33814 98320,98689,98346
 2.5000e+000 98787 -5.4332e+001 -1.2668e+002  5.6701e+001 33814 98833,98761,98320
 2.5000e+000 98810 -1.9815e+001 -1.6945e+002  1.4466e+001 33814 99161,98320,98761
 2.5000e+000 98859  8.4991e+000 -2.5819e+001  2.0904e+001 33814 98476,98761,98833
 2.5000e+000 98987  1.9003e+001 -1.0916e+002 -8.8674e+000 33814 98372,98617,98961
 2.5000e+000 99010  2.2787e+001 -1.1028e+002 -6.9615e+000 33814 98372,98961,98398
 2.5000e+000 99059 -5.1725e+001 -1.6844e+002 -2.5623e+001 33814 98346,98689,99033
 2.5000e+000 99187 -1.7794e+001 -1.2694e+002 -3.2883e-001 33814 98617,98689,99161
 2.5000e+000 99210  4.3034e-001 -1.3860e+002  2.4296e+001 33814 98617,99161,98761
 2.5000e+000 99588 -3.3015e+001 -1.3506e+002 -1.8281e+001 33566 99366,99444,99392
 2.5000e+000 99565 -6.2152e+000 -1.0497e+002 -6.9391e+000 33566 99314,99444,99366
 2.5000e+000 99542 -3.2930e+001 -1.4189e+002  9.7574e+000 33566 99314,99366,99340
 2.5000e+000 99519 -7.0918e+000 -1.1947e+002  1.3077e+001 33566 99314,99470,99444
 2.5000e+000 99496  3.2943e+000 -8.4310e+001 -3.8635e+001 33566 99392,99444,99418
 2.5000e+000 99787 -4.0819e+001 -2.1450e+002  1.0243e+001 33105 99637,99689,99663
 2.5000e+000 99764 -2.6375e+001 -2.0297e+002  2.4376e-001 33105 99611,99689,99637
 2.5000e+000 99741 -8.9896e+000 -1.0726e+002  6.2198e+000 33105 99611,99715,99689
 2.5000e+000 100167 -7.6359e+001 -1.6212e+002  4.6924e+001 32651 100190,99971,99919
 2.5000e+000 100144 -3.1899e+000 -1.1839e+002  2.2591e+001 32651 100262,100190,99919
 2.5000e+000 100121 -3.1213e+000 -1.1598e+002  1.9775e+001 32651 100262,99919,100049
 2.5000e+000 100098 -1.2916e+001 -1.1876e+002 -2.0119e+001 32651 99893,100049,99919
 2.5000e+000 100075  2.9676e+000 -1.2828e+002  9.4225e+001 32651 99919,99971,99945
 2.5000e+000 100216 -2.2576e-001 -1.5557e+002  1.9160e+001 32651 99997,99971,100190
 2.5000e+000 100239  2.0278e+001 -1.4471e+002 -4.0252e-001 32651 99997,100190,100023
 2.5000e+000 100288  5.3479e+000 -1.3686e+002  2.1828e+001 32651 100023,100190,100262
 2.5000e+000 100311  2.8280e+001 -1.2053e+002  1.0057e+001 32651 100023,100262,100049
 2.5000e+000 100608 -3.7277e+001 -1.8002e+002  2.3457e+000 32254 100386,100490,100464
 2.5000e+000 100585 -6.3692e+001 -1.9768e+002 -1.6717e+001 32254 100360,100490,100386
 2.5000e+000 100562 -4.6583e+001 -1.9204e+002 -3.8724e+000 32254 100386,100464,100412
 2.5000e+000 100539  1.1450e+001 -1.5697e+002  4.4242e+000 32254 100334,100490,100360
 2.5000e+000 100516 -4.2537e+001 -1.2628e+002 -1.4171e+001 32254 100412,100464,100438
 2.5000e+000 100758  4.6773e+001  7.6640e+000  3.6236e+001 31914 100985,100781,100683
 2.5000e+000 100735  2.6564e+001 -3.8015e+001 -5.0697e+000 31914 100853,100781,100657
 2.5000e+000 100807  5.2789e+001 -2.7529e+001  2.3061e+001 31914 100709,100683,100781
 2.5000e+000 100830  9.9519e+000 -5.9904e+001 -2.7941e+001 31914 100709,100781,100631
 2.5000e+000 100879  5.1372e+001  2.8774e+001 -1.7009e+001 31914 100631,100781,100853
 2.5000e+000 101011  6.5107e+000 -3.3732e+001  1.5271e+001 31914 100657,100781,100985
 2.5000e+000 101191 -1.9557e+000 -1.4544e+002  1.2017e+001 31418 101113,101165,101139
 2.5000e+000 101341 -5.7625e+001 -1.7918e+002 -9.0927e+000 31106 101214,101266,101240
 2.5000e+000 101318 -3.7317e+001 -1.2333e+002 -3.8202e+000 31106 101214,101292,101266
 2.5000e+000 101591 -6.3242e+001 -1.7320e+002  4.2951e+001 30552 101614,101470,101444
 2.5000e+000 101568  1.2855e+001 -1.6047e+002  5.4212e+001 30552 101366,101496,101470
 2.5000e+000 101545 -7.5337e+001 -1.7922e+002  5.2853e+001 30552 101614,101444,101392
 2.5000e+000 101522 -8.3238e+000 -1.6122e+002  5.1988e+001 30552 101392,101444,101418
 2.5000e+000 101640 -8.0416e+001 -1.7090e+002  5.0508e+001 30552 101366,101470,101614
 2.5000e+000 101663 -9.0865e+001 -1.7549e+002  6.0286e+001 30552 101366,101614,101392
 2.5000e+000 102301 -2.5357e+001 -1.7614e+002  1.9940e+001 30042 102396,102324,102059
 2.5000e+000 102278 -5.6345e+001 -1.4814e+002  5.0697e+000 30042 102324,101981,101955
 2.5000e+000 102255 -3.5575e+001 -1.6031e+002  4.1097e+001 30042 102396,102059,102033
 2.5000e+000 102232 -2.8760e+001 -1.1788e+002 -1.5906e-001 30042 101929,102111,101955
 2.5000e+000 102209  4.6863e+000 -1.8919e+002 -2.0360e+001 30042 102059,102111,102085
 2.5000e+000 102186 -3.4456e+001 -1.1958e+002 -1.7738e+000 30042 101929,102137,102111
 2.5000e+000 102163 -1.0136e+000 -7.2294e+001 -1.3566e+001 30042 101981,102033,102007
 2.5000e+000 102350 -3.3015e+001 -1.6962e+002 -3.1625e+000 30042 102111,102059,102324
 2.5000e+000 102373 -2.0790e+001 -1.2810e+002 -5.3426e+000 30042 102111,102324,101955
 2.5000e+000 102422 -1.6210e+001 -1.2524e+002  1.8629e+001 30042 101981,102324,102396
 2.5000e+000 102445 -2.5433e+001 -1.0892e+002  4.0496e+001 30042 101981,102396,102033
 2.5000e+000 103000  5.5859e+000 -1.9648e+002 -2.8439e+000 29730 103023,102706,102654
 2.5000e+000 102977 -3.6315e+001 -1.8473e+002 -2.7886e+001 29730 103023,102654,102810
 2.5000e+000 102954 -1.0177e+002 -3.1967e+002 -2.2693e+001 29730 102732,102810,102784
 2.5000e+000 102931 -8.6088e+001 -2.1423e+002 -4.2441e+001 29730 102628,102810,102654
 2.5000e+000 102908 -7.6137e+000 -1.4885e+002  1.7841e+001 29730 102654,102706,102680
 2.5000e+000 102885 -5.2137e+001 -1.9381e+002 -2.7018e+001 29730 102732,102784,102758
 2.5000e+000 102862 -6.4074e+001 -1.9712e+002 -6.9330e+001 29730 102628,102836,102810
 2.5000e+000 103049 -2.3108e+001 -2.3563e+002 -1.8255e+001 29730 102732,102706,103023
 2.5000e+000 103072 -4.7681e+001 -1.9880e+002 -3.8010e+001 29730 102732,103023,102810
 2.5000e+000 103222  1.0853e+000 -1.6701e+002 -1.6837e+001 29226 103095,103147,103121
 2.5000e+000 103199 -1.1016e+000 -1.6309e+002 -1.8279e+001 29226 103095,103173,103147
 2.5000e+000 103730 -1.1790e+001 -1.2814e+002 -9.1174e-002 28822 103537,103589,103563
 2.5000e+000 103707 -1.1851e+001 -1.5732e+002 -3.3300e+000 28822 103433,103589,103537
 2.5000e+000 103684 -7.4207e+001 -1.6847e+002 -2.7691e+001 28822 103433,103537,103459
 2.5000e+000 103661 -4.4145e+000 -1.8629e+002 -2.2364e+000 28822 103407,103589,103433
 2.5000e+000 103638 -3.9846e+001 -7.3214e+001 -2.2142e+000 28822 103459,103511,103485
 2.5000e+000 103615 -1.9333e+001 -9.4635e+001  7.7328e+000 28822 103459,103537,103511
 2.5000e+000 103880  1.7110e+001 -1.3873e+002  1.2323e+001 28368 103975,103903,103779
 2.5000e+000 103857  3.1917e+001 -1.5223e+002 -6.6471e+000 28368 103903,103753,103831
 2.5000e+000 103929  2.2020e+001 -1.3239e+002  1.4547e+001 28368 103805,103779,103903
 2.5000e+000 103952  5.3072e+001 -1.6279e+002  4.7551e+000 28368 104105,103903,103831
 2.5000e+000 104001 -3.6077e-001 -1.5168e+002  1.9833e+000 28368 103753,103903,103975
 2.5000e+000 104131  1.5073e+001 -1.6643e+002  2.4522e+001 28368 103805,103903,104105
 2.5000e+000 104539 -1.3455e+001 -9.5944e+001  1.8118e+001 28028 104562,104340,104314
 2.5000e+000 104516 -1.6800e+001 -6.2654e+001  2.6972e+001 28028 104634,104562,104314
 2.5000e+000 104493 -1.9205e+001 -9.5629e+001 -1.6335e+001 28028 104762,104366,104340
 2.5000e+000 104470 -1.8917e+001 -7.6349e+001 -2.4166e+001 28028 104366,104418,104392
 2.5000e+000 104588 -2.2931e+001 -1.1215e+002 -2.4065e+000 28028 104762,104340,104562
 2.5000e+000 104611 -3.5163e+001 -6.9130e+001  2.7965e+000 28028 104418,104562,104444
 2.5000e+000 104660 -5.7513e+001 -7.7458e+001  1.2478e+001 28028 104444,104562,104634
 2.5000e+000 104788 -3.1302e+001 -7.4140e+001 -1.4661e+001 28028 104418,104366,104762
 2.5000e+000 104811 -2.9162e+001 -8.3478e+001 -8.3791e-001 28028 104418,104762,104562
 2.5000e+000 105010 -3.2673e+001 -1.1248e+002 -1.3085e+001 27324 105033,104886,104860
 2.5000e+000 104987  6.0819e+001 -6.4937e+001  1.0866e+001 27324 105033,104860,104834
 2.5000e+000 104964  3.5233e+001 -6.7878e+001  3.5858e+001 27324 105105,104912,104886
 2.5000e+000 105059  7.7823e+000 -6.4351e+001  2.9829e+001 27324 105105,104886,105033
 2.5000e+000 105082  2.9241e+001 -7.7587e+001  3.7193e+001 27324 104938,105033,104834
 2.5000e+000 105131  8.4740e+001 -6.3869e+001  4.8938e+001 27324 104938,104912,105105
 2.5000e+000 105154  4.8709e+001 -7.2671e+001  3.6028e+001 27324 104938,105105,105033
 2.5000e+000 105402 -7.7699e+001 -1.2989e+002 -6.6836e+000 27012 105229,105281,105255
 2.5000e+000 105379 -4.9148e+001 -1.0192e+002 -1.8191e+001 27012 105229,105307,105281
 2.5000e+000 105356 -2.4004e+001 -8.1898e+001 -9.4781e+000 27012 105177,105307,105229
 2.5000e+000 105333 -6.6664e+001 -9.9217e+001 -5.1579e+001 27012 105177,105229,105203
 2.5000e+000 105603  2.0110e+001 -2.0347e+001  2.4847e+001 26508 105626,105453,105427
 2.5000e+000 105580  1.8583e+001 -2.3672e+001  2.0488e+001 26508 105626,105427,105505
 2.5000e+000 105557  4.1681e+000 -1.2911e+001  1.1906e+001 26508 105427,105531,105505
 2.5000e+000 105652  2.2918e+001 -1.9198e+001  2.6172e+001 26508 105479,105453,105626
 2.5000e+000 105675  2.2971e+001 -2.0636e+001  2.2181e+001 26508 105479,105626,105505
 2.5000e+000 106057 -1.9750e+001 -1.3183e+002  6.4643e+001 25947 106080,105887,105861
 2.5000e+000 106034 -9.3315e+000 -1.3218e+002  2.5717e+001 25947 106080,105861,105783
 2.5000e+000 106011 -3.2461e+001 -8.4269e+001  2.3917e+001 25947 105783,105835,105809
 2.5000e+000 105988 -4.6683e+001 -9.4250e+001  2.9592e+001 25947 105783,105861,105835
 2.5000e+000 105965  4.2905e+000 -6.1171e+001  3.5475e+001 25947 105887,105939,105913
 2.5000e+000 106106  1.1994e+000 -1.2144e+002  6.0281e+001 25947 105939,105887,106080
 2.5000e+000 106129  3.9828e+001 -1.0813e+002  1.8133e+001 25947 105939,106080,105783
 2.5000e+000 106714 -5.2320e+001 -9.1992e+001  7.0897e+000 25557 106809,106737,106547
 2.5000e+000 106691 -5.5002e+001 -1.1629e+002  1.3802e+001 25557 106737,106417,106391
 2.5000e+000 106668 -4.5458e+001 -8.4050e+001  3.5952e+000 25557 106809,106547,106495
 2.5000e+000 106645 -6.7682e+001 -1.7111e+002  3.0559e+001 25557 106417,106495,106469
 2.5000e+000 106622 -6.1368e+001 -8.3946e+001  1.2003e+001 25557 106495,106547,106521
 2.5000e+000 106599 -7.0713e+001 -1.3760e+002  3.1918e+001 25557 106417,106469,106443
 2.5000e+000 106763 -6.9156e+001 -1.1142e+002  1.6050e+001 25557 106573,106547,106737
 2.5000e+000 106786 -4.8427e+001 -1.0204e+002  1.1328e+001 25557 106573,106737,106391
 2.5000e+000 106835 -4.2615e+001 -1.0824e+002  9.9494e+000 25557 106417,106737,106809
 2.5000e+000 106858 -3.6228e+001 -9.8027e+001  7.1182e+000 25557 106417,106809,106495
 2.5000e+000 107364 -1.9398e+001 -8.8169e+001 -1.9915e+001 25153 107459,107387,107171
 2.5000e+000 107341 -1.0205e+001 -8.2756e+001 -9.4695e+000 25153 107387,107119,107067
 2.5000e+000 107318 -1.4892e+001 -6.3595e+001  3.7976e+000 25153 107459,107171,107145
 2.5000e+000 107295 -2.6792e+001 -9.9366e+001 -3.1197e+001 25153 107531,107223,107197
 2.5000e+000 107272 -1.9863e+001 -8.4840e+001  1.4801e+001 25153 107067,107119,107093
 2.5000e+000 107249 -2.3307e+001 -8.6141e+001 -1.4894e+001 25153 107041,107223,107067
 2.5000e+000 107413 -4.8110e+001 -9.8860e+001 -1.9198e+001 25153 107197,107171,107387
 2.5000e+000 107436 -1.6148e+001 -1.0033e+002 -2.3297e+001 25153 107531,107197,107387
 2.5000e+000 107485 -4.4000e+000 -4.7165e+001 -1.3373e+000 25153 107119,107387,107459
 2.5000e+000 107508  1.1920e+001 -2.2769e+001  2.5738e+001 25153 107119,107459,107145
 2.5000e+000 107557 -3.0955e+001 -9.0386e+001 -1.7757e+001 25153 107067,107223,107531
 2.5000e+000 107580 -1.5660e+001 -8.3537e+001 -9.1237e+000 25153 107067,107531,107387
 2.5000e+000 107958 -2.8559e+001 -1.3092e+002 -1.0139e+001 24741 107736,107814,107788
 2.5000e+000 107935 -3.5472e+001 -1.5161e+002 -2.9697e+001 24741 107736,107840,107814
 2.5000e+000 107912 -5.1374e+001 -1.4217e+002 -3.9307e+001 24741 107684,107840,107736
 2.5000e+000 107889 -4.2040e+001 -1.1407e+002 -1.5410e+001 24741 107736,107788,107762
 2.5000e+000 107866 -6.1225e+001 -2.1465e+002 -7.2787e+001 24741 107684,107736,107710
 2.5000e+000 108157 -2.2883e+001 -6.4957e+001  1.5674e+001 24237 108180,108059,108007
 2.5000e+000 108134 -1.0425e+001 -4.2370e+001  3.2877e+001 24237 108180,108007,107981
 2.5000e+000 108111  1.0830e+001 -8.8559e+001  1.4929e+001 24237 108007,108059,108033
 2.5000e+000 108206 -1.1613e+001 -4.5174e+001  2.9898e+001 24237 108085,108059,108180
 2.5000e+000 108229  1.4475e-001 -2.2898e+001  4.6957e+001 24237 108085,108180,107981
 2.5000e+000 108658 -6.0636e+001 -1.3643e+002  1.5183e+001 23776 108361,108413,108387
 2.5000e+000 108635 -3.1594e-001 -1.6162e+002 -2.2067e+001 23776 108753,108681,108361
 2.5000e+000 108612  7.4699e+001 -9.1721e+001 -5.1063e+001 23776 108681,108465,108439
 2.5000e+000 108589  2.5606e+001 -1.7027e+002 -6.9697e+000 23776 108753,108361,108335
 2.5000e+000 108566  2.1807e+001 -1.2094e+002  6.3582e+001 23776 108335,108517,108465
 2.5000e+000 108543  5.9806e+000 -1.5878e+002  5.8259e+001 23776 108465,108517,108491
 2.5000e+000 108707 -6.2580e+001 -1.1703e+002  3.3329e+000 23776 108413,108361,108681
 2.5000e+000 108730  1.0614e+001 -1.1076e+002 -1.0552e+000 23776 108413,108681,108439
 2.5000e+000 108779  2.4486e+001 -1.1725e+002 -1.2198e+001 23776 108465,108681,108753
 2.5000e+000 108802  3.3153e+001 -1.5402e+002 -4.0751e+000 23776 108465,108753,108335
 2.5000e+000 109023  4.3708e+001 -4.0546e+001  1.9913e+001 23414 108873,108925,108899
 2.5000e+000 109000  3.0879e+000 -5.5394e+001  1.8770e+001 23414 108847,108925,108873
 2.5000e+000 108977  3.9173e+001  1.9287e+001  5.1251e+000 23414 108847,108951,108925
 2.5000e+000 109474 -2.8872e+001 -1.1763e+002  1.0838e+001 23024 109151,109307,109177
 2.5000e+000 109451 -2.1568e+001 -8.7504e+001  5.7185e+000 23024 109151,109333,109307
 2.5000e+000 109428 -3.9791e+001 -2.0542e+002 -5.4411e+000 23024 109177,109281,109203
 2.5000e+000 109405 -8.7802e+001 -1.8381e+002 -2.2208e+001 23024 109177,109307,109281
 2.5000e+000 109382 -3.9050e+001 -1.7276e+002  1.4971e+001 23024 109203,109281,109229
 2.5000e+000 109359 -2.5827e+001 -1.1742e+002  1.6736e+001 23024 109229,109281,109255
 2.5000e+000 109820 -2.3984e+001 -1.2496e+002  1.5128e+001 22506 109843,109601,109523
 2.5000e+000 109797  2.1332e+000 -1.0918e+002  8.1325e+000 22506 109843,109523,109497
 2.5000e+000 109774  6.3210e+000 -1.3397e+002  1.2214e+001 22506 109915,109653,109627
 2.5000e+000 109751 -1.2938e+000 -9.1512e+001  1.9447e+001 22506 109497,109679,109653
 2.5000e+000 109728 -3.7334e+001 -1.5957e+002 -2.4843e+001 22506 109523,109601,109575
 2.5000e+000 109705 -8.1828e+001 -2.1257e+002 -4.4374e+001 22506 109523,109575,109549
 2.5000e+000 109869  5.8085e+000 -1.1738e+002  1.8882e+001 22506 109627,109601,109843
 2.5000e+000 109892  1.0210e+001 -1.2676e+002  1.4622e+001 22506 109915,109627,109843
 2.5000e+000 109941  2.9296e+000 -1.2812e+002  7.7779e+000 22506 109497,109653,109915
 2.5000e+000 109964  3.4296e+000 -1.2750e+002  9.2719e+000 22506 109497,109915,109843
 2.5000e+000 110163 -1.3737e+001 -1.0610e+002  6.8921e+000 21936 110186,110039,110013
 2.5000e+000 110140 -5.4067e+000 -8.8543e+001  1.6516e+001 21936 110390,110186,110013
 2.5000e+000 110117  6.5985e+000 -9.5806e+001  2.7321e+001 21936 110390,110013,109987
 2.5000e+000 110212  3.2140e-001 -8.2498e+001 -1.6702e+001 21936 110065,110039,110186
 2.5000e+000 110235 -1.7662e+001 -6.8426e+001  2.9750e+000 21936 110258,110186,110091
 2.5000e+000 110284 -6.2378e+001 -1.0562e+002 -1.2970e+001 21936 110065,110186,110258
 2.5000e+000 110416 -3.1626e+001 -9.0732e+001  1.7821e+001 21936 110091,110186,110390
 2.5000e+000 110439 -1.4428e+001 -9.4646e+001  2.7636e+001 21936 110091,110390,109987
 2.5000e+000 110709 -1.7344e+001 -1.2857e+002  3.9154e+000 21338 110510,110614,110588
 2.5000e+000 110686 -4.0434e+001 -1.7280e+002 -8.3878e+000 21338 110484,110614,110510
 2.5000e+000 110663 -1.0790e+001 -5.9987e+001 -2.9782e-001 21338 110510,110562,110536
 2.5000e+000 110640 -4.0500e+001 -1.3052e+002 -3.7550e+000 21338 110510,110588,110562
 2.5000e+000 111296  1.3757e+001 -1.1656e+002  3.9684e+000 20934 111025,111155,111103
 2.5000e+000 111273  1.3156e+000 -2.3697e+002 -5.1718e+000 20934 110999,111155,111025
 2.5000e+000 111250  7.9358e+001 -8.5231e+001 -1.0296e+001 20934 111103,111155,111129
 2.5000e+000 111227 -2.4850e+001 -1.7020e+002 -3.2320e+001 20934 111051,111103,111077
 2.5000e+000 111204 -4.1442e+001 -1.7853e+002 -1.9919e+001 20934 111025,111103,111051
 2.5000e+000 111181 -2.3438e+001 -2.7583e+002 -1.5912e+001 20934 110973,111155,110999
 2.5000e+000 111930 -6.7287e+001 -1.0329e+002 -2.4579e+001 20494 111662,111714,111688
 2.5000e+000 111907 -2.6239e+001 -8.9401e+001 -1.6161e+001 20494 111584,111714,111662
 2.5000e+000 111884 -2.9900e+001 -9.2611e+001 -1.4735e+001 20494 111584,111766,111714
 2.5000e+000 111861  1.6966e+001 -1.9614e+002  3.2677e+001 20494 111584,111636,111610
 2.5000e+000 111838 -4.5085e+001 -1.3065e+002 -1.0013e+001 20494 111584,111662,111636
 2.5000e+000 111815 -1.9662e+000 -6.0518e+001  1.7142e+001 20494 111558,111766,111584
 2.5000e+000 111792 -3.9183e+001 -9.8905e+001  1.1265e+001 20494 111714,111766,111740
 2.5000e+000 112249 -4.1539e+001 -2.4024e+002  1.9296e+001 19940 111975,112053,112001
 2.5000e+000 112226  2.5421e+000 -1.5485e+002  2.6056e+000 19940 111975,112131,112053
 2.5000e+000 112203  2.9514e+001 -2.1219e+002  0.0000e+000 19940 112053,112105,112079
 2.5000e+000 112180 -2.9109e+001 -2.2517e+002 -4.0258e+000 19940 112053,112131,112105
 2.5000e+000 112157 -1.5471e+000 -2.0525e+002 -3.2293e+000 19940 112001,112053,112027
 2.5000e+000 112757  3.0510e+001 -1.2066e+002 -3.4708e+001 19486 112780,112538,112486
 2.5000e+000 112734  2.4354e+001 -1.3090e+002 -1.2112e+001 19486 112780,112486,112460
 2.5000e+000 112711 -3.6253e+000 -1.1293e+002 -1.2401e+001 19486 112852,112616,112590
 2.5000e+000 112688  1.2107e+002 -1.7425e+002 -4.6589e+001 19486 112486,112538,112512
 2.5000e+000 112665 -4.5983e+001 -1.6384e+002 -1.3713e+001 19486 112434,112616,112460
 2.5000e+000 112642  8.4919e-001 -1.0256e+002 -2.7770e+001 19486 112538,112590,112564
 2.5000e+000 112806  8.4415e+000 -1.3161e+002 -3.0158e+001 19486 112590,112538,112780
 2.5000e+000 112829  2.6779e+001 -1.2056e+002 -1.8795e+001 19486 112852,112590,112780
 2.5000e+000 112878 -2.3437e+001 -1.2162e+002 -4.2302e+000 19486 112460,112616,112852
 2.5000e+000 112901 -5.5355e+000 -1.4091e+002 -7.4242e+000 19486 112460,112852,112780
 2.5000e+000 113252 -9.8788e+001 -1.9865e+002 -4.0150e+000 19096 113105,113157,113131
 2.5000e+000 113229 -8.4769e+001 -1.4716e+002  5.1289e-002 19096 113053,113157,113105
 2.5000e+000 113206 -7.5773e+001 -1.3736e+002  6.6226e+000 19096 113027,113157,113053
 2.5000e+000 113183 -1.2509e+002 -2.2821e+002  1.3781e+001 19096 113053,113105,113079
 2.5000e+000 113451  3.1021e+001 -1.4485e+002  9.1895e+000 18642 113327,113379,113353
 2.5000e+000 113428  3.5712e+000 -1.8684e+002 -1.4279e+001 18642 113301,113379,113327
 2.5000e+000 113405 -5.8958e+000 -1.6569e+002 -6.5892e+000 18642 113275,113379,113301
 2.5000e+000 113699  4.3940e+000 -1.7563e+002 -2.7401e+000 18138 113474,113552,113526
 2.5000e+000 113676  3.4869e+001 -1.8267e+002 -1.8234e+001 18138 113474,113578,113552
 2.5000e+000 113653  2.8052e+001 -1.7790e+002 -1.5957e+001 18138 113474,113604,113578
 2.5000e+000 113630  3.5741e+001 -1.5444e+002  1.3779e+001 18138 113474,113526,113500
 2.5000e+000 113851 -1.4575e+001 -2.0069e+002 -1.8463e+000 17682 113750,113802,113776
 2.5000e+000 113828 -5.1045e+000 -1.8905e+002  3.2756e+000 17682 113724,113802,113750
 2.5000e+000 114383 -9.5630e-001 -1.3924e+002 -1.0863e+001 17106 114086,114242,114164
 2.5000e+000 114360 -5.8629e+001 -1.6240e+002  5.3596e+000 17106 114060,114242,114086
 2.5000e+000 114337 -7.0392e+001 -2.5974e+002  2.4463e+001 17106 114086,114164,114138
 2.5000e+000 114314 -6.8408e+001 -3.7832e+002 -1.1016e+001 17106 114190,114242,114216
 2.5000e+000 114291 -5.0615e+001 -2.7685e+002 -2.3305e+001 17106 114164,114242,114190
 2.5000e+000 114268 -3.3611e+001 -2.4569e+002  5.2672e+001 17106 114086,114138,114112
 2.5000e+000 114680 -6.5372e+001 -1.8932e+002  9.0857e+000 16766 114703,114432,114406
 2.5000e+000 114657 -6.9475e+001 -1.8287e+002  4.5831e+000 16766 114703,114406,114510
 2.5000e+000 114634 -6.5905e+001 -1.4912e+002  1.1294e+001 16766 114406,114536,114510
 2.5000e+000 114611 -4.9159e+001 -1.9610e+002 -9.6634e+000 16766 114432,114484,114458
 2.5000e+000 114588 -6.9366e+001 -1.6451e+002  4.6575e+001 16766 114406,114562,114536
 2.5000e+000 114729 -4.8517e+001 -1.8277e+002  7.8504e+000 16766 114484,114432,114703
 2.5000e+000 114752 -6.3942e+001 -1.8339e+002  4.8715e+000 16766 114484,114703,114510
 2.5000e+000 114902  4.3238e+001 -2.4233e+002 -2.7975e+001 16362 114775,114827,114801
 2.5000e+000 114879  3.9534e+001 -2.1995e+002 -3.3792e+001 16362 114775,114853,114827
 2.5000e+000 115054 -2.6559e+002 -4.1610e+002 -1.2542e+001 15908 114953,115005,114979
 2.5000e+000 115031 -2.4902e+002 -4.3706e+002 -7.8997e+000 15908 114927,115005,114953
 2.5000e+000 115326 -2.0740e+001 -1.4295e+002  3.3392e+001 15251 115101,115179,115153
 2.5000e+000 115303 -9.0163e+000 -1.2683e+002 -8.3572e+000 15251 115101,115231,115179
 2.5000e+000 115280 -1.6425e+001 -1.4382e+002 -6.7939e+000 15251 115179,115231,115205
 2.5000e+000 115257 -8.4967e+001 -3.9511e+002  3.5575e+001 15251 115101,115153,115127
 2.5000e+000 115429 -4.9696e+001 -2.0713e+002  3.7377e+001 421 115351,115403,115377
 2.6000e+000 66230 -3.8926e+001  3.8567e+001  1.4094e+001 65954 66152,66204,66178
 2.6000e+000 66429  1.2608e+000 -1.7305e+001  5.7031e-001 65642 66279,66331,66305
 2.6000e+000 66406 -1.3543e+000 -1.3642e+001  5.8929e+000 65642 66279,66357,66331
 2.6000e+000 66383  9.9190e+000  3.5978e+001 -9.5581e+000 65642 66253,66357,66279
 2.6000e+000 66628 -5.6970e+000 -7.6639e+001  1.5676e+001 65444 66452,66530,66478
 2.6000e+000 66605  1.4498e+001 -1.1110e+002  3.4750e+000 65444 66452,66556,66530
 2.6000e+000 66582 -1.1399e+001 -9.8780e+001  2.0344e+001 65444 66478,66530,66504
 2.6000e+000 67006  2.3106e+000 -8.3376e+001  1.7970e-001 65246 66732,66810,66758
 2.6000e+000 66983  1.8888e+001 -3.5678e+001  1.4076e+001 65246 66732,66836,66810
 2.6000e+000 66960 -1.6404e+001 -8.0998e+001 -1.6521e+001 65246 66732,66862,66836
 2.6000e+000 66937 -1.2307e+000 -4.9999e+001  9.7897e+000 65246 66758,66810,66784
 2.6000e+000 66914 -5.7092e+000 -1.0200e+002 -3.2844e+001 65246 66732,66888,66862
 2.6000e+000 67107  2.8938e+001 -3.7324e+001 -1.2346e+001 64934 67029,67081,67055
 2.6000e+000 67306 -1.0796e+001 -3.0288e+001  1.3831e+001 64736 67156,67208,67182
 2.6000e+000 67283  2.4663e+000 -3.1786e+001  1.2119e+001 64736 67130,67208,67156
 2.6000e+000 67260  1.9349e+000 -8.4160e+001  1.4739e+001 64736 67130,67234,67208
 2.6000e+000 67507  5.4379e+000 -6.6495e+001 -4.3440e+000 64389 67357,67409,67383
 2.6000e+000 67484 -4.7902e+000 -8.4022e+001 -8.9030e+000 64389 67357,67435,67409
 2.6000e+000 67461  6.8979e+000 -1.0124e+002 -4.7817e+000 64389 67331,67435,67357
 2.6000e+000 67708  4.6479e+001 -9.5447e+001  2.0027e+001 63985 67731,67584,67558
 2.6000e+000 67685  1.7971e+001 -3.2244e+001  9.8816e+000 63985 67731,67558,67636
 2.6000e+000 67662 -5.0706e+000 -4.0191e+001  1.0153e+001 63985 67532,67636,67558
 2.6000e+000 67757  3.2071e+001 -1.2603e+002  1.3919e+001 63985 67610,67584,67731
 2.6000e+000 67780 -7.7948e+000 -8.0806e+001 -8.9346e-002 63985 67610,67731,67636
 2.6000e+000 67981  2.9603e+000 -4.0247e+000  3.1257e+000 63787 67857,67909,67883
 2.6000e+000 67958 -8.9894e-001 -6.4492e+000  4.1775e+000 63787 67831,67909,67857
 2.6000e+000 67935 -1.4058e+001 -6.7437e+000 -4.8793e+000 63787 67805,67909,67831
 2.6000e+000 68231 -5.2353e+000 -1.1933e+002  1.1470e+001 63589 68254,68084,68032
 2.6000e+000 68208 -5.3680e+000 -6.3683e+001  1.1367e+001 63589 68254,68032,68006
 2.6000e+000 68185 -5.7816e-001 -5.0126e+001  1.0922e+001 63589 68326,68136,68110
 2.6000e+000 68162 -1.2704e+000 -1.0941e+002 -1.3086e+001 63589 68032,68084,68058
 2.6000e+000 68280 -2.2977e+000 -7.0659e+001  1.3233e+001 63589 68110,68084,68254
 2.6000e+000 68303 -7.7259e+000 -5.2883e+001  2.1290e+001 63589 68326,68110,68254
 2.6000e+000 68352  1.4660e+001 -2.5793e+001 -9.5076e+000 63589 68006,68136,68326
 2.6000e+000 68375  1.4561e-001 -3.6498e+001  1.8320e+000 63589 68006,68326,68254
 2.6000e+000 68836 -1.4441e+000 -8.6943e-002  3.1837e+000 63128 68859,68588,68562
 2.6000e+000 68813 -6.9782e+000 -1.9287e+001  2.2258e+001 63128 68859,68562,68692
 2.6000e+000 68790  1.7724e+001 -3.4330e+001  4.7400e+000 63128 68614,68692,68666
 2.6000e+000 68767 -2.1031e+001 -2.5417e+001  1.8724e+001 63128 68562,68718,68692
 2.6000e+000 68744  1.9613e+001 -3.6095e+001 -3.7583e+001 63128 68614,68666,68640
 2.6000e+000 68885  1.0519e+001  2.7846e+001 -8.7045e+000 63128 68614,68588,68859
 2.6000e+000 68908  3.4615e+000  2.7294e+000  9.9502e+000 63128 68614,68859,68692
 2.6000e+000 69237  2.7343e+000 -6.0285e+001  4.2197e+000 62731 69064,69116,69090
 2.6000e+000 69214 -7.7835e-001 -7.6666e+001  6.1999e-001 62731 69064,69142,69116
 2.6000e+000 69191 -1.2082e+001 -1.1276e+002  1.8121e+000 62731 69038,69142,69064
 2.6000e+000 69168 -3.2419e+000 -1.0592e+002  5.3223e+000 62731 69012,69142,69038
 2.6000e+000 69539  9.8469e-001  1.7112e+001 -6.1358e+000 62433 69389,69467,69441
 2.6000e+000 69516  3.1588e+000 -1.5088e+001  1.2009e-001 62433 69363,69467,69389
 2.6000e+000 69493  1.8928e+000 -2.1260e+001  1.6633e+001 62433 69389,69441,69415
 2.6000e+000 69966  1.1263e+000 -5.2629e+001  1.2402e+001 62235 69989,69773,69721
 2.6000e+000 69943  6.3026e+000 -8.5570e+001 -2.0537e+001 62235 70061,69989,69721
 2.6000e+000 69920  1.7313e+001 -9.6161e+001 -1.3191e+001 62235 70061,69721,69643
 2.6000e+000 69897  2.3891e-001 -2.0514e-001  1.5462e-001 62235 69721,69773,69747
 2.6000e+000 69874 -6.0483e+001 -2.8367e+002 -6.0037e+000 62235 69643,69721,69695
 2.6000e+000 69851  9.5537e+001  2.5450e+002 -3.2812e+001 62235 69643,69695,69669
 2.6000e+000 70015 -5.2389e+000 -8.7927e+001 -3.2346e+000 62235 69799,69773,69989
 2.6000e+000 70038 -4.0005e+001 -1.1348e+002 -4.3651e+001 62235 69799,69989,69825
 2.6000e+000 70087 -1.7392e+001 -9.1069e+001 -1.4690e+001 62235 69825,69989,70061
 2.6000e+000 70110  2.8133e+000 -9.4553e+001 -1.1669e+001 62235 69825,70061,69643
 2.6000e+000 70260  1.8839e+001 -3.3812e+001  2.2965e+000 62037 70133,70185,70159
 2.6000e+000 70237 -3.8719e+000 -4.2987e+001 -1.1582e+001 62037 70133,70211,70185
 2.6000e+000 70640  1.5910e+000 -6.5345e+001  2.8695e+001 61583 70735,70663,70418
 2.6000e+000 70617 -4.6634e+001 -8.6854e+001  1.3976e+001 61583 70663,70366,70522
 2.6000e+000 70594  1.3489e+001 -5.5845e+001  4.3206e+001 61583 70735,70418,70392
 2.6000e+000 70571  2.0925e+000 -9.4296e+001  2.6378e+001 61583 70418,70496,70444
 2.6000e+000 70548 -3.3453e+001 -3.1176e+001  2.4828e+001 61583 70444,70496,70470
 2.6000e+000 70689 -3.5929e+001 -1.0927e+002  1.2722e+001 61583 70496,70418,70663
 2.6000e+000 70712 -4.9921e+001 -6.9523e+001  1.4760e+001 61583 70496,70663,70522
 2.6000e+000 70761 -3.8100e+001 -7.5198e+001  4.1188e+000 61583 70366,70663,70735
 2.6000e+000 70784 -1.3965e+001 -6.0384e+001  1.8731e+001 61583 70366,70735,70392
 2.6000e+000 71054  3.5061e+000  3.9531e+000 -4.6212e+000 61313 71077,70881,70855
 2.6000e+000 71031  1.0840e+000 -9.3553e+000 -9.2526e-001 61313 71077,70855,70829
 2.6000e+000 71008 -3.2227e+000 -1.9999e+001  1.3538e+000 61313 70829,70959,70933
 2.6000e+000 70985  6.1784e-001 -2.0593e+001 -9.0430e-001 61313 70881,70933,70907
 2.6000e+000 71103  2.2610e-001 -3.9388e+000  1.9409e+000 61313 70933,70881,71077
 2.6000e+000 71126  1.6531e+000 -1.1997e+001  5.4905e+000 61313 70933,71077,70829
 2.6000e+000 71604 -1.2460e+000 -1.0616e+002  1.0855e-001 60909 71627,71232,71414
 2.6000e+000 71581 -2.8216e+001 -9.8791e+001 -1.7482e+001 60909 71232,71440,71414
 2.6000e+000 71558 -6.7822e+000 -6.5925e+001  9.5046e-001 60909 71627,71414,71336
 2.6000e+000 71535  2.3629e+001 -1.4072e+002  2.0788e+001 60909 71362,71414,71388
 2.6000e+000 71512 -3.0215e+001 -1.2262e+002  1.6896e+000 60909 71336,71414,71362
 2.6000e+000 71489  8.0850e+000 -4.9467e+001 -7.0768e-001 60909 71258,71336,71310
 2.6000e+000 71466 -6.4390e+000 -6.1727e+001  5.5969e+000 60909 71258,71310,71284
 2.6000e+000 71653  1.3724e+001 -7.5275e+001 -5.2119e+000 60909 71258,71232,71627
 2.6000e+000 71676 -5.2272e+000 -5.4822e+001 -4.7509e-001 60909 71258,71627,71336
 2.6000e+000 71875 -7.7600e+000 -1.2849e+001  1.0290e+001 60611 71898,71725,71699
 2.6000e+000 71852 -6.6046e+000 -1.3056e+001  9.9404e+000 60611 71898,71699,71803
 2.6000e+000 71829  7.3489e+000  9.3544e+000 -3.4465e+000 60611 71970,71751,71725
 2.6000e+000 71924  2.8294e+000 -6.0702e+000  3.5331e+000 60611 71970,71725,71898
 2.6000e+000 71947 -1.3314e+001 -4.1591e+001  8.4642e+000 60611 71777,71898,71803
 2.6000e+000 71996 -4.4859e-001 -9.9887e+000  2.6228e+000 60611 71777,71751,71970
 2.6000e+000 72019 -5.4095e+000 -1.8967e+001  1.0793e+001 60611 71777,71970,71898
 2.6000e+000 72576  1.8017e+001 -1.6856e+002  3.0253e+001 60142 72599,72256,72230
 2.6000e+000 72553  3.7576e+001 -8.9476e+001  3.6484e+001 60142 72671,72599,72230
 2.6000e+000 72530 -7.1528e+000 -4.3747e+001 -2.7315e+000 60142 72671,72230,72204
 2.6000e+000 72507 -2.3136e+001 -4.7259e+001  2.2180e+001 60142 72743,72360,72334
 2.6000e+000 72484 -3.4959e+001 -6.2825e+001  3.5072e+000 60142 72815,72282,72256
 2.6000e+000 72461  5.2082e+000 -1.8468e+001  4.2933e+001 60142 72887,72308,72282
 2.6000e+000 72438 -2.4544e+001 -1.4452e+002 -1.6398e+001 60142 72204,72412,72386
 2.6000e+000 72625 -4.1431e+001 -1.3389e+002 -1.7582e+001 60142 72815,72256,72599
 2.6000e+000 72648 -6.9380e+000 -8.0775e+001  1.6144e+001 60142 72743,72334,72599
 2.6000e+000 72697 -1.8949e+000 -1.5592e+002  1.9273e+001 60142 72386,72599,72671
 2.6000e+000 72720 -3.5950e+001 -1.0591e+002 -1.0648e+001 60142 72386,72671,72204
 2.6000e+000 72769  2.0363e+001 -7.4213e+001  8.5996e+001 60142 72386,72360,72743
 2.6000e+000 72792  1.1148e+001 -1.4700e+002  4.8338e+001 60142 72386,72743,72599
 2.6000e+000 72841 -2.5040e+001 -3.3732e+001  1.9766e+001 60142 72887,72282,72815
 2.6000e+000 72864 -5.5084e+000 -7.1690e+001  9.1018e+000 60142 72334,72815,72599
 2.6000e+000 72913 -3.7444e+001 -5.0796e+001  2.6101e+001 60142 72334,72308,72887
 2.6000e+000 72936 -5.2445e+001 -5.8350e+001  4.8762e+000 60142 72334,72887,72815
 2.6000e+000 73491 -2.3399e+001 -1.2869e+002 -2.3695e+001 59738 73145,73327,73171
 2.6000e+000 73468  4.9955e+001 -4.0060e+001  7.8087e+000 59738 73119,73327,73145
 2.6000e+000 73445 -1.1256e+001 -7.1453e+001 -1.1781e+001 59738 73171,73327,73301
 2.6000e+000 73422 -2.3887e+000 -7.7032e+001 -1.7005e+000 59738 73514,73275,73249
 2.6000e+000 73399 -2.3444e+001 -7.2624e+001 -1.9443e-001 59738 73586,73514,73249
 2.6000e+000 73376 -2.4533e+001 -4.1683e+001  1.8771e+001 59738 73197,73249,73223
 2.6000e+000 73353 -2.1937e+001 -7.4212e+001  5.6177e+000 59738 73586,73249,73197
 2.6000e+000 73540 -2.0537e+001 -1.1214e+002 -1.5760e+001 59738 73301,73275,73514
 2.6000e+000 73563 -1.2155e+001 -7.0435e+001 -1.2335e+001 59738 73301,73514,73171
 2.6000e+000 73612 -1.9280e+001 -6.2696e+001  1.0936e-001 59738 73171,73514,73586
 2.6000e+000 73635 -1.8475e+001 -6.6195e+001  5.2573e+000 59738 73171,73586,73197
 2.6000e+000 73964  2.1673e+001 -1.2109e+002 -9.9647e+000 59334 73791,73843,73817
 2.6000e+000 73941  4.8746e+000 -1.4640e+002 -2.1598e+001 59334 73791,73869,73843
 2.6000e+000 73918 -1.8786e+001 -2.0798e+002 -4.3743e+000 59334 73739,73869,73791
 2.6000e+000 73895  7.6009e+000 -2.2193e+002 -4.6809e+000 59334 73739,73791,73765
 2.6000e+000 74261  5.1380e+001 -7.2780e+001  4.5965e+001 58630 74065,74117,74091
 2.6000e+000 74238  4.5884e+001 -8.9972e+001  6.7760e+000 58630 74356,74284,74065
 2.6000e+000 74215  3.1097e+000 -3.6485e+001 -2.2663e+000 58630 74284,74013,73987
 2.6000e+000 74192  5.3977e+001 -8.0097e+001  2.2879e+001 58630 74356,74065,74039
 2.6000e+000 74169 -6.4721e+000 -4.0150e+001  5.5253e+000 58630 73987,74143,74117
 2.6000e+000 74310  2.7473e+001 -1.2722e+002 -8.7674e-001 58630 74117,74065,74284
 2.6000e+000 74333 -2.7134e+001 -7.7347e+001 -1.5804e+001 58630 74117,74284,73987
 2.6000e+000 74382  2.3004e+001 -1.0958e+002 -6.6836e+000 58630 74013,74284,74356
 2.6000e+000 74405  3.0732e+001 -9.8564e+001  9.5295e+000 58630 74013,74356,74039
 2.6000e+000 74815 -4.1030e+001 -7.0728e+001 -8.9618e+000 58226 74590,74642,74616
 2.6000e+000 74792 -4.7523e+001 -1.1244e+002 -1.1877e+001 58226 74590,74694,74642
 2.6000e+000 74769 -7.2431e+000 -1.7045e+002  1.7801e+001 58226 74590,74720,74694
 2.6000e+000 74746 -3.4064e+001 -5.9113e+001 -4.7824e+000 58226 74642,74694,74668
 2.6000e+000 75014 -2.1296e+000 -9.9052e+001  3.2724e+000 57786 75037,74864,74838
 2.6000e+000 74991  8.4803e+000 -3.9157e+001  1.0178e+001 57786 75037,74838,74916
 2.6000e+000 74968  1.3705e+001 -1.8321e+001 -2.2230e+001 57786 74838,74942,74916
 2.6000e+000 75063  6.0448e+000 -1.6735e+002 -1.4961e+001 57786 74890,74864,75037
 2.6000e+000 75086  2.3596e+001 -9.7912e+001 -7.3260e+000 57786 74890,75037,74916
 2.6000e+000 75368  2.9401e+001 -3.1765e+001  1.7182e+001 57496 75192,75270,75218
 2.6000e+000 75345  4.9573e+001 -2.2016e+001  2.0216e+001 57496 75192,75296,75270
 2.6000e+000 75322  1.6899e+000 -4.9168e+001 -1.0550e-001 57496 75218,75270,75244
 2.6000e+000 75648  1.9803e+000 -8.6099e+001 -2.2615e+000 57206 75472,75550,75498
 2.6000e+000 75625  1.4083e+001 -7.6823e+001 -8.8180e+000 57206 75472,75576,75550
 2.6000e+000 75602  4.8616e+001 -6.0650e+001 -3.5681e+000 57206 75671,75550,75524
 2.6000e+000 75697 -2.5448e+001 -9.6217e+001 -2.4159e+001 57206 75498,75550,75671
 2.6000e+000 76154  3.6543e+001 -7.8456e+001 -2.4322e+001 56802 75958,76010,75984
 2.6000e+000 76131  2.1320e+001 -4.8061e+001 -1.0157e+001 56802 75932,76010,75958
 2.6000e+000 76108  3.7597e+001 -7.6560e+001  2.7363e+001 56802 75906,76010,75932
 2.6000e+000 76085  5.3073e+000 -3.2244e+001  2.0614e+001 56802 75880,76010,75906
 2.6000e+000 76062  1.2758e+001 -3.6446e+001 -1.2710e+000 56802 75880,76036,76010
 2.6000e+000 76505 -2.6448e+000  4.0380e-001  2.9100e+000 56504 76306,76384,76332
 2.6000e+000 76482  2.6026e+000  2.3783e+000  1.9895e+000 56504 76306,76410,76384
 2.6000e+000 76459 -7.2998e+000 -2.2332e+000  1.9047e+000 56504 76332,76384,76358
 2.6000e+000 76436 -7.8581e-001  7.8701e-001  1.5165e+000 56504 76280,76410,76306
 2.6000e+000 77011  3.7361e+001 -5.0178e+001 -2.3563e+001 56050 76740,76818,76792
 2.6000e+000 76988  2.3689e+001 -5.6373e+001 -2.2020e+001 56050 76714,76818,76740
 2.6000e+000 76965 -1.3197e+001 -7.1676e+001 -1.1083e+001 56050 76688,76818,76714
 2.6000e+000 76942 -9.5915e+000 -3.6553e+001 -2.1859e+001 56050 76688,76844,76818
 2.6000e+000 76919 -2.4018e+000 -4.1561e+001 -1.5013e+001 56050 76740,76792,76766
 2.6000e+000 76896 -3.2937e+001 -7.5789e+001 -1.1228e+001 56050 76688,76870,76844
 2.6000e+000 77517 -1.7818e+001 -8.3496e+001 -3.4340e+000 55738 77220,77350,77324
 2.6000e+000 77494 -3.5143e+001 -1.0342e+002 -1.5969e+001 55738 77220,77376,77350
 2.6000e+000 77471 -1.3798e+001 -7.6686e+001 -3.8523e+000 55738 77194,77376,77220
 2.6000e+000 77448 -1.9367e+001 -2.0367e+001 -4.7819e+000 55738 77220,77298,77246
 2.6000e+000 77425 -9.4558e+000 -5.8846e+001 -2.3394e+001 55738 77220,77324,77298
 2.6000e+000 77402 -2.6207e+000 -1.1967e+001  9.8902e+000 55738 77246,77298,77272
 2.6000e+000 78064  2.6677e+001 -1.7718e+002 -4.6420e+000 55227 78231,78087,77773
 2.6000e+000 78041 -3.3138e+001 -3.0069e+002  1.0449e+001 55227 78087,77695,77643
 2.6000e+000 78018 -2.7309e+001 -2.4555e+002 -2.1259e+001 55227 78159,77799,77773
 2.6000e+000 77995 -3.9738e+000 -1.1159e+002  1.1248e+001 55227 78231,77773,77721
 2.6000e+000 77972 -6.5110e+001 -8.6474e+001  6.2691e+001 55227 77643,77695,77669
 2.6000e+000 77949 -4.5807e+001 -1.2138e+002 -2.4162e-001 55227 77643,77877,77851
 2.6000e+000 77926 -7.1265e+001 -2.7037e+002  3.5642e+001 55227 77799,77851,77825
 2.6000e+000 77903 -2.9447e+000 -6.2722e+001 -2.0201e+001 55227 77721,77773,77747
 2.6000e+000 78113 -2.8058e+000 -2.4518e+002 -9.7966e+000 55227 78159,77773,78087
 2.6000e+000 78136  2.5023e+001 -1.6472e+002  2.2551e+001 55227 77851,78087,77643
 2.6000e+000 78185 -7.5970e+001 -2.3291e+002 -2.2602e+001 55227 77851,77799,78159
 2.6000e+000 78208 -5.2093e+001 -2.3461e+002 -1.3223e+001 55227 77851,78159,78087
 2.6000e+000 78257  6.5280e-001 -2.5518e+002 -3.2537e+001 55227 77695,78087,78231
 2.6000e+000 78280 -3.6107e+001 -1.8606e+002 -2.3610e+001 55227 77695,78231,77721
 2.6000e+000 78737 -3.6703e+001 -4.7299e+001 -2.4653e+001 54773 78463,78541,78515
 2.6000e+000 78714 -4.9868e+001 -9.3176e+001 -9.0954e+000 54773 78463,78619,78541
 2.6000e+000 78691 -3.6541e+001 -4.3004e+001 -1.4541e+001 54773 78463,78515,78489
 2.6000e+000 78668 -3.0371e+001 -3.3256e+001 -1.6763e+001 54773 78541,78593,78567
 2.6000e+000 78645 -2.5888e+001 -5.1180e+001 -2.4331e+001 54773 78541,78619,78593
 2.6000e+000 78838 -3.1714e+000 -2.8800e+001  1.7791e-001 54211 78760,78812,78786
 2.6000e+000 79297  4.9677e+000 -8.9477e+001  2.1544e+000 53814 79520,79153,79049
 2.6000e+000 79274  1.4516e+001 -8.8113e+001  4.7067e+000 53814 79520,79049,79023
 2.6000e+000 79251 -2.6350e+001 -1.8627e+002  3.4511e+001 53814 79320,79101,79049
 2.6000e+000 79228  1.1805e+001 -9.2848e+001  6.8826e-001 53814 79320,79049,79153
 2.6000e+000 79205 -3.8236e+001 -1.3047e+002  4.4322e+001 53814 79049,79101,79075
 2.6000e+000 79346  4.3375e+000 -6.7425e+001 -3.2901e+001 53814 79392,79320,79127
 2.6000e+000 79369  2.8712e+001 -8.2386e+001 -4.7170e+001 53814 79127,79320,79153
 2.6000e+000 79418  1.3207e+000 -1.6845e+002 -5.1248e+001 53814 79101,79320,79392
 2.6000e+000 79546  1.1939e+000 -9.4964e+001  1.5579e+001 53814 79179,79153,79520
 2.6000e+000 79569  3.0349e+001 -8.4469e+001  1.6422e+001 53814 79179,79520,79023
 2.6000e+000 80075 -2.1358e+001  6.2683e+000  5.1431e+001 53039 80098,79908,79830
 2.6000e+000 80052 -2.5616e+001  2.6333e+001  1.4888e+001 53039 80098,79830,79804
 2.6000e+000 80029 -1.2263e+001  2.2588e+001  8.9273e-001 53039 79752,79934,79804
 2.6000e+000 80006  8.1093e+001  5.0214e+001  3.6433e+001 53039 79856,79908,79882
 2.6000e+000 79983  2.7018e+001 -1.9369e+001  6.0072e+001 53039 79830,79908,79856
 2.6000e+000 79960  1.9648e+001  4.9418e+001  2.5674e+001 53039 79752,79804,79778
 2.6000e+000 80124  3.5972e+001  2.3318e+001  4.2869e+001 53039 79934,79908,80098
 2.6000e+000 80147  1.2176e+000  3.4240e+001  5.8757e+000 53039 79934,80098,79804
 2.6000e+000 80555 -3.1794e+001 -6.2483e+001  1.7581e+001 52699 80356,80434,80408
 2.6000e+000 80532  1.9802e+001 -7.6012e+001  9.7702e+000 52699 80356,80460,80434
 2.6000e+000 80509 -9.3130e+000 -9.0762e+001  4.6509e+000 52699 80330,80460,80356
 2.6000e+000 80486 -4.0120e+001 -9.2359e+001  1.4404e+001 52699 80356,80408,80382
 2.6000e+000 80776 -1.7597e+001 -3.7337e+001 -1.1404e-002 52295 80600,80678,80626
 2.6000e+000 80753  5.0318e+000 -4.1189e+001  1.0296e+000 52295 80600,80704,80678
 2.6000e+000 80730  1.7557e+001 -2.0763e+001  7.6276e+000 52295 80626,80678,80652
 2.6000e+000 81156 -5.7487e+001 -1.5211e+002  2.9401e+001 51891 81179,80960,80908
 2.6000e+000 81133 -4.8219e+001 -1.3795e+002  3.1381e+000 51891 81179,80908,81012
 2.6000e+000 81110 -6.6593e+001 -1.4867e+002  7.7130e+000 51891 80882,81012,80908
 2.6000e+000 81087 -4.3298e+001 -2.2295e+002  1.8991e+001 51891 80908,80960,80934
 2.6000e+000 81064 -6.7226e+000 -1.9756e+000  6.6178e+000 51891 80882,81038,81012
 2.6000e+000 81205 -2.5252e+001 -1.4236e+002  2.1649e+001 51891 80986,80960,81179
 2.6000e+000 81228 -3.5999e+001 -1.3460e+002 -4.8619e+000 51891 80986,81179,81012
 2.6000e+000 81606 -2.1710e+001 -2.8056e+002 -1.0558e+002 51544 81410,81462,81436
 2.6000e+000 81583 -1.5962e+000 -1.2973e+002 -4.0138e+001 51544 81384,81462,81410
 2.6000e+000 81560 -2.4090e+001 -1.5867e+002 -5.0022e+001 51544 81358,81462,81384
 2.6000e+000 81537  3.0510e+001 -1.3584e+002 -5.1659e+001 51544 81358,81488,81462
 2.6000e+000 81514  7.1382e+001  3.2629e+001 -3.8907e+001 51544 81332,81488,81358
 2.6000e+000 81854  6.4671e+001 -1.0739e+002  6.6825e+000 51004 81877,81655,81629
 2.6000e+000 81831  4.9823e+001 -9.5383e+001  7.2209e+000 51004 81877,81629,81759
 2.6000e+000 81808  2.7976e+001 -4.1203e+001  5.4670e+001 51004 81655,81707,81681
 2.6000e+000 81785 -1.4001e+001 -1.7303e+002  1.2953e+001 51004 81707,81759,81733
 2.6000e+000 81903  5.2033e+001 -1.0388e+002  1.0084e+000 51004 81707,81655,81877
 2.6000e+000 81926  2.6133e+001 -1.0501e+002 -3.6266e+000 51004 81707,81877,81759
 2.6000e+000 82257 -3.1087e+001 -8.5410e+001 -1.0444e+001 50642 82058,82136,82110
 2.6000e+000 82234 -4.1942e+001 -7.8687e+001 -1.1235e+001 50642 82058,82162,82136
 2.6000e+000 82211 -4.7437e+001 -1.0271e+002  2.0067e+001 50642 82058,82110,82084
 2.6000e+000 82188 -4.9665e+001 -8.1208e+001 -2.1605e+001 50642 82032,82162,82058
 2.6000e+000 82684  5.4360e+001 -1.4838e+002 -6.4318e+000 49931 82779,82707,82465
 2.6000e+000 82661 -3.8463e+001 -2.0768e+002  4.8683e+001 49931 82707,82413,82361
 2.6000e+000 82638  5.9686e+001 -1.1435e+002 -8.6998e+001 49931 82779,82465,82439
 2.6000e+000 82615 -9.2891e+000 -2.1033e+002  4.1053e+001 49931 82465,82543,82491
 2.6000e+000 82592 -2.1045e+001 -8.8364e+001  1.0128e+001 49931 82361,82413,82387
 2.6000e+000 82569  1.3625e+001 -1.9221e+002  3.1590e+001 49931 82491,82543,82517
 2.6000e+000 82733  2.2537e-001 -1.8601e+002  1.1575e+001 49931 82543,82465,82707
 2.6000e+000 82756  1.2141e+001 -1.0122e+002  2.8101e+001 49931 82543,82707,82361
 2.6000e+000 82805  1.0112e+001 -2.5836e+002  1.0193e+001 49931 82413,82707,82779
 2.6000e+000 82828  1.1138e+001 -2.1592e+002 -6.5506e+001 49931 82413,82779,82439
 2.6000e+000 83255 -6.6647e+001 -2.5800e+002 -1.4826e+001 49327 82984,83114,83036
 2.6000e+000 83232 -6.6788e+001 -2.5403e+002 -4.5809e+001 49327 82958,83114,82984
 2.6000e+000 83209  2.0986e+001 -2.7192e+002 -1.7036e+001 49327 83036,83114,83088
 2.6000e+000 83186 -7.3767e+001 -2.0233e+002  2.1758e+001 49327 82984,83036,83010
 2.6000e+000 83163 -2.9203e+001 -2.5535e+002 -4.8867e+001 49327 82932,83114,82958
 2.6000e+000 83140 -7.4057e+001 -4.8904e+002  1.0109e+001 49327 83036,83088,83062
 2.6000e+000 83938 -5.6236e+001 -2.9681e+002  4.6952e+001 48965 83961,83673,83647
 2.6000e+000 83915  7.2183e+000 -1.3619e+002  3.5753e+001 48965 83961,83647,83543
 2.6000e+000 83892 -5.5785e+001 -1.5510e+002 -6.6104e+001 48965 83517,83725,83543
 2.6000e+000 83869 -2.6613e+001 -1.8833e+002 -5.3810e+001 48965 83673,83725,83699
 2.6000e+000 83846 -3.3853e+001 -9.0487e+001 -1.8453e+001 48965 83543,83647,83621
 2.6000e+000 83823 -1.4031e+001 -9.8669e+001 -2.7003e+001 48965 83543,83621,83569
 2.6000e+000 83800 -1.3532e+001 -1.2121e+002 -1.1196e+001 48965 83517,83751,83725
 2.6000e+000 83777 -9.9128e-001 -7.7390e+001  1.1968e+001 48965 83569,83621,83595
 2.6000e+000 83987 -1.5781e+001 -2.5769e+002 -5.5553e+001 48965 83725,83673,83961
 2.6000e+000 84010  8.3927e+000 -2.0053e+002 -4.6806e+001 48965 83725,83961,83543
 2.6000e+000 84258 -3.8050e+001 -2.3314e+002  5.6046e+001 48447 84281,84059,84033
 2.6000e+000 84235 -1.2001e+001 -1.6684e+002  3.1739e+001 48447 84281,84033,84163
 2.6000e+000 84212  3.5534e+001 -2.2996e+002  7.9850e+000 48447 84059,84111,84085
 2.6000e+000 84189  5.9867e+000 -1.6822e+002 -2.1023e+001 48447 84111,84163,84137
 2.6000e+000 84307 -1.1458e+001 -2.2268e+002  8.2960e+000 48447 84111,84059,84281
 2.6000e+000 84330  1.7522e+001 -1.8089e+002 -1.6039e+001 48447 84111,84281,84163
 2.6000e+000 84529  2.7708e+001 -1.2876e+002 -2.1695e+001 47993 84552,84405,84379
 2.6000e+000 84506 -2.7628e+001 -1.4858e+002 -2.1021e+001 47993 84552,84379,84353
 2.6000e+000 84483  4.0619e+001 -1.3097e+002 -3.3178e+001 47993 84624,84457,84431
 2.6000e+000 84578  2.2884e+001 -1.4715e+002 -2.3481e+001 47993 84431,84405,84552
 2.6000e+000 84601  2.8864e+001 -1.4570e+002 -2.5543e+001 47993 84624,84431,84552
 2.6000e+000 84650  3.0773e+001 -1.1881e+002 -4.1859e+001 47993 84353,84457,84624
 2.6000e+000 84673  2.4237e+001 -1.2205e+002 -3.4059e+001 47993 84353,84624,84552
 2.6000e+000 85104 -4.4583e+001 -2.0542e+002 -3.6307e+001 47588 85199,85127,84885
 2.6000e+000 85081 -2.4567e+001 -2.0744e+002 -4.8660e+001 47588 85127,84781,84963
 2.6000e+000 85058 -7.3473e+001 -1.9804e+002 -3.4936e+000 47588 85199,84885,84807
 2.6000e+000 85035 -3.2269e+001 -1.6268e+002  7.5989e+001 47588 84885,84937,84911
 2.6000e+000 85012 -5.8874e+001 -1.3005e+002 -2.5039e+001 47588 84807,84885,84833
 2.6000e+000 84989 -3.7650e+001 -1.2013e+002 -9.8324e+000 47588 84833,84885,84859
 2.6000e+000 85153 -3.5118e+001 -2.7924e+002 -4.1826e+000 47588 84937,84885,85127
 2.6000e+000 85176  8.2852e+001 -2.2739e+002 -1.9863e+001 47588 84937,85127,84963
 2.6000e+000 85225 -9.9098e+001 -2.2669e+002 -3.6281e+001 47588 84781,85127,85199
 2.6000e+000 85248 -1.1689e+002 -2.1660e+002  9.1025e-001 47588 84781,85199,84807
 2.6000e+000 85518 -2.3407e+001 -2.0011e+002  1.5021e+000 47226 85293,85397,85319
 2.6000e+000 85495 -5.8849e+001 -2.2131e+002  1.0865e+001 47226 85293,85423,85397
 2.6000e+000 85472 -6.8075e+001 -2.1903e+002  1.2636e-001 47226 85319,85397,85345
 2.6000e+000 85449 -3.3776e+001 -1.6965e+002  1.5587e+001 47226 85345,85397,85371
 2.6000e+000 85849  5.2741e+000 -1.4212e+002  1.9008e+001 46572 85624,85702,85650
 2.6000e+000 85826 -3.1041e+000 -2.3334e+002 -2.3331e+001 46572 85624,85754,85702
 2.6000e+000 85803  1.4188e+001 -1.3254e+002 -4.1744e-001 46572 85702,85754,85728
 2.6000e+000 85780 -7.3630e+000 -1.4329e+002  7.2922e+000 46572 85650,85702,85676
 2.6000e+000 86070 -1.4564e+002 -2.5156e+002 -6.9620e+000 46374 85920,85972,85946
 2.6000e+000 86047 -1.1611e+002 -1.8072e+002  1.9590e+000 46374 85920,85998,85972
 2.6000e+000 86024 -7.4818e+001 -1.5800e+002  2.8043e+001 46374 85894,85998,85920
 2.6000e+000 86401  2.3795e+001 -1.3169e+002 -3.3495e+000 46034 86424,86280,86228
 2.6000e+000 86378  2.6523e+001 -1.4679e+002 -7.6068e+000 46034 86424,86228,86176
 2.6000e+000 86355  5.4106e+000 -1.7260e+002 -2.9817e+001 46034 86176,86228,86202
 2.6000e+000 86332  2.7685e+001 -1.2998e+002 -2.2939e+001 46034 86228,86280,86254
 2.6000e+000 86450  2.6290e+001 -1.4782e+002 -1.4458e+000 46034 86306,86280,86424
 2.6000e+000 86473  2.8193e+001 -1.6141e+002 -9.2870e+000 46034 86306,86424,86176
 2.6000e+000 87058  1.0280e+001 -1.3464e+002  5.0361e+000 45516 86813,86917,86865
 2.6000e+000 87035 -1.3727e+001 -1.9138e+002  6.5167e+000 45516 86787,86917,86813
 2.6000e+000 87012 -9.2448e+000 -2.2387e+002  1.2667e+001 45516 86735,86917,86787
 2.6000e+000 86989  8.5640e+000 -1.2293e+002  1.6800e-001 45516 86865,86917,86891
 2.6000e+000 86966  1.3442e+001 -1.2757e+002  6.8942e+000 45516 86813,86865,86839
 2.6000e+000 86943 -1.1698e+001 -2.7333e+002 -3.4321e+000 45516 86735,86787,86761
 2.6000e+000 87208 -7.1731e-001 -1.2430e+002  6.5090e+000 45226 87231,87133,87107
 2.6000e+000 87185 -1.0378e+001 -1.5400e+002  1.4380e+001 45226 87081,87159,87133
 2.6000e+000 87257  3.8990e+001 -5.5920e+001 -1.1430e+001 45226 87081,87133,87231
 2.6000e+000 87537  3.3937e+001 -2.0555e+002  5.2266e+001 44772 87387,87439,87413
 2.6000e+000 87514 -6.6825e+001 -2.2498e+002  1.5889e+001 44772 87361,87439,87387
 2.6000e+000 87491 -3.2314e+001 -2.0263e+002  3.9980e+000 44772 87361,87465,87439
 2.6000e+000 87996 -3.5652e+001 -1.2143e+002  1.0248e+001 44425 87748,87878,87852
 2.6000e+000 87973  4.5593e+001 -8.5764e+001 -4.8649e+000 44425 87722,87878,87748
 2.6000e+000 87950 -1.3286e+000 -1.2321e+002 -1.6374e+000 44425 87800,87852,87826
 2.6000e+000 87927 -4.0098e+001 -1.2462e+002  1.1692e+001 44425 87748,87852,87800
 2.6000e+000 87904 -1.6126e+001 -1.4839e+002  3.5703e+001 44425 87748,87800,87774
 2.6000e+000 88423  3.1293e+001 -1.5104e+002 -1.1128e+001 44078 88590,88230,88204
 2.6000e+000 88400  1.2061e+001 -1.4595e+002  1.0908e+001 44078 88518,88446,88204
 2.6000e+000 88377  7.3721e+000 -1.5154e+002 -2.2449e+001 44078 88446,88126,88282
 2.6000e+000 88354  1.7350e+001 -1.4660e+002  1.1650e+001 44078 88518,88204,88178
 2.6000e+000 88331  8.3476e+000 -1.6748e+002 -2.0769e+001 44078 88100,88282,88126
 2.6000e+000 88308  5.0289e+000 -1.6063e+002  7.9933e+001 44078 88126,88178,88152
 2.6000e+000 88472  2.7996e+001 -1.6057e+002 -4.4737e+000 44078 88590,88204,88446
 2.6000e+000 88495 -5.5470e+000 -2.1533e+002 -3.9219e+001 44078 88256,88446,88282
 2.6000e+000 88544  1.7183e+001 -1.4488e+002  1.3365e+001 44078 88126,88446,88518
 2.6000e+000 88567  2.1567e+001 -1.4697e+002  1.3158e+001 44078 88126,88518,88178
 2.6000e+000 88616 -8.6354e+001 -3.2597e+002 -6.2927e+001 44078 88256,88230,88590
 2.6000e+000 88639  2.0582e+001 -1.6030e+002 -1.5997e+001 44078 88256,88590,88446
 2.6000e+000 89039  6.1285e-001 -9.8966e+001  1.0236e+001 43716 88791,88921,88895
 2.6000e+000 89016 -1.4314e+001 -1.0451e+002  6.2300e+000 43716 88765,88921,88791
 2.6000e+000 88993  4.8631e+000 -9.6706e+001  2.5205e+001 43716 88817,88895,88869
 2.6000e+000 88970 -6.3050e+001 -1.2608e+002  1.5306e+001 43716 88791,88895,88817
 2.6000e+000 88947 -1.1193e+001 -6.3919e+001 -1.1209e+001 43716 88817,88869,88843
 2.6000e+000 89496  1.9969e+001 -1.9441e+002 -1.7225e+001 43162 89519,89274,89248
 2.6000e+000 89473  2.2895e+001 -1.8510e+002 -1.5010e+001 43162 89519,89248,89222
 2.6000e+000 89450 -1.1116e-002 -1.7802e+002 -7.4437e+001 43162 89326,89378,89352
 2.6000e+000 89427 -6.4167e+000 -2.3599e+002 -2.5404e+001 43162 89274,89378,89326
 2.6000e+000 89404  4.0759e+001 -1.4055e+002  3.2487e+000 43162 89274,89326,89300
 2.6000e+000 89545  1.8358e+001 -1.8539e+002 -1.4210e+001 43162 89378,89274,89519
 2.6000e+000 89568  2.1939e+001 -1.7531e+002 -1.1826e+001 43162 89378,89519,89222
 2.6000e+000 89946 -3.4727e+000 -1.9406e+002 -4.0317e+001 42594 90041,89969,89750
 2.6000e+000 89923 -7.5827e+000 -1.3492e+002 -1.3648e+001 42594 89969,89698,89828
 2.6000e+000 89900  5.6911e+000 -2.0834e+002 -3.4137e+001 42594 90041,89750,89724
 2.6000e+000 89877  9.7770e+000 -1.6661e+002 -2.9145e+001 42594 89750,89802,89776
 2.6000e+000 89854  1.1660e+001 -4.8884e+001 -1.1842e+001 42594 89672,89828,89698
 2.6000e+000 89995  9.8882e+000 -1.4291e+002 -4.2080e+001 42594 89802,89750,89969
 2.6000e+000 90018  2.0455e+000 -9.7526e+001 -1.4601e+000 42594 89802,89969,89828
 2.6000e+000 90067 -1.4626e+000 -1.3393e+002 -3.7048e+001 42594 89698,89969,90041
 2.6000e+000 90090 -2.7490e+001 -1.9010e+002 -1.9837e+001 42594 89698,90041,89724
 2.6000e+000 90517 -7.6355e+001 -2.7295e+002  3.6828e+000 42140 90540,90220,90194
 2.6000e+000 90494 -4.1816e+001 -2.4630e+002 -1.1087e+001 42140 90540,90194,90376
 2.6000e+000 90471 -5.6134e+001 -2.7667e+002  1.1540e+001 42140 90612,90350,90272
 2.6000e+000 90448 -1.0067e+002 -3.1016e+002 -8.2788e+000 42140 90272,90350,90298
 2.6000e+000 90425 -6.7290e+001 -2.4703e+002 -2.3434e+001 42140 90298,90350,90324
 2.6000e+000 90402 -3.6228e+001 -2.7676e+002  8.4914e+001 42140 90220,90272,90246
 2.6000e+000 90566 -5.8125e+001 -2.7656e+002  8.8983e+000 42140 90272,90220,90540
 2.6000e+000 90589 -5.6914e+001 -2.7867e+002  8.1879e+000 42140 90612,90272,90540
 2.6000e+000 90638 -5.2365e+001 -2.7689e+002  1.0674e+001 42140 90376,90350,90612
 2.6000e+000 90661 -4.6928e+001 -2.7536e+002  7.6440e+000 42140 90376,90612,90540
 2.6000e+000 91167 -3.7798e+000 -1.4531e+002 -4.4524e+001 41636 91190,90870,90844
 2.6000e+000 91144 -1.7886e+001 -2.5732e+002 -3.7776e+001 41636 91190,90844,91026
 2.6000e+000 91121 -4.9933e+001 -1.2969e+002 -5.5891e+001 41636 90870,90922,90896
 2.6000e+000 91098 -5.2591e+001 -2.0266e+002  3.3282e+001 41636 90922,91026,90948
 2.6000e+000 91075  3.7640e+000 -1.4559e+002 -5.8836e+000 41636 90948,91026,91000
 2.6000e+000 91052 -2.7002e+001 -1.9997e+002  6.3751e+000 41636 90948,91000,90974
 2.6000e+000 91216 -2.2574e+001 -1.1098e+002 -4.4409e+001 41636 90922,90870,91190
 2.6000e+000 91239  1.4634e+001 -1.5124e+002 -2.5097e+001 41636 90922,91190,91026
 2.6000e+000 91696 -7.1056e+001 -1.7955e+002 -2.9841e+001 40449 91448,91526,91474
 2.6000e+000 91673 -8.7000e+001 -1.9626e+002 -7.2977e+000 40449 91448,91578,91526
 2.6000e+000 91650 -3.8790e+001 -1.7194e+002 -1.3721e+001 40449 91474,91526,91500
 2.6000e+000 91627 -3.1157e+001 -2.0283e+002 -2.1379e+001 40449 91422,91578,91448
 2.6000e+000 91604 -2.4485e+001 -1.2943e+002 -3.3228e+001 40449 91526,91578,91552
 2.6000e+000 92123 -5.1451e+001 -1.8023e+002 -1.5185e+001 39995 92146,91904,91826
 2.6000e+000 92100 -3.0562e+001 -1.7377e+002 -3.0496e+001 39995 92146,91826,91800
 2.6000e+000 92077 -7.4030e+001 -1.8949e+002 -1.0224e+001 39995 91826,91904,91852
 2.6000e+000 92054 -7.4344e+001 -3.0881e+002  1.6542e+001 39995 91904,91982,91930
 2.6000e+000 92031 -2.6463e+001 -1.6860e+002 -7.0621e+000 39995 91852,91904,91878
 2.6000e+000 92008  7.4008e+000 -2.1864e+002 -2.3643e+001 39995 91930,91982,91956
 2.6000e+000 92172 -5.8675e+001 -1.8494e+002 -9.7752e+000 39995 91982,91904,92146
 2.6000e+000 92195 -4.9770e+001 -1.9858e+002 -2.0878e+001 39995 91982,92146,91800
 2.6000e+000 92652  5.5336e+000 -6.6929e+001  2.4282e+001 39633 92404,92534,92456
 2.6000e+000 92629 -1.2943e+001 -1.1178e+002  1.4468e+001 39633 92378,92534,92404
 2.6000e+000 92606 -7.4711e+000 -7.4310e+001  1.0831e+001 39633 92404,92456,92430
 2.6000e+000 92583 -4.1695e+001 -2.2533e+002  2.4210e+001 39633 92456,92534,92508
 2.6000e+000 92560  1.5209e+001 -8.4657e+001  4.5557e+001 39633 92456,92508,92482
 2.6000e+000 93079  2.0752e+000 -1.3430e+002 -2.8082e+001 39093 93102,92808,92756
 2.6000e+000 93056  1.2677e+001 -8.4735e+001 -6.6718e+001 39093 93102,92756,92938
 2.6000e+000 93033 -2.1901e+001 -1.9514e+002 -2.0325e+001 39093 93174,92912,92834
 2.6000e+000 93010 -1.0606e+002 -2.2206e+002 -3.0428e+001 39093 92834,92912,92860
 2.6000e+000 92987  5.8289e+001 -1.3094e+002 -7.8155e+001 39093 92756,92808,92782
 2.6000e+000 92964 -6.8160e+001 -2.0012e+002 -1.0150e+002 39093 92860,92912,92886
 2.6000e+000 93128  1.3738e+001 -1.5216e+002 -2.5925e+001 39093 92834,92808,93102
 2.6000e+000 93151 -1.6053e+000 -1.4650e+002 -2.1628e+001 39093 93174,92834,93102
 2.6000e+000 93200 -1.5584e+001 -1.7954e+002 -5.5345e+001 39093 92938,92912,93174
 2.6000e+000 93223 -3.5325e+000 -1.5621e+002 -5.9634e+001 39093 92938,93174,93102
 2.6000e+000 93680  6.2492e+000 -5.1571e+001 -2.1175e+001 38639 93703,93536,93484
 2.6000e+000 93657 -6.9597e+000 -6.4260e+001 -1.5869e+001 38639 93703,93484,93432
 2.6000e+000 93634 -8.1429e+000 -8.3267e+001  5.8488e+000 38639 93432,93484,93458
 2.6000e+000 93611 -2.8909e+001 -1.2922e+002 -7.5811e+000 38639 93484,93536,93510
 2.6000e+000 93588 -3.3728e+001 -1.2847e+001  5.5723e+000 38639 93406,93562,93432
 2.6000e+000 93729 -1.0184e+001 -7.7327e+000 -1.8610e+001 38639 93562,93536,93703
 2.6000e+000 93752 -5.2994e+001 -5.5521e+001 -6.5400e-001 38639 93562,93703,93432
 2.6000e+000 94160  3.9949e+000 -8.6949e+001 -2.5339e+001 38292 93935,94039,93961
 2.6000e+000 94137  1.0821e+001 -1.0753e+002  2.7779e+001 38292 93935,94065,94039
 2.6000e+000 94114 -1.1893e+002 -1.1524e+002 -3.3304e+001 38292 93961,94013,93987
 2.6000e+000 94091 -6.1108e+001 -9.2869e+001 -3.4559e+000 38292 93961,94039,94013
 2.6000e+000 94408  3.9729e+001 -1.6395e+002 -7.5794e+000 37880 94431,94261,94235
 2.6000e+000 94385  3.1778e+001 -1.3196e+002 -1.1872e+001 37880 94431,94235,94313
 2.6000e+000 94362 -8.9813e+000 -1.4819e+002  3.4878e+001 37880 94209,94313,94235
 2.6000e+000 94339  4.8861e+000 -1.1005e+002  2.5478e+001 37880 94183,94313,94209
 2.6000e+000 94457  5.8148e+001 -1.3653e+002 -1.7994e+001 37880 94287,94261,94431
 2.6000e+000 94480  3.3754e+001 -1.1954e+002 -1.5602e+001 37880 94287,94431,94313
 2.6000e+000 94728 -1.0396e+002 -2.6661e+002  1.2296e+001 37426 94529,94607,94555
 2.6000e+000 94705 -3.2200e+001 -2.8566e+002 -2.3254e+001 37426 94529,94633,94607
 2.6000e+000 94682 -2.0693e+001 -2.9779e+002 -2.8441e+001 37426 94503,94633,94529
 2.6000e+000 94659 -3.9071e+001 -1.0608e+002 -6.4302e+001 37426 94555,94607,94581
 2.6000e+000 95257  3.6988e+001 -1.3420e+002 -3.4806e+001 36722 95496,95280,94862
 2.6000e+000 95234  9.8141e+000 -1.4213e+002 -9.6471e+000 36722 95496,94862,94836
 2.6000e+000 95211  8.5012e+001 -1.4366e+002 -8.0680e+000 36722 95352,95280,95070
 2.6000e+000 95188  4.5183e+001 -1.5009e+002  3.5529e+001 36722 95352,95070,95044
 2.6000e+000 95165  2.5201e+000 -1.4592e+002 -4.4815e+001 36722 95424,94888,94862
 2.6000e+000 95142  4.8158e+001 -6.8268e+001  4.3411e+001 36722 94914,94966,94940
 2.6000e+000 95119 -5.7761e+001 -2.6225e+002  7.1214e+001 36722 94966,95044,95018
 2.6000e+000 95096 -4.3351e+001 -1.8124e+002  5.0516e+001 36722 94966,95018,94992
 2.6000e+000 95306 -1.5140e+001 -1.4255e+002 -3.6390e+001 36722 95424,94862,95280
 2.6000e+000 95329  1.1604e+001 -1.1480e+002 -8.5501e+000 36722 94914,95280,94966
 2.6000e+000 95378  9.3328e+000 -1.6300e+002  8.5116e+000 36722 94966,95280,95352
 2.6000e+000 95401 -2.3310e+001 -1.4752e+002  3.9774e+001 36722 94966,95352,95044
 2.6000e+000 95450 -2.4284e+001 -1.5387e+002 -4.5486e+001 36722 94914,94888,95424
 2.6000e+000 95473 -2.7753e+001 -1.4928e+002 -3.9031e+001 36722 94914,95424,95280
 2.6000e+000 95522  4.2225e+001 -1.2214e+002 -3.7154e+001 36722 95070,95280,95496
 2.6000e+000 95545  3.5748e+001 -1.1553e+002 -3.2365e+001 36722 95070,95496,94836
 2.6000e+000 96130 -1.0963e+001 -4.3256e+001  1.7211e+001 36268 96153,95911,95859
 2.6000e+000 96107 -2.6460e+001 -1.0032e+002  1.0007e+001 36268 96153,95859,95807
 2.6000e+000 96084 -1.2727e+001 -8.3095e+001 -5.7592e+000 36268 95807,95859,95833
 2.6000e+000 96061 -5.8303e+000 -2.0842e+002  2.2537e+001 36268 95911,95989,95937
 2.6000e+000 96038 -1.0174e+001 -4.7712e+001 -5.3494e+000 36268 95859,95911,95885
 2.6000e+000 96015 -5.7421e+001 -1.2419e+002 -3.4946e+001 36268 95937,95989,95963
 2.6000e+000 96179  2.6331e+001 -9.6931e+001  3.0795e+001 36268 95989,95911,96153
 2.6000e+000 96202 -1.2801e+000 -1.7165e+002  2.0576e+001 36268 95989,96153,95807
 2.6000e+000 96531  4.4813e+000 -2.1651e+002  1.1728e+001 35728 96358,96410,96384
 2.6000e+000 96508 -6.1351e+001 -2.1170e+002  4.9329e+000 35728 96332,96410,96358
 2.6000e+000 96485 -6.8608e+001 -2.0364e+002  2.1703e+001 35728 96332,96436,96410
 2.6000e+000 96462  5.9065e+001 -1.1304e+002 -2.7051e+001 35728 96306,96436,96332
 2.6000e+000 96860 -3.7557e+001 -1.6753e+002 -9.7150e+000 35324 96687,96765,96713
 2.6000e+000 96837 -5.7414e+001 -2.1591e+002 -1.3005e+001 35324 96661,96765,96687
 2.6000e+000 96814 -6.1556e+001 -1.6943e+002 -1.0541e+001 35324 96713,96765,96739
 2.6000e+000 96791 -4.4409e+001 -3.0782e+002 -3.6076e+001 35324 96635,96765,96661
 2.6000e+000 97366 -6.4116e+001 -2.2710e+002  1.1397e+001 34920 97389,97069,97043
 2.6000e+000 97343 -6.0081e+001 -2.0428e+002  6.6434e+000 34920 97389,97043,97199
 2.6000e+000 97320 -1.0211e+001 -2.0746e+002 -3.1308e+001 34920 97043,97225,97199
 2.6000e+000 97297 -5.3568e+001 -2.5881e+002 -1.3185e+001 34920 97069,97121,97095
 2.6000e+000 97274 -5.2234e+001 -1.6028e+002 -1.6600e+001 34920 97121,97199,97173
 2.6000e+000 97251 -7.1410e+001 -8.6826e+001 -7.7431e+001 34920 97121,97173,97147
 2.6000e+000 97415 -7.2995e+001 -2.2476e+002 -1.8089e+001 34920 97121,97069,97389
 2.6000e+000 97438 -5.3267e+001 -1.7464e+002 -2.3195e+001 34920 97121,97389,97199
 2.6000e+000 97708 -3.6192e+001 -1.8550e+002 -4.7114e+000 34722 97509,97587,97535
 2.6000e+000 97685 -1.8158e+001 -1.7886e+002 -9.6132e+000 34722 97509,97613,97587
 2.6000e+000 97662 -5.3122e+001 -1.9410e+002 -1.2231e+001 34722 97483,97613,97509
 2.6000e+000 97639 -2.2990e+001 -1.6013e+002  3.2815e+001 34722 97535,97587,97561
 2.6000e+000 98216 -2.5075e+001 -2.5814e+002 -3.3576e+000 34318 97971,98075,97997
 2.6000e+000 98193  1.0954e+001 -2.1033e+002  2.2760e+001 34318 97893,98075,97971
 2.6000e+000 98170  4.7177e+001 -1.7779e+002  6.1516e+000 34318 97893,97971,97919
 2.6000e+000 98147 -4.4645e+001 -1.7480e+002  3.9562e+001 34318 97997,98075,98049
 2.6000e+000 98124  5.8444e+001 -1.2954e+002 -1.8193e+001 34318 97919,97971,97945
 2.6000e+000 98101 -6.2835e+001 -2.0786e+002  6.1588e+001 34318 97997,98049,98023
 2.6000e+000 98594  2.4091e+001 -1.1215e+002 -9.2694e+000 33814 98961,98617,98424
 2.6000e+000 98571 -3.1136e+000 -1.4149e+002 -1.4575e+001 33814 98689,98617,98372
 2.6000e+000 98548 -1.4717e+001 -1.0030e+002 -1.5172e+001 33814 99033,98689,98372
 2.6000e+000 98525  1.0381e+001 -5.4653e+001  4.5870e+001 33814 98761,98476,98450
 2.6000e+000 98502  3.4036e+001 -1.1707e+002 -6.4890e+000 33814 98961,98424,98398
 2.6000e+000 98643  4.4622e+000 -1.0161e+002  1.6754e+001 33814 98450,98424,98617
 2.6000e+000 98666  1.4258e+001 -8.0164e+001  1.9609e+001 33814 98761,98450,98617
 2.6000e+000 98715 -3.8078e+001 -1.6825e+002 -1.3461e+001 33814 99161,98689,98320
 2.6000e+000 98738 -6.6327e+001 -1.6899e+002 -7.2205e+000 33814 98320,98689,98346
 2.6000e+000 98787 -5.7030e+001 -1.3232e+002  6.0685e+001 33814 98833,98761,98320
 2.6000e+000 98810 -2.0421e+001 -1.7924e+002  1.4817e+001 33814 99161,98320,98761
 2.6000e+000 98859  1.0087e+001 -2.1236e+001  2.1473e+001 33814 98476,98761,98833
 2.6000e+000 98987  9.5241e+000 -1.1270e+002 -5.6072e+000 33814 98372,98617,98961
 2.6000e+000 99010  1.8812e+001 -1.1846e+002 -8.3480e-001 33814 98372,98961,98398
 2.6000e+000 99059 -5.0902e+001 -1.7711e+002 -2.9178e+001 33814 98346,98689,99033
 2.6000e+000 99187 -1.7505e+001 -1.2797e+002 -4.3410e+000 33814 98617,98689,99161
 2.6000e+000 99210  1.9184e+000 -1.4253e+002  2.4826e+001 33814 98617,99161,98761
 2.6000e+000 99588 -3.1509e+001 -1.4210e+002 -1.8480e+001 33566 99366,99444,99392
 2.6000e+000 99565 -1.7378e+000 -1.0641e+002 -5.4485e+000 33566 99314,99444,99366
 2.6000e+000 99542 -4.0180e+001 -1.5575e+002  2.0458e+001 33566 99314,99366,99340
 2.6000e+000 99519 -8.5202e+000 -1.2365e+002  1.5192e+001 33566 99314,99470,99444
 2.6000e+000 99496  1.0160e+001 -8.2254e+001 -4.1265e+001 33566 99392,99444,99418
 2.6000e+000 99787 -1.2570e+001 -1.9382e+002  1.2181e+001 33105 99637,99689,99663
 2.6000e+000 99764 -7.5213e+000 -1.8489e+002  2.4394e-001 33105 99611,99689,99637
 2.6000e+000 99741  1.2562e+001 -6.6807e+001  8.6599e+000 33105 99611,99715,99689
 2.6000e+000 100167 -6.0684e+001 -1.7082e+002  4.9240e+001 32651 100190,99971,99919
 2.6000e+000 100144 -2.5158e+001 -1.4857e+002  3.7218e+001 32651 100262,100190,99919
 2.6000e+000 100121 -2.7481e+001 -1.4815e+002  3.5762e+001 32651 100262,99919,100049
 2.6000e+000 100098  5.7889e+000 -1.3152e+002 -1.7197e+001 32651 99893,100049,99919
 2.6000e+000 100075  1.3613e+001 -1.2458e+002  9.1319e+001 32651 99919,99971,99945
 2.6000e+000 100216 -2.5422e+001 -1.7313e+002  2.9414e+001 32651 99997,99971,100190
 2.6000e+000 100239 -7.0825e+000 -1.5391e+002  1.5913e+001 32651 99997,100190,100023
 2.6000e+000 100288 -2.8345e+001 -1.4978e+002  3.6248e+001 32651 100023,100190,100262
 2.6000e+000 100311 -3.4548e+001 -1.5130e+002  3.4812e+001 32651 100023,100262,100049
 2.6000e+000 100608 -7.1641e+001 -1.9508e+002 -6.1130e+000 32254 100386,100490,100464
 2.6000e+000 100585 -6.1797e+001 -1.9869e+002  3.8575e+000 32254 100360,100490,100386
 2.6000e+000 100562 -4.8782e+001 -1.9247e+002 -7.1128e+000 32254 100386,100464,100412
 2.6000e+000 100539  3.7447e+001 -1.5938e+002  1.6120e+000 32254 100334,100490,100360
 2.6000e+000 100516 -5.6221e+001 -1.3797e+002 -2.3775e+001 32254 100412,100464,100438
 2.6000e+000 100758  5.6482e+001  1.9710e+001  3.7460e+001 31914 100985,100781,100683
 2.6000e+000 100735  3.2509e+001 -3.5171e+001 -6.8057e+000 31914 100853,100781,100657
 2.6000e+000 100807  6.3675e+001 -2.2292e+001  2.1672e+001 31914 100709,100683,100781
 2.6000e+000 100830  1.2962e+001 -5.9179e+001 -3.3934e+001 31914 100709,100781,100631
 2.6000e+000 100879  5.8841e+001  3.5489e+001 -1.9430e+001 31914 100631,100781,100853
 2.6000e+000 101011  1.1305e+001 -3.0766e+001  1.4623e+001 31914 100657,100781,100985
 2.6000e+000 101191  2.8038e+000 -9.2763e+001  4.0944e+000 31418 101113,101165,101139
 2.6000e+000 101341 -4.9869e+001 -1.7755e+002 -8.9472e+000 31106 101214,101266,101240
 2.6000e+000 101318 -3.4809e+001 -1.3558e+002 -4.5561e+000 31106 101214,101292,101266
 2.6000e+000 101591 -6.6040e+001 -1.8543e+002  4.6023e+001 30552 101614,101470,101444
 2.6000e+000 101568  1.5488e+001 -1.6868e+002  5.3265e+001 30552 101366,101496,101470
 2.6000e+000 101545 -8.0636e+001 -1.8853e+002  5.9333e+001 30552 101614,101444,101392
 2.6000e+000 101522 -7.8463e+000 -1.6668e+002  5.6710e+001 30552 101392,101444,101418
 2.6000e+000 101640 -8.7335e+001 -1.8564e+002  5.2457e+001 30552 101366,101470,101614
 2.6000e+000 101663 -9.9832e+001 -1.8715e+002  6.5720e+001 30552 101366,101614,101392
 2.6000e+000 102301  1.9142e+000 -1.8355e+002  1.4953e+001 30042 102396,102324,102059
 2.6000e+000 102278 -5.4662e+001 -1.5566e+002  6.5483e+000 30042 102324,101981,101955
 2.6000e+000 102255  2.7661e-003 -1.6161e+002  3.9287e+001 30042 102396,102059,102033
 2.6000e+000 102232 -2.4894e+001 -1.2825e+002 -4.0468e+000 30042 101929,102111,101955
 2.6000e+000 102209 -1.8655e+001 -1.9508e+002 -2.6567e+001 30042 102059,102111,102085
 2.6000e+000 102186 -3.1445e+001 -1.3072e+002 -4.6487e+000 30042 101929,102137,102111
 2.6000e+000 102163  4.2487e+000 -5.1349e+001 -2.6241e+001 30042 101981,102033,102007
 2.6000e+000 102350 -3.8608e+001 -1.8691e+002 -1.7529e+001 30042 102111,102059,102324
 2.6000e+000 102373 -7.8376e+000 -1.3021e+002 -5.5327e+000 30042 102111,102324,101955
 2.6000e+000 102422 -7.1286e+000 -1.1648e+002  2.4422e+001 30042 101981,102324,102396
 2.6000e+000 102445 -6.1218e+000 -9.3200e+001  4.9911e+001 30042 101981,102396,102033
 2.6000e+000 103000  1.2454e+001 -2.0481e+002 -4.2495e+000 29730 103023,102706,102654
 2.6000e+000 102977 -3.4007e+001 -1.9202e+002 -3.1744e+001 29730 103023,102654,102810
 2.6000e+000 102954 -1.0773e+002 -3.4911e+002 -2.7047e+001 29730 102732,102810,102784
 2.6000e+000 102931 -8.9553e+001 -2.2817e+002 -4.8866e+001 29730 102628,102810,102654
 2.6000e+000 102908 -3.5187e+000 -1.5122e+002  1.9951e+001 29730 102654,102706,102680
 2.6000e+000 102885 -5.4223e+001 -2.0894e+002 -3.5951e+001 29730 102732,102784,102758
 2.6000e+000 102862 -6.4497e+001 -2.0853e+002 -7.9782e+001 29730 102628,102836,102810
 2.6000e+000 103049 -1.9256e+001 -2.4771e+002 -2.1392e+001 29730 102732,102706,103023
 2.6000e+000 103072 -4.6552e+001 -2.0727e+002 -4.3081e+001 29730 102732,103023,102810
 2.6000e+000 103222  1.7421e+001 -1.6508e+002 -2.1028e+001 29226 103095,103147,103121
 2.6000e+000 103199  9.2574e+000 -1.7821e+002 -1.5636e+001 29226 103095,103173,103147
 2.6000e+000 103730 -4.7211e+000 -1.3456e+002  2.0275e+000 28822 103537,103589,103563
 2.6000e+000 103707 -1.8291e+001 -1.7297e+002  5.8743e+000 28822 103433,103589,103537
 2.6000e+000 103684 -5.1441e+001 -1.6515e+002 -3.0943e+001 28822 103433,103537,103459
 2.6000e+000 103661 -3.0972e+001 -1.9156e+002  2.3917e-001 28822 103407,103589,103433
 2.6000e+000 103638 -3.6673e+001 -6.8994e+001  5.5618e+000 28822 103459,103511,103485
 2.6000e+000 103615 -2.4881e+001 -8.1813e+001  1.1486e+001 28822 103459,103537,103511
 2.6000e+000 103880  3.3353e+001 -1.3848e+002  1.3769e+001 28368 103975,103903,103779
 2.6000e+000 103857  4.3391e+001 -1.5887e+002 -8.8976e+000 28368 103903,103753,103831
 2.6000e+000 103929  3.3162e+001 -1.3199e+002  1.3076e+001 28368 103805,103779,103903
 2.6000e+000 103952  6.4282e+001 -1.6564e+002  2.1258e+000 28368 104105,103903,103831
 2.6000e+000 104001  1.2011e+001 -1.5543e+002 -8.5170e-001 28368 103753,103903,103975
 2.6000e+000 104131  1.9720e+001 -1.7014e+002  2.5023e+001 28368 103805,103903,104105
 2.6000e+000 104539 -2.1969e+001 -8.0663e+001  1.2001e+001 28028 104562,104340,104314
 2.6000e+000 104516 -2.2812e+001 -5.8803e+001  1.6794e+001 28028 104634,104562,104314
 2.6000e+000 104493 -2.4247e+001 -8.2167e+001 -1.8068e+001 28028 104762,104366,104340
 2.6000e+000 104470 -2.0329e+001 -7.0653e+001 -2.9540e+001 28028 104366,104418,104392
 2.6000e+000 104588 -2.6729e+001 -9.4475e+001 -7.5931e+000 28028 104762,104340,104562
 2.6000e+000 104611 -2.6397e+001 -4.9673e+001 -7.5943e+000 28028 104418,104562,104444
 2.6000e+000 104660 -4.5910e+001 -5.5826e+001  9.5260e+000 28028 104444,104562,104634
 2.6000e+000 104788 -3.2891e+001 -6.6133e+001 -1.6752e+001 28028 104418,104366,104762
 2.6000e+000 104811 -3.1020e+001 -7.3081e+001 -6.3218e+000 28028 104418,104762,104562
 2.6000e+000 105010 -2.5002e+001 -1.1178e+002 -1.2574e+001 27324 105033,104886,104860
 2.6000e+000 104987  6.4758e+001 -6.7071e+001  7.7742e+000 27324 105033,104860,104834
 2.6000e+000 104964  2.1471e+001 -6.5656e+001  3.1658e+001 27324 105105,104912,104886
 2.6000e+000 105059  1.3432e+001 -6.7347e+001  2.9444e+001 27324 105105,104886,105033
 2.6000e+000 105082  3.0235e+001 -7.0669e+001  3.9758e+001 27324 104938,105033,104834
 2.6000e+000 105131  4.1295e+001 -6.7160e+001  4.0159e+001 27324 104938,104912,105105
 2.6000e+000 105154  2.7862e+001 -7.6701e+001  3.4883e+001 27324 104938,105105,105033
 2.6000e+000 105402 -7.0302e+001 -1.2590e+002 -6.3714e+000 27012 105229,105281,105255
 2.6000e+000 105379 -4.3797e+001 -1.0269e+002 -1.6187e+001 27012 105229,105307,105281
 2.6000e+000 105356 -2.1866e+001 -9.8082e+001 -1.4015e+001 27012 105177,105307,105229
 2.6000e+000 105333 -5.3970e+001 -9.1213e+001 -5.3712e+001 27012 105177,105229,105203
 2.6000e+000 105603  1.5821e+001 -2.0727e+001  2.1340e+001 26508 105626,105453,105427
 2.6000e+000 105580  1.1637e+001 -3.0258e+001  1.7504e+001 26508 105626,105427,105505
 2.6000e+000 105557  7.4675e-001 -1.7195e+001  7.9562e+000 26508 105427,105531,105505
 2.6000e+000 105652  1.6967e+001 -2.0438e+001  2.6034e+001 26508 105479,105453,105626
 2.6000e+000 105675  1.5855e+001 -2.4429e+001  2.2477e+001 26508 105479,105626,105505
 2.6000e+000 106057 -2.9288e+001 -1.4558e+002  6.5318e+001 25947 106080,105887,105861
 2.6000e+000 106034 -1.6793e+001 -1.2720e+002  4.7409e+001 25947 106080,105861,105783
 2.6000e+000 106011 -1.4018e+001 -8.1991e+001  3.8475e+001 25947 105783,105835,105809
 2.6000e+000 105988 -4.4719e+001 -9.8815e+001  5.0472e+001 25947 105783,105861,105835
 2.6000e+000 105965  8.5450e-001 -8.9503e+001  2.8672e+001 25947 105887,105939,105913
 2.6000e+000 106106 -2.3328e+001 -1.3622e+002  4.8254e+001 25947 105939,105887,106080
 2.6000e+000 106129  6.1931e+000 -1.0057e+002  2.7442e+001 25947 105939,106080,105783
 2.6000e+000 106714 -5.2487e+001 -9.9328e+001  8.6521e+000 25557 106809,106737,106547
 2.6000e+000 106691 -5.5164e+001 -1.3637e+002  1.8459e+001 25557 106737,106417,106391
 2.6000e+000 106668 -4.0695e+001 -8.6670e+001  3.0926e+000 25557 106809,106547,106495
 2.6000e+000 106645 -6.8971e+001 -2.1075e+002  4.2963e+001 25557 106417,106495,106469
 2.6000e+000 106622 -6.5128e+001 -8.8200e+001  1.3711e+001 25557 106495,106547,106521
 2.6000e+000 106599 -8.3231e+001 -1.6465e+002  4.1490e+001 25557 106417,106469,106443
 2.6000e+000 106763 -8.2022e+001 -1.3112e+002  2.4899e+001 25557 106573,106547,106737
 2.6000e+000 106786 -4.5359e+001 -1.1443e+002  1.6088e+001 25557 106573,106737,106391
 2.6000e+000 106835 -3.6030e+001 -1.2500e+002  1.3540e+001 25557 106417,106737,106809
 2.6000e+000 106858 -2.5442e+001 -1.0914e+002  8.8791e+000 25557 106417,106809,106495
 2.6000e+000 107364 -2.0670e+001 -9.1115e+001 -2.2258e+001 25153 107459,107387,107171
 2.6000e+000 107341 -9.9979e+000 -8.4945e+001 -1.1197e+001 25153 107387,107119,107067
 2.6000e+000 107318 -1.6020e+001 -6.5200e+001  2.7596e+000 25153 107459,107171,107145
 2.6000e+000 107295 -2.7906e+001 -9.9890e+001 -3.3656e+001 25153 107531,107223,107197
 2.6000e+000 107272 -2.0810e+001 -8.7227e+001  1.6071e+001 25153 107067,107119,107093
 2.6000e+000 107249 -2.4795e+001 -9.0830e+001 -1.7918e+001 25153 107041,107223,107067
 2.6000e+000 107413 -5.6733e+001 -1.0309e+002 -2.2957e+001 25153 107197,107171,107387
 2.6000e+000 107436 -1.7332e+001 -1.0094e+002 -2.5685e+001 25153 107531,107197,107387
 2.6000e+000 107485 -4.8089e+000 -4.7821e+001 -2.8938e+000 25153 107119,107387,107459
 2.6000e+000 107508  1.2112e+001 -2.2187e+001  2.5662e+001 25153 107119,107459,107145
 2.6000e+000 107557 -3.2005e+001 -9.0865e+001 -2.0280e+001 25153 107067,107223,107531
 2.6000e+000 107580 -1.6764e+001 -8.4042e+001 -1.1581e+001 25153 107067,107531,107387
 2.6000e+000 107958 -2.1522e+001 -1.3858e+002 -9.5053e+000 24741 107736,107814,107788
 2.6000e+000 107935 -3.6761e+001 -1.6816e+002 -3.5356e+001 24741 107736,107840,107814
 2.6000e+000 107912 -5.2044e+001 -1.5499e+002 -4.4980e+001 24741 107684,107840,107736
 2.6000e+000 107889 -3.6674e+001 -1.0857e+002 -1.9476e+001 24741 107736,107788,107762
 2.6000e+000 107866 -6.4272e+001 -2.2520e+002 -7.2459e+001 24741 107684,107736,107710
 2.6000e+000 108157 -2.0381e+001 -6.1821e+001  1.2683e+001 24237 108180,108059,108007
 2.6000e+000 108134 -8.0879e+000 -4.2486e+001  2.6945e+001 24237 108180,108007,107981
 2.6000e+000 108111  1.1346e+001 -8.6605e+001  1.2544e+001 24237 108007,108059,108033
 2.6000e+000 108206 -1.0688e+001 -4.5355e+001  2.6047e+001 24237 108085,108059,108180
 2.6000e+000 108229  9.6383e-001 -2.6299e+001  4.0187e+001 24237 108085,108180,107981
 2.6000e+000 108658 -2.6275e+001 -1.3244e+002  1.1910e+001 23776 108361,108413,108387
 2.6000e+000 108635 -3.2983e+001 -1.6871e+002 -2.6330e+001 23776 108753,108681,108361
 2.6000e+000 108612 -1.3975e+001 -1.1189e+002 -2.4694e+001 23776 108681,108465,108439
 2.6000e+000 108589  2.9007e+000 -1.8086e+002 -5.1376e+000 23776 108753,108361,108335
 2.6000e+000 108566 -1.3488e+001 -1.5122e+002  7.7194e+001 23776 108335,108517,108465
 2.6000e+000 108543 -8.5341e+000 -2.0481e+002  8.6066e+001 23776 108465,108517,108491
 2.6000e+000 108707 -4.6920e+001 -1.1981e+002 -2.1341e+001 23776 108413,108361,108681
 2.6000e+000 108730 -2.5420e+001 -1.0072e+002 -1.2284e+001 23776 108413,108681,108439
 2.6000e+000 108779  1.3616e+000 -1.0650e+002 -1.2785e+001 23776 108465,108681,108753
 2.6000e+000 108802  1.3165e+001 -1.5792e+002 -1.2790e+000 23776 108465,108753,108335
 2.6000e+000 109023  4.2583e+001 -4.3202e+001  2.2105e+001 23414 108873,108925,108899
 2.6000e+000 109000 -1.5256e+000 -5.9684e+001  2.0501e+001 23414 108847,108925,108873
 2.6000e+000 108977  3.3990e+001  1.1477e+001  4.4803e+000 23414 108847,108951,108925
 2.6000e+000 109474 -2.7950e+001 -1.0958e+002  1.0964e+001 23024 109151,109307,109177
 2.6000e+000 109451 -1.8033e+001 -8.4032e+001  5.4378e+000 23024 109151,109333,109307
 2.6000e+000 109428 -3.2525e+001 -2.1409e+002 -4.9000e+000 23024 109177,109281,109203
 2.6000e+000 109405 -8.2152e+001 -1.8324e+002 -2.7050e+001 23024 109177,109307,109281
 2.6000e+000 109382 -2.9489e+001 -1.7201e+002  2.1118e+001 23024 109203,109281,109229
 2.6000e+000 109359 -6.8470e+000 -1.0598e+002  2.7363e+001 23024 109229,109281,109255
 2.6000e+000 109820 -1.7870e+001 -1.3161e+002  1.6491e+001 22506 109843,109601,109523
 2.6000e+000 109797  7.0072e+000 -1.1686e+002  9.9385e+000 22506 109843,109523,109497
 2.6000e+000 109774  1.0700e+001 -1.4103e+002  1.3713e+001 22506 109915,109653,109627
 2.6000e+000 109751  1.6976e+000 -9.6445e+001  2.1767e+001 22506 109497,109679,109653
 2.6000e+000 109728 -3.3883e+001 -1.7317e+002 -3.1110e+001 22506 109523,109601,109575
 2.6000e+000 109705 -8.5666e+001 -2.3520e+002 -5.3846e+001 22506 109523,109575,109549
 2.6000e+000 109869  1.0714e+001 -1.2284e+002  2.0699e+001 22506 109627,109601,109843
 2.6000e+000 109892  1.4940e+001 -1.3323e+002  1.6406e+001 22506 109915,109627,109843
 2.6000e+000 109941  6.8766e+000 -1.3476e+002  8.9347e+000 22506 109497,109653,109915
 2.6000e+000 109964  7.4241e+000 -1.3410e+002  1.0626e+001 22506 109497,109915,109843
 2.6000e+000 110163 -1.4441e+001 -1.0955e+002  7.1495e+000 21936 110186,110039,110013
 2.6000e+000 110140 -3.1870e+000 -8.8222e+001  1.8719e+001 21936 110390,110186,110013
 2.6000e+000 110117  1.0912e+001 -1.0047e+002  3.2182e+001 21936 110390,110013,109987
 2.6000e+000 110212  5.2059e+000 -7.4292e+001 -2.0121e+001 21936 110065,110039,110186
 2.6000e+000 110235 -1.8896e+001 -7.2432e+001  3.3839e+000 21936 110258,110186,110091
 2.6000e+000 110284 -6.2954e+001 -1.0526e+002 -1.1120e+001 21936 110065,110186,110258
 2.6000e+000 110416 -3.4129e+001 -9.4947e+001  2.1980e+001 21936 110091,110186,110390
 2.6000e+000 110439 -1.3450e+001 -1.0295e+002  3.4036e+001 21936 110091,110390,109987
 2.6000e+000 110709 -1.3808e+001 -1.3701e+002  5.1664e+000 21338 110510,110614,110588
 2.6000e+000 110686 -3.9349e+001 -1.9513e+002 -9.7368e+000 21338 110484,110614,110510
 2.6000e+000 110663 -9.0557e+000 -6.0517e+001 -4.2937e-001 21338 110510,110562,110536
 2.6000e+000 110640 -4.1384e+001 -1.3773e+002 -5.9250e+000 21338 110510,110588,110562
 2.6000e+000 111296  1.2185e+001 -1.0140e+002  5.5648e+000 20934 111025,111155,111103
 2.6000e+000 111273 -1.6992e+001 -2.6244e+002  1.7376e+000 20934 110999,111155,111025
 2.6000e+000 111250 -1.6767e+000 -1.0365e+002 -8.6560e+000 20934 111103,111155,111129
 2.6000e+000 111227 -3.1920e+001 -1.9213e+002 -4.0119e+001 20934 111051,111103,111077
 2.6000e+000 111204 -5.2629e+001 -1.9571e+002 -2.2803e+001 20934 111025,111103,111051
 2.6000e+000 111181 -4.1623e+001 -3.2201e+002 -8.7028e+000 20934 110973,111155,110999
 2.6000e+000 111930 -6.1343e+001 -9.9503e+001 -2.2613e+001 20494 111662,111714,111688
 2.6000e+000 111907 -2.3596e+001 -8.8168e+001 -1.5291e+001 20494 111584,111714,111662
 2.6000e+000 111884 -2.0186e+001 -8.4403e+001 -1.6990e+001 20494 111584,111766,111714
 2.6000e+000 111861  4.3031e+000 -1.8414e+002  1.9706e+001 20494 111584,111636,111610
 2.6000e+000 111838 -3.8484e+001 -1.2610e+002 -1.1345e+001 20494 111584,111662,111636
 2.6000e+000 111815 -2.8978e-001 -5.2775e+001  1.8619e+001 20494 111558,111766,111584
 2.6000e+000 111792 -3.6057e+001 -1.0079e+002  1.7949e+001 20494 111714,111766,111740
 2.6000e+000 112249 -4.6465e+001 -2.5309e+002  1.9505e+001 19940 111975,112053,112001
 2.6000e+000 112226 -1.0344e+000 -1.6644e+002  1.5381e+000 19940 111975,112131,112053
 2.6000e+000 112203  2.7609e+001 -2.2428e+002  0.0000e+000 19940 112053,112105,112079
 2.6000e+000 112180 -3.3243e+001 -2.3877e+002 -4.6868e+000 19940 112053,112131,112105
 2.6000e+000 112157 -2.3626e+000 -2.1603e+002 -3.7165e+000 19940 112001,112053,112027
 2.6000e+000 112757  3.0917e+001 -1.2544e+002 -3.7454e+001 19486 112780,112538,112486
 2.6000e+000 112734  2.2797e+001 -1.3997e+002 -1.3482e+001 19486 112780,112486,112460
 2.6000e+000 112711 -7.9823e+000 -1.1499e+002 -1.1416e+001 19486 112852,112616,112590
 2.6000e+000 112688  1.2896e+002 -1.8707e+002 -5.1570e+001 19486 112486,112538,112512
 2.6000e+000 112665 -5.6054e+001 -1.8317e+002 -8.6810e+000 19486 112434,112616,112460
 2.6000e+000 112642 -4.0077e+000 -1.0667e+002 -2.7617e+001 19486 112538,112590,112564
 2.6000e+000 112806  6.8273e+000 -1.3789e+002 -3.1251e+001 19486 112590,112538,112780
 2.6000e+000 112829  2.6554e+001 -1.2477e+002 -1.9247e+001 19486 112852,112590,112780
 2.6000e+000 112878 -3.0019e+001 -1.2667e+002 -2.2899e+000 19486 112460,112616,112852
 2.6000e+000 112901 -9.5985e+000 -1.4980e+002 -6.2192e+000 19486 112460,112852,112780
 2.6000e+000 113252 -1.0377e+002 -2.1105e+002 -5.1008e+000 19096 113105,113157,113131
 2.6000e+000 113229 -9.0581e+001 -1.5420e+002 -1.8284e+000 19096 113053,113157,113105
 2.6000e+000 113206 -7.6060e+001 -1.4329e+002  4.0936e+000 19096 113027,113157,113053
 2.6000e+000 113183 -1.3597e+002 -2.4203e+002  1.4466e+001 19096 113053,113105,113079
 2.6000e+000 113451 -3.0947e+001 -1.5433e+002 -4.0250e+000 18642 113327,113379,113353
 2.6000e+000 113428 -5.6958e+001 -2.0802e+002 -1.3390e+001 18642 113301,113379,113327
 2.6000e+000 113405  5.6309e+000 -1.8359e+002 -1.5643e+000 18642 113275,113379,113301
 2.6000e+000 113699  8.9619e+000 -1.8391e+002 -2.6049e+000 18138 113474,113552,113526
 2.6000e+000 113676  4.4922e+001 -1.9168e+002 -2.0849e+001 18138 113474,113578,113552
 2.6000e+000 113653  3.7470e+001 -1.8426e+002 -1.8478e+001 18138 113474,113604,113578
 2.6000e+000 113630  4.2931e+001 -1.6258e+002  1.5474e+001 18138 113474,113526,113500
 2.6000e+000 113851 -1.2012e+001 -2.1242e+002 -1.9764e+000 17682 113750,113802,113776
 2.6000e+000 113828 -1.3628e+000 -2.0092e+002  3.0777e+000 17682 113724,113802,113750
 2.6000e+000 114383  5.7573e+000 -1.4295e+002 -9.1515e+000 17106 114086,114242,114164
 2.6000e+000 114360 -5.7987e+001 -1.6866e+002  7.6299e+000 17106 114060,114242,114086
 2.6000e+000 114337 -6.6641e+001 -2.7823e+002  2.9085e+001 17106 114086,114164,114138
 2.6000e+000 114314 -7.0609e+001 -3.9665e+002 -1.0848e+001 17106 114190,114242,114216
 2.6000e+000 114291 -5.0305e+001 -2.9127e+002 -2.4261e+001 17106 114164,114242,114190
 2.6000e+000 114268 -2.1468e+001 -2.6129e+002  6.3823e+001 17106 114086,114138,114112
 2.6000e+000 114680 -6.1682e+001 -1.9425e+002 -9.8504e-001 16766 114703,114432,114406
 2.6000e+000 114657 -6.6396e+001 -1.9836e+002 -3.7418e+000 16766 114703,114406,114510
 2.6000e+000 114634 -5.6689e+001 -1.4345e+002  3.6455e+000 16766 114406,114536,114510
 2.6000e+000 114611 -4.5991e+001 -2.1102e+002 -1.0999e+001 16766 114432,114484,114458
 2.6000e+000 114588 -7.3707e+001 -1.6995e+002  5.2534e+001 16766 114406,114562,114536
 2.6000e+000 114729 -4.4537e+001 -1.9645e+002  5.4604e+000 16766 114484,114432,114703
 2.6000e+000 114752 -5.7861e+001 -2.0778e+002  5.6127e-001 16766 114484,114703,114510
 2.6000e+000 114902  1.8496e+001 -2.6960e+002 -3.2442e+001 16362 114775,114827,114801
 2.6000e+000 114879  3.9277e+001 -2.4663e+002 -4.1472e+001 16362 114775,114853,114827
 2.6000e+000 115054 -2.9291e+002 -4.6928e+002 -1.2071e+001 15908 114953,115005,114979
 2.6000e+000 115031 -2.7605e+002 -4.8273e+002 -6.8625e+000 15908 114927,115005,114953
 2.6000e+000 115326 -2.2916e+001 -1.5346e+002  3.7931e+001 15251 115101,115179,115153
 2.6000e+000 115303 -1.2651e+001 -1.3726e+002 -6.5812e+000 15251 115101,115231,115179
 2.6000e+000 115280 -1.8093e+001 -1.4976e+002 -5.4392e+000 15251 115179,115231,115205
 2.6000e+000 115257 -9.6273e+001 -4.4032e+002  4.0135e+001 15251 115101,115153,115127
 2.6000e+000 115429 -4.6451e+001 -2.2260e+002  4.0358e+001 421 115351,115403,115377
 2.7000e+000 66230 -3.8989e+001  3.7356e+001  1.0272e+001 65954 66152,66204,66178
 2.7000e+000 66429  5.8585e-001 -1.9535e+001  2.3415e-001 65642 66279,66331,66305
 2.7000e+000 66406 -1.4109e+000 -1.2259e+001  6.5359e+000 65642 66279,66357,66331
 2.7000e+000 66383  1.1421e+001  3.5401e+001 -8.5528e+000 65642 66253,66357,66279
 2.7000e+000 66628 -5.6135e+000 -7.8064e+001  1.7802e+001 65444 66452,66530,66478
 2.7000e+000 66605  4.3349e+000 -1.1595e+002  3.7423e+000 65444 66452,66556,66530
 2.7000e+000 66582 -1.0480e+001 -1.0251e+002  2.2544e+001 65444 66478,66530,66504
 2.7000e+000 67006  1.9624e+000 -8.5267e+001 -4.0939e-001 65246 66732,66810,66758
 2.7000e+000 66983  2.1637e+001 -3.3482e+001  1.4975e+001 65246 66732,66836,66810
 2.7000e+000 66960 -1.6007e+001 -8.2699e+001 -1.6986e+001 65246 66732,66862,66836
 2.7000e+000 66937 -2.7880e+000 -4.5384e+001  1.1521e+001 65246 66758,66810,66784
 2.7000e+000 66914 -5.5836e+000 -1.0534e+002 -3.3576e+001 65246 66732,66888,66862
 2.7000e+000 67107  3.1163e+001 -3.7855e+001 -1.1801e+001 64934 67029,67081,67055
 2.7000e+000 67306 -1.4557e+001 -4.5335e+001  1.7119e+001 64736 67156,67208,67182
 2.7000e+000 67283  2.0070e+000 -3.3813e+001  1.1699e+001 64736 67130,67208,67156
 2.7000e+000 67260  2.3498e+000 -8.9381e+001  1.4836e+001 64736 67130,67234,67208
 2.7000e+000 67507 -2.0445e-001 -6.0608e+001 -5.7741e+000 64389 67357,67409,67383
 2.7000e+000 67484 -4.8024e+000 -8.7616e+001 -8.0542e+000 64389 67357,67435,67409
 2.7000e+000 67461 -4.9940e+000 -1.0267e+002 -3.4434e+000 64389 67331,67435,67357
 2.7000e+000 67708  3.2926e+001 -9.6185e+001  2.1624e+001 63985 67731,67584,67558
 2.7000e+000 67685  1.0856e+001 -2.6529e+001  9.0103e+000 63985 67731,67558,67636
 2.7000e+000 67662 -6.1550e+000 -3.4073e+001  7.3041e+000 63985 67532,67636,67558
 2.7000e+000 67757  2.3914e+001 -1.3260e+002  1.8062e+001 63985 67610,67584,67731
 2.7000e+000 67780 -1.1346e+001 -8.2801e+001  2.3239e+000 63985 67610,67731,67636
 2.7000e+000 67981  4.4089e+000 -6.0129e+000  3.4319e+000 63787 67857,67909,67883
 2.7000e+000 67958 -2.5336e+000 -9.7750e+000  5.0538e+000 63787 67831,67909,67857
 2.7000e+000 67935 -1.6630e+001 -5.6819e+000 -5.4122e+000 63787 67805,67909,67831
 2.7000e+000 68231 -5.7781e+000 -1.1674e+002  1.4311e+001 63589 68254,68084,68032
 2.7000e+000 68208 -5.7283e+000 -6.3876e+001  1.4392e+001 63589 68254,68032,68006
 2.7000e+000 68185 -3.3773e+000 -5.3883e+001  1.0872e+001 63589 68326,68136,68110
 2.7000e+000 68162 -1.1098e+000 -1.0558e+002 -1.2628e+001 63589 68032,68084,68058
 2.7000e+000 68280 -1.8774e+000 -7.1246e+001  1.5415e+001 63589 68110,68084,68254
 2.7000e+000 68303 -9.1125e+000 -5.6058e+001  2.2372e+001 63589 68326,68110,68254
 2.7000e+000 68352  1.2237e+001 -2.7084e+001 -7.2015e+000 63589 68006,68136,68326
 2.7000e+000 68375 -5.4565e-001 -3.7606e+001  5.2394e+000 63589 68006,68326,68254
 2.7000e+000 68836 -8.9242e-001  1.6488e-001  1.0349e+000 63128 68859,68588,68562
 2.7000e+000 68813 -6.4390e+000 -2.1200e+001  2.2521e+001 63128 68859,68562,68692
 2.7000e+000 68790  1.8658e+001 -3.7036e+001  4.8598e+000 63128 68614,68692,68666
 2.7000e+000 68767 -2.3992e+001 -2.9565e+001  1.7911e+001 63128 68562,68718,68692
 2.7000e+000 68744  2.0487e+001 -3.9899e+001 -4.2131e+001 63128 68614,68666,68640
 2.7000e+000 68885  1.2578e+001  3.1599e+001 -1.1368e+001 63128 68614,68588,68859
 2.7000e+000 68908  5.2232e+000  3.5206e+000  9.6338e+000 63128 68614,68859,68692
 2.7000e+000 69237  2.5869e+000 -6.0316e+001  5.8177e+000 62731 69064,69116,69090
 2.7000e+000 69214 -3.7001e+000 -7.9840e+001  1.0415e+000 62731 69064,69142,69116
 2.7000e+000 69191 -1.3080e+001 -1.1281e+002  1.4054e+000 62731 69038,69142,69064
 2.7000e+000 69168 -2.6846e+000 -1.0718e+002  5.3486e+000 62731 69012,69142,69038
 2.7000e+000 69539  1.9482e+000  1.8780e+001 -6.8512e+000 62433 69389,69467,69441
 2.7000e+000 69516  6.2941e+000 -1.5361e+001 -5.7491e-001 62433 69363,69467,69389
 2.7000e+000 69493  2.6697e+000 -2.2839e+001  1.7561e+001 62433 69389,69441,69415
 2.7000e+000 69966  1.4746e+000 -5.2628e+001  1.3875e+001 62235 69989,69773,69721
 2.7000e+000 69943  6.3644e+000 -8.8555e+001 -2.1780e+001 62235 70061,69989,69721
 2.7000e+000 69920  1.7281e+001 -1.0100e+002 -1.4309e+001 62235 70061,69721,69643
 2.7000e+000 69897  1.7674e+000  2.1799e+000  8.4687e-001 62235 69721,69773,69747
 2.7000e+000 69874 -6.1401e+001 -2.9011e+002 -6.7025e+000 62235 69643,69721,69695
 2.7000e+000 69851  9.6751e+001  2.5176e+002 -3.2592e+001 62235 69643,69695,69669
 2.7000e+000 70015 -5.8814e+000 -9.1678e+001 -2.7356e+000 62235 69799,69773,69989
 2.7000e+000 70038 -4.0997e+001 -1.1809e+002 -4.5598e+001 62235 69799,69989,69825
 2.7000e+000 70087 -1.7963e+001 -9.5983e+001 -1.5423e+001 62235 69825,69989,70061
 2.7000e+000 70110  2.8606e+000 -1.0049e+002 -1.2503e+001 62235 69825,70061,69643
 2.7000e+000 70260  2.1476e+001 -3.2606e+001  6.2107e+000 62037 70133,70185,70159
 2.7000e+000 70237 -2.7017e+000 -5.6237e+001 -6.4059e+000 62037 70133,70211,70185
 2.7000e+000 70640  4.2108e+000 -5.9125e+001  2.5370e+001 61583 70735,70663,70418
 2.7000e+000 70617 -4.0180e+001 -8.0010e+001  8.9456e+000 61583 70663,70366,70522
 2.7000e+000 70594  1.5113e+001 -5.1691e+001  3.9498e+001 61583 70735,70418,70392
 2.7000e+000 70571 -8.0007e+000 -9.2915e+001  2.1350e+001 61583 70418,70496,70444
 2.7000e+000 70548 -4.2353e+001 -4.1453e+001  1.8785e+001 61583 70444,70496,70470
 2.7000e+000 70689 -2.8164e+001 -1.0054e+002  1.1248e+001 61583 70496,70418,70663
 2.7000e+000 70712 -3.6457e+001 -6.4855e+001  1.1646e+001 61583 70496,70663,70522
 2.7000e+000 70761 -3.3834e+001 -6.9134e+001  4.0429e+000 61583 70366,70663,70735
 2.7000e+000 70784 -1.0942e+001 -5.6476e+001  1.8128e+001 61583 70366,70735,70392
 2.7000e+000 71054  2.2307e+000  1.5546e+000 -3.6074e+000 61313 71077,70881,70855
 2.7000e+000 71031  1.4156e+000 -6.0644e+000 -6.5484e-001 61313 71077,70855,70829
 2.7000e+000 71008 -3.1894e+000 -1.5002e+001 -1.0181e+000 61313 70829,70959,70933
 2.7000e+000 70985  8.8590e-001 -1.2312e+001 -2.4383e+000 61313 70881,70933,70907
 2.7000e+000 71103 -6.0118e-001 -3.0821e+000 -2.0053e-002 61313 70933,70881,71077
 2.7000e+000 71126  9.9954e-001 -7.7395e+000  2.7465e+000 61313 70933,71077,70829
 2.7000e+000 71604 -5.4560e+000 -1.1444e+002 -2.0007e+000 60909 71627,71232,71414
 2.7000e+000 71581 -3.2957e+001 -1.0535e+002 -2.1500e+001 60909 71232,71440,71414
 2.7000e+000 71558 -1.0859e+001 -6.4882e+001 -4.3658e-001 60909 71627,71414,71336
 2.7000e+000 71535  1.9123e+001 -1.4491e+002  2.1380e+001 60909 71362,71414,71388
 2.7000e+000 71512 -3.7438e+001 -1.2714e+002  2.1832e+000 60909 71336,71414,71362
 2.7000e+000 71489  1.2320e+001 -4.3939e+001  1.3155e+000 60909 71258,71336,71310
 2.7000e+000 71466  1.3974e+001 -2.4587e+001 -1.2815e+001 60909 71258,71310,71284
 2.7000e+000 71653  1.2012e+001 -7.5858e+001 -7.8077e+000 60909 71258,71232,71627
 2.7000e+000 71676 -1.0081e+001 -5.0767e+001 -1.8465e+000 60909 71258,71627,71336
 2.7000e+000 71875 -1.1185e+001 -1.7869e+001  1.1141e+001 60611 71898,71725,71699
 2.7000e+000 71852 -1.1983e+001 -1.7478e+001  1.1558e+001 60611 71898,71699,71803
 2.7000e+000 71829 -2.8177e+000 -4.7999e+000  2.1822e+000 60611 71970,71751,71725
 2.7000e+000 71924 -4.8288e+000 -1.2993e+001  7.2565e+000 60611 71970,71725,71898
 2.7000e+000 71947 -1.4087e+001 -2.8273e+001  1.0635e+001 60611 71777,71898,71803
 2.7000e+000 71996 -8.5992e+000 -1.5304e+001  5.7052e+000 60611 71777,71751,71970
 2.7000e+000 72019 -1.1644e+001 -2.0651e+001  1.1291e+001 60611 71777,71970,71898
 2.7000e+000 72576  2.1164e+001 -1.7656e+002  2.9571e+001 60142 72599,72256,72230
 2.7000e+000 72553  4.2670e+001 -8.9053e+001  3.6437e+001 60142 72671,72599,72230
 2.7000e+000 72530 -8.2810e+000 -4.4626e+001 -3.1868e+000 60142 72671,72230,72204
 2.7000e+000 72507 -2.1444e+001 -4.7838e+001  1.7785e+001 60142 72743,72360,72334
 2.7000e+000 72484 -3.5643e+001 -6.0673e+001  1.5688e+000 60142 72815,72282,72256
 2.7000e+000 72461  8.2739e+000 -1.4898e+001  3.9807e+001 60142 72887,72308,72282
 2.7000e+000 72438 -2.5484e+001 -1.5890e+002 -2.0136e+001 60142 72204,72412,72386
 2.7000e+000 72625 -4.1774e+001 -1.3870e+002 -2.2509e+001 60142 72815,72256,72599
 2.7000e+000 72648 -4.3587e+000 -8.1641e+001  1.1912e+001 60142 72743,72334,72599
 2.7000e+000 72697 -1.9453e+000 -1.5705e+002  1.6987e+001 60142 72386,72599,72671
 2.7000e+000 72720 -3.7796e+001 -1.0591e+002 -1.3933e+001 60142 72386,72671,72204
 2.7000e+000 72769  1.8975e+001 -7.5469e+001  8.1511e+001 60142 72386,72360,72743
 2.7000e+000 72792  1.2239e+001 -1.4770e+002  4.4202e+001 60142 72386,72743,72599
 2.7000e+000 72841 -2.4554e+001 -3.1194e+001  1.7892e+001 60142 72887,72282,72815
 2.7000e+000 72864 -7.7336e-001 -6.9321e+001  7.1793e+000 60142 72334,72815,72599
 2.7000e+000 72913 -3.7581e+001 -4.4996e+001  2.2043e+001 60142 72334,72308,72887
 2.7000e+000 72936 -5.3080e+001 -5.2785e+001  1.6895e+000 60142 72334,72887,72815
 2.7000e+000 73491 -2.5776e+001 -1.2924e+002 -2.4801e+001 59738 73145,73327,73171
 2.7000e+000 73468  4.9613e+001 -4.1104e+001  7.3317e+000 59738 73119,73327,73145
 2.7000e+000 73445 -1.4373e+001 -7.2336e+001 -1.2065e+001 59738 73171,73327,73301
 2.7000e+000 73422 -5.3627e+000 -7.5949e+001  2.0566e-001 59738 73514,73275,73249
 2.7000e+000 73399 -2.6977e+001 -7.2777e+001  2.1282e+000 59738 73586,73514,73249
 2.7000e+000 73376 -2.5843e+001 -4.5613e+001  2.1287e+001 59738 73197,73249,73223
 2.7000e+000 73353 -2.5903e+001 -7.5067e+001  9.3113e+000 59738 73586,73249,73197
 2.7000e+000 73540 -2.3544e+001 -1.1218e+002 -1.4289e+001 59738 73301,73275,73514
 2.7000e+000 73563 -1.3451e+001 -6.8599e+001 -1.1828e+001 59738 73301,73514,73171
 2.7000e+000 73612 -2.2296e+001 -6.0621e+001  1.6628e+000 59738 73171,73514,73586
 2.7000e+000 73635 -2.1476e+001 -6.4994e+001  8.0017e+000 59738 73171,73586,73197
 2.7000e+000 73964 -3.8665e-001 -1.2745e+002 -6.0445e+000 59334 73791,73843,73817
 2.7000e+000 73941 -2.6751e+000 -1.4291e+002 -1.3385e+001 59334 73791,73869,73843
 2.7000e+000 73918 -2.9574e+001 -2.0722e+002 -9.8011e+000 59334 73739,73869,73791
 2.7000e+000 73895  8.6827e+000 -2.2739e+002 -1.0120e+001 59334 73739,73791,73765
 2.7000e+000 74261 -1.0603e+001 -9.2193e+001  3.1497e+001 58630 74065,74117,74091
 2.7000e+000 74238 -6.7316e+000 -8.4616e+001  1.0502e+001 58630 74356,74284,74065
 2.7000e+000 74215 -2.5271e+000 -3.6770e+001  1.1819e+001 58630 74284,74013,73987
 2.7000e+000 74192 -9.0396e+000 -8.3936e+001  1.1699e-001 58630 74356,74065,74039
 2.7000e+000 74169 -6.8926e+000 -5.5270e+001  6.8285e+000 58630 73987,74143,74117
 2.7000e+000 74310  3.0678e+000 -1.0273e+002  1.5734e+001 58630 74117,74065,74284
 2.7000e+000 74333 -1.3320e+001 -6.9386e+001  4.7871e+000 58630 74117,74284,73987
 2.7000e+000 74382  1.0121e+001 -7.9980e+001  8.7608e+000 58630 74013,74284,74356
 2.7000e+000 74405  8.6841e+000 -7.8604e+001 -1.7525e+000 58630 74013,74356,74039
 2.7000e+000 74815 -2.6849e+001 -7.6428e+001 -6.7404e+000 58226 74590,74642,74616
 2.7000e+000 74792 -2.7894e+001 -1.0818e+002 -1.1793e+001 58226 74590,74694,74642
 2.7000e+000 74769  3.0075e+000 -1.7092e+002  1.9772e+001 58226 74590,74720,74694
 2.7000e+000 74746 -2.3417e+001 -6.4259e+001 -8.5076e+000 58226 74642,74694,74668
 2.7000e+000 75014  3.5968e+001 -7.1322e+001 -3.5130e+001 57786 75037,74864,74838
 2.7000e+000 74991  1.5365e+001 -2.9230e+001 -5.9227e+000 57786 75037,74838,74916
 2.7000e+000 74968 -1.2088e+000 -3.5281e+001 -6.8679e+000 57786 74838,74942,74916
 2.7000e+000 75063  1.4176e+000 -1.0719e+002 -4.9457e+001 57786 74890,74864,75037
 2.7000e+000 75086 -1.0979e+001 -5.8075e+001 -1.7509e+001 57786 74890,75037,74916
 2.7000e+000 75368  2.8115e+001 -2.5057e+001  2.0692e+001 57496 75192,75270,75218
 2.7000e+000 75345  4.8158e+001 -2.0389e+001  1.5254e+001 57496 75192,75296,75270
 2.7000e+000 75322 -3.4610e+000 -5.5515e+001  3.0735e+000 57496 75218,75270,75244
 2.7000e+000 75648 -1.1012e+001 -9.4875e+001  1.2903e+000 57206 75472,75550,75498
 2.7000e+000 75625 -9.1901e+000 -6.5269e+001  4.1899e+000 57206 75472,75576,75550
 2.7000e+000 75602  2.1897e+000 -4.4121e+001 -6.4079e-002 57206 75671,75550,75524
 2.7000e+000 75697 -1.8118e+001 -9.6781e+001 -1.5702e+001 57206 75498,75550,75671
 2.7000e+000 76154 -4.5332e+000 -6.4370e+001  4.3511e-001 56802 75958,76010,75984
 2.7000e+000 76131 -3.6270e+000 -3.1897e+001  4.3704e+000 56802 75932,76010,75958
 2.7000e+000 76108 -6.3110e+000 -5.5202e+001  1.3048e+001 56802 75906,76010,75932
 2.7000e+000 76085 -4.3764e+000 -2.4795e+001  1.6174e+001 56802 75880,76010,75906
 2.7000e+000 76062  1.2732e+001 -2.3952e+001 -2.2715e+000 56802 75880,76036,76010
 2.7000e+000 76505 -3.2940e+000  7.8382e-002  2.0348e+000 56504 76306,76384,76332
 2.7000e+000 76482  6.5910e-001  9.4775e-001  1.5922e+000 56504 76306,76410,76384
 2.7000e+000 76459 -6.6980e+000 -2.3093e+000  8.9031e-001 56504 76332,76384,76358
 2.7000e+000 76436 -7.1712e-001 -6.4754e-002  1.0575e+000 56504 76280,76410,76306
 2.7000e+000 77011  1.8851e+001 -5.6712e+001 -2.2741e+001 56050 76740,76818,76792
 2.7000e+000 76988  3.3377e+001 -5.0623e+001 -2.2681e+001 56050 76714,76818,76740
 2.7000e+000 76965 -2.0167e+001 -6.3381e+001 -8.5364e+000 56050 76688,76818,76714
 2.7000e+000 76942 -1.6695e+001 -3.9752e+001 -1.4546e+001 56050 76688,76844,76818
 2.7000e+000 76919  8.9223e+000 -5.7015e+001 -2.0258e+001 56050 76740,76792,76766
 2.7000e+000 76896 -3.1587e+001 -6.7965e+001 -9.0407e+000 56050 76688,76870,76844
 2.7000e+000 77517 -3.4005e+001 -8.0742e+001  3.6617e+000 55738 77220,77350,77324
 2.7000e+000 77494 -3.3606e+001 -1.0212e+002 -1.4517e+001 55738 77220,77376,77350
 2.7000e+000 77471 -9.0746e-001 -6.6843e+001  5.8453e+000 55738 77194,77376,77220
 2.7000e+000 77448 -1.5990e+001 -4.0941e+001 -5.6960e-002 55738 77220,77298,77246
 2.7000e+000 77425 -1.5885e+001 -6.4364e+001 -6.0928e+000 55738 77220,77324,77298
 2.7000e+000 77402 -9.1484e+000 -3.5608e+001  2.3649e+001 55738 77246,77298,77272
 2.7000e+000 78064  3.1239e+001 -1.7690e+002 -5.9641e+000 55227 78231,78087,77773
 2.7000e+000 78041 -3.3517e+001 -3.0991e+002  1.0574e+001 55227 78087,77695,77643
 2.7000e+000 78018 -2.5211e+001 -2.4916e+002 -2.4702e+001 55227 78159,77799,77773
 2.7000e+000 77995 -6.3149e-001 -1.0782e+002  1.0487e+001 55227 78231,77773,77721
 2.7000e+000 77972 -6.5581e+001 -8.7401e+001  6.4696e+001 55227 77643,77695,77669
 2.7000e+000 77949 -4.4668e+001 -1.2151e+002 -3.3805e+000 55227 77643,77877,77851
 2.7000e+000 77926 -6.9834e+001 -2.7388e+002  3.4743e+001 55227 77799,77851,77825
 2.7000e+000 77903  5.2717e+000 -5.3271e+001 -2.4017e+001 55227 77721,77773,77747
 2.7000e+000 78113 -1.5767e-001 -2.4910e+002 -1.2933e+001 55227 78159,77773,78087
 2.7000e+000 78136  2.7776e+001 -1.6661e+002  2.0444e+001 55227 77851,78087,77643
 2.7000e+000 78185 -7.5264e+001 -2.3646e+002 -2.6045e+001 55227 77851,77799,78159
 2.7000e+000 78208 -5.0817e+001 -2.3850e+002 -1.6416e+001 55227 77851,78159,78087
 2.7000e+000 78257  4.8214e+000 -2.6034e+002 -3.5633e+001 55227 77695,78087,78231
 2.7000e+000 78280 -3.3048e+001 -1.8706e+002 -2.6617e+001 55227 77695,78231,77721
 2.7000e+000 78737 -5.6493e+000 -3.2617e+001 -1.7747e+001 54773 78463,78541,78515
 2.7000e+000 78714 -2.7903e+001 -7.2895e+001 -3.0417e+000 54773 78463,78619,78541
 2.7000e+000 78691  2.1897e+000 -7.7790e+000 -1.1040e+000 54773 78463,78515,78489
 2.7000e+000 78668 -3.4546e+001 -2.8894e+001 -1.5091e+001 54773 78541,78593,78567
 2.7000e+000 78645 -8.4868e+000 -4.6360e+001 -2.2223e+001 54773 78541,78619,78593
 2.7000e+000 78838  1.3742e+000 -2.8300e+001 -7.7620e-001 54211 78760,78812,78786
 2.7000e+000 79297  1.4258e+001 -8.4003e+001 -5.8763e+000 53814 79520,79153,79049
 2.7000e+000 79274  1.9861e+001 -8.7790e+001  1.2480e+000 53814 79520,79049,79023
 2.7000e+000 79251 -2.0177e+001 -1.8984e+002  3.5495e+001 53814 79320,79101,79049
 2.7000e+000 79228  1.9002e+001 -9.3414e+001 -5.9703e+000 53814 79320,79049,79153
 2.7000e+000 79205 -3.4476e+001 -1.3691e+002  4.4185e+001 53814 79049,79101,79075
 2.7000e+000 79346  1.3456e+001 -6.6235e+001 -3.7445e+001 53814 79392,79320,79127
 2.7000e+000 79369  5.0865e+001 -7.6463e+001 -5.8362e+001 53814 79127,79320,79153
 2.7000e+000 79418  1.1547e+001 -1.7003e+002 -5.5988e+001 53814 79101,79320,79392
 2.7000e+000 79546  1.6359e+001 -7.8114e+001 -2.1813e+000 53814 79179,79153,79520
 2.7000e+000 79569  2.7626e+001 -7.9147e+001  5.4936e+000 53814 79179,79520,79023
 2.7000e+000 80075 -3.4509e+001 -6.5631e+000  4.1113e+001 53039 80098,79908,79830
 2.7000e+000 80052 -4.1606e+001 -2.5788e+000  1.5933e+001 53039 80098,79830,79804
 2.7000e+000 80029  3.2374e+001 -9.2760e+000  1.6245e+001 53039 79752,79934,79804
 2.7000e+000 80006  3.1843e+001 -8.0141e+000  4.0520e+001 53039 79856,79908,79882
 2.7000e+000 79983  2.2046e+001 -5.8195e+001  4.7938e+001 53039 79830,79908,79856
 2.7000e+000 79960  1.0310e+001  1.7922e+001 -1.8412e+001 53039 79752,79804,79778
 2.7000e+000 80124  5.4424e+000  1.1817e+001  4.5574e+001 53039 79934,79908,80098
 2.7000e+000 80147 -2.3790e+001  5.9762e+000  1.9126e+001 53039 79934,80098,79804
 2.7000e+000 80555 -1.5697e+001 -5.7177e+001  2.2335e+000 52699 80356,80434,80408
 2.7000e+000 80532 -5.0868e+000 -8.4023e+001  5.5179e+000 52699 80356,80460,80434
 2.7000e+000 80509 -1.2156e+001 -9.9490e+001 -5.8665e+000 52699 80330,80460,80356
 2.7000e+000 80486 -5.1533e+001 -9.8168e+001  2.7718e+001 52699 80356,80408,80382
 2.7000e+000 80776 -1.9269e+001 -4.1541e+001  2.4311e+000 52295 80600,80678,80626
 2.7000e+000 80753  1.9929e+000 -4.0227e+001  1.4135e+000 52295 80600,80704,80678
 2.7000e+000 80730  1.6999e+001 -2.5127e+001  7.1806e+000 52295 80626,80678,80652
 2.7000e+000 81156 -4.0084e+001 -1.2936e+002  2.7831e+001 51891 81179,80960,80908
 2.7000e+000 81133 -2.6530e+001 -1.0451e+002  4.4937e+000 51891 81179,80908,81012
 2.7000e+000 81110 -4.6583e+001 -1.2073e+002  1.1669e+001 51891 80882,81012,80908
 2.7000e+000 81087 -1.7561e+000 -1.9041e+002  2.4460e+001 51891 80908,80960,80934
 2.7000e+000 81064 -1.8542e+000 -8.0504e+000  1.3264e+001 51891 80882,81038,81012
 2.7000e+000 81205 -1.1709e+001 -1.2545e+002  1.0615e+001 51891 80986,80960,81179
 2.7000e+000 81228 -1.4631e+001 -1.0327e+002 -1.2038e+001 51891 80986,81179,81012
 2.7000e+000 81606 -9.5769e+000 -2.7601e+002 -8.0863e+001 51544 81410,81462,81436
 2.7000e+000 81583  1.0315e+001 -1.3771e+002 -2.2808e+001 51544 81384,81462,81410
 2.7000e+000 81560 -1.6960e+001 -1.3166e+002 -2.9972e+001 51544 81358,81462,81384
 2.7000e+000 81537  1.2332e+001 -1.2222e+002 -2.5290e+001 51544 81358,81488,81462
 2.7000e+000 81514  4.2952e+001  2.9836e+001 -1.7114e+001 51544 81332,81488,81358
 2.7000e+000 81854 -1.5163e+000 -1.2346e+002  2.0156e+000 51004 81877,81655,81629
 2.7000e+000 81831 -1.2783e+000 -9.9956e+001 -2.8368e+000 51004 81877,81629,81759
 2.7000e+000 81808  3.0727e+000 -7.1903e+001  5.1448e+001 51004 81655,81707,81681
 2.7000e+000 81785 -3.0557e+001 -1.7725e+002  1.4322e+000 51004 81707,81759,81733
 2.7000e+000 81903  1.2343e+000 -1.3464e+002  3.3634e+000 51004 81707,81655,81877
 2.7000e+000 81926 -7.8916e+000 -1.2601e+002 -5.3188e+000 51004 81707,81877,81759
 2.7000e+000 82257 -3.0078e+001 -9.4250e+001 -4.3543e+000 50642 82058,82136,82110
 2.7000e+000 82234 -3.7158e+001 -7.9856e+001 -7.8297e+000 50642 82058,82162,82136
 2.7000e+000 82211 -4.9543e+001 -1.2102e+002  2.3244e+001 50642 82058,82110,82084
 2.7000e+000 82188 -5.0847e+001 -8.5024e+001 -1.6849e+001 50642 82032,82162,82058
 2.7000e+000 82684  2.0870e+001 -1.5769e+002  2.2815e+001 49931 82779,82707,82465
 2.7000e+000 82661 -2.0263e+001 -1.9838e+002  4.0091e+001 49931 82707,82413,82361
 2.7000e+000 82638 -3.8798e+000 -1.4323e+002 -4.1988e+001 49931 82779,82465,82439
 2.7000e+000 82615 -2.6286e+001 -2.7447e+002  3.3161e+001 49931 82465,82543,82491
 2.7000e+000 82592 -1.5018e+001 -1.1628e+002  3.2159e+000 49931 82361,82413,82387
 2.7000e+000 82569 -4.6764e+000 -1.9594e+002  2.1196e+001 49931 82491,82543,82517
 2.7000e+000 82733  1.2136e+001 -1.8478e+002  3.0482e+001 49931 82543,82465,82707
 2.7000e+000 82756 -2.2557e+000 -1.4367e+002  3.3358e+001 49931 82543,82707,82361
 2.7000e+000 82805 -1.9701e+001 -2.4822e+002  9.0067e+000 49931 82413,82707,82779
 2.7000e+000 82828 -3.3795e+001 -2.2141e+002 -5.2238e+001 49931 82413,82779,82439
 2.7000e+000 83255 -6.0758e+001 -2.6647e+002 -1.3880e+001 49327 82984,83114,83036
 2.7000e+000 83232 -6.4298e+001 -2.6834e+002 -5.6259e+001 49327 82958,83114,82984
 2.7000e+000 83209 -5.0539e+001 -3.0965e+002 -4.5801e-001 49327 83036,83114,83088
 2.7000e+000 83186 -8.0655e+001 -2.1674e+002  2.0906e+001 49327 82984,83036,83010
 2.7000e+000 83163 -3.8563e+001 -2.6355e+002 -5.5367e+001 49327 82932,83114,82958
 2.7000e+000 83140 -1.0140e+002 -4.9463e+002 -1.4177e+000 49327 83036,83088,83062
 2.7000e+000 83938 -4.9411e+001 -3.1625e+002  5.2447e+001 48965 83961,83673,83647
 2.7000e+000 83915  1.8696e+001 -1.3333e+002  4.3397e+001 48965 83961,83647,83543
 2.7000e+000 83892 -5.2599e+001 -1.5876e+002 -7.2467e+001 48965 83517,83725,83543
 2.7000e+000 83869 -1.9970e+001 -1.9190e+002 -6.4105e+001 48965 83673,83725,83699
 2.7000e+000 83846 -3.3538e+001 -8.5145e+001 -1.6649e+001 48965 83543,83647,83621
 2.7000e+000 83823 -1.3262e+001 -1.0187e+002 -2.5332e+001 48965 83543,83621,83569
 2.7000e+000 83800 -1.5506e+001 -1.2629e+002 -1.5603e+001 48965 83517,83751,83725
 2.7000e+000 83777  1.0311e+000 -8.0814e+001  1.1636e+001 48965 83569,83621,83595
 2.7000e+000 83987 -1.0199e+001 -2.7501e+002 -6.4900e+001 48965 83725,83673,83961
 2.7000e+000 84010  1.7967e+001 -2.0806e+002 -5.1130e+001 48965 83725,83961,83543
 2.7000e+000 84258 -2.7968e+001 -2.2168e+002  3.2501e+001 48447 84281,84059,84033
 2.7000e+000 84235 -1.3685e+001 -1.8129e+002  7.8880e-001 48447 84281,84033,84163
 2.7000e+000 84212  2.2748e+001 -1.9014e+002 -8.9953e+000 48447 84059,84111,84085
 2.7000e+000 84189  1.8956e+001 -1.6373e+002 -3.3604e+001 48447 84111,84163,84137
 2.7000e+000 84307 -9.7317e-001 -2.1081e+002 -1.8563e-001 48447 84111,84059,84281
 2.7000e+000 84330  2.5672e+001 -1.8272e+002 -3.0662e+001 48447 84111,84281,84163
 2.7000e+000 84529  4.5485e+000 -1.4733e+002 -5.2274e+000 47993 84552,84405,84379
 2.7000e+000 84506 -6.0918e+001 -1.6990e+002 -3.2800e+000 47993 84552,84379,84353
 2.7000e+000 84483  9.6468e+000 -1.5468e+002 -1.1190e+001 47993 84624,84457,84431
 2.7000e+000 84578  9.5967e+000 -1.6071e+002 -1.6026e+001 47993 84431,84405,84552
 2.7000e+000 84601  3.1210e+000 -1.5987e+002 -8.7772e+000 47993 84624,84431,84552
 2.7000e+000 84650  3.9177e+000 -1.4993e+002 -1.5890e+001 47993 84353,84457,84624
 2.7000e+000 84673 -1.5979e+000 -1.5240e+002 -1.3986e+001 47993 84353,84624,84552
 2.7000e+000 85104 -4.9636e+001 -2.1200e+002 -2.8023e+001 47588 85199,85127,84885
 2.7000e+000 85081 -2.9346e+001 -2.2732e+002 -3.2077e+001 47588 85127,84781,84963
 2.7000e+000 85058 -7.7289e+001 -2.0656e+002  3.0013e+000 47588 85199,84885,84807
 2.7000e+000 85035 -2.3860e+001 -1.4758e+002  6.9678e+001 47588 84885,84937,84911
 2.7000e+000 85012 -4.8525e+001 -1.3170e+002 -2.2095e+001 47588 84807,84885,84833
 2.7000e+000 84989 -2.4548e+001 -1.2078e+002 -9.4791e+000 47588 84833,84885,84859
 2.7000e+000 85153 -4.0119e+001 -2.5846e+002 -4.4938e+000 47588 84937,84885,85127
 2.7000e+000 85176  6.1793e+001 -2.3005e+002 -5.9634e+000 47588 84937,85127,84963
 2.7000e+000 85225 -1.0124e+002 -2.3042e+002 -2.5200e+001 47588 84781,85127,85199
 2.7000e+000 85248 -1.1942e+002 -2.2456e+002  1.0063e+001 47588 84781,85199,84807
 2.7000e+000 85518 -4.0961e+001 -2.6980e+002  4.1721e+001 47226 85293,85397,85319
 2.7000e+000 85495 -4.1257e+001 -2.5111e+002  2.3082e+001 47226 85293,85423,85397
 2.7000e+000 85472 -2.4088e+001 -2.8207e+002 -3.6023e+000 47226 85319,85397,85345
 2.7000e+000 85449  1.2649e+001 -1.0534e+002 -5.5905e+000 47226 85345,85397,85371
 2.7000e+000 85849 -7.8071e-001 -1.7316e+002  2.9849e+001 46572 85624,85702,85650
 2.7000e+000 85826 -3.3476e+000 -2.5162e+002 -1.4213e+001 46572 85624,85754,85702
 2.7000e+000 85803  2.6784e+001 -1.5159e+002  1.1355e+001 46572 85702,85754,85728
 2.7000e+000 85780 -1.3015e+001 -1.7557e+002  2.2221e+001 46572 85650,85702,85676
 2.7000e+000 86070 -1.3306e+002 -2.6228e+002 -4.6053e+000 46374 85920,85972,85946
 2.7000e+000 86047 -1.0748e+002 -2.0185e+002  2.9836e-001 46374 85920,85998,85972
 2.7000e+000 86024 -6.8510e+001 -1.8089e+002  2.5025e+001 46374 85894,85998,85920
 2.7000e+000 86401  7.1676e+000 -1.6395e+002 -1.9565e+001 46034 86424,86280,86228
 2.7000e+000 86378 -2.1835e+000 -1.8153e+002 -2.5861e+001 46034 86424,86228,86176
 2.7000e+000 86355 -8.9651e+000 -1.8825e+002 -3.4269e+001 46034 86176,86228,86202
 2.7000e+000 86332  2.9790e+001 -1.5424e+002 -2.5103e+001 46034 86228,86280,86254
 2.7000e+000 86450  3.3555e+001 -1.8584e+002 -2.2637e+001 46034 86306,86280,86424
 2.7000e+000 86473  1.1211e+001 -2.1008e+002 -3.4358e+001 46034 86306,86424,86176
 2.7000e+000 87058  1.6440e+001 -1.3242e+002  2.1098e+000 45516 86813,86917,86865
 2.7000e+000 87035 -8.2747e+000 -1.8875e+002  5.7813e+000 45516 86787,86917,86813
 2.7000e+000 87012 -2.3278e+000 -2.3066e+002  1.3834e+001 45516 86735,86917,86787
 2.7000e+000 86989  6.9097e+000 -1.1958e+002 -3.1442e+000 45516 86865,86917,86891
 2.7000e+000 86966  3.4781e+000 -1.2406e+002  7.7107e-002 45516 86813,86865,86839
 2.7000e+000 86943 -4.0756e+000 -2.7181e+002  9.4506e-002 45516 86735,86787,86761
 2.7000e+000 87208  1.8640e+001 -1.2647e+002  9.7879e-001 45226 87231,87133,87107
 2.7000e+000 87185 -7.7155e+000 -1.4808e+002  1.6065e+001 45226 87081,87159,87133
 2.7000e+000 87257  4.5778e+001 -4.2078e+001 -1.2725e+001 45226 87081,87133,87231
 2.7000e+000 87537  1.3748e+001 -2.3041e+002  7.5022e+001 44772 87387,87439,87413
 2.7000e+000 87514 -6.2047e+001 -2.3323e+002  2.7697e+001 44772 87361,87439,87387
 2.7000e+000 87491 -2.0402e+001 -2.1241e+002  1.4267e+001 44772 87361,87465,87439
 2.7000e+000 87996 -1.5418e+001 -7.0824e+001  4.7346e+000 44425 87748,87878,87852
 2.7000e+000 87973 -3.4024e+000 -6.5456e+001  6.6902e-001 44425 87722,87878,87748
 2.7000e+000 87950  4.1840e+000 -9.8295e+001 -8.5364e+000 44425 87800,87852,87826
 2.7000e+000 87927 -1.5492e+001 -8.8400e+001  9.7569e+000 44425 87748,87852,87800
 2.7000e+000 87904 -1.3610e+001 -1.2516e+002  1.9408e+001 44425 87748,87800,87774
 2.7000e+000 88423 -1.8321e+001 -1.7353e+002 -2.2489e+000 44078 88590,88230,88204
 2.7000e+000 88400 -2.2397e+001 -1.4320e+002  1.0306e+001 44078 88518,88446,88204
 2.7000e+000 88377 -2.8302e+001 -1.8113e+002 -1.6838e+001 44078 88446,88126,88282
 2.7000e+000 88354 -3.9202e+001 -1.2560e+002 -3.2967e-001 44078 88518,88204,88178
 2.7000e+000 88331 -2.4958e+001 -2.0170e+002 -1.3586e+001 44078 88100,88282,88126
 2.7000e+000 88308 -3.5965e+001 -1.2273e+002  5.0857e+001 44078 88126,88178,88152
 2.7000e+000 88472 -2.1268e+001 -1.8144e+002  1.2519e+000 44078 88590,88204,88446
 2.7000e+000 88495 -3.7788e+001 -2.2845e+002 -2.9567e+001 44078 88256,88446,88282
 2.7000e+000 88544 -3.3843e+001 -1.8206e+002  6.0687e+000 44078 88126,88446,88518
 2.7000e+000 88567 -3.8551e+001 -1.4706e+002 -1.3889e+000 44078 88126,88518,88178
 2.7000e+000 88616 -9.6433e+001 -3.1344e+002 -3.7457e+001 44078 88256,88230,88590
 2.7000e+000 88639 -2.2593e+001 -1.7900e+002 -8.7355e+000 44078 88256,88590,88446
 2.7000e+000 89039  5.3926e+000 -7.9543e+001  1.2746e+001 43716 88791,88921,88895
 2.7000e+000 89016 -1.0363e+001 -9.5098e+001  6.4882e+000 43716 88765,88921,88791
 2.7000e+000 88993  1.8317e+001 -8.0104e+001  2.6434e+001 43716 88817,88895,88869
 2.7000e+000 88970 -4.6218e+001 -1.0388e+002  1.9602e+001 43716 88791,88895,88817
 2.7000e+000 88947 -1.0507e+000 -3.9783e+001 -1.8115e+001 43716 88817,88869,88843
 2.7000e+000 89496  2.8993e+001 -1.9353e+002 -4.3559e+001 43162 89519,89274,89248
 2.7000e+000 89473  5.6408e+001 -1.9867e+002 -3.7761e+001 43162 89519,89248,89222
 2.7000e+000 89450 -2.0346e+001 -1.9354e+002 -7.5568e+001 43162 89326,89378,89352
 2.7000e+000 89427 -1.1311e+001 -2.3849e+002 -3.3391e+001 43162 89274,89378,89326
 2.7000e+000 89404 -4.6345e+000 -1.5601e+002 -1.5571e+001 43162 89274,89326,89300
 2.7000e+000 89545  1.1408e+001 -1.8732e+002 -2.9288e+001 43162 89378,89274,89519
 2.7000e+000 89568  3.9976e+001 -1.9204e+002 -2.2558e+001 43162 89378,89519,89222
 2.7000e+000 89946 -2.0163e+001 -1.9962e+002 -4.2316e+001 42594 90041,89969,89750
 2.7000e+000 89923 -1.0099e+001 -1.4898e+002 -1.7329e+001 42594 89969,89698,89828
 2.7000e+000 89900 -7.8835e+000 -2.1267e+002 -3.6691e+001 42594 90041,89750,89724
 2.7000e+000 89877 -3.6444e+001 -1.5251e+002 -4.8691e+001 42594 89750,89802,89776
 2.7000e+000 89854  1.2962e+001 -5.1642e+001 -1.4389e+001 42594 89672,89828,89698
 2.7000e+000 89995 -2.6723e+001 -1.5655e+002 -3.2405e+001 42594 89802,89750,89969
 2.7000e+000 90018 -2.5400e+000 -1.0534e+002  5.2928e+000 42594 89802,89969,89828
 2.7000e+000 90067 -1.3575e+001 -1.5179e+002 -3.7778e+001 42594 89698,89969,90041
 2.7000e+000 90090 -2.6924e+001 -1.9694e+002 -2.5318e+001 42594 89698,90041,89724
 2.7000e+000 90517 -6.3134e+001 -2.7388e+002  3.2086e+000 42140 90540,90220,90194
 2.7000e+000 90494 -2.9386e+001 -2.2999e+002 -1.1486e+001 42140 90540,90194,90376
 2.7000e+000 90471 -5.2248e+001 -2.7350e+002  1.3989e+001 42140 90612,90350,90272
 2.7000e+000 90448 -1.0009e+002 -3.1419e+002 -7.2224e+000 42140 90272,90350,90298
 2.7000e+000 90425 -7.3070e+001 -2.1969e+002  1.3354e+001 42140 90298,90350,90324
 2.7000e+000 90402 -3.5772e+001 -2.9097e+002  7.9983e+001 42140 90220,90272,90246
 2.7000e+000 90566 -4.9440e+001 -2.8766e+002  6.0257e+000 42140 90272,90220,90540
 2.7000e+000 90589 -5.3773e+001 -2.7732e+002  8.6916e+000 42140 90612,90272,90540
 2.7000e+000 90638 -4.6737e+001 -2.7234e+002  1.3797e+001 42140 90376,90350,90612
 2.7000e+000 90661 -3.8836e+001 -2.7131e+002  9.2705e+000 42140 90376,90612,90540
 2.7000e+000 91167 -1.9044e+001 -1.4976e+002 -2.7796e+001 41636 91190,90870,90844
 2.7000e+000 91144 -2.4373e+001 -2.6223e+002 -2.5141e+001 41636 91190,90844,91026
 2.7000e+000 91121 -2.7010e+001 -1.2013e+002 -2.8744e+001 41636 90870,90922,90896
 2.7000e+000 91098 -5.1910e+001 -2.3529e+002  4.3532e+001 41636 90922,91026,90948
 2.7000e+000 91075  1.7399e+001 -1.6157e+002 -7.8340e+000 41636 90948,91026,91000
 2.7000e+000 91052 -1.8833e+001 -2.0512e+002  1.1830e+001 41636 90948,91000,90974
 2.7000e+000 91216 -3.0258e+001 -1.1949e+002 -2.6153e+001 41636 90922,90870,91190
 2.7000e+000 91239  1.8010e+001 -1.5856e+002 -7.6029e+000 41636 90922,91190,91026
 2.7000e+000 91696 -7.6678e+001 -1.9479e+002 -3.6278e+001 40449 91448,91526,91474
 2.7000e+000 91673 -8.9055e+001 -2.1171e+002 -1.0304e+001 40449 91448,91578,91526
 2.7000e+000 91650 -3.4107e+001 -1.6276e+002 -1.6217e+001 40449 91474,91526,91500
 2.7000e+000 91627 -7.4205e+000 -2.2296e+002 -3.2349e+001 40449 91422,91578,91448
 2.7000e+000 91604 -2.3376e+001 -1.3900e+002 -3.8067e+001 40449 91526,91578,91552
 2.7000e+000 92123 -5.9004e+001 -1.7895e+002 -2.0423e+001 39995 92146,91904,91826
 2.7000e+000 92100 -4.2145e+001 -1.7523e+002 -4.2482e+001 39995 92146,91826,91800
 2.7000e+000 92077 -7.8793e+001 -1.8948e+002 -1.5291e+001 39995 91826,91904,91852
 2.7000e+000 92054 -7.5985e+001 -3.2227e+002  1.0969e+001 39995 91904,91982,91930
 2.7000e+000 92031 -3.0019e+001 -1.6591e+002 -6.7301e+000 39995 91852,91904,91878
 2.7000e+000 92008  1.8331e+001 -2.3040e+002 -3.6993e+001 39995 91930,91982,91956
 2.7000e+000 92172 -6.2855e+001 -1.9104e+002 -2.0478e+001 39995 91982,91904,92146
 2.7000e+000 92195 -5.9469e+001 -2.1433e+002 -3.7386e+001 39995 91982,92146,91800
 2.7000e+000 92652  2.0692e+001 -5.9842e+001  3.5526e+001 39633 92404,92534,92456
 2.7000e+000 92629  2.2984e+001 -7.7948e+001  3.4718e+001 39633 92378,92534,92404
 2.7000e+000 92606 -1.6775e+001 -7.8221e+001  1.7031e+001 39633 92404,92456,92430
 2.7000e+000 92583 -4.2052e+001 -2.1207e+002  4.9998e+001 39633 92456,92534,92508
 2.7000e+000 92560 -4.0597e+001 -9.8497e+001  4.4332e+001 39633 92456,92508,92482
 2.7000e+000 93079  3.6421e+001 -1.1237e+002 -3.2802e+001 39093 93102,92808,92756
 2.7000e+000 93056  2.8309e+001 -9.3664e+001 -5.0033e+001 39093 93102,92756,92938
 2.7000e+000 93033 -1.0429e+001 -1.5741e+002 -1.8296e+001 39093 93174,92912,92834
 2.7000e+000 93010 -7.9293e+001 -1.7436e+002 -2.3966e+001 39093 92834,92912,92860
 2.7000e+000 92987  3.4240e+001 -2.0320e+002 -5.7687e+001 39093 92756,92808,92782
 2.7000e+000 92964 -5.8752e+001 -1.6454e+002 -6.5945e+001 39093 92860,92912,92886
 2.7000e+000 93128  2.7232e+001 -9.7347e+001 -3.4302e+001 39093 92834,92808,93102
 2.7000e+000 93151  3.9357e+000 -1.1982e+002 -2.4827e+001 39093 93174,92834,93102
 2.7000e+000 93200 -1.6606e+000 -1.4290e+002 -4.7118e+001 39093 92938,92912,93174
 2.7000e+000 93223  1.2971e+001 -1.2304e+002 -5.5576e+001 39093 92938,93174,93102
 2.7000e+000 93680 -3.1344e+001 -5.9194e+001 -1.3375e+001 38639 93703,93536,93484
 2.7000e+000 93657 -2.9411e+001 -7.3589e+001 -1.2251e+001 38639 93703,93484,93432
 2.7000e+000 93634 -8.0747e+000 -7.3516e+001 -3.2905e+000 38639 93432,93484,93458
 2.7000e+000 93611 -3.2221e+001 -6.9567e+001 -3.5274e+001 38639 93484,93536,93510
 2.7000e+000 93588 -2.5237e+001 -2.7781e+001  5.0382e+000 38639 93406,93562,93432
 2.7000e+000 93729 -3.3246e+001 -3.1481e+001 -9.6681e+000 38639 93562,93536,93703
 2.7000e+000 93752 -4.4815e+001 -6.4174e+001 -2.4767e+000 38639 93562,93703,93432
 2.7000e+000 94160  2.8740e+001 -7.3619e+001 -3.5595e+001 38292 93935,94039,93961
 2.7000e+000 94137  3.4374e+001 -1.0120e+002  2.2829e+001 38292 93935,94065,94039
 2.7000e+000 94114 -5.4911e+001 -7.5928e+001 -2.2251e+001 38292 93961,94013,93987
 2.7000e+000 94091 -3.8396e+001 -6.8314e+001 -1.3880e+001 38292 93961,94039,94013
 2.7000e+000 94408  2.7812e+001 -1.6572e+002 -4.7448e+000 37880 94431,94261,94235
 2.7000e+000 94385  2.3259e+001 -1.2388e+002 -7.6739e+000 37880 94431,94235,94313
 2.7000e+000 94362 -8.5301e+000 -1.3138e+002  3.1239e+001 37880 94209,94313,94235
 2.7000e+000 94339  9.9424e-001 -1.0306e+002  2.0857e+001 37880 94183,94313,94209
 2.7000e+000 94457  4.1250e+001 -1.2828e+002 -1.7882e+001 37880 94287,94261,94431
 2.7000e+000 94480  1.9281e+001 -1.0352e+002 -1.2896e+001 37880 94287,94431,94313
 2.7000e+000 94728 -1.0879e+002 -2.7679e+002  1.1738e+001 37426 94529,94607,94555
 2.7000e+000 94705 -2.9245e+001 -3.0352e+002 -2.7861e+001 37426 94529,94633,94607
 2.7000e+000 94682 -2.1008e+001 -3.2278e+002 -3.6123e+001 37426 94503,94633,94529
 2.7000e+000 94659 -4.1113e+001 -1.1087e+002 -6.7301e+001 37426 94555,94607,94581
 2.7000e+000 95257 -1.4916e+001 -1.5561e+002 -2.0619e+001 36722 95496,95280,94862
 2.7000e+000 95234 -5.5379e+001 -1.7158e+002 -1.1100e+001 36722 95496,94862,94836
 2.7000e+000 95211  4.9376e+000 -1.5338e+002 -1.4447e+001 36722 95352,95280,95070
 2.7000e+000 95188 -1.7546e+001 -1.5853e+002  9.2156e+000 36722 95352,95070,95044
 2.7000e+000 95165 -3.9616e+001 -1.6879e+002 -2.4780e+001 36722 95424,94888,94862
 2.7000e+000 95142 -2.5586e+001 -8.3773e+001  2.7231e+001 36722 94914,94966,94940
 2.7000e+000 95119 -7.8240e+001 -2.5605e+002  5.6354e+001 36722 94966,95044,95018
 2.7000e+000 95096 -5.9442e+001 -1.7718e+002  4.2291e+001 36722 94966,95018,94992
 2.7000e+000 95306 -4.1012e+001 -1.5603e+002 -2.3769e+001 36722 95424,94862,95280
 2.7000e+000 95329 -2.3276e+001 -1.1421e+002 -2.2812e+001 36722 94914,95280,94966
 2.7000e+000 95378 -3.6680e+001 -1.6348e+002 -4.5873e+000 36722 94966,95280,95352
 2.7000e+000 95401 -5.4426e+001 -1.5544e+002  1.2179e+001 36722 94966,95352,95044
 2.7000e+000 95450 -4.3757e+001 -1.6275e+002 -3.1726e+001 36722 94914,94888,95424
 2.7000e+000 95473 -4.5560e+001 -1.6180e+002 -2.9009e+001 36722 94914,95424,95280
 2.7000e+000 95522 -9.0212e+000 -1.5324e+002 -2.3122e+001 36722 95070,95280,95496
 2.7000e+000 95545 -1.2637e+001 -1.4888e+002 -2.0022e+001 36722 95070,95496,94836
 2.7000e+000 96130 -9.8460e+000 -4.7404e+001  1.9725e+001 36268 96153,95911,95859
 2.7000e+000 96107 -2.6232e+001 -1.0163e+002  1.2122e+001 36268 96153,95859,95807
 2.7000e+000 96084 -1.9128e+001 -1.2085e+002 -2.3582e+001 36268 95807,95859,95833
 2.7000e+000 96061 -8.4946e+000 -2.0733e+002  2.9395e+001 36268 95911,95989,95937
 2.7000e+000 96038 -2.5054e+001 -6.0589e+001 -1.3117e+001 36268 95859,95911,95885
 2.7000e+000 96015 -5.8770e+001 -1.3675e+002 -1.9163e+001 36268 95937,95989,95963
 2.7000e+000 96179  2.7289e+001 -9.9027e+001  3.2474e+001 36268 95989,95911,96153
 2.7000e+000 96202 -6.5211e-001 -1.7014e+002  2.1834e+001 36268 95989,96153,95807
 2.7000e+000 96531  4.1739e+000 -2.2253e+002  1.2676e+001 35728 96358,96410,96384
 2.7000e+000 96508 -6.2212e+001 -2.1130e+002  2.3984e+000 35728 96332,96410,96358
 2.7000e+000 96485 -7.2270e+001 -2.0970e+002  1.9588e+001 35728 96332,96436,96410
 2.7000e+000 96462  6.7127e+001 -1.1178e+002 -3.2640e+001 35728 96306,96436,96332
 2.7000e+000 96860 -2.4305e+001 -1.4810e+002 -3.0329e+000 35324 96687,96765,96713
 2.7000e+000 96837 -3.8174e+001 -1.8326e+002 -8.0475e+000 35324 96661,96765,96687
 2.7000e+000 96814 -5.7220e+001 -1.4574e+002 -6.9317e+000 35324 96713,96765,96739
 2.7000e+000 96791  5.7802e+000 -2.6578e+002 -2.4350e+001 35324 96635,96765,96661
 2.7000e+000 97366 -6.1010e+001 -2.2900e+002  2.0103e+001 34920 97389,97069,97043
 2.7000e+000 97343 -5.8958e+001 -2.0713e+002  1.3417e+001 34920 97389,97043,97199
 2.7000e+000 97320 -2.6923e+001 -2.0697e+002 -1.0536e+001 34920 97043,97225,97199
 2.7000e+000 97297 -2.5133e+001 -2.7260e+002 -3.2560e+000 34920 97069,97121,97095
 2.7000e+000 97274 -4.9239e+001 -1.5623e+002 -4.9909e+000 34920 97121,97199,97173
 2.7000e+000 97251 -6.6199e+001 -8.3146e+001 -6.5425e+001 34920 97121,97173,97147
 2.7000e+000 97415 -6.7412e+001 -2.2605e+002 -7.5529e+000 34920 97121,97069,97389
 2.7000e+000 97438 -4.9097e+001 -1.7789e+002 -1.4924e+001 34920 97121,97389,97199
 2.7000e+000 97708 -2.3056e+001 -1.9289e+002 -1.1841e+000 34722 97509,97587,97535
 2.7000e+000 97685 -1.9534e+001 -1.8979e+002 -2.5055e+000 34722 97509,97613,97587
 2.7000e+000 97662 -2.6981e+001 -1.9263e+002 -2.4348e+000 34722 97483,97613,97509
 2.7000e+000 97639 -1.9464e+001 -1.7205e+002  3.5146e+001 34722 97535,97587,97561
 2.7000e+000 98216 -3.3504e+001 -2.6505e+002 -1.9565e+000 34318 97971,98075,97997
 2.7000e+000 98193  9.0148e+000 -2.0566e+002  2.7229e+001 34318 97893,98075,97971
 2.7000e+000 98170  5.2354e+001 -1.7881e+002  6.8809e+000 34318 97893,97971,97919
 2.7000e+000 98147 -4.8182e+001 -1.7529e+002  3.8184e+001 34318 97997,98075,98049
 2.7000e+000 98124  6.1423e+001 -1.4449e+002 -1.0449e+001 34318 97919,97971,97945
 2.7000e+000 98101 -6.9265e+001 -2.1374e+002  6.3192e+001 34318 97997,98049,98023
 2.7000e+000 98594  2.7694e+001 -9.5540e+001 -1.4075e+001 33814 98961,98617,98424
 2.7000e+000 98571 -4.0696e+000 -1.3863e+002 -1.6234e+001 33814 98689,98617,98372
 2.7000e+000 98548 -1.6989e+001 -1.0078e+002 -1.6068e+001 33814 99033,98689,98372
 2.7000e+000 98525 -1.7685e+001 -6.2837e+001  4.1244e+001 33814 98761,98476,98450
 2.7000e+000 98502  4.2681e+001 -1.0824e+002 -1.0380e+001 33814 98961,98424,98398
 2.7000e+000 98643 -1.1771e+000 -8.0582e+001  2.3418e+001 33814 98450,98424,98617
 2.7000e+000 98666  1.1092e+001 -6.4885e+001  2.9905e+001 33814 98761,98450,98617
 2.7000e+000 98715 -4.3740e+001 -1.7101e+002 -1.0390e+001 33814 99161,98689,98320
 2.7000e+000 98738 -6.9662e+001 -1.6859e+002 -5.2294e+000 33814 98320,98689,98346
 2.7000e+000 98787 -4.2566e+001 -1.3090e+002  7.2279e+001 33814 98833,98761,98320
 2.7000e+000 98810 -2.3619e+001 -1.8524e+002  2.4562e+001 33814 99161,98320,98761
 2.7000e+000 98859  2.1097e+000  3.2689e+000  2.9717e+001 33814 98476,98761,98833
 2.7000e+000 98987  1.0076e+001 -1.0628e+002 -8.0707e+000 33814 98372,98617,98961
 2.7000e+000 99010  2.1554e+001 -1.2366e+002 -1.8101e+000 33814 98372,98961,98398
 2.7000e+000 99059 -5.2883e+001 -1.7745e+002 -2.9192e+001 33814 98346,98689,99033
 2.7000e+000 99187 -1.9007e+001 -1.1936e+002 -2.3382e+000 33814 98617,98689,99161
 2.7000e+000 99210  1.2830e+000 -1.3890e+002  3.3991e+001 33814 98617,99161,98761
 2.7000e+000 99588 -2.8496e+001 -1.4125e+002 -1.7444e+001 33566 99366,99444,99392
 2.7000e+000 99565 -6.0448e-001 -9.8292e+001 -3.3992e+000 33566 99314,99444,99366
 2.7000e+000 99542 -4.2009e+001 -1.5559e+002  2.2685e+001 33566 99314,99366,99340
 2.7000e+000 99519 -6.2798e+000 -1.1784e+002  2.0875e+001 33566 99314,99470,99444
 2.7000e+000 99496  7.0100e+000 -8.2574e+001 -3.4005e+001 33566 99392,99444,99418
 2.7000e+000 99787 -1.3492e+001 -2.0188e+002  1.2915e+001 33105 99637,99689,99663
 2.7000e+000 99764 -7.3272e+000 -1.9139e+002 -9.5866e-001 33105 99611,99689,99637
 2.7000e+000 99741  1.3054e+001 -6.7694e+001  8.3631e+000 33105 99611,99715,99689
 2.7000e+000 100167 -2.7458e+001 -1.7031e+002  2.7015e+001 32651 100190,99971,99919
 2.7000e+000 100144 -3.2603e+001 -1.7005e+002  2.8164e+001 32651 100262,100190,99919
 2.7000e+000 100121 -3.0794e+001 -1.7186e+002  3.1038e+001 32651 100262,99919,100049
 2.7000e+000 100098  3.4277e+001 -1.4069e+002 -4.2812e+001 32651 99893,100049,99919
 2.7000e+000 100075 -7.7954e+000 -7.8763e+001  2.6392e+001 32651 99919,99971,99945
 2.7000e+000 100216 -3.2957e+001 -1.7794e+002  1.9877e+001 32651 99997,99971,100190
 2.7000e+000 100239 -2.5499e+001 -1.6067e+002  1.8382e+001 32651 99997,100190,100023
 2.7000e+000 100288 -3.5327e+001 -1.5768e+002  2.9427e+001 32651 100023,100190,100262
 2.7000e+000 100311 -4.4574e+001 -1.6652e+002  3.7807e+001 32651 100023,100262,100049
 2.7000e+000 100608 -7.4606e+001 -2.0396e+002 -6.3596e+000 32254 100386,100490,100464
 2.7000e+000 100585 -6.4214e+001 -2.0583e+002  3.6211e+000 32254 100360,100490,100386
 2.7000e+000 100562 -5.1381e+001 -2.0272e+002 -8.2231e+000 32254 100386,100464,100412
 2.7000e+000 100539  3.9546e+001 -1.6475e+002  1.2612e+000 32254 100334,100490,100360
 2.7000e+000 100516 -5.7873e+001 -1.4367e+002 -2.5103e+001 32254 100412,100464,100438
 2.7000e+000 100758  3.7322e+000 -2.9550e+001  7.1123e+000 31914 100985,100781,100683
 2.7000e+000 100735  1.4508e+001 -3.4409e+001  3.3755e+000 31914 100853,100781,100657
 2.7000e+000 100807 -1.0478e+001 -2.0276e+001  2.1317e+001 31914 100709,100683,100781
 2.7000e+000 100830 -1.6535e+000 -1.9211e+001  1.0953e+001 31914 100709,100781,100631
 2.7000e+000 100879  1.0134e+001  2.2204e+001  3.4640e+000 31914 100631,100781,100853
 2.7000e+000 101011 -1.9120e+001 -5.2441e+001 -4.7604e+000 31914 100657,100781,100985
 2.7000e+000 101191 -1.4001e+000 -9.3976e+001  2.6884e+000 31418 101113,101165,101139
 2.7000e+000 101341 -4.9213e+001 -1.8934e+002 -9.4363e+000 31106 101214,101266,101240
 2.7000e+000 101318 -3.2245e+001 -1.3821e+002 -1.1140e+000 31106 101214,101292,101266
 2.7000e+000 101591 -6.0724e+001 -1.6547e+002  5.8156e+001 30552 101614,101470,101444
 2.7000e+000 101568 -2.2208e+001 -5.9510e+001  6.5135e+001 30552 101366,101496,101470
 2.7000e+000 101545 -6.0130e+001 -2.2934e+002  3.7784e+001 30552 101614,101444,101392
 2.7000e+000 101522 -2.0133e+001 -1.7581e+002  6.0983e+000 30552 101392,101444,101418
 2.7000e+000 101640 -5.3119e+001 -1.2022e+002  9.8294e+001 30552 101366,101470,101614
 2.7000e+000 101663 -5.3739e+001 -1.8159e+002  7.6496e+001 30552 101366,101614,101392
 2.7000e+000 102301  6.6605e+000 -1.9774e+002  1.8223e+001 30042 102396,102324,102059
 2.7000e+000 102278 -5.4574e+001 -1.6390e+002  9.9296e+000 30042 102324,101981,101955
 2.7000e+000 102255  4.6473e+000 -1.7234e+002  4.6224e+001 30042 102396,102059,102033
 2.7000e+000 102232 -2.3791e+001 -1.3280e+002 -3.9281e+000 30042 101929,102111,101955
 2.7000e+000 102209 -1.9415e+001 -1.9981e+002 -3.1342e+001 30042 102059,102111,102085
 2.7000e+000 102186 -3.2184e+001 -1.3580e+002 -5.0850e+000 30042 101929,102137,102111
 2.7000e+000 102163  7.2311e+000 -4.4872e+001 -3.2127e+001 30042 101981,102033,102007
 2.7000e+000 102350 -4.2171e+001 -2.0174e+002 -2.1131e+001 30042 102111,102059,102324
 2.7000e+000 102373 -4.8275e+000 -1.3526e+002 -5.7180e+000 30042 102111,102324,101955
 2.7000e+000 102422 -3.9657e+000 -1.2062e+002  2.9193e+001 30042 101981,102324,102396
 2.7000e+000 102445 -2.6717e+000 -9.3772e+001  5.8507e+001 30042 101981,102396,102033
 2.7000e+000 103000 -7.7233e+000 -2.1169e+002  1.2299e+000 29730 103023,102706,102654
 2.7000e+000 102977 -5.0467e+001 -2.0047e+002 -2.3200e+001 29730 103023,102654,102810
 2.7000e+000 102954 -1.3078e+002 -3.6139e+002 -1.3006e+001 29730 102732,102810,102784
 2.7000e+000 102931 -9.3143e+001 -2.3614e+002 -3.8518e+001 29730 102628,102810,102654
 2.7000e+000 102908 -1.8883e+001 -1.7171e+002  1.8896e+001 29730 102654,102706,102680
 2.7000e+000 102885 -9.0246e+001 -2.0046e+002 -7.0840e+001 29730 102732,102784,102758
 2.7000e+000 102862 -6.7457e+001 -2.1474e+002 -7.3384e+001 29730 102628,102836,102810
 2.7000e+000 103049 -3.6773e+001 -2.4987e+002 -1.4735e+001 29730 102732,102706,103023
 2.7000e+000 103072 -6.1942e+001 -2.1370e+002 -3.3938e+001 29730 102732,103023,102810
 2.7000e+000 103222  1.9676e+001 -1.7192e+002 -2.2876e+001 29226 103095,103147,103121
 2.7000e+000 103199  9.4964e+000 -1.8576e+002 -1.7137e+001 29226 103095,103173,103147
 2.7000e+000 103730 -4.4987e+000 -1.4080e+002  1.5041e+000 28822 103537,103589,103563
 2.7000e+000 103707 -1.9730e+001 -1.8820e+002  5.2858e+000 28822 103433,103589,103537
 2.7000e+000 103684 -5.3745e+001 -1.7863e+002 -3.4825e+001 28822 103433,103537,103459
 2.7000e+000 103661 -3.3922e+001 -1.9684e+002 -3.1772e-001 28822 103407,103589,103433
 2.7000e+000 103638 -4.4414e+001 -8.5352e+001  1.0621e+001 28822 103459,103511,103485
 2.7000e+000 103615 -3.2731e+001 -8.8057e+001  1.1967e+001 28822 103459,103537,103511
 2.7000e+000 103880  3.4741e+001 -1.5042e+002  1.8318e+001 28368 103975,103903,103779
 2.7000e+000 103857  3.9695e+001 -1.6861e+002 -6.5191e+000 28368 103903,103753,103831
 2.7000e+000 103929  3.0090e+001 -1.5091e+002  1.5725e+001 28368 103805,103779,103903
 2.7000e+000 103952  5.6624e+001 -1.7653e+002  2.4588e+000 28368 104105,103903,103831
 2.7000e+000 104001  1.6776e+001 -1.6828e+002 -2.9884e-001 28368 103753,103903,103975
 2.7000e+000 104131  1.0676e+001 -1.8117e+002  2.6394e+001 28368 103805,103903,104105
 2.7000e+000 104539 -6.9708e+000 -8.0091e+001  5.8070e+000 28028 104562,104340,104314
 2.7000e+000 104516 -2.0541e+001 -6.4773e+001  1.8659e+001 28028 104634,104562,104314
 2.7000e+000 104493 -3.3708e+001 -8.7905e+001 -1.9574e+001 28028 104762,104366,104340
 2.7000e+000 104470 -2.4137e+001 -8.3266e+001 -3.5879e+001 28028 104366,104418,104392
 2.7000e+000 104588 -2.9967e+001 -9.8231e+001 -9.0311e+000 28028 104762,104340,104562
 2.7000e+000 104611 -2.6782e+001 -5.1772e+001 -4.9358e+000 28028 104418,104562,104444
 2.7000e+000 104660 -4.7882e+001 -5.8793e+001  1.0228e+001 28028 104444,104562,104634
 2.7000e+000 104788 -3.4468e+001 -7.3361e+001 -1.6948e+001 28028 104418,104366,104762
 2.7000e+000 104811 -2.7082e+001 -7.8595e+001 -5.9297e+000 28028 104418,104762,104562
 2.7000e+000 105010 -2.4026e+001 -1.2754e+002 -1.5407e+001 27324 105033,104886,104860
 2.7000e+000 104987  4.3156e+001 -8.6206e+001  2.0623e+001 27324 105033,104860,104834
 2.7000e+000 104964  1.9217e+001 -7.2548e+001  2.2316e+001 27324 105105,104912,104886
 2.7000e+000 105059  1.4215e+001 -7.5761e+001  2.0587e+001 27324 105105,104886,105033
 2.7000e+000 105082  2.3708e+001 -6.7852e+001  4.4578e+001 27324 104938,105033,104834
 2.7000e+000 105131  3.5651e+001 -7.5501e+001  3.1266e+001 27324 104938,104912,105105
 2.7000e+000 105154  2.5097e+001 -8.6881e+001  2.6832e+001 27324 104938,105105,105033
 2.7000e+000 105402 -7.4375e+001 -1.3664e+002 -6.1106e+000 27012 105229,105281,105255
 2.7000e+000 105379 -4.6641e+001 -1.0663e+002 -1.8186e+001 27012 105229,105307,105281
 2.7000e+000 105356 -2.2489e+001 -1.0058e+002 -1.5377e+001 27012 105177,105307,105229
 2.7000e+000 105333 -5.7039e+001 -9.3676e+001 -5.7966e+001 27012 105177,105229,105203
 2.7000e+000 105603  2.2046e+001 -1.5158e+001  2.4743e+001 26508 105626,105453,105427
 2.7000e+000 105580  1.7265e+001 -2.6101e+001  2.1054e+001 26508 105626,105427,105505
 2.7000e+000 105557  1.7554e+000 -1.1398e+001  9.8940e+000 26508 105427,105531,105505
 2.7000e+000 105652  2.2876e+001 -1.5033e+001  3.0227e+001 26508 105479,105453,105626
 2.7000e+000 105675  2.1509e+001 -1.9583e+001  2.6799e+001 26508 105479,105626,105505
 2.7000e+000 106057 -2.8684e+001 -1.4859e+002  7.4246e+001 25947 106080,105887,105861
 2.7000e+000 106034 -1.3411e+001 -1.2257e+002  5.8042e+001 25947 106080,105861,105783
 2.7000e+000 106011 -3.6375e+000 -8.0652e+001  4.7436e+001 25947 105783,105835,105809
 2.7000e+000 105988 -4.1018e+001 -1.0125e+002  6.2034e+001 25947 105783,105861,105835
 2.7000e+000 105965  3.4798e+000 -9.2020e+001  3.1877e+001 25947 105887,105939,105913
 2.7000e+000 106106 -2.5190e+001 -1.3781e+002  5.1165e+001 25947 105939,105887,106080
 2.7000e+000 106129  7.5501e+000 -9.0593e+001  3.1650e+001 25947 105939,106080,105783
 2.7000e+000 106714 -5.4343e+001 -1.0705e+002  8.7641e+000 25557 106809,106737,106547
 2.7000e+000 106691 -5.5344e+001 -1.4585e+002  1.9765e+001 25557 106737,106417,106391
 2.7000e+000 106668 -4.2219e+001 -9.3868e+001  2.9674e+000 25557 106809,106547,106495
 2.7000e+000 106645 -7.3801e+001 -2.2756e+002  4.3196e+001 25557 106417,106495,106469
 2.7000e+000 106622 -6.8315e+001 -9.7501e+001  1.1504e+001 25557 106495,106547,106521
 2.7000e+000 106599 -8.8266e+001 -1.8232e+002  4.1541e+001 25557 106417,106469,106443
 2.7000e+000 106763 -8.7792e+001 -1.4001e+002  2.7800e+001 25557 106573,106547,106737
 2.7000e+000 106786 -4.4671e+001 -1.2067e+002  1.9794e+001 25557 106573,106737,106391
 2.7000e+000 106835 -3.7390e+001 -1.3379e+002  1.3827e+001 25557 106417,106737,106809
 2.7000e+000 106858 -2.6429e+001 -1.1718e+002  8.9950e+000 25557 106417,106809,106495
 2.7000e+000 107364 -2.1614e+001 -9.6903e+001 -2.4638e+001 25153 107459,107387,107171
 2.7000e+000 107341 -7.5862e+000 -9.0825e+001 -1.3886e+001 25153 107387,107119,107067
 2.7000e+000 107318 -1.7356e+001 -6.8715e+001  2.7155e+000 25153 107459,107171,107145
 2.7000e+000 107295 -2.7587e+001 -1.0775e+002 -3.7716e+001 25153 107531,107223,107197
 2.7000e+000 107272 -2.0871e+001 -9.5194e+001  1.7657e+001 25153 107067,107119,107093
 2.7000e+000 107249 -2.1469e+001 -9.1613e+001 -2.0051e+001 25153 107041,107223,107067
 2.7000e+000 107413 -6.0590e+001 -1.1039e+002 -2.4834e+001 25153 107197,107171,107387
 2.7000e+000 107436 -1.6757e+001 -1.0938e+002 -2.8637e+001 25153 107531,107197,107387
 2.7000e+000 107485 -4.0002e+000 -4.9272e+001 -5.0868e+000 25153 107119,107387,107459
 2.7000e+000 107508  1.2444e+001 -2.1936e+001  2.6095e+001 25153 107119,107459,107145
 2.7000e+000 107557 -3.1560e+001 -9.7631e+001 -2.3866e+001 25153 107067,107223,107531
 2.7000e+000 107580 -1.5615e+001 -9.0447e+001 -1.4048e+001 25153 107067,107531,107387
 2.7000e+000 107958 -2.7550e+001 -1.4647e+002 -1.4762e+001 24741 107736,107814,107788
 2.7000e+000 107935 -5.3901e+001 -1.7818e+002 -3.8766e+001 24741 107736,107840,107814
 2.7000e+000 107912 -7.4302e+001 -1.8476e+002 -4.9624e+001 24741 107684,107840,107736
 2.7000e+000 107889 -4.5812e+001 -1.2133e+002 -2.2825e+001 24741 107736,107788,107762
 2.7000e+000 107866 -7.9534e+001 -2.3215e+002 -7.3490e+001 24741 107684,107736,107710
 2.7000e+000 108157 -2.2702e+001 -6.2513e+001  1.5619e+001 24237 108180,108059,108007
 2.7000e+000 108134 -7.4627e+000 -4.1039e+001  3.0973e+001 24237 108180,108007,107981
 2.7000e+000 108111  1.5107e+001 -8.9863e+001  1.5011e+001 24237 108007,108059,108033
 2.7000e+000 108206 -1.1884e+001 -4.4612e+001  3.1595e+001 24237 108085,108059,108180
 2.7000e+000 108229  2.5753e+000 -2.3492e+001  4.6808e+001 24237 108085,108180,107981
 2.7000e+000 108658 -3.5135e+001 -1.4779e+002  7.5865e+000 23776 108361,108413,108387
 2.7000e+000 108635 -3.8654e+001 -1.8526e+002 -2.6875e+001 23776 108753,108681,108361
 2.7000e+000 108612 -1.6141e+001 -1.2434e+002 -2.7930e+001 23776 108681,108465,108439
 2.7000e+000 108589 -4.0440e+000 -1.9821e+002 -5.3240e+000 23776 108753,108361,108335
 2.7000e+000 108566 -2.3327e+001 -1.7054e+002  7.5686e+001 23776 108335,108517,108465
 2.7000e+000 108543 -1.7478e+001 -2.1470e+002  8.4084e+001 23776 108465,108517,108491
 2.7000e+000 108707 -5.2585e+001 -1.3427e+002 -2.1912e+001 23776 108413,108361,108681
 2.7000e+000 108730 -3.1091e+001 -1.1581e+002 -1.3225e+001 23776 108413,108681,108439
 2.7000e+000 108779 -5.6352e+000 -1.2115e+002 -1.4500e+001 23776 108465,108681,108753
 2.7000e+000 108802  4.6490e+000 -1.7383e+002 -2.4419e+000 23776 108465,108753,108335
 2.7000e+000 109023  5.3514e+001 -4.1845e+001  2.4321e+001 23414 108873,108925,108899
 2.7000e+000 109000  4.6677e+000 -5.9976e+001  2.2674e+001 23414 108847,108925,108873
 2.7000e+000 108977  4.4929e+001  2.1992e+001  5.9345e+000 23414 108847,108951,108925
 2.7000e+000 109474 -2.7900e+001 -1.1524e+002  9.9967e+000 23024 109151,109307,109177
 2.7000e+000 109451 -1.8850e+001 -9.3968e+001  5.1399e+000 23024 109151,109333,109307
 2.7000e+000 109428 -2.7672e+001 -2.3491e+002 -9.0517e+000 23024 109177,109281,109203
 2.7000e+000 109405 -9.0207e+001 -2.0080e+002 -3.4244e+001 23024 109177,109307,109281
 2.7000e+000 109382 -1.2862e+001 -1.7170e+002  2.8621e+001 23024 109203,109281,109229
 2.7000e+000 109359 -4.4624e+001 -1.5635e+002  7.4276e+000 23024 109229,109281,109255
 2.7000e+000 109820 -1.8669e+001 -1.3393e+002  2.0307e+001 22506 109843,109601,109523
 2.7000e+000 109797  2.2185e+000 -1.2054e+002  1.4396e+001 22506 109843,109523,109497
 2.7000e+000 109774  6.6193e+000 -1.4214e+002  1.4968e+001 22506 109915,109653,109627
 2.7000e+000 109751 -7.3567e+000 -1.0465e+002  2.3498e+001 22506 109497,109679,109653
 2.7000e+000 109728 -3.4420e+001 -1.7493e+002 -2.9539e+001 22506 109523,109601,109575
 2.7000e+000 109705 -8.6478e+001 -2.3204e+002 -5.2472e+001 22506 109523,109575,109549
 2.7000e+000 109869  6.7181e+000 -1.2541e+002  2.4334e+001 22506 109627,109601,109843
 2.7000e+000 109892  1.1589e+001 -1.3450e+002  1.9796e+001 22506 109915,109627,109843
 2.7000e+000 109941 -1.6821e-001 -1.3689e+002  1.0424e+001 22506 109497,109653,109915
 2.7000e+000 109964  4.0102e-001 -1.3687e+002  1.3985e+001 22506 109497,109915,109843
 2.7000e+000 110163 -2.6671e+001 -1.1728e+002  6.1403e+000 21936 110186,110039,110013
 2.7000e+000 110140 -1.9121e+001 -9.8456e+001  1.6614e+001 21936 110390,110186,110013
 2.7000e+000 110117 -1.0056e+001 -1.1008e+002  2.6067e+001 21936 110390,110013,109987
 2.7000e+000 110212 -7.7948e+000 -8.4262e+001 -2.2221e+001 21936 110065,110039,110186
 2.7000e+000 110235 -2.1888e+001 -7.5675e+001  7.2291e+000 21936 110258,110186,110091
 2.7000e+000 110284 -8.0910e+001 -1.1839e+002 -1.1799e+001 21936 110065,110186,110258
 2.7000e+000 110416 -3.9221e+001 -1.0713e+002  2.0522e+001 21936 110091,110186,110390
 2.7000e+000 110439 -2.5487e+001 -1.1574e+002  2.8818e+001 21936 110091,110390,109987
 2.7000e+000 110709 -8.7804e+000 -1.4526e+002  3.6893e+000 21338 110510,110614,110588
 2.7000e+000 110686 -4.1255e+001 -1.9931e+002 -1.2449e+001 21338 110484,110614,110510
 2.7000e+000 110663 -3.6701e+000 -6.3324e+001 -3.5931e-001 21338 110510,110562,110536
 2.7000e+000 110640 -3.9854e+001 -1.4930e+002 -4.9140e+000 21338 110510,110588,110562
 2.7000e+000 111296  1.4554e+001 -1.0244e+002  9.2746e+000 20934 111025,111155,111103
 2.7000e+000 111273 -1.7191e+001 -2.8499e+002  4.1703e+000 20934 110999,111155,111025
 2.7000e+000 111250 -1.2073e+000 -1.0454e+002 -8.7210e+000 20934 111103,111155,111129
 2.7000e+000 111227 -3.6330e+001 -1.9794e+002 -3.2897e+001 20934 111051,111103,111077
 2.7000e+000 111204 -5.2750e+001 -2.0479e+002 -2.0246e+001 20934 111025,111103,111051
 2.7000e+000 111181 -4.5117e+001 -3.4584e+002 -7.7194e+000 20934 110973,111155,110999
 2.7000e+000 111930 -7.1378e+001 -1.1151e+002 -3.0027e+001 20494 111662,111714,111688
 2.7000e+000 111907 -2.9073e+001 -9.6860e+001 -2.1209e+001 20494 111584,111714,111662
 2.7000e+000 111884 -2.5620e+001 -9.4603e+001 -2.2185e+001 20494 111584,111766,111714
 2.7000e+000 111861  3.5050e-001 -1.9428e+002  1.5364e+001 20494 111584,111636,111610
 2.7000e+000 111838 -4.4272e+001 -1.3453e+002 -1.6990e+001 20494 111584,111662,111636
 2.7000e+000 111815 -4.6831e+000 -6.2998e+001  1.2707e+001 20494 111558,111766,111584
 2.7000e+000 111792 -4.1818e+001 -1.1135e+002  1.3209e+001 20494 111714,111766,111740
 2.7000e+000 112249 -4.9999e+001 -2.8212e+002  2.2124e+001 19940 111975,112053,112001
 2.7000e+000 112226  1.0679e+000 -1.8459e+002  2.0135e+000 19940 111975,112131,112053
 2.7000e+000 112203  3.5807e+001 -2.4952e+002  0.0000e+000 19940 112053,112105,112079
 2.7000e+000 112180 -3.5467e+001 -2.6619e+002 -5.3456e+000 19940 112053,112131,112105
 2.7000e+000 112157 -3.3198e+000 -2.4041e+002 -5.0855e+000 19940 112001,112053,112027
 2.7000e+000 112757  2.8613e+001 -1.3534e+002 -4.0072e+001 19486 112780,112538,112486
 2.7000e+000 112734  2.2581e+001 -1.4465e+002 -1.4022e+001 19486 112780,112486,112460
 2.7000e+000 112711 -1.3334e+001 -1.2596e+002 -1.5815e+001 19486 112852,112616,112590
 2.7000e+000 112688  1.3027e+002 -1.9432e+002 -5.3049e+001 19486 112486,112538,112512
 2.7000e+000 112665 -4.6631e+001 -1.7356e+002  7.4685e+000 19486 112434,112616,112460
 2.7000e+000 112642 -8.2716e+000 -1.1739e+002 -2.8258e+001 19486 112538,112590,112564
 2.7000e+000 112806  8.2486e+000 -1.4610e+002 -3.4261e+001 19486 112590,112538,112780
 2.7000e+000 112829  2.6266e+001 -1.3435e+002 -2.3256e+001 19486 112852,112590,112780
 2.7000e+000 112878 -3.9858e+001 -1.3476e+002 -4.9698e+000 19486 112460,112616,112852
 2.7000e+000 112901 -1.6590e+001 -1.5811e+002 -8.6254e+000 19486 112460,112852,112780
 2.7000e+000 113252 -1.1556e+002 -2.2397e+002 -6.0664e+000 19096 113105,113157,113131
 2.7000e+000 113229 -9.9256e+001 -1.6374e+002 -1.3569e+000 19096 113053,113157,113105
 2.7000e+000 113206 -8.2820e+001 -1.5239e+002  4.3824e+000 19096 113027,113157,113053
 2.7000e+000 113183 -1.4513e+002 -2.5539e+002  1.4406e+001 19096 113053,113105,113079
 2.7000e+000 113451 -3.0525e+001 -1.6060e+002 -9.1433e+000 18642 113327,113379,113353
 2.7000e+000 113428 -5.6471e+001 -2.1720e+002 -1.5605e+001 18642 113301,113379,113327
 2.7000e+000 113405 -3.4893e+000 -1.9092e+002 -3.4423e+000 18642 113275,113379,113301
 2.7000e+000 113699 -1.4706e+000 -1.9106e+002 -1.3217e+000 18138 113474,113552,113526
 2.7000e+000 113676  3.4732e+001 -1.9650e+002 -1.9580e+001 18138 113474,113578,113552
 2.7000e+000 113653  2.6663e+001 -1.8648e+002 -1.7113e+001 18138 113474,113604,113578
 2.7000e+000 113630  3.8932e+001 -1.7079e+002  2.0736e+001 18138 113474,113526,113500
 2.7000e+000 113851 -1.9894e+001 -2.2580e+002 -1.3606e+000 17682 113750,113802,113776
 2.7000e+000 113828 -1.1394e+000 -2.1226e+002  4.5461e+000 17682 113724,113802,113750
 2.7000e+000 114383  5.9448e+000 -1.5717e+002 -1.3322e+001 17106 114086,114242,114164
 2.7000e+000 114360 -6.6988e+001 -1.8661e+002  5.3715e+000 17106 114060,114242,114086
 2.7000e+000 114337 -7.7512e+001 -3.0210e+002  2.9165e+001 17106 114086,114164,114138
 2.7000e+000 114314 -7.9317e+001 -4.4332e+002 -1.2265e+001 17106 114190,114242,114216
 2.7000e+000 114291 -5.3911e+001 -3.2283e+002 -2.8370e+001 17106 114164,114242,114190
 2.7000e+000 114268 -3.1796e+001 -2.8265e+002  6.3718e+001 17106 114086,114138,114112
 2.7000e+000 114680 -6.9995e+001 -1.9754e+002 -2.3152e+000 16766 114703,114432,114406
 2.7000e+000 114657 -7.3806e+001 -2.0300e+002 -4.1003e+000 16766 114703,114406,114510
 2.7000e+000 114634 -6.2808e+001 -1.5304e+002  5.8171e-001 16766 114406,114536,114510
 2.7000e+000 114611 -5.8694e+001 -2.1622e+002 -1.0508e+001 16766 114432,114484,114458
 2.7000e+000 114588 -7.0912e+001 -1.7495e+002  4.7308e+001 16766 114406,114562,114536
 2.7000e+000 114729 -5.6560e+001 -2.0112e+002  4.3485e+000 16766 114484,114432,114703
 2.7000e+000 114752 -6.6521e+001 -2.1224e+002  1.1239e-001 16766 114484,114703,114510
 2.7000e+000 114902  1.4329e+001 -2.8458e+002 -3.4862e+001 16362 114775,114827,114801
 2.7000e+000 114879  4.0448e+001 -2.6128e+002 -4.4650e+001 16362 114775,114853,114827
 2.7000e+000 115054 -3.1034e+002 -4.9632e+002 -1.1963e+001 15908 114953,115005,114979
 2.7000e+000 115031 -2.9276e+002 -5.1025e+002 -6.5246e+000 15908 114927,115005,114953
 2.7000e+000 115326 -2.1400e+001 -1.6306e+002  4.1410e+001 15251 115101,115179,115153
 2.7000e+000 115303 -9.0609e+000 -1.4511e+002 -6.5494e+000 15251 115101,115231,115179
 2.7000e+000 115280 -1.4613e+001 -1.5778e+002 -5.3523e+000 15251 115179,115231,115205
 2.7000e+000 115257 -1.0329e+002 -4.7722e+002  4.2635e+001 15251 115101,115153,115127
 2.7000e+000 115429 -5.7342e+001 -2.2816e+002  4.0849e+001 421 115351,115403,115377
 2.8000e+000 66230 -4.1611e+001  3.4375e+001  1.2616e+001 65954 66152,66204,66178
 2.8000e+000 66429  2.6776e+000 -1.9431e+001 -1.8847e-001 65642 66279,66331,66305
 2.8000e+000 66406 -3.6695e-001 -1.4430e+001  6.3753e+000 65642 66279,66357,66331
 2.8000e+000 66383  9.8580e+000  3.2540e+001 -8.2022e+000 65642 66253,66357,66279
 2.8000e+000 66628 -3.8689e+000 -7.7788e+001  1.8091e+001 65444 66452,66530,66478
 2.8000e+000 66605  1.2287e+001 -1.1401e+002  4.9522e+000 65444 66452,66556,66530
 2.8000e+000 66582 -1.2535e+001 -1.0369e+002  2.4037e+001 65444 66478,66530,66504
 2.8000e+000 67006 -3.5872e+000 -6.6685e+001 -1.7581e-001 65246 66732,66810,66758
 2.8000e+000 66983 -7.0210e+000 -3.7276e+001  6.2432e+000 65246 66732,66836,66810
 2.8000e+000 66960 -9.2498e+000 -4.5425e+001  7.9491e+000 65246 66732,66862,66836
 2.8000e+000 66937 -6.3933e-001 -5.7150e+001 -4.3969e-001 65246 66758,66810,66784
 2.8000e+000 66914  1.0809e+001 -1.1697e+002 -3.3325e+001 65246 66732,66888,66862
 2.8000e+000 67107  4.2147e+001 -4.9957e+001 -1.4067e+001 64934 67029,67081,67055
 2.8000e+000 67306 -1.2143e+001 -3.9600e+001  1.6121e+001 64736 67156,67208,67182
 2.8000e+000 67283 -8.7315e-001 -2.9996e+001  1.2008e+001 64736 67130,67208,67156
 2.8000e+000 67260  2.4305e+000 -9.2041e+001  1.7062e+001 64736 67130,67234,67208
 2.8000e+000 67507 -5.4979e+000 -7.4524e+001 -1.2950e+001 64389 67357,67409,67383
 2.8000e+000 67484 -1.0472e+001 -8.1434e+001 -1.5198e+001 64389 67357,67435,67409
 2.8000e+000 67461  6.0659e+000 -1.0587e+002 -9.4112e+000 64389 67331,67435,67357
 2.8000e+000 67708  4.0391e+001 -8.8564e+001  1.8913e+001 63985 67731,67584,67558
 2.8000e+000 67685  1.2777e+001 -2.0325e+001  7.4887e+000 63985 67731,67558,67636
 2.8000e+000 67662 -5.5128e+000 -2.7067e+001  7.2193e+000 63985 67532,67636,67558
 2.8000e+000 67757  2.7274e+001 -1.2244e+002  1.3446e+001 63985 67610,67584,67731
 2.8000e+000 67780 -1.2846e+001 -7.3617e+001 -1.7638e+000 63985 67610,67731,67636
 2.8000e+000 67981  3.6215e+000 -6.1149e+000  3.4780e+000 63787 67857,67909,67883
 2.8000e+000 67958 -4.0540e+000 -1.0825e+001  5.5200e+000 63787 67831,67909,67857
 2.8000e+000 67935 -1.8049e+001 -6.4430e+000 -4.9118e+000 63787 67805,67909,67831
 2.8000e+000 68231 -3.1085e+000 -1.0655e+002  1.4621e+001 63589 68254,68084,68032
 2.8000e+000 68208 -3.6001e+000 -5.4515e+001  1.4428e+001 63589 68254,68032,68006
 2.8000e+000 68185 -9.4925e-001 -4.5571e+001  9.9536e+000 63589 68326,68136,68110
 2.8000e+000 68162 -2.2034e-001 -9.6426e+001 -1.1627e+001 63589 68032,68084,68058
 2.8000e+000 68280  8.4937e-001 -6.2224e+001  1.5581e+001 63589 68110,68084,68254
 2.8000e+000 68303 -6.6409e+000 -4.7685e+001  2.2226e+001 63589 68326,68110,68254
 2.8000e+000 68352  1.5397e+001 -1.7124e+001 -8.1356e+000 63589 68006,68136,68326
 2.8000e+000 68375  2.4819e+000 -2.8016e+001  5.1102e+000 63589 68006,68326,68254
 2.8000e+000 68836 -1.8877e+000 -3.7764e+000  3.7095e+000 63128 68859,68588,68562
 2.8000e+000 68813 -1.0277e+001 -2.7072e+001  2.6187e+001 63128 68859,68562,68692
 2.8000e+000 68790  1.8265e+001 -4.0985e+001  4.3425e+000 63128 68614,68692,68666
 2.8000e+000 68767 -2.4748e+001 -3.3174e+001  2.2608e+001 63128 68562,68718,68692
 2.8000e+000 68744  1.9846e+001 -4.4717e+001 -4.4385e+001 63128 68614,68666,68640
 2.8000e+000 68885  1.2203e+001  2.9146e+001 -1.1814e+001 63128 68614,68588,68859
 2.8000e+000 68908  2.2308e+000 -9.5030e-001  1.0200e+001 63128 68614,68859,68692
 2.8000e+000 69237  3.1135e+000 -5.5986e+001  6.1649e+000 62731 69064,69116,69090
 2.8000e+000 69214 -6.7155e+000 -8.1429e+001 -4.3696e-001 62731 69064,69142,69116
 2.8000e+000 69191 -1.4858e+001 -9.7595e+001  2.4426e+000 62731 69038,69142,69064
 2.8000e+000 69168 -1.5670e+000 -1.2211e+002  4.9946e+000 62731 69012,69142,69038
 2.8000e+000 69539  3.0772e-001  1.9821e+001 -5.5103e+000 62433 69389,69467,69441
 2.8000e+000 69516  8.3032e+000 -1.6510e+001  5.2620e-001 62433 69363,69467,69389
 2.8000e+000 69493  1.5036e+000 -2.1422e+001  1.9375e+001 62433 69389,69441,69415
 2.8000e+000 69966  2.6715e+000 -5.4991e+001  1.4198e+001 62235 69989,69773,69721
 2.8000e+000 69943  7.9471e+000 -9.2791e+001 -2.3382e+001 62235 70061,69989,69721
 2.8000e+000 69920  1.9033e+001 -1.0605e+002 -1.5748e+001 62235 70061,69721,69643
 2.8000e+000 69897  1.5438e+000  1.4327e+000  1.0292e+000 62235 69721,69773,69747
 2.8000e+000 69874 -6.2822e+001 -3.0306e+002 -8.0408e+000 62235 69643,69721,69695
 2.8000e+000 69851  9.8713e+001  2.5689e+002 -3.6778e+001 62235 69643,69695,69669
 2.8000e+000 70015 -5.6347e+000 -9.6471e+001 -2.4792e+000 62235 69799,69773,69989
 2.8000e+000 70038 -4.0362e+001 -1.2327e+002 -4.7429e+001 62235 69799,69989,69825
 2.8000e+000 70087 -1.6923e+001 -1.0074e+002 -1.6808e+001 62235 69825,69989,70061
 2.8000e+000 70110  4.4612e+000 -1.0567e+002 -1.3882e+001 62235 69825,70061,69643
 2.8000e+000 70260  2.2395e+001 -3.1645e+001  4.5480e+000 62037 70133,70185,70159
 2.8000e+000 70237 -2.4703e+000 -5.0451e+001 -9.3012e+000 62037 70133,70211,70185
 2.8000e+000 70640  1.5911e+000 -6.3058e+001  2.3653e+001 61583 70735,70663,70418
 2.8000e+000 70617 -4.4371e+001 -7.5756e+001  1.1763e+001 61583 70663,70366,70522
 2.8000e+000 70594  1.3417e+001 -5.4368e+001  3.8638e+001 61583 70735,70418,70392
 2.8000e+000 70571 -1.1497e+001 -9.9460e+001  1.6018e+001 61583 70418,70496,70444
 2.8000e+000 70548 -4.2063e+001 -5.0165e+001  1.4113e+001 61583 70444,70496,70470
 2.8000e+000 70689 -3.5562e+001 -1.0896e+002  7.6071e+000 61583 70496,70418,70663
 2.8000e+000 70712 -5.2035e+001 -6.6929e+001  1.0335e+001 61583 70496,70663,70522
 2.8000e+000 70761 -3.8971e+001 -7.3527e+001 -1.3046e-001 61583 70366,70663,70735
 2.8000e+000 70784 -1.4452e+001 -5.9309e+001  1.4877e+001 61583 70366,70735,70392
 2.8000e+000 71054  1.1229e+000 -1.7247e+000 -1.9260e+000 61313 71077,70881,70855
 2.8000e+000 71031 -3.0233e-001 -8.7017e+000 -1.8089e-001 61313 71077,70855,70829
 2.8000e+000 71008 -6.0524e+000 -1.6686e+001  9.3398e-003 61313 70829,70959,70933
 2.8000e+000 70985 -6.0237e-001 -1.6921e+001 -4.7793e-002 61313 70881,70933,70907
 2.8000e+000 71103 -4.4617e-001 -5.8325e+000  1.5502e+000 61313 70933,70881,71077
 2.8000e+000 71126  9.6118e-002 -1.0048e+001  3.2356e+000 61313 70933,71077,70829
 2.8000e+000 71604  2.5138e-001 -1.0958e+002  5.7397e+000 60909 71627,71232,71414
 2.8000e+000 71581 -2.2200e+001 -9.0049e+001 -2.2855e+001 60909 71232,71440,71414
 2.8000e+000 71558 -2.8302e+000 -6.3876e+001  7.8564e+000 60909 71627,71414,71336
 2.8000e+000 71535  6.3866e+000 -1.5926e+002  3.3361e+001 60909 71362,71414,71388
 2.8000e+000 71512 -3.4767e+001 -1.3635e+002  1.3053e+001 60909 71336,71414,71362
 2.8000e+000 71489 -8.6050e+000 -5.0525e+001  3.8695e+000 60909 71258,71336,71310
 2.8000e+000 71466  1.3526e+001 -5.9260e+001  1.4755e+001 60909 71258,71310,71284
 2.8000e+000 71653  1.5141e+001 -7.3553e+001  1.2795e+000 60909 71258,71232,71627
 2.8000e+000 71676 -3.4330e+000 -5.0406e+001  6.9631e+000 60909 71258,71627,71336
 2.8000e+000 71875 -1.1095e+001 -1.6462e+001  1.0910e+001 60611 71898,71725,71699
 2.8000e+000 71852 -1.1798e+001 -1.6426e+001  1.1059e+001 60611 71898,71699,71803
 2.8000e+000 71829  1.2191e+000  1.6877e+000 -1.8242e+000 60611 71970,71751,71725
 2.8000e+000 71924 -1.8899e+000 -1.0317e+001  5.0990e+000 60611 71970,71725,71898
 2.8000e+000 71947 -1.5574e+001 -3.4982e+001  9.6162e+000 60611 71777,71898,71803
 2.8000e+000 71996 -6.6103e+000 -1.3484e+001  3.1943e+000 60611 71777,71751,71970
 2.8000e+000 72019 -1.0963e+001 -2.1168e+001  1.0908e+001 60611 71777,71970,71898
 2.8000e+000 72576  1.6793e+001 -1.8582e+002  3.2365e+001 60142 72599,72256,72230
 2.8000e+000 72553  3.9701e+001 -9.6775e+001  3.8333e+001 60142 72671,72599,72230
 2.8000e+000 72530 -1.1665e+001 -5.2411e+001 -1.3779e+000 60142 72671,72230,72204
 2.8000e+000 72507 -2.4599e+001 -5.4993e+001  1.9495e+001 60142 72743,72360,72334
 2.8000e+000 72484 -4.0981e+001 -6.7306e+001  5.0299e+000 60142 72815,72282,72256
 2.8000e+000 72461  1.2269e+001 -1.7732e+001  4.4984e+001 60142 72887,72308,72282
 2.8000e+000 72438 -2.7819e+001 -1.6859e+002 -1.9057e+001 60142 72204,72412,72386
 2.8000e+000 72625 -4.5744e+001 -1.4645e+002 -2.1024e+001 60142 72815,72256,72599
 2.8000e+000 72648 -8.7435e+000 -8.8600e+001  1.3496e+001 60142 72743,72334,72599
 2.8000e+000 72697 -5.3507e+000 -1.6493e+002  1.8693e+001 60142 72386,72599,72671
 2.8000e+000 72720 -4.1245e+001 -1.1364e+002 -1.2361e+001 60142 72386,72671,72204
 2.8000e+000 72769  2.0452e+001 -8.1245e+001  8.3904e+001 60142 72386,72360,72743
 2.8000e+000 72792  1.0105e+001 -1.5499e+002  4.6059e+001 60142 72386,72743,72599
 2.8000e+000 72841 -2.5471e+001 -3.6248e+001  2.1829e+001 60142 72887,72282,72815
 2.8000e+000 72864 -4.9284e+000 -7.6004e+001  9.0994e+000 60142 72334,72815,72599
 2.8000e+000 72913 -4.0449e+001 -4.9536e+001  2.4770e+001 60142 72334,72308,72887
 2.8000e+000 72936 -5.7742e+001 -5.8182e+001  3.0859e+000 60142 72334,72887,72815
 2.8000e+000 73491 -1.4211e+001 -1.6731e+002 -3.5440e+001 59738 73145,73327,73171
 2.8000e+000 73468  1.9439e+001 -1.1760e+002 -2.0231e+001 59738 73119,73327,73145
 2.8000e+000 73445 -2.1841e+000 -6.6874e+001 -2.8052e+000 59738 73171,73327,73301
 2.8000e+000 73422  8.6639e-001 -8.0503e+001  2.0673e+000 59738 73514,73275,73249
 2.8000e+000 73399 -2.2397e+001 -7.9340e+001  4.7598e+000 59738 73586,73514,73249
 2.8000e+000 73376 -2.9324e+001 -4.9596e+001  2.3050e+001 59738 73197,73249,73223
 2.8000e+000 73353 -2.6114e+001 -8.2739e+001  9.6328e+000 59738 73586,73249,73197
 2.8000e+000 73540 -2.0148e+001 -1.0860e+002 -9.4731e+000 59738 73301,73275,73514
 2.8000e+000 73563 -1.2272e+001 -7.4970e+001 -7.6669e+000 59738 73301,73514,73171
 2.8000e+000 73612 -2.1227e+001 -7.1337e+001  6.1065e-001 59738 73171,73514,73586
 2.8000e+000 73635 -2.2316e+001 -7.4854e+001  4.8215e+000 59738 73171,73586,73197
 2.8000e+000 73964  2.7480e+000 -1.3258e+002 -7.0775e+000 59334 73791,73843,73817
 2.8000e+000 73941 -6.1560e-001 -1.4982e+002 -1.5229e+001 59334 73791,73869,73843
 2.8000e+000 73918 -2.8161e+001 -2.1581e+002 -1.1119e+001 59334 73739,73869,73791
 2.8000e+000 73895  1.1747e+001 -2.3837e+002 -1.1015e+001 59334 73739,73791,73765
 2.8000e+000 74261 -1.0801e+001 -1.0354e+002  3.3664e+001 58630 74065,74117,74091
 2.8000e+000 74238 -1.6293e+000 -9.1119e+001  5.7892e+000 58630 74356,74284,74065
 2.8000e+000 74215 -7.1068e+000 -4.4962e+001  1.8130e+000 58630 74284,74013,73987
 2.8000e+000 74192 -9.3646e-001 -8.4893e+001 -2.1472e+000 58630 74356,74065,74039
 2.8000e+000 74169 -9.2490e+000 -5.2908e+001  2.8594e+000 58630 73987,74143,74117
 2.8000e+000 74310  1.9246e+000 -1.2372e+002  8.5408e+000 58630 74117,74065,74284
 2.8000e+000 74333 -2.2038e+001 -7.8090e+001 -6.4443e+000 58630 74117,74284,73987
 2.8000e+000 74382  1.3066e+001 -9.3895e+001 -3.8210e+000 58630 74013,74284,74356
 2.8000e+000 74405  1.4857e+001 -8.6078e+001 -1.1919e+001 58630 74013,74356,74039
 2.8000e+000 74815 -2.9278e+001 -8.0683e+001 -6.3658e+000 58226 74590,74642,74616
 2.8000e+000 74792 -2.7048e+001 -1.1440e+002 -1.4092e+001 58226 74590,74694,74642
 2.8000e+000 74769  6.9496e+000 -1.8509e+002  2.1672e+001 58226 74590,74720,74694
 2.8000e+000 74746 -2.2180e+001 -7.0043e+001 -1.0684e+001 58226 74642,74694,74668
 2.8000e+000 75014  8.9947e+000 -9.9760e+001 -5.8693e+000 57786 75037,74864,74838
 2.8000e+000 74991 -6.2223e+000 -6.0253e+001  1.8284e+001 57786 75037,74838,74916
 2.8000e+000 74968  3.0763e+000 -3.8468e+001 -1.2877e+001 57786 74838,74942,74916
 2.8000e+000 75063 -1.7908e+001 -1.3522e+002 -1.9143e+001 57786 74890,74864,75037
 2.8000e+000 75086 -2.5847e+001 -8.9182e+001  7.2572e+000 57786 74890,75037,74916
 2.8000e+000 75368  3.3754e+001 -2.0047e+001  2.4099e+001 57496 75192,75270,75218
 2.8000e+000 75345  3.9417e+001 -1.8593e+001  2.2793e+001 57496 75192,75296,75270
 2.8000e+000 75322 -1.3970e+000 -5.8506e+001  5.3958e+000 57496 75218,75270,75244
 2.8000e+000 75648  2.5136e+001 -7.4504e+001 -1.0347e+001 57206 75472,75550,75498
 2.8000e+000 75625  9.9566e-001 -7.1220e+001  5.7154e+000 57206 75472,75576,75550
 2.8000e+000 75602 -5.4895e+000 -5.5602e+000  5.1648e+000 57206 75671,75550,75524
 2.8000e+000 75697  7.5168e+000 -8.2067e+001 -1.0055e+001 57206 75498,75550,75671
 2.8000e+000 76154 -6.7239e+000 -6.7745e+001  5.3125e-001 56802 75958,76010,75984
 2.8000e+000 76131 -4.2109e+000 -3.1322e+001  3.9548e+000 56802 75932,76010,75958
 2.8000e+000 76108 -7.2035e+000 -5.5438e+001  1.2656e+001 56802 75906,76010,75932
 2.8000e+000 76085 -4.8971e+000 -2.7121e+001  1.5725e+001 56802 75880,76010,75906
 2.8000e+000 76062  1.1353e+001 -2.6566e+001 -2.4522e+000 56802 75880,76036,76010
 2.8000e+000 76505 -2.9799e+000  1.0530e+000  1.3491e+000 56504 76306,76384,76332
 2.8000e+000 76482  1.0734e+000  1.6321e+000  1.0223e+000 56504 76306,76410,76384
 2.8000e+000 76459 -6.1002e+000  2.5402e-001  1.6083e+000 56504 76332,76384,76358
 2.8000e+000 76436 -1.2436e+000  4.4459e-002  2.3183e-001 56504 76280,76410,76306
 2.8000e+000 77011  2.4429e+001 -5.0106e+001 -2.2076e+001 56050 76740,76818,76792
 2.8000e+000 76988  4.9624e+001 -3.8710e+001 -2.4887e+001 56050 76714,76818,76740
 2.8000e+000 76965 -1.5034e+001 -4.5506e+001 -9.3646e+000 56050 76688,76818,76714
 2.8000e+000 76942 -1.7866e+001 -2.7522e+001 -2.0468e+001 56050 76688,76844,76818
 2.8000e+000 76919  2.3316e+001 -6.0382e+001 -2.0184e+001 56050 76740,76792,76766
 2.8000e+000 76896 -3.2657e+001 -4.7297e+001 -1.1781e+001 56050 76688,76870,76844
 2.8000e+000 77517 -5.2734e+001 -6.7448e+001  1.5041e+001 55738 77220,77350,77324
 2.8000e+000 77494 -2.7666e+001 -9.3672e+001 -1.3376e+001 55738 77220,77376,77350
 2.8000e+000 77471 -8.9201e+000 -7.4824e+001 -1.2700e+000 55738 77194,77376,77220
 2.8000e+000 77448 -2.2353e+001 -5.2999e+001  9.4035e+000 55738 77220,77298,77246
 2.8000e+000 77425 -2.6351e+001 -5.5837e+001  1.2059e+001 55738 77220,77324,77298
 2.8000e+000 77402 -3.9254e+001 -5.0903e+001  8.5403e+001 55738 77246,77298,77272
 2.8000e+000 78064  2.1767e+001 -1.8632e+002 -5.5573e+000 55227 78231,78087,77773
 2.8000e+000 78041 -3.5747e+001 -3.1705e+002  1.2313e+001 55227 78087,77695,77643
 2.8000e+000 78018 -3.1180e+001 -2.5296e+002 -1.9857e+001 55227 78159,77799,77773
 2.8000e+000 77995 -9.9019e+000 -1.1732e+002  1.0807e+001 55227 78231,77773,77721
 2.8000e+000 77972 -6.8741e+001 -9.3576e+001  6.6503e+001 55227 77643,77695,77669
 2.8000e+000 77949 -5.4236e+001 -1.3434e+002  2.6661e+000 55227 77643,77877,77851
 2.8000e+000 77926 -7.5846e+001 -2.8705e+002  3.6715e+001 55227 77799,77851,77825
 2.8000e+000 77903 -4.4773e+000 -6.3249e+001 -2.3446e+001 55227 77721,77773,77747
 2.8000e+000 78113 -7.7856e+000 -2.5481e+002 -8.8406e+000 55227 78159,77773,78087
 2.8000e+000 78136  2.4378e+001 -1.7639e+002  2.5185e+001 55227 77851,78087,77643
 2.8000e+000 78185 -7.7531e+001 -2.4399e+002 -2.0097e+001 55227 77851,77799,78159
 2.8000e+000 78208 -5.4442e+001 -2.4743e+002 -1.1051e+001 55227 77851,78159,78087
 2.8000e+000 78257 -4.2532e+000 -2.6917e+002 -3.5007e+001 55227 77695,78087,78231
 2.8000e+000 78280 -4.1896e+001 -1.9602e+002 -2.6055e+001 55227 77695,78231,77721
 2.8000e+000 78737 -6.2428e+000 -3.3489e+001 -1.7526e+001 54773 78463,78541,78515
 2.8000e+000 78714 -2.5053e+001 -7.7064e+001 -2.1093e+000 54773 78463,78619,78541
 2.8000e+000 78691  2.2931e+000 -7.3550e+000 -1.9460e+000 54773 78463,78515,78489
 2.8000e+000 78668 -3.0526e+001 -3.3591e+001 -1.7107e+001 54773 78541,78593,78567
 2.8000e+000 78645 -4.5349e+000 -5.1231e+001 -2.4251e+001 54773 78541,78619,78593
 2.8000e+000 78838 -3.2439e+000 -3.6882e+001 -1.9557e+000 54211 78760,78812,78786
 2.8000e+000 79297  1.2024e+001 -8.6484e+001 -7.7416e+000 53814 79520,79153,79049
 2.8000e+000 79274  1.8005e+001 -9.1849e+001  1.4835e+000 53814 79520,79049,79023
 2.8000e+000 79251 -2.3998e+001 -1.9845e+002  3.5181e+001 53814 79320,79101,79049
 2.8000e+000 79228  1.6953e+001 -9.7707e+001 -7.6540e+000 53814 79320,79049,79153
 2.8000e+000 79205 -4.0164e+001 -1.4049e+002  4.4597e+001 53814 79049,79101,79075
 2.8000e+000 79346  1.0481e+001 -7.1802e+001 -4.1449e+001 53814 79392,79320,79127
 2.8000e+000 79369  5.0112e+001 -7.9961e+001 -6.3448e+001 53814 79127,79320,79153
 2.8000e+000 79418  9.1200e+000 -1.7768e+002 -6.0282e+001 53814 79101,79320,79392
 2.8000e+000 79546  1.5291e+001 -7.8028e+001 -4.6726e+000 53814 79179,79153,79520
 2.8000e+000 79569  2.6115e+001 -8.0961e+001  5.5003e+000 53814 79179,79520,79023
 2.8000e+000 80075 -3.4687e+001 -1.0716e+001  2.6349e+001 53039 80098,79908,79830
 2.8000e+000 80052 -4.3462e+001 -7.3368e+000 -3.4827e+000 53039 80098,79830,79804
 2.8000e+000 80029 -4.3538e-001  8.8359e+000  4.6855e+000 53039 79752,79934,79804
 2.8000e+000 80006 -8.5533e+000 -7.1280e+001  3.8828e+001 53039 79856,79908,79882
 2.8000e+000 79983  2.4215e+001 -9.1124e+001  2.9688e+001 53039 79830,79908,79856
 2.8000e+000 79960 -9.7382e+000  9.0541e+000 -5.7742e+000 53039 79752,79804,79778
 2.8000e+000 80124  1.2761e+001  1.1932e+001  3.2946e+001 53039 79934,79908,80098
 2.8000e+000 80147 -2.2332e+001  3.2543e+000  1.4755e+000 53039 79934,80098,79804
 2.8000e+000 80555 -1.3333e+001 -6.4522e+001  1.7880e-001 52699 80356,80434,80408
 2.8000e+000 80532 -4.8635e+000 -9.0620e+001  3.7196e+000 52699 80356,80460,80434
 2.8000e+000 80509 -1.2320e+001 -1.0384e+002 -5.6583e+000 52699 80330,80460,80356
 2.8000e+000 80486 -5.1594e+001 -1.0623e+002  2.8354e+001 52699 80356,80408,80382
 2.8000e+000 80776 -2.1602e+001 -3.2080e+001  1.7407e+000 52295 80600,80678,80626
 2.8000e+000 80753  8.0600e+000 -3.0926e+001  5.9287e-001 52295 80600,80704,80678
 2.8000e+000 80730  2.0905e+001 -1.2577e+001  8.5292e+000 52295 80626,80678,80652
 2.8000e+000 81156 -3.6485e+001 -1.2864e+002  3.3179e+001 51891 81179,80960,80908
 2.8000e+000 81133 -2.2790e+001 -1.0555e+002  3.3492e+000 51891 81179,80908,81012
 2.8000e+000 81110 -4.2430e+001 -1.2428e+002  1.1766e+001 51891 80882,81012,80908
 2.8000e+000 81087 -5.1894e+000 -1.9741e+002  2.6918e+001 51891 80908,80960,80934
 2.8000e+000 81064  5.3647e+000 -9.8631e+000  8.5322e+000 51891 80882,81038,81012
 2.8000e+000 81205  1.5886e-001 -1.2029e+002  1.8404e+001 51891 80986,80960,81179
 2.8000e+000 81228 -8.1536e+000 -1.0275e+002 -1.1199e+001 51891 80986,81179,81012
 2.8000e+000 81606 -1.5383e+001 -2.6877e+002 -8.2893e+001 51544 81410,81462,81436
 2.8000e+000 81583  4.2654e-001 -1.3855e+002 -2.4059e+001 51544 81384,81462,81410
 2.8000e+000 81560 -2.7664e+001 -1.3458e+002 -3.1767e+001 51544 81358,81462,81384
 2.8000e+000 81537 -5.5685e-001 -1.2784e+002 -2.3380e+001 51544 81358,81488,81462
 2.8000e+000 81514  2.9251e+001  1.2724e+001 -1.5248e+001 51544 81332,81488,81358
 2.8000e+000 81854  3.4703e+000 -1.2190e+002 -1.9285e+000 51004 81877,81655,81629
 2.8000e+000 81831 -4.4680e-001 -1.0940e+002 -3.7142e+000 51004 81877,81629,81759
 2.8000e+000 81808 -2.6174e+000 -6.7710e+001  4.2284e+001 51004 81655,81707,81681
 2.8000e+000 81785 -3.9273e+001 -1.8122e+002  2.8637e+000 51004 81707,81759,81733
 2.8000e+000 81903  1.0390e+000 -1.2535e+002 -2.9909e+000 51004 81707,81655,81877
 2.8000e+000 81926 -9.5352e+000 -1.2227e+002 -7.6772e+000 51004 81707,81877,81759
 2.8000e+000 82257 -2.8621e+001 -9.5050e+001 -2.7863e+000 50642 82058,82136,82110
 2.8000e+000 82234 -3.9009e+001 -7.3584e+001 -7.9988e+000 50642 82058,82162,82136
 2.8000e+000 82211 -4.7861e+001 -1.2278e+002  2.2532e+001 50642 82058,82110,82084
 2.8000e+000 82188 -5.5123e+001 -7.9718e+001 -1.7964e+001 50642 82032,82162,82058
 2.8000e+000 82684  2.5187e+001 -1.6518e+002  2.4911e+001 49931 82779,82707,82465
 2.8000e+000 82661 -1.6889e+001 -2.0713e+002  3.9844e+001 49931 82707,82413,82361
 2.8000e+000 82638 -3.8954e+000 -1.5170e+002 -4.2567e+001 49931 82779,82465,82439
 2.8000e+000 82615 -1.9343e+001 -2.9584e+002  3.5500e+001 49931 82465,82543,82491
 2.8000e+000 82592 -1.5875e+001 -1.2840e+002 -1.6632e+000 49931 82361,82413,82387
 2.8000e+000 82569 -2.3721e+000 -2.0845e+002  2.4726e+001 49931 82491,82543,82517
 2.8000e+000 82733  2.4103e+001 -1.9444e+002  3.1782e+001 49931 82543,82465,82707
 2.8000e+000 82756  2.3435e+000 -1.5597e+002  3.2329e+001 49931 82543,82707,82361
 2.8000e+000 82805 -1.7502e+001 -2.5960e+002  7.4285e+000 49931 82413,82707,82779
 2.8000e+000 82828 -3.3865e+001 -2.3259e+002 -5.6415e+001 49931 82413,82779,82439
 2.8000e+000 83255 -4.8991e+001 -2.6563e+002 -2.9765e+001 49327 82984,83114,83036
 2.8000e+000 83232 -6.1390e+001 -2.8929e+002 -6.2262e+001 49327 82958,83114,82984
 2.8000e+000 83209 -4.0878e+001 -3.1909e+002 -1.2841e+001 49327 83036,83114,83088
 2.8000e+000 83186 -8.7535e+001 -2.1479e+002  8.3893e+000 49327 82984,83036,83010
 2.8000e+000 83163 -4.7740e+001 -2.7401e+002 -5.5038e+001 49327 82932,83114,82958
 2.8000e+000 83140 -1.0799e+002 -5.2226e+002 -5.1006e+000 49327 83036,83088,83062
 2.8000e+000 83938 -4.2135e+001 -3.3573e+002  6.0395e+001 48965 83961,83673,83647
 2.8000e+000 83915  2.7652e+001 -1.3437e+002  5.5064e+001 48965 83961,83647,83543
 2.8000e+000 83892 -4.8962e+001 -1.6062e+002 -7.1460e+001 48965 83517,83725,83543
 2.8000e+000 83869 -2.2149e+001 -1.9377e+002 -6.7532e+001 48965 83673,83725,83699
 2.8000e+000 83846 -3.2584e+001 -7.5150e+001 -1.7642e+001 48965 83543,83647,83621
 2.8000e+000 83823 -1.5062e+001 -1.0038e+002 -2.5129e+001 48965 83543,83621,83569
 2.8000e+000 83800 -1.7873e+001 -1.3064e+002 -1.4814e+001 48965 83517,83751,83725
 2.8000e+000 83777 -9.0361e-001 -7.9545e+001  1.1547e+001 48965 83569,83621,83595
 2.8000e+000 83987 -7.4960e+000 -2.9429e+002 -6.9586e+001 48965 83725,83673,83961
 2.8000e+000 84010  2.4270e+001 -2.1835e+002 -4.9714e+001 48965 83725,83961,83543
 2.8000e+000 84258 -3.5804e+001 -2.3208e+002  3.4682e+001 48447 84281,84059,84033
 2.8000e+000 84235 -2.1079e+001 -1.9006e+002  2.9141e-001 48447 84281,84033,84163
 2.8000e+000 84212  8.5639e+000 -1.8510e+002 -1.3100e+001 48447 84059,84111,84085
 2.8000e+000 84189  2.0585e+001 -1.7052e+002 -3.3055e+001 48447 84111,84163,84137
 2.8000e+000 84307 -6.8651e+000 -2.2039e+002  3.6530e-001 48447 84111,84059,84281
 2.8000e+000 84330  2.1555e+001 -1.9100e+002 -3.2628e+001 48447 84111,84281,84163
 2.8000e+000 84529  1.6111e+001 -1.4672e+002 -3.8647e+000 47993 84552,84405,84379
 2.8000e+000 84506 -5.1942e+001 -1.7139e+002 -3.3445e+000 47993 84552,84379,84353
 2.8000e+000 84483  1.5040e+001 -1.6102e+002 -6.0296e+000 47993 84624,84457,84431
 2.8000e+000 84578  2.7788e+001 -1.5764e+002 -2.1039e+001 47993 84431,84405,84552
 2.8000e+000 84601  1.3279e+001 -1.5746e+002 -8.4381e+000 47993 84624,84431,84552
 2.8000e+000 84650  1.3100e+001 -1.6279e+002 -7.0776e+000 47993 84353,84457,84624
 2.8000e+000 84673  8.4884e+000 -1.6457e+002 -1.0634e+001 47993 84353,84624,84552
 2.8000e+000 85104 -5.3042e+001 -2.2105e+002 -1.9533e+001 47588 85199,85127,84885
 2.8000e+000 85081 -3.8347e+001 -2.3950e+002 -2.5136e+001 47588 85127,84781,84963
 2.8000e+000 85058 -7.8233e+001 -2.1437e+002  9.2546e+000 47588 85199,84885,84807
 2.8000e+000 85035 -2.9507e+001 -1.5363e+002  7.2468e+001 47588 84885,84937,84911
 2.8000e+000 85012 -5.7367e+001 -1.4782e+002 -1.2565e+001 47588 84807,84885,84833
 2.8000e+000 84989 -3.3667e+001 -1.3763e+002 -1.1502e+001 47588 84833,84885,84859
 2.8000e+000 85153 -4.7485e+001 -2.6399e+002 -7.8049e-001 47588 84937,84885,85127
 2.8000e+000 85176  3.9949e+001 -2.3912e+002 -2.3445e+000 47588 84937,85127,84963
 2.8000e+000 85225 -1.0111e+002 -2.4003e+002 -1.9863e+001 47588 84781,85127,85199
 2.8000e+000 85248 -1.1642e+002 -2.3070e+002  1.2747e+001 47588 84781,85199,84807
 2.8000e+000 85518 -4.5109e+001 -2.9444e+002  4.8624e+001 47226 85293,85397,85319
 2.8000e+000 85495 -4.0637e+001 -2.6821e+002  2.4051e+001 47226 85293,85423,85397
 2.8000e+000 85472 -2.2549e+001 -3.0809e+002 -5.4721e+000 47226 85319,85397,85345
 2.8000e+000 85449  1.6649e+001 -1.1052e+002 -8.9289e+000 47226 85345,85397,85371
 2.8000e+000 85849 -4.5537e+000 -1.8354e+002  4.0505e+001 46572 85624,85702,85650
 2.8000e+000 85826  5.2969e+000 -2.6149e+002 -2.2420e+001 46572 85624,85754,85702
 2.8000e+000 85803 -2.6804e+000 -1.6573e+002 -5.8682e+000 46572 85702,85754,85728
 2.8000e+000 85780 -1.2778e+001 -1.8169e+002  2.5630e+001 46572 85650,85702,85676
 2.8000e+000 86070 -1.5926e+002 -2.7522e+002 -4.5859e+000 46374 85920,85972,85946
 2.8000e+000 86047 -1.2879e+002 -2.0274e+002  2.8068e+000 46374 85920,85998,85972
 2.8000e+000 86024 -8.4982e+001 -1.7886e+002  3.0507e+001 46374 85894,85998,85920
 2.8000e+000 86401 -6.8712e+000 -1.9271e+002  7.1051e-001 46034 86424,86280,86228
 2.8000e+000 86378 -4.2956e+001 -1.9101e+002 -2.4839e+000 46034 86424,86228,86176
 2.8000e+000 86355 -5.7374e+001 -1.7570e+002 -4.5395e+001 46034 86176,86228,86202
 2.8000e+000 86332  3.9928e+001 -1.7197e+002 -3.4786e+001 46034 86228,86280,86254
 2.8000e+000 86450  5.9716e+001 -2.0000e+002 -1.4764e+001 46034 86306,86280,86424
 2.8000e+000 86473 -1.0246e+001 -2.2216e+002 -2.1155e+001 46034 86306,86424,86176
 2.8000e+000 87058  7.6577e+000 -1.3702e+002  3.7139e+000 45516 86813,86917,86865
 2.8000e+000 87035 -1.6559e+001 -1.9219e+002  7.3255e+000 45516 86787,86917,86813
 2.8000e+000 87012 -1.4790e+001 -2.3372e+002  1.2848e+001 45516 86735,86917,86787
 2.8000e+000 86989  6.2488e+000 -1.2624e+002 -7.8399e-001 45516 86865,86917,86891
 2.8000e+000 86966  9.5996e+000 -1.2726e+002  5.6641e+000 45516 86813,86865,86839
 2.8000e+000 86943 -1.2544e+001 -2.6657e+002 -2.0799e+000 45516 86735,86787,86761
 2.8000e+000 87208  3.2907e+001 -1.3587e+002 -1.3244e+001 45226 87231,87133,87107
 2.8000e+000 87185 -9.5589e+000 -1.0648e+002  1.6448e+001 45226 87081,87159,87133
 2.8000e+000 87257  3.9412e+001 -1.5855e+001 -2.0006e+001 45226 87081,87133,87231
 2.8000e+000 87537  2.5898e+001 -2.2853e+002  4.9458e+001 44772 87387,87439,87413
 2.8000e+000 87514 -3.6563e+001 -2.4352e+002  3.2026e+001 44772 87361,87439,87387
 2.8000e+000 87491 -4.0147e+000 -1.8202e+002  1.4284e+001 44772 87361,87465,87439
 2.8000e+000 87996 -1.3824e+001 -5.2831e+001 -1.2331e+000 44425 87748,87878,87852
 2.8000e+000 87973  2.5436e-003 -4.6997e+001  5.3238e-001 44425 87722,87878,87748
 2.8000e+000 87950  1.8383e+000 -8.4853e+001 -1.5206e+001 44425 87800,87852,87826
 2.8000e+000 87927 -1.1060e+001 -7.1762e+001  3.8693e+000 44425 87748,87852,87800
 2.8000e+000 87904 -1.1535e+001 -1.0508e+002  1.0978e+001 44425 87748,87800,87774
 2.8000e+000 88423 -1.3273e+001 -1.7628e+002  4.6051e-001 44078 88590,88230,88204
 2.8000e+000 88400 -1.5460e+001 -1.3172e+002  1.3902e+001 44078 88518,88446,88204
 2.8000e+000 88377 -2.2576e+001 -1.8777e+002 -2.0381e+001 44078 88446,88126,88282
 2.8000e+000 88354 -3.6623e+001 -1.0628e+002 -1.2861e+000 44078 88518,88204,88178
 2.8000e+000 88331 -2.0251e+001 -2.2070e+002 -1.6842e+001 44078 88100,88282,88126
 2.8000e+000 88308 -2.6444e+001 -1.0781e+002  4.4600e+001 44078 88126,88178,88152
 2.8000e+000 88472 -1.7249e+001 -1.8648e+002  3.6731e+000 44078 88590,88204,88446
 2.8000e+000 88495 -3.4483e+001 -2.4989e+002 -3.7915e+001 44078 88256,88446,88282
 2.8000e+000 88544 -2.8716e+001 -1.8854e+002  9.4119e+000 44078 88126,88446,88518
 2.8000e+000 88567 -3.2551e+001 -1.3828e+002 -1.7681e+000 44078 88126,88518,88178
 2.8000e+000 88616 -9.9572e+001 -3.5138e+002 -3.9060e+001 44078 88256,88230,88590
 2.8000e+000 88639 -1.5513e+001 -1.8190e+002 -9.3576e+000 44078 88256,88590,88446
 2.8000e+000 89039  3.3773e+000 -6.4497e+001  6.4251e+000 43716 88791,88921,88895
 2.8000e+000 89016 -9.9893e+000 -5.3833e+001  6.0901e+000 43716 88765,88921,88791
 2.8000e+000 88993  8.6587e+000 -7.6834e+001  1.8120e+001 43716 88817,88895,88869
 2.8000e+000 88970 -4.3003e+001 -8.9688e+001  1.6461e+001 43716 88791,88895,88817
 2.8000e+000 88947 -2.6098e+001 -7.3430e+001  3.8845e+000 43716 88817,88869,88843
 2.8000e+000 89496  6.2589e+000 -2.1411e+002 -2.1291e+001 43162 89519,89274,89248
 2.8000e+000 89473  9.1595e+000 -1.9685e+002 -1.7791e+001 43162 89519,89248,89222
 2.8000e+000 89450 -1.6344e+001 -1.8793e+002 -7.5619e+001 43162 89326,89378,89352
 2.8000e+000 89427 -1.5836e+001 -2.3619e+002 -3.3063e+001 43162 89274,89378,89326
 2.8000e+000 89404 -2.2394e+000 -1.5614e+002 -1.4206e+001 43162 89274,89326,89300
 2.8000e+000 89545  5.0502e+000 -1.9844e+002 -1.7249e+001 43162 89378,89274,89519
 2.8000e+000 89568  9.0191e+000 -1.7987e+002 -1.3530e+001 43162 89378,89519,89222
 2.8000e+000 89946 -1.5085e+001 -1.9115e+002 -4.8205e+001 42594 90041,89969,89750
 2.8000e+000 89923 -1.2148e+001 -1.4539e+002 -2.1254e+001 42594 89969,89698,89828
 2.8000e+000 89900 -7.5959e+000 -2.0188e+002 -4.3535e+001 42594 90041,89750,89724
 2.8000e+000 89877 -3.2059e+001 -1.4711e+002 -6.6489e+001 42594 89750,89802,89776
 2.8000e+000 89854  1.2010e+001 -6.1571e+001 -1.6200e+001 42594 89672,89828,89698
 2.8000e+000 89995 -1.6640e+001 -1.5059e+002 -4.1931e+001 42594 89802,89750,89969
 2.8000e+000 90018 -2.2860e+000 -1.0057e+002 -3.0334e+000 42594 89802,89969,89828
 2.8000e+000 90067 -1.2789e+001 -1.4738e+002 -4.5543e+001 42594 89698,89969,90041
 2.8000e+000 90090 -3.0549e+001 -1.8844e+002 -3.3179e+001 42594 89698,90041,89724
 2.8000e+000 90517 -4.7756e+001 -2.7057e+002 -1.3613e+000 42140 90540,90220,90194
 2.8000e+000 90494 -1.4212e+001 -2.3697e+002 -1.5832e+001 42140 90540,90194,90376
 2.8000e+000 90471 -4.2314e+001 -2.7325e+002  1.3782e+001 42140 90612,90350,90272
 2.8000e+000 90448 -8.7780e+001 -3.1149e+002 -6.3645e+000 42140 90272,90350,90298
 2.8000e+000 90425 -5.2196e+001 -2.1991e+002 -4.2515e+000 42140 90298,90350,90324
 2.8000e+000 90402 -2.4160e+001 -2.7485e+002  8.4078e+001 42140 90220,90272,90246
 2.8000e+000 90566 -3.4611e+001 -2.6911e+002  2.8074e+000 42140 90272,90220,90540
 2.8000e+000 90589 -4.3147e+001 -2.7552e+002  6.8078e+000 42140 90612,90272,90540
 2.8000e+000 90638 -3.3339e+001 -2.7588e+002  1.0154e+001 42140 90376,90350,90612
 2.8000e+000 90661 -2.0639e+001 -2.6976e+002  3.3088e+000 42140 90376,90612,90540
 2.8000e+000 91167 -2.4757e+001 -1.3774e+002 -2.3184e+001 41636 91190,90870,90844
 2.8000e+000 91144 -2.5227e+001 -3.1932e+002 -2.1719e+001 41636 91190,90844,91026
 2.8000e+000 91121 -2.0617e+001 -1.0013e+002 -3.6557e+001 41636 90870,90922,90896
 2.8000e+000 91098 -2.3458e+001 -2.7451e+002  4.9147e+001 41636 90922,91026,90948
 2.8000e+000 91075 -4.0561e+001 -2.0749e+002 -2.6852e+001 41636 90948,91026,91000
 2.8000e+000 91052 -5.8354e+001 -1.7148e+002 -2.9678e+000 41636 90948,91000,90974
 2.8000e+000 91216 -3.5291e+001 -9.3223e+001 -1.9380e+001 41636 90922,90870,91190
 2.8000e+000 91239  5.2381e+001 -1.5435e+002  1.0602e+001 41636 90922,91190,91026
 2.8000e+000 91696 -6.6190e+001 -1.9348e+002 -3.7621e+001 40449 91448,91526,91474
 2.8000e+000 91673 -9.0689e+001 -2.1730e+002 -7.3473e+000 40449 91448,91578,91526
 2.8000e+000 91650 -2.1267e+001 -1.3799e+002 -1.7548e+001 40449 91474,91526,91500
 2.8000e+000 91627 -1.5217e+001 -2.3471e+002 -3.2647e+001 40449 91422,91578,91448
 2.8000e+000 91604 -1.8284e+001 -1.5074e+002 -3.5077e+001 40449 91526,91578,91552
 2.8000e+000 92123 -4.6952e+001 -1.8164e+002 -1.0526e+001 39995 92146,91904,91826
 2.8000e+000 92100 -5.6945e+001 -1.9053e+002 -3.8515e+001 39995 92146,91826,91800
 2.8000e+000 92077 -9.2587e+001 -1.7488e+002 -8.8617e+000 39995 91826,91904,91852
 2.8000e+000 92054 -7.3885e+001 -3.5599e+002 -1.6600e+001 39995 91904,91982,91930
 2.8000e+000 92031 -4.2589e+001 -1.5925e+002 -2.1308e+001 39995 91852,91904,91878
 2.8000e+000 92008 -4.3106e+001 -2.6512e+002 -2.4414e+001 39995 91930,91982,91956
 2.8000e+000 92172 -3.5998e+001 -2.0954e+002 -2.9080e+001 39995 91982,91904,92146
 2.8000e+000 92195 -5.4159e+001 -2.4808e+002 -5.2657e+001 39995 91982,92146,91800
 2.8000e+000 92652  9.2942e+000 -5.9983e+001  2.5545e+001 39633 92404,92534,92456
 2.8000e+000 92629 -1.6519e+001 -8.6713e+001  1.4845e+001 39633 92378,92534,92404
 2.8000e+000 92606 -1.4800e+001 -7.1744e+001  1.4416e+001 39633 92404,92456,92430
 2.8000e+000 92583 -4.5355e+001 -2.0308e+002  3.5502e+001 39633 92456,92534,92508
 2.8000e+000 92560 -4.0582e+001 -8.7310e+001  3.1299e+001 39633 92456,92508,92482
 2.8000e+000 93079  2.9720e+000 -1.2829e+002 -2.7921e+001 39093 93102,92808,92756
 2.8000e+000 93056 -3.8557e+000 -1.3828e+002 -2.1304e+001 39093 93102,92756,92938
 2.8000e+000 93033 -1.4414e+001 -1.4015e+002 -2.5381e+001 39093 93174,92912,92834
 2.8000e+000 93010 -5.4018e+001 -1.7778e+002 -4.2261e+001 39093 92834,92912,92860
 2.8000e+000 92987  1.3240e+001 -1.8804e+002 -5.4874e+001 39093 92756,92808,92782
 2.8000e+000 92964 -3.7313e+001 -1.4399e+002 -4.9326e+001 39093 92860,92912,92886
 2.8000e+000 93128 -3.8473e+000 -9.5945e+001 -2.7158e+001 39093 92834,92808,93102
 2.8000e+000 93151 -7.9039e+000 -1.2603e+002 -2.3001e+001 39093 93174,92834,93102
 2.8000e+000 93200 -1.4419e+001 -1.3685e+002 -3.4626e+001 39093 92938,92912,93174
 2.8000e+000 93223 -1.3614e+001 -1.3098e+002 -3.3324e+001 39093 92938,93174,93102
 2.8000e+000 93680 -1.7601e+001 -5.2722e+001 -9.9234e+000 38639 93703,93536,93484
 2.8000e+000 93657 -1.7418e+001 -6.6821e+001 -8.3381e+000 38639 93703,93484,93432
 2.8000e+000 93634 -6.5880e+000 -7.0590e+001  6.6356e-001 38639 93432,93484,93458
 2.8000e+000 93611 -2.4457e+001 -7.0945e+001 -1.5721e+001 38639 93484,93536,93510
 2.8000e+000 93588 -2.0250e+001 -2.4889e+001  8.2437e+000 38639 93406,93562,93432
 2.8000e+000 93729 -2.1342e+001 -2.2758e+001 -6.3198e+000 38639 93562,93536,93703
 2.8000e+000 93752 -3.6779e+001 -5.7412e+001  2.2070e+000 38639 93562,93703,93432
 2.8000e+000 94160  1.6340e+001 -3.0850e+001 -2.6376e+001 38292 93935,94039,93961
 2.8000e+000 94137 -3.0782e+000 -9.2946e+001 -4.8062e+000 38292 93935,94065,94039
 2.8000e+000 94114 -3.8815e+001 -7.4549e+001 -2.4724e+001 38292 93961,94013,93987
 2.8000e+000 94091 -1.5654e+001 -7.3557e+001 -1.2327e+001 38292 93961,94039,94013
 2.8000e+000 94408  2.8455e+001 -1.6090e+002 -4.3644e+000 37880 94431,94261,94235
 2.8000e+000 94385  1.5612e+001 -1.1932e+002 -1.1189e+001 37880 94431,94235,94313
 2.8000e+000 94362 -8.6358e+000 -1.2256e+002  1.9521e+001 37880 94209,94313,94235
 2.8000e+000 94339 -7.3066e+000 -1.1449e+002  1.0482e+001 37880 94183,94313,94209
 2.8000e+000 94457  5.7004e+001 -1.2604e+002 -1.8088e+001 37880 94287,94261,94431
 2.8000e+000 94480  2.0982e+001 -1.0509e+002 -1.5869e+001 37880 94287,94431,94313
 2.8000e+000 94728 -8.2281e+001 -2.6070e+002  1.3745e+001 37426 94529,94607,94555
 2.8000e+000 94705 -8.9312e+000 -3.3305e+002 -2.4678e+001 37426 94529,94633,94607
 2.8000e+000 94682 -2.5655e+001 -3.3517e+002 -2.5657e+001 37426 94503,94633,94529
 2.8000e+000 94659 -3.5188e+001 -1.0224e+002 -6.1976e+001 37426 94555,94607,94581
 2.8000e+000 95257 -1.5702e+001 -1.4931e+002 -2.1342e+001 36722 95496,95280,94862
 2.8000e+000 95234 -5.5501e+001 -1.6573e+002 -1.7122e+001 36722 95496,94862,94836
 2.8000e+000 95211  4.5407e+000 -1.5138e+002 -1.4307e+001 36722 95352,95280,95070
 2.8000e+000 95188 -1.7700e+001 -1.5358e+002  1.0261e+001 36722 95352,95070,95044
 2.8000e+000 95165 -4.7223e+001 -1.7602e+002 -2.0403e+001 36722 95424,94888,94862
 2.8000e+000 95142 -2.9518e+001 -8.2860e+001  2.8817e+001 36722 94914,94966,94940
 2.8000e+000 95119 -7.8412e+001 -2.5148e+002  5.7243e+001 36722 94966,95044,95018
 2.8000e+000 95096 -5.8288e+001 -1.7677e+002  4.7019e+001 36722 94966,95018,94992
 2.8000e+000 95306 -4.2746e+001 -1.5396e+002 -2.1936e+001 36722 95424,94862,95280
 2.8000e+000 95329 -2.3298e+001 -1.1355e+002 -2.3995e+001 36722 94914,95280,94966
 2.8000e+000 95378 -3.7582e+001 -1.6252e+002 -5.8182e+000 36722 94966,95280,95352
 2.8000e+000 95401 -5.6115e+001 -1.5334e+002  1.1885e+001 36722 94966,95352,95044
 2.8000e+000 95450 -4.4199e+001 -1.6182e+002 -3.2876e+001 36722 94914,94888,95424
 2.8000e+000 95473 -4.6114e+001 -1.6189e+002 -3.0491e+001 36722 94914,95424,95280
 2.8000e+000 95522 -1.0187e+001 -1.4973e+002 -2.3650e+001 36722 95070,95280,95496
 2.8000e+000 95545 -1.2621e+001 -1.4648e+002 -2.1370e+001 36722 95070,95496,94836
 2.8000e+000 96130 -1.2265e+001 -3.6584e+001  2.0375e+001 36268 96153,95911,95859
 2.8000e+000 96107 -3.2946e+001 -9.2234e+001  1.1004e+001 36268 96153,95859,95807
 2.8000e+000 96084 -3.3540e+001 -1.0806e+002 -3.0116e+000 36268 95807,95859,95833
 2.8000e+000 96061  4.6747e+000 -2.0008e+002  1.8220e+001 36268 95911,95989,95937
 2.8000e+000 96038 -1.7496e+001 -4.7685e+001 -2.2416e+001 36268 95859,95911,95885
 2.8000e+000 96015 -3.5993e+001 -1.1821e+002 -3.6730e+001 36268 95937,95989,95963
 2.8000e+000 96179  2.9720e+001 -9.0787e+001  3.3649e+001 36268 95989,95911,96153
 2.8000e+000 96202 -2.9067e+000 -1.6415e+002  2.0794e+001 36268 95989,96153,95807
 2.8000e+000 96531 -3.8366e+001 -2.4630e+002  3.0838e+001 35728 96358,96410,96384
 2.8000e+000 96508 -5.5654e+001 -2.2230e+002  1.7134e+001 35728 96332,96410,96358
 2.8000e+000 96485 -6.6347e+001 -2.0399e+002  4.6265e+001 35728 96332,96436,96410
 2.8000e+000 96462 -9.7291e+000 -1.2727e+002 -1.2150e+001 35728 96306,96436,96332
 2.8000e+000 96860 -2.0486e+001 -1.3716e+002 -1.6809e+000 35324 96687,96765,96713
 2.8000e+000 96837 -3.5689e+001 -1.7473e+002 -5.2036e+000 35324 96661,96765,96687
 2.8000e+000 96814 -7.1457e+001 -1.4326e+002 -2.3368e+000 35324 96713,96765,96739
 2.8000e+000 96791  1.8557e+001 -2.5714e+002 -2.0132e+001 35324 96635,96765,96661
 2.8000e+000 97366 -6.0467e+001 -2.3137e+002  2.2208e+001 34920 97389,97069,97043
 2.8000e+000 97343 -6.0765e+001 -2.0911e+002  1.2640e+001 34920 97389,97043,97199
 2.8000e+000 97320 -2.9255e+001 -2.1176e+002 -1.1473e+001 34920 97043,97225,97199
 2.8000e+000 97297 -1.8457e+001 -2.7284e+002 -1.4785e+000 34920 97069,97121,97095
 2.8000e+000 97274 -3.4118e+001 -1.5408e+002 -4.7347e+000 34920 97121,97199,97173
 2.8000e+000 97251 -4.9416e+001 -1.0389e+002 -4.7153e+001 34920 97121,97173,97147
 2.8000e+000 97415 -6.4164e+001 -2.2735e+002 -4.9467e+000 34920 97121,97069,97389
 2.8000e+000 97438 -4.6391e+001 -1.7834e+002 -1.5662e+001 34920 97121,97389,97199
 2.8000e+000 97708 -4.2287e+001 -1.9668e+002 -2.4274e+000 34722 97509,97587,97535
 2.8000e+000 97685 -2.3951e+001 -1.8968e+002 -7.4653e+000 34722 97509,97613,97587
 2.8000e+000 97662 -5.5598e+001 -2.0344e+002 -9.7860e+000 34722 97483,97613,97509
 2.8000e+000 97639 -2.8716e+001 -1.7128e+002  3.4936e+001 34722 97535,97587,97561
 2.8000e+000 98216 -3.4403e+001 -2.7191e+002  6.0051e+000 34318 97971,98075,97997
 2.8000e+000 98193  4.9935e+000 -2.0372e+002  2.5559e+001 34318 97893,98075,97971
 2.8000e+000 98170  3.1296e+001 -1.7818e+002  1.3586e+001 34318 97893,97971,97919
 2.8000e+000 98147 -3.6434e+001 -1.6845e+002  3.8552e+001 34318 97997,98075,98049
 2.8000e+000 98124  3.4159e+000 -1.5698e+002  9.9958e-001 34318 97919,97971,97945
 2.8000e+000 98101 -7.9403e+001 -2.5339e+002  7.5231e+001 34318 97997,98049,98023
 2.8000e+000 98594  5.4065e+000 -1.0846e+002 -2.0635e+001 33814 98961,98617,98424
 2.8000e+000 98571  1.8529e+001 -1.4109e+002 -1.3803e+001 33814 98689,98617,98372
 2.8000e+000 98548 -8.4912e+000 -9.3424e+001 -1.0314e+001 33814 99033,98689,98372
 2.8000e+000 98525 -1.6677e+001 -6.8895e+001  3.2515e+001 33814 98761,98476,98450
 2.8000e+000 98502 -2.0805e+000 -1.1446e+002 -2.3579e+001 33814 98961,98424,98398
 2.8000e+000 98643 -3.0203e+000 -8.8299e+001  1.3089e+001 33814 98450,98424,98617
 2.8000e+000 98666  7.6178e+000 -7.4872e+001  1.8759e+001 33814 98761,98450,98617
 2.8000e+000 98715 -3.4696e+001 -1.7784e+002 -1.0875e+001 33814 99161,98689,98320
 2.8000e+000 98738 -6.4161e+001 -1.6999e+002 -5.9577e+000 33814 98320,98689,98346
 2.8000e+000 98787 -4.6676e+001 -1.3939e+002  6.3110e+001 33814 98833,98761,98320
 2.8000e+000 98810 -2.0013e+001 -1.8962e+002  1.6871e+001 33814 99161,98320,98761
 2.8000e+000 98859  1.4379e+000 -6.1278e+000  2.0367e+001 33814 98476,98761,98833
 2.8000e+000 98987  2.4406e+001 -1.2678e+002 -2.2396e+001 33814 98372,98617,98961
 2.8000e+000 99010  1.2773e+001 -1.3853e+002 -2.7668e+001 33814 98372,98961,98398
 2.8000e+000 99059 -4.9584e+001 -1.7896e+002 -2.8748e+001 33814 98346,98689,99033
 2.8000e+000 99187 -1.5528e+001 -1.3590e+002 -6.3600e+000 33814 98617,98689,99161
 2.8000e+000 99210 -1.8371e+000 -1.5241e+002  2.2668e+001 33814 98617,99161,98761
 2.8000e+000 99588 -3.0447e+001 -1.4415e+002 -2.0570e+001 33566 99366,99444,99392
 2.8000e+000 99565 -2.4242e-001 -9.9953e+001 -5.8100e+000 33566 99314,99444,99366
 2.8000e+000 99542 -4.7035e+001 -1.6185e+002  2.5049e+001 33566 99314,99366,99340
 2.8000e+000 99519 -1.6401e+001 -1.2916e+002  2.6487e+001 33566 99314,99470,99444
 2.8000e+000 99496  1.1610e+001 -7.6649e+001 -4.0951e+001 33566 99392,99444,99418
 2.8000e+000 99787 -3.3326e+000 -1.8689e+002  2.4824e+001 33105 99637,99689,99663
 2.8000e+000 99764 -1.1828e+001 -1.7093e+002 -8.2835e+000 33105 99611,99689,99637
 2.8000e+000 99741  7.3776e+000 -6.5041e+001 -1.4431e+000 33105 99611,99715,99689
 2.8000e+000 100167 -2.0571e+001 -1.7496e+002  2.8057e+001 32651 100190,99971,99919
 2.8000e+000 100144 -3.0655e+001 -1.7536e+002  3.0468e+001 32651 100262,100190,99919
 2.8000e+000 100121 -2.8871e+001 -1.7716e+002  3.3316e+001 32651 100262,99919,100049
 2.8000e+000 100098  4.5277e+001 -1.4172e+002 -4.5874e+001 32651 99893,100049,99919
 2.8000e+000 100075 -5.0806e+000 -6.9268e+001  2.2485e+001 32651 99919,99971,99945
 2.8000e+000 100216 -3.1046e+001 -1.8448e+002  2.0847e+001 32651 99997,99971,100190
 2.8000e+000 100239 -2.4308e+001 -1.6531e+002  2.0985e+001 32651 99997,100190,100023
 2.8000e+000 100288 -3.3735e+001 -1.6235e+002  3.1748e+001 32651 100023,100190,100262
 2.8000e+000 100311 -4.3900e+001 -1.7173e+002  4.0415e+001 32651 100023,100262,100049
 2.8000e+000 100608 -7.4738e+001 -2.1475e+002 -8.5671e+000 32254 100386,100490,100464
 2.8000e+000 100585 -7.0823e+001 -1.9712e+002 -1.0088e+001 32254 100360,100490,100386
 2.8000e+000 100562 -5.7068e+001 -2.1830e+002 -1.2667e+001 32254 100386,100464,100412
 2.8000e+000 100539 -1.2412e+001 -1.7111e+002 -5.2636e+000 32254 100334,100490,100360
 2.8000e+000 100516 -5.3901e+001 -1.4817e+002 -2.4569e+001 32254 100412,100464,100438
 2.8000e+000 100758  4.2620e+000 -3.2252e+001  6.1933e+000 31914 100985,100781,100683
 2.8000e+000 100735  1.7677e+001 -3.2135e+001  7.7474e+000 31914 100853,100781,100657
 2.8000e+000 100807 -8.0633e+000 -1.4131e+001  2.1061e+001 31914 100709,100683,100781
 2.8000e+000 100830 -2.1927e+000 -1.3081e+001  1.5450e+001 31914 100709,100781,100631
 2.8000e+000 100879  9.8185e+000  2.7101e+001  9.1710e+000 31914 100631,100781,100853
 2.8000e+000 101011 -1.6847e+001 -5.3084e+001 -4.8100e+000 31914 100657,100781,100985
 2.8000e+000 101191  3.1783e+000 -8.2548e+001 -6.4492e+000 31418 101113,101165,101139
 2.8000e+000 101341 -6.6301e+001 -2.0682e+002 -9.2942e+000 31106 101214,101266,101240
 2.8000e+000 101318 -4.2919e+001 -1.4195e+002 -2.7215e+000 31106 101214,101292,101266
 2.8000e+000 101591 -6.3556e+001 -1.7254e+002  6.2540e+001 30552 101614,101470,101444
 2.8000e+000 101568 -2.2636e+001 -4.7906e+001  7.0300e+001 30552 101366,101496,101470
 2.8000e+000 101545 -6.3473e+001 -2.4771e+002  3.9256e+001 30552 101614,101444,101392
 2.8000e+000 101522 -2.1120e+001 -1.8879e+002  3.9926e+000 30552 101392,101444,101418
 2.8000e+000 101640 -5.5691e+001 -1.1943e+002  1.0983e+002 30552 101366,101470,101614
 2.8000e+000 101663 -5.6795e+001 -1.9140e+002  8.4891e+001 30552 101366,101614,101392
 2.8000e+000 102301  1.5697e+001 -2.1073e+002  1.7436e+001 30042 102396,102324,102059
 2.8000e+000 102278 -5.5554e+001 -1.7106e+002  7.3724e+000 30042 102324,101981,101955
 2.8000e+000 102255  1.3044e+001 -1.8126e+002  4.9976e+001 30042 102396,102059,102033
 2.8000e+000 102232 -1.7947e+001 -1.3039e+002 -7.1505e+000 30042 101929,102111,101955
 2.8000e+000 102209 -1.5012e+001 -1.9074e+002 -3.9323e+001 30042 102059,102111,102085
 2.8000e+000 102186 -2.6804e+001 -1.3409e+002 -7.0707e+000 30042 101929,102137,102111
 2.8000e+000 102163  8.7182e+000 -3.8152e+001 -3.8569e+001 30042 101981,102033,102007
 2.8000e+000 102350 -4.0028e+001 -2.1493e+002 -2.8296e+001 30042 102111,102059,102324
 2.8000e+000 102373  2.7393e+000 -1.3736e+002 -1.1180e+001 30042 102111,102324,101955
 2.8000e+000 102422  3.9918e+000 -1.2155e+002  2.9822e+001 30042 101981,102324,102396
 2.8000e+000 102445  5.0266e+000 -9.0566e+001  6.3851e+001 30042 101981,102396,102033
 2.8000e+000 103000 -6.2222e+000 -2.2430e+002  3.8466e-001 29730 103023,102706,102654
 2.8000e+000 102977 -5.1665e+001 -2.1302e+002 -2.4951e+001 29730 103023,102654,102810
 2.8000e+000 102954 -1.3893e+002 -3.8629e+002 -1.3456e+001 29730 102732,102810,102784
 2.8000e+000 102931 -9.7753e+001 -2.5405e+002 -4.2186e+001 29730 102628,102810,102654
 2.8000e+000 102908 -1.6256e+001 -1.8131e+002  1.7827e+001 29730 102654,102706,102680
 2.8000e+000 102885 -9.4165e+001 -2.0954e+002 -7.6627e+001 29730 102732,102784,102758
 2.8000e+000 102862 -6.8630e+001 -2.3069e+002 -7.8623e+001 29730 102628,102836,102810
 2.8000e+000 103049 -3.6956e+001 -2.6391e+002 -1.6759e+001 29730 102732,102706,103023
 2.8000e+000 103072 -6.3802e+001 -2.2650e+002 -3.6657e+001 29730 102732,103023,102810
 2.8000e+000 103222  3.0412e+001 -1.7781e+002 -2.0495e+001 29226 103095,103147,103121
 2.8000e+000 103199  4.2383e+000 -1.9062e+002 -1.4578e+001 29226 103095,103173,103147
 2.8000e+000 103730 -7.7016e+000 -1.6322e+002 -1.0621e+001 28822 103537,103589,103563
 2.8000e+000 103707 -4.1961e+001 -1.9952e+002  6.1245e+000 28822 103433,103589,103537
 2.8000e+000 103684 -5.4177e+001 -1.8115e+002 -3.3716e+001 28822 103433,103537,103459
 2.8000e+000 103661 -1.5640e+001 -1.9007e+002  1.6064e+001 28822 103407,103589,103433
 2.8000e+000 103638 -4.7763e+001 -8.9754e+001  1.7345e+001 28822 103459,103511,103485
 2.8000e+000 103615 -4.4184e+001 -8.6822e+001  1.6068e+001 28822 103459,103537,103511
 2.8000e+000 103880  3.7499e+001 -1.5603e+002  1.7623e+001 28368 103975,103903,103779
 2.8000e+000 103857  4.1181e+001 -1.9112e+002 -1.2339e+001 28368 103903,103753,103831
 2.8000e+000 103929  2.9781e+001 -1.5701e+002  1.3343e+001 28368 103805,103779,103903
 2.8000e+000 103952  6.6410e+001 -1.8762e+002  2.7198e-001 28368 104105,103903,103831
 2.8000e+000 104001  1.2147e+001 -1.7957e+002 -5.8839e+000 28368 103753,103903,103975
 2.8000e+000 104131  1.1641e+001 -1.9486e+002  2.5820e+001 28368 103805,103903,104105
 2.8000e+000 104539 -4.1153e+000 -8.4185e+001  6.0213e+000 28028 104562,104340,104314
 2.8000e+000 104516 -1.7808e+001 -6.6948e+001  1.9341e+001 28028 104634,104562,104314
 2.8000e+000 104493 -3.2255e+001 -9.1201e+001 -1.8383e+001 28028 104762,104366,104340
 2.8000e+000 104470 -2.3409e+001 -8.6307e+001 -3.4196e+001 28028 104366,104418,104392
 2.8000e+000 104588 -2.8070e+001 -1.0184e+002 -7.4265e+000 28028 104762,104340,104562
 2.8000e+000 104611 -2.7965e+001 -6.0406e+001 -1.6158e+000 28028 104418,104562,104444
 2.8000e+000 104660 -4.8224e+001 -6.7625e+001  9.3556e+000 28028 104444,104562,104634
 2.8000e+000 104788 -3.2665e+001 -7.6249e+001 -1.5605e+001 28028 104418,104366,104762
 2.8000e+000 104811 -2.4735e+001 -8.1616e+001 -4.1256e+000 28028 104418,104762,104562
 2.8000e+000 105010 -2.5635e+001 -1.3478e+002 -1.7308e+001 27324 105033,104886,104860
 2.8000e+000 104987  4.9955e+001 -8.8699e+001  2.2032e+001 27324 105033,104860,104834
 2.8000e+000 104964  2.3058e+001 -7.5007e+001  2.5030e+001 27324 105105,104912,104886
 2.8000e+000 105059  1.6686e+001 -7.8049e+001  2.2993e+001 27324 105105,104886,105033
 2.8000e+000 105082  2.7777e+001 -6.9156e+001  4.8901e+001 27324 104938,105033,104834
 2.8000e+000 105131  4.1993e+001 -7.7832e+001  3.4724e+001 27324 104938,104912,105105
 2.8000e+000 105154  2.9601e+001 -8.9727e+001  2.9621e+001 27324 104938,105105,105033
 2.8000e+000 105402 -7.6743e+001 -1.4362e+002 -7.5607e+000 27012 105229,105281,105255
 2.8000e+000 105379 -4.5849e+001 -1.1335e+002 -2.0016e+001 27012 105229,105307,105281
 2.8000e+000 105356 -1.6686e+001 -1.0245e+002 -1.5104e+001 27012 105177,105307,105229
 2.8000e+000 105333 -6.4222e+001 -1.0468e+002 -6.9082e+001 27012 105177,105229,105203
 2.8000e+000 105603  2.2406e+001 -1.9716e+001  2.3505e+001 26508 105626,105453,105427
 2.8000e+000 105580  2.0356e+001 -2.4549e+001  2.4391e+001 26508 105626,105427,105505
 2.8000e+000 105557  2.4708e+000 -7.0678e+000  1.1175e+001 26508 105427,105531,105505
 2.8000e+000 105652  2.0746e+001 -2.0532e+001  2.6186e+001 26508 105479,105453,105626
 2.8000e+000 105675  1.9772e+001 -2.2514e+001  2.6959e+001 26508 105479,105626,105505
 2.8000e+000 106057 -3.5655e+001 -1.5150e+002  7.5487e+001 25947 106080,105887,105861
 2.8000e+000 106034 -2.1548e+001 -1.3027e+002  5.6405e+001 25947 106080,105861,105783
 2.8000e+000 106011 -2.9521e+001 -9.5414e+001  5.2644e+001 25947 105783,105835,105809
 2.8000e+000 105988 -4.8421e+001 -1.1002e+002  6.0267e+001 25947 105783,105861,105835
 2.8000e+000 105965  2.6466e+000 -9.8605e+001  3.7875e+001 25947 105887,105939,105913
 2.8000e+000 106106 -2.9579e+001 -1.4121e+002  5.5988e+001 25947 105939,105887,106080
 2.8000e+000 106129  3.0055e+000 -1.0066e+002  3.3694e+001 25947 105939,106080,105783
 2.8000e+000 106714 -6.5112e+001 -1.1083e+002  1.1526e+001 25557 106809,106737,106547
 2.8000e+000 106691 -7.2474e+001 -1.5958e+002  3.1144e+001 25557 106737,106417,106391
 2.8000e+000 106668 -4.8292e+001 -9.7343e+001  5.6253e+000 25557 106809,106547,106495
 2.8000e+000 106645 -8.0809e+001 -2.4181e+002  5.1834e+001 25557 106417,106495,106469
 2.8000e+000 106622 -7.2112e+001 -1.0129e+002  1.2526e+001 25557 106495,106547,106521
 2.8000e+000 106599 -9.3494e+001 -1.9379e+002  5.1003e+001 25557 106417,106469,106443
 2.8000e+000 106763 -9.1958e+001 -1.4117e+002  2.5942e+001 25557 106573,106547,106737
 2.8000e+000 106786 -5.6352e+001 -1.2564e+002  2.3093e+001 25557 106573,106737,106391
 2.8000e+000 106835 -4.2740e+001 -1.3684e+002  1.8656e+001 25557 106417,106737,106809
 2.8000e+000 106858 -2.9395e+001 -1.2202e+002  1.2921e+001 25557 106417,106809,106495
 2.8000e+000 107364 -2.2353e+001 -1.0009e+002 -2.7138e+001 25153 107459,107387,107171
 2.8000e+000 107341 -4.9414e+000 -9.2986e+001 -1.6257e+001 25153 107387,107119,107067
 2.8000e+000 107318 -1.8369e+001 -7.0442e+001  1.7279e+000 25153 107459,107171,107145
 2.8000e+000 107295 -2.8472e+001 -1.1022e+002 -3.8805e+001 25153 107531,107223,107197
 2.8000e+000 107272 -2.0213e+001 -9.9732e+001  1.7963e+001 25153 107067,107119,107093
 2.8000e+000 107249 -2.1666e+001 -9.5212e+001 -1.9181e+001 25153 107041,107223,107067
 2.8000e+000 107413 -6.3304e+001 -1.1304e+002 -2.8708e+001 25153 107197,107171,107387
 2.8000e+000 107436 -1.6274e+001 -1.1007e+002 -3.1657e+001 25153 107531,107197,107387
 2.8000e+000 107485 -3.5586e+000 -4.9602e+001 -7.5767e+000 25153 107119,107387,107459
 2.8000e+000 107508  1.2473e+001 -2.1210e+001  2.5302e+001 25153 107119,107459,107145
 2.8000e+000 107557 -3.3821e+001 -1.0170e+002 -2.3716e+001 25153 107067,107223,107531
 2.8000e+000 107580 -1.7014e+001 -9.4205e+001 -1.5724e+001 25153 107067,107531,107387
 2.8000e+000 107958 -2.7856e+001 -1.5559e+002 -1.6791e+001 24741 107736,107814,107788
 2.8000e+000 107935 -5.6654e+001 -1.8923e+002 -4.1922e+001 24741 107736,107840,107814
 2.8000e+000 107912 -7.7655e+001 -1.9564e+002 -5.3140e+001 24741 107684,107840,107736
 2.8000e+000 107889 -4.8758e+001 -1.2890e+002 -2.5276e+001 24741 107736,107788,107762
 2.8000e+000 107866 -8.3719e+001 -2.4610e+002 -7.7616e+001 24741 107684,107736,107710
 2.8000e+000 108157 -2.2869e+001 -6.4323e+001  1.3816e+001 24237 108180,108059,108007
 2.8000e+000 108134 -5.0322e+000 -4.1706e+001  2.9452e+001 24237 108180,108007,107981
 2.8000e+000 108111  1.4845e+001 -9.1782e+001  1.3266e+001 24237 108007,108059,108033
 2.8000e+000 108206 -1.1461e+001 -4.6010e+001  3.1893e+001 24237 108085,108059,108180
 2.8000e+000 108229  5.4888e+000 -2.3806e+001  4.7376e+001 24237 108085,108180,107981
 2.8000e+000 108658 -3.7191e+001 -1.5548e+002  8.4677e+000 23776 108361,108413,108387
 2.8000e+000 108635 -4.0977e+001 -1.9769e+002 -2.8924e+001 23776 108753,108681,108361
 2.8000e+000 108612 -1.7202e+001 -1.3214e+002 -2.9272e+001 23776 108681,108465,108439
 2.8000e+000 108589 -2.7488e+000 -2.1159e+002 -5.3698e+000 23776 108753,108361,108335
 2.8000e+000 108566 -2.3539e+001 -1.8173e+002  8.3445e+001 23776 108335,108517,108465
 2.8000e+000 108543 -1.8624e+001 -2.2638e+002  9.1359e+001 23776 108465,108517,108491
 2.8000e+000 108707 -5.6544e+001 -1.4233e+002 -2.3403e+001 23776 108413,108361,108681
 2.8000e+000 108730 -3.2684e+001 -1.2169e+002 -1.3680e+001 23776 108413,108681,108439
 2.8000e+000 108779 -4.4613e+000 -1.2804e+002 -1.5058e+001 23776 108465,108681,108753
 2.8000e+000 108802  7.2212e+000 -1.8533e+002 -1.9458e+000 23776 108465,108753,108335
 2.8000e+000 109023  5.7012e+001 -4.4184e+001  2.5879e+001 23414 108873,108925,108899
 2.8000e+000 109000  5.0436e+000 -6.3494e+001  2.4110e+001 23414 108847,108925,108873
 2.8000e+000 108977  4.7640e+001  2.3106e+001  6.2572e+000 23414 108847,108951,108925
 2.8000e+000 109474 -1.7897e+001 -1.1533e+002  1.1664e+001 23024 109151,109307,109177
 2.8000e+000 109451 -7.8651e+000 -7.5272e+001  4.7646e+000 23024 109151,109333,109307
 2.8000e+000 109428 -1.8033e+001 -2.4998e+002 -9.0973e+000 23024 109177,109281,109203
 2.8000e+000 109405 -8.5956e+001 -2.1056e+002 -3.7760e+001 23024 109177,109307,109281
 2.8000e+000 109382 -3.1647e-001 -1.7803e+002  3.3643e+001 23024 109203,109281,109229
 2.8000e+000 109359 -4.4227e+001 -1.7234e+002  6.0729e+000 23024 109229,109281,109255
 2.8000e+000 109820 -1.8626e+001 -1.3902e+002  2.1260e+001 22506 109843,109601,109523
 2.8000e+000 109797  3.4894e+000 -1.2387e+002  1.4613e+001 22506 109843,109523,109497
 2.8000e+000 109774  8.0369e+000 -1.4897e+002  1.5148e+001 22506 109915,109653,109627
 2.8000e+000 109751 -8.2234e+000 -1.1126e+002  2.3067e+001 22506 109497,109679,109653
 2.8000e+000 109728 -3.5696e+001 -1.8330e+002 -3.1256e+001 22506 109523,109601,109575
 2.8000e+000 109705 -8.9806e+001 -2.4054e+002 -5.5128e+001 22506 109523,109575,109549
 2.8000e+000 109869  8.8688e+000 -1.2909e+002  2.5901e+001 22506 109627,109601,109843
 2.8000e+000 109892  1.4109e+001 -1.3952e+002  2.0921e+001 22506 109915,109627,109843
 2.8000e+000 109941 -1.2606e-001 -1.4238e+002  9.5048e+000 22506 109497,109653,109915
 2.8000e+000 109964  5.6599e-001 -1.4233e+002  1.3731e+001 22506 109497,109915,109843
 2.8000e+000 110163 -2.7388e+001 -1.2249e+002  5.7463e+000 21936 110186,110039,110013
 2.8000e+000 110140 -2.0326e+001 -1.0323e+002  1.6537e+001 21936 110390,110186,110013
 2.8000e+000 110117 -1.0712e+001 -1.1696e+002  2.6845e+001 21936 110390,110013,109987
 2.8000e+000 110212 -7.4903e+000 -8.7857e+001 -2.4652e+001 21936 110065,110039,110186
 2.8000e+000 110235 -2.2871e+001 -8.0119e+001  6.6170e+000 21936 110258,110186,110091
 2.8000e+000 110284 -8.3683e+001 -1.2430e+002 -1.3043e+001 21936 110065,110186,110258
 2.8000e+000 110416 -4.1689e+001 -1.1405e+002  2.1353e+001 21936 110091,110186,110390
 2.8000e+000 110439 -2.6953e+001 -1.2446e+002  3.0342e+001 21936 110091,110390,109987
 2.8000e+000 110709 -1.0649e+000 -1.5564e+002  4.5366e+000 21338 110510,110614,110588
 2.8000e+000 110686 -3.5688e+001 -2.1758e+002 -1.3273e+001 21338 110484,110614,110510
 2.8000e+000 110663  5.4376e+000 -6.0567e+001  2.3794e-001 21338 110510,110562,110536
 2.8000e+000 110640 -3.6279e+001 -1.5986e+002 -5.6730e+000 21338 110510,110588,110562
 2.8000e+000 111296  1.8762e+001 -1.0366e+002  1.3127e+001 20934 111025,111155,111103
 2.8000e+000 111273 -1.4784e+001 -3.0723e+002  6.3007e+000 20934 110999,111155,111025
 2.8000e+000 111250 -3.5333e-001 -1.0613e+002 -8.9218e+000 20934 111103,111155,111129
 2.8000e+000 111227 -3.9561e+001 -2.0903e+002 -3.1812e+001 20934 111051,111103,111077
 2.8000e+000 111204 -5.5737e+001 -2.1651e+002 -1.9544e+001 20934 111025,111103,111051
 2.8000e+000 111181 -4.8568e+001 -3.7485e+002 -8.1435e+000 20934 110973,111155,110999
 2.8000e+000 111930 -7.5665e+001 -1.1823e+002 -3.0941e+001 20494 111662,111714,111688
 2.8000e+000 111907 -3.0544e+001 -1.0141e+002 -2.1155e+001 20494 111584,111714,111662
 2.8000e+000 111884 -2.7143e+001 -1.0019e+002 -2.1634e+001 20494 111584,111766,111714
 2.8000e+000 111861 -5.9938e-001 -2.0639e+002  1.7302e+001 20494 111584,111636,111610
 2.8000e+000 111838 -4.7203e+001 -1.4336e+002 -1.6635e+001 20494 111584,111662,111636
 2.8000e+000 111815 -3.8044e+000 -6.5951e+001  1.5667e+001 20494 111558,111766,111584
 2.8000e+000 111792 -4.3018e+001 -1.1510e+002  1.5278e+001 20494 111714,111766,111740
 2.8000e+000 112249 -5.3226e+001 -2.9953e+002  2.3214e+001 19940 111975,112053,112001
 2.8000e+000 112226  5.8699e-001 -1.9688e+002  1.9573e+000 19940 111975,112131,112053
 2.8000e+000 112203  3.7969e+001 -2.6509e+002  0.0000e+000 19940 112053,112105,112079
 2.8000e+000 112180 -3.8032e+001 -2.8311e+002 -5.8301e+000 19940 112053,112131,112105
 2.8000e+000 112157 -4.2516e+000 -2.5488e+002 -6.2731e+000 19940 112001,112053,112027
 2.8000e+000 112757  3.4121e+001 -1.4267e+002 -4.2227e+001 19486 112780,112538,112486
 2.8000e+000 112734  2.7001e+001 -1.5432e+002 -1.5109e+001 19486 112780,112486,112460
 2.8000e+000 112711 -1.1224e+001 -1.3028e+002 -1.5576e+001 19486 112852,112616,112590
 2.8000e+000 112688  1.3801e+002 -2.0729e+002 -5.7012e+001 19486 112486,112538,112512
 2.8000e+000 112665 -4.3144e+001 -1.8047e+002  1.3014e+001 19486 112434,112616,112460
 2.8000e+000 112642 -8.0960e+000 -1.2420e+002 -2.8420e+001 19486 112538,112590,112564
 2.8000e+000 112806  1.2011e+001 -1.5438e+002 -3.5843e+001 19486 112590,112538,112780
 2.8000e+000 112829  3.1476e+001 -1.4043e+002 -2.4189e+001 19486 112852,112590,112780
 2.8000e+000 112878 -3.9351e+001 -1.4154e+002 -4.0330e+000 19486 112460,112616,112852
 2.8000e+000 112901 -1.4182e+001 -1.6795e+002 -8.2982e+000 19486 112460,112852,112780
 2.8000e+000 113252 -1.2259e+002 -2.3729e+002 -6.9325e+000 19096 113105,113157,113131
 2.8000e+000 113229 -1.0458e+002 -1.7358e+002 -1.5418e+000 19096 113053,113157,113105
 2.8000e+000 113206 -8.8915e+001 -1.6279e+002  3.9132e+000 19096 113027,113157,113053
 2.8000e+000 113183 -1.5247e+002 -2.7027e+002  1.4661e+001 19096 113053,113105,113079
 2.8000e+000 113451 -3.2833e+001 -1.6651e+002 -9.6583e+000 18642 113327,113379,113353
 2.8000e+000 113428 -6.1060e+001 -2.2800e+002 -1.6759e+001 18642 113301,113379,113327
 2.8000e+000 113405 -3.3683e+000 -2.0097e+002 -4.1266e+000 18642 113275,113379,113301
 2.8000e+000 113699 -6.9597e-001 -2.0205e+002 -1.9156e+000 18138 113474,113552,113526
 2.8000e+000 113676  3.8418e+001 -2.0775e+002 -2.1631e+001 18138 113474,113578,113552
 2.8000e+000 113653  2.9878e+001 -1.9657e+002 -1.9052e+001 18138 113474,113604,113578
 2.8000e+000 113630  4.3346e+001 -1.7927e+002  2.2046e+001 18138 113474,113526,113500
 2.8000e+000 113851 -2.0193e+001 -2.3813e+002 -1.8554e+000 17682 113750,113802,113776
 2.8000e+000 113828  1.7863e+000 -2.2290e+002  4.7860e+000 17682 113724,113802,113750
 2.8000e+000 114383  1.0206e+001 -1.6364e+002 -1.4982e+001 17106 114086,114242,114164
 2.8000e+000 114360 -6.8151e+001 -1.9523e+002  5.3391e+000 17106 114060,114242,114086
 2.8000e+000 114337 -7.9908e+001 -3.1805e+002  3.0598e+001 17106 114086,114164,114138
 2.8000e+000 114314 -8.3332e+001 -4.6966e+002 -1.2565e+001 17106 114190,114242,114216
 2.8000e+000 114291 -5.3386e+001 -3.4116e+002 -3.0749e+001 17106 114164,114242,114190
 2.8000e+000 114268 -3.1737e+001 -2.9660e+002  6.6763e+001 17106 114086,114138,114112
 2.8000e+000 114680 -7.3473e+001 -2.0838e+002 -3.3320e+000 16766 114703,114432,114406
 2.8000e+000 114657 -7.7455e+001 -2.1463e+002 -5.0852e+000 16766 114703,114406,114510
 2.8000e+000 114634 -6.6152e+001 -1.6073e+002  5.0689e-001 16766 114406,114536,114510
 2.8000e+000 114611 -6.0325e+001 -2.2536e+002 -1.1446e+001 16766 114432,114484,114458
 2.8000e+000 114588 -7.5806e+001 -1.8555e+002  5.2947e+001 16766 114406,114562,114536
 2.8000e+000 114729 -5.9398e+001 -2.1266e+002  4.1006e+000 16766 114484,114432,114703
 2.8000e+000 114752 -6.9667e+001 -2.2486e+002 -4.2562e-001 16766 114484,114703,114510
 2.8000e+000 114902  1.4197e+001 -2.9914e+002 -3.7244e+001 16362 114775,114827,114801
 2.8000e+000 114879  4.2135e+001 -2.7521e+002 -4.7432e+001 16362 114775,114853,114827
 2.8000e+000 115054 -3.2692e+002 -5.2256e+002 -1.2734e+001 15908 114953,115005,114979
 2.8000e+000 115031 -3.0839e+002 -5.3776e+002 -7.0438e+000 15908 114927,115005,114953
 2.8000e+000 115326 -1.5821e+001 -1.7429e+002  4.7738e+001 15251 115101,115179,115153
 2.8000e+000 115303 -3.5244e+000 -1.5484e+002 -6.1359e+000 15251 115101,115231,115179
 2.8000e+000 115280 -8.9243e+000 -1.6721e+002 -4.9884e+000 15251 115179,115231,115205
 2.8000e+000 115257 -1.1356e+002 -5.3835e+002  4.6997e+001 15251 115101,115153,115127
 2.8000e+000 115429 -5.8398e+001 -2.3900e+002  4.3783e+001 421 115351,115403,115377
 2.9000e+000 66230 -3.7555e+001  3.6751e+001  1.3092e+001 65954 66152,66204,66178
 2.9000e+000 66429 -7.3843e+000 -2.0002e+001  5.1995e-001 65642 66279,66331,66305
 2.9000e+000 66406 -8.6055e+000 -1.4532e+001  4.8874e+000 65642 66279,66357,66331
 2.9000e+000 66383  7.9608e+000  3.1924e+001 -1.0336e+001 65642 66253,66357,66279
 2.9000e+000 66628 -6.0616e+000 -7.9502e+001  1.8402e+001 65444 66452,66530,66478
 2.9000e+000 66605  1.6222e+001 -1.1883e+002  4.2717e+000 65444 66452,66556,66530
 2.9000e+000 66582 -9.1623e+000 -1.0664e+002  2.3070e+001 65444 66478,66530,66504
 2.9000e+000 67006 -3.2803e+000 -7.2220e+001  7.1120e-001 65246 66732,66810,66758
 2.9000e+000 66983 -6.1722e-001 -4.1988e+001  8.3908e+000 65246 66732,66836,66810
 2.9000e+000 66960 -5.0090e+000 -4.3785e+001  2.1479e+000 65246 66732,66862,66836
 2.9000e+000 66937 -4.9925e-001 -6.6009e+001 -1.2334e-001 65246 66758,66810,66784
 2.9000e+000 66914  6.7196e+000 -1.3066e+002 -3.6232e+001 65246 66732,66888,66862
 2.9000e+000 67107  4.9199e+001 -4.8944e+001 -1.7207e+001 64934 67029,67081,67055
 2.9000e+000 67306 -1.1777e+001 -4.2879e+001  1.7860e+001 64736 67156,67208,67182
 2.9000e+000 67283 -2.3552e-001 -3.1584e+001  1.3291e+001 64736 67130,67208,67156
 2.9000e+000 67260  3.0022e+000 -9.7113e+001  1.8471e+001 64736 67130,67234,67208
 2.9000e+000 67507 -5.8964e+000 -7.6975e+001 -1.4344e+001 64389 67357,67409,67383
 2.9000e+000 67484 -8.9924e+000 -8.2281e+001 -1.5788e+001 64389 67357,67435,67409
 2.9000e+000 67461  7.9742e+000 -1.1224e+002 -8.4319e+000 64389 67331,67435,67357
 2.9000e+000 67708  4.0770e+001 -9.7963e+001  2.0599e+001 63985 67731,67584,67558
 2.9000e+000 67685  1.4410e+001 -1.9072e+001  6.4808e+000 63985 67731,67558,67636
 2.9000e+000 67662 -4.9886e+000 -2.5501e+001  7.0260e+000 63985 67532,67636,67558
 2.9000e+000 67757  2.9507e+001 -1.3879e+002  1.6098e+001 63985 67610,67584,67731
 2.9000e+000 67780 -1.1651e+001 -8.2313e+001 -1.7369e+000 63985 67610,67731,67636
 2.9000e+000 67981  4.5596e+000 -5.9921e+000  1.4929e+000 63787 67857,67909,67883
 2.9000e+000 67958 -2.1969e+000 -1.1089e+001  3.7195e+000 63787 67831,67909,67857
 2.9000e+000 67935 -1.4859e+001 -7.9364e+000 -5.5699e+000 63787 67805,67909,67831
 2.9000e+000 68231 -9.2776e+000 -1.2979e+002  1.0975e+001 63589 68254,68084,68032
 2.9000e+000 68208 -8.5054e+000 -5.9240e+001  1.1424e+001 63589 68254,68032,68006
 2.9000e+000 68185 -1.5770e+000 -3.8357e+001  1.5052e+001 63589 68326,68136,68110
 2.9000e+000 68162 -2.0539e+000 -1.1816e+002 -1.4046e+001 63589 68032,68084,68058
 2.9000e+000 68280 -5.4323e+000 -6.6657e+001  1.3436e+001 63589 68110,68084,68254
 2.9000e+000 68303 -1.0994e+001 -4.2189e+001  2.4636e+001 63589 68326,68110,68254
 2.9000e+000 68352  1.4149e+001 -1.5262e+001 -1.0308e+001 63589 68006,68136,68326
 2.9000e+000 68375 -3.6534e+000 -2.7103e+001  3.5690e-001 63589 68006,68326,68254
 2.9000e+000 68836  6.5631e-001 -4.3751e+000  3.1830e+000 63128 68859,68588,68562
 2.9000e+000 68813 -9.1504e+000 -2.8698e+001  2.6268e+001 63128 68859,68562,68692
 2.9000e+000 68790  1.5820e+001 -4.4829e+001  4.8041e+000 63128 68614,68692,68666
 2.9000e+000 68767 -2.5948e+001 -3.5259e+001  2.2248e+001 63128 68562,68718,68692
 2.9000e+000 68744  1.8363e+001 -4.6787e+001 -4.6113e+001 63128 68614,68666,68640
 2.9000e+000 68885  1.5167e+001  2.9499e+001 -1.3722e+001 63128 68614,68588,68859
 2.9000e+000 68908  3.8575e+000 -1.7120e+000  8.9099e+000 63128 68614,68859,68692
 2.9000e+000 69237  8.1501e+000 -5.3521e+001  1.1063e+001 62731 69064,69116,69090
 2.9000e+000 69214 -7.2273e+000 -9.0964e+001  1.1229e+000 62731 69064,69142,69116
 2.9000e+000 69191 -1.5789e+001 -9.7949e+001  6.2341e+000 62731 69038,69142,69064
 2.9000e+000 69168 -1.1060e+001 -1.3854e+002  4.5996e+000 62731 69012,69142,69038
 2.9000e+000 69539 -3.2052e-001  1.9779e+001 -6.3268e+000 62433 69389,69467,69441
 2.9000e+000 69516  7.6716e+000 -1.5652e+001 -4.6240e-001 62433 69363,69467,69389
 2.9000e+000 69493  1.7192e+000 -2.1312e+001  1.9752e+001 62433 69389,69441,69415
 2.9000e+000 69966  1.8200e+000 -5.7951e+001  1.3754e+001 62235 69989,69773,69721
 2.9000e+000 69943  4.2812e+000 -9.7953e+001 -2.5025e+001 62235 70061,69989,69721
 2.9000e+000 69920  1.4279e+001 -1.1038e+002 -1.8089e+001 62235 70061,69721,69643
 2.9000e+000 69897  6.0046e-001 -4.4540e-001  3.3107e-001 62235 69721,69773,69747
 2.9000e+000 69874 -6.8999e+001 -3.0973e+002 -9.5383e+000 62235 69643,69721,69695
 2.9000e+000 69851  8.8785e+001  2.4595e+002 -4.0793e+001 62235 69643,69695,69669
 2.9000e+000 70015 -6.6902e+000 -1.0144e+002 -4.0817e+000 62235 69799,69773,69989
 2.9000e+000 70038 -4.1667e+001 -1.2860e+002 -4.9786e+001 62235 69799,69989,69825
 2.9000e+000 70087 -1.8075e+001 -1.0584e+002 -1.8970e+001 62235 69825,69989,70061
 2.9000e+000 70110  1.4444e+000 -1.1051e+002 -1.6325e+001 62235 69825,70061,69643
 2.9000e+000 70260  2.1897e+001 -3.6416e+001  5.6012e+000 62037 70133,70185,70159
 2.9000e+000 70237 -3.3722e+000 -5.6031e+001 -8.3923e+000 62037 70133,70211,70185
 2.9000e+000 70640  3.8148e+000 -6.7933e+001  2.6912e+001 61583 70735,70663,70418
 2.9000e+000 70617 -4.5653e+001 -8.3101e+001  1.3996e+001 61583 70663,70366,70522
 2.9000e+000 70594  1.6472e+001 -5.8448e+001  4.2829e+001 61583 70735,70418,70392
 2.9000e+000 70571 -1.3355e+001 -1.0718e+002  1.7505e+001 61583 70418,70496,70444
 2.9000e+000 70548 -4.5983e+001 -5.4934e+001  1.5395e+001 61583 70444,70496,70470
 2.9000e+000 70689 -3.6461e+001 -1.1632e+002  9.6483e+000 61583 70496,70418,70663
 2.9000e+000 70712 -5.4100e+001 -7.1748e+001  1.2590e+001 61583 70496,70663,70522
 2.9000e+000 70761 -3.9064e+001 -7.8841e+001  1.1724e+000 61583 70366,70663,70735
 2.9000e+000 70784 -1.2918e+001 -6.3476e+001  1.7136e+001 61583 70366,70735,70392
 2.9000e+000 71054 -9.6056e-001 -7.6363e+000 -1.0681e+000 61313 71077,70881,70855
 2.9000e+000 71031 -6.6085e-001 -1.2691e+001  2.0915e+000 61313 71077,70855,70829
 2.9000e+000 71008 -5.2754e+000 -1.9654e+001  1.0249e+000 61313 70829,70959,70933
 2.9000e+000 70985 -1.9012e+000 -1.6266e+001 -1.4767e+000 61313 70881,70933,70907
 2.9000e+000 71103 -4.4022e+000 -1.0923e+001  1.0238e+000 61313 70933,70881,71077
 2.9000e+000 71126 -2.2294e+000 -1.4128e+001  3.8996e+000 61313 70933,71077,70829
 2.9000e+000 71604 -7.9628e+000 -1.0102e+002  7.2972e+000 60909 71627,71232,71414
 2.9000e+000 71581 -3.5814e+001 -8.7538e+001 -1.6595e+001 60909 71232,71440,71414
 2.9000e+000 71558  1.4689e+000 -8.0029e+001  1.2050e+001 60909 71627,71414,71336
 2.9000e+000 71535  2.2415e+001 -1.7422e+002  3.1577e+001 60909 71362,71414,71388
 2.9000e+000 71512 -1.5923e+001 -1.3450e+002  1.1847e+000 60909 71336,71414,71362
 2.9000e+000 71489  1.8288e+001 -5.0964e+001 -1.5943e+000 60909 71258,71336,71310
 2.9000e+000 71466 -3.7726e+001 -7.8610e+001  8.0893e+000 60909 71258,71310,71284
 2.9000e+000 71653 -8.0544e+000 -8.0991e+001  1.0548e+001 60909 71258,71232,71627
 2.9000e+000 71676 -6.5952e+000 -7.0576e+001  1.4047e+001 60909 71258,71627,71336
 2.9000e+000 71875 -1.3659e+001 -2.1124e+001  1.3169e+001 60611 71898,71725,71699
 2.9000e+000 71852 -1.6456e+001 -1.9138e+001  1.5068e+001 60611 71898,71699,71803
 2.9000e+000 71829  1.3167e+000  3.4049e+000  2.3761e+000 60611 71970,71751,71725
 2.9000e+000 71924 -3.9587e+000 -1.2565e+001  7.4789e+000 60611 71970,71725,71898
 2.9000e+000 71947 -1.7110e+001 -3.7639e+001  1.1017e+001 60611 71777,71898,71803
 2.9000e+000 71996 -4.1023e+000 -1.6249e+001  8.1698e+000 60611 71777,71751,71970
 2.9000e+000 72019 -8.5776e+000 -2.4620e+001  1.4706e+001 60611 71777,71970,71898
 2.9000e+000 72576  1.4406e+001 -1.9442e+002  3.3302e+001 60142 72599,72256,72230
 2.9000e+000 72553  3.6104e+001 -1.0268e+002  4.1200e+001 60142 72671,72599,72230
 2.9000e+000 72530 -1.1880e+001 -5.4077e+001 -1.0196e+000 60142 72671,72230,72204
 2.9000e+000 72507 -3.3671e+001 -5.1075e+001  2.3331e+001 60142 72743,72360,72334
 2.9000e+000 72484 -4.8095e+001 -7.5823e+001  3.4708e+000 60142 72815,72282,72256
 2.9000e+000 72461  2.3030e+001 -1.7668e+001  4.8794e+001 60142 72887,72308,72282
 2.9000e+000 72438 -2.5527e+001 -1.7094e+002 -1.7945e+001 60142 72204,72412,72386
 2.9000e+000 72625 -5.0559e+001 -1.5187e+002 -2.3856e+001 60142 72815,72256,72599
 2.9000e+000 72648 -1.5905e+001 -8.8995e+001  1.6556e+001 60142 72743,72334,72599
 2.9000e+000 72697 -6.4140e+000 -1.7384e+002  2.2696e+001 60142 72386,72599,72671
 2.9000e+000 72720 -4.2627e+001 -1.2033e+002 -9.6579e+000 60142 72386,72671,72204
 2.9000e+000 72769  1.9239e+001 -8.0181e+001  9.6784e+001 60142 72386,72360,72743
 2.9000e+000 72792  6.3657e+000 -1.6454e+002  5.3697e+001 60142 72386,72743,72599
 2.9000e+000 72841 -2.4792e+001 -4.0947e+001  2.1697e+001 60142 72887,72282,72815
 2.9000e+000 72864 -1.7922e+001 -8.4592e+001  4.8030e+000 60142 72334,72815,72599
 2.9000e+000 72913 -4.3194e+001 -5.4488e+001  2.3591e+001 60142 72334,72308,72887
 2.9000e+000 72936 -6.4747e+001 -6.5269e+001 -2.0191e+000 60142 72334,72887,72815
 2.9000e+000 73491 -2.1465e+001 -1.6027e+002 -3.0426e+001 59738 73145,73327,73171
 2.9000e+000 73468  1.3319e+001 -1.1529e+002 -1.5214e+001 59738 73119,73327,73145
 2.9000e+000 73445 -1.3153e+001 -7.0006e+001  2.4523e+000 59738 73171,73327,73301
 2.9000e+000 73422  1.8098e+001 -8.5889e+001  2.9208e+000 59738 73514,73275,73249
 2.9000e+000 73399 -1.0277e+001 -7.0298e+001  2.3404e+000 59738 73586,73514,73249
 2.9000e+000 73376 -2.6097e+000 -1.9652e+001  1.9673e+001 59738 73197,73249,73223
 2.9000e+000 73353 -1.8197e+000 -6.6158e+001  6.8083e-001 59738 73586,73249,73197
 2.9000e+000 73540 -1.0376e+001 -1.2523e+002 -1.3202e+001 59738 73301,73275,73514
 2.9000e+000 73563 -1.5496e+001 -8.2337e+001  2.0369e+000 59738 73301,73514,73171
 2.9000e+000 73612 -7.1828e+000 -7.2541e+001  1.0279e+001 59738 73171,73514,73586
 2.9000e+000 73635 -4.3662e+000 -7.0536e+001  9.0073e+000 59738 73171,73586,73197
 2.9000e+000 73964 -1.1280e+000 -1.4466e+002 -4.8582e+000 59334 73791,73843,73817
 2.9000e+000 73941 -7.0080e+000 -1.6062e+002 -1.2324e+001 59334 73791,73869,73843
 2.9000e+000 73918 -3.5267e+001 -2.2797e+002 -9.1413e+000 59334 73739,73869,73791
 2.9000e+000 73895  1.3153e+001 -2.5300e+002 -9.6180e+000 59334 73739,73791,73765
 2.9000e+000 74261 -9.3609e+000 -1.0167e+002  3.2955e+001 58630 74065,74117,74091
 2.9000e+000 74238 -7.5250e-001 -9.1950e+001  5.6843e+000 58630 74356,74284,74065
 2.9000e+000 74215 -4.1681e+000 -4.1089e+001  4.1522e+000 58630 74284,74013,73987
 2.9000e+000 74192 -1.1935e+000 -8.7399e+001 -4.0109e+000 58630 74356,74065,74039
 2.9000e+000 74169 -7.8209e+000 -5.1093e+001  5.6236e+000 58630 73987,74143,74117
 2.9000e+000 74310  4.8387e+000 -1.1994e+002  9.2720e+000 58630 74117,74065,74284
 2.9000e+000 74333 -2.0920e+001 -7.6365e+001 -4.8801e+000 58630 74117,74284,73987
 2.9000e+000 74382  1.6321e+001 -9.1844e+001 -1.5112e+000 58630 74013,74284,74356
 2.9000e+000 74405  1.6978e+001 -8.5937e+001 -1.1370e+001 58630 74013,74356,74039
 2.9000e+000 74815 -3.1507e+001 -8.6370e+001 -6.4869e+000 58226 74590,74642,74616
 2.9000e+000 74792 -3.0087e+001 -1.2415e+002 -1.4376e+001 58226 74590,74694,74642
 2.9000e+000 74769  6.9012e+000 -2.0228e+002  2.5169e+001 58226 74590,74720,74694
 2.9000e+000 74746 -2.2191e+001 -7.2993e+001 -9.5533e+000 58226 74642,74694,74668
 2.9000e+000 75014  5.7579e+000 -9.2917e+001 -5.2034e+000 57786 75037,74864,74838
 2.9000e+000 74991 -5.9817e+000 -5.2324e+001  1.6113e+001 57786 75037,74838,74916
 2.9000e+000 74968 -3.8320e+000 -3.8943e+001 -5.6068e+000 57786 74838,74942,74916
 2.9000e+000 75063 -1.6424e+001 -1.3070e+002 -1.8525e+001 57786 74890,74864,75037
 2.9000e+000 75086 -2.1172e+001 -8.3479e+001  4.7885e+000 57786 74890,75037,74916
 2.9000e+000 75368 -2.3123e+001 -3.3656e+001  9.4825e+000 57496 75192,75270,75218
 2.9000e+000 75345  2.8788e+001 -9.2737e+000  1.6110e+001 57496 75192,75296,75270
 2.9000e+000 75322 -4.7351e+000 -3.3896e+001  2.3122e+001 57496 75218,75270,75244
 2.9000e+000 75648 -6.4039e-001 -7.5127e+001 -8.5824e+000 57206 75472,75550,75498
 2.9000e+000 75625  2.1060e+001 -5.4160e+001 -1.9674e+001 57206 75472,75576,75550
 2.9000e+000 75602  3.4617e+000 -3.3577e+000 -3.3780e+000 57206 75671,75550,75524
 2.9000e+000 75697  7.6758e+000 -7.0966e+001 -1.8126e+001 57206 75498,75550,75671
 2.9000e+000 76154 -5.0528e+000 -7.1340e+001  3.3101e+000 56802 75958,76010,75984
 2.9000e+000 76131 -5.3306e+000 -4.5624e+001  7.0728e+000 56802 75932,76010,75958
 2.9000e+000 76108 -8.8476e+000 -8.2893e+001  2.2004e+001 56802 75906,76010,75932
 2.9000e+000 76085 -9.2062e+000 -2.1926e+001  2.6875e+001 56802 75880,76010,75906
 2.9000e+000 76062  1.1068e+001 -2.2303e+001  1.0730e+000 56802 75880,76036,76010
 2.9000e+000 76505 -4.0073e+000  4.4360e-001  3.0115e+000 56504 76306,76384,76332
 2.9000e+000 76482  2.7808e+000  2.0448e+000  2.2079e+000 56504 76306,76410,76384
 2.9000e+000 76459 -8.7616e+000 -2.4626e+000  1.7929e+000 56504 76332,76384,76358
 2.9000e+000 76436  6.7314e-001  4.6959e-001  1.3662e+000 56504 76280,76410,76306
 2.9000e+000 77011  2.6322e+001 -3.4881e+001 -2.9301e+001 56050 76740,76818,76792
 2.9000e+000 76988  4.5751e+000 -4.4003e+001 -2.9397e+001 56050 76714,76818,76740
 2.9000e+000 76965 -3.6629e+000 -3.3096e+001 -2.9573e+001 56050 76688,76818,76714
 2.9000e+000 76942  8.1329e+000 -9.3703e+000 -2.5689e+001 56050 76688,76844,76818
 2.9000e+000 76919  3.6394e+000 -4.8475e+001 -2.1637e+001 56050 76740,76792,76766
 2.9000e+000 76896  9.9545e-001  2.7447e+001 -3.4265e+000 56050 76688,76870,76844
 2.9000e+000 77517 -3.9191e+001 -6.4456e+001  1.1977e+001 55738 77220,77350,77324
 2.9000e+000 77494 -9.0338e+000 -7.6464e+001 -5.7503e+000 55738 77220,77376,77350
 2.9000e+000 77471  2.9799e+000 -4.9914e+001 -2.5157e+000 55738 77194,77376,77220
 2.9000e+000 77448 -1.0268e+001 -3.9107e+001  4.9603e+000 55738 77220,77298,77246
 2.9000e+000 77425 -1.8181e+001 -5.3504e+001  8.0292e+000 55738 77220,77324,77298
 2.9000e+000 77402 -2.6986e+001 -3.8950e+001  6.7781e+001 55738 77246,77298,77272
 2.9000e+000 78064  1.5319e+001 -1.8189e+002 -5.0655e+000 55227 78231,78087,77773
 2.9000e+000 78041 -3.5494e+001 -3.0825e+002  1.6485e+001 55227 78087,77695,77643
 2.9000e+000 78018 -3.1790e+001 -2.3505e+002 -1.6761e+001 55227 78159,77799,77773
 2.9000e+000 77995 -1.4470e+001 -1.1675e+002  1.0388e+001 55227 78231,77773,77721
 2.9000e+000 77972 -7.2585e+001 -9.4453e+001  6.7651e+001 55227 77643,77695,77669
 2.9000e+000 77949 -5.2258e+001 -1.3302e+002  8.1079e+000 55227 77643,77877,77851
 2.9000e+000 77926 -6.2135e+001 -2.5561e+002  4.4761e+001 55227 77799,77851,77825
 2.9000e+000 77903 -6.7838e+000 -6.4161e+001 -2.2575e+001 55227 77721,77773,77747
 2.9000e+000 78113 -1.0171e+001 -2.4118e+002 -6.5086e+000 55227 78159,77773,78087
 2.9000e+000 78136  2.2705e+001 -1.7211e+002  2.9108e+001 55227 77851,78087,77643
 2.9000e+000 78185 -7.3557e+001 -2.3379e+002 -1.4551e+001 55227 77851,77799,78159
 2.9000e+000 78208 -5.1568e+001 -2.4048e+002 -6.0422e+000 55227 77851,78159,78087
 2.9000e+000 78257 -8.8105e+000 -2.6047e+002 -3.2993e+001 55227 77695,78087,78231
 2.9000e+000 78280 -4.4149e+001 -1.9133e+002 -2.4581e+001 55227 77695,78231,77721
 2.9000e+000 78737 -7.1845e+000 -3.7502e+001 -1.8702e+001 54773 78463,78541,78515
 2.9000e+000 78714 -2.8861e+001 -8.5000e+001 -1.7907e+000 54773 78463,78619,78541
 2.9000e+000 78691  4.7921e-001 -1.2838e+001 -1.5392e+000 54773 78463,78515,78489
 2.9000e+000 78668 -3.4286e+001 -3.8141e+001 -1.6698e+001 54773 78541,78593,78567
 2.9000e+000 78645 -7.5202e+000 -5.8099e+001 -2.4809e+001 54773 78541,78619,78593
 2.9000e+000 78838 -7.5350e+000 -4.1891e+001 -4.3322e-001 54211 78760,78812,78786
 2.9000e+000 79297 -8.0249e+000 -9.9789e+001  6.7045e+000 53814 79520,79153,79049
 2.9000e+000 79274 -4.6534e+000 -1.0178e+002  1.0657e+001 53814 79520,79049,79023
 2.9000e+000 79251 -4.0333e+001 -1.9472e+002  3.2598e+001 53814 79320,79101,79049
 2.9000e+000 79228 -6.0181e-001 -9.8942e+001  4.5596e+000 53814 79320,79049,79153
 2.9000e+000 79205 -4.0905e+001 -1.4539e+002  4.2965e+001 53814 79049,79101,79075
 2.9000e+000 79346 -1.3269e+001 -7.1683e+001 -3.2546e+001 53814 79392,79320,79127
 2.9000e+000 79369 -1.3164e+001 -1.0203e+002 -3.4654e+001 53814 79127,79320,79153
 2.9000e+000 79418 -3.8058e+000 -1.7430e+002 -4.7883e+001 53814 79101,79320,79392
 2.9000e+000 79546 -6.9010e+000 -9.6629e+001  8.6184e+000 53814 79179,79153,79520
 2.9000e+000 79569 -5.6246e-001 -9.7150e+001  1.2882e+001 53814 79179,79520,79023
 2.9000e+000 80075 -3.7221e+001 -5.7470e+000  2.4615e+001 53039 80098,79908,79830
 2.9000e+000 80052 -4.7718e+001 -6.4028e+000 -5.1380e+000 53039 80098,79830,79804
 2.9000e+000 80029 -5.3874e-001  5.5757e+000  5.2325e+000 53039 79752,79934,79804
 2.9000e+000 80006  5.7900e+000 -4.6763e+001  3.3386e+001 53039 79856,79908,79882
 2.9000e+000 79983  3.2661e+001 -9.9227e+001  2.8630e+001 53039 79830,79908,79856
 2.9000e+000 79960 -8.8205e+000  9.6596e+000 -5.5648e+000 53039 79752,79804,79778
 2.9000e+000 80124  1.0150e+001  1.9592e+001  3.5532e+001 53039 79934,79908,80098
 2.9000e+000 80147 -2.7074e+001  5.4200e+000  3.7750e+000 53039 79934,80098,79804
 2.9000e+000 80555 -1.1951e+001 -6.4452e+001  1.3872e+000 52699 80356,80434,80408
 2.9000e+000 80532 -3.0029e+000 -8.9423e+001  4.6402e+000 52699 80356,80460,80434
 2.9000e+000 80509 -2.0256e+001 -9.5208e+001  4.1174e+000 52699 80330,80460,80356
 2.9000e+000 80486 -5.2611e+001 -1.0960e+002  3.0873e+001 52699 80356,80408,80382
 2.9000e+000 80776 -5.8298e-001 -4.6427e+000  6.3506e+000 52295 80600,80678,80626
 2.9000e+000 80753  2.5584e+001  7.0488e+000  1.0173e+000 52295 80600,80704,80678
 2.9000e+000 80730  4.2476e+001  1.3758e+001  7.0513e+000 52295 80626,80678,80652
 2.9000e+000 81156 -3.8068e+001 -1.2975e+002  3.2826e+001 51891 81179,80960,80908
 2.9000e+000 81133 -2.3773e+001 -1.0582e+002  1.1707e+000 51891 81179,80908,81012
 2.9000e+000 81110 -4.4858e+001 -1.2415e+002  9.3421e+000 51891 80882,81012,80908
 2.9000e+000 81087 -5.7236e+000 -1.9114e+002  2.8186e+001 51891 80908,80960,80934
 2.9000e+000 81064  2.2790e+000 -8.1451e+000  8.6888e+000 51891 80882,81038,81012
 2.9000e+000 81205  7.6371e-001 -1.2068e+002  1.7661e+001 51891 80986,80960,81179
 2.9000e+000 81228 -8.3717e+000 -1.0280e+002 -1.3793e+001 51891 80986,81179,81012
 2.9000e+000 81606 -1.1395e+001 -2.7754e+002 -8.4413e+001 51544 81410,81462,81436
 2.9000e+000 81583  8.0220e+000 -1.2677e+002 -1.7992e+001 51544 81384,81462,81410
 2.9000e+000 81560 -3.3288e+001 -1.3670e+002 -3.1115e+001 51544 81358,81462,81384
 2.9000e+000 81537  2.8539e+000 -1.2678e+002 -2.1855e+001 51544 81358,81488,81462
 2.9000e+000 81514  2.9076e+001  1.8154e+001 -1.5713e+001 51544 81332,81488,81358
 2.9000e+000 81854  3.8460e+000 -1.2011e+002 -2.0449e+000 51004 81877,81655,81629
 2.9000e+000 81831  1.7492e-003 -1.0402e+002 -4.5977e+000 51004 81877,81629,81759
 2.9000e+000 81808 -3.4289e+000 -6.7403e+001  4.2867e+001 51004 81655,81707,81681
 2.9000e+000 81785 -3.5188e+001 -1.7318e+002 -4.1113e-001 51004 81707,81759,81733
 2.9000e+000 81903  1.9242e+000 -1.2536e+002 -2.8575e+000 51004 81707,81655,81877
 2.9000e+000 81926 -9.9936e+000 -1.2096e+002 -8.8857e+000 51004 81707,81877,81759
 2.9000e+000 82257 -3.1930e+001 -1.0441e+002 -7.8210e+000 50642 82058,82136,82110
 2.9000e+000 82234 -2.8006e+001 -7.9001e+001 -1.5798e+001 50642 82058,82162,82136
 2.9000e+000 82211 -4.6349e+001 -1.2308e+002  1.3998e+001 50642 82058,82110,82084
 2.9000e+000 82188 -4.3485e+001 -8.5219e+001 -2.1335e+001 50642 82032,82162,82058
 2.9000e+000 82684  2.4221e+001 -1.7680e+002  2.2104e+001 49931 82779,82707,82465
 2.9000e+000 82661 -2.1906e+001 -2.1949e+002  3.8035e+001 49931 82707,82413,82361
 2.9000e+000 82638 -4.8900e+000 -1.6289e+002 -4.6521e+001 49931 82779,82465,82439
 2.9000e+000 82615 -2.1827e+001 -3.1739e+002  3.7424e+001 49931 82465,82543,82491
 2.9000e+000 82592 -2.0141e+001 -1.4587e+002  3.8886e-001 49931 82361,82413,82387
 2.9000e+000 82569 -2.3981e+000 -2.2979e+002  2.5748e+001 49931 82491,82543,82517
 2.9000e+000 82733  2.5332e+001 -2.0726e+002  2.8877e+001 49931 82543,82465,82707
 2.9000e+000 82756  6.9502e-001 -1.6742e+002  2.8900e+001 49931 82543,82707,82361
 2.9000e+000 82805 -1.9084e+001 -2.7271e+002  4.7516e+000 49931 82413,82707,82779
 2.9000e+000 82828 -3.5488e+001 -2.4514e+002 -6.0180e+001 49931 82413,82779,82439
 2.9000e+000 83255 -4.9482e+001 -2.7633e+002 -3.0487e+001 49327 82984,83114,83036
 2.9000e+000 83232 -6.1843e+001 -2.9934e+002 -6.6055e+001 49327 82958,83114,82984
 2.9000e+000 83209 -4.0287e+001 -3.3383e+002 -1.2351e+001 49327 83036,83114,83088
 2.9000e+000 83186 -8.8960e+001 -2.2343e+002  9.1858e+000 49327 82984,83036,83010
 2.9000e+000 83163 -5.5884e+001 -2.8271e+002 -5.7616e+001 49327 82932,83114,82958
 2.9000e+000 83140 -1.1124e+002 -5.4842e+002 -4.1281e+000 49327 83036,83088,83062
 2.9000e+000 83938 -6.4077e+001 -3.5467e+002  7.4961e+001 48965 83961,83673,83647
 2.9000e+000 83915  8.8946e+000 -1.5557e+002  6.6235e+001 48965 83961,83647,83543
 2.9000e+000 83892 -5.0144e+001 -1.7824e+002 -5.2523e+001 48965 83517,83725,83543
 2.9000e+000 83869 -5.6157e+001 -2.2242e+002 -4.3724e+001 48965 83673,83725,83699
 2.9000e+000 83846 -4.3129e+001 -9.1038e+001 -8.4355e+000 48965 83543,83647,83621
 2.9000e+000 83823 -2.0008e+001 -1.1971e+002 -1.8422e+001 48965 83543,83621,83569
 2.9000e+000 83800 -5.5466e+000 -1.4325e+002  3.3386e+000 48965 83517,83751,83725
 2.9000e+000 83777 -7.2381e+000 -1.0039e+002  1.6342e+001 48965 83569,83621,83595
 2.9000e+000 83987 -2.4673e+001 -3.1083e+002 -5.3026e+001 48965 83725,83673,83961
 2.9000e+000 84010  6.2013e+000 -2.3753e+002 -3.7036e+001 48965 83725,83961,83543
 2.9000e+000 84258 -3.5571e+001 -2.4219e+002  3.3979e+001 48447 84281,84059,84033
 2.9000e+000 84235 -1.9646e+001 -1.9764e+002  4.4492e-001 48447 84281,84033,84163
 2.9000e+000 84212  1.0172e+001 -1.9505e+002 -1.5434e+001 48447 84059,84111,84085
 2.9000e+000 84189  2.0597e+001 -1.8327e+002 -3.4647e+001 48447 84111,84163,84137
 2.9000e+000 84307 -6.6408e+000 -2.3057e+002 -1.7954e+000 48447 84111,84059,84281
 2.9000e+000 84330  2.1951e+001 -1.9989e+002 -3.4053e+001 48447 84111,84281,84163
 2.9000e+000 84529  1.9479e+001 -1.5615e+002 -1.1426e+001 47993 84552,84405,84379
 2.9000e+000 84506 -4.8674e+001 -1.7702e+002 -6.0335e+000 47993 84552,84379,84353
 2.9000e+000 84483  1.3672e+001 -1.6436e+002 -1.2464e+001 47993 84624,84457,84431
 2.9000e+000 84578  3.4651e+001 -1.6098e+002 -3.0133e+001 47993 84431,84405,84552
 2.9000e+000 84601  1.3647e+001 -1.6177e+002 -1.4066e+001 47993 84624,84431,84552
 2.9000e+000 84650  1.3441e+001 -1.6608e+002 -1.2341e+001 47993 84353,84457,84624
 2.9000e+000 84673  1.1769e+001 -1.6669e+002 -1.4475e+001 47993 84353,84624,84552
 2.9000e+000 85104 -4.9096e+001 -2.3105e+002 -2.5118e+001 47588 85199,85127,84885
 2.9000e+000 85081 -3.4016e+001 -2.4529e+002 -2.9778e+001 47588 85127,84781,84963
 2.9000e+000 85058 -7.8087e+001 -2.2519e+002  7.3261e+000 47588 85199,84885,84807
 2.9000e+000 85035 -2.7554e+001 -1.5576e+002  7.3942e+001 47588 84885,84937,84911
 2.9000e+000 85012 -4.1622e+001 -1.4193e+002 -2.1152e+001 47588 84807,84885,84833
 2.9000e+000 84989 -1.8210e+001 -1.3123e+002 -8.5240e+000 47588 84833,84885,84859
 2.9000e+000 85153 -4.2113e+001 -2.7382e+002 -5.0141e+000 47588 84937,84885,85127
 2.9000e+000 85176  4.8745e+001 -2.4872e+002 -6.0657e+000 47588 84937,85127,84963
 2.9000e+000 85225 -1.0342e+002 -2.5059e+002 -2.2440e+001 47588 84781,85127,85199
 2.9000e+000 85248 -1.2245e+002 -2.4413e+002  1.4466e+001 47588 84781,85199,84807
 2.9000e+000 85518 -4.7245e+001 -3.1643e+002  5.0426e+001 47226 85293,85397,85319
 2.9000e+000 85495 -3.2988e+001 -2.8619e+002  2.5116e+001 47226 85293,85423,85397
 2.9000e+000 85472 -1.8332e+001 -3.2950e+002 -8.6925e+000 47226 85319,85397,85345
 2.9000e+000 85449  2.7444e+001 -9.6144e+001 -1.3085e+001 47226 85345,85397,85371
 2.9000e+000 85849 -2.5845e+001 -2.0469e+002  3.6300e+001 46572 85624,85702,85650
 2.9000e+000 85826 -2.3759e+001 -2.8869e+002 -1.8326e+001 46572 85624,85754,85702
 2.9000e+000 85803  1.7579e+001 -1.7988e+002  1.1183e+001 46572 85702,85754,85728
 2.9000e+000 85780 -1.3214e+001 -1.9811e+002  3.2463e+001 46572 85650,85702,85676
 2.9000e+000 86070 -1.8510e+002 -3.0671e+002 -7.7865e+000 46374 85920,85972,85946
 2.9000e+000 86047 -1.3999e+002 -1.9998e+002  1.0119e-001 46374 85920,85998,85972
 2.9000e+000 86024 -8.9202e+001 -1.7059e+002  3.1895e+001 46374 85894,85998,85920
 2.9000e+000 86401 -5.7876e+000 -1.9629e+002  2.0994e+000 46034 86424,86280,86228
 2.9000e+000 86378 -4.4631e+001 -1.9356e+002 -1.0653e+000 46034 86424,86228,86176
 2.9000e+000 86355 -5.8062e+001 -1.7306e+002 -4.6368e+001 46034 86176,86228,86202
 2.9000e+000 86332  4.1625e+001 -1.7520e+002 -3.5866e+001 46034 86228,86280,86254
 2.9000e+000 86450  6.4997e+001 -2.0318e+002 -1.4485e+001 46034 86306,86280,86424
 2.9000e+000 86473 -9.9191e+000 -2.2602e+002 -2.0832e+001 46034 86306,86424,86176
 2.9000e+000 87058 -1.8990e+000 -1.5858e+002  7.7057e+000 45516 86813,86917,86865
 2.9000e+000 87035 -2.7667e+001 -2.1873e+002  1.0063e+001 45516 86787,86917,86813
 2.9000e+000 87012 -2.6254e+001 -2.5816e+002  1.5114e+001 45516 86735,86917,86787
 2.9000e+000 86989  3.4945e+000 -1.4468e+002  1.8249e+000 45516 86865,86917,86891
 2.9000e+000 86966  4.4041e+000 -1.4702e+002  1.1031e+001 45516 86813,86865,86839
 2.9000e+000 86943 -2.1794e+001 -3.0633e+002 -8.0397e+000 45516 86735,86787,86761
 2.9000e+000 87208  3.1928e+001 -1.3132e+002 -1.5155e+001 45226 87231,87133,87107
 2.9000e+000 87185 -1.0895e+001 -1.1130e+002  1.6048e+001 45226 87081,87159,87133
 2.9000e+000 87257  3.7179e+001 -2.3091e+001 -2.0946e+001 45226 87081,87133,87231
 2.9000e+000 87537  2.9627e+001 -2.2999e+002  4.7672e+001 44772 87387,87439,87413
 2.9000e+000 87514 -3.6019e+001 -2.4717e+002  3.1832e+001 44772 87361,87439,87387
 2.9000e+000 87491 -2.5276e+000 -1.8236e+002  1.3311e+001 44772 87361,87465,87439
 2.9000e+000 87996 -9.2279e+000 -5.0137e+001 -5.9519e+000 44425 87748,87878,87852
 2.9000e+000 87973 -2.6673e-001 -4.6617e+001  6.1652e-001 44425 87722,87878,87748
 2.9000e+000 87950  3.0083e+000 -8.8969e+001 -1.9447e+001 44425 87800,87852,87826
 2.9000e+000 87927 -1.1175e+001 -7.4734e+001  1.3409e+000 44425 87748,87852,87800
 2.9000e+000 87904 -1.2366e+001 -1.0241e+002  6.6306e+000 44425 87748,87800,87774
 2.9000e+000 88423 -1.2434e+001 -1.8092e+002  5.9493e+000 44078 88590,88230,88204
 2.9000e+000 88400 -1.3542e+001 -1.3369e+002  1.9423e+001 44078 88518,88446,88204
 2.9000e+000 88377 -1.4658e+001 -1.9235e+002 -2.1993e+001 44078 88446,88126,88282
 2.9000e+000 88354 -3.6570e+001 -1.0599e+002  2.8175e+000 44078 88518,88204,88178
 2.9000e+000 88331 -1.4785e+001 -2.2617e+002 -1.9698e+001 44078 88100,88282,88126
 2.9000e+000 88308 -2.3709e+001 -1.0654e+002  4.3515e+001 44078 88126,88178,88152
 2.9000e+000 88472 -1.6607e+001 -1.9167e+002  9.5819e+000 44078 88590,88204,88446
 2.9000e+000 88495 -3.2632e+001 -2.6725e+002 -3.7785e+001 44078 88256,88446,88282
 2.9000e+000 88544 -2.8001e+001 -1.9572e+002  1.4571e+001 44078 88126,88446,88518
 2.9000e+000 88567 -3.2124e+001 -1.4092e+002  2.3214e+000 44078 88126,88518,88178
 2.9000e+000 88616 -1.0579e+002 -3.6749e+002 -3.6635e+001 44078 88256,88230,88590
 2.9000e+000 88639 -1.5123e+001 -1.8702e+002 -4.2152e+000 44078 88256,88590,88446
 2.9000e+000 89039  5.2179e-001 -6.9727e+001  5.6219e+000 43716 88791,88921,88895
 2.9000e+000 89016 -1.0278e+001 -6.6161e+001  4.3018e+000 43716 88765,88921,88791
 2.9000e+000 88993  5.7977e+000 -7.8294e+001  1.5507e+001 43716 88817,88895,88869
 2.9000e+000 88970 -3.8357e+001 -9.0330e+001  1.3435e+001 43716 88791,88895,88817
 2.9000e+000 88947 -2.6419e+001 -7.6848e+001  3.9304e+000 43716 88817,88869,88843
 2.9000e+000 89496  5.7878e+000 -2.3722e+002 -2.3321e+001 43162 89519,89274,89248
 2.9000e+000 89473  1.0005e+001 -2.0587e+002 -1.7194e+001 43162 89519,89248,89222
 2.9000e+000 89450 -8.4148e+000 -1.8588e+002 -7.7480e+001 43162 89326,89378,89352
 2.9000e+000 89427 -1.3771e+001 -2.3906e+002 -3.2460e+001 43162 89274,89378,89326
 2.9000e+000 89404  6.0897e-001 -1.6953e+002 -1.5453e+001 43162 89274,89326,89300
 2.9000e+000 89545  4.0248e+000 -2.0914e+002 -1.6315e+001 43162 89378,89274,89519
 2.9000e+000 89568  1.0105e+001 -1.7549e+002 -9.8239e+000 43162 89378,89519,89222
 2.9000e+000 89946 -1.3236e+001 -1.9592e+002 -5.0888e+001 42594 90041,89969,89750
 2.9000e+000 89923 -1.1307e+001 -1.4967e+002 -2.2000e+001 42594 89969,89698,89828
 2.9000e+000 89900 -4.2232e+000 -2.0737e+002 -4.5879e+001 42594 90041,89750,89724
 2.9000e+000 89877 -3.2220e+001 -1.5543e+002 -6.9546e+001 42594 89750,89802,89776
 2.9000e+000 89854  1.3349e+001 -6.4182e+001 -1.6901e+001 42594 89672,89828,89698
 2.9000e+000 89995 -1.4830e+001 -1.5441e+002 -4.4519e+001 42594 89802,89750,89969
 2.9000e+000 90018 -3.7821e-001 -1.0240e+002 -4.0995e+000 42594 89802,89969,89828
 2.9000e+000 90067 -9.5469e+000 -1.5081e+002 -4.7681e+001 42594 89698,89969,90041
 2.9000e+000 90090 -2.5919e+001 -1.9313e+002 -3.5244e+001 42594 89698,90041,89724
 2.9000e+000 90517 -3.4122e+001 -2.7252e+002 -6.3759e+000 42140 90540,90220,90194
 2.9000e+000 90494 -1.0235e+001 -2.4415e+002 -1.6753e+001 42140 90540,90194,90376
 2.9000e+000 90471 -4.4529e+001 -2.7856e+002  9.7255e+000 42140 90612,90350,90272
 2.9000e+000 90448 -1.0029e+002 -3.1369e+002 -1.5130e+001 42140 90272,90350,90298
 2.9000e+000 90425 -6.4070e+001 -2.1571e+002 -9.4112e+000 42140 90298,90350,90324
 2.9000e+000 90402 -1.2530e+001 -2.5908e+002  8.8269e+001 42140 90220,90272,90246
 2.9000e+000 90566 -2.7720e+001 -2.5411e+002 -2.5184e+000 42140 90272,90220,90540
 2.9000e+000 90589 -4.2891e+001 -2.7498e+002  4.1410e+000 42140 90612,90272,90540
 2.9000e+000 90638 -3.3488e+001 -2.8822e+002  5.1466e-001 42140 90376,90350,90612
 2.9000e+000 90661 -1.8821e+001 -2.7412e+002 -6.6843e+000 42140 90376,90612,90540
 2.9000e+000 91167 -2.4570e+001 -1.3977e+002 -1.9036e+001 41636 91190,90870,90844
 2.9000e+000 91144 -3.9542e+001 -3.5304e+002 -1.0839e+001 41636 91190,90844,91026
 2.9000e+000 91121 -2.0088e+001 -8.6015e+001 -3.9190e+001 41636 90870,90922,90896
 2.9000e+000 91098 -1.9655e+001 -2.9593e+002  2.5665e+001 41636 90922,91026,90948
 2.9000e+000 91075 -5.2779e+000 -2.2029e+002 -5.0453e+001 41636 90948,91026,91000
 2.9000e+000 91052 -3.1511e+001 -1.0843e+002 -1.9834e+000 41636 90948,91000,90974
 2.9000e+000 91216 -4.9395e+001 -8.0749e+001 -1.6958e+001 41636 90922,90870,91190
 2.9000e+000 91239  3.6203e+001 -1.5430e+002  1.9397e+001 41636 90922,91190,91026
 2.9000e+000 91696 -5.9811e+001 -2.0114e+002 -3.8184e+001 40449 91448,91526,91474
 2.9000e+000 91673 -8.9317e+001 -2.2811e+002 -5.3349e+000 40449 91448,91578,91526
 2.9000e+000 91650 -1.7025e+001 -1.3946e+002 -1.9515e+001 40449 91474,91526,91500
 2.9000e+000 91627 -7.0560e+000 -2.2875e+002 -1.9818e+001 40449 91422,91578,91448
 2.9000e+000 91604 -1.4524e+001 -1.5733e+002 -3.4405e+001 40449 91526,91578,91552
 2.9000e+000 92123 -4.2584e+001 -1.8625e+002 -6.6610e+000 39995 92146,91904,91826
 2.9000e+000 92100 -6.2365e+001 -1.9989e+002 -3.7460e+001 39995 92146,91826,91800
 2.9000e+000 92077 -9.5278e+001 -1.7924e+002 -4.5531e+000 39995 91826,91904,91852
 2.9000e+000 92054 -7.3308e+001 -3.8720e+002 -2.2056e+001 39995 91904,91982,91930
 2.9000e+000 92031 -4.1946e+001 -1.6212e+002 -1.6620e+001 39995 91852,91904,91878
 2.9000e+000 92008 -4.4605e+001 -2.7945e+002 -2.6550e+001 39995 91930,91982,91956
 2.9000e+000 92172 -2.5959e+001 -2.2053e+002 -3.2195e+001 39995 91982,91904,92146
 2.9000e+000 92195 -5.2219e+001 -2.6551e+002 -5.8738e+001 39995 91982,92146,91800
 2.9000e+000 92652  7.6138e+000 -5.3822e+001  2.3068e+001 39633 92404,92534,92456
 2.9000e+000 92629 -1.6858e+001 -8.1775e+001  1.2703e+001 39633 92378,92534,92404
 2.9000e+000 92606 -1.1128e+001 -6.3296e+001  1.2038e+001 39633 92404,92456,92430
 2.9000e+000 92583 -3.9175e+001 -1.8643e+002  2.9035e+001 39633 92456,92534,92508
 2.9000e+000 92560 -3.6605e+001 -6.8780e+001  2.3488e+001 39633 92456,92508,92482
 2.9000e+000 93079  1.7891e+001 -1.2120e+002 -3.8827e+001 39093 93102,92808,92756
 2.9000e+000 93056 -1.3015e+000 -1.4808e+002 -2.1211e+001 39093 93102,92756,92938
 2.9000e+000 93033 -2.5527e+001 -1.3013e+002 -2.2935e+001 39093 93174,92912,92834
 2.9000e+000 93010 -5.0650e+001 -1.5997e+002 -3.6519e+001 39093 92834,92912,92860
 2.9000e+000 92987  1.5559e+001 -1.9819e+002 -5.9333e+001 39093 92756,92808,92782
 2.9000e+000 92964 -4.2869e+001 -1.3083e+002 -2.5879e+001 39093 92860,92912,92886
 2.9000e+000 93128 -4.1136e+000 -6.4773e+001 -4.0756e+001 39093 92834,92808,93102
 2.9000e+000 93151 -2.2250e+001 -1.1888e+002 -2.9833e+001 39093 93174,92834,93102
 2.9000e+000 93200 -1.9212e+001 -1.2386e+002 -3.3199e+001 39093 92938,92912,93174
 2.9000e+000 93223 -9.9840e+000 -1.1631e+002 -4.0252e+001 39093 92938,93174,93102
 2.9000e+000 93680 -1.4184e+001 -4.2413e+001 -7.0239e+000 38639 93703,93536,93484
 2.9000e+000 93657 -1.4733e+001 -5.2645e+001 -5.6595e+000 38639 93703,93484,93432
 2.9000e+000 93634  2.5939e+000 -4.1139e+001 -1.1899e+001 38639 93432,93484,93458
 2.9000e+000 93611 -1.3058e+001 -5.1943e+001 -3.8114e+001 38639 93484,93536,93510
 2.9000e+000 93588 -4.4136e+000 -1.5210e+001  1.4809e+001 38639 93406,93562,93432
 2.9000e+000 93729 -1.7440e+001 -2.0127e+001 -4.5039e+000 38639 93562,93536,93703
 2.9000e+000 93752 -2.9907e+001 -4.5850e+001  2.1303e+000 38639 93562,93703,93432
 2.9000e+000 94160  2.5104e+001 -2.2671e+001 -3.1156e+001 38292 93935,94039,93961
 2.9000e+000 94137  6.5790e-001 -9.6705e+001 -9.5033e+000 38292 93935,94065,94039
 2.9000e+000 94114 -2.9174e+001 -7.4170e+001 -2.6622e+001 38292 93961,94013,93987
 2.9000e+000 94091 -8.9558e+000 -7.5245e+001 -1.5632e+001 38292 93961,94039,94013
 2.9000e+000 94408  3.2896e+001 -1.6137e+002 -3.7253e+000 37880 94431,94261,94235
 2.9000e+000 94385  1.9860e+001 -1.1961e+002 -1.0729e+001 37880 94431,94235,94313
 2.9000e+000 94362 -4.3681e+000 -1.2161e+002  2.0381e+001 37880 94209,94313,94235
 2.9000e+000 94339 -3.4890e+000 -1.1406e+002  1.0170e+001 37880 94183,94313,94209
 2.9000e+000 94457  6.1892e+001 -1.2644e+002 -1.7528e+001 37880 94287,94261,94431
 2.9000e+000 94480  2.5435e+001 -1.0545e+002 -1.5428e+001 37880 94287,94431,94313
 2.9000e+000 94728 -9.5414e+001 -2.8711e+002  1.1497e+001 37426 94529,94607,94555
 2.9000e+000 94705 -1.9910e+001 -3.6402e+002 -2.8106e+001 37426 94529,94633,94607
 2.9000e+000 94682 -2.8937e+001 -3.5528e+002 -2.4392e+001 37426 94503,94633,94529
 2.9000e+000 94659 -4.2786e+001 -1.1535e+002 -7.0448e+001 37426 94555,94607,94581
 2.9000e+000 95257 -9.8321e+000 -1.3987e+002 -1.5470e+001 36722 95496,95280,94862
 2.9000e+000 95234 -4.9819e+001 -1.5628e+002 -1.0394e+001 36722 95496,94862,94836
 2.9000e+000 95211  3.2688e+000 -1.4736e+002 -1.2331e+001 36722 95352,95280,95070
 2.9000e+000 95188 -1.8721e+001 -1.5468e+002  9.9445e+000 36722 95352,95070,95044
 2.9000e+000 95165 -3.8880e+001 -1.7784e+002 -1.1089e+001 36722 95424,94888,94862
 2.9000e+000 95142 -2.6243e+001 -7.8326e+001  2.8224e+001 36722 94914,94966,94940
 2.9000e+000 95119 -7.6841e+001 -2.4938e+002  5.7906e+001 36722 94966,95044,95018
 2.9000e+000 95096 -5.4113e+001 -1.6284e+002  4.5324e+001 36722 94966,95018,94992
 2.9000e+000 95306 -3.3181e+001 -1.4857e+002 -1.2995e+001 36722 95424,94862,95280
 2.9000e+000 95329 -1.5883e+001 -1.0503e+002 -2.1029e+001 36722 94914,95280,94966
 2.9000e+000 95378 -3.6745e+001 -1.5635e+002 -1.6377e+000 36722 94966,95280,95352
 2.9000e+000 95401 -5.3315e+001 -1.4942e+002  1.3918e+001 36722 94966,95352,95044
 2.9000e+000 95450 -3.5401e+001 -1.5909e+002 -2.7673e+001 36722 94914,94888,95424
 2.9000e+000 95473 -3.8013e+001 -1.5928e+002 -2.4448e+001 36722 94914,95424,95280
 2.9000e+000 95522 -4.1905e+000 -1.3990e+002 -1.7847e+001 36722 95070,95280,95496
 2.9000e+000 95545 -6.6452e+000 -1.3637e+002 -1.5386e+001 36722 95070,95496,94836
 2.9000e+000 96130 -2.6066e+001 -5.5537e+001  1.7697e+001 36268 96153,95911,95859
 2.9000e+000 96107 -4.0953e+001 -9.6773e+001  1.1020e+001 36268 96153,95859,95807
 2.9000e+000 96084 -2.7706e+001 -8.0823e+001 -4.4380e+000 36268 95807,95859,95833
 2.9000e+000 96061 -3.0563e+001 -1.9732e+002  2.6779e+001 36268 95911,95989,95937
 2.9000e+000 96038 -2.3463e+001 -5.5535e+001  1.2803e+001 36268 95859,95911,95885
 2.9000e+000 96015 -5.6601e+001 -1.0564e+002 -3.2573e+001 36268 95937,95989,95963
 2.9000e+000 96179  4.5255e+000 -9.5464e+001  2.7741e+001 36268 95989,95911,96153
 2.9000e+000 96202 -1.9123e+001 -1.4966e+002  1.8528e+001 36268 95989,96153,95807
 2.9000e+000 96531 -3.9244e+001 -2.5504e+002  4.0133e+001 35728 96358,96410,96384
 2.9000e+000 96508 -4.6517e+001 -2.2696e+002  2.4878e+001 35728 96332,96410,96358
 2.9000e+000 96485 -6.0620e+001 -2.1259e+002  5.6977e+001 35728 96332,96436,96410
 2.9000e+000 96462 -6.6581e+000 -1.2859e+002 -9.6673e+000 35728 96306,96436,96332
 2.9000e+000 96860 -1.7618e+001 -1.3446e+002 -1.4982e+000 35324 96687,96765,96713
 2.9000e+000 96837 -3.0058e+001 -1.6640e+002 -6.6740e+000 35324 96661,96765,96687
 2.9000e+000 96814 -7.2169e+001 -1.3939e+002 -3.1515e+000 35324 96713,96765,96739
 2.9000e+000 96791  2.9686e+001 -2.5846e+002 -2.3256e+001 35324 96635,96765,96661
 2.9000e+000 97366 -5.6583e+001 -2.3618e+002  2.5828e+001 34920 97389,97069,97043
 2.9000e+000 97343 -5.8506e+001 -2.1273e+002  1.3792e+001 34920 97389,97043,97199
 2.9000e+000 97320 -2.4821e+001 -2.1872e+002 -1.2452e+001 34920 97043,97225,97199
 2.9000e+000 97297 -1.4016e+001 -2.7798e+002  1.7497e+000 34920 97069,97121,97095
 2.9000e+000 97274 -2.1715e+001 -1.5078e+002 -3.0119e+000 34920 97121,97199,97173
 2.9000e+000 97251 -3.8123e+001 -9.7564e+001 -4.8238e+001 34920 97121,97173,97147
 2.9000e+000 97415 -5.8519e+001 -2.3131e+002 -2.3058e+000 34920 97121,97069,97389
 2.9000e+000 97438 -4.0278e+001 -1.7952e+002 -1.5862e+001 34920 97121,97389,97199
 2.9000e+000 97708 -4.1779e+001 -1.7671e+002 -1.0048e+000 34722 97509,97587,97535
 2.9000e+000 97685 -2.0093e+001 -1.7266e+002 -6.1068e+000 34722 97509,97613,97587
 2.9000e+000 97662 -5.2517e+001 -1.8773e+002 -9.9864e+000 34722 97483,97613,97509
 2.9000e+000 97639 -2.6898e+001 -1.5392e+002  3.0595e+001 34722 97535,97587,97561
 2.9000e+000 98216 -3.2728e+001 -2.8106e+002  9.8193e+000 34318 97971,98075,97997
 2.9000e+000 98193  6.5552e+000 -2.1073e+002  2.8050e+001 34318 97893,98075,97971
 2.9000e+000 98170  3.9601e+001 -1.8499e+002  1.2787e+001 34318 97893,97971,97919
 2.9000e+000 98147 -3.2707e+001 -1.6936e+002  4.2674e+001 34318 97997,98075,98049
 2.9000e+000 98124  6.2537e+000 -1.6499e+002  3.8468e-001 34318 97919,97971,97945
 2.9000e+000 98101 -8.3122e+001 -2.7058e+002  8.1615e+001 34318 97997,98049,98023
 2.9000e+000 98594  2.0493e+001 -1.0518e+002 -1.9037e+001 33814 98961,98617,98424
 2.9000e+000 98571  2.2383e+001 -1.2720e+002 -1.2231e+001 33814 98689,98617,98372
 2.9000e+000 98548 -4.4731e+000 -7.8657e+001 -8.9364e+000 33814 99033,98689,98372
 2.9000e+000 98525 -1.9657e+001 -7.7087e+001  2.0587e+001 33814 98761,98476,98450
 2.9000e+000 98502  1.0808e+001 -9.8526e+001 -2.1634e+001 33814 98961,98424,98398
 2.9000e+000 98643 -2.9038e+000 -9.7895e+001  4.1176e+000 33814 98450,98424,98617
 2.9000e+000 98666  1.7844e+001 -7.0541e+001  1.4894e+001 33814 98761,98450,98617
 2.9000e+000 98715 -2.9519e+001 -1.6592e+002 -1.0102e+001 33814 99161,98689,98320
 2.9000e+000 98738 -5.9159e+001 -1.5526e+002 -5.6793e+000 33814 98320,98689,98346
 2.9000e+000 98787 -4.2377e+001 -1.3409e+002  5.7805e+001 33814 98833,98761,98320
 2.9000e+000 98810 -1.5564e+001 -1.7753e+002  1.6972e+001 33814 99161,98320,98761
 2.9000e+000 98859  6.7831e+000 -3.7259e+000  1.5738e+001 33814 98476,98761,98833
 2.9000e+000 98987  3.3240e+001 -1.0120e+002 -2.2760e+001 33814 98372,98617,98961
 2.9000e+000 99010  2.5145e+001 -9.2541e+001 -2.7148e+001 33814 98372,98961,98398
 2.9000e+000 99059 -4.4341e+001 -1.6241e+002 -2.5737e+001 33814 98346,98689,99033
 2.9000e+000 99187 -1.1001e+001 -1.2457e+002 -6.4935e+000 33814 98617,98689,99161
 2.9000e+000 99210  1.4986e+000 -1.4102e+002  2.1905e+001 33814 98617,99161,98761
 2.9000e+000 99588 -5.5213e+001 -1.3106e+002 -3.3980e+001 33566 99366,99444,99392
 2.9000e+000 99565  3.8964e+000 -1.0566e+002 -1.6537e+001 33566 99314,99444,99366
 2.9000e+000 99542 -3.0642e+001 -1.1854e+002  2.1166e+001 33566 99314,99366,99340
 2.9000e+000 99519 -1.0524e+001 -1.3539e+002  1.8342e+001 33566 99314,99470,99444
 2.9000e+000 99496 -4.8926e+001 -6.6618e+001 -1.6694e+001 33566 99392,99444,99418
 2.9000e+000 99787  9.3569e+000 -1.7515e+002  3.1833e+001 33105 99637,99689,99663
 2.9000e+000 99764 -4.5195e+000 -1.6216e+002 -2.5606e-002 33105 99611,99689,99637
 2.9000e+000 99741  1.4688e+001 -5.8084e+001  6.3283e+000 33105 99611,99715,99689
 2.9000e+000 100167 -8.4304e+000 -1.7682e+002  3.2294e+001 32651 100190,99971,99919
 2.9000e+000 100144 -2.3640e+001 -1.7635e+002  3.5745e+001 32651 100262,100190,99919
 2.9000e+000 100121 -2.3289e+001 -1.7840e+002  3.8288e+001 32651 100262,99919,100049
 2.9000e+000 100098  5.6411e+001 -1.4009e+002 -4.9865e+001 32651 99893,100049,99919
 2.9000e+000 100075 -3.6209e-001 -7.7646e+001  2.2677e+001 32651 99919,99971,99945
 2.9000e+000 100216 -2.4672e+001 -1.9109e+002  2.1757e+001 32651 99997,99971,100190
 2.9000e+000 100239 -1.5369e+001 -1.6391e+002  2.2238e+001 32651 99997,100190,100023
 2.9000e+000 100288 -3.0319e+001 -1.6093e+002  3.6512e+001 32651 100023,100190,100262
 2.9000e+000 100311 -4.8444e+001 -1.7421e+002  4.6468e+001 32651 100023,100262,100049
 2.9000e+000 100608 -7.6088e+001 -2.1899e+002 -9.5700e+000 32254 100386,100490,100464
 2.9000e+000 100585 -7.1686e+001 -1.9939e+002 -1.1241e+001 32254 100360,100490,100386
 2.9000e+000 100562 -5.8938e+001 -2.2593e+002 -1.5615e+001 32254 100386,100464,100412
 2.9000e+000 100539 -1.4141e+001 -1.7518e+002 -9.3899e+000 32254 100334,100490,100360
 2.9000e+000 100516 -4.8931e+001 -1.5076e+002 -2.3429e+001 32254 100412,100464,100438
 2.9000e+000 100758 -6.7931e+000 -1.2052e+001  8.7957e+000 31914 100985,100781,100683
 2.9000e+000 100735 -9.6317e+000 -1.8992e+001  9.6214e+000 31914 100853,100781,100657
 2.9000e+000 100807 -1.5072e+001 -1.7016e+001  1.4555e+001 31914 100709,100683,100781
 2.9000e+000 100830 -2.9622e-001 -1.1066e+001  1.3395e+001 31914 100709,100781,100631
 2.9000e+000 100879 -2.6283e+000 -6.3340e+000  6.4811e+000 31914 100631,100781,100853
 2.9000e+000 101011 -1.1657e+001 -2.1317e+001  6.9431e+000 31914 100657,100781,100985
 2.9000e+000 101191  2.3557e-001 -7.9792e+001  3.0371e-002 31418 101113,101165,101139
 2.9000e+000 101341 -7.6442e+001 -2.2511e+002 -1.2564e+001 31106 101214,101266,101240
 2.9000e+000 101318 -4.7598e+001 -1.4325e+002 -2.8653e+000 31106 101214,101292,101266
 2.9000e+000 101591 -6.3499e+001 -1.7531e+002  6.5859e+001 30552 101614,101470,101444
 2.9000e+000 101568 -1.9306e+001 -6.0113e+001  7.8618e+001 30552 101366,101496,101470
 2.9000e+000 101545 -6.0940e+001 -2.5027e+002  4.0255e+001 30552 101614,101444,101392
 2.9000e+000 101522 -1.9863e+001 -1.8761e+002  2.0185e+000 30552 101392,101444,101418
 2.9000e+000 101640 -5.1944e+001 -1.2195e+002  1.1233e+002 30552 101366,101470,101614
 2.9000e+000 101663 -5.0923e+001 -1.9396e+002  8.5081e+001 30552 101366,101614,101392
 2.9000e+000 102301  2.6858e+001 -2.1429e+002  1.2137e+001 30042 102396,102324,102059
 2.9000e+000 102278 -5.7980e+001 -1.7359e+002  2.2072e+000 30042 102324,101981,101955
 2.9000e+000 102255  2.6318e+001 -1.8209e+002  4.6722e+001 30042 102396,102059,102033
 2.9000e+000 102232 -1.5366e+001 -1.2805e+002 -1.2909e+001 30042 101929,102111,101955
 2.9000e+000 102209 -1.0907e+000 -1.7484e+002 -5.3602e+001 30042 102059,102111,102085
 2.9000e+000 102186 -2.6196e+001 -1.3449e+002 -8.2146e+000 30042 101929,102137,102111
 2.9000e+000 102163  1.3125e+001 -2.8631e+001 -4.6671e+001 30042 101981,102033,102007
 2.9000e+000 102350 -3.8443e+001 -2.2101e+002 -3.7243e+001 30042 102111,102059,102324
 2.9000e+000 102373  9.6137e+000 -1.3562e+002 -1.7359e+001 30042 102111,102324,101955
 2.9000e+000 102422  9.9964e+000 -1.1746e+002  2.7775e+001 30042 101981,102324,102396
 2.9000e+000 102445  1.3733e+001 -8.3549e+001  6.4007e+001 30042 101981,102396,102033
 2.9000e+000 103000  6.9933e+000 -2.2890e+002 -1.6499e-001 29730 103023,102706,102654
 2.9000e+000 102977 -4.5693e+001 -2.2108e+002 -2.4277e+001 29730 103023,102654,102810
 2.9000e+000 102954 -1.4298e+002 -4.0168e+002 -1.2540e+001 29730 102732,102810,102784
 2.9000e+000 102931 -7.8005e+001 -2.6480e+002 -4.0551e+001 29730 102628,102810,102654
 2.9000e+000 102908 -3.2429e+000 -1.7472e+002  2.0096e+001 29730 102654,102706,102680
 2.9000e+000 102885 -9.9117e+001 -2.1267e+002 -8.8990e+001 29730 102732,102784,102758
 2.9000e+000 102862 -5.7787e+001 -2.4880e+002 -6.4784e+001 29730 102628,102836,102810
 2.9000e+000 103049 -2.7405e+001 -2.6585e+002 -2.1610e+001 29730 102732,102706,103023
 2.9000e+000 103072 -5.9014e+001 -2.3087e+002 -4.0435e+001 29730 102732,103023,102810
 2.9000e+000 103222  4.6155e+001 -1.8585e+002 -2.0148e+001 29226 103095,103147,103121
 2.9000e+000 103199  1.8736e+001 -1.9195e+002 -1.6803e+001 29226 103095,103173,103147
 2.9000e+000 103730 -2.2843e+001 -1.7063e+002 -8.2547e-001 28822 103537,103589,103563
 2.9000e+000 103707 -3.7035e+001 -2.1336e+002  2.7440e+000 28822 103433,103589,103537
 2.9000e+000 103684 -5.6703e+001 -1.9770e+002 -3.6863e+001 28822 103433,103537,103459
 2.9000e+000 103661 -2.6745e+001 -1.7951e+002  8.5172e+000 28822 103407,103589,103433
 2.9000e+000 103638 -5.8379e+001 -1.0935e+002  2.4806e+001 28822 103459,103511,103485
 2.9000e+000 103615 -5.7859e+001 -9.5164e+001  1.8469e+001 28822 103459,103537,103511
 2.9000e+000 103880  3.8749e+001 -1.7873e+002  3.4273e+001 28368 103975,103903,103779
 2.9000e+000 103857  1.2930e+001 -2.0913e+002  1.4606e+001 28368 103903,103753,103831
 2.9000e+000 103929  9.8512e+000 -1.6574e+002  1.6915e+001 28368 103805,103779,103903
 2.9000e+000 103952 -2.0488e+001 -2.0025e+002 -2.4079e+000 28368 104105,103903,103831
 2.9000e+000 104001  4.7983e+001 -1.9280e+002  2.7434e+000 28368 103753,103903,103975
 2.9000e+000 104131 -3.6558e+001 -1.8884e+002  2.9535e+001 28368 103805,103903,104105
 2.9000e+000 104539  1.5108e+000 -7.9111e+001  6.0914e+000 28028 104562,104340,104314
 2.9000e+000 104516 -1.1386e+001 -6.4430e+001  1.8312e+001 28028 104634,104562,104314
 2.9000e+000 104493 -2.8818e+001 -8.6308e+001 -2.0199e+001 28028 104762,104366,104340
 2.9000e+000 104470 -1.8987e+001 -7.9923e+001 -3.5356e+001 28028 104366,104418,104392
 2.9000e+000 104588 -2.3536e+001 -9.7727e+001 -8.1960e+000 28028 104762,104340,104562
 2.9000e+000 104611 -1.6927e+001 -5.2703e+001 -4.5014e+000 28028 104418,104562,104444
 2.9000e+000 104660 -4.3169e+001 -6.2232e+001  8.0936e+000 28028 104444,104562,104634
 2.9000e+000 104788 -2.8423e+001 -7.0097e+001 -1.7015e+001 28028 104418,104366,104762
 2.9000e+000 104811 -1.9114e+001 -7.5765e+001 -4.3855e+000 28028 104418,104762,104562
 2.9000e+000 105010 -2.3231e+001 -1.3165e+002 -2.1396e+001 27324 105033,104886,104860
 2.9000e+000 104987  6.0660e+001 -8.0711e+001  2.1781e+001 27324 105033,104860,104834
 2.9000e+000 104964  3.2124e+001 -6.2150e+001  2.4805e+001 27324 105105,104912,104886
 2.9000e+000 105059  2.4059e+001 -6.6632e+001  2.2131e+001 27324 105105,104886,105033
 2.9000e+000 105082  3.6243e+001 -6.3941e+001  4.9932e+001 27324 104938,105033,104834
 2.9000e+000 105131  5.7297e+001 -6.6288e+001  3.8063e+001 27324 104938,104912,105105
 2.9000e+000 105154  4.0995e+001 -8.2885e+001  3.1283e+001 27324 104938,105105,105033
 2.9000e+000 105402 -7.3091e+001 -1.4622e+002 -9.4558e+000 27012 105229,105281,105255
 2.9000e+000 105379 -3.9104e+001 -1.1380e+002 -2.2882e+001 27012 105229,105307,105281
 2.9000e+000 105356 -6.0473e+000 -9.7577e+001 -1.5680e+001 27012 105177,105307,105229
 2.9000e+000 105333 -6.3743e+001 -1.0623e+002 -7.8988e+001 27012 105177,105229,105203
 2.9000e+000 105603  2.6539e+001 -1.5977e+001  2.3510e+001 26508 105626,105453,105427
 2.9000e+000 105580  2.6101e+001 -1.7203e+001  2.7663e+001 26508 105626,105427,105505
 2.9000e+000 105557  4.5953e+000  2.3546e+000  1.2664e+001 26508 105427,105531,105505
 2.9000e+000 105652  2.3014e+001 -1.7528e+001  2.4622e+001 26508 105479,105453,105626
 2.9000e+000 105675  2.2195e+001 -1.7947e+001  2.8396e+001 26508 105479,105626,105505
 2.9000e+000 106057 -3.3780e+001 -1.5023e+002  7.7966e+001 25947 106080,105887,105861
 2.9000e+000 106034 -2.0039e+001 -1.2831e+002  6.1442e+001 25947 106080,105861,105783
 2.9000e+000 106011 -2.6408e+001 -9.8444e+001  5.7656e+001 25947 105783,105835,105809
 2.9000e+000 105988 -4.5294e+001 -1.0920e+002  6.5028e+001 25947 105783,105861,105835
 2.9000e+000 105965  5.9249e+000 -1.0196e+002  4.1613e+001 25947 105887,105939,105913
 2.9000e+000 106106 -2.9198e+001 -1.4046e+002  5.8114e+001 25947 105939,105887,106080
 2.9000e+000 106129  1.3626e+000 -9.9649e+001  3.8538e+001 25947 105939,106080,105783
 2.9000e+000 106714 -6.3697e+001 -1.1006e+002  1.4459e+001 25557 106809,106737,106547
 2.9000e+000 106691 -7.4162e+001 -1.6769e+002  3.9688e+001 25557 106737,106417,106391
 2.9000e+000 106668 -4.4949e+001 -9.5431e+001  8.0622e+000 25557 106809,106547,106495
 2.9000e+000 106645 -8.0029e+001 -2.5265e+002  6.0761e+001 25557 106417,106495,106469
 2.9000e+000 106622 -7.0953e+001 -9.9806e+001  1.5489e+001 25557 106495,106547,106521
 2.9000e+000 106599 -9.6707e+001 -1.9720e+002  5.9121e+001 25557 106417,106469,106443
 2.9000e+000 106763 -8.9507e+001 -1.4118e+002  2.7888e+001 25557 106573,106547,106737
 2.9000e+000 106786 -5.4065e+001 -1.2609e+002  2.8335e+001 25557 106573,106737,106391
 2.9000e+000 106835 -3.8823e+001 -1.3814e+002  2.2438e+001 25557 106417,106737,106809
 2.9000e+000 106858 -2.4107e+001 -1.2231e+002  1.6128e+001 25557 106417,106809,106495
 2.9000e+000 107364 -1.9075e+001 -9.7847e+001 -2.8548e+001 25153 107459,107387,107171
 2.9000e+000 107341  5.1471e+000 -8.8292e+001 -1.8549e+001 25153 107387,107119,107067
 2.9000e+000 107318 -1.6203e+001 -6.5183e+001  3.6317e+000 25153 107459,107171,107145
 2.9000e+000 107295 -2.4168e+001 -1.0670e+002 -4.0107e+001 25153 107531,107223,107197
 2.9000e+000 107272 -1.3316e+001 -9.8712e+001  2.0109e+001 25153 107067,107119,107093
 2.9000e+000 107249 -1.7850e+001 -9.3140e+001 -1.8785e+001 25153 107041,107223,107067
 2.9000e+000 107413 -6.1685e+001 -1.0952e+002 -3.2218e+001 25153 107197,107171,107387
 2.9000e+000 107436 -1.0498e+001 -1.0491e+002 -3.4592e+001 25153 107531,107197,107387
 2.9000e+000 107485  2.4976e+000 -4.1037e+001 -9.9958e+000 25153 107119,107387,107459
 2.9000e+000 107508  1.6344e+001 -1.0852e+001  2.6557e+001 25153 107119,107459,107145
 2.9000e+000 107557 -3.0886e+001 -9.9474e+001 -2.3602e+001 25153 107067,107223,107531
 2.9000e+000 107580 -1.2984e+001 -9.1554e+001 -1.7133e+001 25153 107067,107531,107387
 2.9000e+000 107958 -2.3623e+001 -1.5851e+002 -1.9056e+001 24741 107736,107814,107788
 2.9000e+000 107935 -5.4888e+001 -1.9664e+002 -4.8009e+001 24741 107736,107840,107814
 2.9000e+000 107912 -7.8187e+001 -2.0040e+002 -6.0746e+001 24741 107684,107840,107736
 2.9000e+000 107889 -4.6220e+001 -1.2811e+002 -2.8813e+001 24741 107736,107788,107762
 2.9000e+000 107866 -8.5848e+001 -2.4905e+002 -8.1131e+001 24741 107684,107736,107710
 2.9000e+000 108157 -1.9859e+001 -5.8508e+001  1.2390e+001 24237 108180,108059,108007
 2.9000e+000 108134  2.2875e+000 -3.4759e+001  2.7791e+001 24237 108180,108007,107981
 2.9000e+000 108111  1.7514e+001 -8.5470e+001  1.1822e+001 24237 108007,108059,108033
 2.9000e+000 108206 -7.8094e+000 -4.0222e+001  3.3814e+001 24237 108085,108059,108180
 2.9000e+000 108229  1.3285e+001 -1.6973e+001  4.9045e+001 24237 108085,108180,107981
 2.9000e+000 108658 -3.6575e+001 -1.5969e+002  1.1757e+001 23776 108361,108413,108387
 2.9000e+000 108635 -4.1993e+001 -2.0947e+002 -3.2626e+001 23776 108753,108681,108361
 2.9000e+000 108612 -1.6794e+001 -1.3695e+002 -3.1077e+001 23776 108681,108465,108439
 2.9000e+000 108589  2.1595e+000 -2.2484e+002 -5.8469e+000 23776 108753,108361,108335
 2.9000e+000 108566 -1.8823e+001 -1.8855e+002  9.2795e+001 23776 108335,108517,108465
 2.9000e+000 108543 -1.6287e+001 -2.3408e+002  9.9429e+001 23776 108465,108517,108491
 2.9000e+000 108707 -6.0534e+001 -1.4687e+002 -2.6092e+001 23776 108413,108361,108681
 2.9000e+000 108730 -3.2544e+001 -1.2173e+002 -1.4153e+001 23776 108413,108681,108439
 2.9000e+000 108779  1.9899e-001 -1.3103e+002 -1.6308e+001 23776 108465,108681,108753
 2.9000e+000 108802  1.4241e+001 -1.9565e+002 -1.5103e+000 23776 108465,108753,108335
 2.9000e+000 109023  6.7317e+001 -3.9768e+001  2.7568e+001 23414 108873,108925,108899
 2.9000e+000 109000  1.1890e+001 -6.0281e+001  2.5771e+001 23414 108847,108925,108873
 2.9000e+000 108977  5.7805e+001  3.4193e+001  7.7640e+000 23414 108847,108951,108925
 2.9000e+000 109474 -1.0771e+001 -1.1028e+002  1.2311e+001 23024 109151,109307,109177
 2.9000e+000 109451  4.1876e-001 -5.1476e+001  3.3321e+000 23024 109151,109333,109307
 2.9000e+000 109428 -8.8258e+000 -2.5842e+002 -9.2301e+000 23024 109177,109281,109203
 2.9000e+000 109405 -8.0258e+001 -2.1312e+002 -4.1519e+001 23024 109177,109307,109281
 2.9000e+000 109382  1.2271e+001 -1.7917e+002  3.7617e+001 23024 109203,109281,109229
 2.9000e+000 109359 -4.3231e+001 -1.9172e+002  5.0471e+000 23024 109229,109281,109255
 2.9000e+000 109820 -2.4797e+001 -1.4542e+002  2.2997e+001 22506 109843,109601,109523
 2.9000e+000 109797 -9.4732e+000 -1.2783e+002  1.5533e+001 22506 109843,109523,109497
 2.9000e+000 109774 -5.7418e+000 -1.5957e+002  1.2922e+001 22506 109915,109653,109627
 2.9000e+000 109751 -2.4295e+001 -1.2047e+002  1.4165e+001 22506 109497,109679,109653
 2.9000e+000 109728 -3.8670e+001 -1.8195e+002 -2.8542e+001 22506 109523,109601,109575
 2.9000e+000 109705 -9.2818e+001 -2.3975e+002 -5.2410e+001 22506 109523,109575,109549
 2.9000e+000 109869 -1.2156e+000 -1.3393e+002  2.8185e+001 22506 109627,109601,109843
 2.9000e+000 109892  4.2055e+000 -1.4468e+002  2.3032e+001 22506 109915,109627,109843
 2.9000e+000 109941 -2.0024e+001 -1.4962e+002  4.1095e+000 22506 109497,109653,109915
 2.9000e+000 109964 -1.8885e+001 -1.4979e+002  1.1657e+001 22506 109497,109915,109843
 2.9000e+000 110163 -2.2903e+001 -1.2137e+002  5.8922e+000 21936 110186,110039,110013
 2.9000e+000 110140 -1.1449e+001 -1.0090e+002  1.6930e+001 21936 110390,110186,110013
 2.9000e+000 110117  2.4837e+000 -1.1811e+002  3.1278e+001 21936 110390,110013,109987
 2.9000e+000 110212 -2.0117e+000 -8.5309e+001 -2.6724e+001 21936 110065,110039,110186
 2.9000e+000 110235 -2.2392e+001 -7.9983e+001  3.9049e+000 21936 110258,110186,110091
 2.9000e+000 110284 -8.3759e+001 -1.2302e+002 -1.5447e+001 21936 110065,110186,110258
 2.9000e+000 110416 -4.2238e+001 -1.1344e+002  2.2608e+001 21936 110091,110186,110390
 2.9000e+000 110439 -2.1189e+001 -1.2605e+002  3.5227e+001 21936 110091,110390,109987
 2.9000e+000 110709  5.6308e+000 -1.6545e+002  4.7466e+000 21338 110510,110614,110588
 2.9000e+000 110686 -3.0629e+001 -2.2973e+002 -1.3820e+001 21338 110484,110614,110510
 2.9000e+000 110663  1.5843e+001 -5.8660e+001  5.6512e-001 21338 110510,110562,110536
 2.9000e+000 110640 -3.0964e+001 -1.6996e+002 -5.7125e+000 21338 110510,110588,110562
 2.9000e+000 111296  1.9500e+001 -1.0785e+002  1.7456e+001 20934 111025,111155,111103
 2.9000e+000 111273 -1.2993e+001 -3.2636e+002  7.7847e+000 20934 110999,111155,111025
 2.9000e+000 111250 -1.1852e+000 -1.0982e+002 -8.8464e+000 20934 111103,111155,111129
 2.9000e+000 111227 -4.8433e+001 -2.1878e+002 -2.4163e+001 20934 111051,111103,111077
 2.9000e+000 111204 -5.8607e+001 -2.2481e+002 -1.6785e+001 20934 111025,111103,111051
 2.9000e+000 111181 -5.0276e+001 -3.9301e+002 -8.2607e+000 20934 110973,111155,110999
 2.9000e+000 111930 -7.5832e+001 -1.2290e+002 -3.2407e+001 20494 111662,111714,111688
 2.9000e+000 111907 -3.0588e+001 -1.0263e+002 -2.1560e+001 20494 111584,111714,111662
 2.9000e+000 111884 -2.2636e+001 -9.9736e+001 -2.2701e+001 20494 111584,111766,111714
 2.9000e+000 111861  3.6688e+000 -2.1554e+002  1.8599e+001 20494 111584,111636,111610
 2.9000e+000 111838 -4.6279e+001 -1.4677e+002 -1.8067e+001 20494 111584,111662,111636
 2.9000e+000 111815 -1.9233e+000 -6.3263e+001  1.9103e+001 20494 111558,111766,111584
 2.9000e+000 111792 -4.0408e+001 -1.1579e+002  1.9216e+001 20494 111714,111766,111740
 2.9000e+000 112249 -5.2842e+001 -3.1877e+002  2.5457e+001 19940 111975,112053,112001
 2.9000e+000 112226  5.2453e+000 -2.0671e+002  3.2223e+000 19940 111975,112131,112053
 2.9000e+000 112203  4.6525e+001 -2.8014e+002  0.0000e+000 19940 112053,112105,112079
 2.9000e+000 112180 -3.7015e+001 -2.9965e+002 -6.2666e+000 19940 112053,112131,112105
 2.9000e+000 112157  6.5001e-001 -2.6869e+002 -8.1364e+000 19940 112001,112053,112027
 2.9000e+000 112757  3.4499e+001 -1.5107e+002 -4.1698e+001 19486 112780,112538,112486
 2.9000e+000 112734  2.6665e+001 -1.6464e+002 -1.5679e+001 19486 112780,112486,112460
 2.9000e+000 112711 -1.0924e+001 -1.3412e+002 -1.4251e+001 19486 112852,112616,112590
 2.9000e+000 112688  1.3221e+002 -2.1585e+002 -5.7003e+001 19486 112486,112538,112512
 2.9000e+000 112665 -3.9571e+001 -1.8978e+002  1.9050e+001 19486 112434,112616,112460
 2.9000e+000 112642 -1.5348e+001 -1.3385e+002 -2.5755e+001 19486 112538,112590,112564
 2.9000e+000 112806  1.1176e+001 -1.6307e+002 -3.5832e+001 19486 112590,112538,112780
 2.9000e+000 112829  3.1720e+001 -1.4624e+002 -2.3943e+001 19486 112852,112590,112780
 2.9000e+000 112878 -3.8185e+001 -1.4855e+002 -2.9654e+000 19486 112460,112616,112852
 2.9000e+000 112901 -1.2948e+001 -1.7716e+002 -7.8399e+000 19486 112460,112852,112780
 2.9000e+000 113252 -1.3479e+002 -2.4654e+002 -8.3169e+000 19096 113105,113157,113131
 2.9000e+000 113229 -1.1190e+002 -1.7873e+002 -5.9282e-001 19096 113053,113157,113105
 2.9000e+000 113206 -9.5615e+001 -1.6885e+002  3.7971e+000 19096 113027,113157,113053
 2.9000e+000 113183 -1.6024e+002 -2.8151e+002  1.4489e+001 19096 113053,113105,113079
 2.9000e+000 113451 -3.3271e+001 -1.7533e+002 -1.3091e+001 18642 113327,113379,113353
 2.9000e+000 113428 -6.1973e+001 -2.4117e+002 -1.7179e+001 18642 113301,113379,113327
 2.9000e+000 113405  5.4270e-001 -2.1199e+002 -3.5349e+000 18642 113275,113379,113301
 2.9000e+000 113699 -2.8814e+000 -2.1101e+002 -4.5868e+000 18138 113474,113552,113526
 2.9000e+000 113676  3.8536e+001 -2.2111e+002 -2.5644e+001 18138 113474,113578,113552
 2.9000e+000 113653  3.2838e+001 -2.1288e+002 -2.3965e+001 18138 113474,113604,113578
 2.9000e+000 113630  4.2134e+001 -1.7925e+002  1.8964e+001 18138 113474,113526,113500
 2.9000e+000 113851 -3.2168e+001 -2.4545e+002 -3.1393e+000 17682 113750,113802,113776
 2.9000e+000 113828 -2.3630e+000 -2.2667e+002  5.0250e+000 17682 113724,113802,113750
 2.9000e+000 114383  2.2021e+001 -1.6682e+002 -1.7327e+001 17106 114086,114242,114164
 2.9000e+000 114360 -6.5282e+001 -2.0199e+002  5.6059e+000 17106 114060,114242,114086
 2.9000e+000 114337 -7.7726e+001 -3.3583e+002  3.2855e+001 17106 114086,114164,114138
 2.9000e+000 114314 -8.8041e+001 -5.0691e+002 -1.2123e+001 17106 114190,114242,114216
 2.9000e+000 114291 -4.8288e+001 -3.6409e+002 -3.4629e+001 17106 114164,114242,114190
 2.9000e+000 114268 -2.6479e+001 -3.1153e+002  7.0957e+001 17106 114086,114138,114112
 2.9000e+000 114680 -7.4871e+001 -2.2257e+002 -2.4026e+000 16766 114703,114432,114406
 2.9000e+000 114657 -7.9313e+001 -2.2744e+002 -4.7945e+000 16766 114703,114406,114510
 2.9000e+000 114634 -6.7441e+001 -1.6956e+002  1.4613e+000 16766 114406,114536,114510
 2.9000e+000 114611 -6.0737e+001 -2.4188e+002 -1.2537e+001 16766 114432,114484,114458
 2.9000e+000 114588 -8.2573e+001 -1.9762e+002  5.6330e+001 16766 114406,114562,114536
 2.9000e+000 114729 -5.8732e+001 -2.2561e+002  4.4988e+000 16766 114484,114432,114703
 2.9000e+000 114752 -7.1002e+001 -2.3732e+002 -2.8872e-001 16766 114484,114703,114510
 2.9000e+000 114902  1.7881e+001 -3.1726e+002 -3.8965e+001 16362 114775,114827,114801
 2.9000e+000 114879  4.5597e+001 -2.9108e+002 -4.9754e+001 16362 114775,114853,114827
 2.9000e+000 115054 -3.4710e+002 -5.5532e+002 -1.3909e+001 15908 114953,115005,114979
 2.9000e+000 115031 -3.2761e+002 -5.7077e+002 -7.8953e+000 15908 114927,115005,114953
 2.9000e+000 115326 -1.0932e+001 -1.8599e+002  5.4431e+001 15251 115101,115179,115153
 2.9000e+000 115303  8.2189e-001 -1.6525e+002 -5.4854e+000 15251 115101,115231,115179
 2.9000e+000 115280 -3.7732e+000 -1.7582e+002 -4.5257e+000 15251 115179,115231,115205
 2.9000e+000 115257 -1.2564e+002 -6.0310e+002  5.1518e+001 15251 115101,115153,115127
 2.9000e+000 115429 -5.8559e+001 -2.5298e+002  4.3605e+001 421 115351,115403,115377
 3.0000e+000 66230 -4.2145e+001  3.7763e+001  1.4652e+001 65954 66152,66204,66178
 3.0000e+000 66429 -6.0536e+000 -1.4445e+001  2.2574e+000 65642 66279,66331,66305
 3.0000e+000 66406 -8.1061e+000 -1.3494e+001  5.4819e+000 65642 66279,66357,66331
 3.0000e+000 66383  9.2277e+000  3.9623e+001 -1.1718e+001 65642 66253,66357,66279
 3.0000e+000 66628 -7.8571e+000 -8.2793e+001  1.8092e+001 65444 66452,66530,66478
 3.0000e+000 66605  2.0293e+001 -1.2633e+002  2.5066e+000 65444 66452,66556,66530
 3.0000e+000 66582 -1.2037e+001 -1.1287e+002  2.3442e+001 65444 66478,66530,66504
 3.0000e+000 67006 -5.4308e+000 -7.5791e+001  2.2286e+000 65246 66732,66810,66758
 3.0000e+000 66983 -2.3672e+000 -4.4093e+001  1.0392e+001 65246 66732,66836,66810
 3.0000e+000 66960 -4.4929e+000 -4.1576e+001  5.1740e+000 65246 66732,66862,66836
 3.0000e+000 66937 -3.1718e+000 -6.7128e+001  2.3415e+000 65246 66758,66810,66784
 3.0000e+000 66914  1.0936e+001 -1.4617e+002 -4.2655e+001 65246 66732,66888,66862
 3.0000e+000 67107  5.2558e+001 -5.5588e+001 -2.1189e+001 64934 67029,67081,67055
 3.0000e+000 67306 -1.1903e+001 -4.2877e+001  1.8337e+001 64736 67156,67208,67182
 3.0000e+000 67283 -3.8666e-001 -3.2903e+001  1.4094e+001 64736 67130,67208,67156
 3.0000e+000 67260  4.7081e+000 -9.7679e+001  2.0130e+001 64736 67130,67234,67208
 3.0000e+000 67507 -4.8696e+000 -8.1378e+001 -1.5364e+001 64389 67357,67409,67383
 3.0000e+000 67484 -1.0435e+001 -8.0566e+001 -1.7755e+001 64389 67357,67435,67409
 3.0000e+000 67461  1.3015e+001 -1.1706e+002 -9.1941e+000 64389 67331,67435,67357
 3.0000e+000 67708  4.6492e+001 -9.8436e+001  1.9714e+001 63985 67731,67584,67558
 3.0000e+000 67685  1.8286e+001 -1.8004e+001  5.6417e+000 63985 67731,67558,67636
 3.0000e+000 67662 -1.0412e+000 -2.3080e+001  7.7302e+000 63985 67532,67636,67558
 3.0000e+000 67757  3.4126e+001 -1.3972e+002  1.4694e+001 63985 67610,67584,67731
 3.0000e+000 67780 -9.0988e+000 -8.2123e+001 -3.3259e+000 63985 67610,67731,67636
 3.0000e+000 67981  9.2918e-001 -6.4732e+000  3.5582e+000 63787 67857,67909,67883
 3.0000e+000 67958 -6.4802e+000 -8.0658e+000  4.1945e+000 63787 67831,67909,67857
 3.0000e+000 67935 -1.7844e+001 -9.1567e+000 -3.4289e+000 63787 67805,67909,67831
 3.0000e+000 68231 -6.6133e+000 -1.3608e+002  1.0858e+001 63589 68254,68084,68032
 3.0000e+000 68208 -8.8038e+000 -5.8561e+001  1.0138e+001 63589 68254,68032,68006
 3.0000e+000 68185  3.6070e+000 -3.3554e+001  1.7157e+001 63589 68326,68136,68110
 3.0000e+000 68162 -1.7535e+000 -1.2483e+002 -1.5541e+001 63589 68032,68084,68058
 3.0000e+000 68280 -2.4721e+000 -6.6859e+001  1.3716e+001 63589 68110,68084,68254
 3.0000e+000 68303 -7.7498e+000 -3.8260e+001  2.6871e+001 63589 68326,68110,68254
 3.0000e+000 68352  2.0721e+001 -9.7142e+000 -1.3254e+001 63589 68006,68136,68326
 3.0000e+000 68375 -2.7101e-001 -2.3007e+001 -2.3252e+000 63589 68006,68326,68254
 3.0000e+000 68836 -1.7009e+000 -1.0002e+000  1.7615e+000 63128 68859,68588,68562
 3.0000e+000 68813 -7.5063e+000 -2.4961e+001  2.5978e+001 63128 68859,68562,68692
 3.0000e+000 68790  2.2949e+001 -4.3024e+001  5.2944e+000 63128 68614,68692,68666
 3.0000e+000 68767 -2.4949e+001 -3.3436e+001  2.1364e+001 63128 68562,68718,68692
 3.0000e+000 68744  2.2752e+001 -5.1302e+001 -4.4903e+001 63128 68614,68666,68640
 3.0000e+000 68885  1.3519e+001  3.4563e+001 -1.2118e+001 63128 68614,68588,68859
 3.0000e+000 68908  5.6857e+000  3.0460e+000  1.1531e+001 63128 68614,68859,68692
 3.0000e+000 69237  1.1186e+001 -5.5876e+001  1.4133e+001 62731 69064,69116,69090
 3.0000e+000 69214 -5.3161e+000 -1.0167e+002  2.4886e+000 62731 69064,69142,69116
 3.0000e+000 69191 -1.4512e+001 -1.0328e+002  9.2261e+000 62731 69038,69142,69064
 3.0000e+000 69168 -8.1170e+000 -1.5374e+002  7.2875e+000 62731 69012,69142,69038
 3.0000e+000 69539  2.6307e+000  2.2068e+001 -5.3529e+000 62433 69389,69467,69441
 3.0000e+000 69516  8.5110e+000 -1.5965e+001  1.4422e+000 62433 69363,69467,69389
 3.0000e+000 69493  1.8880e+000 -2.2312e+001  1.8455e+001 62433 69389,69441,69415
 3.0000e+000 69966  1.7220e+000 -5.6899e+001  1.4095e+001 62235 69989,69773,69721
 3.0000e+000 69943  7.0904e+000 -9.6686e+001 -2.5365e+001 62235 70061,69989,69721
 3.0000e+000 69920  1.8945e+001 -1.0898e+002 -1.7374e+001 62235 70061,69721,69643
 3.0000e+000 69897  2.2199e+000  1.7062e-001  4.7994e-001 62235 69721,69773,69747
 3.0000e+000 69874 -6.5019e+001 -3.0766e+002 -7.3173e+000 62235 69643,69721,69695
 3.0000e+000 69851  9.6050e+001  2.5300e+002 -3.6716e+001 62235 69643,69695,69669
 3.0000e+000 70015 -6.7321e+000 -1.0005e+002 -3.5668e+000 62235 69799,69773,69989
 3.0000e+000 70038 -4.4101e+001 -1.2877e+002 -5.1297e+001 62235 69799,69989,69825
 3.0000e+000 70087 -1.8726e+001 -1.0358e+002 -1.8813e+001 62235 69825,69989,70061
 3.0000e+000 70110  3.4055e+000 -1.0780e+002 -1.5594e+001 62235 69825,70061,69643
 3.0000e+000 70260  2.4361e+001 -3.3053e+001  6.0950e+000 62037 70133,70185,70159
 3.0000e+000 70237 -2.5350e+000 -5.5114e+001 -8.5953e+000 62037 70133,70211,70185
 3.0000e+000 70640  5.9705e+000 -6.7219e+001  2.5536e+001 61583 70735,70663,70418
 3.0000e+000 70617 -4.5511e+001 -8.0498e+001  1.2356e+001 61583 70663,70366,70522
 3.0000e+000 70594  1.9131e+001 -5.8527e+001  4.2859e+001 61583 70735,70418,70392
 3.0000e+000 70571 -1.7122e+001 -1.1046e+002  1.4218e+001 61583 70418,70496,70444
 3.0000e+000 70548 -4.8321e+001 -6.2994e+001  1.1952e+001 61583 70444,70496,70470
 3.0000e+000 70689 -3.5438e+001 -1.1766e+002  7.7193e+000 61583 70496,70418,70663
 3.0000e+000 70712 -5.3621e+001 -7.1731e+001  1.0798e+001 61583 70496,70663,70522
 3.0000e+000 70761 -4.0510e+001 -7.9636e+001 -5.0486e-002 61583 70366,70663,70735
 3.0000e+000 70784 -1.2572e+001 -6.4476e+001  1.7202e+001 61583 70366,70735,70392
 3.0000e+000 71054  4.4604e-001 -6.7263e-001 -1.4197e+000 61313 71077,70881,70855
 3.0000e+000 71031  7.9796e-001 -2.8466e+000  2.6530e-001 61313 71077,70855,70829
 3.0000e+000 71008 -3.8484e+000 -1.0944e+001 -2.9316e+000 61313 70829,70959,70933
 3.0000e+000 70985 -1.2082e-001 -7.8555e+000 -2.2560e+000 61313 70881,70933,70907
 3.0000e+000 71103 -1.3335e+000 -2.1355e+000 -5.6592e-001 61313 70933,70881,71077
 3.0000e+000 71126 -7.4871e-002 -3.5064e+000  9.6431e-001 61313 70933,71077,70829
 3.0000e+000 71604 -4.8086e+000 -1.0474e+002  1.0405e+001 60909 71627,71232,71414
 3.0000e+000 71581 -2.8692e+001 -8.7320e+001 -1.5931e+001 60909 71232,71440,71414
 3.0000e+000 71558  6.2058e+000 -8.1521e+001  1.5880e+001 60909 71627,71414,71336
 3.0000e+000 71535  2.6809e+001 -1.9021e+002  3.9499e+001 60909 71362,71414,71388
 3.0000e+000 71512 -1.2542e+001 -1.4107e+002  3.1747e+000 60909 71336,71414,71362
 3.0000e+000 71489  1.9752e+001 -4.9882e+001 -6.3561e-001 60909 71258,71336,71310
 3.0000e+000 71466 -3.9298e+001 -8.2222e+001  1.1915e+001 60909 71258,71310,71284
 3.0000e+000 71653 -5.2820e+000 -8.2424e+001  1.4344e+001 60909 71258,71232,71627
 3.0000e+000 71676 -3.1640e+000 -7.0930e+001  1.8275e+001 60909 71258,71627,71336
 3.0000e+000 71875 -1.1835e+001 -2.3133e+001  1.2664e+001 60611 71898,71725,71699
 3.0000e+000 71852 -1.5406e+001 -1.9531e+001  1.5849e+001 60611 71898,71699,71803
 3.0000e+000 71829  9.7155e-001  2.3378e+000  1.6366e+000 60611 71970,71751,71725
 3.0000e+000 71924 -3.1093e+000 -1.1868e+001  8.2983e+000 60611 71970,71725,71898
 3.0000e+000 71947 -1.4316e+001 -2.6193e+001  1.3270e+001 60611 71777,71898,71803
 3.0000e+000 71996 -6.3504e+000 -1.5465e+001  7.2359e+000 60611 71777,71751,71970
 3.0000e+000 72019 -1.0978e+001 -2.3836e+001  1.4994e+001 60611 71777,71970,71898
 3.0000e+000 72576  2.5578e+001 -1.9269e+002  2.9861e+001 60142 72599,72256,72230
 3.0000e+000 72553  4.9506e+001 -9.3427e+001  3.7859e+001 60142 72671,72599,72230
 3.0000e+000 72530 -9.2416e+000 -4.4226e+001 -6.7628e+000 60142 72671,72230,72204
 3.0000e+000 72507 -3.4223e+001 -2.4051e+001  1.7836e+001 60142 72743,72360,72334
 3.0000e+000 72484 -2.7450e+001 -5.7468e+001 -1.0831e+001 60142 72815,72282,72256
 3.0000e+000 72461  2.2304e+001 -3.3497e+000  2.8882e+001 60142 72887,72308,72282
 3.0000e+000 72438 -3.6054e+001 -1.7715e+002 -2.3134e+001 60142 72204,72412,72386
 3.0000e+000 72625 -3.6702e+001 -1.4231e+002 -3.3901e+001 60142 72815,72256,72599
 3.0000e+000 72648 -8.0631e+000 -7.1590e+001  1.0087e+001 60142 72743,72334,72599
 3.0000e+000 72697 -1.8662e+000 -1.7008e+002  1.5472e+001 60142 72386,72599,72671
 3.0000e+000 72720 -4.2459e+001 -1.1259e+002 -1.9591e+001 60142 72386,72671,72204
 3.0000e+000 72769  9.5674e+000 -6.3895e+001  1.0340e+002 60142 72386,72360,72743
 3.0000e+000 72792  9.2038e+000 -1.6040e+002  5.3747e+001 60142 72386,72743,72599
 3.0000e+000 72841 -1.7610e+001 -2.2588e+001  8.7445e+000 60142 72887,72282,72815
 3.0000e+000 72864 -9.0979e+000 -6.5270e+001 -1.2783e+000 60142 72334,72815,72599
 3.0000e+000 72913 -3.2665e+001 -3.0519e+001  8.1843e+000 60142 72334,72308,72887
 3.0000e+000 72936 -5.0017e+001 -3.9172e+001 -1.1092e+001 60142 72334,72887,72815
 3.0000e+000 73491 -2.1344e+001 -1.7681e+002 -3.2261e+001 59738 73145,73327,73171
 3.0000e+000 73468  1.3546e+001 -1.2646e+002 -1.6569e+001 59738 73119,73327,73145
 3.0000e+000 73445 -1.2490e+001 -7.6500e+001  4.9515e+000 59738 73171,73327,73301
 3.0000e+000 73422  2.3973e+001 -9.2339e+001  4.1590e+000 59738 73514,73275,73249
 3.0000e+000 73399 -7.7819e+000 -6.9639e+001  2.0939e+000 59738 73586,73514,73249
 3.0000e+000 73376 -1.5078e+000 -1.3074e+001  1.6407e+001 59738 73197,73249,73223
 3.0000e+000 73353  1.7020e+000 -6.3296e+001 -4.1268e+000 59738 73586,73249,73197
 3.0000e+000 73540 -9.2289e+000 -1.3955e+002 -1.5151e+001 59738 73301,73275,73514
 3.0000e+000 73563 -1.6512e+001 -8.9917e+001  3.7038e+000 59738 73301,73514,73171
 3.0000e+000 73612 -6.7090e+000 -7.9503e+001  1.2068e+001 59738 73171,73514,73586
 3.0000e+000 73635 -3.9483e+000 -7.4527e+001  6.8232e+000 59738 73171,73586,73197
 3.0000e+000 73964  3.2508e+000 -1.4560e+002 -4.4330e+000 59334 73791,73843,73817
 3.0000e+000 73941 -4.9323e+000 -1.5903e+002 -1.0625e+001 59334 73791,73869,73843
 3.0000e+000 73918 -3.4346e+001 -2.2840e+002 -9.4574e+000 59334 73739,73869,73791
 3.0000e+000 73895  5.8206e+000 -2.6312e+002 -6.2477e+000 59334 73739,73791,73765
 3.0000e+000 74261 -1.0831e+001 -9.8590e+001  3.2156e+001 58630 74065,74117,74091
 3.0000e+000 74238 -1.3406e+000 -9.0406e+001  3.2980e+000 58630 74356,74284,74065
 3.0000e+000 74215 -1.4773e+000 -4.2886e+001  2.3413e+000 58630 74284,74013,73987
 3.0000e+000 74192 -2.4822e+000 -8.6156e+001 -8.6250e+000 58630 74356,74065,74039
 3.0000e+000 74169 -2.4693e+000 -4.9876e+001  9.0179e+000 58630 73987,74143,74117
 3.0000e+000 74310  5.8320e+000 -1.1683e+002  7.5588e+000 58630 74117,74065,74284
 3.0000e+000 74333 -1.6743e+001 -7.5401e+001 -5.9452e+000 58630 74117,74284,73987
 3.0000e+000 74382  1.9083e+001 -8.8821e+001 -3.6150e+000 58630 74013,74284,74356
 3.0000e+000 74405  1.9180e+001 -8.3161e+001 -1.5719e+001 58630 74013,74356,74039
 3.0000e+000 74815 -2.5424e+001 -8.6329e+001 -5.2043e+000 58226 74590,74642,74616
 3.0000e+000 74792 -2.4429e+001 -1.2531e+002 -1.3044e+001 58226 74590,74694,74642
 3.0000e+000 74769  1.0329e+001 -2.0510e+002  2.7122e+001 58226 74590,74720,74694
 3.0000e+000 74746 -1.3199e+001 -7.0952e+001 -6.7812e+000 58226 74642,74694,74668
 3.0000e+000 75014  6.7914e+000 -9.3245e+001 -3.0084e+000 57786 75037,74864,74838
 3.0000e+000 74991 -5.9532e+000 -5.6766e+001  1.8175e+001 57786 75037,74838,74916
 3.0000e+000 74968 -3.1174e+000 -4.1534e+001 -6.1434e+000 57786 74838,74942,74916
 3.0000e+000 75063 -1.6207e+001 -1.2651e+002 -1.5186e+001 57786 74890,74864,75037
 3.0000e+000 75086 -2.2393e+001 -8.4039e+001  7.9642e+000 57786 74890,75037,74916
 3.0000e+000 75368 -2.5449e+001 -3.0887e+001  1.2627e+001 57496 75192,75270,75218
 3.0000e+000 75345  3.2127e+001 -4.1475e+000  1.9463e+001 57496 75192,75296,75270
 3.0000e+000 75322 -1.4956e-001 -2.7240e+001  3.0540e+001 57496 75218,75270,75244
 3.0000e+000 75648  3.0652e-001 -7.7278e+001 -8.0378e+000 57206 75472,75550,75498
 3.0000e+000 75625  2.2268e+001 -5.7064e+001 -1.9408e+001 57206 75472,75576,75550
 3.0000e+000 75602  2.4982e+000 -1.7183e-001 -1.9031e+000 57206 75671,75550,75524
 3.0000e+000 75697  1.1019e+001 -7.2120e+001 -1.6922e+001 57206 75498,75550,75671
 3.0000e+000 76154 -9.7464e+000 -7.0776e+001  1.0278e+001 56802 75958,76010,75984
 3.0000e+000 76131 -3.8057e+000 -4.0258e+001  1.0689e+001 56802 75932,76010,75958
 3.0000e+000 76108 -9.0291e+000 -7.8570e+001  2.3762e+001 56802 75906,76010,75932
 3.0000e+000 76085 -5.4022e+000 -1.5401e+001  3.0139e+001 56802 75880,76010,75906
 3.0000e+000 76062  7.2128e+000 -2.0539e+001 -3.7657e-001 56802 75880,76036,76010
 3.0000e+000 76505 -1.7630e+000  1.0630e+000  1.2133e+000 56504 76306,76384,76332
 3.0000e+000 76482  1.1511e+000  1.5747e+000  9.3901e-001 56504 76306,76410,76384
 3.0000e+000 76459 -4.6518e+000 -1.6369e-001  1.0097e+000 56504 76332,76384,76358
 3.0000e+000 76436 -2.5163e+000 -3.7448e-001  2.1500e-001 56504 76280,76410,76306
 3.0000e+000 77011  2.9994e+001 -3.7810e+001 -3.0022e+001 56050 76740,76818,76792
 3.0000e+000 76988  6.1058e+000 -4.7286e+001 -3.2067e+001 56050 76714,76818,76740
 3.0000e+000 76965 -1.8339e-001 -3.3953e+001 -3.3110e+001 56050 76688,76818,76714
 3.0000e+000 76942  9.4067e+000 -2.1634e+001 -2.6904e+001 56050 76688,76844,76818
 3.0000e+000 76919  6.1408e+000 -4.8130e+001 -2.2594e+001 56050 76740,76792,76766
 3.0000e+000 76896  1.6637e+001  7.5160e+001  3.0658e+000 56050 76688,76870,76844
 3.0000e+000 77517 -4.2710e+001 -6.9093e+001  1.4933e+001 55738 77220,77350,77324
 3.0000e+000 77494 -4.6045e+000 -8.1131e+001 -4.8551e+000 55738 77220,77376,77350
 3.0000e+000 77471  3.4486e+000 -5.3238e+001 -5.8464e+000 55738 77194,77376,77220
 3.0000e+000 77448 -9.9412e+000 -4.2382e+001  5.4714e+000 55738 77220,77298,77246
 3.0000e+000 77425 -2.0440e+001 -5.7311e+001  1.0589e+001 55738 77220,77324,77298
 3.0000e+000 77402 -3.6603e+001 -4.4199e+001  8.5746e+001 55738 77246,77298,77272
 3.0000e+000 78064  2.9323e+001 -1.5225e+002 -8.6811e+000 55227 78231,78087,77773
 3.0000e+000 78041 -2.6879e+001 -2.7776e+002  1.0781e+001 55227 78087,77695,77643
 3.0000e+000 78018 -1.6411e+001 -2.0681e+002 -2.5651e+001 55227 78159,77799,77773
 3.0000e+000 77995  3.6471e-001 -8.7997e+001  6.3318e+000 55227 78231,77773,77721
 3.0000e+000 77972 -6.0015e+001 -7.8435e+001  5.8838e+001 55227 77643,77695,77669
 3.0000e+000 77949 -3.0487e+001 -1.0791e+002 -7.6526e+000 55227 77643,77877,77851
 3.0000e+000 77926 -4.1611e+001 -2.1911e+002  3.2217e+001 55227 77799,77851,77825
 3.0000e+000 77903  1.2930e+001 -3.4002e+001 -2.6902e+001 55227 77721,77773,77747
 3.0000e+000 78113  3.2958e+000 -2.1178e+002 -1.6292e+001 55227 78159,77773,78087
 3.0000e+000 78136  2.7557e+001 -1.5063e+002  1.4724e+001 55227 77851,78087,77643
 3.0000e+000 78185 -5.4845e+001 -2.0462e+002 -2.4013e+001 55227 77851,77799,78159
 3.0000e+000 78208 -3.4921e+001 -2.1025e+002 -1.6262e+001 55227 77851,78159,78087
 3.0000e+000 78257  5.7835e+000 -2.2970e+002 -3.6170e+001 55227 77695,78087,78231
 3.0000e+000 78280 -2.8549e+001 -1.6146e+002 -2.8098e+001 55227 77695,78231,77721
 3.0000e+000 78737  4.1769e+000 -3.7378e+001 -1.6897e+001 54773 78463,78541,78515
 3.0000e+000 78714 -2.0269e+001 -8.1642e+001 -7.3957e-001 54773 78463,78619,78541
 3.0000e+000 78691  1.5414e+001 -4.3518e+000  3.3303e-001 54773 78463,78515,78489
 3.0000e+000 78668 -2.9103e+001 -3.7342e+001 -1.5066e+001 54773 78541,78593,78567
 3.0000e+000 78645 -9.9068e-002 -5.6498e+001 -2.2860e+001 54773 78541,78619,78593
 3.0000e+000 78838 -1.2950e+000 -2.0959e+001 -8.9077e-001 54211 78760,78812,78786
 3.0000e+000 79297 -4.3621e-001 -9.4483e+001  3.1252e+000 53814 79520,79153,79049
 3.0000e+000 79274  6.1518e+000 -9.3109e+001  4.4004e+000 53814 79520,79049,79023
 3.0000e+000 79251 -3.8659e+001 -1.8112e+002  2.8388e+001 53814 79320,79101,79049
 3.0000e+000 79228 -4.0088e+000 -9.7897e+001  4.5481e+000 53814 79320,79049,79153
 3.0000e+000 79205 -3.3532e+001 -1.4045e+002  3.7943e+001 53814 79049,79101,79075
 3.0000e+000 79346 -1.2613e+001 -7.5671e+001 -2.8686e+001 53814 79392,79320,79127
 3.0000e+000 79369 -4.5315e+000 -9.5989e+001 -3.4337e+001 53814 79127,79320,79153
 3.0000e+000 79418 -1.5583e+001 -1.6732e+002 -4.4856e+001 53814 79101,79320,79392
 3.0000e+000 79546 -3.5794e+000 -9.9084e+001  1.2932e+001 53814 79179,79153,79520
 3.0000e+000 79569  1.7322e+001 -9.1070e+001  1.2902e+001 53814 79179,79520,79023
 3.0000e+000 80075 -3.9960e+001 -6.2353e+000  2.5649e+001 53039 80098,79908,79830
 3.0000e+000 80052 -5.1923e+001 -8.3791e+000 -6.3131e+000 53039 80098,79830,79804
 3.0000e+000 80029 -1.2338e+000  4.6755e+000  6.1628e+000 53039 79752,79934,79804
 3.0000e+000 80006  3.7043e+000 -5.4477e+001  3.6154e+001 53039 79856,79908,79882
 3.0000e+000 79983  3.5491e+001 -1.0770e+002  2.9654e+001 53039 79830,79908,79856
 3.0000e+000 79960 -1.0574e+001  8.6064e+000 -5.7191e+000 53039 79752,79804,79778
 3.0000e+000 80124  1.0995e+001  2.1981e+001  3.8949e+001 53039 79934,79908,80098
 3.0000e+000 80147 -2.9847e+001  4.7882e+000  4.7123e+000 53039 79934,80098,79804
 3.0000e+000 80555  2.5036e+000 -5.7325e+001 -1.7026e+000 52699 80356,80434,80408
 3.0000e+000 80532  2.0977e+000 -8.7074e+001  4.4077e+000 52699 80356,80460,80434
 3.0000e+000 80509 -1.0848e+001 -9.3585e+001  2.1701e+000 52699 80330,80460,80356
 3.0000e+000 80486 -4.2318e+001 -1.0467e+002  3.1740e+001 52699 80356,80408,80382
 3.0000e+000 80776  4.0462e+000 -1.0017e+001  1.7356e+001 52295 80600,80678,80626
 3.0000e+000 80753  2.7399e+001  3.1970e+001 -2.4410e-001 52295 80600,80704,80678
 3.0000e+000 80730  4.5181e+001  3.9490e+000  1.9839e+000 52295 80626,80678,80652
 3.0000e+000 81156 -2.7993e+001 -1.2040e+002  3.0691e+001 51891 81179,80960,80908
 3.0000e+000 81133 -1.4916e+001 -9.9125e+001 -4.8304e-001 51891 81179,80908,81012
 3.0000e+000 81110 -3.9031e+001 -1.1260e+002  5.2224e+000 51891 80882,81012,80908
 3.0000e+000 81087  5.8920e+000 -1.6901e+002  2.8781e+001 51891 80908,80960,80934
 3.0000e+000 81064  5.0374e+000 -1.7446e+000  6.6023e+000 51891 80882,81038,81012
 3.0000e+000 81205  1.0260e+001 -1.1051e+002  1.7878e+001 51891 80986,80960,81179
 3.0000e+000 81228  1.1637e-002 -9.5796e+001 -1.3270e+001 51891 80986,81179,81012
 3.0000e+000 81606 -9.0257e+000 -2.7826e+002 -8.2194e+001 51544 81410,81462,81436
 3.0000e+000 81583  1.0892e+001 -1.2597e+002 -1.5397e+001 51544 81384,81462,81410
 3.0000e+000 81560 -3.2158e+001 -1.3402e+002 -2.8789e+001 51544 81358,81462,81384
 3.0000e+000 81537  2.8691e+000 -1.2222e+002 -2.4186e+001 51544 81358,81488,81462
 3.0000e+000 81514  3.1649e+001  1.5104e+001 -1.6246e+001 51544 81332,81488,81358
 3.0000e+000 81854  4.1134e+000 -1.1579e+002 -2.2692e+000 51004 81877,81655,81629
 3.0000e+000 81831 -4.0556e-001 -9.6348e+001 -5.4040e+000 51004 81877,81629,81759
 3.0000e+000 81808 -7.0892e-001 -6.4156e+001  4.1949e+001 51004 81655,81707,81681
 3.0000e+000 81785 -3.5143e+001 -1.5933e+002 -1.7521e+000 51004 81707,81759,81733
 3.0000e+000 81903  1.9927e+000 -1.2222e+002 -3.1549e+000 51004 81707,81655,81877
 3.0000e+000 81926 -1.2230e+001 -1.1688e+002 -1.0461e+001 51004 81707,81877,81759
 3.0000e+000 82257 -3.0870e+001 -1.0671e+002 -9.1296e+000 50642 82058,82136,82110
 3.0000e+000 82234 -2.6494e+001 -7.9011e+001 -1.7845e+001 50642 82058,82162,82136
 3.0000e+000 82211 -4.1430e+001 -1.1910e+002  8.5399e+000 50642 82058,82110,82084
 3.0000e+000 82188 -3.6730e+001 -8.2884e+001 -2.4814e+001 50642 82032,82162,82058
 3.0000e+000 82684  2.9301e+001 -1.8361e+002  2.4435e+001 49931 82779,82707,82465
 3.0000e+000 82661 -2.0370e+001 -2.2827e+002  3.9587e+001 49931 82707,82413,82361
 3.0000e+000 82638 -2.2711e+000 -1.6969e+002 -4.6497e+001 49931 82779,82465,82439
 3.0000e+000 82615 -1.5455e+001 -3.4067e+002  3.8966e+001 49931 82465,82543,82491
 3.0000e+000 82592 -2.0127e+001 -1.5555e+002  2.7755e-001 49931 82361,82413,82387
 3.0000e+000 82569 -6.3362e-001 -2.5499e+002  2.9092e+001 49931 82491,82543,82517
 3.0000e+000 82733  3.7447e+001 -2.1714e+002  3.0687e+001 49931 82543,82465,82707
 3.0000e+000 82756  5.7799e+000 -1.7968e+002  2.8595e+001 49931 82543,82707,82361
 3.0000e+000 82805 -1.5629e+001 -2.8269e+002  5.2908e+000 49931 82413,82707,82779
 3.0000e+000 82828 -3.3463e+001 -2.5442e+002 -6.1859e+001 49931 82413,82779,82439
 3.0000e+000 83255 -3.8780e+001 -2.7758e+002 -3.5065e+001 49327 82984,83114,83036
 3.0000e+000 83232 -5.5654e+001 -3.1074e+002 -7.3581e+001 49327 82958,83114,82984
 3.0000e+000 83209 -4.1882e+001 -3.4197e+002 -1.3628e+001 49327 83036,83114,83088
 3.0000e+000 83186 -9.1812e+001 -2.2389e+002  6.8806e+000 49327 82984,83036,83010
 3.0000e+000 83163 -4.2552e+001 -2.8741e+002 -6.2064e+001 49327 82932,83114,82958
 3.0000e+000 83140 -1.1573e+002 -5.6236e+002 -4.3962e+000 49327 83036,83088,83062
 3.0000e+000 83938 -5.5936e+001 -3.6748e+002  7.6522e+001 48965 83961,83673,83647
 3.0000e+000 83915  1.2222e+001 -1.6221e+002  7.3998e+001 48965 83961,83647,83543
 3.0000e+000 83892 -4.3946e+001 -1.8228e+002 -4.6467e+001 48965 83517,83725,83543
 3.0000e+000 83869 -6.0647e+001 -2.3782e+002 -4.6133e+001 48965 83673,83725,83699
 3.0000e+000 83846 -4.2003e+001 -9.2350e+001 -6.2368e+000 48965 83543,83647,83621
 3.0000e+000 83823 -1.6673e+001 -1.1696e+002 -1.7210e+001 48965 83543,83621,83569
 3.0000e+000 83800 -7.4039e+000 -1.5239e+002  3.6544e+000 48965 83517,83751,83725
 3.0000e+000 83777 -9.5703e-001 -9.7881e+001  1.4156e+001 48965 83569,83621,83595
 3.0000e+000 83987 -2.6229e+001 -3.2710e+002 -5.6468e+001 48965 83725,83673,83961
 3.0000e+000 84010  6.6066e+000 -2.4861e+002 -3.3474e+001 48965 83725,83961,83543
 3.0000e+000 84258 -2.6769e+001 -2.4362e+002  3.1713e+001 48447 84281,84059,84033
 3.0000e+000 84235 -1.1026e+001 -1.9933e+002 -3.0595e+000 48447 84281,84033,84163
 3.0000e+000 84212  1.6958e+001 -1.9723e+002 -1.7266e+001 48447 84059,84111,84085
 3.0000e+000 84189  2.8607e+001 -1.8088e+002 -3.9195e+001 48447 84111,84163,84137
 3.0000e+000 84307  3.0867e+000 -2.3164e+002 -4.1955e+000 48447 84111,84059,84281
 3.0000e+000 84330  3.2279e+001 -2.0096e+002 -3.7571e+001 48447 84111,84281,84163
 3.0000e+000 84529  2.4332e+001 -1.5765e+002 -1.1580e+001 47993 84552,84405,84379
 3.0000e+000 84506 -4.2481e+001 -1.7666e+002 -4.4660e+000 47993 84552,84379,84353
 3.0000e+000 84483  1.5760e+001 -1.6370e+002 -1.2750e+001 47993 84624,84457,84431
 3.0000e+000 84578  4.0874e+001 -1.6005e+002 -3.0866e+001 47993 84431,84405,84552
 3.0000e+000 84601  1.6892e+001 -1.6161e+002 -1.3904e+001 47993 84624,84431,84552
 3.0000e+000 84650  1.6633e+001 -1.6533e+002 -1.1883e+001 47993 84353,84457,84624
 3.0000e+000 84673  1.6839e+001 -1.6517e+002 -1.3191e+001 47993 84353,84624,84552
 3.0000e+000 85104 -4.6463e+001 -2.3914e+002 -2.1623e+001 47588 85199,85127,84885
 3.0000e+000 85081 -3.1836e+001 -2.5484e+002 -2.6974e+001 47588 85127,84781,84963
 3.0000e+000 85058 -7.7416e+001 -2.3269e+002  1.3160e+001 47588 85199,84885,84807
 3.0000e+000 85035 -1.9084e+001 -1.6213e+002  7.9046e+001 47588 84885,84937,84911
 3.0000e+000 85012 -4.5889e+001 -1.5303e+002 -1.3665e+001 47588 84807,84885,84833
 3.0000e+000 84989 -1.7246e+001 -1.4007e+002 -1.9612e-001 47588 84833,84885,84859
 3.0000e+000 85153 -3.9971e+001 -2.8377e+002 -1.4546e+000 47588 84937,84885,85127
 3.0000e+000 85176  5.3527e+001 -2.5802e+002 -2.5042e+000 47588 84937,85127,84963
 3.0000e+000 85225 -1.0461e+002 -2.6038e+002 -1.9265e+001 47588 84781,85127,85199
 3.0000e+000 85248 -1.2470e+002 -2.5290e+002  2.0272e+001 47588 84781,85199,84807
 3.0000e+000 85518 -4.9763e+001 -3.4082e+002  5.4483e+001 47226 85293,85397,85319
 3.0000e+000 85495 -2.8653e+001 -3.0732e+002  2.8227e+001 47226 85293,85423,85397
 3.0000e+000 85472 -1.4782e+001 -3.5451e+002 -1.2422e+001 47226 85319,85397,85345
 3.0000e+000 85449  3.9219e+001 -7.1477e+001 -1.8684e+001 47226 85345,85397,85371
 3.0000e+000 85849 -2.4834e+001 -2.1068e+002  3.8845e+001 46572 85624,85702,85650
 3.0000e+000 85826 -2.2978e+001 -2.9449e+002 -1.5402e+001 46572 85624,85754,85702
 3.0000e+000 85803  2.3062e+001 -1.8253e+002  1.5713e+001 46572 85702,85754,85728
 3.0000e+000 85780 -1.3361e+001 -2.0405e+002  3.3545e+001 46572 85650,85702,85676
 3.0000e+000 86070 -1.9416e+002 -3.1384e+002 -8.5299e+000 46374 85920,85972,85946
 3.0000e+000 86047 -1.4276e+002 -1.9206e+002  8.0857e-001 46374 85920,85998,85972
 3.0000e+000 86024 -8.9968e+001 -1.6072e+002  3.3689e+001 46374 85894,85998,85920
 3.0000e+000 86401  3.1329e+000 -2.1122e+002  3.0470e+000 46034 86424,86280,86228
 3.0000e+000 86378 -4.5807e+001 -2.0000e+002  1.4708e+000 46034 86424,86228,86176
 3.0000e+000 86355 -6.3340e+001 -1.7740e+002 -5.4336e+001 46034 86176,86228,86202
 3.0000e+000 86332  5.4615e+001 -1.8789e+002 -4.7213e+001 46034 86228,86280,86254
 3.0000e+000 86450  8.8624e+001 -2.1120e+002 -1.8334e+001 46034 86306,86280,86424
 3.0000e+000 86473 -3.9153e+000 -2.3198e+002 -2.1965e+001 46034 86306,86424,86176
 3.0000e+000 87058  8.9592e+000 -1.7081e+002  1.6608e+001 45516 86813,86917,86865
 3.0000e+000 87035 -2.1267e+001 -2.4835e+002  1.2112e+001 45516 86787,86917,86813
 3.0000e+000 87012 -1.0047e+001 -3.0067e+002  2.4300e+001 45516 86735,86917,86787
 3.0000e+000 86989  2.2934e+000 -1.7026e+002  1.6479e+001 45516 86865,86917,86891
 3.0000e+000 86966  5.5817e+000 -1.6241e+002  1.7034e+001 45516 86813,86865,86839
 3.0000e+000 86943 -1.1715e+001 -3.8094e+002 -4.5092e+000 45516 86735,86787,86761
 3.0000e+000 87208  4.2663e+001 -1.2545e+002 -1.9393e+001 45226 87231,87133,87107
 3.0000e+000 87185  1.2954e+000 -1.0565e+002  6.7581e+000 45226 87081,87159,87133
 3.0000e+000 87257  5.1324e+001 -1.0246e+001 -2.6718e+001 45226 87081,87133,87231
 3.0000e+000 87537  3.5920e+001 -2.3902e+002  4.7691e+001 44772 87387,87439,87413
 3.0000e+000 87514 -3.4643e+001 -2.5828e+002  3.1955e+001 44772 87361,87439,87387
 3.0000e+000 87491  2.3506e+000 -1.9064e+002  1.2119e+001 44772 87361,87465,87439
 3.0000e+000 87996 -1.4049e+000 -4.1404e+001 -7.8018e+000 44425 87748,87878,87852
 3.0000e+000 87973  8.6188e-001 -4.0783e+001 -8.2232e-001 44425 87722,87878,87748
 3.0000e+000 87950  7.1539e+000 -8.3276e+001 -1.9501e+001 44425 87800,87852,87826
 3.0000e+000 87927 -4.9188e+000 -6.9033e+001  5.3347e-001 44425 87748,87852,87800
 3.0000e+000 87904 -7.4746e+000 -1.0210e+002  5.9273e+000 44425 87748,87800,87774
 3.0000e+000 88423 -1.2127e+001 -1.8553e+002  3.7476e+000 44078 88590,88230,88204
 3.0000e+000 88400 -1.4287e+001 -1.4214e+002  1.6748e+001 44078 88518,88446,88204
 3.0000e+000 88377 -1.2341e+001 -1.9489e+002 -2.6765e+001 44078 88446,88126,88282
 3.0000e+000 88354 -3.6469e+001 -1.1664e+002  1.3817e+000 44078 88518,88204,88178
 3.0000e+000 88331 -1.1469e+001 -2.3262e+002 -2.3669e+001 44078 88100,88282,88126
 3.0000e+000 88308 -1.8368e+001 -9.9926e+001  3.9013e+001 44078 88126,88178,88152
 3.0000e+000 88472 -1.6335e+001 -1.9625e+002  6.9327e+000 44078 88590,88204,88446
 3.0000e+000 88495 -3.2485e+001 -2.7249e+002 -4.0904e+001 44078 88256,88446,88282
 3.0000e+000 88544 -2.8615e+001 -1.9938e+002  1.1795e+001 44078 88126,88446,88518
 3.0000e+000 88567 -3.3299e+001 -1.4875e+002  6.0707e-001 44078 88126,88518,88178
 3.0000e+000 88616 -1.0217e+002 -3.7105e+002 -3.7512e+001 44078 88256,88230,88590
 3.0000e+000 88639 -1.4209e+001 -1.9131e+002 -6.9113e+000 44078 88256,88590,88446
 3.0000e+000 89039 -1.5603e+000 -7.0200e+001  9.5820e+000 43716 88791,88921,88895
 3.0000e+000 89016 -1.3304e+001 -8.4181e+001  4.4186e+000 43716 88765,88921,88791
 3.0000e+000 88993  1.0321e+001 -7.3932e+001  2.0037e+001 43716 88817,88895,88869
 3.0000e+000 88970 -3.9084e+001 -8.9496e+001  1.6431e+001 43716 88791,88895,88817
 3.0000e+000 88947 -2.3469e+001 -6.9374e+001  5.0120e+000 43716 88817,88869,88843
 3.0000e+000 89496  1.0785e+001 -2.4580e+002 -2.3842e+001 43162 89519,89274,89248
 3.0000e+000 89473  1.8343e+001 -2.0767e+002 -1.5796e+001 43162 89519,89248,89222
 3.0000e+000 89450 -1.2131e+001 -1.8887e+002 -7.7340e+001 43162 89326,89378,89352
 3.0000e+000 89427 -1.1815e+001 -2.4367e+002 -2.9662e+001 43162 89274,89378,89326
 3.0000e+000 89404  3.1792e+000 -1.6884e+002 -1.1382e+001 43162 89274,89326,89300
 3.0000e+000 89545  7.1675e+000 -2.1069e+002 -1.3961e+001 43162 89378,89274,89519
 3.0000e+000 89568  1.7074e+001 -1.6975e+002 -5.3878e+000 43162 89378,89519,89222
 3.0000e+000 89946 -1.0678e+001 -2.0153e+002 -4.8991e+001 42594 90041,89969,89750
 3.0000e+000 89923 -1.0749e+001 -1.4981e+002 -2.0199e+001 42594 89969,89698,89828
 3.0000e+000 89900 -2.5935e+000 -2.1379e+002 -4.3663e+001 42594 90041,89750,89724
 3.0000e+000 89877 -2.6676e+001 -1.4896e+002 -7.7913e+001 42594 89750,89802,89776
 3.0000e+000 89854  1.3093e+001 -6.3085e+001 -1.5692e+001 42594 89672,89828,89698
 3.0000e+000 89995 -7.0631e+000 -1.5576e+002 -4.5299e+001 42594 89802,89750,89969
 3.0000e+000 90018  3.3475e-003 -1.0451e+002 -3.5142e+000 42594 89802,89969,89828
 3.0000e+000 90067 -8.5987e+000 -1.5074e+002 -4.6116e+001 42594 89698,89969,90041
 3.0000e+000 90090 -3.0080e+001 -1.9831e+002 -3.1628e+001 42594 89698,90041,89724
 3.0000e+000 90517 -3.0449e+001 -2.7603e+002 -9.5002e+000 42140 90540,90220,90194
 3.0000e+000 90494 -4.2815e+000 -2.5356e+002 -2.0769e+001 42140 90540,90194,90376
 3.0000e+000 90471 -4.1449e+001 -2.8493e+002  8.7542e+000 42140 90612,90350,90272
 3.0000e+000 90448 -9.3916e+001 -3.1432e+002 -1.4695e+001 42140 90272,90350,90298
 3.0000e+000 90425 -5.8355e+001 -2.1326e+002 -5.4214e+000 42140 90298,90350,90324
 3.0000e+000 90402 -1.0149e+001 -2.5505e+002  9.1290e+001 42140 90220,90272,90246
 3.0000e+000 90566 -2.2768e+001 -2.4844e+002 -4.2994e+000 42140 90272,90220,90540
 3.0000e+000 90589 -3.9269e+001 -2.8014e+002  2.5093e+000 42140 90612,90272,90540
 3.0000e+000 90638 -2.8392e+001 -2.9683e+002 -2.4723e+000 42140 90376,90350,90612
 3.0000e+000 90661 -1.1310e+001 -2.7969e+002 -1.0781e+001 42140 90376,90612,90540
 3.0000e+000 91167 -2.8068e+001 -1.4198e+002 -1.7431e+001 41636 91190,90870,90844
 3.0000e+000 91144 -4.2916e+001 -3.6196e+002 -9.2780e+000 41636 91190,90844,91026
 3.0000e+000 91121 -2.7416e+001 -9.6119e+001 -4.8638e+001 41636 90870,90922,90896
 3.0000e+000 91098 -2.0692e+001 -3.0212e+002  2.8086e+001 41636 90922,91026,90948
 3.0000e+000 91075 -5.5724e+000 -2.3202e+002 -4.1913e+001 41636 90948,91026,91000
 3.0000e+000 91052 -2.6041e+001 -9.9485e+001  6.6172e+000 41636 90948,91000,90974
 3.0000e+000 91216 -5.3048e+001 -8.1317e+001 -1.5123e+001 41636 90922,90870,91190
 3.0000e+000 91239  3.5987e+001 -1.5703e+002  2.2287e+001 41636 90922,91190,91026
 3.0000e+000 91696 -4.5124e+001 -2.0120e+002 -3.6080e+001 40449 91448,91526,91474
 3.0000e+000 91673 -8.6225e+001 -2.3261e+002 -4.0825e+000 40449 91448,91578,91526
 3.0000e+000 91650 -1.3863e+001 -1.4853e+002 -2.2826e+001 40449 91474,91526,91500
 3.0000e+000 91627 -6.1052e+000 -2.2022e+002 -9.1151e+000 40449 91422,91578,91448
 3.0000e+000 91604 -2.2131e+000 -1.5765e+002 -3.5776e+001 40449 91526,91578,91552
 3.0000e+000 92123 -4.2028e+001 -1.9415e+002 -5.0673e+000 39995 92146,91904,91826
 3.0000e+000 92100 -6.4395e+001 -2.0916e+002 -3.7916e+001 39995 92146,91826,91800
 3.0000e+000 92077 -9.7408e+001 -1.8251e+002 -4.1906e+000 39995 91826,91904,91852
 3.0000e+000 92054 -7.4885e+001 -4.0124e+002 -2.5716e+001 39995 91904,91982,91930
 3.0000e+000 92031 -3.8969e+001 -1.6323e+002 -1.6225e+001 39995 91852,91904,91878
 3.0000e+000 92008 -4.4084e+001 -2.9489e+002 -3.1701e+001 39995 91930,91982,91956
 3.0000e+000 92172 -2.3691e+001 -2.3110e+002 -3.3039e+001 39995 91982,91904,92146
 3.0000e+000 92195 -5.2646e+001 -2.7943e+002 -6.1463e+001 39995 91982,92146,91800
 3.0000e+000 92652  8.2862e+000 -4.5054e+001  2.4907e+001 39633 92404,92534,92456
 3.0000e+000 92629 -1.7766e+001 -7.5141e+001  1.3845e+001 39633 92378,92534,92404
 3.0000e+000 92606 -1.3833e+001 -5.5934e+001  1.4128e+001 39633 92404,92456,92430
 3.0000e+000 92583 -3.7080e+001 -1.7924e+002  2.9256e+001 39633 92456,92534,92508
 3.0000e+000 92560 -3.5720e+001 -5.7962e+001  2.2833e+001 39633 92456,92508,92482
 3.0000e+000 93079  2.5847e+001 -1.1352e+002 -3.9922e+001 39093 93102,92808,92756
 3.0000e+000 93056  1.5157e+000 -1.4851e+002 -1.6767e+001 39093 93102,92756,92938
 3.0000e+000 93033 -2.0585e+001 -1.1855e+002 -2.6179e+001 39093 93174,92912,92834
 3.0000e+000 93010 -3.2681e+001 -1.5010e+002 -4.0956e+001 39093 92834,92912,92860
 3.0000e+000 92987  1.8899e+001 -1.8804e+002 -5.5363e+001 39093 92756,92808,92782
 3.0000e+000 92964 -3.3309e+001 -1.2539e+002 -1.3815e+001 39093 92860,92912,92886
 3.0000e+000 93128 -7.2105e-001 -4.8575e+001 -4.2668e+001 39093 92834,92808,93102
 3.0000e+000 93151 -1.7581e+001 -1.0884e+002 -3.1466e+001 39093 93174,92834,93102
 3.0000e+000 93200 -1.5688e+001 -1.1349e+002 -3.4874e+001 39093 92938,92912,93174
 3.0000e+000 93223 -8.3677e+000 -1.0724e+002 -4.0337e+001 39093 92938,93174,93102
 3.0000e+000 93680 -1.1217e+001 -3.8123e+001 -6.5553e+000 38639 93703,93536,93484
 3.0000e+000 93657 -1.3050e+001 -4.6018e+001 -5.0942e+000 38639 93703,93484,93432
 3.0000e+000 93634  6.8457e+000 -2.9382e+001 -1.6304e+001 38639 93432,93484,93458
 3.0000e+000 93611 -7.4148e+000 -4.5110e+001 -4.6446e+001 38639 93484,93536,93510
 3.0000e+000 93588 -1.7558e+000 -1.1412e+001  1.4559e+001 38639 93406,93562,93432
 3.0000e+000 93729 -1.4922e+001 -1.9185e+001 -4.6623e+000 38639 93562,93536,93703
 3.0000e+000 93752 -2.7459e+001 -4.0667e+001  1.4894e+000 38639 93562,93703,93432
 3.0000e+000 94160  1.9460e+001 -2.6049e+001 -2.4156e+001 38292 93935,94039,93961
 3.0000e+000 94137 -4.0641e+000 -9.7617e+001 -3.4193e+000 38292 93935,94065,94039
 3.0000e+000 94114 -5.3363e+001 -9.2000e+001 -2.8162e+001 38292 93961,94013,93987
 3.0000e+000 94091 -1.4997e+001 -8.2914e+001 -8.1908e+000 38292 93961,94039,94013
 3.0000e+000 94408  4.2726e+001 -1.5831e+002 -2.4259e+000 37880 94431,94261,94235
 3.0000e+000 94385  2.7106e+001 -1.2125e+002 -1.0420e+001 37880 94431,94235,94313
 3.0000e+000 94362  1.2504e+000 -1.2057e+002  2.4504e+001 37880 94209,94313,94235
 3.0000e+000 94339  4.0263e+000 -1.1396e+002  2.4437e+001 37880 94183,94313,94209
 3.0000e+000 94457  7.5744e+001 -1.2841e+002 -1.4974e+001 37880 94287,94261,94431
 3.0000e+000 94480  3.6563e+001 -1.1155e+002 -1.4318e+001 37880 94287,94431,94313
 3.0000e+000 94728 -9.5188e+001 -2.8795e+002  1.0693e+001 37426 94529,94607,94555
 3.0000e+000 94705 -1.6519e+001 -3.7662e+002 -3.0899e+001 37426 94529,94633,94607
 3.0000e+000 94682 -2.8275e+001 -3.7253e+002 -2.9196e+001 37426 94503,94633,94529
 3.0000e+000 94659 -4.3166e+001 -1.1625e+002 -7.1144e+001 37426 94555,94607,94581
 3.0000e+000 95257 -4.6806e+000 -1.3759e+002 -9.6956e+000 36722 95496,95280,94862
 3.0000e+000 95234 -4.9658e+001 -1.5651e+002 -7.4377e+000 36722 95496,94862,94836
 3.0000e+000 95211  1.1098e+000 -1.4303e+002 -1.2002e+001 36722 95352,95280,95070
 3.0000e+000 95188 -1.3485e+001 -1.5371e+002  3.1172e-001 36722 95352,95070,95044
 3.0000e+000 95165 -3.8725e+001 -1.8078e+002 -3.8140e+000 36722 95424,94888,94862
 3.0000e+000 95142 -4.3520e+000 -6.5362e+001  1.4834e+001 36722 94914,94966,94940
 3.0000e+000 95119 -5.8351e+001 -2.3284e+002  3.2250e+001 36722 94966,95044,95018
 3.0000e+000 95096 -3.9799e+001 -1.4428e+002  1.2510e+001 36722 94966,95018,94992
 3.0000e+000 95306 -2.5780e+001 -1.4313e+002 -8.9386e+000 36722 95424,94862,95280
 3.0000e+000 95329 -5.4832e+000 -8.9777e+001 -2.3555e+001 36722 94914,95280,94966
 3.0000e+000 95378 -2.3316e+001 -1.4655e+002 -2.3886e+000 36722 94966,95280,95352
 3.0000e+000 95401 -3.2262e+001 -1.4440e+002  5.5648e+000 36722 94966,95352,95044
 3.0000e+000 95450 -2.5795e+001 -1.5356e+002 -2.5517e+001 36722 94914,94888,95424
 3.0000e+000 95473 -2.8188e+001 -1.5516e+002 -2.3227e+001 36722 94914,95424,95280
 3.0000e+000 95522  1.4450e+000 -1.3932e+002 -1.2252e+001 36722 95070,95280,95496
 3.0000e+000 95545 -7.9671e-001 -1.3623e+002 -1.0090e+001 36722 95070,95496,94836
 3.0000e+000 96130 -2.1738e+001 -5.4785e+001  1.7363e+001 36268 96153,95911,95859
 3.0000e+000 96107 -3.7430e+001 -9.5426e+001  1.0383e+001 36268 96153,95859,95807
 3.0000e+000 96084 -2.1054e+001 -6.6422e+001  1.2344e-001 36268 95807,95859,95833
 3.0000e+000 96061 -2.4750e+001 -1.9655e+002  2.5611e+001 36268 95911,95989,95937
 3.0000e+000 96038 -9.6743e+000 -4.9772e+001  1.6962e+001 36268 95859,95911,95885
 3.0000e+000 96015 -4.7541e+001 -9.9752e+001 -3.6866e+001 36268 95937,95989,95963
 3.0000e+000 96179  9.5203e+000 -9.4538e+001  2.7423e+001 36268 95989,95911,96153
 3.0000e+000 96202 -1.4840e+001 -1.4808e+002  1.7840e+001 36268 95989,96153,95807
 3.0000e+000 96531 -3.8214e+001 -2.4937e+002  4.0088e+001 35728 96358,96410,96384
 3.0000e+000 96508 -4.4412e+001 -2.2588e+002  2.7363e+001 35728 96332,96410,96358
 3.0000e+000 96485 -5.7103e+001 -2.1210e+002  5.6900e+001 35728 96332,96436,96410
 3.0000e+000 96462 -5.2419e+000 -1.2888e+002 -9.5427e+000 35728 96306,96436,96332
 3.0000e+000 96860 -1.4659e+001 -1.3307e+002  2.7617e+000 35324 96687,96765,96713
 3.0000e+000 96837 -2.9669e+001 -1.6891e+002  1.7581e+000 35324 96661,96765,96687
 3.0000e+000 96814 -5.9601e+001 -1.4206e+002  4.2331e+000 35324 96713,96765,96739
 3.0000e+000 96791 -1.8525e+001 -2.4189e+002 -1.6475e+001 35324 96635,96765,96661
 3.0000e+000 97366 -3.8917e+001 -2.4300e+002  4.1988e+001 34920 97389,97069,97043
 3.0000e+000 97343 -5.0203e+001 -2.1128e+002  1.5975e+001 34920 97389,97043,97199
 3.0000e+000 97320 -1.8445e+001 -2.2311e+002 -1.0182e+001 34920 97043,97225,97199
 3.0000e+000 97297 -4.1209e+001 -3.5028e+002  3.6554e+001 34920 97069,97121,97095
 3.0000e+000 97274 -1.1584e+001 -1.1364e+002  2.2473e-001 34920 97121,97199,97173
 3.0000e+000 97251 -2.0157e+001 -8.3152e+001 -2.5593e+001 34920 97121,97173,97147
 3.0000e+000 97415 -3.2069e+001 -2.3264e+002  7.3025e+000 34920 97121,97069,97389
 3.0000e+000 97438 -1.0745e+001 -1.6260e+002 -2.2255e+001 34920 97121,97389,97199
 3.0000e+000 97708 -5.2731e+001 -1.6961e+002  2.6955e+000 34722 97509,97587,97535
 3.0000e+000 97685 -2.5610e+001 -1.6514e+002 -3.5729e+000 34722 97509,97613,97587
 3.0000e+000 97662 -5.7821e+001 -1.8055e+002 -8.0911e+000 34722 97483,97613,97509
 3.0000e+000 97639 -3.4231e+001 -1.4673e+002  3.1867e+001 34722 97535,97587,97561
 3.0000e+000 98216 -2.6758e+001 -2.6620e+002  1.3522e+001 34318 97971,98075,97997
 3.0000e+000 98193  6.1859e+000 -2.0772e+002  2.9033e+001 34318 97893,98075,97971
 3.0000e+000 98170  4.7807e+001 -1.6988e+002  9.9852e+000 34318 97893,97971,97919
 3.0000e+000 98147 -2.8151e+001 -1.6717e+002  4.4223e+001 34318 97997,98075,98049
 3.0000e+000 98124  1.1138e+001 -1.6509e+002  5.3745e+000 34318 97919,97971,97945
 3.0000e+000 98101 -7.7249e+001 -2.6636e+002  8.1332e+001 34318 97997,98049,98023
 3.0000e+000 98594  2.9112e+001 -9.8883e+001 -1.9019e+001 33814 98961,98617,98424
 3.0000e+000 98571  2.9556e+001 -1.1980e+002 -1.0281e+001 33814 98689,98617,98372
 3.0000e+000 98548 -7.4230e-001 -7.1671e+001 -5.8678e+000 33814 99033,98689,98372
 3.0000e+000 98525 -1.6285e+001 -7.1776e+001  2.0562e+001 33814 98761,98476,98450
 3.0000e+000 98502  1.8134e+001 -8.9320e+001 -2.1801e+001 33814 98961,98424,98398
 3.0000e+000 98643 -2.3706e-001 -9.5076e+001  2.3667e+000 33814 98450,98424,98617
 3.0000e+000 98666  2.4519e+001 -6.3493e+001  1.5506e+001 33814 98761,98450,98617
 3.0000e+000 98715 -2.5485e+001 -1.5823e+002 -8.7397e+000 33814 99161,98689,98320
 3.0000e+000 98738 -5.8198e+001 -1.4724e+002 -3.7103e+000 33814 98320,98689,98346
 3.0000e+000 98787 -3.6684e+001 -1.2632e+002  5.8262e+001 33814 98833,98761,98320
 3.0000e+000 98810 -1.1295e+001 -1.6950e+002  1.7944e+001 33814 99161,98320,98761
 3.0000e+000 98859  1.1012e+001  1.9774e+000  1.6962e+001 33814 98476,98761,98833
 3.0000e+000 98987  4.1797e+001 -9.0406e+001 -2.3440e+001 33814 98372,98617,98961
 3.0000e+000 99010  3.3611e+001 -7.7233e+001 -2.8072e+001 33814 98372,98961,98398
 3.0000e+000 99059 -3.9953e+001 -1.5308e+002 -2.3824e+001 33814 98346,98689,99033
 3.0000e+000 99187 -7.0516e+000 -1.1777e+002 -4.5106e+000 33814 98617,98689,99161
 3.0000e+000 99210  6.1158e+000 -1.3362e+002  2.3422e+001 33814 98617,99161,98761
 3.0000e+000 99588 -5.5182e+001 -1.2844e+002 -4.0397e+001 33566 99366,99444,99392
 3.0000e+000 99565  9.6784e+000 -1.0306e+002 -2.1647e+001 33566 99314,99444,99366
 3.0000e+000 99542 -2.6448e+001 -1.0525e+002  2.2853e+001 33566 99314,99366,99340
 3.0000e+000 99519 -1.3545e+001 -1.3728e+002  1.5088e+001 33566 99314,99470,99444
 3.0000e+000 99496 -5.0717e+001 -5.8885e+001 -1.9431e+001 33566 99392,99444,99418
 3.0000e+000 99787  7.0926e+000 -1.6850e+002  3.4927e+001 33105 99637,99689,99663
 3.0000e+000 99764 -4.0567e+000 -1.5265e+002 -4.4395e-002 33105 99611,99689,99637
 3.0000e+000 99741  1.3679e+001 -5.3712e+001  6.3745e+000 33105 99611,99715,99689
 3.0000e+000 100167 -5.2116e+001 -2.0820e+002  5.1788e+001 32651 100190,99971,99919
 3.0000e+000 100144 -5.3670e+001 -1.6725e+002  4.5000e+001 32651 100262,100190,99919
 3.0000e+000 100121 -5.3869e+001 -1.6471e+002  4.1884e+001 32651 100262,99919,100049
 3.0000e+000 100098 -1.4277e+001 -1.4534e+002 -3.2239e+001 32651 99893,100049,99919
 3.0000e+000 100075 -2.7259e+001 -1.6404e+002  6.1736e+001 32651 99919,99971,99945
 3.0000e+000 100216 -4.8519e+001 -2.3224e+002  2.0212e+001 32651 99997,99971,100190
 3.0000e+000 100239 -4.3056e+001 -1.9490e+002  2.9212e+001 32651 99997,100190,100023
 3.0000e+000 100288 -4.5311e+001 -1.8641e+002  4.4167e+001 32651 100023,100190,100262
 3.0000e+000 100311 -2.2469e+001 -1.6987e+002  3.1867e+001 32651 100023,100262,100049
 3.0000e+000 100608 -7.1476e+001 -2.1342e+002 -6.1711e+000 32254 100386,100490,100464
 3.0000e+000 100585 -6.6388e+001 -1.8671e+002 -9.3182e+000 32254 100360,100490,100386
 3.0000e+000 100562 -5.8468e+001 -2.2585e+002 -1.5025e+001 32254 100386,100464,100412
 3.0000e+000 100539 -1.3246e+001 -1.6505e+002 -9.0064e+000 32254 100334,100490,100360
 3.0000e+000 100516 -4.2723e+001 -1.4600e+002 -1.9457e+001 32254 100412,100464,100438
 3.0000e+000 100758 -7.6899e+000 -5.3479e+000  8.3635e+000 31914 100985,100781,100683
 3.0000e+000 100735 -1.0237e+001 -9.3219e+000  9.5345e+000 31914 100853,100781,100657
 3.0000e+000 100807 -1.3602e+001 -1.0454e+001  1.2090e+001 31914 100709,100683,100781
 3.0000e+000 100830 -2.6344e-001 -4.5501e+000  1.3171e+001 31914 100709,100781,100631
 3.0000e+000 100879 -5.0438e+000 -7.7958e+000  7.4023e+000 31914 100631,100781,100853
 3.0000e+000 101011 -8.9203e+000 -9.5687e+000  8.1724e+000 31914 100657,100781,100985
 3.0000e+000 101191 -2.2983e-001 -7.4101e+001  2.7130e-001 31418 101113,101165,101139
 3.0000e+000 101341 -1.0992e+002 -2.7252e+002 -1.7703e+001 31106 101214,101266,101240
 3.0000e+000 101318 -6.6141e+001 -1.4590e+002 -9.2491e-001 31106 101214,101292,101266
 3.0000e+000 101591 -6.1745e+001 -1.8481e+002  7.6756e+001 30552 101614,101470,101444
 3.0000e+000 101568 -1.4210e+000 -8.1638e+001  9.2259e+001 30552 101366,101496,101470
 3.0000e+000 101545 -5.4495e+001 -2.5531e+002  4.8367e+001 30552 101614,101444,101392
 3.0000e+000 101522 -1.8474e+001 -1.7842e+002 -1.4608e+000 30552 101392,101444,101418
 3.0000e+000 101640 -4.3998e+001 -1.3370e+002  1.1905e+002 30552 101366,101470,101614
 3.0000e+000 101663 -3.8924e+001 -2.0195e+002  8.9097e+001 30552 101366,101614,101392
 3.0000e+000 102301  2.1441e+001 -2.1510e+002  5.2002e+000 30042 102396,102324,102059
 3.0000e+000 102278 -6.0150e+001 -1.7548e+002 -7.8315e+000 30042 102324,101981,101955
 3.0000e+000 102255  1.8215e+001 -1.8343e+002  4.0373e+001 30042 102396,102059,102033
 3.0000e+000 102232 -1.0836e+001 -1.2825e+002 -1.8713e+001 30042 101929,102111,101955
 3.0000e+000 102209  6.4210e+000 -1.7067e+002 -5.8570e+001 30042 102059,102111,102085
 3.0000e+000 102186 -2.4855e+001 -1.3774e+002 -9.8521e+000 30042 101929,102137,102111
 3.0000e+000 102163  1.3176e+001 -3.3067e+001 -4.8013e+001 30042 101981,102033,102007
 3.0000e+000 102350 -3.4642e+001 -2.1935e+002 -4.0559e+001 30042 102111,102059,102324
 3.0000e+000 102373  8.1690e+000 -1.3889e+002 -2.4464e+001 30042 102111,102324,101955
 3.0000e+000 102422  9.5960e+000 -1.1888e+002  1.8241e+001 30042 101981,102324,102396
 3.0000e+000 102445  1.0239e+001 -8.5683e+001  5.4996e+001 30042 101981,102396,102033
 3.0000e+000 103000  1.3648e+001 -2.3113e+002  2.6717e-001 29730 103023,102706,102654
 3.0000e+000 102977 -4.2941e+001 -2.2402e+002 -2.4357e+001 29730 103023,102654,102810
 3.0000e+000 102954 -1.4799e+002 -4.1580e+002 -1.1542e+001 29730 102732,102810,102784
 3.0000e+000 102931 -7.7228e+001 -2.7228e+002 -4.2155e+001 29730 102628,102810,102654
 3.0000e+000 102908  3.4206e+000 -1.7145e+002  2.1779e+001 29730 102654,102706,102680
 3.0000e+000 102885 -9.9235e+001 -2.0814e+002 -9.4510e+001 29730 102732,102784,102758
 3.0000e+000 102862 -5.2451e+001 -2.5556e+002 -6.2531e+001 29730 102628,102836,102810
 3.0000e+000 103049 -2.2995e+001 -2.6868e+002 -2.3139e+001 29730 102732,102706,103023
 3.0000e+000 103072 -5.7086e+001 -2.3319e+002 -4.2335e+001 29730 102732,103023,102810
 3.0000e+000 103222  5.0988e+001 -1.8426e+002 -1.8669e+001 29226 103095,103147,103121
 3.0000e+000 103199  2.2684e+001 -1.8441e+002 -1.7616e+001 29226 103095,103173,103147
 3.0000e+000 103730 -2.0601e+001 -1.7227e+002  2.5099e-001 28822 103537,103589,103563
 3.0000e+000 103707 -3.3612e+001 -2.1366e+002  3.2180e+000 28822 103433,103589,103537
 3.0000e+000 103684 -5.1426e+001 -1.9696e+002 -3.6583e+001 28822 103433,103537,103459
 3.0000e+000 103661 -2.1764e+001 -1.7691e+002  9.7529e+000 28822 103407,103589,103433
 3.0000e+000 103638 -5.4276e+001 -1.0560e+002  2.7846e+001 28822 103459,103511,103485
 3.0000e+000 103615 -5.7944e+001 -9.0865e+001  2.1250e+001 28822 103459,103537,103511
 3.0000e+000 103880  5.1542e+001 -1.8002e+002  3.8552e+001 28368 103975,103903,103779
 3.0000e+000 103857  1.9420e+001 -2.1583e+002  1.9135e+001 28368 103903,103753,103831
 3.0000e+000 103929  1.6487e+001 -1.6322e+002  1.7449e+001 28368 103805,103779,103903
 3.0000e+000 103952 -2.1651e+001 -2.0009e+002 -1.8917e+000 28368 104105,103903,103831
 3.0000e+000 104001  6.5188e+001 -1.9415e+002  3.5586e+000 28368 103753,103903,103975
 3.0000e+000 104131 -3.8777e+001 -1.8818e+002  3.1824e+001 28368 103805,103903,104105
 3.0000e+000 104539 -1.2020e+001 -6.3584e+001 -1.0284e+000 28028 104562,104340,104314
 3.0000e+000 104516 -4.7023e+000 -1.4351e+001  2.6700e+000 28028 104634,104562,104314
 3.0000e+000 104493 -4.7196e+001 -7.7920e+001 -3.7508e+001 28028 104762,104366,104340
 3.0000e+000 104470 -1.9560e+001 -7.5585e+001 -4.4743e+001 28028 104366,104418,104392
 3.0000e+000 104588 -2.3635e+001 -8.3467e+001 -2.5397e+001 28028 104762,104340,104562
 3.0000e+000 104611 -8.2276e+000 -5.3102e+001 -1.0644e+001 28028 104418,104562,104444
 3.0000e+000 104660 -7.2685e+000 -5.1404e+001 -1.1964e+000 28028 104444,104562,104634
 3.0000e+000 104788 -2.3621e+001 -6.6549e+001 -3.0385e+001 28028 104418,104366,104762
 3.0000e+000 104811  1.7127e+000 -6.7261e+001 -1.6120e+001 28028 104418,104762,104562
 3.0000e+000 105010 -2.3817e+001 -1.2788e+002 -2.1115e+001 27324 105033,104886,104860
 3.0000e+000 104987  4.6724e+001 -7.5536e+001  3.9878e+001 27324 105033,104860,104834
 3.0000e+000 104964  3.0452e+001 -4.2394e+001  2.2496e+001 27324 105105,104912,104886
 3.0000e+000 105059  2.7780e+001 -4.9958e+001  2.0658e+001 27324 105105,104886,105033
 3.0000e+000 105082  3.3426e+001 -3.6533e+001  6.3993e+001 27324 104938,105033,104834
 3.0000e+000 105131  5.0469e+001 -4.9572e+001  3.7194e+001 27324 104938,104912,105105
 3.0000e+000 105154  3.8810e+001 -7.0455e+001  3.1716e+001 27324 104938,105105,105033
 3.0000e+000 105402 -6.9485e+001 -1.5024e+002 -8.1173e+000 27012 105229,105281,105255
 3.0000e+000 105379 -3.5753e+001 -1.0930e+002 -2.4219e+001 27012 105229,105307,105281
 3.0000e+000 105356 -3.2210e-002 -8.6918e+001 -1.4395e+001 27012 105177,105307,105229
 3.0000e+000 105333 -6.2810e+001 -1.0007e+002 -8.1900e+001 27012 105177,105229,105203
 3.0000e+000 105603  3.4034e+001 -7.8476e+000  2.6283e+001 26508 105626,105453,105427
 3.0000e+000 105580  3.4525e+001 -6.9597e+000  3.2227e+001 26508 105626,105427,105505
 3.0000e+000 105557  7.4581e+000  1.4602e+001  1.5231e+001 26508 105427,105531,105505
 3.0000e+000 105652  2.9497e+001 -9.7964e+000  2.6447e+001 26508 105479,105453,105626
 3.0000e+000 105675  2.8771e+001 -9.3149e+000  3.1867e+001 26508 105479,105626,105505
 3.0000e+000 106057 -3.1437e+001 -1.4348e+002  8.3230e+001 25947 106080,105887,105861
 3.0000e+000 106034 -1.6443e+001 -1.1671e+002  6.9748e+001 25947 106080,105861,105783
 3.0000e+000 106011 -1.6263e+001 -9.5229e+001  6.5410e+001 25947 105783,105835,105809
 3.0000e+000 105988 -3.7370e+001 -1.0724e+002  7.3624e+001 25947 105783,105861,105835
 3.0000e+000 105965  1.1765e+001 -1.0085e+002  4.5583e+001 25947 105887,105939,105913
 3.0000e+000 106106 -2.9445e+001 -1.3341e+002  5.9742e+001 25947 105939,105887,106080
 3.0000e+000 106129  1.2554e+000 -8.5902e+001  4.3105e+001 25947 105939,106080,105783
 3.0000e+000 106714 -6.3488e+001 -1.1392e+002  1.4086e+001 25557 106809,106737,106547
 3.0000e+000 106691 -7.4403e+001 -1.7534e+002  4.4303e+001 25557 106737,106417,106391
 3.0000e+000 106668 -4.3930e+001 -9.9756e+001  7.9024e+000 25557 106809,106547,106495
 3.0000e+000 106645 -8.3400e+001 -2.6686e+002  6.0762e+001 25557 106417,106495,106469
 3.0000e+000 106622 -7.2296e+001 -1.0709e+002  1.2463e+001 25557 106495,106547,106521
 3.0000e+000 106599 -1.0116e+002 -2.1281e+002  5.8570e+001 25557 106417,106469,106443
 3.0000e+000 106763 -8.8251e+001 -1.4193e+002  2.7348e+001 25557 106573,106547,106737
 3.0000e+000 106786 -5.1286e+001 -1.2672e+002  3.2929e+001 25557 106573,106737,106391
 3.0000e+000 106835 -3.7779e+001 -1.4068e+002  2.2497e+001 25557 106417,106737,106809
 3.0000e+000 106858 -2.2844e+001 -1.2603e+002  1.6137e+001 25557 106417,106809,106495
 3.0000e+000 107364 -1.8830e+001 -9.7192e+001 -3.3138e+001 25153 107459,107387,107171
 3.0000e+000 107341  1.4654e+001 -8.7642e+001 -2.4495e+001 25153 107387,107119,107067
 3.0000e+000 107318 -1.7431e+001 -6.2618e+001  1.2867e+000 25153 107459,107171,107145
 3.0000e+000 107295 -2.1886e+001 -1.0864e+002 -4.4973e+001 25153 107531,107223,107197
 3.0000e+000 107272 -7.5766e+000 -1.0288e+002  1.8747e+001 25153 107067,107119,107093
 3.0000e+000 107249 -1.1449e+001 -8.8220e+001 -1.9979e+001 25153 107041,107223,107067
 3.0000e+000 107413 -6.3759e+001 -1.0935e+002 -3.7244e+001 25153 107197,107171,107387
 3.0000e+000 107436 -6.9441e+000 -1.0560e+002 -4.0611e+001 25153 107531,107197,107387
 3.0000e+000 107485  4.8895e+000 -3.5848e+001 -1.6623e+001 25153 107119,107387,107459
 3.0000e+000 107508  1.5547e+001 -4.9988e+000  2.2387e+001 25153 107119,107459,107145
 3.0000e+000 107557 -2.9757e+001 -1.0229e+002 -2.7179e+001 25153 107067,107223,107531
 3.0000e+000 107580 -1.0809e+001 -9.3945e+001 -2.1768e+001 25153 107067,107531,107387
 3.0000e+000 107958 -2.2678e+001 -1.6173e+002 -2.1709e+001 24741 107736,107814,107788
 3.0000e+000 107935 -6.0829e+001 -1.9964e+002 -4.7898e+001 24741 107736,107840,107814
 3.0000e+000 107912 -8.1896e+001 -2.1118e+002 -5.8739e+001 24741 107684,107840,107736
 3.0000e+000 107889 -4.7619e+001 -1.3170e+002 -3.1214e+001 24741 107736,107788,107762
 3.0000e+000 107866 -8.8565e+001 -2.5646e+002 -7.8501e+001 24741 107684,107736,107710
 3.0000e+000 108157 -1.9525e+001 -5.2558e+001  1.3818e+001 24237 108180,108059,108007
 3.0000e+000 108134  8.2511e+000 -2.6468e+001  2.9702e+001 24237 108180,108007,107981
 3.0000e+000 108111  2.3267e+001 -7.5159e+001  1.1368e+001 24237 108007,108059,108033
 3.0000e+000 108206 -6.2308e+000 -3.3416e+001  3.9844e+001 24237 108085,108059,108180
 3.0000e+000 108229  2.0261e+001 -7.9555e+000  5.5528e+001 24237 108085,108180,107981
 3.0000e+000 108658 -3.7941e+001 -1.6439e+002  1.2409e+001 23776 108361,108413,108387
 3.0000e+000 108635 -4.4124e+001 -2.1913e+002 -3.3516e+001 23776 108753,108681,108361
 3.0000e+000 108612 -1.7408e+001 -1.4240e+002 -3.2042e+001 23776 108681,108465,108439
 3.0000e+000 108589  1.2921e+000 -2.3545e+002 -5.4438e+000 23776 108753,108361,108335
 3.0000e+000 108566 -2.0775e+001 -1.9698e+002  9.5281e+001 23776 108335,108517,108465
 3.0000e+000 108543 -1.9153e+001 -2.3950e+002  1.0106e+002 23776 108465,108517,108491
 3.0000e+000 108707 -6.3355e+001 -1.5276e+002 -2.6789e+001 23776 108413,108361,108681
 3.0000e+000 108730 -3.4339e+001 -1.2561e+002 -1.3772e+001 23776 108413,108681,108439
 3.0000e+000 108779 -7.7268e-001 -1.3663e+002 -1.7048e+001 23776 108465,108681,108753
 3.0000e+000 108802  1.3198e+001 -2.0443e+002 -1.3633e+000 23776 108465,108753,108335
 3.0000e+000 109023  8.3700e+001 -3.2071e+001  2.9515e+001 23414 108873,108925,108899
 3.0000e+000 109000  2.3834e+001 -5.4036e+001  2.7777e+001 23414 108847,108925,108873
 3.0000e+000 108977  7.4930e+001  5.3034e+001  9.8678e+000 23414 108847,108951,108925
 3.0000e+000 109474  1.6270e+000 -1.0855e+002  1.2948e+001 23024 109151,109307,109177
 3.0000e+000 109451  1.0677e+001  1.8677e+001 -1.4327e+000 23024 109151,109333,109307
 3.0000e+000 109428  9.9380e-001 -2.5424e+002 -8.9488e+000 23024 109177,109281,109203
 3.0000e+000 109405 -7.0357e+001 -2.1072e+002 -4.0221e+001 23024 109177,109307,109281
 3.0000e+000 109382  2.2791e+001 -1.7386e+002  3.8520e+001 23024 109203,109281,109229
 3.0000e+000 109359 -4.0631e+001 -2.0242e+002  2.9875e+000 23024 109229,109281,109255
 3.0000e+000 109820 -1.9589e+001 -1.5130e+002  2.3987e+001 22506 109843,109601,109523
 3.0000e+000 109797 -6.3041e+000 -1.3395e+002  1.6677e+001 22506 109843,109523,109497
 3.0000e+000 109774 -3.5702e+000 -1.6669e+002  1.4350e+001 22506 109915,109653,109627
 3.0000e+000 109751 -2.2721e+001 -1.2516e+002  1.5424e+001 22506 109497,109679,109653
 3.0000e+000 109728 -3.5065e+001 -1.9211e+002 -3.3625e+001 22506 109523,109601,109575
 3.0000e+000 109705 -9.5948e+001 -2.5910e+002 -6.0443e+001 22506 109523,109575,109549
 3.0000e+000 109869  2.1221e+000 -1.3916e+002  2.9396e+001 22506 109627,109601,109843
 3.0000e+000 109892  6.9040e+000 -1.5063e+002  2.4559e+001 22506 109915,109627,109843
 3.0000e+000 109941 -1.8025e+001 -1.5557e+002  4.7295e+000 22506 109497,109653,109915
 3.0000e+000 109964 -1.6846e+001 -1.5564e+002  1.2257e+001 22506 109497,109915,109843
 3.0000e+000 110163 -2.2632e+001 -1.2478e+002  7.7732e+000 21936 110186,110039,110013
 3.0000e+000 110140 -8.8776e+000 -1.0360e+002  1.8988e+001 21936 110390,110186,110013
 3.0000e+000 110117  7.6072e+000 -1.2373e+002  3.5891e+001 21936 110390,110013,109987
 3.0000e+000 110212 -9.1307e-001 -8.7454e+001 -2.6533e+001 21936 110065,110039,110186
 3.0000e+000 110235 -2.4374e+001 -8.4149e+001  4.3163e+000 21936 110258,110186,110091
 3.0000e+000 110284 -8.6130e+001 -1.2663e+002 -1.4896e+001 21936 110065,110186,110258
 3.0000e+000 110416 -4.5292e+001 -1.1824e+002  2.5629e+001 21936 110091,110186,110390
 3.0000e+000 110439 -2.0405e+001 -1.3295e+002  4.0506e+001 21936 110091,110390,109987
 3.0000e+000 110709  1.3110e+001 -1.6710e+002  4.9902e+000 21338 110510,110614,110588
 3.0000e+000 110686 -2.3736e+001 -2.3375e+002 -1.4064e+001 21338 110484,110614,110510
 3.0000e+000 110663  2.5669e+001 -5.2324e+001  1.0503e+000 21338 110510,110562,110536
 3.0000e+000 110640 -2.4455e+001 -1.7158e+002 -5.9398e+000 21338 110510,110588,110562
 3.0000e+000 111296  1.8793e+001 -1.1375e+002  1.2106e+001 20934 111025,111155,111103
 3.0000e+000 111273 -1.9088e+001 -3.3048e+002  6.2085e+000 20934 110999,111155,111025
 3.0000e+000 111250 -6.9275e-001 -1.1637e+002 -9.8406e+000 20934 111103,111155,111129
 3.0000e+000 111227 -4.7801e+001 -2.3419e+002 -3.1053e+001 20934 111051,111103,111077
 3.0000e+000 111204 -5.8535e+001 -2.3546e+002 -2.1880e+001 20934 111025,111103,111051
 3.0000e+000 111181 -5.1162e+001 -3.9080e+002 -7.5557e+000 20934 110973,111155,110999
 3.0000e+000 111930 -7.8667e+001 -1.2795e+002 -3.5369e+001 20494 111662,111714,111688
 3.0000e+000 111907 -3.2279e+001 -1.0522e+002 -2.3654e+001 20494 111584,111714,111662
 3.0000e+000 111884 -2.2781e+001 -1.0248e+002 -2.4669e+001 20494 111584,111766,111714
 3.0000e+000 111861  5.1611e+000 -2.1964e+002  1.7984e+001 20494 111584,111636,111610
 3.0000e+000 111838 -4.7511e+001 -1.4967e+002 -2.0518e+001 20494 111584,111662,111636
 3.0000e+000 111815 -2.7868e+000 -6.5772e+001  1.7728e+001 20494 111558,111766,111584
 3.0000e+000 111792 -4.1378e+001 -1.1980e+002  1.8027e+001 20494 111714,111766,111740
 3.0000e+000 112249 -5.5586e+001 -3.4479e+002  2.7419e+001 19940 111975,112053,112001
 3.0000e+000 112226  7.4273e+000 -2.2462e+002  2.5296e+000 19940 111975,112131,112053
 3.0000e+000 112203  5.8282e+001 -3.0271e+002  0.0000e+000 19940 112053,112105,112079
 3.0000e+000 112180 -3.8448e+001 -3.2585e+002 -7.5371e+000 19940 112053,112131,112105
 3.0000e+000 112157 -1.6643e+000 -2.8975e+002 -1.1266e+001 19940 112001,112053,112027
 3.0000e+000 112757  3.8170e+001 -1.5246e+002 -4.3519e+001 19486 112780,112538,112486
 3.0000e+000 112734  2.9605e+001 -1.6744e+002 -1.5904e+001 19486 112780,112486,112460
 3.0000e+000 112711 -8.7589e+000 -1.3549e+002 -1.4125e+001 19486 112852,112616,112590
 3.0000e+000 112688  1.4050e+002 -2.2012e+002 -5.9492e+001 19486 112486,112538,112512
 3.0000e+000 112665 -3.3043e+001 -1.8807e+002  2.3949e+001 19486 112434,112616,112460
 3.0000e+000 112642 -1.2785e+001 -1.3518e+002 -2.8210e+001 19486 112538,112590,112564
 3.0000e+000 112806  1.1790e+001 -1.6581e+002 -3.7454e+001 19486 112590,112538,112780
 3.0000e+000 112829  3.4486e+001 -1.4813e+002 -2.4142e+001 19486 112852,112590,112780
 3.0000e+000 112878 -3.6234e+001 -1.5067e+002 -2.7350e+000 19486 112460,112616,112852
 3.0000e+000 112901 -1.0617e+001 -1.8007e+002 -7.7824e+000 19486 112460,112852,112780
 3.0000e+000 113252 -1.3590e+002 -2.5295e+002 -8.3148e+000 19096 113105,113157,113131
 3.0000e+000 113229 -1.1329e+002 -1.8427e+002 -8.0022e-001 19096 113053,113157,113105
 3.0000e+000 113206 -9.4814e+001 -1.7369e+002  3.5821e+000 19096 113027,113157,113053
 3.0000e+000 113183 -1.6233e+002 -2.8762e+002  1.4727e+001 19096 113053,113105,113079
 3.0000e+000 113451 -3.1697e+001 -1.7671e+002 -1.6308e+001 18642 113327,113379,113353
 3.0000e+000 113428 -6.2383e+001 -2.4965e+002 -1.8275e+001 18642 113301,113379,113327
 3.0000e+000 113405  3.6763e-001 -2.1784e+002 -3.6169e+000 18642 113275,113379,113301
 3.0000e+000 113699 -1.5203e-001 -2.1676e+002 -4.2701e+000 18138 113474,113552,113526
 3.0000e+000 113676  4.2292e+001 -2.2809e+002 -2.5884e+001 18138 113474,113578,113552
 3.0000e+000 113653  3.5567e+001 -2.1993e+002 -2.3826e+001 18138 113474,113604,113578
 3.0000e+000 113630  4.7030e+001 -1.8484e+002  2.0563e+001 18138 113474,113526,113500
 3.0000e+000 113851 -3.1757e+001 -2.5671e+002 -2.9147e+000 17682 113750,113802,113776
 3.0000e+000 113828  1.5185e-001 -2.3646e+002  5.8916e+000 17682 113724,113802,113750
 3.0000e+000 114383  3.2706e+001 -1.7109e+002 -2.2045e+001 17106 114086,114242,114164
 3.0000e+000 114360 -6.5775e+001 -2.1079e+002  3.3527e+000 17106 114060,114242,114086
 3.0000e+000 114337 -7.9304e+001 -3.5218e+002  3.3048e+001 17106 114086,114164,114138
 3.0000e+000 114314 -9.3981e+001 -5.4713e+002 -1.2289e+001 17106 114190,114242,114216
 3.0000e+000 114291 -4.2809e+001 -3.8916e+002 -3.9729e+001 17106 114164,114242,114190
 3.0000e+000 114268 -2.5828e+001 -3.2399e+002  7.2057e+001 17106 114086,114138,114112
 3.0000e+000 114680 -7.6398e+001 -2.3105e+002 -1.2228e+000 16766 114703,114432,114406
 3.0000e+000 114657 -8.1284e+001 -2.3541e+002 -4.0609e+000 16766 114703,114406,114510
 3.0000e+000 114634 -6.9511e+001 -1.7447e+002  3.2080e+000 16766 114406,114536,114510
 3.0000e+000 114611 -6.0008e+001 -2.4959e+002 -1.2795e+001 16766 114432,114484,114458
 3.0000e+000 114588 -8.6684e+001 -2.0400e+002  5.9599e+001 16766 114406,114562,114536
 3.0000e+000 114729 -5.8488e+001 -2.3352e+002  5.6458e+000 16766 114484,114432,114703
 3.0000e+000 114752 -7.2338e+001 -2.4544e+002  5.2029e-001 16766 114484,114703,114510
 3.0000e+000 114902  1.8949e+001 -3.2995e+002 -4.0970e+001 16362 114775,114827,114801
 3.0000e+000 114879  4.6615e+001 -3.0319e+002 -5.1918e+001 16362 114775,114853,114827
 3.0000e+000 115054 -3.6124e+002 -5.7843e+002 -1.5084e+001 15908 114953,115005,114979
 3.0000e+000 115031 -3.4060e+002 -5.9560e+002 -8.7748e+000 15908 114927,115005,114953
 3.0000e+000 115326 -4.2580e+000 -1.8841e+002  5.8728e+001 15251 115101,115179,115153
 3.0000e+000 115303  6.1443e+000 -1.6736e+002 -4.7310e+000 15251 115101,115231,115179
 3.0000e+000 115280  2.0725e+000 -1.7680e+002 -3.9137e+000 15251 115179,115231,115205
 3.0000e+000 115257 -1.3094e+002 -6.4012e+002  5.3730e+001 15251 115101,115153,115127
 3.0000e+000 115429 -5.9308e+001 -2.6170e+002  4.5876e+001 421 115351,115403,115377
 3.1000e+000 66230 -4.9450e+001  4.8605e+001  1.6112e+001 65954 66152,66204,66178
 3.1000e+000 66429  3.1855e+000  1.5252e+001  7.2162e+000 65642 66279,66331,66305
 3.1000e+000 66406 -6.8520e+000 -1.4377e+001  5.8373e+000 65642 66279,66357,66331
 3.1000e+000 66383  1.0911e+001  4.8275e+001 -1.4126e+001 65642 66253,66357,66279
 3.1000e+000 66628 -8.1223e+000 -7.2300e+001  1.6717e+001 65444 66452,66530,66478
 3.1000e+000 66605  1.9487e+001 -1.1550e+002  1.2577e+000 65444 66452,66556,66530
 3.1000e+000 66582 -9.5023e+000 -1.0423e+002  2.1608e+001 65444 66478,66530,66504
 3.1000e+000 67006 -3.6138e+000 -7.2104e+001  2.4555e+000 65246 66732,66810,66758
 3.1000e+000 66983 -2.2935e+000 -4.1118e+001  1.0174e+001 65246 66732,66836,66810
 3.1000e+000 66960 -3.9303e+000 -3.8220e+001  5.5292e+000 65246 66732,66862,66836
 3.1000e+000 66937 -1.7829e+000 -6.4210e+001  2.7372e+000 65246 66758,66810,66784
 3.1000e+000 66914  1.3286e+001 -1.4128e+002 -4.3575e+001 65246 66732,66888,66862
 3.1000e+000 67107  4.9493e+001 -5.5085e+001 -1.9456e+001 64934 67029,67081,67055
 3.1000e+000 67306 -9.4904e+000 -3.1245e+001  1.4606e+001 64736 67156,67208,67182
 3.1000e+000 67283 -3.3051e+000 -2.3976e+001  1.1864e+001 64736 67130,67208,67156
 3.1000e+000 67260  7.7054e+000 -8.6860e+001  2.0856e+001 64736 67130,67234,67208
 3.1000e+000 67507 -5.2401e+000 -7.7758e+001 -1.3824e+001 64389 67357,67409,67383
 3.1000e+000 67484 -1.0142e+001 -7.6136e+001 -1.5930e+001 64389 67357,67435,67409
 3.1000e+000 67461  1.1754e+001 -1.1287e+002 -7.1486e+000 64389 67331,67435,67357
 3.1000e+000 67708  4.6412e+001 -9.0932e+001  1.7990e+001 63985 67731,67584,67558
 3.1000e+000 67685  2.1412e+001 -1.5804e+001  4.6831e+000 63985 67731,67558,67636
 3.1000e+000 67662  1.7203e+000 -1.9932e+001  8.0204e+000 63985 67532,67636,67558
 3.1000e+000 67757  3.5963e+001 -1.2989e+002  1.3791e+001 63985 67610,67584,67731
 3.1000e+000 67780 -3.2010e+000 -7.6138e+001 -3.0296e+000 63985 67610,67731,67636
 3.1000e+000 67981  2.1950e+000  5.2042e+000  2.8228e+000 63787 67857,67909,67883
 3.1000e+000 67958 -1.9672e-001  1.4688e+001 -1.4771e+000 63787 67831,67909,67857
 3.1000e+000 67935 -1.4219e+001 -8.9609e+000 -7.1238e+000 63787 67805,67909,67831
 3.1000e+000 68231 -4.6425e+000 -1.3055e+002  9.9055e+000 63589 68254,68084,68032
 3.1000e+000 68208 -7.8003e+000 -5.5506e+001  8.7818e+000 63589 68254,68032,68006
 3.1000e+000 68185  6.2471e+000 -3.0396e+001  1.6775e+001 63589 68326,68136,68110
 3.1000e+000 68162 -1.8564e+000 -1.2095e+002 -1.4213e+001 63589 68032,68084,68058
 3.1000e+000 68280 -1.1026e+000 -6.3638e+001  1.2934e+001 63589 68110,68084,68254
 3.1000e+000 68303 -5.3975e+000 -3.5239e+001  2.5992e+001 63589 68326,68110,68254
 3.1000e+000 68352  2.3012e+001 -7.5136e+000 -1.3939e+001 63589 68006,68136,68326
 3.1000e+000 68375  1.7671e+000 -2.0700e+001 -3.5101e+000 63589 68006,68326,68254
 3.1000e+000 68836  1.1120e+000  6.5243e+000  5.9256e+000 63128 68859,68588,68562
 3.1000e+000 68813 -5.3168e+000 -1.2333e+001  2.4263e+001 63128 68859,68562,68692
 3.1000e+000 68790  2.1182e+001 -3.6755e+001  5.6077e+000 63128 68614,68692,68666
 3.1000e+000 68767 -1.9097e+001 -2.2755e+001  1.9637e+001 63128 68562,68718,68692
 3.1000e+000 68744  2.2863e+001 -4.0276e+001 -4.3721e+001 63128 68614,68666,68640
 3.1000e+000 68885  1.2629e+001  3.3425e+001 -6.4423e+000 63128 68614,68588,68859
 3.1000e+000 68908  4.8414e+000  8.9558e+000  1.1513e+001 63128 68614,68859,68692
 3.1000e+000 69237  1.0693e+001 -5.3422e+001  1.4581e+001 62731 69064,69116,69090
 3.1000e+000 69214 -6.2947e+000 -1.0010e+002  2.6722e+000 62731 69064,69142,69116
 3.1000e+000 69191 -1.5202e+001 -9.9511e+001  9.6493e+000 62731 69038,69142,69064
 3.1000e+000 69168 -3.7761e+000 -1.4947e+002  9.4017e+000 62731 69012,69142,69038
 3.1000e+000 69539  4.5325e-001  2.3579e+001 -5.0343e+000 62433 69389,69467,69441
 3.1000e+000 69516  1.0388e+001 -1.3535e+001  7.7348e-001 62433 69363,69467,69389
 3.1000e+000 69493  3.0801e+000 -1.4396e+001  2.0045e+001 62433 69389,69441,69415
 3.1000e+000 69966  3.1824e+000 -4.5963e+001  1.9307e+001 62235 69989,69773,69721
 3.1000e+000 69943  1.2385e+001 -8.3094e+001 -1.8737e+001 62235 70061,69989,69721
 3.1000e+000 69920  2.6103e+001 -8.7231e+001 -1.0424e+001 62235 70061,69721,69643
 3.1000e+000 69897  6.9578e+000  6.0865e+000  6.3088e+000 62235 69721,69773,69747
 3.1000e+000 69874 -4.3394e+001 -2.5424e+002 -3.6799e+000 62235 69643,69721,69695
 3.1000e+000 69851  9.2440e+001  2.4924e+002 -3.9374e+001 62235 69643,69695,69669
 3.1000e+000 70015 -5.0951e+000 -8.5430e+001  4.2642e+000 62235 69799,69773,69989
 3.1000e+000 70038 -4.3578e+001 -1.1534e+002 -4.6137e+001 62235 69799,69989,69825
 3.1000e+000 70087 -1.4348e+001 -8.0394e+001 -1.3923e+001 62235 69825,69989,70061
 3.1000e+000 70110  7.0498e+000 -7.9912e+001 -9.8325e+000 62235 69825,70061,69643
 3.1000e+000 70260  2.1093e+001 -2.4033e+001  3.5139e+000 62037 70133,70185,70159
 3.1000e+000 70237 -1.2961e+000 -3.9591e+001 -9.1510e+000 62037 70133,70211,70185
 3.1000e+000 70640 -9.7982e-001 -6.6505e+001  2.1948e+001 61583 70735,70663,70418
 3.1000e+000 70617 -4.0084e+001 -7.1140e+001  1.6248e+001 61583 70663,70366,70522
 3.1000e+000 70594  9.4685e+000 -5.8543e+001  3.4865e+001 61583 70735,70418,70392
 3.1000e+000 70571 -2.2259e+001 -1.0090e+002  1.1630e+001 61583 70418,70496,70444
 3.1000e+000 70548 -4.9098e+001 -6.2426e+001  9.5038e+000 61583 70444,70496,70470
 3.1000e+000 70689 -3.5652e+001 -1.0619e+002  7.2764e+000 61583 70496,70418,70663
 3.1000e+000 70712 -5.6119e+001 -6.7790e+001  1.1744e+001 61583 70496,70663,70522
 3.1000e+000 70761 -3.6071e+001 -7.5285e+001  7.9467e-001 61583 70366,70663,70735
 3.1000e+000 70784 -1.4731e+001 -6.2598e+001  1.3754e+001 61583 70366,70735,70392
 3.1000e+000 71054  1.2626e+000  3.5192e+000 -1.1667e+000 61313 71077,70881,70855
 3.1000e+000 71031  1.6783e+000  1.0632e+000  7.6001e-001 61313 71077,70855,70829
 3.1000e+000 71008 -3.7184e+000 -9.0322e+000 -3.3717e+000 61313 70829,70959,70933
 3.1000e+000 70985  9.8075e-001 -5.6628e+000 -2.6258e+000 61313 70881,70933,70907
 3.1000e+000 71103 -9.2065e-001  1.8116e+000 -2.0411e-001 61313 70933,70881,71077
 3.1000e+000 71126  5.1053e-001  2.4828e-001  1.5363e+000 61313 70933,71077,70829
 3.1000e+000 71604 -3.6795e+000 -1.0237e+002  9.7774e+000 60909 71627,71232,71414
 3.1000e+000 71581 -2.5931e+001 -8.3620e+001 -1.7330e+001 60909 71232,71440,71414
 3.1000e+000 71558  6.1895e+000 -7.8864e+001  1.4889e+001 60909 71627,71414,71336
 3.1000e+000 71535  2.9359e+001 -1.8600e+002  3.8552e+001 60909 71362,71414,71388
 3.1000e+000 71512 -1.2344e+001 -1.3762e+002  2.4203e+000 60909 71336,71414,71362
 3.1000e+000 71489  2.5350e+001 -4.5835e+001 -1.5089e+000 60909 71258,71336,71310
 3.1000e+000 71466 -3.6456e+001 -7.7970e+001  1.0387e+001 60909 71258,71310,71284
 3.1000e+000 71653 -3.2941e+000 -8.0139e+001  1.3119e+001 60909 71258,71232,71627
 3.1000e+000 71676 -2.3183e+000 -6.8477e+001  1.7009e+001 60909 71258,71627,71336
 3.1000e+000 71875 -8.4416e+000 -1.4218e+001  1.0961e+001 60611 71898,71725,71699
 3.1000e+000 71852 -1.2775e+001 -1.2474e+001  1.2957e+001 60611 71898,71699,71803
 3.1000e+000 71829  4.8011e+000  7.5407e+000 -2.9457e+000 60611 71970,71751,71725
 3.1000e+000 71924  1.6293e+000 -5.3555e+000  5.0489e+000 60611 71970,71725,71898
 3.1000e+000 71947 -1.2173e+001 -2.2029e+001  1.0073e+001 60611 71777,71898,71803
 3.1000e+000 71996 -4.3028e+000 -8.9703e+000  2.5983e+000 60611 71777,71751,71970
 3.1000e+000 72019 -9.1174e+000 -1.7408e+001  1.1399e+001 60611 71777,71970,71898
 3.1000e+000 72576  2.7084e+001 -1.6929e+002  2.1722e+001 60142 72599,72256,72230
 3.1000e+000 72553  4.6691e+001 -7.5525e+001  3.2315e+001 60142 72671,72599,72230
 3.1000e+000 72530 -7.5630e+000 -3.3459e+001 -6.3089e+000 60142 72671,72230,72204
 3.1000e+000 72507 -2.4674e+001 -3.9537e+001  1.5354e+001 60142 72743,72360,72334
 3.1000e+000 72484 -1.3882e+001 -4.4978e+001 -1.3569e+001 60142 72815,72282,72256
 3.1000e+000 72461  3.0725e+001  9.5355e+000  2.9527e+001 60142 72887,72308,72282
 3.1000e+000 72438 -3.0193e+001 -1.5249e+002 -2.2561e+001 60142 72204,72412,72386
 3.1000e+000 72625 -2.4783e+001 -1.2530e+002 -3.3014e+001 60142 72815,72256,72599
 3.1000e+000 72648 -7.2774e+000 -7.2646e+001  9.7669e+000 60142 72743,72334,72599
 3.1000e+000 72697 -5.4168e-001 -1.4251e+002  1.1710e+001 60142 72386,72599,72671
 3.1000e+000 72720 -3.6689e+001 -9.2065e+001 -1.8952e+001 60142 72386,72671,72204
 3.1000e+000 72769  1.0227e+001 -6.7143e+001  7.6247e+001 60142 72386,72360,72743
 3.1000e+000 72792  6.8165e+000 -1.3579e+002  4.0703e+001 60142 72386,72743,72599
 3.1000e+000 72841 -6.7038e+000 -8.9420e+000  6.9453e+000 60142 72887,72282,72815
 3.1000e+000 72864 -3.4916e+000 -5.3836e+001 -2.7853e+000 60142 72334,72815,72599
 3.1000e+000 72913 -2.1247e+001 -2.1748e+001  9.5281e+000 60142 72334,72308,72887
 3.1000e+000 72936 -3.8442e+001 -3.0466e+001 -1.1602e+001 60142 72334,72887,72815
 3.1000e+000 73491 -1.7666e+001 -1.7097e+002 -3.1248e+001 59738 73145,73327,73171
 3.1000e+000 73468  1.3994e+001 -1.2392e+002 -1.6890e+001 59738 73119,73327,73145
 3.1000e+000 73445 -8.9709e+000 -7.2241e+001  5.4173e+000 59738 73171,73327,73301
 3.1000e+000 73422  2.0515e+001 -8.8347e+001  3.3522e+000 59738 73514,73275,73249
 3.1000e+000 73399 -5.5495e+000 -6.5473e+001  4.8563e-001 59738 73586,73514,73249
 3.1000e+000 73376  5.8893e+000 -3.4816e+000  1.7030e+001 59738 73197,73249,73223
 3.1000e+000 73353  6.8948e+000 -5.8080e+001 -5.3022e+000 59738 73586,73249,73197
 3.1000e+000 73540 -6.4929e+000 -1.3331e+002 -1.4839e+001 59738 73301,73275,73514
 3.1000e+000 73563 -1.4045e+001 -8.6073e+001  3.6360e+000 59738 73301,73514,73171
 3.1000e+000 73612 -2.8829e+000 -7.4426e+001  1.2901e+001 59738 73171,73514,73586
 3.1000e+000 73635  1.0274e+000 -6.9350e+001  8.0919e+000 59738 73171,73586,73197
 3.1000e+000 73964  4.7989e+000 -1.2470e+002 -5.2004e+000 59334 73791,73843,73817
 3.1000e+000 73941 -2.4255e+000 -1.3555e+002 -1.0187e+001 59334 73791,73869,73843
 3.1000e+000 73918 -2.6513e+001 -1.9234e+002 -9.2790e+000 59334 73739,73869,73791
 3.1000e+000 73895  7.3874e+000 -2.1574e+002 -8.1201e+000 59334 73739,73791,73765
 3.1000e+000 74261 -8.3293e+000 -8.4431e+001  2.8518e+001 58630 74065,74117,74091
 3.1000e+000 74238 -5.6944e-001 -8.0065e+001  1.3614e+000 58630 74356,74284,74065
 3.1000e+000 74215  4.7118e-001 -4.3884e+001  5.6829e-001 58630 74284,74013,73987
 3.1000e+000 74192 -1.7535e+000 -7.5956e+001 -1.0215e+001 58630 74356,74065,74039
 3.1000e+000 74169  1.1892e-001 -4.6102e+001  6.6015e+000 58630 73987,74143,74117
 3.1000e+000 74310  5.6595e+000 -1.0237e+002  4.9825e+000 58630 74117,74065,74284
 3.1000e+000 74333 -1.2275e+001 -6.8410e+001 -6.0410e+000 58630 74117,74284,73987
 3.1000e+000 74382  1.9337e+001 -7.8393e+001 -5.3026e+000 58630 74013,74284,74356
 3.1000e+000 74405  1.9354e+001 -7.2921e+001 -1.7056e+001 58630 74013,74356,74039
 3.1000e+000 74815 -1.9313e+001 -7.7183e+001 -3.0550e+000 58226 74590,74642,74616
 3.1000e+000 74792 -1.9945e+001 -1.1040e+002 -8.7122e+000 58226 74590,74694,74642
 3.1000e+000 74769  1.3863e+001 -1.8248e+002  2.7427e+001 58226 74590,74720,74694
 3.1000e+000 74746 -1.1572e+001 -6.3629e+001 -3.7777e+000 58226 74642,74694,74668
 3.1000e+000 75014  7.2846e+000 -8.5507e+001 -1.7910e+000 57786 75037,74864,74838
 3.1000e+000 74991 -4.2816e+000 -5.5274e+001  1.6711e+001 57786 75037,74838,74916
 3.1000e+000 74968 -3.5048e+000 -4.1640e+001 -6.2102e+000 57786 74838,74942,74916
 3.1000e+000 75063 -1.3314e+001 -1.1261e+002 -1.1955e+001 57786 74890,74864,75037
 3.1000e+000 75086 -1.9339e+001 -7.7435e+001  8.2564e+000 57786 74890,75037,74916
 3.1000e+000 75368 -2.6136e+001 -2.6569e+001  1.1862e+001 57496 75192,75270,75218
 3.1000e+000 75345  3.4445e+001  1.0002e+000  1.8082e+001 57496 75192,75296,75270
 3.1000e+000 75322  1.4318e+000 -2.0026e+001  3.0887e+001 57496 75218,75270,75244
 3.1000e+000 75648  4.4831e+000 -7.0992e+001 -9.6952e+000 57206 75472,75550,75498
 3.1000e+000 75625  2.7796e+001 -5.2372e+001 -2.2151e+001 57206 75472,75576,75550
 3.1000e+000 75602  2.0628e+000  1.0151e+001 -1.7609e+000 57206 75671,75550,75524
 3.1000e+000 75697  2.0540e+001 -6.3748e+001 -1.5464e+001 57206 75498,75550,75671
 3.1000e+000 76154 -1.0398e+001 -6.4911e+001  8.8402e+000 56802 75958,76010,75984
 3.1000e+000 76131 -2.6906e+000 -3.6072e+001  7.8599e+000 56802 75932,76010,75958
 3.1000e+000 76108 -6.9076e+000 -6.5997e+001  1.7936e+001 56802 75906,76010,75932
 3.1000e+000 76085 -7.3636e+000 -2.1484e+001  2.1402e+001 56802 75880,76010,75906
 3.1000e+000 76062  9.5313e+000 -2.2370e+001 -1.6972e+000 56802 75880,76036,76010
 3.1000e+000 76505 -2.1961e+000  3.1239e-001  1.0597e+000 56504 76306,76384,76332
 3.1000e+000 76482 -7.8746e-002  6.7278e-001  8.6466e-001 56504 76306,76410,76384
 3.1000e+000 76459 -4.1215e+000 -1.0940e-002  1.4138e+000 56504 76332,76384,76358
 3.1000e+000 76436 -6.9600e-001  1.2888e-001  5.4098e-001 56504 76280,76410,76306
 3.1000e+000 77011  3.1612e+001 -3.0803e+001 -2.8028e+001 56050 76740,76818,76792
 3.1000e+000 76988  1.8906e+000 -4.2943e+001 -2.9355e+001 56050 76714,76818,76740
 3.1000e+000 76965 -2.7133e-001 -4.5298e+001 -2.8454e+001 56050 76688,76818,76714
 3.1000e+000 76942  2.2646e+001 -3.2242e+000 -1.9144e+001 56050 76688,76844,76818
 3.1000e+000 76919  7.3868e+000 -4.0896e+001 -2.0558e+001 56050 76740,76792,76766
 3.1000e+000 76896  5.2438e+000  3.5898e-001  1.3700e+000 56050 76688,76870,76844
 3.1000e+000 77517 -3.9263e+001 -6.2837e+001  1.5562e+001 55738 77220,77350,77324
 3.1000e+000 77494 -4.5882e+000 -8.1473e+001 -8.8963e+000 55738 77220,77376,77350
 3.1000e+000 77471  8.6193e+000 -4.9200e+001 -6.3045e+000 55738 77194,77376,77220
 3.1000e+000 77448 -7.9814e+000 -3.7406e+001  5.6728e+000 55738 77220,77298,77246
 3.1000e+000 77425 -1.9967e+001 -5.2769e+001  1.1929e+001 55738 77220,77324,77298
 3.1000e+000 77402 -3.5019e+001 -3.9323e+001  8.4977e+001 55738 77246,77298,77272
 3.1000e+000 78064  3.0020e+001 -1.1035e+002 -9.2382e+000 55227 78231,78087,77773
 3.1000e+000 78041 -1.9971e+001 -2.1425e+002  7.7415e+000 55227 78087,77695,77643
 3.1000e+000 78018 -7.5555e+000 -1.5070e+002 -2.6985e+001 55227 78159,77799,77773
 3.1000e+000 77995  4.9682e+000 -5.6634e+001  3.8566e+000 55227 78231,77773,77721
 3.1000e+000 77972 -4.5900e+001 -5.7264e+001  4.6271e+001 55227 77643,77695,77669
 3.1000e+000 77949 -1.7535e+001 -8.1452e+001 -7.3902e+000 55227 77643,77877,77851
 3.1000e+000 77926 -2.6278e+001 -1.5111e+002  1.5357e+001 55227 77799,77851,77825
 3.1000e+000 77903  1.7112e+001 -1.2390e+001 -2.3057e+001 55227 77721,77773,77747
 3.1000e+000 78113  9.4182e+000 -1.5674e+002 -1.8940e+001 55227 78159,77773,78087
 3.1000e+000 78136  2.4688e+001 -1.1005e+002  7.6514e+000 55227 77851,78087,77643
 3.1000e+000 78185 -4.0267e+001 -1.5178e+002 -2.4497e+001 55227 77851,77799,78159
 3.1000e+000 78208 -2.2863e+001 -1.5803e+002 -1.7805e+001 55227 77851,78159,78087
 3.1000e+000 78257  8.4517e+000 -1.7321e+002 -3.1836e+001 55227 77695,78087,78231
 3.1000e+000 78280 -2.1867e+001 -1.1700e+002 -2.4387e+001 55227 77695,78231,77721
 3.1000e+000 78737  8.3607e+000 -3.8211e+001 -1.4063e+001 54773 78463,78541,78515
 3.1000e+000 78714 -1.7649e+001 -7.5145e+001 -4.3559e-002 54773 78463,78619,78541
 3.1000e+000 78691  2.0215e+001 -5.6863e+000 -1.8647e+000 54773 78463,78515,78489
 3.1000e+000 78668 -2.1560e+001 -3.6214e+001 -1.2528e+001 54773 78541,78593,78567
 3.1000e+000 78645  4.3050e-001 -5.1192e+001 -1.8710e+001 54773 78541,78619,78593
 3.1000e+000 78838 -1.5536e+000 -9.1433e+000 -6.8327e-002 54211 78760,78812,78786
 3.1000e+000 79297  6.6750e+000 -6.7031e+001  2.7582e+000 53814 79520,79153,79049
 3.1000e+000 79274  1.0580e+001 -6.0316e+001 -3.7875e+000 53814 79520,79049,79023
 3.1000e+000 79251 -2.4743e+001 -1.2614e+002  2.0222e+001 53814 79320,79101,79049
 3.1000e+000 79228 -4.1064e-001 -6.7913e+001  4.8034e+000 53814 79320,79049,79153
 3.1000e+000 79205 -1.7541e+001 -9.8238e+001  2.7457e+001 53814 79049,79101,79075
 3.1000e+000 79346 -6.3950e+000 -5.5402e+001 -1.9874e+001 53814 79392,79320,79127
 3.1000e+000 79369  1.3680e+000 -6.5607e+001 -2.4648e+001 53814 79127,79320,79153
 3.1000e+000 79418 -1.1822e+001 -1.1820e+002 -3.1588e+001 53814 79101,79320,79392
 3.1000e+000 79546 -5.6487e-001 -8.0938e+001  1.3422e+001 53814 79179,79153,79520
 3.1000e+000 79569  1.8606e+001 -6.7283e+001  4.2339e+000 53814 79179,79520,79023
 3.1000e+000 80075 -3.7176e+001 -1.2220e+000  2.3424e+001 53039 80098,79908,79830
 3.1000e+000 80052 -5.0151e+001 -4.6234e+000 -9.9530e+000 53039 80098,79830,79804
 3.1000e+000 80029  7.7875e-002  7.2672e+000  3.2440e+000 53039 79752,79934,79804
 3.1000e+000 80006  6.5585e+000 -4.9380e+001  3.5646e+001 53039 79856,79908,79882
 3.1000e+000 79983  4.2567e+001 -1.0623e+002  2.7940e+001 53039 79830,79908,79856
 3.1000e+000 79960 -7.3139e+000  7.9646e+000 -5.2208e+000 53039 79752,79804,79778
 3.1000e+000 80124  1.6027e+001  2.8972e+001  3.8477e+001 53039 79934,79908,80098
 3.1000e+000 80147 -2.7214e+001  9.4685e+000  2.6228e+000 53039 79934,80098,79804
 3.1000e+000 80555  1.3411e+001 -3.6476e+001 -1.9344e+000 52699 80356,80434,80408
 3.1000e+000 80532  3.5730e+000 -6.4895e+001  5.7904e+000 52699 80356,80460,80434
 3.1000e+000 80509 -9.7531e+000 -7.2304e+001  2.8888e+000 52699 80330,80460,80356
 3.1000e+000 80486 -3.5554e+001 -8.3120e+001  3.6668e+001 52699 80356,80408,80382
 3.1000e+000 80776  1.7543e+001  5.8956e+000  3.3996e+000 52295 80600,80678,80626
 3.1000e+000 80753  1.9418e+001  8.7460e+000  2.2022e+000 52295 80600,80704,80678
 3.1000e+000 80730  2.8672e+001  1.0435e+001  2.6059e+000 52295 80626,80678,80652
 3.1000e+000 81156 -1.9291e+001 -9.9705e+001  2.3487e+001 51891 81179,80960,80908
 3.1000e+000 81133 -9.6181e+000 -8.4618e+001 -2.2071e+000 51891 81179,80908,81012
 3.1000e+000 81110 -3.2679e+001 -9.0493e+001 -1.3847e-001 51891 80882,81012,80908
 3.1000e+000 81087  9.5785e+000 -1.2626e+002  2.4656e+001 51891 80908,80960,80934
 3.1000e+000 81064  1.0920e+000 -1.8013e+000  4.0577e+000 51891 80882,81038,81012
 3.1000e+000 81205  1.2222e+001 -9.0677e+001  1.4868e+001 51891 80986,80960,81179
 3.1000e+000 81228  2.4516e+000 -8.1539e+001 -1.0988e+001 51891 80986,81179,81012
 3.1000e+000 81606 -5.0783e+000 -2.6673e+002 -8.0003e+001 51544 81410,81462,81436
 3.1000e+000 81583  1.5969e+001 -1.1117e+002 -1.2917e+001 51544 81384,81462,81410
 3.1000e+000 81560 -2.4568e+001 -1.2337e+002 -2.6058e+001 51544 81358,81462,81384
 3.1000e+000 81537  1.0317e-001 -1.1288e+002 -2.7147e+001 51544 81358,81488,81462
 3.1000e+000 81514  2.8604e+001  6.3215e+000 -1.8329e+001 51544 81332,81488,81358
 3.1000e+000 81854  5.4337e+000 -9.2317e+001 -1.8094e+000 51004 81877,81655,81629
 3.1000e+000 81831  1.3386e+000 -7.2314e+001 -5.1672e+000 51004 81877,81629,81759
 3.1000e+000 81808  1.3095e+000 -4.8125e+001  3.7168e+001 51004 81655,81707,81681
 3.1000e+000 81785 -2.7773e+001 -1.1833e+002 -1.7155e+000 51004 81707,81759,81733
 3.1000e+000 81903  3.7574e+000 -9.9260e+001 -2.4828e+000 51004 81707,81655,81877
 3.1000e+000 81926 -1.0089e+001 -9.3570e+001 -1.0012e+001 51004 81707,81877,81759
 3.1000e+000 82257 -2.7113e+001 -1.0196e+002 -9.8912e+000 50642 82058,82136,82110
 3.1000e+000 82234 -1.9852e+001 -6.9960e+001 -2.0210e+001 50642 82058,82162,82136
 3.1000e+000 82211 -3.1591e+001 -1.0605e+002 -8.6535e-001 50642 82058,82110,82084
 3.1000e+000 82188 -8.4497e+000 -6.5265e+001 -1.7579e+001 50642 82032,82162,82058
 3.1000e+000 82684  3.0392e+001 -1.7859e+002  2.7454e+001 49931 82779,82707,82465
 3.1000e+000 82661 -2.1949e+001 -2.2390e+002  3.9906e+001 49931 82707,82413,82361
 3.1000e+000 82638 -6.7827e+000 -1.6580e+002 -4.6054e+001 49931 82779,82465,82439
 3.1000e+000 82615 -8.1121e+000 -3.4921e+002  3.9459e+001 49931 82465,82543,82491
 3.1000e+000 82592 -2.3421e+001 -1.5471e+002  5.9898e-002 49931 82361,82413,82387
 3.1000e+000 82569  7.8021e-001 -2.6812e+002  3.2002e+001 49931 82491,82543,82517
 3.1000e+000 82733  4.9639e+001 -2.1439e+002  3.2287e+001 49931 82543,82465,82707
 3.1000e+000 82756  7.3536e+000 -1.7888e+002  2.7247e+001 49931 82543,82707,82361
 3.1000e+000 82805 -1.6958e+001 -2.8170e+002  3.4777e+000 49931 82413,82707,82779
 3.1000e+000 82828 -3.7791e+001 -2.5321e+002 -6.6191e+001 49931 82413,82779,82439
 3.1000e+000 83255 -2.4438e+001 -2.4682e+002 -3.6384e+001 49327 82984,83114,83036
 3.1000e+000 83232 -4.3037e+001 -2.8483e+002 -7.0729e+001 49327 82958,83114,82984
 3.1000e+000 83209 -3.6449e+001 -3.1470e+002 -1.3014e+001 49327 83036,83114,83088
 3.1000e+000 83186 -8.2883e+001 -1.9475e+002  5.0968e+000 49327 82984,83036,83010
 3.1000e+000 83163 -3.5032e+001 -2.6172e+002 -5.9013e+001 49327 82932,83114,82958
 3.1000e+000 83140 -1.0270e+002 -5.1802e+002 -5.9293e+000 49327 83036,83088,83062
 3.1000e+000 83938 -4.2171e+001 -3.3647e+002  7.4358e+001 48965 83961,83673,83647
 3.1000e+000 83915  1.8037e+001 -1.4213e+002  7.6093e+001 48965 83961,83647,83543
 3.1000e+000 83892 -3.0621e+001 -1.6114e+002 -3.5697e+001 48965 83517,83725,83543
 3.1000e+000 83869 -5.5287e+001 -2.2008e+002 -4.1484e+001 48965 83673,83725,83699
 3.1000e+000 83846 -3.2857e+001 -7.4673e+001 -7.3150e-001 48965 83543,83647,83621
 3.1000e+000 83823 -1.0930e+001 -9.5606e+001 -1.0268e+001 48965 83543,83621,83569
 3.1000e+000 83800 -6.3359e+000 -1.4008e+002  2.3765e+000 48965 83517,83751,83725
 3.1000e+000 83777  6.5715e-001 -8.1215e+001  1.4027e+001 48965 83569,83621,83595
 3.1000e+000 83987 -2.1789e+001 -3.0135e+002 -5.1713e+001 48965 83725,83673,83961
 3.1000e+000 84010  1.0055e+001 -2.2499e+002 -2.6038e+001 48965 83725,83961,83543
 3.1000e+000 84258 -2.0608e+001 -2.1949e+002  2.6557e+001 48447 84281,84059,84033
 3.1000e+000 84235 -6.2129e+000 -1.7908e+002 -5.1409e+000 48447 84281,84033,84163
 3.1000e+000 84212  1.9407e+001 -1.7220e+002 -1.9975e+001 48447 84059,84111,84085
 3.1000e+000 84189  2.9296e+001 -1.6250e+002 -3.8340e+001 48447 84111,84163,84137
 3.1000e+000 84307  6.4406e+000 -2.0870e+002 -6.1913e+000 48447 84111,84059,84281
 3.1000e+000 84330  3.3142e+001 -1.8067e+002 -3.6630e+001 48447 84111,84281,84163
 3.1000e+000 84529  2.4255e+001 -1.4355e+002 -1.0059e+001 47993 84552,84405,84379
 3.1000e+000 84506 -3.4750e+001 -1.5970e+002 -2.9801e+000 47993 84552,84379,84353
 3.1000e+000 84483  1.2839e+001 -1.4805e+002 -1.4477e+001 47993 84624,84457,84431
 3.1000e+000 84578  3.9384e+001 -1.4562e+002 -2.7628e+001 47993 84431,84405,84552
 3.1000e+000 84601  1.4736e+001 -1.4892e+002 -1.3713e+001 47993 84624,84431,84552
 3.1000e+000 84650  1.4964e+001 -1.4802e+002 -1.3019e+001 47993 84353,84457,84624
 3.1000e+000 84673  1.8024e+001 -1.4679e+002 -1.1622e+001 47993 84353,84624,84552
 3.1000e+000 85104 -3.9752e+001 -2.3371e+002 -2.0139e+001 47588 85199,85127,84885
 3.1000e+000 85081 -2.6624e+001 -2.4913e+002 -2.5957e+001 47588 85127,84781,84963
 3.1000e+000 85058 -7.2757e+001 -2.2676e+002  1.7011e+001 47588 85199,84885,84807
 3.1000e+000 85035 -4.3381e+000 -1.5518e+002  7.9990e+001 47588 84885,84937,84911
 3.1000e+000 85012 -4.1949e+001 -1.4823e+002 -9.3790e+000 47588 84807,84885,84833
 3.1000e+000 84989 -1.6345e+001 -1.3651e+002  5.5302e+000 47588 84833,84885,84859
 3.1000e+000 85153 -3.3959e+001 -2.7883e+002 -4.9411e-001 47588 84937,84885,85127
 3.1000e+000 85176  5.9027e+001 -2.5325e+002 -1.5105e+000 47588 84937,85127,84963
 3.1000e+000 85225 -1.0184e+002 -2.5633e+002 -1.7507e+001 47588 84781,85127,85199
 3.1000e+000 85248 -1.2330e+002 -2.4836e+002  2.4737e+001 47588 84781,85199,84807
 3.1000e+000 85518 -5.0665e+001 -3.5134e+002  5.6190e+001 47226 85293,85397,85319
 3.1000e+000 85495 -2.5829e+001 -3.1554e+002  2.8881e+001 47226 85293,85423,85397
 3.1000e+000 85472 -1.2305e+001 -3.6470e+002 -1.3321e+001 47226 85319,85397,85345
 3.1000e+000 85449  4.3941e+001 -6.8685e+001 -1.9999e+001 47226 85345,85397,85371
 3.1000e+000 85849 -2.4518e+001 -2.0296e+002  4.0409e+001 46572 85624,85702,85650
 3.1000e+000 85826 -2.2730e+001 -2.8707e+002 -1.3952e+001 46572 85624,85754,85702
 3.1000e+000 85803  2.8548e+001 -1.7187e+002  1.8883e+001 46572 85702,85754,85728
 3.1000e+000 85780 -1.4993e+001 -1.9800e+002  3.7502e+001 46572 85650,85702,85676
 3.1000e+000 86070 -1.7440e+002 -2.7520e+002 -6.8538e+000 46374 85920,85972,85946
 3.1000e+000 86047 -1.2199e+002 -1.5158e+002  7.1246e-001 46374 85920,85998,85972
 3.1000e+000 86024 -7.8012e+001 -1.2383e+002  2.7814e+001 46374 85894,85998,85920
 3.1000e+000 86401  5.3775e+000 -1.9007e+002  2.5384e+000 46034 86424,86280,86228
 3.1000e+000 86378 -4.2543e+001 -1.7969e+002  7.4322e-001 46034 86424,86228,86176
 3.1000e+000 86355 -5.6519e+001 -1.5152e+002 -5.2699e+001 46034 86176,86228,86202
 3.1000e+000 86332  5.3825e+001 -1.6827e+002 -4.5579e+001 46034 86228,86280,86254
 3.1000e+000 86450  8.9406e+001 -1.9083e+002 -1.8257e+001 46034 86306,86280,86424
 3.1000e+000 86473 -1.3537e+000 -2.1182e+002 -2.2233e+001 46034 86306,86424,86176
 3.1000e+000 87058  8.0947e+000 -1.4871e+002  1.9106e+001 45516 86813,86917,86865
 3.1000e+000 87035 -1.7441e+001 -2.1676e+002  1.2646e+001 45516 86787,86917,86813
 3.1000e+000 87012 -6.9897e+000 -2.6324e+002  2.3751e+001 45516 86735,86917,86787
 3.1000e+000 86989  3.2524e+000 -1.4858e+002  1.9125e+001 45516 86865,86917,86891
 3.1000e+000 86966  1.0481e+001 -1.3824e+002  2.1294e+001 45516 86813,86865,86839
 3.1000e+000 86943 -1.0715e+001 -3.4469e+002 -3.2744e+000 45516 86735,86787,86761
 3.1000e+000 87208  5.5310e+001 -1.0192e+002 -2.2045e+001 45226 87231,87133,87107
 3.1000e+000 87185  1.1172e+001 -7.8692e+001 -1.1176e+000 45226 87081,87159,87133
 3.1000e+000 87257  5.5709e+001  9.7591e+000 -2.5987e+001 45226 87081,87133,87231
 3.1000e+000 87537  3.9204e+001 -2.0976e+002  3.9452e+001 44772 87387,87439,87413
 3.1000e+000 87514 -2.5968e+001 -2.2779e+002  2.5172e+001 44772 87361,87439,87387
 3.1000e+000 87491  4.2188e+000 -1.6110e+002  7.0599e+000 44772 87361,87465,87439
 3.1000e+000 87996 -1.7211e+000 -3.1131e+001 -3.2181e+000 44425 87748,87878,87852
 3.1000e+000 87973  1.0061e+000 -3.0110e+001 -4.2334e-001 44425 87722,87878,87748
 3.1000e+000 87950  1.6698e+000 -4.7603e+001 -8.6077e+000 44425 87800,87852,87826
 3.1000e+000 87927  3.7907e+000 -4.0154e+001 -1.3041e+000 44425 87748,87852,87800
 3.1000e+000 87904 -1.3490e+001 -8.9991e+001 -3.8938e+000 44425 87748,87800,87774
 3.1000e+000 88423 -1.1424e+001 -1.7207e+002  6.0586e+000 44078 88590,88230,88204
 3.1000e+000 88400 -1.1853e+001 -1.2891e+002  1.6961e+001 44078 88518,88446,88204
 3.1000e+000 88377 -8.9023e+000 -1.8099e+002 -2.4578e+001 44078 88446,88126,88282
 3.1000e+000 88354 -3.1677e+001 -1.0387e+002  1.9720e+000 44078 88518,88204,88178
 3.1000e+000 88331 -9.0363e+000 -2.1411e+002 -2.2314e+001 44078 88100,88282,88126
 3.1000e+000 88308 -1.4783e+001 -9.4492e+001  3.6123e+001 44078 88126,88178,88152
 3.1000e+000 88472 -1.5547e+001 -1.8241e+002  8.5770e+000 44078 88590,88204,88446
 3.1000e+000 88495 -2.8292e+001 -2.5564e+002 -3.8098e+001 44078 88256,88446,88282
 3.1000e+000 88544 -2.4096e+001 -1.8502e+002  1.3004e+001 44078 88126,88446,88518
 3.1000e+000 88567 -2.6976e+001 -1.3568e+002  1.7899e+000 44078 88126,88518,88178
 3.1000e+000 88616 -9.3335e+001 -3.5276e+002 -3.1833e+001 44078 88256,88230,88590
 3.1000e+000 88639 -1.1754e+001 -1.7681e+002 -5.1540e+000 44078 88256,88590,88446
 3.1000e+000 89039  6.3509e+000 -4.8243e+001  1.1012e+001 43716 88791,88921,88895
 3.1000e+000 89016 -2.4085e+000 -6.9316e+001  4.9257e+000 43716 88765,88921,88791
 3.1000e+000 88993  2.1907e+001 -5.1026e+001  2.1530e+001 43716 88817,88895,88869
 3.1000e+000 88970 -2.9057e+001 -6.6860e+001  1.7952e+001 43716 88791,88895,88817
 3.1000e+000 88947 -1.5020e+001 -4.5404e+001  4.5211e+000 43716 88817,88869,88843
 3.1000e+000 89496  6.7104e+000 -2.2470e+002 -2.2624e+001 43162 89519,89274,89248
 3.1000e+000 89473  1.4111e+001 -1.7632e+002 -1.2920e+001 43162 89519,89248,89222
 3.1000e+000 89450 -1.9660e+000 -1.5004e+002 -6.8224e+001 43162 89326,89378,89352
 3.1000e+000 89427 -9.8542e+000 -2.0273e+002 -2.4610e+001 43162 89274,89378,89326
 3.1000e+000 89404  5.5367e+000 -1.5503e+002 -1.1756e+001 43162 89274,89326,89300
 3.1000e+000 89545  3.6480e+000 -1.8101e+002 -1.1364e+001 43162 89378,89274,89519
 3.1000e+000 89568  1.3861e+001 -1.2920e+002 -1.0769e+000 43162 89378,89519,89222
 3.1000e+000 89946 -6.4140e+000 -1.9031e+002 -5.2667e+001 42594 90041,89969,89750
 3.1000e+000 89923 -9.1872e+000 -1.3483e+002 -1.7751e+001 42594 89969,89698,89828
 3.1000e+000 89900  6.7749e+000 -2.0545e+002 -4.6136e+001 42594 90041,89750,89724
 3.1000e+000 89877 -1.4848e+001 -1.1854e+002 -7.9836e+001 42594 89750,89802,89776
 3.1000e+000 89854  1.7824e+001 -5.0974e+001 -1.0916e+001 42594 89672,89828,89698
 3.1000e+000 89995 -1.7693e+000 -1.3980e+002 -4.8930e+001 42594 89802,89750,89969
 3.1000e+000 90018  4.7663e+000 -8.2542e+001 -1.7100e+000 42594 89802,89969,89828
 3.1000e+000 90067 -8.7497e-002 -1.3297e+002 -4.7837e+001 42594 89698,89969,90041
 3.1000e+000 90090 -1.8370e+001 -1.8696e+002 -3.2504e+001 42594 89698,90041,89724
 3.1000e+000 90517 -3.2053e+000 -2.2766e+002 -1.4895e+001 42140 90540,90220,90194
 3.1000e+000 90494  1.2920e+001 -2.2322e+002 -2.1768e+001 42140 90540,90194,90376
 3.1000e+000 90471 -2.7391e+001 -2.3990e+002  6.1638e+000 42140 90612,90350,90272
 3.1000e+000 90448 -6.6471e+001 -2.4116e+002 -1.1562e+001 42140 90272,90350,90298
 3.1000e+000 90425 -4.6697e+001 -1.9160e+002 -1.1488e+001 42140 90298,90350,90324
 3.1000e+000 90402  1.0141e+001 -1.8635e+002  6.8266e+001 42140 90220,90272,90246
 3.1000e+000 90566 -1.6003e+000 -1.8122e+002 -9.5231e+000 42140 90272,90220,90540
 3.1000e+000 90589 -2.3829e+001 -2.3190e+002 -7.4441e-001 42140 90612,90272,90540
 3.1000e+000 90638 -1.1221e+001 -2.5653e+002 -9.1740e+000 42140 90376,90350,90612
 3.1000e+000 90661  9.8033e+000 -2.3316e+002 -1.9174e+001 42140 90376,90612,90540
 3.1000e+000 91167 -2.5515e+001 -1.3082e+002 -1.4237e+001 41636 91190,90870,90844
 3.1000e+000 91144 -4.0326e+001 -3.4863e+002 -6.0991e+000 41636 91190,90844,91026
 3.1000e+000 91121 -2.2768e+001 -8.4090e+001 -4.4493e+001 41636 90870,90922,90896
 3.1000e+000 91098 -1.2735e+001 -2.9131e+002  2.3509e+001 41636 90922,91026,90948
 3.1000e+000 91075  5.2389e+000 -2.2365e+002 -4.3072e+001 41636 90948,91026,91000
 3.1000e+000 91052 -2.6120e+001 -8.0220e+001  1.6887e+001 41636 90948,91000,90974
 3.1000e+000 91216 -5.0335e+001 -7.0733e+001 -1.1983e+001 41636 90922,90870,91190
 3.1000e+000 91239  3.7668e+001 -1.4575e+002  2.5090e+001 41636 90922,91190,91026
 3.1000e+000 91696 -3.3835e+001 -1.8530e+002 -3.6322e+001 40449 91448,91526,91474
 3.1000e+000 91673 -7.8054e+001 -2.1728e+002 -6.0021e+000 40449 91448,91578,91526
 3.1000e+000 91650 -3.5861e+000 -1.3655e+002 -2.3380e+001 40449 91474,91526,91500
 3.1000e+000 91627 -3.7031e+000 -1.9627e+002 -4.0013e+000 40449 91422,91578,91448
 3.1000e+000 91604  1.5323e+001 -1.3833e+002 -4.0315e+001 40449 91526,91578,91552
 3.1000e+000 92123 -4.3083e+001 -1.8750e+002 -2.5961e+000 39995 92146,91904,91826
 3.1000e+000 92100 -6.6264e+001 -2.0384e+002 -4.2446e+001 39995 92146,91826,91800
 3.1000e+000 92077 -1.0023e+002 -1.7464e+002 -1.8763e+000 39995 91826,91904,91852
 3.1000e+000 92054 -7.5803e+001 -3.9514e+002 -3.0882e+001 39995 91904,91982,91930
 3.1000e+000 92031 -3.9362e+001 -1.5240e+002 -9.1734e+000 39995 91852,91904,91878
 3.1000e+000 92008 -3.8453e+001 -2.9302e+002 -4.1497e+001 39995 91930,91982,91956
 3.1000e+000 92172 -2.2877e+001 -2.3069e+002 -3.4293e+001 39995 91982,91904,92146
 3.1000e+000 92195 -5.5314e+001 -2.8825e+002 -6.8561e+001 39995 91982,92146,91800
 3.1000e+000 92652  7.0223e+000 -1.3319e+001  2.0368e+001 39633 92404,92534,92456
 3.1000e+000 92629 -1.4455e+001 -3.8666e+001  1.1203e+001 39633 92378,92534,92404
 3.1000e+000 92606 -6.7514e+000 -2.0941e+001  7.3527e+000 39633 92404,92456,92430
 3.1000e+000 92583 -1.2381e+001 -1.0585e+002  1.3266e+001 39633 92456,92534,92508
 3.1000e+000 92560 -1.5566e+001 -2.8060e+001  7.0675e+000 39633 92456,92508,92482
 3.1000e+000 93079  3.6964e+001 -9.7624e+001 -2.4546e+001 39093 93102,92808,92756
 3.1000e+000 93056  3.3885e+000 -1.2204e+002 -1.2388e+001 39093 93102,92756,92938
 3.1000e+000 93033 -1.6496e+001 -1.0454e+002 -2.1011e+001 39093 93174,92912,92834
 3.1000e+000 93010 -2.3768e+001 -1.4583e+002 -4.0542e+001 39093 92834,92912,92860
 3.1000e+000 92987  3.1628e+001 -1.1788e+002 -2.5555e+001 39093 92756,92808,92782
 3.1000e+000 92964 -1.3577e+001 -8.3161e+001 -1.2001e+000 39093 92860,92912,92886
 3.1000e+000 93128  3.2757e+000 -6.0489e+001 -3.2309e+001 39093 92834,92808,93102
 3.1000e+000 93151 -1.2641e+001 -9.4001e+001 -2.4024e+001 39093 93174,92834,93102
 3.1000e+000 93200 -1.3079e+001 -1.0020e+002 -2.9533e+001 39093 92938,92912,93174
 3.1000e+000 93223 -7.8033e+000 -9.4302e+001 -3.2950e+001 39093 92938,93174,93102
 3.1000e+000 93680 -3.6817e+000 -2.7506e+001  5.9199e-001 38639 93703,93536,93484
 3.1000e+000 93657 -8.8939e+000 -2.5098e+001  1.8046e+000 38639 93703,93484,93432
 3.1000e+000 93634  1.2971e+000 -1.8253e+001 -1.9604e+000 38639 93432,93484,93458
 3.1000e+000 93611 -1.5659e+001 -6.6050e+001 -2.5697e+001 38639 93484,93536,93510
 3.1000e+000 93588  4.9122e+000  1.4655e+000  1.2834e+001 38639 93406,93562,93432
 3.1000e+000 93729 -8.0694e+000 -2.5611e+001 -2.3217e-001 38639 93562,93536,93703
 3.1000e+000 93752 -1.6783e+001 -2.6365e+001  2.3598e+000 38639 93562,93703,93432
 3.1000e+000 94160  2.5007e+001 -1.3318e+001 -2.5535e+001 38292 93935,94039,93961
 3.1000e+000 94137  4.0980e-001 -8.6832e+001 -5.8024e+000 38292 93935,94065,94039
 3.1000e+000 94114 -3.7223e+001 -8.0081e+001 -2.9724e+001 38292 93961,94013,93987
 3.1000e+000 94091 -2.6193e+000 -7.4489e+001 -1.1546e+001 38292 93961,94039,94013
 3.1000e+000 94408  5.0532e+001 -1.4059e+002 -3.5680e-001 37880 94431,94261,94235
 3.1000e+000 94385  3.1534e+001 -9.9507e+001 -9.9118e+000 37880 94431,94235,94313
 3.1000e+000 94362  7.1315e+000 -1.0020e+002  2.2509e+001 37880 94209,94313,94235
 3.1000e+000 94339  1.0241e+001 -9.2333e+001  2.1614e+001 37880 94183,94313,94209
 3.1000e+000 94457  9.0066e+001 -1.0793e+002 -1.4381e+001 37880 94287,94261,94431
 3.1000e+000 94480  4.3836e+001 -8.9984e+001 -1.4111e+001 37880 94287,94431,94313
 3.1000e+000 94728 -8.9179e+001 -2.6910e+002  8.5780e+000 37426 94529,94607,94555
 3.1000e+000 94705 -1.0503e+001 -3.7177e+002 -3.3537e+001 37426 94529,94633,94607
 3.1000e+000 94682 -2.5900e+001 -3.7264e+002 -3.3984e+001 37426 94503,94633,94529
 3.1000e+000 94659 -4.0924e+001 -1.0999e+002 -6.7249e+001 37426 94555,94607,94581
 3.1000e+000 95257  7.5677e-001 -1.0726e+002 -7.1402e+000 36722 95496,95280,94862
 3.1000e+000 95234 -5.0969e+001 -1.3068e+002 -1.6782e+001 36722 95496,94862,94836
 3.1000e+000 95211 -6.0807e-001 -1.0749e+002 -1.5382e+001 36722 95352,95280,95070
 3.1000e+000 95188 -1.4191e+001 -1.1790e+002 -4.1935e+000 36722 95352,95070,95044
 3.1000e+000 95165 -5.0073e+001 -1.5322e+002  5.6561e+000 36722 95424,94888,94862
 3.1000e+000 95142 -4.4101e+001 -2.7083e+001  1.8363e+001 36722 94914,94966,94940
 3.1000e+000 95119 -4.9832e+001 -1.7434e+002  2.3186e+001 36722 94966,95044,95018
 3.1000e+000 95096 -2.8529e+001 -1.0022e+002  1.4237e+001 36722 94966,95018,94992
 3.1000e+000 95306 -2.0565e+001 -1.1155e+002 -7.2102e+000 36722 95424,94862,95280
 3.1000e+000 95329  5.0183e+000 -4.0433e+001 -3.2886e+001 36722 94914,95280,94966
 3.1000e+000 95378 -2.3093e+001 -1.1048e+002 -6.2699e+000 36722 94966,95280,95352
 3.1000e+000 95401 -3.1230e+001 -1.0869e+002  8.7085e-001 36722 94966,95352,95044
 3.1000e+000 95450 -1.3322e+001 -1.1478e+002 -1.9358e+001 36722 94914,94888,95424
 3.1000e+000 95473 -1.3365e+001 -1.2036e+002 -2.1907e+001 36722 94914,95424,95280
 3.1000e+000 95522  6.9171e+000 -1.1622e+002 -9.6158e+000 36722 95070,95280,95496
 3.1000e+000 95545  7.0280e+000 -1.1495e+002 -8.8527e+000 36722 95070,95496,94836
 3.1000e+000 96130  2.2950e-001 -3.7056e+001  8.1280e+000 36268 96153,95911,95859
 3.1000e+000 96107 -4.9457e+000 -6.5105e+001  5.7852e+000 36268 96153,95859,95807
 3.1000e+000 96084  1.9647e+001 -4.5686e+000  6.1544e+000 36268 95807,95859,95833
 3.1000e+000 96061 -1.7460e+001 -1.4329e+002  2.0554e+001 36268 95911,95989,95937
 3.1000e+000 96038  2.4740e+001 -2.0444e+001  3.3883e+001 36268 95859,95911,95885
 3.1000e+000 96015 -3.0184e+001 -4.8923e+001 -3.9279e+001 36268 95937,95989,95963
 3.1000e+000 96179  1.5844e+001 -6.2537e+001  1.5060e+001 36268 95989,95911,96153
 3.1000e+000 96202  4.9198e+000 -9.8846e+001  1.1485e+001 36268 95989,96153,95807
 3.1000e+000 96531 -3.5100e+001 -2.2993e+002  4.2203e+001 35728 96358,96410,96384
 3.1000e+000 96508 -3.6902e+001 -2.0167e+002  2.7297e+001 35728 96332,96410,96358
 3.1000e+000 96485 -5.0566e+001 -1.9628e+002  5.3162e+001 35728 96332,96436,96410
 3.1000e+000 96462 -3.9180e+000 -1.1672e+002 -1.1266e+001 35728 96306,96436,96332
 3.1000e+000 96860 -9.9874e+000 -1.1173e+002  2.1044e+000 35324 96687,96765,96713
 3.1000e+000 96837 -2.0228e+001 -1.3807e+002 -2.5187e+000 35324 96661,96765,96687
 3.1000e+000 96814 -4.9978e+001 -1.1111e+002 -1.3077e+000 35324 96713,96765,96739
 3.1000e+000 96791 -1.0631e+001 -1.9472e+002 -1.6488e+001 35324 96635,96765,96661
 3.1000e+000 97366 -3.2315e+001 -2.1446e+002  3.5853e+001 34920 97389,97069,97043
 3.1000e+000 97343 -4.2546e+001 -1.8691e+002  1.2780e+001 34920 97389,97043,97199
 3.1000e+000 97320 -1.4784e+001 -1.9858e+002 -1.0399e+001 34920 97043,97225,97199
 3.1000e+000 97297 -3.1020e+001 -3.2800e+002  3.5876e+001 34920 97069,97121,97095
 3.1000e+000 97274 -7.9497e+000 -1.0462e+002 -2.0338e+000 34920 97121,97199,97173
 3.1000e+000 97251 -1.6592e+001 -7.6277e+001 -2.6148e+001 34920 97121,97173,97147
 3.1000e+000 97415 -2.5725e+001 -2.0526e+002  5.9577e+000 34920 97121,97069,97389
 3.1000e+000 97438 -7.3187e+000 -1.4439e+002 -2.0304e+001 34920 97121,97389,97199
 3.1000e+000 97708 -4.5855e+001 -1.1265e+002  6.2160e+000 34722 97509,97587,97535
 3.1000e+000 97685 -1.4004e+001 -1.1531e+002  4.5195e-001 34722 97509,97613,97587
 3.1000e+000 97662 -4.4748e+001 -1.3215e+002 -7.1282e+000 34722 97483,97613,97509
 3.1000e+000 97639 -2.4220e+001 -9.6022e+001  2.1364e+001 34722 97535,97587,97561
 3.1000e+000 98216 -1.5328e+001 -2.3022e+002  2.1069e+001 34318 97971,98075,97997
 3.1000e+000 98193  8.7572e+000 -1.8524e+002  3.1114e+001 34318 97893,98075,97971
 3.1000e+000 98170  5.4207e+001 -1.5144e+002  9.9676e+000 34318 97893,97971,97919
 3.1000e+000 98147 -1.8105e+001 -1.4754e+002  4.8400e+001 34318 97997,98075,98049
 3.1000e+000 98124  1.2994e+001 -1.4858e+002  6.1337e+000 34318 97919,97971,97945
 3.1000e+000 98101 -6.8127e+001 -2.5175e+002  7.9224e+001 34318 97997,98049,98023
 3.1000e+000 98594  1.1873e+001 -6.7935e+001 -2.5615e+000 33814 98961,98617,98424
 3.1000e+000 98571  1.1201e+001 -7.6633e+001 -8.6425e+000 33814 98689,98617,98372
 3.1000e+000 98548  2.4541e+001 -1.6855e+001 -1.9013e+001 33814 99033,98689,98372
 3.1000e+000 98525 -5.9207e+000 -5.0193e+001  1.0135e+001 33814 98761,98476,98450
 3.1000e+000 98502  6.5895e+000 -6.2561e+001 -3.8574e+000 33814 98961,98424,98398
 3.1000e+000 98643 -3.3993e+000 -7.1638e+001  4.2565e-001 33814 98450,98424,98617
 3.1000e+000 98666  2.0531e+001 -3.8984e+001  1.2571e+001 33814 98761,98450,98617
 3.1000e+000 98715  4.5301e+000 -1.1647e+002 -6.3087e+000 33814 99161,98689,98320
 3.1000e+000 98738 -3.7324e+001 -1.0512e+002  6.1603e-001 33814 98320,98689,98346
 3.1000e+000 98787 -9.7370e+000 -9.5408e+001  4.6441e+001 33814 98833,98761,98320
 3.1000e+000 98810  1.1613e+001 -1.2758e+002  1.5750e+001 33814 99161,98320,98761
 3.1000e+000 98859  2.2383e+001  2.0129e+001  1.0803e+001 33814 98476,98761,98833
 3.1000e+000 98987  1.7371e+001 -6.2397e+001 -4.7731e+000 33814 98372,98617,98961
 3.1000e+000 99010  1.3794e+001 -5.4791e+001 -6.8976e+000 33814 98372,98961,98398
 3.1000e+000 99059 -1.7822e+000 -9.1430e+001  4.7766e-001 33814 98346,98689,99033
 3.1000e+000 99187  1.7929e+001 -7.8811e+001 -1.0792e+001 33814 98617,98689,99161
 3.1000e+000 99210  1.9225e+001 -9.5968e+001  1.3025e+001 33814 98617,99161,98761
 3.1000e+000 99588 -4.8631e+001 -9.5815e+001 -4.5102e+001 33566 99366,99444,99392
 3.1000e+000 99565  2.9035e+001 -7.6281e+001 -2.4372e+001 33566 99314,99444,99366
 3.1000e+000 99542 -2.9115e+000 -6.0321e+001  2.2523e+001 33566 99314,99366,99340
 3.1000e+000 99519 -7.9658e+000 -1.0054e+002 -9.5886e+000 33566 99314,99470,99444
 3.1000e+000 99496 -4.6739e+001 -1.3752e+001 -1.7444e+001 33566 99392,99444,99418
 3.1000e+000 99787  5.0192e+000 -1.4846e+002  3.6556e+001 33105 99637,99689,99663
 3.1000e+000 99764 -2.4919e+000 -1.3001e+002 -4.8672e-001 33105 99611,99689,99637
 3.1000e+000 99741  1.2420e+001 -4.3751e+001  5.4920e+000 33105 99611,99715,99689
 3.1000e+000 100167 -4.6192e+001 -1.7673e+002  6.5085e+001 32651 100190,99971,99919
 3.1000e+000 100144 -2.4239e+001 -1.3742e+002  5.3290e+001 32651 100262,100190,99919
 3.1000e+000 100121 -2.7052e+001 -1.3529e+002  4.9553e+001 32651 100262,99919,100049
 3.1000e+000 100098 -1.9558e+000 -1.2223e+002 -1.8252e+001 32651 99893,100049,99919
 3.1000e+000 100075 -4.4492e+001 -1.3791e+002  6.0230e+001 32651 99919,99971,99945
 3.1000e+000 100216 -2.1507e+001 -1.9264e+002  3.3677e+001 32651 99997,99971,100190
 3.1000e+000 100239 -6.8945e+000 -1.5907e+002  3.0623e+001 32651 99997,100190,100023
 3.1000e+000 100288 -2.2248e+001 -1.5198e+002  5.1561e+001 32651 100023,100190,100262
 3.1000e+000 100311 -1.3798e+001 -1.4249e+002  4.1565e+001 32651 100023,100262,100049
 3.1000e+000 100608 -5.9687e+001 -1.8677e+002  1.6771e-001 32254 100386,100490,100464
 3.1000e+000 100585 -5.5418e+001 -1.5458e+002 -5.3785e+000 32254 100360,100490,100386
 3.1000e+000 100562 -5.5224e+001 -2.1028e+002 -1.4378e+001 32254 100386,100464,100412
 3.1000e+000 100539 -1.0183e+001 -1.3658e+002 -5.9922e+000 32254 100334,100490,100360
 3.1000e+000 100516 -2.3151e+001 -1.1821e+002 -8.8465e+000 32254 100412,100464,100438
 3.1000e+000 100758 -9.6798e+000  1.3545e+001  5.8640e+000 31914 100985,100781,100683
 3.1000e+000 100735 -9.8590e+000  2.7255e+001  9.6409e+000 31914 100853,100781,100657
 3.1000e+000 100807 -2.7579e+000  1.5476e+001  4.5542e-001 31914 100709,100683,100781
 3.1000e+000 100830 -4.5531e-001  1.8852e+001  1.0140e+001 31914 100709,100781,100631
 3.1000e+000 100879 -1.1530e+001 -1.1031e+001  1.1200e+001 31914 100631,100781,100853
 3.1000e+000 101011  8.3760e+000  3.7125e+001  1.4331e+001 31914 100657,100781,100985
 3.1000e+000 101191  7.1158e-002 -6.0811e+001 -4.5740e-002 31418 101113,101165,101139
 3.1000e+000 101341 -1.1059e+002 -2.5324e+002 -1.7203e+001 31106 101214,101266,101240
 3.1000e+000 101318 -5.9919e+001 -1.0729e+002  1.7489e+000 31106 101214,101292,101266
 3.1000e+000 101591 -3.9360e+001 -2.0005e+002  8.9011e+001 30552 101614,101470,101444
 3.1000e+000 101568 -5.9675e+001 -9.2241e+001  5.6406e+001 30552 101366,101496,101470
 3.1000e+000 101545 -3.0786e+001 -2.3733e+002  7.0446e+001 30552 101614,101444,101392
 3.1000e+000 101522 -1.7377e+001 -1.0934e+002 -2.3156e+001 30552 101392,101444,101418
 3.1000e+000 101640 -2.3903e+001 -1.7191e+002  1.0998e+002 30552 101366,101470,101614
 3.1000e+000 101663 -1.7338e+001 -2.0876e+002  9.0530e+001 30552 101366,101614,101392
 3.1000e+000 102301  1.4242e+001 -1.9289e+002  1.0662e+001 30042 102396,102324,102059
 3.1000e+000 102278 -4.9417e+001 -1.4760e+002 -1.3978e+001 30042 102324,101981,101955
 3.1000e+000 102255 -5.1803e-001 -1.6509e+002  4.6548e+001 30042 102396,102059,102033
 3.1000e+000 102232 -1.4226e+000 -8.8827e+001 -1.9466e+001 30042 101929,102111,101955
 3.1000e+000 102209 -2.0990e+001 -1.4728e+002 -2.0481e+001 30042 102059,102111,102085
 3.1000e+000 102186 -2.1016e+001 -1.0164e+002 -8.1405e+000 30042 101929,102137,102111
 3.1000e+000 102163  8.4833e+000 -3.6045e+001 -3.4565e+001 30042 101981,102033,102007
 3.1000e+000 102350 -4.6481e+000 -1.8406e+002 -2.8568e+001 30042 102111,102059,102324
 3.1000e+000 102373  1.8144e+001 -1.1111e+002 -3.0892e+001 30042 102111,102324,101955
 3.1000e+000 102422  2.5092e+001 -1.0458e+002  1.1205e+001 30042 101981,102324,102396
 3.1000e+000 102445  1.2279e+001 -7.6057e+001  4.8305e+001 30042 101981,102396,102033
 3.1000e+000 103000  2.9042e+001 -1.9963e+002 -1.2885e+000 29730 103023,102706,102654
 3.1000e+000 102977 -2.3908e+001 -1.9577e+002 -2.1642e+001 29730 103023,102654,102810
 3.1000e+000 102954 -1.4337e+002 -3.9500e+002  1.5557e+000 29730 102732,102810,102784
 3.1000e+000 102931 -5.5256e+001 -2.5815e+002 -4.3040e+001 29730 102628,102810,102654
 3.1000e+000 102908  1.9341e+001 -1.3204e+002  2.1643e+001 29730 102654,102706,102680
 3.1000e+000 102885 -7.2542e+001 -1.2347e+002 -9.0869e+001 29730 102732,102784,102758
 3.1000e+000 102862 -2.0150e+001 -2.4027e+002 -5.3227e+001 29730 102628,102836,102810
 3.1000e+000 103049 -4.6916e+000 -2.3028e+002 -2.4043e+001 29730 102732,102706,103023
 3.1000e+000 103072 -3.6783e+001 -2.0144e+002 -3.9836e+001 29730 102732,103023,102810
 3.1000e+000 103222  5.1408e+001 -1.6686e+002 -1.5631e+001 29226 103095,103147,103121
 3.1000e+000 103199  3.0912e+001 -1.5999e+002 -1.7585e+001 29226 103095,103173,103147
 3.1000e+000 103730 -1.2667e+001 -1.4693e+002  1.4010e+000 28822 103537,103589,103563
 3.1000e+000 103707 -1.8229e+001 -1.7581e+002  1.2226e+000 28822 103433,103589,103537
 3.1000e+000 103684 -2.1807e+001 -1.5701e+002 -3.2376e+001 28822 103433,103537,103459
 3.1000e+000 103661 -5.0567e+000 -1.4068e+002  8.1623e+000 28822 103407,103589,103433
 3.1000e+000 103638 -3.5505e+001 -7.9481e+001  3.0968e+001 28822 103459,103511,103485
 3.1000e+000 103615 -4.8245e+001 -5.9996e+001  2.2212e+001 28822 103459,103537,103511
 3.1000e+000 103880  7.2790e+001 -1.5040e+002  4.1819e+001 28368 103975,103903,103779
 3.1000e+000 103857  3.3428e+001 -1.9282e+002  2.3996e+001 28368 103903,103753,103831
 3.1000e+000 103929  3.1194e+001 -1.2707e+002  1.6572e+001 28368 103805,103779,103903
 3.1000e+000 103952 -2.2604e+001 -1.6936e+002 -4.5778e+000 28368 104105,103903,103831
 3.1000e+000 104001  9.7153e+001 -1.6264e+002  2.2171e+000 28368 103753,103903,103975
 3.1000e+000 104131 -3.1939e+001 -1.5272e+002  3.2272e+001 28368 103805,103903,104105
 3.1000e+000 104539 -6.4373e+000 -4.8630e+001  1.1636e+001 28028 104562,104340,104314
 3.1000e+000 104516  9.1421e+000  2.3757e+000  9.7194e+000 28028 104634,104562,104314
 3.1000e+000 104493 -2.8446e+001 -5.7713e+001 -2.9301e+001 28028 104762,104366,104340
 3.1000e+000 104470 -3.1819e+000 -4.4799e+001 -3.0028e+001 28028 104366,104418,104392
 3.1000e+000 104588 -9.3027e+000 -6.6685e+001 -1.5414e+001 28028 104762,104340,104562
 3.1000e+000 104611  8.7249e+000 -3.5938e+001 -5.6715e+000 28028 104418,104562,104444
 3.1000e+000 104660 -4.8507e-001 -3.8663e+001  3.1856e+000 28028 104444,104562,104634
 3.1000e+000 104788 -1.1303e+001 -4.2568e+001 -2.2824e+001 28028 104418,104366,104762
 3.1000e+000 104811  1.0853e+001 -4.5580e+001 -7.1162e+000 28028 104418,104762,104562
 3.1000e+000 105010 -1.2407e+001 -6.2945e+001 -6.9536e-001 27324 105033,104886,104860
 3.1000e+000 104987  1.1469e+001 -4.8644e+001  1.1597e+001 27324 105033,104860,104834
 3.1000e+000 104964  9.5503e+000 -1.4583e+001  6.9151e+000 27324 105105,104912,104886
 3.1000e+000 105059  5.0269e+000 -2.5653e+001  4.0633e+000 27324 105105,104886,105033
 3.1000e+000 105082  5.7199e+000 -7.3746e+001  9.2451e+000 27324 104938,105033,104834
 3.1000e+000 105131  4.0015e+001 -2.5256e+001  2.8893e+001 27324 104938,104912,105105
 3.1000e+000 105154  2.2045e+001 -5.6277e+001  2.0523e+001 27324 104938,105105,105033
 3.1000e+000 105402 -5.5643e+001 -1.3214e+002 -4.5635e+000 27012 105229,105281,105255
 3.1000e+000 105379 -2.6194e+001 -7.2761e+001 -2.6126e+001 27012 105229,105307,105281
 3.1000e+000 105356  1.8598e+001 -5.7155e+001 -1.9053e+001 27012 105177,105307,105229
 3.1000e+000 105333 -5.6401e+001 -1.1538e+002 -8.1739e+001 27012 105177,105229,105203
 3.1000e+000 105603  3.2149e+001 -1.4140e+000  2.6181e+001 26508 105626,105453,105427
 3.1000e+000 105580  4.0758e+001  1.8755e+001  2.3146e+001 26508 105626,105427,105505
 3.1000e+000 105557  8.8661e+000  2.2567e+001  1.6534e+001 26508 105427,105531,105505
 3.1000e+000 105652  3.8494e+001  1.6532e+000  1.5083e+001 26508 105479,105453,105626
 3.1000e+000 105675  4.2468e+001  9.9259e+000  1.2481e+001 26508 105479,105626,105505
 3.1000e+000 106057 -2.6255e+001 -1.2949e+002  7.3941e+001 25947 106080,105887,105861
 3.1000e+000 106034 -1.3762e+001 -1.0742e+002  6.2507e+001 25947 106080,105861,105783
 3.1000e+000 106011 -1.4992e+001 -9.0764e+001  5.9484e+001 25947 105783,105835,105809
 3.1000e+000 105988 -2.8956e+001 -9.7482e+001  6.4827e+001 25947 105783,105861,105835
 3.1000e+000 105965  1.6602e+001 -9.3082e+001  4.2221e+001 25947 105887,105939,105913
 3.1000e+000 106106 -2.4395e+001 -1.2118e+002  5.4521e+001 25947 105939,105887,106080
 3.1000e+000 106129  1.3075e+000 -8.1870e+001  4.0443e+001 25947 105939,106080,105783
 3.1000e+000 106714 -4.8764e+001 -8.8935e+001  1.8792e+001 25557 106809,106737,106547
 3.1000e+000 106691 -6.4100e+001 -1.5597e+002  5.3030e+001 25557 106737,106417,106391
 3.1000e+000 106668 -2.7545e+001 -7.4481e+001  1.2495e+001 25557 106809,106547,106495
 3.1000e+000 106645 -6.2980e+001 -2.3563e+002  7.2100e+001 25557 106417,106495,106469
 3.1000e+000 106622 -5.1562e+001 -7.8613e+001  1.9171e+001 25557 106495,106547,106521
 3.1000e+000 106599 -8.2382e+001 -1.7737e+002  6.9677e+001 25557 106417,106469,106443
 3.1000e+000 106763 -6.8398e+001 -1.1582e+002  2.8299e+001 25557 106573,106547,106737
 3.1000e+000 106786 -3.8250e+001 -1.0376e+002  3.6309e+001 25557 106573,106737,106391
 3.1000e+000 106835 -2.1145e+001 -1.1582e+002  2.7924e+001 25557 106417,106737,106809
 3.1000e+000 106858 -5.2945e+000 -1.0150e+002  2.1210e+001 25557 106417,106809,106495
 3.1000e+000 107364 -5.9153e+000 -7.7754e+001 -2.6823e+001 25153 107459,107387,107171
 3.1000e+000 107341  3.5460e+001 -6.4839e+001 -2.1276e+001 25153 107387,107119,107067
 3.1000e+000 107318 -6.8379e+000 -4.2426e+001  9.0889e+000 25153 107459,107171,107145
 3.1000e+000 107295 -8.2627e+000 -9.1102e+001 -4.2420e+001 25153 107531,107223,107197
 3.1000e+000 107272  1.0588e+001 -8.3801e+001  2.4820e+001 25153 107067,107119,107093
 3.1000e+000 107249  6.4005e+000 -6.1813e+001 -1.3358e+001 25153 107041,107223,107067
 3.1000e+000 107413 -3.5782e+001 -8.4262e+001 -3.1330e+001 25153 107197,107171,107387
 3.1000e+000 107436  8.1537e+000 -8.7757e+001 -3.7615e+001 25153 107531,107197,107387
 3.1000e+000 107485  1.9831e+001 -1.3121e+001 -1.4685e+001 25153 107119,107387,107459
 3.1000e+000 107508  2.4782e+001  1.6697e+001  2.5830e+001 25153 107119,107459,107145
 3.1000e+000 107557 -1.6905e+001 -8.4050e+001 -2.2881e+001 25153 107067,107223,107531
 3.1000e+000 107580  3.9087e+000 -7.4881e+001 -1.6927e+001 25153 107067,107531,107387
 3.1000e+000 107958 -1.7267e+001 -1.4372e+002 -1.7055e+001 24741 107736,107814,107788
 3.1000e+000 107935 -4.2427e+001 -1.8084e+002 -4.7302e+001 24741 107736,107840,107814
 3.1000e+000 107912 -6.3660e+001 -1.7449e+002 -5.9671e+001 24741 107684,107840,107736
 3.1000e+000 107889 -3.6855e+001 -1.1367e+002 -2.6782e+001 24741 107736,107788,107762
 3.1000e+000 107866 -7.4726e+001 -2.3087e+002 -7.9647e+001 24741 107684,107736,107710
 3.1000e+000 108157 -1.9698e+001 -4.8099e+001  1.0069e+001 24237 108180,108059,108007
 3.1000e+000 108134  3.5265e+000 -2.4964e+001  2.4530e+001 24237 108180,108007,107981
 3.1000e+000 108111  2.5633e+001 -7.7018e+001  8.6833e+000 24237 108007,108059,108033
 3.1000e+000 108206 -8.0072e+000 -3.0727e+001  3.2171e+001 24237 108085,108059,108180
 3.1000e+000 108229  1.4141e+001 -8.1059e+000  4.6462e+001 24237 108085,108180,107981
 3.1000e+000 108658 -3.6407e+001 -1.4793e+002  1.4764e+001 23776 108361,108413,108387
 3.1000e+000 108635 -4.2564e+001 -2.0712e+002 -2.6893e+001 23776 108753,108681,108361
 3.1000e+000 108612 -1.3274e+001 -1.3093e+002 -2.8081e+001 23776 108681,108465,108439
 3.1000e+000 108589 -5.9408e+000 -2.2360e+002 -1.4786e+000 23776 108753,108361,108335
 3.1000e+000 108566 -3.2057e+001 -1.9933e+002  7.8201e+001 23776 108335,108517,108465
 3.1000e+000 108543 -3.2352e+001 -2.1479e+002  7.9793e+001 23776 108465,108517,108491
 3.1000e+000 108707 -6.0877e+001 -1.4154e+002 -2.0353e+001 23776 108413,108361,108681
 3.1000e+000 108730 -3.3904e+001 -1.1315e+002 -6.3507e+000 23776 108413,108681,108439
 3.1000e+000 108779 -7.7569e+000 -1.2976e+002 -1.5342e+001 23776 108465,108681,108753
 3.1000e+000 108802  6.3236e-001 -1.9251e+002 -3.1598e-001 23776 108465,108753,108335
 3.1000e+000 109023  7.0889e+000 -2.2936e+001 -1.9011e+001 23414 108873,108925,108899
 3.1000e+000 109000  3.2799e+001 -8.8855e+000 -1.3522e+001 23414 108847,108925,108873
 3.1000e+000 108977  5.8018e+001  7.1450e+001  7.6285e+000 23414 108847,108951,108925
 3.1000e+000 109474  2.3937e+001 -9.1402e+001  1.3605e+001 23024 109151,109307,109177
 3.1000e+000 109451  3.5630e+001  6.4056e+001 -4.0735e+000 23024 109151,109333,109307
 3.1000e+000 109428  1.6559e+001 -2.1879e+002 -6.7895e+000 23024 109177,109281,109203
 3.1000e+000 109405 -4.6567e+001 -1.8261e+002 -3.3164e+001 23024 109177,109307,109281
 3.1000e+000 109382  2.2318e+001 -1.6545e+002  2.5884e+001 23024 109203,109281,109229
 3.1000e+000 109359 -2.2359e+001 -1.5702e+002 -2.3757e+000 23024 109229,109281,109255
 3.1000e+000 109820 -7.5422e-001 -1.2972e+002  2.1895e+001 22506 109843,109601,109523
 3.1000e+000 109797  7.1203e+000 -1.1184e+002  1.4519e+001 22506 109843,109523,109497
 3.1000e+000 109774  7.2563e+000 -1.4917e+002  1.2693e+001 22506 109915,109653,109627
 3.1000e+000 109751 -1.3896e+001 -1.0200e+002  1.2598e+001 22506 109497,109679,109653
 3.1000e+000 109728 -1.5652e+001 -1.6904e+002 -3.6818e+001 22506 109523,109601,109575
 3.1000e+000 109705 -7.4648e+001 -2.2923e+002 -6.2866e+001 22506 109523,109575,109549
 3.1000e+000 109869  1.6434e+001 -1.1626e+002  2.7744e+001 22506 109627,109601,109843
 3.1000e+000 109892  1.9736e+001 -1.2901e+002  2.3689e+001 22506 109915,109627,109843
 3.1000e+000 109941 -8.3198e+000 -1.3463e+002  6.4046e-001 22506 109497,109653,109915
 3.1000e+000 109964 -6.7756e+000 -1.3401e+002  8.5216e+000 22506 109497,109915,109843
 3.1000e+000 110163 -9.2809e+000 -1.0375e+002  7.6226e+000 21936 110186,110039,110013
 3.1000e+000 110140  9.2925e+000 -8.3793e+001  1.7576e+001 21936 110390,110186,110013
 3.1000e+000 110117  3.0191e+001 -1.0208e+002  3.7423e+001 21936 110390,110013,109987
 3.1000e+000 110212  8.8872e+000 -7.3454e+001 -2.3665e+001 21936 110065,110039,110186
 3.1000e+000 110235 -1.8390e+001 -6.8079e+001 -8.8944e-001 21936 110258,110186,110091
 3.1000e+000 110284 -7.2118e+001 -1.0486e+002 -1.7536e+001 21936 110065,110186,110258
 3.1000e+000 110416 -3.6515e+001 -9.4088e+001  2.2592e+001 21936 110091,110186,110390
 3.1000e+000 110439 -5.8071e+000 -1.0605e+002  4.0357e+001 21936 110091,110390,109987
 3.1000e+000 110709  3.4246e+001 -1.2877e+002  3.2239e+000 21338 110510,110614,110588
 3.1000e+000 110686  7.8934e+000 -1.8128e+002 -1.1096e+001 21338 110484,110614,110510
 3.1000e+000 110663  5.8762e+001 -1.1537e+001  2.3465e+000 21338 110510,110562,110536
 3.1000e+000 110640  8.9406e+000 -1.3038e+002 -5.8096e+000 21338 110510,110588,110562
 3.1000e+000 111296  2.2775e+001 -8.9200e+001  2.9949e+000 20934 111025,111155,111103
 3.1000e+000 111273 -1.4444e+001 -2.7423e+002  1.0842e+000 20934 110999,111155,111025
 3.1000e+000 111250 -7.7750e-001 -9.6084e+001 -9.1299e+000 20934 111103,111155,111129
 3.1000e+000 111227 -3.2801e+001 -2.0984e+002 -3.2458e+001 20934 111051,111103,111077
 3.1000e+000 111204 -4.0080e+001 -2.0583e+002 -2.4893e+001 20934 111025,111103,111051
 3.1000e+000 111181 -3.9040e+001 -3.3227e+002 -9.3385e+000 20934 110973,111155,110999
 3.1000e+000 111930 -6.9863e+001 -1.1762e+002 -3.9833e+001 20494 111662,111714,111688
 3.1000e+000 111907 -3.1161e+001 -9.5910e+001 -2.9276e+001 20494 111584,111714,111662
 3.1000e+000 111884 -1.7023e+001 -9.1487e+001 -3.0949e+001 20494 111584,111766,111714
 3.1000e+000 111861  1.6147e+001 -1.8857e+002  1.3299e+001 20494 111584,111636,111610
 3.1000e+000 111838 -4.1345e+001 -1.2599e+002 -2.7241e+001 20494 111584,111662,111636
 3.1000e+000 111815 -9.1340e+000 -6.3155e+001  5.9983e+000 20494 111558,111766,111584
 3.1000e+000 111792 -3.7275e+001 -1.1391e+002  9.7498e+000 20494 111714,111766,111740
 3.1000e+000 112249 -2.4867e+001 -3.4116e+002  1.5472e+001 19940 111975,112053,112001
 3.1000e+000 112226  5.4759e+001 -1.8094e+002 -1.1312e+001 19940 111975,112131,112053
 3.1000e+000 112203 -6.7816e+000 -3.2012e+002  0.0000e+000 19940 112053,112105,112079
 3.1000e+000 112180 -1.5180e+000 -3.3170e+002 -5.9763e+000 19940 112053,112131,112105
 3.1000e+000 112157  3.4239e+001 -2.9398e+002 -1.2951e+001 19940 112001,112053,112027
 3.1000e+000 112757  3.7388e+001 -1.2808e+002 -4.0788e+001 19486 112780,112538,112486
 3.1000e+000 112734  3.0580e+001 -1.3969e+002 -1.7192e+001 19486 112780,112486,112460
 3.1000e+000 112711 -4.0706e+000 -1.1476e+002 -1.6486e+001 19486 112852,112616,112590
 3.1000e+000 112688  1.3467e+002 -1.8612e+002 -5.3789e+001 19486 112486,112538,112512
 3.1000e+000 112665 -3.3577e+001 -1.6517e+002  1.1033e+001 19486 112434,112616,112460
 3.1000e+000 112642 -3.1127e+000 -1.0899e+002 -2.6720e+001 19486 112538,112590,112564
 3.1000e+000 112806  1.8367e+001 -1.3838e+002 -3.4741e+001 19486 112590,112538,112780
 3.1000e+000 112829  3.5348e+001 -1.2485e+002 -2.4841e+001 19486 112852,112590,112780
 3.1000e+000 112878 -2.9746e+001 -1.2630e+002 -5.9071e+000 19486 112460,112616,112852
 3.1000e+000 112901 -6.4962e+000 -1.5150e+002 -1.0078e+001 19486 112460,112852,112780
 3.1000e+000 113252 -1.1423e+002 -2.2246e+002 -1.0271e+001 19096 113105,113157,113131
 3.1000e+000 113229 -9.1160e+001 -1.5783e+002 -2.2327e+000 19096 113053,113157,113105
 3.1000e+000 113206 -6.9885e+001 -1.4605e+002  2.4244e+000 19096 113027,113157,113053
 3.1000e+000 113183 -1.3382e+002 -2.4987e+002  1.0739e+001 19096 113053,113105,113079
 3.1000e+000 113451 -2.3075e+001 -1.5875e+002 -2.2549e+001 18642 113327,113379,113353
 3.1000e+000 113428 -5.0877e+001 -2.3017e+002 -1.9293e+001 18642 113301,113379,113327
 3.1000e+000 113405  5.4373e+000 -1.9714e+002 -4.4128e+000 18642 113275,113379,113301
 3.1000e+000 113699  1.2167e+001 -1.9516e+002 -5.8892e+000 18138 113474,113552,113526
 3.1000e+000 113676  4.8600e+001 -2.0680e+002 -2.4552e+001 18138 113474,113578,113552
 3.1000e+000 113653  4.2299e+001 -2.0151e+002 -2.2495e+001 18138 113474,113604,113578
 3.1000e+000 113630  6.0070e+001 -1.5922e+002  1.8929e+001 18138 113474,113526,113500
 3.1000e+000 113851 -1.9422e+001 -2.2890e+002 -4.0040e+000 17682 113750,113802,113776
 3.1000e+000 113828  1.7173e+001 -2.0854e+002  4.8185e+000 17682 113724,113802,113750
 3.1000e+000 114383  4.6075e+001 -1.6383e+002 -2.6839e+001 17106 114086,114242,114164
 3.1000e+000 114360 -5.7429e+001 -2.0559e+002 -6.5946e-001 17106 114060,114242,114086
 3.1000e+000 114337 -7.2854e+001 -3.4582e+002  3.0161e+001 17106 114086,114164,114138
 3.1000e+000 114314 -9.3983e+001 -5.5926e+002 -1.1482e+001 17106 114190,114242,114216
 3.1000e+000 114291 -3.0665e+001 -3.9278e+002 -4.3738e+001 17106 114164,114242,114190
 3.1000e+000 114268 -1.8355e+001 -3.1372e+002  6.8996e+001 17106 114086,114138,114112
 3.1000e+000 114680 -6.8136e+001 -2.1302e+002  1.6299e+000 16766 114703,114432,114406
 3.1000e+000 114657 -7.4638e+001 -2.1305e+002 -3.3396e+000 16766 114703,114406,114510
 3.1000e+000 114634 -6.9846e+001 -1.5881e+002  8.4695e+000 16766 114406,114536,114510
 3.1000e+000 114611 -4.4508e+001 -2.2659e+002 -1.2899e+001 16766 114432,114484,114458
 3.1000e+000 114588 -8.2454e+001 -1.8387e+002  5.8081e+001 16766 114406,114562,114536
 3.1000e+000 114729 -4.3554e+001 -2.1123e+002  6.5524e+000 16766 114484,114432,114703
 3.1000e+000 114752 -6.3980e+001 -2.2154e+002  5.6422e-001 16766 114484,114703,114510
 3.1000e+000 114902  2.6671e+001 -3.1887e+002 -4.2452e+001 16362 114775,114827,114801
 3.1000e+000 114879  4.5641e+001 -2.9598e+002 -5.1228e+001 16362 114775,114853,114827
 3.1000e+000 115054 -3.5102e+002 -5.6349e+002 -1.7820e+001 15908 114953,115005,114979
 3.1000e+000 115031 -3.2902e+002 -5.7877e+002 -1.0921e+001 15908 114927,115005,114953
 3.1000e+000 115326  1.8621e+001 -1.5521e+002  6.5377e+001 15251 115101,115179,115153
 3.1000e+000 115303  1.3477e+001 -1.4064e+002  1.1875e+000 15251 115101,115231,115179
 3.1000e+000 115280  1.4055e+001 -1.4006e+002  7.6035e-001 15251 115179,115231,115205
 3.1000e+000 115257 -1.3166e+002 -6.6273e+002  5.3884e+001 15251 115101,115153,115127
 3.1000e+000 115429 -4.4380e+001 -2.3690e+002  3.9634e+001 421 115351,115403,115377
 3.2000e+000 66230 -4.7025e+001  4.7445e+001  1.6199e+001 65954 66152,66204,66178
 3.2000e+000 66429  5.0482e+000  1.4477e+001  6.7044e+000 65642 66279,66331,66305
 3.2000e+000 66406 -4.4330e+000 -1.3456e+001  5.4303e+000 65642 66279,66357,66331
 3.2000e+000 66383  1.2088e+001  4.6094e+001 -1.3508e+001 65642 66253,66357,66279
 3.2000e+000 66628 -7.2577e+000 -6.2881e+001  1.4820e+001 65444 66452,66530,66478
 3.2000e+000 66605  1.7558e+001 -1.0343e+002  3.2455e-001 65444 66452,66556,66530
 3.2000e+000 66582 -8.1601e+000 -9.2427e+001  1.9262e+001 65444 66478,66530,66504
 3.2000e+000 67006 -2.6728e+000 -6.2682e+001  2.4315e+000 65246 66732,66810,66758
 3.2000e+000 66983 -9.3020e-001 -3.4940e+001  9.4066e+000 65246 66732,66836,66810
 3.2000e+000 66960 -2.7150e+000 -3.0915e+001  3.7428e+000 65246 66732,66862,66836
 3.2000e+000 66937 -1.3686e+000 -5.4891e+001  3.0962e+000 65246 66758,66810,66784
 3.2000e+000 66914  1.0987e+001 -1.2550e+002 -3.9205e+001 65246 66732,66888,66862
 3.2000e+000 67107  4.5681e+001 -4.8341e+001 -1.7588e+001 64934 67029,67081,67055
 3.2000e+000 67306 -7.6806e+000 -2.3039e+001  1.1910e+001 64736 67156,67208,67182
 3.2000e+000 67283 -3.9504e+000 -1.9608e+001  1.0491e+001 64736 67130,67208,67156
 3.2000e+000 67260  9.2340e+000 -7.5742e+001  2.0262e+001 64736 67130,67234,67208
 3.2000e+000 67507 -4.7270e+000 -6.8449e+001 -1.1610e+001 64389 67357,67409,67383
 3.2000e+000 67484 -9.2943e+000 -6.5214e+001 -1.3563e+001 64389 67357,67435,67409
 3.2000e+000 67461  1.1331e+001 -9.8604e+001 -5.6154e+000 64389 67331,67435,67357
 3.2000e+000 67708  4.4632e+001 -8.0422e+001  1.6171e+001 63985 67731,67584,67558
 3.2000e+000 67685  2.1589e+001 -1.4821e+001  4.7862e+000 63985 67731,67558,67636
 3.2000e+000 67662  4.7322e+000 -1.7069e+001  9.1276e+000 63985 67532,67636,67558
 3.2000e+000 67757  3.4566e+001 -1.1399e+002  1.2057e+001 63985 67610,67584,67731
 3.2000e+000 67780 -7.5854e-001 -6.7078e+001 -2.5461e+000 63985 67610,67731,67636
 3.2000e+000 67981  3.2821e-001  7.6504e+000  2.8003e+000 63787 67857,67909,67883
 3.2000e+000 67958  1.2845e+000  1.7330e+001 -1.5585e+000 63787 67831,67909,67857
 3.2000e+000 67935 -1.2637e+001 -8.3733e+000 -6.7883e+000 63787 67805,67909,67831
 3.2000e+000 68231 -3.0280e+000 -1.1715e+002  8.7507e+000 63589 68254,68084,68032
 3.2000e+000 68208 -6.3917e+000 -4.9014e+001  7.4741e+000 63589 68254,68032,68006
 3.2000e+000 68185  7.3034e+000 -2.5587e+001  1.5457e+001 63589 68326,68136,68110
 3.2000e+000 68162 -1.2739e+000 -1.0889e+002 -1.2951e+001 63589 68032,68084,68058
 3.2000e+000 68280 -1.9963e-001 -5.6363e+001  1.1660e+001 63589 68110,68084,68254
 3.2000e+000 68303 -3.5861e+000 -3.0101e+001  2.3689e+001 63589 68326,68110,68254
 3.2000e+000 68352  2.2614e+001 -5.1420e+000 -1.3148e+001 63589 68006,68136,68326
 3.2000e+000 68375  2.8486e+000 -1.7243e+001 -3.8013e+000 63589 68006,68326,68254
 3.2000e+000 68836  9.2567e-001  9.5496e+000  6.4837e+000 63128 68859,68588,68562
 3.2000e+000 68813 -3.9967e+000 -7.0475e+000  2.2933e+001 63128 68859,68562,68692
 3.2000e+000 68790  2.1395e+001 -3.4425e+001  6.4027e+000 63128 68614,68692,68666
 3.2000e+000 68767 -1.5330e+001 -1.8707e+001  1.8313e+001 63128 68562,68718,68692
 3.2000e+000 68744  2.3836e+001 -3.5999e+001 -4.1673e+001 63128 68614,68666,68640
 3.2000e+000 68885  1.1212e+001  3.3546e+001 -3.7662e+000 63128 68614,68588,68859
 3.2000e+000 68908  4.9604e+000  1.1831e+001  1.2330e+001 63128 68614,68859,68692
 3.2000e+000 69237  8.4556e+000 -4.5008e+001  1.1811e+001 62731 69064,69116,69090
 3.2000e+000 69214 -5.2541e+000 -8.5586e+001  1.7111e+000 62731 69064,69142,69116
 3.2000e+000 69191 -1.2547e+001 -8.3860e+001  7.6741e+000 62731 69038,69142,69064
 3.2000e+000 69168 -2.7524e+000 -1.3282e+002  7.0039e+000 62731 69012,69142,69038
 3.2000e+000 69539  3.2454e-002  2.7688e+001 -4.2620e+000 62433 69389,69467,69441
 3.2000e+000 69516  1.0202e+001 -9.5011e+000  1.5142e+000 62433 69363,69467,69389
 3.2000e+000 69493  4.4363e+000 -6.3308e+000  2.1194e+001 62433 69389,69441,69415
 3.2000e+000 69966  4.1011e+000 -4.0646e+001  2.1170e+001 62235 69989,69773,69721
 3.2000e+000 69943  1.3587e+001 -7.7339e+001 -1.6470e+001 62235 70061,69989,69721
 3.2000e+000 69920  2.7044e+001 -7.9752e+001 -8.4556e+000 62235 70061,69721,69643
 3.2000e+000 69897  7.8935e+000  9.4153e+000  8.6133e+000 62235 69721,69773,69747
 3.2000e+000 69874 -3.7303e+001 -2.3355e+002 -1.6545e+000 62235 69643,69721,69695
 3.2000e+000 69851  8.8686e+001  2.3721e+002 -3.6097e+001 62235 69643,69695,69669
 3.2000e+000 70015 -4.4818e+000 -7.9623e+001  7.1681e+000 62235 69799,69773,69989
 3.2000e+000 70038 -4.1165e+001 -1.0883e+002 -4.3262e+001 62235 69799,69989,69825
 3.2000e+000 70087 -1.2136e+001 -7.2962e+001 -1.2210e+001 62235 69825,69989,70061
 3.2000e+000 70110  8.1717e+000 -7.1616e+001 -8.1262e+000 62235 69825,70061,69643
 3.2000e+000 70260  1.7568e+001 -1.9524e+001  2.1619e+000 62037 70133,70185,70159
 3.2000e+000 70237 -1.0871e+000 -2.9415e+001 -8.8564e+000 62037 70133,70211,70185
 3.2000e+000 70640 -3.5531e+000 -6.2172e+001  1.9750e+001 61583 70735,70663,70418
 3.2000e+000 70617 -3.5825e+001 -6.3655e+001  1.7611e+001 61583 70663,70366,70522
 3.2000e+000 70594  5.2055e+000 -5.4934e+001  3.0123e+001 61583 70735,70418,70392
 3.2000e+000 70571 -2.1681e+001 -8.9626e+001  9.8972e+000 61583 70418,70496,70444
 3.2000e+000 70548 -4.7814e+001 -6.0847e+001  6.7592e+000 61583 70444,70496,70470
 3.2000e+000 70689 -3.4007e+001 -9.4605e+001  7.1032e+000 61583 70496,70418,70663
 3.2000e+000 70712 -5.4764e+001 -6.1689e+001  1.2102e+001 61583 70496,70663,70522
 3.2000e+000 70761 -3.2071e+001 -6.8936e+001  1.4627e+000 61583 70366,70663,70735
 3.2000e+000 70784 -1.4634e+001 -5.7955e+001  1.1924e+001 61583 70366,70735,70392
 3.2000e+000 71054 -9.1352e-002  4.2267e+000  4.8203e-001 61313 71077,70881,70855
 3.2000e+000 71031  3.0318e-001  3.8121e+000  1.2753e+000 61313 71077,70855,70829
 3.2000e+000 71008 -3.2129e+000 -5.4333e+000 -3.5971e+000 61313 70829,70959,70933
 3.2000e+000 70985  1.2976e+000 -2.9082e+000 -2.0288e+000 61313 70881,70933,70907
 3.2000e+000 71103 -1.0232e+000  3.8379e+000  5.6400e-001 61313 70933,70881,71077
 3.2000e+000 71126 -3.3039e-001  3.5613e+000  1.2695e+000 61313 70933,71077,70829
 3.2000e+000 71604 -1.1091e+000 -8.8692e+001  8.5910e+000 60909 71627,71232,71414
 3.2000e+000 71581 -2.3164e+001 -7.2963e+001 -1.5437e+001 60909 71232,71440,71414
 3.2000e+000 71558  4.6724e+000 -6.9422e+001  1.1992e+001 60909 71627,71414,71336
 3.2000e+000 71535  2.7221e+001 -1.6278e+002  3.4486e+001 60909 71362,71414,71388
 3.2000e+000 71512 -1.1791e+001 -1.2014e+002  2.3351e+000 60909 71336,71414,71362
 3.2000e+000 71489  3.3888e+001 -3.7174e+001 -3.9757e+000 60909 71258,71336,71310
 3.2000e+000 71466 -2.9844e+001 -6.8196e+001  6.7439e+000 60909 71258,71310,71284
 3.2000e+000 71653  6.4205e-001 -7.1200e+001  1.0208e+001 60909 71258,71232,71627
 3.2000e+000 71676 -6.8291e-001 -6.1593e+001  1.3218e+001 60909 71258,71627,71336
 3.2000e+000 71875 -6.8393e+000 -1.0312e+001  1.0106e+001 60611 71898,71725,71699
 3.2000e+000 71852 -1.1454e+001 -8.7464e+000  1.2025e+001 60611 71898,71699,71803
 3.2000e+000 71829  6.1910e+000  1.0492e+001 -3.0868e+000 60611 71970,71751,71725
 3.2000e+000 71924  2.9703e+000 -2.0883e+000  4.2607e+000 60611 71970,71725,71898
 3.2000e+000 71947 -1.0378e+001 -1.8458e+001  8.7041e+000 60611 71777,71898,71803
 3.2000e+000 71996 -2.1056e+000 -5.5267e+000  2.2122e+000 60611 71777,71751,71970
 3.2000e+000 72019 -6.6618e+000 -1.3561e+001  1.0390e+001 60611 71777,71970,71898
 3.2000e+000 72576  2.9133e+001 -1.5592e+002  2.0088e+001 60142 72599,72256,72230
 3.2000e+000 72553  4.6727e+001 -6.6916e+001  3.1164e+001 60142 72671,72599,72230
 3.2000e+000 72530 -6.0956e+000 -2.8152e+001 -4.8751e+000 60142 72671,72230,72204
 3.2000e+000 72507 -2.0782e+001 -3.5698e+001  1.4513e+001 60142 72743,72360,72334
 3.2000e+000 72484 -8.0496e+000 -3.8471e+001 -1.3397e+001 60142 72815,72282,72256
 3.2000e+000 72461  3.1432e+001  1.3717e+001  2.9565e+001 60142 72887,72308,72282
 3.2000e+000 72438 -2.9122e+001 -1.3731e+002 -2.0261e+001 60142 72204,72412,72386
 3.2000e+000 72625 -1.9399e+001 -1.1504e+002 -3.0835e+001 60142 72815,72256,72599
 3.2000e+000 72648 -3.7764e+000 -6.6484e+001  9.4412e+000 60142 72743,72334,72599
 3.2000e+000 72697  8.8994e-001 -1.2983e+002  1.1161e+001 60142 72386,72599,72671
 3.2000e+000 72720 -3.3488e+001 -8.2435e+001 -1.7663e+001 60142 72386,72671,72204
 3.2000e+000 72769  7.0561e+000 -6.2259e+001  6.9673e+001 60142 72386,72360,72743
 3.2000e+000 72792  7.2075e+000 -1.2392e+002  3.7489e+001 60142 72386,72743,72599
 3.2000e+000 72841 -2.7329e+000 -3.4238e+000  6.7022e+000 60142 72887,72282,72815
 3.2000e+000 72864  3.6773e-001 -4.7475e+001 -2.2581e+000 60142 72334,72815,72599
 3.2000e+000 72913 -1.6310e+001 -1.8028e+001  1.0966e+001 60142 72334,72308,72887
 3.2000e+000 72936 -3.2462e+001 -2.6313e+001 -1.0219e+001 60142 72334,72887,72815
 3.2000e+000 73491 -1.4949e+001 -1.5052e+002 -2.9157e+001 59738 73145,73327,73171
 3.2000e+000 73468  1.4794e+001 -1.1152e+002 -1.6092e+001 59738 73119,73327,73145
 3.2000e+000 73445 -6.9975e+000 -6.3280e+001  2.8264e+000 59738 73171,73327,73301
 3.2000e+000 73422  1.6395e+001 -7.3717e+001  1.5028e+000 59738 73514,73275,73249
 3.2000e+000 73399 -3.5654e+000 -5.0848e+001 -2.1730e+000 59738 73586,73514,73249
 3.2000e+000 73376  4.6304e+000  1.0034e+000  7.7124e+000 59738 73197,73249,73223
 3.2000e+000 73353  6.2891e+000 -4.3548e+001 -1.0505e+001 59738 73586,73249,73197
 3.2000e+000 73540 -5.1527e+000 -1.1306e+002 -1.4319e+001 59738 73301,73275,73514
 3.2000e+000 73563 -1.1386e+001 -7.3061e+001  1.1428e+000 59738 73301,73514,73171
 3.2000e+000 73612 -3.6568e+000 -6.4284e+001  8.4070e+000 59738 73171,73514,73586
 3.2000e+000 73635 -7.7357e-001 -5.7877e+001  1.2998e+000 59738 73171,73586,73197
 3.2000e+000 73964  4.9398e+000 -1.1329e+002 -4.4146e+000 59334 73791,73843,73817
 3.2000e+000 73941 -2.1449e+000 -1.2258e+002 -8.6553e+000 59334 73791,73869,73843
 3.2000e+000 73918 -2.3316e+001 -1.7205e+002 -9.1542e+000 59334 73739,73869,73791
 3.2000e+000 73895  7.5100e+000 -1.9447e+002 -7.8119e+000 59334 73739,73791,73765
 3.2000e+000 74261 -6.6912e+000 -6.7728e+001  2.2568e+001 58630 74065,74117,74091
 3.2000e+000 74238 -7.1474e-001 -6.8405e+001 -1.7121e+000 58630 74356,74284,74065
 3.2000e+000 74215  3.0517e+000 -3.9537e+001 -6.2162e-001 58630 74284,74013,73987
 3.2000e+000 74192 -2.8260e+000 -6.5870e+001 -1.4099e+001 58630 74356,74065,74039
 3.2000e+000 74169  2.6613e+000 -3.9127e+001  5.7520e+000 58630 73987,74143,74117
 3.2000e+000 74310  6.1900e+000 -8.3055e+001  1.9719e+000 58630 74117,74065,74284
 3.2000e+000 74333 -8.1088e+000 -5.8032e+001 -6.0454e+000 58630 74117,74284,73987
 3.2000e+000 74382  1.9802e+001 -6.4588e+001 -6.1047e+000 58630 74013,74284,74356
 3.2000e+000 74405  1.8836e+001 -6.0943e+001 -1.8658e+001 58630 74013,74356,74039
 3.2000e+000 74815 -1.5796e+001 -7.2775e+001 -2.8542e+000 58226 74590,74642,74616
 3.2000e+000 74792 -1.6639e+001 -1.0076e+002 -7.4214e+000 58226 74590,74694,74642
 3.2000e+000 74769  1.3897e+001 -1.6594e+002  2.5106e+001 58226 74590,74720,74694
 3.2000e+000 74746 -1.0603e+001 -6.0364e+001 -3.5940e+000 58226 74642,74694,74668
 3.2000e+000 75014  5.6299e+000 -7.2272e+001 -6.9528e-001 57786 75037,74864,74838
 3.2000e+000 74991 -3.2627e+000 -4.7207e+001  1.4034e+001 57786 75037,74838,74916
 3.2000e+000 74968 -3.3646e+000 -3.5778e+001 -5.7363e+000 57786 74838,74942,74916
 3.2000e+000 75063 -1.0386e+001 -9.5035e+001 -9.0756e+000 57786 74890,74864,75037
 3.2000e+000 75086 -1.4780e+001 -6.5906e+001  7.0104e+000 57786 74890,75037,74916
 3.2000e+000 75368 -2.2259e+001 -1.5038e+001  1.0229e+001 57496 75192,75270,75218
 3.2000e+000 75345  3.2762e+001  8.4968e+000  1.3305e+001 57496 75192,75296,75270
 3.2000e+000 75322  4.8869e+000 -8.4501e+000  2.8974e+001 57496 75218,75270,75244
 3.2000e+000 75648  1.1007e+001 -5.7916e+001 -1.3622e+001 57206 75472,75550,75498
 3.2000e+000 75625  3.3666e+001 -4.1477e+001 -2.5941e+001 57206 75472,75576,75550
 3.2000e+000 75602  2.5323e+000  2.2200e+001 -1.1180e+000 57206 75671,75550,75524
 3.2000e+000 75697  3.0538e+001 -4.9619e+001 -1.2566e+001 57206 75498,75550,75671
 3.2000e+000 76154 -1.0396e+001 -5.9215e+001  1.0188e+001 56802 75958,76010,75984
 3.2000e+000 76131 -2.1200e+000 -3.3748e+001  8.3687e+000 56802 75932,76010,75958
 3.2000e+000 76108 -6.6512e+000 -6.2998e+001  1.7655e+001 56802 75906,76010,75932
 3.2000e+000 76085 -7.9353e+000 -1.7968e+001  2.0875e+001 56802 75880,76010,75906
 3.2000e+000 76062  8.9430e+000 -1.8595e+001 -1.3621e+000 56802 75880,76036,76010
 3.2000e+000 76505 -1.2932e+000  8.9611e-001  1.0085e+000 56504 76306,76384,76332
 3.2000e+000 76482  8.6728e-001  1.0299e+000  9.0450e-001 56504 76306,76410,76384
 3.2000e+000 76459 -3.1280e+000 -1.5620e-001  6.5440e-001 56504 76332,76384,76358
 3.2000e+000 76436 -3.3193e-001  1.1027e-001  4.0384e-001 56504 76280,76410,76306
 3.2000e+000 77011  2.4662e+001 -2.7202e+001 -2.6319e+001 56050 76740,76818,76792
 3.2000e+000 76988  2.6239e+000 -3.5486e+001 -2.9917e+001 56050 76714,76818,76740
 3.2000e+000 76965 -1.0298e+000 -4.1270e+001 -2.8063e+001 56050 76688,76818,76714
 3.2000e+000 76942  2.6005e+001 -9.3755e-001 -1.2963e+001 56050 76688,76844,76818
 3.2000e+000 76919  1.2572e+001 -3.2536e+001 -2.2552e+001 56050 76740,76792,76766
 3.2000e+000 76896  1.0881e+001  1.0070e+000  4.3748e+000 56050 76688,76870,76844
 3.2000e+000 77517 -4.0173e+001 -5.1772e+001  1.5243e+001 55738 77220,77350,77324
 3.2000e+000 77494 -9.4081e+000 -7.6396e+001 -1.3205e+001 55738 77220,77376,77350
 3.2000e+000 77471  9.7952e+000 -3.8686e+001 -6.5522e+000 55738 77194,77376,77220
 3.2000e+000 77448 -6.0873e+000 -3.1206e+001  6.5914e+000 55738 77220,77298,77246
 3.2000e+000 77425 -1.8741e+001 -4.3718e+001  1.4099e+001 55738 77220,77324,77298
 3.2000e+000 77402 -3.5388e+001 -3.3723e+001  8.6052e+001 55738 77246,77298,77272
 3.2000e+000 78064  2.9697e+001 -9.1435e+001 -9.1889e+000 55227 78231,78087,77773
 3.2000e+000 78041 -1.6593e+001 -1.8664e+002  7.8198e+000 55227 78087,77695,77643
 3.2000e+000 78018 -3.6196e+000 -1.2325e+002 -2.6668e+001 55227 78159,77799,77773
 3.2000e+000 77995  6.3741e+000 -4.2415e+001  3.0392e+000 55227 78231,77773,77721
 3.2000e+000 77972 -4.0215e+001 -4.9978e+001  4.1458e+001 55227 77643,77695,77669
 3.2000e+000 77949 -1.2763e+001 -7.2283e+001 -4.3417e+000 55227 77643,77877,77851
 3.2000e+000 77926 -1.7101e+001 -1.1768e+002  1.1166e+001 55227 77799,77851,77825
 3.2000e+000 77903  1.7315e+001 -2.7312e+000 -2.1069e+001 55227 77721,77773,77747
 3.2000e+000 78113  1.2016e+001 -1.3088e+002 -1.9240e+001 55227 78159,77773,78087
 3.2000e+000 78136  2.4105e+001 -9.1710e+001  6.1304e+000 55227 77851,78087,77643
 3.2000e+000 78185 -3.3016e+001 -1.2740e+002 -2.3299e+001 55227 77851,77799,78159
 3.2000e+000 78208 -1.6678e+001 -1.3480e+002 -1.7077e+001 55227 77851,78159,78087
 3.2000e+000 78257  9.0545e+000 -1.4814e+002 -2.9705e+001 55227 77695,78087,78231
 3.2000e+000 78280 -1.9421e+001 -9.7195e+001 -2.2566e+001 55227 77695,78231,77721
 3.2000e+000 78737  1.1331e+001 -3.5283e+001 -1.2311e+001 54773 78463,78541,78515
 3.2000e+000 78714 -1.4939e+001 -6.7364e+001  2.2409e-001 54773 78463,78619,78541
 3.2000e+000 78691  2.2710e+001 -4.2899e+000 -1.1499e+000 54773 78463,78515,78489
 3.2000e+000 78668 -1.5839e+001 -3.2578e+001 -1.0849e+001 54773 78541,78593,78567
 3.2000e+000 78645  1.2739e+000 -4.5520e+001 -1.6249e+001 54773 78541,78619,78593
 3.2000e+000 78838 -6.6753e-001 -5.5061e+000  2.3435e-001 54211 78760,78812,78786
 3.2000e+000 79297  6.3874e+000 -5.6696e+001  5.7624e+000 53814 79520,79153,79049
 3.2000e+000 79274  9.6530e+000 -4.7110e+001 -4.6501e+000 53814 79520,79049,79023
 3.2000e+000 79251 -1.9812e+001 -9.9478e+001  1.9075e+001 53814 79320,79101,79049
 3.2000e+000 79228  5.5062e-001 -5.0849e+001  6.5731e+000 53814 79320,79049,79153
 3.2000e+000 79205 -1.0446e+001 -8.0198e+001  2.4904e+001 53814 79049,79101,79075
 3.2000e+000 79346 -4.8633e+000 -4.2583e+001 -1.4759e+001 53814 79392,79320,79127
 3.2000e+000 79369  1.9134e+000 -4.8995e+001 -1.8745e+001 53814 79127,79320,79153
 3.2000e+000 79418 -8.4443e+000 -9.2778e+001 -2.3874e+001 53814 79101,79320,79392
 3.2000e+000 79546 -3.4315e+000 -7.6074e+001  1.8211e+001 53814 79179,79153,79520
 3.2000e+000 79569  1.7554e+001 -5.8476e+001  4.2818e+000 53814 79179,79520,79023
 3.2000e+000 80075 -3.2746e+001  1.4727e+000  1.7812e+001 53039 80098,79908,79830
 3.2000e+000 80052 -4.4571e+001 -4.8816e-001 -1.4483e+001 53039 80098,79830,79804
 3.2000e+000 80029  1.1103e+000  1.3112e+001 -2.2610e+000 53039 79752,79934,79804
 3.2000e+000 80006  2.1178e+000 -5.2468e+001  3.1667e+001 53039 79856,79908,79882
 3.2000e+000 79983  4.3428e+001 -1.0286e+002  2.1889e+001 53039 79830,79908,79856
 3.2000e+000 79960 -3.8821e+000  6.5483e+000 -5.2577e+000 53039 79752,79804,79778
 3.2000e+000 80124  1.8635e+001  2.9775e+001  3.0921e+001 53039 79934,79908,80098
 3.2000e+000 80147 -2.2303e+001  1.2735e+001 -3.6648e+000 53039 79934,80098,79804
 3.2000e+000 80555  1.9774e+001 -2.3487e+001 -2.3228e+000 52699 80356,80434,80408
 3.2000e+000 80532  5.2576e+000 -4.9214e+001  5.7847e+000 52699 80356,80460,80434
 3.2000e+000 80509 -6.0611e+000 -5.5520e+001  3.3112e+000 52699 80330,80460,80356
 3.2000e+000 80486 -3.4670e+001 -7.0138e+001  4.2699e+001 52699 80356,80408,80382
 3.2000e+000 80776  1.1498e+001  1.0564e+001 -8.0230e-001 52295 80600,80678,80626
 3.2000e+000 80753  4.1484e+000  6.6340e+000  9.5931e-001 52295 80600,80704,80678
 3.2000e+000 80730  3.7666e+000  7.3392e+000 -5.7787e-001 52295 80626,80678,80652
 3.2000e+000 81156 -1.1774e+001 -8.4165e+001  2.0211e+001 51891 81179,80960,80908
 3.2000e+000 81133 -4.6556e+000 -7.4422e+001 -3.5842e+000 51891 81179,80908,81012
 3.2000e+000 81110 -2.6069e+001 -7.2186e+001 -5.3627e+000 51891 80882,81012,80908
 3.2000e+000 81087  1.1704e+001 -9.7025e+001  2.2803e+001 51891 80908,80960,80934
 3.2000e+000 81064 -1.1677e+000 -4.9893e+000 -7.3834e-001 51891 80882,81038,81012
 3.2000e+000 81205  1.7458e+001 -7.4162e+001  1.5851e+001 51891 80986,80960,81179
 3.2000e+000 81228  6.1263e+000 -7.0967e+001 -8.4075e+000 51891 80986,81179,81012
 3.2000e+000 81606  2.1146e+000 -2.4822e+002 -8.0632e+001 51544 81410,81462,81436
 3.2000e+000 81583  2.0889e+001 -9.4547e+001 -1.1502e+001 51544 81384,81462,81410
 3.2000e+000 81560 -1.9427e+001 -1.1134e+002 -2.5139e+001 51544 81358,81462,81384
 3.2000e+000 81537 -3.8387e+000 -1.0136e+002 -3.2419e+001 51544 81358,81488,81462
 3.2000e+000 81514  2.3631e+001 -8.8271e+000 -2.2827e+001 51544 81332,81488,81358
 3.2000e+000 81854  4.3451e+000 -7.5885e+001 -5.0118e-001 51004 81877,81655,81629
 3.2000e+000 81831  1.7265e+000 -5.3769e+001 -4.6038e+000 51004 81877,81629,81759
 3.2000e+000 81808  3.6960e+000 -3.9612e+001  3.4182e+001 51004 81655,81707,81681
 3.2000e+000 81785 -2.1026e+001 -9.0986e+001 -1.8918e+000 51004 81707,81759,81733
 3.2000e+000 81903  4.2760e+000 -8.4697e+001 -4.1215e-001 51004 81707,81655,81877
 3.2000e+000 81926 -8.3308e+000 -7.7707e+001 -8.7180e+000 51004 81707,81877,81759
 3.2000e+000 82257 -2.8510e+001 -9.1140e+001 -1.2466e+001 50642 82058,82136,82110
 3.2000e+000 82234 -2.8139e+001 -5.8533e+001 -2.2226e+001 50642 82058,82162,82136
 3.2000e+000 82211 -2.6386e+001 -8.8006e+001 -1.5099e+001 50642 82058,82110,82084
 3.2000e+000 82188  2.1238e+000 -4.6087e+001 -1.4880e+001 50642 82032,82162,82058
 3.2000e+000 82684  3.3507e+001 -1.6905e+002  2.8727e+001 49931 82779,82707,82465
 3.2000e+000 82661 -1.5404e+001 -2.1041e+002  3.8262e+001 49931 82707,82413,82361
 3.2000e+000 82638 -3.2865e+000 -1.5857e+002 -3.9252e+001 49931 82779,82465,82439
 3.2000e+000 82615 -6.5020e+000 -3.5306e+002  3.9101e+001 49931 82465,82543,82491
 3.2000e+000 82592 -1.8516e+001 -1.4665e+002 -1.2056e+000 49931 82361,82413,82387
 3.2000e+000 82569  1.7980e+000 -2.6949e+002  3.1629e+001 49931 82491,82543,82517
 3.2000e+000 82733  5.7890e+001 -2.0282e+002  3.2296e+001 49931 82543,82465,82707
 3.2000e+000 82756  1.3080e+001 -1.7225e+002  2.5758e+001 49931 82543,82707,82361
 3.2000e+000 82805 -1.0618e+001 -2.6463e+002  4.2145e+000 49931 82413,82707,82779
 3.2000e+000 82828 -3.1011e+001 -2.3909e+002 -6.0218e+001 49931 82413,82779,82439
 3.2000e+000 83255 -1.6484e+001 -2.2735e+002 -3.5638e+001 49327 82984,83114,83036
 3.2000e+000 83232 -3.5730e+001 -2.6720e+002 -6.8017e+001 49327 82958,83114,82984
 3.2000e+000 83209 -3.5640e+001 -2.9823e+002 -1.0685e+001 49327 83036,83114,83088
 3.2000e+000 83186 -7.4958e+001 -1.7481e+002  6.1147e+000 49327 82984,83036,83010
 3.2000e+000 83163 -3.5758e+001 -2.4609e+002 -5.6846e+001 49327 82932,83114,82958
 3.2000e+000 83140 -9.7061e+001 -4.9189e+002 -5.2776e+000 49327 83036,83088,83062
 3.2000e+000 83938 -3.3190e+001 -3.1719e+002  7.2376e+001 48965 83961,83673,83647
 3.2000e+000 83915  2.1799e+001 -1.3142e+002  7.6535e+001 48965 83961,83647,83543
 3.2000e+000 83892 -2.4370e+001 -1.4994e+002 -2.9787e+001 48965 83517,83725,83543
 3.2000e+000 83869 -5.1257e+001 -2.0831e+002 -3.8019e+001 48965 83673,83725,83699
 3.2000e+000 83846 -2.7805e+001 -6.4260e+001  6.0224e-001 48965 83543,83647,83621
 3.2000e+000 83823 -8.8839e+000 -8.5711e+001 -7.6632e+000 48965 83543,83621,83569
 3.2000e+000 83800 -3.3748e+000 -1.3137e+002  4.7340e+000 48965 83517,83751,83725
 3.2000e+000 83777 -6.3257e-001 -7.4605e+001  1.2103e+001 48965 83569,83621,83595
 3.2000e+000 83987 -1.8338e+001 -2.8540e+002 -4.8179e+001 48965 83725,83673,83961
 3.2000e+000 84010  1.2571e+001 -2.1117e+002 -2.1294e+001 48965 83725,83961,83543
 3.2000e+000 84258 -1.6204e+001 -2.0181e+002  2.5363e+001 48447 84281,84059,84033
 3.2000e+000 84235 -1.5591e+000 -1.6163e+002 -2.7674e+000 48447 84281,84033,84163
 3.2000e+000 84212  1.9525e+001 -1.5168e+002 -2.1473e+001 48447 84059,84111,84085
 3.2000e+000 84189  2.7770e+001 -1.4307e+002 -3.6079e+001 48447 84111,84163,84137
 3.2000e+000 84307  8.5925e+000 -1.9201e+002 -6.4382e+000 48447 84111,84059,84281
 3.2000e+000 84330  3.3397e+001 -1.6461e+002 -3.3573e+001 48447 84111,84281,84163
 3.2000e+000 84529  2.7826e+001 -1.2481e+002 -8.8300e+000 47993 84552,84405,84379
 3.2000e+000 84506 -2.0972e+001 -1.3784e+002 -2.6054e+000 47993 84552,84379,84353
 3.2000e+000 84483  1.1820e+001 -1.2994e+002 -1.4468e+001 47993 84624,84457,84431
 3.2000e+000 84578  4.3604e+001 -1.2506e+002 -2.6363e+001 47993 84431,84405,84552
 3.2000e+000 84601  1.6460e+001 -1.3002e+002 -1.3860e+001 47993 84624,84431,84552
 3.2000e+000 84650  1.6543e+001 -1.3119e+002 -1.1013e+001 47993 84353,84457,84624
 3.2000e+000 84673  2.2774e+001 -1.2861e+002 -9.2743e+000 47993 84353,84624,84552
 3.2000e+000 85104 -3.2829e+001 -2.1905e+002 -2.0123e+001 47588 85199,85127,84885
 3.2000e+000 85081 -2.3305e+001 -2.3274e+002 -2.6380e+001 47588 85127,84781,84963
 3.2000e+000 85058 -6.5128e+001 -2.1200e+002  1.6183e+001 47588 85199,84885,84807
 3.2000e+000 85035 -9.9026e+000 -1.4516e+002  7.3347e+001 47588 84885,84937,84911
 3.2000e+000 85012 -3.4793e+001 -1.3380e+002 -1.0116e+001 47588 84807,84885,84833
 3.2000e+000 84989 -9.8697e+000 -1.2200e+002  1.0423e+001 47588 84833,84885,84859
 3.2000e+000 85153 -2.8904e+001 -2.6095e+002 -3.1759e+000 47588 84937,84885,85127
 3.2000e+000 85176  5.3835e+001 -2.3763e+002 -4.4313e+000 47588 84937,85127,84963
 3.2000e+000 85225 -9.3567e+001 -2.4136e+002 -1.7894e+001 47588 84781,85127,85199
 3.2000e+000 85248 -1.1446e+002 -2.3307e+002  2.3389e+001 47588 84781,85199,84807
 3.2000e+000 85518 -5.8072e+001 -3.5689e+002  5.7626e+001 47226 85293,85397,85319
 3.2000e+000 85495 -3.7894e+001 -3.1739e+002  2.5035e+001 47226 85293,85423,85397
 3.2000e+000 85472 -2.8022e+001 -3.7480e+002 -1.4038e+001 47226 85319,85397,85345
 3.2000e+000 85449  3.2113e+001 -1.0185e+002 -1.4747e+001 47226 85345,85397,85371
 3.2000e+000 85849 -2.2225e+001 -1.8325e+002  4.0807e+001 46572 85624,85702,85650
 3.2000e+000 85826 -2.0801e+001 -2.6780e+002 -1.2988e+001 46572 85624,85754,85702
 3.2000e+000 85803  3.6373e+001 -1.4924e+002  2.1672e+001 46572 85702,85754,85728
 3.2000e+000 85780 -1.4911e+001 -1.7917e+002  3.7772e+001 46572 85650,85702,85676
 3.2000e+000 86070 -1.6985e+002 -2.6270e+002 -5.6513e+000 46374 85920,85972,85946
 3.2000e+000 86047 -1.1684e+002 -1.3786e+002  1.3708e+000 46374 85920,85998,85972
 3.2000e+000 86024 -7.6599e+001 -1.1162e+002  2.6008e+001 46374 85894,85998,85920
 3.2000e+000 86401  8.0954e+000 -1.6780e+002  3.8839e+000 46034 86424,86280,86228
 3.2000e+000 86378 -3.8076e+001 -1.5897e+002  1.7612e+000 46034 86424,86228,86176
 3.2000e+000 86355 -5.0051e+001 -1.2903e+002 -4.9155e+001 46034 86176,86228,86202
 3.2000e+000 86332  5.3648e+001 -1.4736e+002 -4.4396e+001 46034 86228,86280,86254
 3.2000e+000 86450  8.9544e+001 -1.6986e+002 -1.6002e+001 46034 86306,86280,86424
 3.2000e+000 86473  1.8516e+000 -1.9127e+002 -2.0516e+001 46034 86306,86424,86176
 3.2000e+000 87058  9.8344e+000 -1.3614e+002  1.9750e+001 45516 86813,86917,86865
 3.2000e+000 87035 -1.4913e+001 -2.0314e+002  1.2351e+001 45516 86787,86917,86813
 3.2000e+000 87012 -3.9823e+000 -2.4136e+002  2.2858e+001 45516 86735,86917,86787
 3.2000e+000 86989  3.3598e+000 -1.3916e+002  2.1106e+001 45516 86865,86917,86891
 3.2000e+000 86966  1.2993e+001 -1.2874e+002  2.1666e+001 45516 86813,86865,86839
 3.2000e+000 86943 -1.0752e+001 -3.2759e+002 -2.6641e+000 45516 86735,86787,86761
 3.2000e+000 87208  5.9634e+001 -8.7164e+001 -2.2661e+001 45226 87231,87133,87107
 3.2000e+000 87185  1.3182e+001 -5.9989e+001 -2.1842e+000 45226 87081,87159,87133
 3.2000e+000 87257  5.3058e+001  1.9822e+001 -2.3659e+001 45226 87081,87133,87231
 3.2000e+000 87537  4.2316e+001 -1.8649e+002  3.3291e+001 44772 87387,87439,87413
 3.2000e+000 87514 -1.6578e+001 -2.0449e+002  2.3377e+001 44772 87361,87439,87387
 3.2000e+000 87491  7.3308e+000 -1.3445e+002  6.1573e+000 44772 87361,87465,87439
 3.2000e+000 87996 -7.2500e+000 -1.9488e+001  1.0741e+001 44425 87748,87878,87852
 3.2000e+000 87973 -1.7647e+000 -1.6621e+001  1.1829e+000 44425 87722,87878,87748
 3.2000e+000 87950  2.0662e+000 -5.6077e+001 -5.9931e+000 44425 87800,87852,87826
 3.2000e+000 87927  6.7898e+000 -3.6188e+001  1.3843e+001 44425 87748,87852,87800
 3.2000e+000 87904 -2.1264e+001 -5.7239e+001 -3.8043e+000 44425 87748,87800,87774
 3.2000e+000 88423 -7.0356e+000 -1.5006e+002  6.2601e+000 44078 88590,88230,88204
 3.2000e+000 88400 -5.4661e+000 -1.0464e+002  1.5576e+001 44078 88518,88446,88204
 3.2000e+000 88377 -3.0541e+000 -1.6026e+002 -2.3415e+001 44078 88446,88126,88282
 3.2000e+000 88354 -2.5336e+001 -7.8230e+001 -1.9825e-001 44078 88518,88204,88178
 3.2000e+000 88331 -4.5610e+000 -1.9180e+002 -2.1974e+001 44078 88100,88282,88126
 3.2000e+000 88308 -1.0794e+001 -8.0808e+001  2.9781e+001 44078 88126,88178,88152
 3.2000e+000 88472 -1.0976e+001 -1.5982e+002  8.2749e+000 44078 88590,88204,88446
 3.2000e+000 88495 -2.1073e+001 -2.3150e+002 -3.6955e+001 44078 88256,88446,88282
 3.2000e+000 88544 -1.7322e+001 -1.6397e+002  1.1949e+001 44078 88126,88446,88518
 3.2000e+000 88567 -1.9387e+001 -1.1206e+002 -3.3095e-002 44078 88126,88518,88178
 3.2000e+000 88616 -8.0230e+001 -3.1888e+002 -2.7787e+001 44078 88256,88230,88590
 3.2000e+000 88639 -6.4420e+000 -1.5416e+002 -4.7159e+000 44078 88256,88590,88446
 3.2000e+000 89039  8.4638e+000 -3.5730e+001  9.8423e+000 43716 88791,88921,88895
 3.2000e+000 89016 -6.6493e+000 -2.7851e+001  8.6019e+000 43716 88765,88921,88791
 3.2000e+000 88993  2.5172e+001 -4.0893e+001  1.8006e+001 43716 88817,88895,88869
 3.2000e+000 88970 -1.5363e+001 -5.0429e+001  1.7049e+001 43716 88791,88895,88817
 3.2000e+000 88947 -7.6110e+000 -3.0977e+001 -1.8607e+000 43716 88817,88869,88843
 3.2000e+000 89496  5.7990e+000 -2.1667e+002 -2.1968e+001 43162 89519,89274,89248
 3.2000e+000 89473  1.3230e+001 -1.6106e+002 -1.1055e+001 43162 89519,89248,89222
 3.2000e+000 89450  6.9556e+000 -1.2981e+002 -6.1263e+001 43162 89326,89378,89352
 3.2000e+000 89427 -6.5706e+000 -1.7956e+002 -2.1684e+001 43162 89274,89378,89326
 3.2000e+000 89404  9.8044e+000 -1.4607e+002 -1.1564e+001 43162 89274,89326,89300
 3.2000e+000 89545  2.8489e+000 -1.6684e+002 -9.4889e+000 43162 89378,89274,89519
 3.2000e+000 89568  1.3427e+001 -1.0736e+002  2.0570e+000 43162 89378,89519,89222
 3.2000e+000 89946 -2.0706e+001 -1.4271e+002 -7.4923e+001 42594 90041,89969,89750
 3.2000e+000 89923 -1.2207e+001 -1.2666e+002 -3.1827e+001 42594 89969,89698,89828
 3.2000e+000 89900  9.8861e+000 -1.5668e+002 -6.8474e+001 42594 90041,89750,89724
 3.2000e+000 89877 -4.0211e+001 -1.2453e+002 -2.7046e+001 42594 89750,89802,89776
 3.2000e+000 89854  2.5060e+001 -6.0478e+001 -1.6727e+001 42594 89672,89828,89698
 3.2000e+000 89995 -5.4756e+001 -1.2038e+002 -5.1007e+001 42594 89802,89750,89969
 3.2000e+000 90018  7.3198e+000 -5.2816e+001 -9.8069e+000 42594 89802,89969,89828
 3.2000e+000 90067  7.1639e+000 -1.2102e+002 -6.3321e+001 42594 89698,89969,90041
 3.2000e+000 90090  3.7939e+001 -1.4328e+002 -6.3419e+001 42594 89698,90041,89724
 3.2000e+000 90517  8.0555e+000 -2.0153e+002 -1.7043e+001 42140 90540,90220,90194
 3.2000e+000 90494  2.0180e+001 -2.0631e+002 -2.2160e+001 42140 90540,90194,90376
 3.2000e+000 90471 -2.1161e+001 -2.1529e+002  5.4360e+000 42140 90612,90350,90272
 3.2000e+000 90448 -5.6490e+001 -2.0449e+002 -1.0724e+001 42140 90272,90350,90298
 3.2000e+000 90425 -4.0268e+001 -1.7041e+002 -1.5617e+001 42140 90298,90350,90324
 3.2000e+000 90402  2.1190e+001 -1.4873e+002  5.1765e+001 42140 90220,90272,90246
 3.2000e+000 90566  7.4376e+000 -1.4609e+002 -1.1342e+001 42140 90272,90220,90540
 3.2000e+000 90589 -1.7065e+001 -2.0604e+002 -1.8780e+000 42140 90612,90272,90540
 3.2000e+000 90638 -3.4995e+000 -2.3395e+002 -1.1715e+001 42140 90376,90350,90612
 3.2000e+000 90661  1.9385e+001 -2.0789e+002 -2.2544e+001 42140 90376,90612,90540
 3.2000e+000 91167 -2.3615e+001 -1.1033e+002 -1.1388e+001 41636 91190,90870,90844
 3.2000e+000 91144 -3.7515e+001 -3.2114e+002 -3.6698e+000 41636 91190,90844,91026
 3.2000e+000 91121 -1.8039e+001 -6.3455e+001 -3.9459e+001 41636 90870,90922,90896
 3.2000e+000 91098 -3.7588e+000 -2.6404e+002  1.8259e+001 41636 90922,91026,90948
 3.2000e+000 91075  1.4297e+001 -2.0682e+002 -3.7213e+001 41636 90948,91026,91000
 3.2000e+000 91052 -2.3019e+001 -7.6534e+001  2.3938e+001 41636 90948,91000,90974
 3.2000e+000 91216 -4.7320e+001 -5.2334e+001 -9.1626e+000 41636 90922,90870,91190
 3.2000e+000 91239  3.8355e+001 -1.2492e+002  2.6713e+001 41636 90922,91190,91026
 3.2000e+000 91696 -2.0177e+001 -1.7183e+002 -2.5818e+001 40449 91448,91526,91474
 3.2000e+000 91673 -7.0093e+001 -2.0486e+002  2.0435e+000 40449 91448,91578,91526
 3.2000e+000 91650  1.8380e+001 -7.0414e+001 -1.1451e+001 40449 91474,91526,91500
 3.2000e+000 91627  2.6087e+000 -1.8287e+002  5.1016e+000 40449 91422,91578,91448
 3.2000e+000 91604  1.8455e+001 -1.4442e+002 -2.7391e+001 40449 91526,91578,91552
 3.2000e+000 92123 -2.0850e+001 -1.7505e+002 -6.2467e+000 39995 92146,91904,91826
 3.2000e+000 92100 -4.2262e+001 -1.8811e+002 -3.0814e+001 39995 92146,91826,91800
 3.2000e+000 92077 -7.1916e+001 -1.3673e+002 -1.4128e+001 39995 91826,91904,91852
 3.2000e+000 92054 -5.6239e+001 -3.3898e+002 -3.5466e+001 39995 91904,91982,91930
 3.2000e+000 92031 -1.8103e+001 -1.1244e+002 -8.9000e+000 39995 91852,91904,91878
 3.2000e+000 92008 -2.6431e+001 -2.5767e+002 -4.3929e+001 39995 91930,91982,91956
 3.2000e+000 92172 -5.0799e+000 -2.0437e+002 -2.9909e+001 39995 91982,91904,92146
 3.2000e+000 92195 -3.0014e+001 -2.4156e+002 -5.1515e+001 39995 91982,92146,91800
 3.2000e+000 92652  6.7227e+000 -2.2339e-001  1.8197e+001 39633 92404,92534,92456
 3.2000e+000 92629 -1.2000e+001 -2.2797e+001  1.0167e+001 39633 92378,92534,92404
 3.2000e+000 92606 -3.3937e+000 -6.3281e+000  4.8889e+000 39633 92404,92456,92430
 3.2000e+000 92583 -1.1975e+000 -7.1979e+001  6.6287e+000 39633 92456,92534,92508
 3.2000e+000 92560 -5.3666e+000 -2.1668e+001  1.5689e+000 39633 92456,92508,92482
 3.2000e+000 93079  4.2680e+001 -8.3681e+001 -2.0998e+001 39093 93102,92808,92756
 3.2000e+000 93056  5.9109e+000 -1.1017e+002 -7.8745e+000 39093 93102,92756,92938
 3.2000e+000 93033 -1.0151e+001 -8.6166e+001 -2.1077e+001 39093 93174,92912,92834
 3.2000e+000 93010 -1.5273e+001 -1.3086e+002 -4.2262e+001 39093 92834,92912,92860
 3.2000e+000 92987  3.4184e+001 -9.2665e+001 -1.5868e+001 39093 92756,92808,92782
 3.2000e+000 92964  1.6634e+000 -5.0244e+001 -1.3583e+000 39093 92860,92912,92886
 3.2000e+000 93128  6.3693e+000 -5.0591e+001 -3.0023e+001 39093 92834,92808,93102
 3.2000e+000 93151 -7.4774e+000 -7.9006e+001 -2.2882e+001 39093 93174,92834,93102
 3.2000e+000 93200 -7.9610e+000 -8.3314e+001 -2.6789e+001 39093 92938,92912,93174
 3.2000e+000 93223 -4.6152e+000 -7.9388e+001 -2.8884e+001 39093 92938,93174,93102
 3.2000e+000 93680  1.5350e+000 -1.9031e+001  4.6330e+000 38639 93703,93536,93484
 3.2000e+000 93657 -5.3698e+000 -1.3055e+001  5.9118e+000 38639 93703,93484,93432
 3.2000e+000 93634  2.5298e+000 -5.1573e+000 -5.9134e-002 38639 93432,93484,93458
 3.2000e+000 93611 -1.0600e+001 -5.8129e+001 -2.2125e+001 38639 93484,93536,93510
 3.2000e+000 93588  8.6831e+000  6.0563e+000  1.4815e+001 38639 93406,93562,93432
 3.2000e+000 93729 -3.5241e+000 -2.2960e+001  2.7688e+000 38639 93562,93536,93703
 3.2000e+000 93752 -1.1725e+001 -1.6761e+001  4.3969e+000 38639 93562,93703,93432
 3.2000e+000 94160  1.2260e+001 -4.3353e+000 -1.4695e+001 38292 93935,94039,93961
 3.2000e+000 94137 -2.2117e+000 -5.0882e+001  1.2980e+000 38292 93935,94065,94039
 3.2000e+000 94114 -3.2520e+001 -6.9885e+001 -2.2778e+001 38292 93961,94013,93987
 3.2000e+000 94091 -3.3400e-001 -5.8841e+001 -6.2796e+000 38292 93961,94039,94013
 3.2000e+000 94408  2.6619e+001 -1.1046e+002  6.6038e+000 37880 94431,94261,94235
 3.2000e+000 94385  4.8989e+001 -1.0535e+002  1.6693e+001 37880 94431,94235,94313
 3.2000e+000 94362  3.0171e+001 -1.1586e+002  3.7316e+001 37880 94209,94313,94235
 3.2000e+000 94339  4.8009e+001 -4.6585e+001 -8.4937e+000 37880 94183,94313,94209
 3.2000e+000 94457 -1.3624e+001 -9.9603e+001  7.1419e+000 37880 94287,94261,94431
 3.2000e+000 94480  2.3042e+001 -8.6225e+001  1.4960e+001 37880 94287,94431,94313
 3.2000e+000 94728 -7.6439e+001 -2.3398e+002  7.0214e+000 37426 94529,94607,94555
 3.2000e+000 94705 -8.7483e+000 -3.2983e+002 -2.9463e+001 37426 94529,94633,94607
 3.2000e+000 94682 -2.3027e+001 -3.3711e+002 -3.2650e+001 37426 94503,94633,94529
 3.2000e+000 94659 -3.5849e+001 -9.6554e+001 -5.8721e+001 37426 94555,94607,94581
 3.2000e+000 95257  3.6377e+000 -9.2193e+001 -3.9192e+000 36722 95496,95280,94862
 3.2000e+000 95234 -5.5648e+001 -1.2024e+002 -2.3879e+001 36722 95496,94862,94836
 3.2000e+000 95211 -2.1486e+000 -9.1049e+001 -1.6168e+001 36722 95352,95280,95070
 3.2000e+000 95188 -1.3255e+001 -1.0208e+002 -8.0767e+000 36722 95352,95070,95044
 3.2000e+000 95165 -5.5240e+001 -1.3745e+002  1.4517e+001 36722 95424,94888,94862
 3.2000e+000 95142 -5.1431e+001 -1.1650e+001  1.6502e+001 36722 94914,94966,94940
 3.2000e+000 95119 -4.1484e+001 -1.4558e+002  1.3382e+001 36722 94966,95044,95018
 3.2000e+000 95096 -2.0712e+001 -8.3190e+001  9.5654e+000 36722 94966,95018,94992
 3.2000e+000 95306 -1.4683e+001 -9.6496e+001 -3.5983e+000 36722 95424,94862,95280
 3.2000e+000 95329  1.2642e+001 -1.9972e+001 -3.5458e+001 36722 94914,95280,94966
 3.2000e+000 95378 -1.9614e+001 -9.2401e+001 -7.6489e+000 36722 94966,95280,95352
 3.2000e+000 95401 -2.5390e+001 -9.2026e+001 -2.8257e+000 36722 94966,95352,95044
 3.2000e+000 95450 -1.9553e+000 -9.3306e+001 -1.0872e+001 36722 94914,94888,95424
 3.2000e+000 95473 -4.9936e-002 -1.0175e+002 -1.7207e+001 36722 94914,95424,95280
 3.2000e+000 95522  1.0138e+001 -1.0728e+002 -6.4448e+000 36722 95070,95280,95496
 3.2000e+000 95545  1.2110e+001 -1.0767e+002 -6.9082e+000 36722 95070,95496,94836
 3.2000e+000 96130  1.0401e+001 -2.8185e+001  4.1038e+000 36268 96153,95911,95859
 3.2000e+000 96107  9.6412e+000 -4.7987e+001  3.7167e+000 36268 96153,95859,95807
 3.2000e+000 96084  3.5223e+001  2.1799e+001  1.0300e+001 36268 95807,95859,95833
 3.2000e+000 96061 -1.0931e+001 -1.1167e+002  1.5510e+001 36268 95911,95989,95937
 3.2000e+000 96038  4.2168e+001 -6.4471e+000  3.7787e+001 36268 95859,95911,95885
 3.2000e+000 96015 -1.5896e+001 -2.4515e+001 -3.8968e+001 36268 95937,95989,95963
 3.2000e+000 96179  1.8332e+001 -4.5143e+001  8.9450e+000 36268 95989,95911,96153
 3.2000e+000 96202  1.3655e+001 -7.0428e+001  7.9816e+000 36268 95989,96153,95807
 3.2000e+000 96531 -2.6181e+001 -1.8800e+002  3.7840e+001 35728 96358,96410,96384
 3.2000e+000 96508 -2.5499e+001 -1.7538e+002  3.1317e+001 35728 96332,96410,96358
 3.2000e+000 96485 -3.3902e+001 -1.6796e+002  4.9956e+001 35728 96332,96436,96410
 3.2000e+000 96462 -3.3194e+000 -1.0303e+002 -5.1220e+000 35728 96306,96436,96332
 3.2000e+000 96860 -7.2987e+000 -1.1290e+002  1.7426e+000 35324 96687,96765,96713
 3.2000e+000 96837 -9.0131e+000 -1.2128e+002 -7.5861e+000 35324 96661,96765,96687
 3.2000e+000 96814 -1.9292e+001 -8.2558e+001 -1.5664e+001 35324 96713,96765,96739
 3.2000e+000 96791 -1.3675e+001 -1.5518e+002 -1.7357e+001 35324 96635,96765,96661
 3.2000e+000 97366 -2.2815e+001 -1.8632e+002  2.8395e+001 34920 97389,97069,97043
 3.2000e+000 97343 -3.2381e+001 -1.6314e+002  8.0072e+000 34920 97389,97043,97199
 3.2000e+000 97320 -1.0200e+001 -1.5281e+002 -6.6912e+000 34920 97043,97225,97199
 3.2000e+000 97297 -2.4551e+001 -3.1259e+002  3.6802e+001 34920 97069,97121,97095
 3.2000e+000 97274 -1.5520e+001 -9.5240e+001 -4.7178e+000 34920 97121,97199,97173
 3.2000e+000 97251 -2.6615e+001 -8.0658e+001 -1.8576e+001 34920 97121,97173,97147
 3.2000e+000 97415 -1.6297e+001 -1.7820e+002  3.6804e+000 34920 97121,97069,97389
 3.2000e+000 97438 -1.1751e+000 -1.2696e+002 -1.9570e+001 34920 97121,97389,97199
 3.2000e+000 97708 -4.3274e+001 -9.1726e+001  7.1730e+000 34722 97509,97587,97535
 3.2000e+000 97685 -1.0709e+001 -9.4501e+001  1.2884e+000 34722 97509,97613,97587
 3.2000e+000 97662 -3.9963e+001 -1.1080e+002 -6.3417e+000 34722 97483,97613,97509
 3.2000e+000 97639 -2.1824e+001 -7.7381e+001  1.8161e+001 34722 97535,97587,97561
 3.2000e+000 98216 -3.3084e+001 -2.0595e+002  1.5674e+001 34318 97971,98075,97997
 3.2000e+000 98193  1.2974e+000 -1.5108e+002  3.5051e+001 34318 97893,98075,97971
 3.2000e+000 98170  5.0075e+001 -1.3619e+002  1.1238e+001 34318 97893,97971,97919
 3.2000e+000 98147 -2.6473e+001 -1.3908e+002  2.9712e+001 34318 97997,98075,98049
 3.2000e+000 98124  1.1982e+001 -1.4491e+002  1.3650e+001 34318 97919,97971,97945
 3.2000e+000 98101 -6.4706e+001 -2.1682e+002  5.8117e+001 34318 97997,98049,98023
 3.2000e+000 98594  1.2855e+001 -5.5321e+001  1.3825e+000 33814 98961,98617,98424
 3.2000e+000 98571  9.8537e+000 -6.0370e+001 -6.8226e+000 33814 98689,98617,98372
 3.2000e+000 98548  2.8236e+001 -4.0630e+000 -1.8353e+001 33814 99033,98689,98372
 3.2000e+000 98525 -1.3211e+000 -4.1416e+001  7.3125e+000 33814 98761,98476,98450
 3.2000e+000 98502  7.4692e+000 -4.7465e+001  2.5400e-001 33814 98961,98424,98398
 3.2000e+000 98643 -2.9205e+000 -6.2635e+001 -4.8395e-001 33814 98450,98424,98617
 3.2000e+000 98666  2.2257e+001 -2.8507e+001  1.2346e+001 33814 98761,98450,98617
 3.2000e+000 98715  1.0850e+001 -9.7368e+001 -5.2709e+000 33814 99161,98689,98320
 3.2000e+000 98738 -2.8762e+001 -8.6393e+001  1.2506e+000 33814 98320,98689,98346
 3.2000e+000 98787 -1.7476e-001 -7.9812e+001  4.1014e+001 33814 98833,98761,98320
 3.2000e+000 98810  1.6937e+001 -1.0760e+002  1.4723e+001 33814 99161,98320,98761
 3.2000e+000 98859  2.6258e+001  2.5776e+001  8.9241e+000 33814 98476,98761,98833
 3.2000e+000 98987  1.6489e+001 -4.5130e+001 -1.1322e+000 33814 98372,98617,98961
 3.2000e+000 99010  1.3975e+001 -3.3459e+001 -2.9051e+000 33814 98372,98961,98398
 3.2000e+000 99059  5.9496e+000 -7.0969e+001  4.2929e+000 33814 98346,98689,99033
 3.2000e+000 99187  2.2889e+001 -6.2845e+001 -9.9144e+000 33814 98617,98689,99161
 3.2000e+000 99210  2.3356e+001 -7.8738e+001  1.1733e+001 33814 98617,99161,98761
 3.2000e+000 99588 -4.2709e+001 -7.8444e+001 -4.7547e+001 33566 99366,99444,99392
 3.2000e+000 99565  3.5876e+001 -6.2319e+001 -2.7137e+001 33566 99314,99444,99366
 3.2000e+000 99542  8.8197e+000 -3.4618e+001  1.8778e+001 33566 99314,99366,99340
 3.2000e+000 99519 -2.5526e+000 -8.2651e+001 -1.8912e+001 33566 99314,99470,99444
 3.2000e+000 99496 -4.3588e+001  8.9843e+000 -1.5222e+001 33566 99392,99444,99418
 3.2000e+000 99787  1.6643e+001 -1.1839e+002  3.9571e+001 33105 99637,99689,99663
 3.2000e+000 99764  2.3697e+000 -1.0208e+002  1.5671e+000 33105 99611,99689,99637
 3.2000e+000 99741  1.5063e+001 -3.0132e+001  6.3365e+000 33105 99611,99715,99689
 3.2000e+000 100167 -4.0776e+001 -1.6131e+002  6.7741e+001 32651 100190,99971,99919
 3.2000e+000 100144 -1.3405e+001 -1.1622e+002  5.3694e+001 32651 100262,100190,99919
 3.2000e+000 100121 -1.8383e+001 -1.1318e+002  4.7903e+001 32651 100262,99919,100049
 3.2000e+000 100098 -9.2606e-001 -1.0390e+002 -1.2209e+001 32651 99893,100049,99919
 3.2000e+000 100075 -4.7130e+001 -1.2307e+002  5.7436e+001 32651 99919,99971,99945
 3.2000e+000 100216 -1.0699e+001 -1.7770e+002  3.3414e+001 32651 99997,99971,100190
 3.2000e+000 100239  5.0314e+000 -1.4323e+002  2.9433e+001 32651 99997,100190,100023
 3.2000e+000 100288 -1.2363e+001 -1.3654e+002  5.0873e+001 32651 100023,100190,100262
 3.2000e+000 100311 -4.0997e+000 -1.2454e+002  3.6638e+001 32651 100023,100262,100049
 3.2000e+000 100608 -5.3533e+001 -1.7379e+002 -3.6600e+000 32254 100386,100490,100464
 3.2000e+000 100585 -5.1910e+001 -1.3966e+002 -1.2298e+001 32254 100360,100490,100386
 3.2000e+000 100562 -5.2794e+001 -1.9722e+002 -1.7699e+001 32254 100386,100464,100412
 3.2000e+000 100539 -1.0967e+001 -1.2332e+002 -1.2696e+001 32254 100334,100490,100360
 3.2000e+000 100516 -1.6879e+001 -1.1020e+002 -8.2278e+000 32254 100412,100464,100438
 3.2000e+000 100758 -1.4132e+001  3.1263e+001 -6.0985e-001 31914 100985,100781,100683
 3.2000e+000 100735 -1.5312e+001  4.2364e+001  1.4186e+001 31914 100853,100781,100657
 3.2000e+000 100807 -8.5907e+000  3.0178e+001 -5.6305e+000 31914 100709,100683,100781
 3.2000e+000 100830 -1.5472e+000  3.7957e+001  1.3833e+001 31914 100709,100781,100631
 3.2000e+000 100879 -2.0821e+001 -1.7277e+001  1.7739e+001 31914 100631,100781,100853
 3.2000e+000 101011  1.5066e+001  5.4999e+001  1.5140e+001 31914 100657,100781,100985
 3.2000e+000 101191 -2.9940e-002 -4.3576e+001 -2.1095e-003 31418 101113,101165,101139
 3.2000e+000 101341 -1.0831e+002 -2.4247e+002 -1.6185e+001 31106 101214,101266,101240
 3.2000e+000 101318 -5.6552e+001 -9.4513e+001  2.1939e+000 31106 101214,101292,101266
 3.2000e+000 101591 -2.7510e+001 -1.8722e+002  9.5204e+001 30552 101614,101470,101444
 3.2000e+000 101568 -6.4844e+001 -6.9184e+001  5.4092e+001 30552 101366,101496,101470
 3.2000e+000 101545 -1.6509e+001 -2.2586e+002  7.4408e+001 30552 101614,101444,101392
 3.2000e+000 101522 -1.4561e+001 -8.0071e+001 -3.5862e+001 30552 101392,101444,101418
 3.2000e+000 101640 -8.8023e+000 -1.5775e+002  1.1623e+002 30552 101366,101470,101614
 3.2000e+000 101663 -1.6056e-001 -1.9617e+002  9.4516e+001 30552 101366,101614,101392
 3.2000e+000 102301  1.4868e+001 -1.7479e+002  7.7371e+000 30042 102396,102324,102059
 3.2000e+000 102278 -4.4812e+001 -1.3287e+002 -1.7418e+001 30042 102324,101981,101955
 3.2000e+000 102255 -3.0942e-001 -1.4922e+002  4.1463e+001 30042 102396,102059,102033
 3.2000e+000 102232  3.2481e+000 -7.5360e+001 -2.0200e+001 30042 101929,102111,101955
 3.2000e+000 102209 -1.7231e+001 -1.2695e+002 -1.7302e+001 30042 102059,102111,102085
 3.2000e+000 102186 -1.6067e+001 -8.8477e+001 -7.8680e+000 30042 101929,102137,102111
 3.2000e+000 102163  8.6357e+000 -3.1574e+001 -3.2569e+001 30042 101981,102033,102007
 3.2000e+000 102350  2.5281e+000 -1.6513e+002 -2.6998e+001 30042 102111,102059,102324
 3.2000e+000 102373  2.0589e+001 -9.8578e+001 -3.1999e+001 30042 102111,102324,101955
 3.2000e+000 102422  2.7650e+001 -9.2760e+001  6.8047e+000 30042 101981,102324,102396
 3.2000e+000 102445  1.4109e+001 -6.6558e+001  4.1637e+001 30042 101981,102396,102033
 3.2000e+000 103000  3.5361e+001 -1.8167e+002  4.1449e-001 29730 103023,102706,102654
 3.2000e+000 102977 -1.9987e+001 -1.8095e+002 -1.7627e+001 29730 103023,102654,102810
 3.2000e+000 102954 -1.4021e+002 -3.7640e+002  3.7184e+000 29730 102732,102810,102784
 3.2000e+000 102931 -4.0472e+001 -2.4535e+002 -3.8276e+001 29730 102628,102810,102654
 3.2000e+000 102908  2.7161e+001 -1.1386e+002  2.2245e+001 29730 102654,102706,102680
 3.2000e+000 102885 -6.5755e+001 -9.0615e+001 -9.4080e+001 29730 102732,102784,102758
 3.2000e+000 102862  6.5066e+000 -2.2251e+002 -4.8369e+001 29730 102628,102836,102810
 3.2000e+000 103049  7.9036e-001 -2.0821e+002 -2.4399e+001 29730 102732,102706,103023
 3.2000e+000 103072 -3.3006e+001 -1.8328e+002 -3.8314e+001 29730 102732,103023,102810
 3.2000e+000 103222  6.1662e+001 -1.5629e+002 -1.3410e+001 29226 103095,103147,103121
 3.2000e+000 103199  3.3762e+001 -1.4606e+002 -1.6417e+001 29226 103095,103173,103147
 3.2000e+000 103730 -7.8181e+000 -1.3423e+002  2.3481e+000 28822 103537,103589,103563
 3.2000e+000 103707 -9.6540e+000 -1.5888e+002  3.5660e-001 28822 103433,103589,103537
 3.2000e+000 103684 -1.1352e+001 -1.4062e+002 -3.1081e+001 28822 103433,103537,103459
 3.2000e+000 103661 -3.9698e+000 -1.2118e+002  4.8557e+000 28822 103407,103589,103433
 3.2000e+000 103638 -2.8701e+001 -6.8927e+001  3.0206e+001 28822 103459,103511,103485
 3.2000e+000 103615 -4.2717e+001 -4.8711e+001  2.1122e+001 28822 103459,103537,103511
 3.2000e+000 103880  8.0000e+001 -1.3706e+002  4.1908e+001 28368 103975,103903,103779
 3.2000e+000 103857  3.9476e+001 -1.7540e+002  2.5101e+001 28368 103903,103753,103831
 3.2000e+000 103929  3.7703e+001 -1.1085e+002  1.6050e+001 28368 103805,103779,103903
 3.2000e+000 103952 -2.2339e+001 -1.5556e+002 -6.1133e+000 28368 104105,103903,103831
 3.2000e+000 104001  1.0700e+002 -1.4806e+002  2.5585e+000 28368 103753,103903,103975
 3.2000e+000 104131 -2.9299e+001 -1.3707e+002  3.2459e+001 28368 103805,103903,104105
 3.2000e+000 104539 -2.5570e+000 -3.5681e+001  1.2045e+001 28028 104562,104340,104314
 3.2000e+000 104516  1.3911e+001  1.6015e+001  9.5772e+000 28028 104634,104562,104314
 3.2000e+000 104493 -2.0776e+001 -3.9020e+001 -2.8256e+001 28028 104762,104366,104340
 3.2000e+000 104470 -7.1976e-001 -1.3520e+001 -1.3116e+001 28028 104366,104418,104392
 3.2000e+000 104588 -8.5243e-001 -5.0187e+001 -1.2026e+001 28028 104762,104340,104562
 3.2000e+000 104611  3.3960e+000 -3.3028e+001  4.7171e+000 28028 104418,104562,104444
 3.2000e+000 104660  1.2152e+001 -2.9205e+001  5.3371e+000 28028 104444,104562,104634
 3.2000e+000 104788 -3.8433e+000 -2.0686e+001 -2.1218e+001 28028 104418,104366,104762
 3.2000e+000 104811  1.9883e+001 -2.4770e+001 -3.0717e+000 28028 104418,104762,104562
 3.2000e+000 105010 -4.4491e+000 -3.4687e+001  9.0954e-001 27324 105033,104886,104860
 3.2000e+000 104987  9.3355e+000 -2.5231e+001  1.1449e+001 27324 105033,104860,104834
 3.2000e+000 104964  1.2767e+001  1.9241e+001  1.5471e+000 27324 105105,104912,104886
 3.2000e+000 105059  1.0283e+001  4.4745e+000 -1.3908e+000 27324 105105,104886,105033
 3.2000e+000 105082  7.6569e+000 -5.8315e+001  2.6497e+000 27324 104938,105033,104834
 3.2000e+000 105131  4.6035e+001  4.9648e+000  2.8362e+001 27324 104938,104912,105105
 3.2000e+000 105154  2.7219e+001 -3.4115e+001  1.9146e+001 27324 104938,105105,105033
 3.2000e+000 105402 -5.1501e+001 -1.3062e+002 -5.8400e+000 27012 105229,105281,105255
 3.2000e+000 105379 -2.0622e+001 -7.0997e+001 -2.7618e+001 27012 105229,105307,105281
 3.2000e+000 105356  2.7059e+001 -5.1612e+001 -1.8917e+001 27012 105177,105307,105229
 3.2000e+000 105333 -5.1065e+001 -1.1497e+002 -8.3165e+001 27012 105177,105229,105203
 3.2000e+000 105603  3.1528e+001  9.1490e+000  2.0379e+001 26508 105626,105453,105427
 3.2000e+000 105580  3.7057e+001  2.1929e+001  2.6439e+001 26508 105626,105427,105505
 3.2000e+000 105557  1.0029e+001  2.6110e+001  2.0198e+001 26508 105427,105531,105505
 3.2000e+000 105652  2.9236e+001  8.3272e+000  1.4200e+001 26508 105479,105453,105626
 3.2000e+000 105675  3.0532e+001  1.3752e+001  1.9822e+001 26508 105479,105626,105505
 3.2000e+000 106057 -2.3653e+001 -1.1586e+002  6.7156e+001 25947 106080,105887,105861
 3.2000e+000 106034 -1.0859e+001 -9.3565e+001  5.5153e+001 25947 106080,105861,105783
 3.2000e+000 106011 -1.0974e+001 -7.5855e+001  5.1691e+001 25947 105783,105835,105809
 3.2000e+000 105988 -2.6874e+001 -8.5116e+001  5.7861e+001 25947 105783,105861,105835
 3.2000e+000 105965  1.8936e+001 -7.8973e+001  3.5043e+001 25947 105887,105939,105913
 3.2000e+000 106106 -2.1473e+001 -1.0740e+002  4.7470e+001 25947 105939,105887,106080
 3.2000e+000 106129  4.9879e+000 -6.7555e+001  3.2752e+001 25947 105939,106080,105783
 3.2000e+000 106714 -3.9154e+001 -7.4906e+001  2.0775e+001 25557 106809,106737,106547
 3.2000e+000 106691 -5.0943e+001 -1.2757e+002  4.9417e+001 25557 106737,106417,106391
 3.2000e+000 106668 -1.7950e+001 -6.3427e+001  1.5825e+001 25557 106809,106547,106495
 3.2000e+000 106645 -5.0611e+001 -2.0804e+002  7.7074e+001 25557 106417,106495,106469
 3.2000e+000 106622 -2.6986e+001 -6.0304e+001  2.4605e+001 25557 106495,106547,106521
 3.2000e+000 106599 -6.8101e+001 -1.5281e+002  7.4920e+001 25557 106417,106469,106443
 3.2000e+000 106763 -5.7421e+001 -9.6559e+001  3.0306e+001 25557 106573,106547,106737
 3.2000e+000 106786 -2.9863e+001 -8.5287e+001  3.5497e+001 25557 106573,106737,106391
 3.2000e+000 106835 -1.2290e+001 -9.4914e+001  3.0059e+001 25557 106417,106737,106809
 3.2000e+000 106858  2.4234e+000 -8.5678e+001  2.3969e+001 25557 106417,106809,106495
 3.2000e+000 107364 -2.2278e+000 -6.5446e+001 -1.3668e+001 25153 107459,107387,107171
 3.2000e+000 107341  9.3992e+000 -5.0401e+001 -7.9927e+000 25153 107387,107119,107067
 3.2000e+000 107318 -9.7103e-001 -3.7801e+001  1.3729e+001 25153 107459,107171,107145
 3.2000e+000 107295 -5.8802e+000 -6.5078e+001 -3.2368e+001 25153 107531,107223,107197
 3.2000e+000 107272  1.3232e+001 -2.9786e+001  4.2916e+000 25153 107067,107119,107093
 3.2000e+000 107249  1.5575e+001 -3.8270e+001 -1.3271e+001 25153 107041,107223,107067
 3.2000e+000 107413 -2.1024e+001 -6.8489e+001 -1.7716e+001 25153 107197,107171,107387
 3.2000e+000 107436  1.4238e+000 -6.9659e+001 -2.0520e+001 25153 107531,107197,107387
 3.2000e+000 107485  1.6522e+001 -1.6635e+001 -1.1235e-001 25153 107119,107387,107459
 3.2000e+000 107508  2.5545e+001  8.2700e+000  3.0984e+001 25153 107119,107459,107145
 3.2000e+000 107557 -7.1600e+000 -5.2761e+001 -2.2005e+001 25153 107067,107223,107531
 3.2000e+000 107580  5.7410e+000 -4.6605e+001 -9.6950e+000 25153 107067,107531,107387
 3.2000e+000 107958 -8.6445e+000 -1.2953e+002 -1.9965e+001 24741 107736,107814,107788
 3.2000e+000 107935 -3.4251e+001 -1.6612e+002 -4.9493e+001 24741 107736,107840,107814
 3.2000e+000 107912 -5.4618e+001 -1.5706e+002 -6.1607e+001 24741 107684,107840,107736
 3.2000e+000 107889 -3.0032e+001 -1.0077e+002 -2.9119e+001 24741 107736,107788,107762
 3.2000e+000 107866 -6.7847e+001 -2.1420e+002 -7.8309e+001 24741 107684,107736,107710
 3.2000e+000 108157 -1.7645e+001 -3.6008e+001  7.5526e+000 24237 108180,108059,108007
 3.2000e+000 108134  1.6338e+001 -1.2625e+001  1.9106e+001 24237 108180,108007,107981
 3.2000e+000 108111  2.3270e+001 -8.2726e+001  1.1135e+001 24237 108007,108059,108033
 3.2000e+000 108206 -5.6663e+000 -2.1296e+001  3.7451e+001 24237 108085,108059,108180
 3.2000e+000 108229  2.6909e+001  1.4046e+000  4.8796e+001 24237 108085,108180,107981
 3.2000e+000 108658 -3.3016e+001 -1.3493e+002  1.7060e+001 23776 108361,108413,108387
 3.2000e+000 108635 -3.9946e+001 -2.0025e+002 -2.4723e+001 23776 108753,108681,108361
 3.2000e+000 108612 -1.0416e+001 -1.2367e+002 -2.5187e+001 23776 108681,108465,108439
 3.2000e+000 108589 -5.0916e+000 -2.1697e+002  3.6071e-001 23776 108753,108361,108335
 3.2000e+000 108566 -3.2377e+001 -1.9551e+002  7.5597e+001 23776 108335,108517,108465
 3.2000e+000 108543 -3.6042e+001 -1.9322e+002  7.3132e+001 23776 108465,108517,108491
 3.2000e+000 108707 -5.9101e+001 -1.3324e+002 -1.7820e+001 23776 108413,108361,108681
 3.2000e+000 108730 -3.1417e+001 -1.0193e+002 -2.1482e+000 23776 108413,108681,108439
 3.2000e+000 108779 -6.8496e+000 -1.2317e+002 -1.4268e+001 23776 108465,108681,108753
 3.2000e+000 108802  2.2555e-001 -1.8544e+002  8.0392e-001 23776 108465,108753,108335
 3.2000e+000 109023  9.7297e+000 -1.8549e+001 -2.5479e+001 23414 108873,108925,108899
 3.2000e+000 109000  4.5482e+001  3.2791e-001 -1.8516e+001 23414 108847,108925,108873
 3.2000e+000 108977  7.3261e+001  9.3371e+001  9.6758e+000 23414 108847,108951,108925
 3.2000e+000 109474  3.2933e+001 -7.9175e+001  1.3238e+001 23024 109151,109307,109177
 3.2000e+000 109451  4.4555e+001  8.1445e+001 -4.8671e+000 23024 109151,109333,109307
 3.2000e+000 109428  2.4632e+001 -1.9723e+002 -5.9307e+000 23024 109177,109281,109203
 3.2000e+000 109405 -3.4027e+001 -1.6412e+002 -3.0166e+001 23024 109177,109307,109281
 3.2000e+000 109382  2.7644e+001 -1.5082e+002  2.2778e+001 23024 109203,109281,109229
 3.2000e+000 109359 -1.4739e+001 -1.4009e+002 -4.2944e+000 23024 109229,109281,109255
 3.2000e+000 109820  7.4750e+000 -1.1669e+002  2.0811e+001 22506 109843,109601,109523
 3.2000e+000 109797  1.2401e+001 -9.9567e+001  1.3820e+001 22506 109843,109523,109497
 3.2000e+000 109774  1.2402e+001 -1.3567e+002  1.0867e+001 22506 109915,109653,109627
 3.2000e+000 109751 -1.0106e+001 -8.9245e+001  1.1111e+001 22506 109497,109679,109653
 3.2000e+000 109728 -6.4705e+000 -1.5352e+002 -3.5616e+001 22506 109523,109601,109575
 3.2000e+000 109705 -6.6189e+001 -2.1271e+002 -6.1999e+001 22506 109523,109575,109549
 3.2000e+000 109869  2.1915e+001 -1.0391e+002  2.6325e+001 22506 109627,109601,109843
 3.2000e+000 109892  2.5102e+001 -1.1556e+002  2.2506e+001 22506 109915,109627,109843
 3.2000e+000 109941 -4.0636e+000 -1.2142e+002 -1.1213e+000 22506 109497,109653,109915
 3.2000e+000 109964 -2.5129e+000 -1.2101e+002  7.3229e+000 22506 109497,109915,109843
 3.2000e+000 110163 -2.1230e+000 -9.0547e+001  6.0229e+000 21936 110186,110039,110013
 3.2000e+000 110140  1.6605e+001 -7.0379e+001  1.6089e+001 21936 110390,110186,110013
 3.2000e+000 110117  3.8585e+001 -8.8125e+001  3.6650e+001 21936 110390,110013,109987
 3.2000e+000 110212  1.6013e+001 -6.0195e+001 -2.4930e+001 21936 110065,110039,110186
 3.2000e+000 110235 -1.4416e+001 -5.7014e+001 -4.4383e+000 21936 110258,110186,110091
 3.2000e+000 110284 -6.2577e+001 -9.0153e+001 -1.9414e+001 21936 110065,110186,110258
 3.2000e+000 110416 -3.1532e+001 -7.9457e+001  2.0644e+001 21936 110091,110186,110390
 3.2000e+000 110439  5.9940e-001 -9.0655e+001  3.9116e+001 21936 110091,110390,109987
 3.2000e+000 110709  4.0608e+001 -1.1498e+002  2.7318e+000 21338 110510,110614,110588
 3.2000e+000 110686  1.7431e+001 -1.6287e+002 -1.0107e+001 21338 110484,110614,110510
 3.2000e+000 110663  6.7279e+001 -6.8790e-002  2.6607e+000 21338 110510,110562,110536
 3.2000e+000 110640  1.8763e+001 -1.1590e+002 -5.6357e+000 21338 110510,110588,110562
 3.2000e+000 111296  2.4022e+001 -7.8374e+001 -1.6041e-001 20934 111025,111155,111103
 3.2000e+000 111273 -1.2995e+001 -2.4966e+002 -3.0838e-001 20934 110999,111155,111025
 3.2000e+000 111250 -9.8387e-001 -8.6936e+001 -8.0981e+000 20934 111103,111155,111129
 3.2000e+000 111227 -2.6348e+001 -1.9571e+002 -3.1488e+001 20934 111051,111103,111077
 3.2000e+000 111204 -3.1701e+001 -1.8944e+002 -2.5002e+001 20934 111025,111103,111051
 3.2000e+000 111181 -3.3973e+001 -3.0220e+002 -9.1755e+000 20934 110973,111155,110999
 3.2000e+000 111930 -6.1508e+001 -1.0964e+002 -4.3535e+001 20494 111662,111714,111688
 3.2000e+000 111907 -2.9744e+001 -8.5131e+001 -3.2917e+001 20494 111584,111714,111662
 3.2000e+000 111884 -2.1025e+001 -7.9248e+001 -3.5471e+001 20494 111584,111766,111714
 3.2000e+000 111861  2.6174e+001 -1.6776e+002  9.6244e+000 20494 111584,111636,111610
 3.2000e+000 111838 -3.4572e+001 -1.0540e+002 -3.2952e+001 20494 111584,111662,111636
 3.2000e+000 111815 -9.3529e+000 -4.8284e+001  3.1000e+000 20494 111558,111766,111584
 3.2000e+000 111792 -2.9819e+001 -7.2266e+001  8.6331e+000 20494 111714,111766,111740
 3.2000e+000 112249 -1.2132e+001 -3.1812e+002  1.8258e+001 19940 111975,112053,112001
 3.2000e+000 112226  6.8842e+001 -1.5034e+002 -6.2289e+000 19940 111975,112131,112053
 3.2000e+000 112203  6.9787e-001 -2.9571e+002  0.0000e+000 19940 112053,112105,112079
 3.2000e+000 112180  1.2630e+001 -2.9902e+002 -2.1516e+000 19940 112053,112131,112105
 3.2000e+000 112157  3.7683e+001 -2.7575e+002 -8.4754e+000 19940 112001,112053,112027
 3.2000e+000 112757  3.7136e+001 -1.1502e+002 -3.7853e+001 19486 112780,112538,112486
 3.2000e+000 112734  3.1251e+001 -1.2487e+002 -1.6396e+001 19486 112780,112486,112460
 3.2000e+000 112711 -1.0645e+000 -1.0234e+002 -1.6122e+001 19486 112852,112616,112590
 3.2000e+000 112688  1.2844e+002 -1.6720e+002 -4.9247e+001 19486 112486,112538,112512
 3.2000e+000 112665 -2.7593e+001 -1.4709e+002  1.0160e+001 19486 112434,112616,112460
 3.2000e+000 112642  1.4578e+000 -9.4405e+001 -2.5281e+001 19486 112538,112590,112564
 3.2000e+000 112806  2.0824e+001 -1.2394e+002 -3.2453e+001 19486 112590,112538,112780
 3.2000e+000 112829  3.5783e+001 -1.1154e+002 -2.3824e+001 19486 112852,112590,112780
 3.2000e+000 112878 -2.5143e+001 -1.1274e+002 -6.2070e+000 19486 112460,112616,112852
 3.2000e+000 112901 -3.4351e+000 -1.3606e+002 -1.0050e+001 19486 112460,112852,112780
 3.2000e+000 113252 -1.0216e+002 -2.0402e+002 -1.0630e+001 19096 113105,113157,113131
 3.2000e+000 113229 -7.9223e+001 -1.4142e+002 -2.5297e+000 19096 113053,113157,113105
 3.2000e+000 113206 -5.9253e+001 -1.3138e+002  8.7263e-001 19096 113027,113157,113053
 3.2000e+000 113183 -1.1924e+002 -2.2848e+002  9.4558e+000 19096 113053,113105,113079
 3.2000e+000 113451 -1.3874e+001 -1.3961e+002 -3.1748e+001 18642 113327,113379,113353
 3.2000e+000 113428 -4.0354e+001 -2.1581e+002 -2.0899e+001 18642 113301,113379,113327
 3.2000e+000 113405  8.4018e+000 -1.8030e+002 -5.3596e+000 18642 113275,113379,113301
 3.2000e+000 113699  1.8444e+001 -1.8026e+002 -6.6468e+000 18138 113474,113552,113526
 3.2000e+000 113676  5.3975e+001 -1.9344e+002 -2.4932e+001 18138 113474,113578,113552
 3.2000e+000 113653  4.8750e+001 -1.8913e+002 -2.3222e+001 18138 113474,113604,113578
 3.2000e+000 113630  6.4403e+001 -1.4488e+002  1.7064e+001 18138 113474,113526,113500
 3.2000e+000 113851 -1.2692e+001 -2.1245e+002 -4.6758e+000 17682 113750,113802,113776
 3.2000e+000 113828  2.3751e+001 -1.9206e+002  4.1567e+000 17682 113724,113802,113750
 3.2000e+000 114383  2.8259e+001 -1.8207e+002 -1.7834e+001 17106 114086,114242,114164
 3.2000e+000 114360 -1.0826e+001 -1.9861e+002 -1.5765e+001 17106 114060,114242,114086
 3.2000e+000 114337 -5.4623e+001 -3.4012e+002  2.6361e+001 17106 114086,114164,114138
 3.2000e+000 114314 -9.2846e+001 -5.3035e+002 -1.3365e+001 17106 114190,114242,114216
 3.2000e+000 114291 -4.6622e+001 -3.7502e+002 -3.8888e+001 17106 114164,114242,114190
 3.2000e+000 114268 -1.4512e+000 -3.0036e+002  6.2014e+001 17106 114086,114138,114112
 3.2000e+000 114680 -6.2384e+001 -2.0079e+002  2.5366e+000 16766 114703,114432,114406
 3.2000e+000 114657 -6.8740e+001 -1.9978e+002 -2.5402e+000 16766 114703,114406,114510
 3.2000e+000 114634 -6.6422e+001 -1.4762e+002  1.0958e+001 16766 114406,114536,114510
 3.2000e+000 114611 -3.8827e+001 -2.1290e+002 -1.2481e+001 16766 114432,114484,114458
 3.2000e+000 114588 -8.0338e+001 -1.7238e+002  5.8419e+001 16766 114406,114562,114536
 3.2000e+000 114729 -3.8091e+001 -1.9823e+002  6.7156e+000 16766 114484,114432,114703
 3.2000e+000 114752 -5.8498e+001 -2.0740e+002  9.7608e-001 16766 114484,114703,114510
 3.2000e+000 114902  3.1182e+001 -3.0813e+002 -4.3764e+001 16362 114775,114827,114801
 3.2000e+000 114879  4.4058e+001 -2.8903e+002 -5.0718e+001 16362 114775,114853,114827
 3.2000e+000 115054 -3.3941e+002 -5.4928e+002 -2.0526e+001 15908 114953,115005,114979
 3.2000e+000 115031 -3.1674e+002 -5.6083e+002 -1.3170e+001 15908 114927,115005,114953
 3.2000e+000 115326  2.4914e+001 -1.4091e+002  6.4980e+001 15251 115101,115179,115153
 3.2000e+000 115303  1.6678e+001 -1.2827e+002  3.1567e+000 15251 115101,115231,115179
 3.2000e+000 115280  1.9822e+001 -1.2185e+002  2.1688e+000 15251 115179,115231,115205
 3.2000e+000 115257 -1.2688e+002 -6.4630e+002  5.1965e+001 15251 115101,115153,115127
 3.2000e+000 115429 -3.7282e+001 -2.2218e+002  3.8967e+001 421 115351,115403,115377
 3.3000e+000 66230 -4.4732e+001  4.5152e+001  1.5088e+001 65954 66152,66204,66178
 3.3000e+000 66429  5.7282e+000  1.6391e+001  6.5426e+000 65642 66279,66331,66305
 3.3000e+000 66406 -4.0164e+000 -1.2618e+001  5.0847e+000 65642 66279,66357,66331
 3.3000e+000 66383  1.1405e+001  4.4352e+001 -1.2994e+001 65642 66253,66357,66279
 3.3000e+000 66628 -6.4033e+000 -5.4504e+001  1.3150e+001 65444 66452,66530,66478
 3.3000e+000 66605  1.5545e+001 -9.1111e+001  4.4748e-002 65444 66452,66556,66530
 3.3000e+000 66582 -7.0376e+000 -8.0892e+001  1.7063e+001 65444 66478,66530,66504
 3.3000e+000 67006 -1.7885e+000 -5.3657e+001  2.5248e+000 65246 66732,66810,66758
 3.3000e+000 66983 -1.6584e+000 -2.8347e+001  8.6488e+000 65246 66732,66836,66810
 3.3000e+000 66960 -1.8189e+000 -2.2941e+001  4.8005e+000 65246 66732,66862,66836
 3.3000e+000 66937 -2.8741e-001 -4.6015e+001  3.0011e+000 65246 66758,66810,66784
 3.3000e+000 66914  1.1484e+001 -1.1224e+002 -3.6138e+001 65246 66732,66888,66862
 3.3000e+000 67107  4.1325e+001 -4.3515e+001 -1.5803e+001 64934 67029,67081,67055
 3.3000e+000 67306 -8.9976e+000 -1.7311e+001  1.1149e+001 64736 67156,67208,67182
 3.3000e+000 67283 -4.7032e+000 -1.4000e+001  9.6698e+000 64736 67130,67208,67156
 3.3000e+000 67260  9.6956e+000 -6.7319e+001  1.9870e+001 64736 67130,67234,67208
 3.3000e+000 67507 -3.1676e+000 -5.8950e+001 -9.0160e+000 64389 67357,67409,67383
 3.3000e+000 67484 -9.2118e+000 -5.5984e+001 -1.1591e+001 64389 67357,67435,67409
 3.3000e+000 67461  1.0751e+001 -8.5648e+001 -4.7005e+000 64389 67331,67435,67357
 3.3000e+000 67708  4.3485e+001 -6.9999e+001  1.5584e+001 63985 67731,67584,67558
 3.3000e+000 67685  2.2935e+001 -1.0226e+001  5.2102e+000 63985 67731,67558,67636
 3.3000e+000 67662  7.0366e+000 -1.2935e+001  8.6443e+000 63985 67532,67636,67558
 3.3000e+000 67757  3.4635e+001 -1.0071e+002  1.1963e+001 63985 67610,67584,67731
 3.3000e+000 67780  2.8486e+000 -5.7987e+001 -1.2881e+000 63985 67610,67731,67636
 3.3000e+000 67981 -2.7764e-001  8.6327e+000  2.3378e+000 63787 67857,67909,67883
 3.3000e+000 67958  1.8297e+000  1.8845e+001 -2.2582e+000 63787 67831,67909,67857
 3.3000e+000 67935 -1.1127e+001 -7.7691e+000 -6.6569e+000 63787 67805,67909,67831
 3.3000e+000 68231 -1.5050e+000 -1.0216e+002  8.1081e+000 63589 68254,68084,68032
 3.3000e+000 68208 -5.2388e+000 -4.2191e+001  6.6663e+000 63589 68254,68032,68006
 3.3000e+000 68185  7.7269e+000 -2.1418e+001  1.3991e+001 63589 68326,68136,68110
 3.3000e+000 68162 -1.4208e+000 -9.5241e+001 -1.1728e+001 63589 68032,68084,68058
 3.3000e+000 68280  1.2514e+000 -4.8800e+001  1.0506e+001 63589 68110,68084,68254
 3.3000e+000 68303 -1.9806e+000 -2.5442e+001  2.1201e+001 63589 68326,68110,68254
 3.3000e+000 68352  2.1244e+001 -3.5077e+000 -1.1508e+001 63589 68006,68136,68326
 3.3000e+000 68375  3.6410e+000 -1.4236e+001 -3.3074e+000 63589 68006,68326,68254
 3.3000e+000 68836  3.1494e-001  1.0912e+001  6.3477e+000 63128 68859,68588,68562
 3.3000e+000 68813 -3.3892e+000 -4.3045e+000  2.1789e+001 63128 68859,68562,68692
 3.3000e+000 68790  2.1166e+001 -3.1722e+001  6.8452e+000 63128 68614,68692,68666
 3.3000e+000 68767 -1.2646e+001 -1.6433e+001  1.7332e+001 63128 68562,68718,68692
 3.3000e+000 68744  2.3749e+001 -3.2970e+001 -4.0264e+001 63128 68614,68666,68640
 3.3000e+000 68885  9.9940e+000  3.3446e+001 -2.4250e+000 63128 68614,68588,68859
 3.3000e+000 68908  4.9386e+000  1.3350e+001  1.2671e+001 63128 68614,68859,68692
 3.3000e+000 69237  7.5015e+000 -3.7001e+001  1.0774e+001 62731 69064,69116,69090
 3.3000e+000 69214 -4.6862e+000 -7.5530e+001  1.3768e+000 62731 69064,69142,69116
 3.3000e+000 69191 -1.0921e+001 -7.0008e+001  7.3182e+000 62731 69038,69142,69064
 3.3000e+000 69168 -2.0034e-001 -1.1920e+002  6.9365e+000 62731 69012,69142,69038
 3.3000e+000 69539  6.2435e-002  2.6728e+001 -4.4356e+000 62433 69389,69467,69441
 3.3000e+000 69516  9.5639e+000 -8.9982e+000  1.1900e+000 62433 69363,69467,69389
 3.3000e+000 69493  4.5270e+000 -6.7417e+000  2.0889e+001 62433 69389,69441,69415
 3.3000e+000 69966  4.1644e+000 -3.6780e+001  2.1404e+001 62235 69989,69773,69721
 3.3000e+000 69943  1.4338e+001 -7.2295e+001 -1.5219e+001 62235 70061,69989,69721
 3.3000e+000 69920  2.7493e+001 -7.4193e+001 -7.4051e+000 62235 70061,69721,69643
 3.3000e+000 69897  8.8520e+000  9.7486e+000  9.5051e+000 62235 69721,69773,69747
 3.3000e+000 69874 -3.1628e+001 -2.1492e+002 -7.5376e-001 62235 69643,69721,69695
 3.3000e+000 69851  8.3399e+001  2.1723e+002 -3.3094e+001 62235 69643,69695,69669
 3.3000e+000 70015 -4.7442e+000 -7.4860e+001  8.8187e+000 62235 69799,69773,69989
 3.3000e+000 70038 -3.8548e+001 -1.0265e+002 -4.0521e+001 62235 69799,69989,69825
 3.3000e+000 70087 -1.0688e+001 -6.7519e+001 -1.1203e+001 62235 69825,69989,70061
 3.3000e+000 70110  8.9885e+000 -6.5958e+001 -7.1759e+000 62235 69825,70061,69643
 3.3000e+000 70260  1.4042e+001 -1.3894e+001  4.4239e-001 62037 70133,70185,70159
 3.3000e+000 70237 -8.2668e-001 -2.1935e+001 -8.3021e+000 62037 70133,70211,70185
 3.3000e+000 70640 -7.4060e+000 -5.7230e+001  1.7103e+001 61583 70735,70663,70418
 3.3000e+000 70617 -3.2332e+001 -5.4966e+001  1.7430e+001 61583 70663,70366,70522
 3.3000e+000 70594 -3.9931e-001 -5.1373e+001  2.5297e+001 61583 70735,70418,70392
 3.3000e+000 70571 -2.4180e+001 -7.9935e+001  8.5033e+000 61583 70418,70496,70444
 3.3000e+000 70548 -5.0544e+001 -6.2547e+001  3.8575e+000 61583 70444,70496,70470
 3.3000e+000 70689 -3.2287e+001 -8.3217e+001  6.8254e+000 61583 70496,70418,70663
 3.3000e+000 70712 -5.1196e+001 -5.6101e+001  1.1637e+001 61583 70496,70663,70522
 3.3000e+000 70761 -3.0020e+001 -6.2511e+001  2.5204e+000 61583 70366,70663,70735
 3.3000e+000 70784 -1.6186e+001 -5.3721e+001  1.0787e+001 61583 70366,70735,70392
 3.3000e+000 71054 -1.0680e+000  1.6631e+000  1.5978e+000 61313 71077,70881,70855
 3.3000e+000 71031 -2.3854e-001  4.0196e+000  1.5098e+000 61313 71077,70855,70829
 3.3000e+000 71008 -2.1494e+000 -3.2644e+000 -4.0099e+000 61313 70829,70959,70933
 3.3000e+000 70985  2.5930e-001 -9.0371e-001 -1.1923e+000 61313 70881,70933,70907
 3.3000e+000 71103 -1.1393e+000  2.9422e+000  3.3551e-001 61313 70933,70881,71077
 3.3000e+000 71126 -8.3524e-001  4.3535e+000  2.0825e-001 61313 70933,71077,70829
 3.3000e+000 71604  7.5337e-001 -7.7285e+001  8.3307e+000 60909 71627,71232,71414
 3.3000e+000 71581 -1.6747e+001 -6.1757e+001 -1.3930e+001 60909 71232,71440,71414
 3.3000e+000 71558  5.8219e+000 -5.9177e+001  1.1401e+001 60909 71627,71414,71336
 3.3000e+000 71535  2.4390e+001 -1.4400e+002  3.1646e+001 60909 71362,71414,71388
 3.3000e+000 71512 -8.6665e+000 -1.0449e+002  2.2888e+000 60909 71336,71414,71362
 3.3000e+000 71489  3.4518e+001 -2.7928e+001 -4.7571e+000 60909 71258,71336,71310
 3.3000e+000 71466 -2.5042e+001 -5.6029e+001  4.6091e+000 60909 71258,71310,71284
 3.3000e+000 71653  2.6297e+000 -6.0964e+001  9.6692e+000 60909 71258,71232,71627
 3.3000e+000 71676  1.0529e+000 -5.1926e+001  1.2469e+001 60909 71258,71627,71336
 3.3000e+000 71875 -3.4782e+000 -8.0721e+000  7.9657e+000 60611 71898,71725,71699
 3.3000e+000 71852 -8.2538e+000 -6.4335e+000  9.9632e+000 60611 71898,71699,71803
 3.3000e+000 71829  8.1205e+000  1.0734e+001 -3.8869e+000 60611 71970,71751,71725
 3.3000e+000 71924  5.3085e+000 -4.2763e-001  2.7893e+000 60611 71970,71725,71898
 3.3000e+000 71947 -6.5031e+000 -1.3284e+001  6.7887e+000 60611 71777,71898,71803
 3.3000e+000 71996  5.1517e-001 -3.5161e+000  8.5966e-001 60611 71777,71751,71970
 3.3000e+000 72019 -3.5744e+000 -1.0716e+001  8.2513e+000 60611 71777,71970,71898
 3.3000e+000 72576  2.9950e+001 -1.4553e+002  1.8011e+001 60142 72599,72256,72230
 3.3000e+000 72553  4.6375e+001 -5.9512e+001  2.9272e+001 60142 72671,72599,72230
 3.3000e+000 72530 -4.4124e+000 -2.3071e+001 -4.8302e+000 60142 72671,72230,72204
 3.3000e+000 72507 -1.8332e+001 -3.2969e+001  1.3352e+001 60142 72743,72360,72334
 3.3000e+000 72484 -4.1534e+000 -3.3002e+001 -1.3476e+001 60142 72815,72282,72256
 3.3000e+000 72461  3.4746e+001  1.7434e+001  2.7278e+001 60142 72887,72308,72282
 3.3000e+000 72438 -2.8098e+001 -1.2235e+002 -1.8889e+001 60142 72204,72412,72386
 3.3000e+000 72625 -1.4949e+001 -1.0648e+002 -3.0262e+001 60142 72815,72256,72599
 3.3000e+000 72648 -1.8224e+000 -6.1711e+001  8.7265e+000 60142 72743,72334,72599
 3.3000e+000 72697  2.3342e+000 -1.1916e+002  1.0050e+001 60142 72386,72599,72671
 3.3000e+000 72720 -3.0382e+001 -7.4223e+001 -1.7313e+001 60142 72386,72671,72204
 3.3000e+000 72769  4.0047e+000 -5.8423e+001  6.3720e+001 60142 72386,72360,72743
 3.3000e+000 72792  6.7465e+000 -1.1430e+002  3.4372e+001 60142 72386,72743,72599
 3.3000e+000 72841  1.2184e+000  6.9804e-001  5.7975e+000 60142 72887,72282,72815
 3.3000e+000 72864  2.9238e+000 -4.1435e+001 -2.7913e+000 60142 72334,72815,72599
 3.3000e+000 72913 -1.1964e+001 -1.2282e+001  9.1701e+000 60142 72334,72308,72887
 3.3000e+000 72936 -2.7589e+001 -2.0286e+001 -1.0818e+001 60142 72334,72887,72815
 3.3000e+000 73491 -1.0864e+001 -1.3127e+002 -2.5754e+001 59738 73145,73327,73171
 3.3000e+000 73468  1.3395e+001 -1.0210e+002 -1.5307e+001 59738 73119,73327,73145
 3.3000e+000 73445 -4.1038e+000 -5.3083e+001  3.3842e+000 59738 73171,73327,73301
 3.3000e+000 73422  1.3234e+001 -6.0538e+001  7.3774e-001 59738 73514,73275,73249
 3.3000e+000 73399 -3.8776e-001 -3.6992e+001 -3.9563e+000 59738 73586,73514,73249
 3.3000e+000 73376  8.2430e+000  9.1507e+000  1.4592e+000 59738 73197,73249,73223
 3.3000e+000 73353  9.8967e+000 -2.8831e+001 -1.4073e+001 59738 73586,73249,73197
 3.3000e+000 73540 -2.3209e+000 -9.4999e+001 -1.2974e+001 59738 73301,73275,73514
 3.3000e+000 73563 -9.0358e+000 -6.1217e+001  1.2989e+000 59738 73301,73514,73171
 3.3000e+000 73612 -1.3632e+000 -5.3469e+001  7.3294e+000 59738 73171,73514,73586
 3.3000e+000 73635  1.5987e+000 -4.5865e+001 -1.3409e+000 59738 73171,73586,73197
 3.3000e+000 73964  5.4419e+000 -1.0438e+002 -5.8076e+000 59334 73791,73843,73817
 3.3000e+000 73941 -8.5982e-001 -1.1041e+002 -8.5118e+000 59334 73791,73869,73843
 3.3000e+000 73918 -1.9592e+001 -1.5373e+002 -1.0272e+001 59334 73739,73869,73791
 3.3000e+000 73895  8.7484e+000 -1.7909e+002 -7.8095e+000 59334 73739,73791,73765
 3.3000e+000 74261 -5.4822e+000 -5.0807e+001  1.6673e+001 58630 74065,74117,74091
 3.3000e+000 74238  2.1082e-001 -5.3894e+001 -3.5942e+000 58630 74356,74284,74065
 3.3000e+000 74215  7.4900e+000 -3.1754e+001 -5.7263e-001 58630 74284,74013,73987
 3.3000e+000 74192 -2.9528e+000 -5.2666e+001 -1.7615e+001 58630 74356,74065,74039
 3.3000e+000 74169  6.7758e+000 -2.8999e+001  6.0559e+000 58630 73987,74143,74117
 3.3000e+000 74310  8.3106e+000 -6.1485e+001  4.2495e-001 58630 74117,74065,74284
 3.3000e+000 74333 -2.3802e+000 -4.4474e+001 -4.9210e+000 58630 74117,74284,73987
 3.3000e+000 74382  2.3002e+001 -4.7565e+001 -5.9915e+000 58630 74013,74284,74356
 3.3000e+000 74405  2.1003e+001 -4.5407e+001 -2.0182e+001 58630 74013,74356,74039
 3.3000e+000 74815 -1.1573e+001 -6.8603e+001 -3.2524e+000 58226 74590,74642,74616
 3.3000e+000 74792 -1.3787e+001 -9.0881e+001 -5.7898e+000 58226 74590,74694,74642
 3.3000e+000 74769  1.3879e+001 -1.4871e+002  2.2915e+001 58226 74590,74720,74694
 3.3000e+000 74746 -1.2098e+001 -5.8855e+001 -3.9179e+000 58226 74642,74694,74668
 3.3000e+000 75014  4.7473e+000 -5.5087e+001  2.3235e+000 57786 75037,74864,74838
 3.3000e+000 74991 -1.6341e+000 -3.8792e+001  1.2460e+001 57786 75037,74838,74916
 3.3000e+000 74968 -2.3679e+000 -2.9038e+001 -4.8527e+000 57786 74838,74942,74916
 3.3000e+000 75063 -6.5540e+000 -6.9565e+001 -3.1499e+000 57786 74890,74864,75037
 3.3000e+000 75086 -9.9513e+000 -5.0650e+001  7.9139e+000 57786 74890,75037,74916
 3.3000e+000 75368 -1.9498e+001 -5.7908e+000  9.6486e+000 57496 75192,75270,75218
 3.3000e+000 75345  2.9902e+001  1.4192e+001  1.0451e+001 57496 75192,75296,75270
 3.3000e+000 75322  7.4630e+000  2.6896e-001  2.8374e+001 57496 75218,75270,75244
 3.3000e+000 75648  1.3777e+001 -4.4404e+001 -1.2711e+001 57206 75472,75550,75498
 3.3000e+000 75625  3.4748e+001 -3.0024e+001 -2.4225e+001 57206 75472,75576,75550
 3.3000e+000 75602  1.2150e+000  3.5438e+001  1.1353e+000 57206 75671,75550,75524
 3.3000e+000 75697  4.0023e+001 -3.3470e+001 -7.7013e+000 57206 75498,75550,75671
 3.3000e+000 76154 -8.6731e+000 -5.1684e+001  1.1347e+001 56802 75958,76010,75984
 3.3000e+000 76131 -4.4383e-001 -2.9145e+001  9.1511e+000 56802 75932,76010,75958
 3.3000e+000 76108 -5.6336e+000 -5.6536e+001  1.6521e+001 56802 75906,76010,75932
 3.3000e+000 76085 -8.9695e+000 -1.3876e+001  1.8855e+001 56802 75880,76010,75906
 3.3000e+000 76062  1.1016e+001 -1.3039e+001 -2.8257e+000 56802 75880,76036,76010
 3.3000e+000 76505 -3.9973e-001  4.9659e-001  6.0912e-001 56504 76306,76384,76332
 3.3000e+000 76482  7.4584e-001  6.2032e-001  5.3185e-001 56504 76306,76410,76384
 3.3000e+000 76459 -9.5179e-001 -9.9247e-002  2.9762e-001 56504 76332,76384,76358
 3.3000e+000 76436  1.2961e-001  1.6959e-001  2.9499e-001 56504 76280,76410,76306
 3.3000e+000 77011  2.4940e+001 -1.8278e+001 -2.3698e+001 56050 76740,76818,76792
 3.3000e+000 76988  4.9584e+000 -2.5534e+001 -2.7903e+001 56050 76714,76818,76740
 3.3000e+000 76965  3.1834e+000 -3.3251e+001 -2.6098e+001 56050 76688,76818,76714
 3.3000e+000 76942  3.1616e+001  5.0289e+000 -8.3716e+000 56050 76688,76844,76818
 3.3000e+000 76919  1.7375e+001 -2.1425e+001 -2.1373e+001 56050 76740,76792,76766
 3.3000e+000 76896  1.7836e+001  1.9649e+000  5.5288e+000 56050 76688,76870,76844
 3.3000e+000 77517 -3.7666e+001 -3.8825e+001  1.7387e+001 55738 77220,77350,77324
 3.3000e+000 77494 -7.7025e+000 -6.6148e+001 -1.3097e+001 55738 77220,77376,77350
 3.3000e+000 77471  1.2169e+001 -2.8407e+001 -5.8102e+000 55738 77194,77376,77220
 3.3000e+000 77448 -5.9129e+000 -2.4638e+001  8.0139e+000 55738 77220,77298,77246
 3.3000e+000 77425 -2.0933e+001 -3.4351e+001  1.8177e+001 55738 77220,77324,77298
 3.3000e+000 77402 -3.8104e+001 -2.7851e+001  8.9724e+001 55738 77246,77298,77272
 3.3000e+000 78064  3.0483e+001 -7.3966e+001 -8.9922e+000 55227 78231,78087,77773
 3.3000e+000 78041 -1.3843e+001 -1.6093e+002  6.4190e+000 55227 78087,77695,77643
 3.3000e+000 78018  4.2575e-002 -1.0031e+002 -2.7554e+001 55227 78159,77799,77773
 3.3000e+000 77995  9.4210e+000 -2.9754e+001  2.0970e+000 55227 78231,77773,77721
 3.3000e+000 77972 -3.2815e+001 -4.2950e+001  3.5889e+001 55227 77643,77695,77669
 3.3000e+000 77949 -1.0766e+001 -6.1901e+001 -5.6888e+000 55227 77643,77877,77851
 3.3000e+000 77926 -1.0692e+001 -8.7782e+001  3.9506e+000 55227 77799,77851,77825
 3.3000e+000 77903  1.9993e+001  6.3732e+000 -1.9749e+001 55227 77721,77773,77747
 3.3000e+000 78113  1.4782e+001 -1.0845e+002 -2.0553e+001 55227 78159,77773,78087
 3.3000e+000 78136  2.2486e+001 -7.6204e+001  2.1938e+000 55227 77851,78087,77643
 3.3000e+000 78185 -2.7732e+001 -1.0569e+002 -2.3848e+001 55227 77851,77799,78159
 3.3000e+000 78208 -1.2212e+001 -1.1344e+002 -1.7974e+001 55227 77851,78159,78087
 3.3000e+000 78257  1.1679e+001 -1.2514e+002 -2.7551e+001 55227 77695,78087,78231
 3.3000e+000 78280 -1.4091e+001 -7.9256e+001 -2.1049e+001 55227 77695,78231,77721
 3.3000e+000 78737  1.4367e+001 -3.1064e+001 -1.0314e+001 54773 78463,78541,78515
 3.3000e+000 78714 -1.3564e+001 -5.7415e+001  6.1015e-001 54773 78463,78619,78541
 3.3000e+000 78691  2.5169e+001 -1.5203e+000  6.6944e-001 54773 78463,78515,78489
 3.3000e+000 78668 -1.4178e+001 -2.6941e+001 -8.3712e+000 54773 78541,78593,78567
 3.3000e+000 78645  2.5390e-001 -3.8521e+001 -1.3249e+001 54773 78541,78619,78593
 3.3000e+000 78838 -3.2150e-001 -2.6472e+000  3.3413e-001 54211 78760,78812,78786
 3.3000e+000 79297  7.7429e+000 -4.6975e+001  6.3297e+000 53814 79520,79153,79049
 3.3000e+000 79274  1.1004e+001 -3.4717e+001 -7.4373e+000 53814 79520,79049,79023
 3.3000e+000 79251 -1.5325e+001 -7.5763e+001  1.5950e+001 53814 79320,79101,79049
 3.3000e+000 79228  9.7776e-001 -3.6959e+001  6.8279e+000 53814 79320,79049,79153
 3.3000e+000 79205 -3.0535e+000 -6.5209e+001  2.0506e+001 53814 79049,79101,79075
 3.3000e+000 79346 -3.9425e+000 -3.2412e+001 -1.1155e+001 53814 79392,79320,79127
 3.3000e+000 79369  7.3395e-001 -3.6077e+001 -1.3844e+001 53814 79127,79320,79153
 3.3000e+000 79418 -6.0503e+000 -7.0493e+001 -1.7868e+001 53814 79101,79320,79392
 3.3000e+000 79546 -4.5614e+000 -7.1443e+001  2.1056e+001 53814 79179,79153,79520
 3.3000e+000 79569  1.9613e+001 -4.9752e+001  2.9149e+000 53814 79179,79520,79023
 3.3000e+000 80075 -3.0202e+001  4.7295e+000  1.3519e+001 53039 80098,79908,79830
 3.3000e+000 80052 -4.1365e+001  2.4339e+000 -1.6620e+001 53039 80098,79830,79804
 3.3000e+000 80029  1.9024e+000  1.5419e+001 -4.6993e+000 53039 79752,79934,79804
 3.3000e+000 80006 -2.9288e+000 -5.7622e+001  2.9548e+001 53039 79856,79908,79882
 3.3000e+000 79983  4.4114e+001 -9.9600e+001  1.7291e+001 53039 79830,79908,79856
 3.3000e+000 79960 -1.7922e+000  5.9251e+000 -5.0984e+000 53039 79752,79804,79778
 3.3000e+000 80124  1.7754e+001  3.1458e+001  2.6217e+001 53039 79934,79908,80098
 3.3000e+000 80147 -2.0634e+001  1.4921e+001 -6.1135e+000 53039 79934,80098,79804
 3.3000e+000 80555  2.5073e+001 -1.1531e+001 -2.7691e+000 52699 80356,80434,80408
 3.3000e+000 80532  6.9766e+000 -3.6031e+001  5.7917e+000 52699 80356,80460,80434
 3.3000e+000 80509 -3.3687e+000 -4.2178e+001  3.2109e+000 52699 80330,80460,80356
 3.3000e+000 80486 -3.2806e+001 -5.8598e+001  4.6004e+001 52699 80356,80408,80382
 3.3000e+000 80776  1.1354e+001  1.7537e+001 -4.1379e+000 52295 80600,80678,80626
 3.3000e+000 80753 -3.6841e+000  7.7202e+000  1.8570e-001 52295 80600,80704,80678
 3.3000e+000 80730 -1.2233e+001  7.8100e+000 -2.9526e+000 52295 80626,80678,80652
 3.3000e+000 81156 -4.9514e+000 -6.8327e+001  1.6068e+001 51891 81179,80960,80908
 3.3000e+000 81133 -8.7072e-001 -6.4770e+001 -4.8489e+000 51891 81179,80908,81012
 3.3000e+000 81110 -2.1119e+001 -5.3063e+001 -1.1117e+001 51891 80882,81012,80908
 3.3000e+000 81087  1.4712e+001 -6.5171e+001  2.0847e+001 51891 80908,80960,80934
 3.3000e+000 81064 -5.3913e+000 -8.5847e+000 -6.4593e+000 51891 80882,81038,81012
 3.3000e+000 81205  2.0826e+001 -5.7658e+001  1.6358e+001 51891 80986,80960,81179
 3.3000e+000 81228  8.1733e+000 -6.1052e+001 -5.3314e+000 51891 80986,81179,81012
 3.3000e+000 81606  4.7962e+000 -2.2842e+002 -7.6637e+001 51544 81410,81462,81436
 3.3000e+000 81583  2.2980e+001 -7.9397e+001 -9.5722e+000 51544 81384,81462,81410
 3.3000e+000 81560 -1.5755e+001 -9.9291e+001 -2.3112e+001 51544 81358,81462,81384
 3.3000e+000 81537 -6.6063e+000 -8.9492e+001 -3.5149e+001 51544 81358,81488,81462
 3.3000e+000 81514  1.7970e+001 -1.7915e+001 -2.5997e+001 51544 81332,81488,81358
 3.3000e+000 81854  4.2169e+000 -6.0577e+001 -1.3498e-001 51004 81877,81655,81629
 3.3000e+000 81831  2.0264e+000 -3.6700e+001 -4.7112e+000 51004 81877,81629,81759
 3.3000e+000 81808  6.4183e+000 -3.0480e+001  3.0523e+001 51004 81655,81707,81681
 3.3000e+000 81785 -1.6148e+001 -6.2633e+001 -2.6408e+000 51004 81707,81759,81733
 3.3000e+000 81903  4.7313e+000 -7.0602e+001  2.4712e-001 51004 81707,81655,81877
 3.3000e+000 81926 -7.9787e+000 -6.2832e+001 -8.7287e+000 51004 81707,81877,81759
 3.3000e+000 82257 -2.4313e+001 -7.8195e+001 -1.1943e+001 50642 82058,82136,82110
 3.3000e+000 82234 -2.6207e+001 -4.4375e+001 -2.1820e+001 50642 82058,82162,82136
 3.3000e+000 82211 -1.8161e+001 -7.0478e+001 -2.1348e+001 50642 82058,82110,82084
 3.3000e+000 82188  1.3733e+001 -2.8090e+001 -9.9924e+000 50642 82032,82162,82058
 3.3000e+000 82684  3.5048e+001 -1.5783e+002  2.8911e+001 49931 82779,82707,82465
 3.3000e+000 82661 -1.2068e+001 -1.9575e+002  3.6061e+001 49931 82707,82413,82361
 3.3000e+000 82638 -2.1728e+000 -1.4921e+002 -3.4698e+001 49931 82779,82465,82439
 3.3000e+000 82615 -6.0457e-001 -3.4247e+002  3.6888e+001 49931 82465,82543,82491
 3.3000e+000 82592 -1.6845e+001 -1.3758e+002 -2.6828e+000 49931 82361,82413,82387
 3.3000e+000 82569  3.5946e+000 -2.6218e+002  3.1078e+001 49931 82491,82543,82517
 3.3000e+000 82733  6.4787e+001 -1.8991e+002  3.1176e+001 49931 82543,82465,82707
 3.3000e+000 82756  1.6593e+001 -1.6254e+002  2.3300e+001 49931 82543,82707,82361
 3.3000e+000 82805 -6.7330e+000 -2.4760e+002  3.4064e+000 49931 82413,82707,82779
 3.3000e+000 82828 -2.7229e+001 -2.2431e+002 -5.6894e+001 49931 82413,82779,82439
 3.3000e+000 83255 -9.8388e+000 -2.1170e+002 -3.5811e+001 49327 82984,83114,83036
 3.3000e+000 83232 -2.9086e+001 -2.5214e+002 -6.5211e+001 49327 82958,83114,82984
 3.3000e+000 83209 -3.3495e+001 -2.8402e+002 -9.9713e+000 49327 83036,83114,83088
 3.3000e+000 83186 -6.8314e+001 -1.5757e+002  6.8180e+000 49327 82984,83036,83010
 3.3000e+000 83163 -3.6845e+001 -2.3356e+002 -5.4906e+001 49327 82932,83114,82958
 3.3000e+000 83140 -9.0004e+001 -4.6711e+002 -6.0347e+000 49327 83036,83088,83062
 3.3000e+000 83938 -2.5086e+001 -2.9946e+002  7.0571e+001 48965 83961,83673,83647
 3.3000e+000 83915  2.4819e+001 -1.2139e+002  7.7231e+001 48965 83961,83647,83543
 3.3000e+000 83892 -1.9390e+001 -1.3865e+002 -2.4381e+001 48965 83517,83725,83543
 3.3000e+000 83869 -4.7524e+001 -1.9909e+002 -3.5381e+001 48965 83673,83725,83699
 3.3000e+000 83846 -2.2524e+001 -5.4977e+001  2.7301e+000 48965 83543,83647,83621
 3.3000e+000 83823 -7.0556e+000 -7.4267e+001 -4.0431e+000 48965 83543,83621,83569
 3.3000e+000 83800 -3.3762e+000 -1.2387e+002  4.2914e+000 48965 83517,83751,83725
 3.3000e+000 83777 -1.7381e+000 -6.6328e+001  1.0956e+001 48965 83569,83621,83595
 3.3000e+000 83987 -1.5692e+001 -2.7097e+002 -4.5260e+001 48965 83725,83673,83961
 3.3000e+000 84010  1.4331e+001 -1.9868e+002 -1.6928e+001 48965 83725,83961,83543
 3.3000e+000 84258 -1.1202e+001 -1.8466e+002  2.2510e+001 48447 84281,84059,84033
 3.3000e+000 84235  3.1186e+000 -1.4609e+002 -1.9075e+000 48447 84281,84033,84163
 3.3000e+000 84212  2.3312e+001 -1.3306e+002 -2.3636e+001 48447 84059,84111,84085
 3.3000e+000 84189  2.6736e+001 -1.2879e+002 -3.4193e+001 48447 84111,84163,84137
 3.3000e+000 84307  1.0958e+001 -1.7600e+002 -7.5546e+000 48447 84111,84059,84281
 3.3000e+000 84330  3.3422e+001 -1.5012e+002 -3.1210e+001 48447 84111,84281,84163
 3.3000e+000 84529  2.8806e+001 -1.1184e+002 -8.3296e+000 47993 84552,84405,84379
 3.3000e+000 84506 -8.7310e+000 -1.2100e+002 -2.4781e+000 47993 84552,84379,84353
 3.3000e+000 84483  9.5686e+000 -1.1569e+002 -1.5969e+001 47993 84624,84457,84431
 3.3000e+000 84578  4.3690e+001 -1.1052e+002 -2.4226e+001 47993 84431,84405,84552
 3.3000e+000 84601  1.5844e+001 -1.1703e+002 -1.4384e+001 47993 84624,84431,84552
 3.3000e+000 84650  1.6075e+001 -1.1660e+002 -1.1341e+001 47993 84353,84457,84624
 3.3000e+000 84673  2.5270e+001 -1.1284e+002 -7.9777e+000 47993 84353,84624,84552
 3.3000e+000 85104 -2.8688e+001 -2.0344e+002 -1.7780e+001 47588 85199,85127,84885
 3.3000e+000 85081 -2.1495e+001 -2.1638e+002 -2.4580e+001 47588 85127,84781,84963
 3.3000e+000 85058 -5.9133e+001 -1.9629e+002  1.6687e+001 47588 85199,84885,84807
 3.3000e+000 85035 -7.5538e+000 -1.3516e+002  6.8955e+001 47588 84885,84937,84911
 3.3000e+000 85012 -2.7042e+001 -1.2393e+002 -8.0981e+000 47588 84807,84885,84833
 3.3000e+000 84989 -6.6801e+000 -1.1369e+002  1.8952e+001 47588 84833,84885,84859
 3.3000e+000 85153 -2.6097e+001 -2.4357e+002 -2.7054e+000 47588 84937,84885,85127
 3.3000e+000 85176  4.9027e+001 -2.2136e+002 -4.6394e+000 47588 84937,85127,84963
 3.3000e+000 85225 -8.6193e+001 -2.2508e+002 -1.6469e+001 47588 84781,85127,85199
 3.3000e+000 85248 -1.0548e+002 -2.1610e+002  2.2666e+001 47588 84781,85199,84807
 3.3000e+000 85518 -5.5335e+001 -3.4617e+002  5.7177e+001 47226 85293,85397,85319
 3.3000e+000 85495 -3.5508e+001 -3.0674e+002  2.4533e+001 47226 85293,85423,85397
 3.3000e+000 85472 -2.4763e+001 -3.6356e+002 -1.3720e+001 47226 85319,85397,85345
 3.3000e+000 85449  3.3007e+001 -9.6601e+001 -1.5127e+001 47226 85345,85397,85371
 3.3000e+000 85849 -2.0286e+001 -1.6973e+002  4.0634e+001 46572 85624,85702,85650
 3.3000e+000 85826 -1.9246e+001 -2.5088e+002 -1.0387e+001 46572 85624,85754,85702
 3.3000e+000 85803  3.8081e+001 -1.3415e+002  2.3949e+001 46572 85702,85754,85728
 3.3000e+000 85780 -1.5544e+001 -1.6772e+002  4.0428e+001 46572 85650,85702,85676
 3.3000e+000 86070 -1.5983e+002 -2.4328e+002 -5.8631e+000 46374 85920,85972,85946
 3.3000e+000 86047 -1.0932e+002 -1.2402e+002  2.2880e+000 46374 85920,85998,85972
 3.3000e+000 86024 -7.1071e+001 -9.9042e+001  2.5700e+001 46374 85894,85998,85920
 3.3000e+000 86401  9.0431e+000 -1.5128e+002  4.0803e+000 46034 86424,86280,86228
 3.3000e+000 86378 -3.4423e+001 -1.4347e+002  1.8653e+000 46034 86424,86228,86176
 3.3000e+000 86355 -4.3577e+001 -1.0904e+002 -4.7322e+001 46034 86176,86228,86202
 3.3000e+000 86332  5.1676e+001 -1.3232e+002 -4.2098e+001 46034 86228,86280,86254
 3.3000e+000 86450  8.6139e+001 -1.5390e+002 -1.4537e+001 46034 86306,86280,86424
 3.3000e+000 86473  3.3758e+000 -1.7464e+002 -1.9158e+001 46034 86306,86424,86176
 3.3000e+000 87058  1.0510e+001 -1.2820e+002  2.1158e+001 45516 86813,86917,86865
 3.3000e+000 87035 -1.3462e+001 -1.9397e+002  1.3071e+001 45516 86787,86917,86813
 3.3000e+000 87012 -2.5217e+000 -2.3101e+002  2.3452e+001 45516 86735,86917,86787
 3.3000e+000 86989  3.6611e+000 -1.3495e+002  2.4067e+001 45516 86865,86917,86891
 3.3000e+000 86966  1.4601e+001 -1.2153e+002  2.3196e+001 45516 86813,86865,86839
 3.3000e+000 86943 -9.9129e+000 -3.1804e+002 -1.7130e+000 45516 86735,86787,86761
 3.3000e+000 87208  6.2370e+001 -7.4888e+001 -2.2564e+001 45226 87231,87133,87107
 3.3000e+000 87185  1.4030e+001 -4.3480e+001 -1.5808e+000 45226 87081,87159,87133
 3.3000e+000 87257  5.0414e+001  2.9209e+001 -2.1363e+001 45226 87081,87133,87231
 3.3000e+000 87537  4.5852e+001 -1.6850e+002  2.8675e+001 44772 87387,87439,87413
 3.3000e+000 87514 -8.0418e+000 -1.8623e+002  2.1766e+001 44772 87361,87439,87387
 3.3000e+000 87491  1.0202e+001 -1.1226e+002  5.1540e+000 44772 87361,87465,87439
 3.3000e+000 87996 -1.9087e+000 -7.4573e+000  1.1502e+001 44425 87748,87878,87852
 3.3000e+000 87973 -9.0956e-001 -6.4664e+000  1.0910e+000 44425 87722,87878,87748
 3.3000e+000 87950  1.9551e+000 -4.2220e+001 -4.4993e+000 44425 87800,87852,87826
 3.3000e+000 87927  1.3843e+001 -2.1414e+001  1.3616e+001 44425 87748,87852,87800
 3.3000e+000 87904 -1.7659e+001 -4.2182e+001 -6.8604e+000 44425 87748,87800,87774
 3.3000e+000 88423 -5.5403e+000 -1.3551e+002  8.8020e+000 44078 88590,88230,88204
 3.3000e+000 88400 -2.8978e+000 -9.1665e+001  1.6612e+001 44078 88518,88446,88204
 3.3000e+000 88377  3.3442e+000 -1.4478e+002 -2.3737e+001 44078 88446,88126,88282
 3.3000e+000 88354 -2.2088e+001 -6.5928e+001  1.1655e+000 44078 88518,88204,88178
 3.3000e+000 88331  7.0864e-001 -1.7535e+002 -2.2939e+001 44078 88100,88282,88126
 3.3000e+000 88308 -5.2524e+000 -6.5162e+001  2.3724e+001 44078 88126,88178,88152
 3.3000e+000 88472 -9.5342e+000 -1.4531e+002  1.0567e+001 44078 88590,88204,88446
 3.3000e+000 88495 -1.6772e+001 -2.1771e+002 -3.5059e+001 44078 88256,88446,88282
 3.3000e+000 88544 -1.4195e+001 -1.4965e+002  1.3264e+001 44078 88126,88446,88518
 3.3000e+000 88567 -1.6012e+001 -9.9023e+001  1.4735e+000 44078 88126,88518,88178
 3.3000e+000 88616 -7.6940e+001 -3.0496e+002 -2.4482e+001 44078 88256,88230,88590
 3.3000e+000 88639 -4.4503e+000 -1.3942e+002 -2.5548e+000 44078 88256,88590,88446
 3.3000e+000 89039  1.0503e+001 -2.4198e+001  9.9287e+000 43716 88791,88921,88895
 3.3000e+000 89016 -6.4416e+000 -6.9599e+000  1.0283e+001 43716 88765,88921,88791
 3.3000e+000 88993  2.8999e+001 -2.9419e+001  1.6738e+001 43716 88817,88895,88869
 3.3000e+000 88970 -6.0766e+000 -3.6090e+001  1.6888e+001 43716 88791,88895,88817
 3.3000e+000 88947 -4.6498e+000 -2.0927e+001 -2.0458e+000 43716 88817,88869,88843
 3.3000e+000 89496  6.5662e+000 -2.0206e+002 -2.0267e+001 43162 89519,89274,89248
 3.3000e+000 89473  1.4921e+001 -1.4559e+002 -8.9896e+000 43162 89519,89248,89222
 3.3000e+000 89450  1.0041e+001 -1.1328e+002 -5.5786e+001 43162 89326,89378,89352
 3.3000e+000 89427 -4.8871e+000 -1.6195e+002 -1.7518e+001 43162 89274,89378,89326
 3.3000e+000 89404  1.0836e+001 -1.3555e+002 -8.9955e+000 43162 89274,89326,89300
 3.3000e+000 89545  3.0958e+000 -1.5120e+002 -7.1693e+000 43162 89378,89274,89519
 3.3000e+000 89568  1.4674e+001 -9.0796e+001  4.7769e+000 43162 89378,89519,89222
 3.3000e+000 89946 -1.9687e+001 -1.3082e+002 -7.6681e+001 42594 90041,89969,89750
 3.3000e+000 89923 -1.1762e+001 -1.1397e+002 -3.1634e+001 42594 89969,89698,89828
 3.3000e+000 89900  1.5734e+001 -1.4688e+002 -6.9233e+001 42594 90041,89750,89724
 3.3000e+000 89877 -3.6020e+001 -1.0817e+002 -2.4951e+001 42594 89750,89802,89776
 3.3000e+000 89854  2.6552e+001 -5.5192e+001 -1.4988e+001 42594 89672,89828,89698
 3.3000e+000 89995 -5.4142e+001 -1.0725e+002 -5.2392e+001 42594 89802,89750,89969
 3.3000e+000 90018  8.7936e+000 -3.8628e+001 -1.0546e+001 42594 89802,89969,89828
 3.3000e+000 90067  1.2611e+001 -1.0623e+002 -6.3248e+001 42594 89698,89969,90041
 3.3000e+000 90090  4.8556e+001 -1.3152e+002 -6.3499e+001 42594 89698,90041,89724
 3.3000e+000 90517  1.8073e+001 -1.7775e+002 -1.7167e+001 42140 90540,90220,90194
 3.3000e+000 90494  2.7957e+001 -1.8745e+002 -2.1299e+001 42140 90540,90194,90376
 3.3000e+000 90471 -1.5727e+001 -1.9292e+002  6.7675e+000 42140 90612,90350,90272
 3.3000e+000 90448 -4.8833e+001 -1.7345e+002 -8.5167e+000 42140 90272,90350,90298
 3.3000e+000 90425 -3.7045e+001 -1.5581e+002 -1.7397e+001 42140 90298,90350,90324
 3.3000e+000 90402  3.0960e+001 -1.1529e+002  3.8739e+001 42140 90220,90272,90246
 3.3000e+000 90566  1.5819e+001 -1.1492e+002 -1.1165e+001 42140 90272,90220,90540
 3.3000e+000 90589 -1.1040e+001 -1.8232e+002 -8.6805e-001 42140 90612,90272,90540
 3.3000e+000 90638  3.3471e+000 -2.1374e+002 -1.2246e+001 42140 90376,90350,90612
 3.3000e+000 90661  2.8019e+001 -1.8493e+002 -2.3844e+001 42140 90376,90612,90540
 3.3000e+000 91167 -2.0838e+001 -9.8232e+001 -9.2286e+000 41636 91190,90870,90844
 3.3000e+000 91144 -3.4206e+001 -2.9953e+002 -1.6737e+000 41636 91190,90844,91026
 3.3000e+000 91121 -1.3228e+001 -5.1118e+001 -3.4171e+001 41636 90870,90922,90896
 3.3000e+000 91098  6.1333e-001 -2.4598e+002  1.5688e+001 41636 90922,91026,90948
 3.3000e+000 91075  2.0313e+001 -1.9204e+002 -3.5773e+001 41636 90948,91026,91000
 3.3000e+000 91052 -2.7711e+001 -7.4506e+001  3.0812e+001 41636 90948,91000,90974
 3.3000e+000 91216 -4.3486e+001 -4.2656e+001 -7.1510e+000 41636 90922,90870,91190
 3.3000e+000 91239  3.8134e+001 -1.1202e+002  2.7241e+001 41636 90922,91190,91026
 3.3000e+000 91696 -1.3865e+001 -1.5683e+002 -2.0701e+001 40449 91448,91526,91474
 3.3000e+000 91673 -6.1928e+001 -1.8717e+002  2.9295e+000 40449 91448,91578,91526
 3.3000e+000 91650  2.0223e+001 -6.1980e+001 -8.3003e+000 40449 91474,91526,91500
 3.3000e+000 91627  3.8036e+000 -1.5961e+002  1.1079e+001 40449 91422,91578,91448
 3.3000e+000 91604  1.9665e+001 -1.3095e+002 -2.4307e+001 40449 91526,91578,91552
 3.3000e+000 92123 -1.5274e+001 -1.6141e+002 -5.3093e+000 39995 92146,91904,91826
 3.3000e+000 92100 -3.7426e+001 -1.7458e+002 -2.8778e+001 39995 92146,91826,91800
 3.3000e+000 92077 -6.8757e+001 -1.2220e+002 -1.3222e+001 39995 91826,91904,91852
 3.3000e+000 92054 -4.9966e+001 -3.1838e+002 -3.6099e+001 39995 91904,91982,91930
 3.3000e+000 92031 -1.5760e+001 -9.6530e+001 -3.6012e+000 39995 91852,91904,91878
 3.3000e+000 92008 -2.2517e+001 -2.4057e+002 -4.3522e+001 39995 91930,91982,91956
 3.3000e+000 92172  5.8541e-001 -1.9013e+002 -2.8914e+001 39995 91982,91904,92146
 3.3000e+000 92195 -2.4430e+001 -2.2610e+002 -4.9674e+001 39995 91982,92146,91800
 3.3000e+000 92652  6.0003e+000  9.7498e+000  1.6177e+001 39633 92404,92534,92456
 3.3000e+000 92629 -1.0909e+001 -1.1072e+001  8.8892e+000 39633 92378,92534,92404
 3.3000e+000 92606 -1.0729e+000  4.6601e+000  7.6382e-001 39633 92404,92456,92430
 3.3000e+000 92583  8.2034e+000 -4.4739e+001  4.0977e-001 39633 92456,92534,92508
 3.3000e+000 92560  8.3211e-001 -1.3747e+001 -5.1815e+000 39633 92456,92508,92482
 3.3000e+000 93079  4.7627e+001 -7.0396e+001 -1.6059e+001 39093 93102,92808,92756
 3.3000e+000 93056  8.1243e+000 -1.0007e+002 -9.0097e-001 39093 93102,92756,92938
 3.3000e+000 93033 -3.3160e+000 -7.1017e+001 -2.1695e+001 39093 93174,92912,92834
 3.3000e+000 93010 -8.0124e+000 -1.1601e+002 -4.2885e+001 39093 92834,92912,92860
 3.3000e+000 92987  3.7908e+001 -6.5570e+001 -5.8802e+000 39093 92756,92808,92782
 3.3000e+000 92964 -1.2266e+000 -5.2649e+001  4.7776e+000 39093 92860,92912,92886
 3.3000e+000 93128  9.8467e+000 -3.5519e+001 -2.5545e+001 39093 92834,92808,93102
 3.3000e+000 93151  2.1022e-001 -6.3645e+001 -1.9691e+001 39093 93174,92834,93102
 3.3000e+000 93200 -3.8569e+000 -6.9767e+001 -2.6143e+001 39093 92938,92912,93174
 3.3000e+000 93223 -4.2126e+000 -6.6885e+001 -2.4766e+001 39093 92938,93174,93102
 3.3000e+000 93680  6.0208e+000 -1.3334e+001  8.4309e+000 38639 93703,93536,93484
 3.3000e+000 93657 -2.2480e+000 -4.2807e+000  9.7326e+000 38639 93703,93484,93432
 3.3000e+000 93634  3.6298e+000  5.0751e+000  1.1855e+000 38639 93432,93484,93458
 3.3000e+000 93611 -6.9111e+000 -5.5201e+001 -2.0298e+001 38639 93484,93536,93510
 3.3000e+000 93588  1.1760e+001  7.7350e+000  1.6625e+001 38639 93406,93562,93432
 3.3000e+000 93729  4.7951e-001 -2.2307e+001  5.6910e+000 38639 93562,93536,93703
 3.3000e+000 93752 -7.1136e+000 -1.0051e+001  6.4277e+000 38639 93562,93703,93432
 3.3000e+000 94160  1.2656e+001  2.3351e+000 -1.1724e+001 38292 93935,94039,93961
 3.3000e+000 94137 -1.7640e+000 -4.3248e+001  3.2476e+000 38292 93935,94065,94039
 3.3000e+000 94114 -2.4721e+001 -6.0352e+001 -1.8585e+001 38292 93961,94013,93987
 3.3000e+000 94091  3.0113e+000 -5.5854e+001 -3.9876e+000 38292 93961,94039,94013
 3.3000e+000 94408  2.9589e+001 -9.3759e+001  8.6905e+000 37880 94431,94261,94235
 3.3000e+000 94385  5.3175e+001 -8.6502e+001  1.9295e+001 37880 94431,94235,94313
 3.3000e+000 94362  3.5038e+001 -9.9672e+001  3.7587e+001 37880 94209,94313,94235
 3.3000e+000 94339  5.5619e+001 -2.1956e+001 -1.1629e+001 37880 94183,94313,94209
 3.3000e+000 94457 -1.2513e+001 -8.0536e+001  8.6980e+000 37880 94287,94261,94431
 3.3000e+000 94480  2.5512e+001 -6.5235e+001  1.7233e+001 37880 94287,94431,94313
 3.3000e+000 94728 -6.8850e+001 -2.1335e+002  5.5048e+000 37426 94529,94607,94555
 3.3000e+000 94705 -4.9094e+000 -3.0958e+002 -2.9146e+001 37426 94529,94633,94607
 3.3000e+000 94682 -2.0651e+001 -3.1692e+002 -3.2365e+001 37426 94503,94633,94529
 3.3000e+000 94659 -3.2910e+001 -8.9016e+001 -5.4089e+001 37426 94555,94607,94581
 3.3000e+000 95257  6.9762e+000 -9.3156e+001 -2.2656e+000 36722 95496,95280,94862
 3.3000e+000 95234 -5.8545e+001 -1.2319e+002 -1.7020e+001 36722 95496,94862,94836
 3.3000e+000 95211 -2.0497e+000 -7.4622e+001 -1.9747e+001 36722 95352,95280,95070
 3.3000e+000 95188 -1.3522e+001 -9.2349e+001 -1.3907e+001 36722 95352,95070,95044
 3.3000e+000 95165 -5.8603e+001 -9.4094e+001  1.2139e+001 36722 95424,94888,94862
 3.3000e+000 95142 -6.5426e+001  6.1274e+000  1.5879e+001 36722 94914,94966,94940
 3.3000e+000 95119 -3.7056e+001 -1.2163e+002  4.6947e+000 36722 94966,95044,95018
 3.3000e+000 95096 -1.7868e+001 -6.6460e+001  2.3041e+000 36722 94966,95018,94992
 3.3000e+000 95306 -1.1902e+001 -8.5206e+001 -9.8188e+000 36722 95424,94862,95280
 3.3000e+000 95329  1.9036e+001  3.9248e+000 -3.8201e+001 36722 94914,95280,94966
 3.3000e+000 95378 -1.8001e+001 -7.3402e+001 -8.2424e+000 36722 94966,95280,95352
 3.3000e+000 95401 -2.1813e+001 -7.5731e+001 -5.6879e+000 36722 94966,95352,95044
 3.3000e+000 95450  8.9382e+000 -6.3717e+001  3.9780e+000 36722 94914,94888,95424
 3.3000e+000 95473  1.5860e+001 -7.5155e+001 -1.0070e+001 36722 94914,95424,95280
 3.3000e+000 95522  1.4665e+001 -1.0574e+002 -5.3087e+000 36722 95070,95280,95496
 3.3000e+000 95545  1.5247e+001 -1.0474e+002 -4.7683e+000 36722 95070,95496,94836
 3.3000e+000 96130  1.3940e+001 -1.9298e+001  1.8985e+000 36268 96153,95911,95859
 3.3000e+000 96107  1.6976e+001 -3.8061e+001  3.1958e+000 36268 96153,95859,95807
 3.3000e+000 96084  4.3457e+001  3.9749e+001  1.4939e+001 36268 95807,95859,95833
 3.3000e+000 96061 -2.7498e+000 -7.6583e+001  1.2339e+001 36268 95911,95989,95937
 3.3000e+000 96038  5.4730e+001  6.5909e+000  3.6238e+001 36268 95859,95911,95885
 3.3000e+000 96015 -1.0533e+000 -3.2622e+001 -1.4890e+001 36268 95937,95989,95963
 3.3000e+000 96179  1.7478e+001 -3.4063e+001  6.4367e+000 36268 95989,95911,96153
 3.3000e+000 96202  1.6958e+001 -5.7621e+001  7.5695e+000 36268 95989,96153,95807
 3.3000e+000 96531 -2.2623e+001 -1.6915e+002  3.9753e+001 35728 96358,96410,96384
 3.3000e+000 96508 -1.6580e+001 -1.5247e+002  3.1433e+001 35728 96332,96410,96358
 3.3000e+000 96485 -2.6385e+001 -1.5060e+002  4.8810e+001 35728 96332,96436,96410
 3.3000e+000 96462 -2.2591e+000 -8.9722e+001 -4.3463e+000 35728 96306,96436,96332
 3.3000e+000 96860 -4.4225e+000 -9.8004e+001  1.9739e+000 35324 96687,96765,96713
 3.3000e+000 96837 -4.1576e+000 -1.0244e+002 -8.7390e+000 35324 96661,96765,96687
 3.3000e+000 96814 -1.2243e+001 -6.0736e+001 -1.8941e+001 35324 96713,96765,96739
 3.3000e+000 96791 -1.0347e+001 -1.2572e+002 -1.5825e+001 35324 96635,96765,96661
 3.3000e+000 97366 -1.6360e+001 -1.6527e+002  2.4301e+001 34920 97389,97069,97043
 3.3000e+000 97343 -2.6657e+001 -1.4486e+002  4.1355e+000 34920 97389,97043,97199
 3.3000e+000 97320 -8.9211e+000 -1.3001e+002 -6.2773e+000 34920 97043,97225,97199
 3.3000e+000 97297 -1.7779e+001 -2.9100e+002  3.6359e+001 34920 97069,97121,97095
 3.3000e+000 97274 -1.9313e+001 -8.5350e+001 -7.3078e+000 34920 97121,97199,97173
 3.3000e+000 97251 -3.0861e+001 -7.9959e+001 -1.4118e+001 34920 97121,97173,97147
 3.3000e+000 97415 -8.4769e+000 -1.5739e+002  3.1090e+000 34920 97121,97069,97389
 3.3000e+000 97438  4.3045e+000 -1.1204e+002 -1.9934e+001 34920 97121,97389,97199
 3.3000e+000 97708 -3.8928e+001 -7.3280e+001  7.8224e+000 34722 97509,97587,97535
 3.3000e+000 97685 -7.2942e+000 -7.7366e+001  2.3848e+000 34722 97509,97613,97587
 3.3000e+000 97662 -3.3911e+001 -9.2735e+001 -5.3902e+000 34722 97483,97613,97509
 3.3000e+000 97639 -1.8934e+001 -6.2235e+001  1.3673e+001 34722 97535,97587,97561
 3.3000e+000 98216 -2.8426e+001 -1.7993e+002  2.0165e+001 34318 97971,98075,97997
 3.3000e+000 98193  1.3940e+000 -1.3098e+002  3.6196e+001 34318 97893,98075,97971
 3.3000e+000 98170  5.1226e+001 -1.2081e+002  1.1625e+001 34318 97893,97971,97919
 3.3000e+000 98147 -1.9992e+001 -1.2196e+002  2.9810e+001 34318 97997,98075,98049
 3.3000e+000 98124  1.3161e+001 -1.3615e+002  1.7441e+001 34318 97919,97971,97945
 3.3000e+000 98101 -6.0943e+001 -2.0785e+002  5.3950e+001 34318 97997,98049,98023
 3.3000e+000 98594  1.1500e+001 -4.6148e+001  4.7787e+000 33814 98961,98617,98424
 3.3000e+000 98571  1.0474e+001 -4.5939e+001 -4.3014e+000 33814 98689,98617,98372
 3.3000e+000 98548  3.1536e+001  9.9721e+000 -1.6614e+001 33814 99033,98689,98372
 3.3000e+000 98525 -3.3553e-001 -3.6112e+001  3.9950e+000 33814 98761,98476,98450
 3.3000e+000 98502  3.6046e+000 -3.4630e+001  3.1060e+000 33814 98961,98424,98398
 3.3000e+000 98643 -3.9094e+000 -5.7008e+001 -2.3112e+000 33814 98450,98424,98617
 3.3000e+000 98666  2.3289e+001 -2.0521e+001  1.1651e+001 33814 98761,98450,98617
 3.3000e+000 98715  1.6330e+001 -8.3122e+001 -3.7930e+000 33814 99161,98689,98320
 3.3000e+000 98738 -2.3456e+001 -7.0102e+001  2.3909e+000 33814 98320,98689,98346
 3.3000e+000 98787  7.0323e+000 -6.8465e+001  3.7170e+001 33814 98833,98761,98320
 3.3000e+000 98810  2.1099e+001 -9.2726e+001  1.4378e+001 33814 99161,98320,98761
 3.3000e+000 98859  2.8013e+001  2.9847e+001  7.8296e+000 33814 98476,98761,98833
 3.3000e+000 98987  1.6879e+001 -3.1204e+001  1.0736e+000 33814 98372,98617,98961
 3.3000e+000 99010  1.3184e+001 -1.4111e+001 -1.5479e+000 33814 98372,98961,98398
 3.3000e+000 99059  1.2286e+001 -5.1720e+001  9.3942e+000 33814 98346,98689,99033
 3.3000e+000 99187  2.6987e+001 -5.0959e+001 -9.3724e+000 33814 98617,98689,99161
 3.3000e+000 99210  2.5791e+001 -6.6106e+001  1.0429e+001 33814 98617,99161,98761
 3.3000e+000 99588 -3.7326e+001 -6.3181e+001 -4.6777e+001 33566 99366,99444,99392
 3.3000e+000 99565  3.8762e+001 -5.2261e+001 -2.7750e+001 33566 99314,99444,99366
 3.3000e+000 99542  1.5062e+001 -1.7543e+001  1.6902e+001 33566 99314,99366,99340
 3.3000e+000 99519  2.1419e+000 -7.0852e+001 -2.1058e+001 33566 99314,99470,99444
 3.3000e+000 99496 -3.9727e+001  2.7442e+001 -1.1953e+001 33566 99392,99444,99418
 3.3000e+000 99787  1.6779e+001 -9.8808e+001  4.1982e+001 33105 99637,99689,99663
 3.3000e+000 99764  5.8858e+000 -7.9957e+001  1.7902e+000 33105 99611,99689,99637
 3.3000e+000 99741  1.5898e+001 -1.7243e+001  6.7020e+000 33105 99611,99715,99689
 3.3000e+000 100167 -3.2540e+001 -1.4840e+002  7.1638e+001 32651 100190,99971,99919
 3.3000e+000 100144 -4.0375e+000 -9.6059e+001  5.6017e+001 32651 100262,100190,99919
 3.3000e+000 100121 -1.1873e+001 -9.2001e+001  4.7700e+001 32651 100262,99919,100049
 3.3000e+000 100098 -2.3363e+000 -8.6598e+001 -7.6205e+000 32651 99893,100049,99919
 3.3000e+000 100075 -4.6509e+001 -1.2461e+002  5.8288e+001 32651 99919,99971,99945
 3.3000e+000 100216 -1.2743e+000 -1.6852e+002  3.2518e+001 32651 99997,99971,100190
 3.3000e+000 100239  1.5694e+001 -1.2914e+002  2.9106e+001 32651 99997,100190,100023
 3.3000e+000 100288 -4.8983e+000 -1.2275e+002  5.1808e+001 32651 100023,100190,100262
 3.3000e+000 100311  1.4827e+000 -1.0863e+002  3.2784e+001 32651 100023,100262,100049
 3.3000e+000 100608 -4.4409e+001 -1.5459e+002 -4.3207e-001 32254 100386,100490,100464
 3.3000e+000 100585 -4.3450e+001 -1.1442e+002 -1.1570e+001 32254 100360,100490,100386
 3.3000e+000 100562 -4.9000e+001 -1.8186e+002 -1.6147e+001 32254 100386,100464,100412
 3.3000e+000 100539 -9.3365e+000 -1.0260e+002 -1.5449e+001 32254 100334,100490,100360
 3.3000e+000 100516 -8.9698e+000 -9.3406e+001 -3.8465e+000 32254 100412,100464,100438
 3.3000e+000 100758 -1.4717e+001  3.4011e+001 -1.9399e+000 31914 100985,100781,100683
 3.3000e+000 100735 -1.6976e+001  5.2862e+001  1.5857e+001 31914 100853,100781,100657
 3.3000e+000 100807 -7.3619e-002  3.9944e+001 -1.2950e+001 31914 100709,100683,100781
 3.3000e+000 100830 -2.6461e+000  4.5577e+001  1.4100e+001 31914 100709,100781,100631
 3.3000e+000 100879 -2.4528e+001 -2.0188e+001  2.0558e+001 31914 100631,100781,100853
 3.3000e+000 101011  1.7275e+001  6.5755e+001  1.4480e+001 31914 100657,100781,100985
 3.3000e+000 101191 -2.9668e-001 -2.6867e+001 -6.4219e-002 31418 101113,101165,101139
 3.3000e+000 101341 -1.0200e+002 -2.2571e+002 -1.6493e+001 31106 101214,101266,101240
 3.3000e+000 101318 -5.2273e+001 -8.1672e+001  2.8359e+000 31106 101214,101292,101266
 3.3000e+000 101591 -5.0214e+001 -1.7547e+002  1.1081e+002 30552 101614,101470,101444
 3.3000e+000 101568 -8.2750e+001 -6.2782e+001  4.8886e+001 30552 101366,101496,101470
 3.3000e+000 101545 -1.8408e+001 -1.9943e+002  7.6372e+001 30552 101614,101444,101392
 3.3000e+000 101522 -1.2803e+001 -8.1983e+001 -1.4259e+001 30552 101392,101444,101418
 3.3000e+000 101640 -3.2120e+000 -1.5438e+002  1.1668e+002 30552 101366,101470,101614
 3.3000e+000 101663  2.3164e+001 -1.8107e+002  8.1710e+001 30552 101366,101614,101392
 3.3000e+000 102301  1.4495e+001 -1.5921e+002  5.4875e+000 30042 102396,102324,102059
 3.3000e+000 102278 -4.1112e+001 -1.2016e+002 -1.9536e+001 30042 102324,101981,101955
 3.3000e+000 102255 -6.3376e-001 -1.3568e+002  3.7041e+001 30042 102396,102059,102033
 3.3000e+000 102232  5.5417e+000 -6.4132e+001 -2.0482e+001 30042 101929,102111,101955
 3.3000e+000 102209 -1.4824e+001 -1.1013e+002 -1.5165e+001 30042 102059,102111,102085
 3.3000e+000 102186 -1.4152e+001 -7.8129e+001 -6.4002e+000 30042 101929,102137,102111
 3.3000e+000 102163  8.4608e+000 -2.7980e+001 -3.0808e+001 30042 101981,102033,102007
 3.3000e+000 102350  6.8307e+000 -1.4910e+002 -2.5751e+001 30042 102111,102059,102324
 3.3000e+000 102373  2.1372e+001 -8.7944e+001 -3.2515e+001 30042 102111,102324,101955
 3.3000e+000 102422  2.8447e+001 -8.3052e+001  3.5035e+000 30042 101981,102324,102396
 3.3000e+000 102445  1.4705e+001 -5.8957e+001  3.6069e+001 30042 101981,102396,102033
 3.3000e+000 103000  4.2622e+001 -1.6764e+002  1.5930e+000 29730 103023,102706,102654
 3.3000e+000 102977 -1.2029e+001 -1.6485e+002 -1.8133e+001 29730 103023,102654,102810
 3.3000e+000 102954 -1.2103e+002 -3.3800e+002  1.0695e+000 29730 102732,102810,102784
 3.3000e+000 102931 -3.0656e+001 -2.2274e+002 -3.6755e+001 29730 102628,102810,102654
 3.3000e+000 102908  3.4104e+001 -1.0322e+002  2.2989e+001 29730 102654,102706,102680
 3.3000e+000 102885 -6.7525e+001 -1.1594e+002 -8.3193e+001 29730 102732,102784,102758
 3.3000e+000 102862  2.3172e+001 -2.0025e+002 -3.6584e+001 29730 102628,102836,102810
 3.3000e+000 103049  8.0092e+000 -1.9716e+002 -2.2278e+001 29730 102732,102706,103023
 3.3000e+000 103072 -2.5208e+001 -1.6933e+002 -3.7538e+001 29730 102732,103023,102810
 3.3000e+000 103222  6.7369e+001 -1.4757e+002 -1.0870e+001 29226 103095,103147,103121
 3.3000e+000 103199  4.1151e+001 -1.2627e+002 -1.8277e+001 29226 103095,103173,103147
 3.3000e+000 103730 -5.3327e+000 -1.1746e+002  2.5466e+000 28822 103537,103589,103563
 3.3000e+000 103707 -6.0649e+000 -1.4391e+002 -3.7290e-001 28822 103433,103589,103537
 3.3000e+000 103684 -4.3402e+000 -1.2625e+002 -2.8614e+001 28822 103433,103537,103459
 3.3000e+000 103661 -9.8508e-001 -1.0362e+002  4.0856e+000 28822 103407,103589,103433
 3.3000e+000 103638 -2.3393e+001 -5.7643e+001  2.9138e+001 28822 103459,103511,103485
 3.3000e+000 103615 -3.8866e+001 -3.9505e+001  2.0966e+001 28822 103459,103537,103511
 3.3000e+000 103880  8.4039e+001 -1.2157e+002  4.1711e+001 28368 103975,103903,103779
 3.3000e+000 103857  4.1585e+001 -1.5738e+002  2.4051e+001 28368 103903,103753,103831
 3.3000e+000 103929  4.0623e+001 -1.0053e+002  1.5658e+001 28368 103805,103779,103903
 3.3000e+000 103952 -2.1368e+001 -1.3975e+002 -7.5993e+000 28368 104105,103903,103831
 3.3000e+000 104001  1.1130e+002 -1.3310e+002  1.2408e+000 28368 103753,103903,103975
 3.3000e+000 104131 -2.6411e+001 -1.2078e+002  3.0537e+001 28368 103805,103903,104105
 3.3000e+000 104539  7.4641e-001 -2.4253e+001  1.1701e+001 28028 104562,104340,104314
 3.3000e+000 104516  1.7624e+001  2.5337e+001  8.4972e+000 28028 104634,104562,104314
 3.3000e+000 104493 -1.1684e+001 -2.3132e+001 -2.7874e+001 28028 104762,104366,104340
 3.3000e+000 104470 -1.4865e-001  7.3214e+000 -6.1056e+000 28028 104366,104418,104392
 3.3000e+000 104588  6.8136e+000 -3.5955e+001 -1.0369e+001 28028 104762,104340,104562
 3.3000e+000 104611  1.7299e+000 -2.5836e+001  9.5286e+000 28028 104418,104562,104444
 3.3000e+000 104660  2.1565e+001 -1.7829e+001  6.4098e+000 28028 104444,104562,104634
 3.3000e+000 104788  2.9608e+000 -2.6160e+000 -2.0919e+001 28028 104418,104366,104762
 3.3000e+000 104811  2.5880e+001 -7.6710e+000 -1.5994e+000 28028 104418,104762,104562
 3.3000e+000 105010  4.8490e+000 -1.6961e+001 -1.5317e+000 27324 105033,104886,104860
 3.3000e+000 104987  1.0720e+001 -1.0431e+001  9.9840e+000 27324 105033,104860,104834
 3.3000e+000 104964  1.6683e+001  4.6076e+001 -6.5597e+000 27324 105105,104912,104886
 3.3000e+000 105059  1.8928e+001  2.6792e+001 -9.0279e+000 27324 105105,104886,105033
 3.3000e+000 105082  1.2511e+001 -4.7014e+001 -3.1799e+000 27324 104938,105033,104834
 3.3000e+000 105131  4.8721e+001  2.7411e+001  2.4688e+001 27324 104938,104912,105105
 3.3000e+000 105154  3.2094e+001 -2.0124e+001  1.5691e+001 27324 104938,105105,105033
 3.3000e+000 105402 -4.3706e+001 -1.2293e+002 -6.2971e+000 27012 105229,105281,105255
 3.3000e+000 105379 -1.2565e+001 -6.0010e+001 -2.9155e+001 27012 105229,105307,105281
 3.3000e+000 105356  3.5555e+001 -3.2164e+001 -1.6884e+001 27012 105177,105307,105229
 3.3000e+000 105333 -4.6541e+001 -1.1014e+002 -7.9798e+001 27012 105177,105229,105203
 3.3000e+000 105603  3.1165e+001  1.7072e+001  1.4661e+001 26508 105626,105453,105427
 3.3000e+000 105580  3.7131e+001  3.0863e+001  2.8886e+001 26508 105626,105427,105505
 3.3000e+000 105557  1.1918e+001  3.4336e+001  2.3289e+001 26508 105427,105531,105505
 3.3000e+000 105652  2.2612e+001  1.3523e+001  8.8277e+000 26508 105479,105453,105626
 3.3000e+000 105675  2.2770e+001  1.9574e+001  2.1900e+001 26508 105479,105626,105505
 3.3000e+000 106057 -2.2066e+001 -1.0382e+002  6.2402e+001 25947 106080,105887,105861
 3.3000e+000 106034 -8.9310e+000 -8.1367e+001  4.9694e+001 25947 106080,105861,105783
 3.3000e+000 106011 -7.8723e+000 -6.2374e+001  4.5739e+001 25947 105783,105835,105809
 3.3000e+000 105988 -2.6400e+001 -7.5027e+001  5.3029e+001 25947 105783,105861,105835
 3.3000e+000 105965  2.1840e+001 -6.7838e+001  3.0466e+001 25947 105887,105939,105913
 3.3000e+000 106106 -1.9473e+001 -9.5219e+001  4.2455e+001 25947 105939,105887,106080
 3.3000e+000 106129  7.8778e+000 -5.4868e+001  2.6951e+001 25947 105939,106080,105783
 3.3000e+000 106714 -3.0897e+001 -6.2647e+001  2.2420e+001 25557 106809,106737,106547
 3.3000e+000 106691 -4.1401e+001 -1.0854e+002  4.8480e+001 25557 106737,106417,106391
 3.3000e+000 106668 -1.1693e+001 -5.2948e+001  1.8264e+001 25557 106809,106547,106495
 3.3000e+000 106645 -4.5883e+001 -1.9154e+002  7.7333e+001 25557 106417,106495,106469
 3.3000e+000 106622 -1.7875e+001 -5.0492e+001  2.4632e+001 25557 106495,106547,106521
 3.3000e+000 106599 -5.9187e+001 -1.4432e+002  7.5911e+001 25557 106417,106469,106443
 3.3000e+000 106763 -4.6397e+001 -8.0436e+001  3.0598e+001 25557 106573,106547,106737
 3.3000e+000 106786 -2.2463e+001 -7.0698e+001  3.6028e+001 25557 106573,106737,106391
 3.3000e+000 106835 -6.7598e+000 -7.9172e+001  3.0938e+001 25557 106417,106737,106809
 3.3000e+000 106858  6.3223e+000 -7.1992e+001  2.5580e+001 25557 106417,106809,106495
 3.3000e+000 107364  1.0652e+000 -4.7501e+001 -9.4882e+000 25153 107459,107387,107171
 3.3000e+000 107341  1.0083e+001 -3.4229e+001 -6.5027e+000 25153 107387,107119,107067
 3.3000e+000 107318  1.2775e+000 -2.5122e+001  1.2877e+001 25153 107459,107171,107145
 3.3000e+000 107295  2.9466e-001 -4.4570e+001 -2.5214e+001 25153 107531,107223,107197
 3.3000e+000 107272  2.0036e+001 -7.3669e+000 -3.5509e+000 25153 107067,107119,107093
 3.3000e+000 107249  1.6349e+001 -1.8436e+001 -1.2107e+001 25153 107041,107223,107067
 3.3000e+000 107413 -1.3085e+001 -4.9058e+001 -1.3396e+001 25153 107197,107171,107387
 3.3000e+000 107436  4.4676e+000 -4.9210e+001 -1.5118e+001 25153 107531,107197,107387
 3.3000e+000 107485  1.6689e+001 -7.3880e+000 -7.8155e-002 25153 107119,107387,107459
 3.3000e+000 107508  2.2061e+001  1.2278e+001  2.5274e+001 25153 107119,107459,107145
 3.3000e+000 107557  4.0202e-001 -3.4381e+001 -1.8702e+001 25153 107067,107223,107531
 3.3000e+000 107580  9.0382e+000 -3.0084e+001 -8.3614e+000 25153 107067,107531,107387
 3.3000e+000 107958 -6.7238e-001 -1.1254e+002 -2.3185e+001 24741 107736,107814,107788
 3.3000e+000 107935 -3.2628e+001 -1.4980e+002 -5.1095e+001 24741 107736,107840,107814
 3.3000e+000 107912 -4.9558e+001 -1.4237e+002 -6.1160e+001 24741 107684,107840,107736
 3.3000e+000 107889 -2.6743e+001 -8.4319e+001 -3.1867e+001 24741 107736,107788,107762
 3.3000e+000 107866 -6.2264e+001 -1.8859e+002 -7.1177e+001 24741 107684,107736,107710
 3.3000e+000 108157 -1.6478e+001 -2.3114e+001  3.5762e+000 24237 108180,108059,108007
 3.3000e+000 108134  2.6894e+001  4.7108e-001  1.2617e+001 24237 108180,108007,107981
 3.3000e+000 108111  2.0772e+001 -8.1477e+001  1.0625e+001 24237 108007,108059,108033
 3.3000e+000 108206 -4.2994e+000 -1.0700e+001  4.0304e+001 24237 108085,108059,108180
 3.3000e+000 108229  3.7405e+001  1.2076e+001  4.9088e+001 24237 108085,108180,107981
 3.3000e+000 108658 -3.0171e+001 -1.2281e+002  1.9785e+001 23776 108361,108413,108387
 3.3000e+000 108635 -3.7129e+001 -1.9314e+002 -2.3150e+001 23776 108753,108681,108361
 3.3000e+000 108612 -7.1466e+000 -1.1518e+002 -2.2623e+001 23776 108681,108465,108439
 3.3000e+000 108589 -2.5710e+000 -2.1027e+002  2.1862e+000 23776 108753,108361,108335
 3.3000e+000 108566 -3.0097e+001 -1.8992e+002  7.4212e+001 23776 108335,108517,108465
 3.3000e+000 108543 -3.6886e+001 -1.7817e+002  6.8757e+001 23776 108465,108517,108491
 3.3000e+000 108707 -5.7728e+001 -1.2379e+002 -1.5645e+001 23776 108413,108361,108681
 3.3000e+000 108730 -2.8500e+001 -8.9300e+001  1.7584e+000 23776 108413,108681,108439
 3.3000e+000 108779 -4.3364e+000 -1.1488e+002 -1.3070e+001 23776 108465,108681,108753
 3.3000e+000 108802  2.2017e+000 -1.7795e+002  2.2732e+000 23776 108465,108753,108335
 3.3000e+000 109023  1.1981e+001 -1.4134e+001 -3.1237e+001 23414 108873,108925,108899
 3.3000e+000 109000  5.6612e+001  9.0059e+000 -2.2976e+001 23414 108847,108925,108873
 3.3000e+000 108977  8.6549e+001  1.1301e+002  1.1402e+001 23414 108847,108951,108925
 3.3000e+000 109474  3.7707e+001 -6.9209e+001  1.2620e+001 23024 109151,109307,109177
 3.3000e+000 109451  5.1230e+001  9.2086e+001 -6.1712e+000 23024 109151,109333,109307
 3.3000e+000 109428  2.8877e+001 -1.7894e+002 -5.1207e+000 23024 109177,109281,109203
 3.3000e+000 109405 -2.4837e+001 -1.4809e+002 -2.7632e+001 23024 109177,109307,109281
 3.3000e+000 109382  3.0225e+001 -1.3799e+002  2.0398e+001 23024 109203,109281,109229
 3.3000e+000 109359 -1.0428e+001 -1.2713e+002 -5.5871e+000 23024 109229,109281,109255
 3.3000e+000 109820  1.3680e+001 -1.0420e+002  1.9135e+001 22506 109843,109601,109523
 3.3000e+000 109797  1.6464e+001 -8.7430e+001  1.2344e+001 22506 109843,109523,109497
 3.3000e+000 109774  1.5591e+001 -1.2396e+002  9.5754e+000 22506 109915,109653,109627
 3.3000e+000 109751 -6.9821e+000 -7.6960e+001  9.3116e+000 22506 109497,109679,109653
 3.3000e+000 109728  8.5100e-001 -1.3811e+002 -3.4236e+001 22506 109523,109601,109575
 3.3000e+000 109705 -5.7012e+001 -1.9378e+002 -5.9813e+001 22506 109523,109575,109549
 3.3000e+000 109869  2.6032e+001 -9.1295e+001  2.4657e+001 22506 109627,109601,109843
 3.3000e+000 109892  2.8617e+001 -1.0307e+002  2.1217e+001 22506 109915,109627,109843
 3.3000e+000 109941 -8.6585e-001 -1.0893e+002 -2.9365e+000 22506 109497,109653,109915
 3.3000e+000 109964  7.2367e-001 -1.0840e+002  5.4454e+000 22506 109497,109915,109843
 3.3000e+000 110163  3.7042e+000 -7.7222e+001  5.4297e+000 21936 110186,110039,110013
 3.3000e+000 110140  2.3411e+001 -5.7531e+001  1.5099e+001 21936 110390,110186,110013
 3.3000e+000 110117  4.6484e+001 -7.5875e+001  3.6618e+001 21936 110390,110013,109987
 3.3000e+000 110212  2.1766e+001 -4.6788e+001 -2.4854e+001 21936 110065,110039,110186
 3.3000e+000 110235 -1.1138e+001 -4.7910e+001 -6.6920e+000 21936 110258,110186,110091
 3.3000e+000 110284 -5.3499e+001 -7.5660e+001 -1.9420e+001 21936 110065,110186,110258
 3.3000e+000 110416 -2.7137e+001 -6.6707e+001  1.9736e+001 21936 110091,110186,110390
 3.3000e+000 110439  6.5731e+000 -7.8191e+001  3.9084e+001 21936 110091,110390,109987
 3.3000e+000 110709  4.4931e+001 -1.0045e+002  2.6796e+000 21338 110510,110614,110588
 3.3000e+000 110686  2.4480e+001 -1.4583e+002 -9.0951e+000 21338 110484,110614,110510
 3.3000e+000 110663  7.1853e+001  9.1683e+000  2.8259e+000 21338 110510,110562,110536
 3.3000e+000 110640  2.6039e+001 -1.0037e+002 -5.5947e+000 21338 110510,110588,110562
 3.3000e+000 111296  2.3942e+001 -6.8873e+001 -1.8709e+000 20934 111025,111155,111103
 3.3000e+000 111273 -1.1681e+001 -2.2578e+002 -9.3605e-001 20934 110999,111155,111025
 3.3000e+000 111250 -9.5688e-001 -7.8067e+001 -7.1241e+000 20934 111103,111155,111129
 3.3000e+000 111227 -2.0997e+001 -1.7907e+002 -2.9783e+001 20934 111051,111103,111077
 3.3000e+000 111204 -2.5561e+001 -1.7290e+002 -2.4025e+001 20934 111025,111103,111051
 3.3000e+000 111181 -3.0100e+001 -2.7314e+002 -8.7200e+000 20934 110973,111155,110999
 3.3000e+000 111930 -5.5045e+001 -1.0285e+002 -4.5965e+001 20494 111662,111714,111688
 3.3000e+000 111907 -2.8316e+001 -7.1730e+001 -3.3960e+001 20494 111584,111714,111662
 3.3000e+000 111884 -2.0356e+001 -6.7401e+001 -3.5787e+001 20494 111584,111766,111714
 3.3000e+000 111861  3.0311e+001 -1.3812e+002  5.0469e+000 20494 111584,111636,111610
 3.3000e+000 111838 -2.9449e+001 -8.7742e+001 -3.5843e+001 20494 111584,111662,111636
 3.3000e+000 111815 -8.7452e+000 -3.6780e+001  2.2293e+000 20494 111558,111766,111584
 3.3000e+000 111792 -2.2035e+001 -4.5843e+001  4.3378e+000 20494 111714,111766,111740
 3.3000e+000 112249 -9.5224e+000 -3.0652e+002  2.2414e+001 19940 111975,112053,112001
 3.3000e+000 112226  7.6507e+001 -1.2739e+002 -3.0955e+000 19940 111975,112131,112053
 3.3000e+000 112203  7.1765e+000 -2.8036e+002  0.0000e+000 19940 112053,112105,112079
 3.3000e+000 112180  2.1312e+001 -2.7501e+002  2.0549e+000 19940 112053,112131,112105
 3.3000e+000 112157  3.1052e+001 -2.6320e+002 -8.7115e+000 19940 112001,112053,112027
 3.3000e+000 112757  3.5628e+001 -1.0279e+002 -3.5174e+001 19486 112780,112538,112486
 3.3000e+000 112734  2.9830e+001 -1.1283e+002 -1.5815e+001 19486 112780,112486,112460
 3.3000e+000 112711  2.5875e-001 -9.0722e+001 -1.4799e+001 19486 112852,112616,112590
 3.3000e+000 112688  1.1967e+002 -1.5063e+002 -4.5586e+001 19486 112486,112538,112512
 3.3000e+000 112665 -2.4141e+001 -1.3210e+002  9.2416e+000 19486 112434,112616,112460
 3.3000e+000 112642  3.1537e+000 -8.3595e+001 -2.3192e+001 19486 112538,112590,112564
 3.3000e+000 112806  2.0920e+001 -1.1105e+002 -2.9769e+001 19486 112590,112538,112780
 3.3000e+000 112829  3.4368e+001 -9.9520e+001 -2.2089e+001 19486 112852,112590,112780
 3.3000e+000 112878 -2.1904e+001 -1.0081e+002 -5.6543e+000 19486 112460,112616,112852
 3.3000e+000 112901 -1.8037e+000 -1.2271e+002 -9.3037e+000 19486 112460,112852,112780
 3.3000e+000 113252 -9.0077e+001 -1.8286e+002 -1.0047e+001 19096 113105,113157,113131
 3.3000e+000 113229 -6.9573e+001 -1.2753e+002 -2.7637e+000 19096 113053,113157,113105
 3.3000e+000 113206 -4.9474e+001 -1.1783e+002  2.6336e-001 19096 113027,113157,113053
 3.3000e+000 113183 -1.0538e+002 -2.0588e+002  7.8501e+000 19096 113053,113105,113079
 3.3000e+000 113451 -8.5762e+000 -1.3448e+002 -3.0844e+001 18642 113327,113379,113353
 3.3000e+000 113428 -3.1895e+001 -2.0159e+002 -2.1320e+001 18642 113301,113379,113327
 3.3000e+000 113405  1.0623e+001 -1.6482e+002 -5.5408e+000 18642 113275,113379,113301
 3.3000e+000 113699  2.3140e+001 -1.6556e+002 -6.5728e+000 18138 113474,113552,113526
 3.3000e+000 113676  5.8168e+001 -1.7889e+002 -2.4615e+001 18138 113474,113578,113552
 3.3000e+000 113653  5.3657e+001 -1.7512e+002 -2.3140e+001 18138 113474,113604,113578
 3.3000e+000 113630  6.6947e+001 -1.2969e+002  1.5797e+001 18138 113474,113526,113500
 3.3000e+000 113851 -7.0682e+000 -1.9454e+002 -4.3044e+000 17682 113750,113802,113776
 3.3000e+000 113828  2.7906e+001 -1.7492e+002  4.1990e+000 17682 113724,113802,113750
 3.3000e+000 114383  3.1239e+001 -1.7622e+002 -1.6805e+001 17106 114086,114242,114164
 3.3000e+000 114360  2.4477e+000 -1.8849e+002 -1.6149e+001 17106 114060,114242,114086
 3.3000e+000 114337 -4.6383e+001 -3.2733e+002  2.5024e+001 17106 114086,114164,114138
 3.3000e+000 114314 -8.8197e+001 -5.1130e+002 -1.1975e+001 17106 114190,114242,114216
 3.3000e+000 114291 -4.1217e+001 -3.6072e+002 -3.7500e+001 17106 114164,114242,114190
 3.3000e+000 114268  3.2041e+000 -2.8838e+002  5.7785e+001 17106 114086,114138,114112
 3.3000e+000 114680 -5.7367e+001 -1.8838e+002  3.6724e+000 16766 114703,114432,114406
 3.3000e+000 114657 -6.3815e+001 -1.8652e+002 -1.6524e+000 16766 114703,114406,114510
 3.3000e+000 114634 -6.3800e+001 -1.3880e+002  1.2659e+001 16766 114406,114536,114510
 3.3000e+000 114611 -3.2890e+001 -1.9845e+002 -1.1724e+001 16766 114432,114484,114458
 3.3000e+000 114588 -7.7774e+001 -1.6147e+002  5.4733e+001 16766 114406,114562,114536
 3.3000e+000 114729 -3.2630e+001 -1.8504e+002  7.2906e+000 16766 114484,114432,114703
 3.3000e+000 114752 -5.3617e+001 -1.9353e+002  1.5900e+000 16766 114484,114703,114510
 3.3000e+000 114902  3.5536e+001 -2.9364e+002 -4.3392e+001 16362 114775,114827,114801
 3.3000e+000 114879  4.2342e+001 -2.7768e+002 -4.8707e+001 16362 114775,114853,114827
 3.3000e+000 115054 -3.2440e+002 -5.2486e+002 -2.0987e+001 15908 114953,115005,114979
 3.3000e+000 115031 -3.0223e+002 -5.3684e+002 -1.3837e+001 15908 114927,115005,114953
 3.3000e+000 115326  2.9868e+001 -1.2666e+002  6.3352e+001 15251 115101,115179,115153
 3.3000e+000 115303  1.8636e+001 -1.1595e+002  4.0811e+000 15251 115101,115231,115179
 3.3000e+000 115280  2.2856e+001 -1.0715e+002  2.8261e+000 15251 115179,115231,115205
 3.3000e+000 115257 -1.2027e+002 -6.2011e+002  4.9230e+001 15251 115101,115153,115127
 3.3000e+000 115429 -3.0284e+001 -2.0679e+002  3.8198e+001 421 115351,115403,115377
 3.4000e+000 66230 -4.3082e+001  4.4783e+001  1.4895e+001 65954 66152,66204,66178
 3.4000e+000 66429  6.7444e+000  2.1911e+001  7.2111e+000 65642 66279,66331,66305
 3.4000e+000 66406 -3.9386e+000 -1.2095e+001  4.5139e+000 65642 66279,66357,66331
 3.4000e+000 66383  1.2109e+001  4.2615e+001 -1.3011e+001 65642 66253,66357,66279
 3.4000e+000 66628 -5.3691e+000 -4.6858e+001  1.2124e+001 65444 66452,66530,66478
 3.4000e+000 66605  1.4927e+001 -8.0959e+001 -9.2670e-002 65444 66452,66556,66530
 3.4000e+000 66582 -5.6644e+000 -7.2105e+001  1.5780e+001 65444 66478,66530,66504
 3.4000e+000 67006 -1.6154e+000 -4.7641e+001  2.6467e+000 65246 66732,66810,66758
 3.4000e+000 66983 -1.9803e+000 -2.4080e+001  8.2643e+000 65246 66732,66836,66810
 3.4000e+000 66960 -1.2613e+000 -1.8185e+001  5.5704e+000 65246 66732,66862,66836
 3.4000e+000 66937 -1.0489e-001 -4.0007e+001  3.1122e+000 65246 66758,66810,66784
 3.4000e+000 66914  1.1219e+001 -1.0417e+002 -3.3554e+001 65246 66732,66888,66862
 3.4000e+000 67107  3.8548e+001 -4.0538e+001 -1.4607e+001 64934 67029,67081,67055
 3.4000e+000 67306 -9.1569e+000 -1.2916e+001  1.0764e+001 64736 67156,67208,67182
 3.4000e+000 67283 -4.4805e+000 -9.3338e+000  9.1579e+000 64736 67130,67208,67156
 3.4000e+000 67260  9.4200e+000 -6.0235e+001  1.8947e+001 64736 67130,67234,67208
 3.4000e+000 67507 -1.8346e+000 -5.2633e+001 -7.8946e+000 64389 67357,67409,67383
 3.4000e+000 67484 -8.2409e+000 -4.9083e+001 -1.0615e+001 64389 67357,67435,67409
 3.4000e+000 67461  1.0139e+001 -7.6286e+001 -4.3036e+000 64389 67331,67435,67357
 3.4000e+000 67708  4.1517e+001 -6.3574e+001  1.4893e+001 63985 67731,67584,67558
 3.4000e+000 67685  2.2464e+001 -7.3801e+000  5.1387e+000 63985 67731,67558,67636
 3.4000e+000 67662  7.9429e+000 -1.0082e+001  8.0236e+000 63985 67532,67636,67558
 3.4000e+000 67757  3.3400e+001 -9.2488e+001  1.1570e+001 63985 67610,67584,67731
 3.4000e+000 67780  3.7599e+000 -5.2330e+001 -8.5745e-001 63985 67610,67731,67636
 3.4000e+000 67981 -1.1040e+000  1.0376e+001  2.6293e+000 63787 67857,67909,67883
 3.4000e+000 67958  2.5566e+000  2.2766e+001 -2.9430e+000 63787 67831,67909,67857
 3.4000e+000 67935 -9.9583e+000 -6.8925e+000 -6.5111e+000 63787 67805,67909,67831
 3.4000e+000 68231 -8.0682e-001 -9.2043e+001  7.6419e+000 63589 68254,68084,68032
 3.4000e+000 68208 -4.4301e+000 -3.7068e+001  6.2438e+000 63589 68254,68032,68006
 3.4000e+000 68185  7.4406e+000 -1.8264e+001  1.2754e+001 63589 68326,68136,68110
 3.4000e+000 68162 -1.2792e+000 -8.5996e+001 -1.0366e+001 63589 68032,68084,68058
 3.4000e+000 68280  2.0959e+000 -4.3207e+001  9.6270e+000 63589 68110,68084,68254
 3.4000e+000 68303 -1.3222e+000 -2.1892e+001  1.9389e+001 63589 68326,68110,68254
 3.4000e+000 68352  1.9823e+001 -1.7537e+000 -1.0417e+001 63589 68006,68136,68326
 3.4000e+000 68375  3.8590e+000 -1.1529e+001 -2.8770e+000 63589 68006,68326,68254
 3.4000e+000 68836  4.8028e-001  1.2183e+001  7.1402e+000 63128 68859,68588,68562
 3.4000e+000 68813 -2.5908e+000 -1.5478e+000  2.1218e+001 63128 68859,68562,68692
 3.4000e+000 68790  2.0611e+001 -2.7499e+001  7.5564e+000 63128 68614,68692,68666
 3.4000e+000 68767 -1.0457e+001 -1.2896e+001  1.7163e+001 63128 68562,68718,68692
 3.4000e+000 68744  2.3043e+001 -2.8744e+001 -3.6858e+001 63128 68614,68666,68640
 3.4000e+000 68885  9.3007e+000  3.2680e+001 -5.8444e-001 63128 68614,68588,68859
 3.4000e+000 68908  4.9598e+000  1.4471e+001  1.3176e+001 63128 68614,68859,68692
 3.4000e+000 69237  7.0974e+000 -3.2353e+001  1.0427e+001 62731 69064,69116,69090
 3.4000e+000 69214 -4.2916e+000 -6.9936e+001  1.3761e+000 62731 69064,69142,69116
 3.4000e+000 69191 -1.0054e+001 -6.2258e+001  7.4051e+000 62731 69038,69142,69064
 3.4000e+000 69168 -4.7932e-001 -1.1131e+002  6.6551e+000 62731 69012,69142,69038
 3.4000e+000 69539 -1.5979e-001  2.5851e+001 -4.4761e+000 62433 69389,69467,69441
 3.4000e+000 69516  8.3188e+000 -7.7281e+000  9.0409e-001 62433 69363,69467,69389
 3.4000e+000 69493  4.5774e+000 -5.1513e+000  1.9903e+001 62433 69389,69441,69415
 3.4000e+000 69966  4.3282e+000 -3.2459e+001  2.0862e+001 62235 69989,69773,69721
 3.4000e+000 69943  1.4607e+001 -6.5236e+001 -1.3141e+001 62235 70061,69989,69721
 3.4000e+000 69920  2.7182e+001 -6.5468e+001 -5.8083e+000 62235 70061,69721,69643
 3.4000e+000 69897  9.1547e+000  1.0487e+001  9.7777e+000 62235 69721,69773,69747
 3.4000e+000 69874 -2.5437e+001 -1.9145e+002 -3.0984e-001 62235 69643,69721,69695
 3.4000e+000 69851  7.7660e+001  2.0327e+002 -3.1983e+001 62235 69643,69695,69669
 3.4000e+000 70015 -4.1005e+000 -6.7535e+001  9.7290e+000 62235 69799,69773,69989
 3.4000e+000 70038 -3.5376e+001 -9.3556e+001 -3.6890e+001 62235 69799,69989,69825
 3.4000e+000 70087 -8.8168e+000 -5.9046e+001 -9.7482e+000 62235 69825,69989,70061
 3.4000e+000 70110  9.3380e+000 -5.6710e+001 -5.8304e+000 62235 69825,70061,69643
 3.4000e+000 70260  1.1804e+001 -1.0201e+001 -1.0678e+000 62037 70133,70185,70159
 3.4000e+000 70237 -3.8419e-001 -1.6606e+001 -8.2563e+000 62037 70133,70211,70185
 3.4000e+000 70640 -8.9401e+000 -5.3016e+001  1.5026e+001 61583 70735,70663,70418
 3.4000e+000 70617 -2.9479e+001 -4.8283e+001  1.6593e+001 61583 70663,70366,70522
 3.4000e+000 70594 -3.0653e+000 -4.8729e+001  2.2294e+001 61583 70735,70418,70392
 3.4000e+000 70571 -2.4571e+001 -7.2174e+001  6.8509e+000 61583 70418,70496,70444
 3.4000e+000 70548 -4.9061e+001 -5.8498e+001  2.2491e+000 61583 70444,70496,70470
 3.4000e+000 70689 -3.0130e+001 -7.4493e+001  6.3415e+000 61583 70496,70418,70663
 3.4000e+000 70712 -4.7299e+001 -5.1776e+001  1.0871e+001 61583 70496,70663,70522
 3.4000e+000 70761 -2.8698e+001 -5.7929e+001  3.4239e+000 61583 70366,70663,70735
 3.4000e+000 70784 -1.6729e+001 -5.1015e+001  1.0686e+001 61583 70366,70735,70392
 3.4000e+000 71054 -2.1658e+000  3.1520e-001  2.4150e+000 61313 71077,70881,70855
 3.4000e+000 71031 -1.6113e+000  3.9655e+000  1.2340e+000 61313 71077,70855,70829
 3.4000e+000 71008 -1.9301e+000 -1.4728e+000 -3.9753e+000 61313 70829,70959,70933
 3.4000e+000 70985 -2.5165e-001 -2.0270e-001 -2.7970e-001 61313 70881,70933,70907
 3.4000e+000 71103 -1.0079e+000  2.5199e+000  6.4658e-001 61313 70933,70881,71077
 3.4000e+000 71126 -1.5351e+000  4.7512e+000 -4.6783e-001 61313 70933,71077,70829
 3.4000e+000 71604  1.2079e+000 -6.9425e+001  7.8205e+000 60909 71627,71232,71414
 3.4000e+000 71581 -1.4958e+001 -5.4609e+001 -1.3255e+001 60909 71232,71440,71414
 3.4000e+000 71558  5.3112e+000 -5.2326e+001  1.0486e+001 60909 71627,71414,71336
 3.4000e+000 71535  2.1887e+001 -1.3087e+002  2.9658e+001 60909 71362,71414,71388
 3.4000e+000 71512 -8.0165e+000 -9.3819e+001  2.2860e+000 60909 71336,71414,71362
 3.4000e+000 71489  3.4204e+001 -2.2352e+001 -5.2054e+000 60909 71258,71336,71310
 3.4000e+000 71466 -2.0751e+001 -4.7739e+001  3.0381e+000 60909 71258,71310,71284
 3.4000e+000 71653  3.4200e+000 -5.4234e+001  8.7449e+000 60909 71258,71232,71627
 3.4000e+000 71676  1.3101e+000 -4.5682e+001  1.1338e+001 60909 71258,71627,71336
 3.4000e+000 71875 -1.6865e+000 -4.9452e+000  7.1769e+000 60611 71898,71725,71699
 3.4000e+000 71852 -6.5793e+000 -3.8658e+000  8.8003e+000 60611 71898,71699,71803
 3.4000e+000 71829  9.5881e+000  1.2101e+001 -4.7308e+000 60611 71970,71751,71725
 3.4000e+000 71924  7.0577e+000  1.6891e+000  1.8178e+000 60611 71970,71725,71898
 3.4000e+000 71947 -4.8396e+000 -1.1334e+001  5.4785e+000 60611 71777,71898,71803
 3.4000e+000 71996  2.1425e+000 -1.2611e+000 -2.3417e-001 60611 71777,71751,71970
 3.4000e+000 72019 -1.7617e+000 -8.0983e+000  6.9598e+000 60611 71777,71970,71898
 3.4000e+000 72576  2.9549e+001 -1.3294e+002  1.6235e+001 60142 72599,72256,72230
 3.4000e+000 72553  4.4222e+001 -5.2822e+001  2.7395e+001 60142 72671,72599,72230
 3.4000e+000 72530 -3.2327e+000 -1.9528e+001 -3.8848e+000 60142 72671,72230,72204
 3.4000e+000 72507 -1.5989e+001 -2.9496e+001  1.2472e+001 60142 72743,72360,72334
 3.4000e+000 72484 -1.6134e+000 -2.8713e+001 -1.2612e+001 60142 72815,72282,72256
 3.4000e+000 72461  3.6605e+001  1.9556e+001  2.6589e+001 60142 72887,72308,72282
 3.4000e+000 72438 -2.6606e+001 -1.0820e+002 -1.6472e+001 60142 72204,72412,72386
 3.4000e+000 72625 -1.1534e+001 -9.6754e+001 -2.8254e+001 60142 72815,72256,72599
 3.4000e+000 72648 -4.3573e-001 -5.5926e+001  8.2528e+000 60142 72743,72334,72599
 3.4000e+000 72697  3.0986e+000 -1.0774e+002  9.4445e+000 60142 72386,72599,72671
 3.4000e+000 72720 -2.7170e+001 -6.6357e+001 -1.5722e+001 60142 72386,72671,72204
 3.4000e+000 72769  2.3741e+000 -5.3381e+001  5.8049e+001 60142 72386,72360,72743
 3.4000e+000 72792  6.4491e+000 -1.0367e+002  3.1454e+001 60142 72386,72743,72599
 3.4000e+000 72841  4.2531e+000  3.3996e+000  5.6826e+000 60142 72887,72282,72815
 3.4000e+000 72864  3.9614e+000 -3.6732e+001 -2.8949e+000 60142 72334,72815,72599
 3.4000e+000 72913 -8.5226e+000 -9.3441e+000  9.0878e+000 60142 72334,72308,72887
 3.4000e+000 72936 -2.3615e+001 -1.7069e+001 -1.0355e+001 60142 72334,72887,72815
 3.4000e+000 73491 -8.6756e+000 -1.1774e+002 -2.2586e+001 59738 73145,73327,73171
 3.4000e+000 73468  1.2260e+001 -9.5077e+001 -1.3773e+001 59738 73119,73327,73145
 3.4000e+000 73445 -2.5323e+000 -4.6422e+001  4.0387e+000 59738 73171,73327,73301
 3.4000e+000 73422  1.2266e+001 -5.2446e+001  4.4373e-001 59738 73514,73275,73249
 3.4000e+000 73399  2.0702e+000 -2.8182e+001 -4.8953e+000 59738 73586,73514,73249
 3.4000e+000 73376  1.0799e+001  1.4477e+001 -2.1960e+000 59738 73197,73249,73223
 3.4000e+000 73353  1.3222e+001 -1.9288e+001 -1.5990e+001 59738 73586,73249,73197
 3.4000e+000 73540 -5.4582e-002 -8.4552e+001 -1.2235e+001 59738 73301,73275,73514
 3.4000e+000 73563 -7.5108e+000 -5.3849e+001  1.8805e+000 59738 73301,73514,73171
 3.4000e+000 73612  9.2450e-001 -4.6277e+001  7.3595e+000 59738 73171,73514,73586
 3.4000e+000 73635  4.1412e+000 -3.7946e+001 -2.1537e+000 59738 73171,73586,73197
 3.4000e+000 73964  6.0790e+000 -9.4035e+001 -5.9442e+000 59334 73791,73843,73817
 3.4000e+000 73941 -3.2254e-001 -9.9501e+001 -8.3726e+000 59334 73791,73869,73843
 3.4000e+000 73918 -1.6624e+001 -1.3704e+002 -1.0359e+001 59334 73739,73869,73791
 3.4000e+000 73895  8.9761e+000 -1.6320e+002 -7.3158e+000 59334 73739,73791,73765
 3.4000e+000 74261 -4.3268e+000 -4.0194e+001  1.3195e+001 58630 74065,74117,74091
 3.4000e+000 74238  9.7890e-001 -4.5155e+001 -4.6988e+000 58630 74356,74284,74065
 3.4000e+000 74215  9.5891e+000 -2.7266e+001 -8.2152e-001 58630 74284,74013,73987
 3.4000e+000 74192 -2.6373e+000 -4.4883e+001 -1.8693e+001 58630 74356,74065,74039
 3.4000e+000 74169  8.9039e+000 -2.2910e+001  4.4181e+000 58630 73987,74143,74117
 3.4000e+000 74310  9.2760e+000 -4.8616e+001 -7.1202e-001 58630 74117,74065,74284
 3.4000e+000 74333  9.8551e-001 -3.6659e+001 -4.3997e+000 58630 74117,74284,73987
 3.4000e+000 74382  2.3342e+001 -3.7885e+001 -5.7802e+000 58630 74013,74284,74356
 3.4000e+000 74405  2.0825e+001 -3.6848e+001 -1.9933e+001 58630 74013,74356,74039
 3.4000e+000 74815 -9.7118e+000 -6.4097e+001 -2.6956e+000 58226 74590,74642,74616
 3.4000e+000 74792 -1.1666e+001 -8.2443e+001 -4.7065e+000 58226 74590,74694,74642
 3.4000e+000 74769  1.3230e+001 -1.3542e+002  2.1457e+001 58226 74590,74720,74694
 3.4000e+000 74746 -1.1265e+001 -5.4320e+001 -3.4538e+000 58226 74642,74694,74668
 3.4000e+000 75014  2.3753e+000 -4.3993e+001  3.8148e+000 57786 75037,74864,74838
 3.4000e+000 74991 -1.5069e+000 -3.1521e+001  1.0694e+001 57786 75037,74838,74916
 3.4000e+000 74968 -1.4775e+000 -2.3129e+001 -3.7620e+000 57786 74838,74942,74916
 3.4000e+000 75063 -4.8147e+000 -5.5482e+001 -3.1312e-001 57786 74890,74864,75037
 3.4000e+000 75086 -6.5450e+000 -4.1035e+001  7.1948e+000 57786 74890,75037,74916
 3.4000e+000 75368 -1.8599e+001  3.1470e-001  9.8275e+000 57496 75192,75270,75218
 3.4000e+000 75345  2.7973e+001  1.8240e+001  9.0203e+000 57496 75192,75296,75270
 3.4000e+000 75322  8.9475e+000  6.1560e+000  2.9030e+001 57496 75218,75270,75244
 3.4000e+000 75648  1.5780e+001 -3.6209e+001 -1.2778e+001 57206 75472,75550,75498
 3.4000e+000 75625  3.5002e+001 -2.3014e+001 -2.3333e+001 57206 75472,75576,75550
 3.4000e+000 75602  1.4190e-001  4.3918e+001  2.7526e+000 57206 75671,75550,75524
 3.4000e+000 75697  4.6541e+001 -2.3546e+001 -4.3888e+000 57206 75498,75550,75671
 3.4000e+000 76154 -7.6438e+000 -4.4806e+001  1.1108e+001 56802 75958,76010,75984
 3.4000e+000 76131  1.1401e-001 -2.4859e+001  8.8588e+000 56802 75932,76010,75958
 3.4000e+000 76108 -4.7558e+000 -4.9589e+001  1.5247e+001 56802 75906,76010,75932
 3.4000e+000 76085 -8.5361e+000 -9.6768e+000  1.7217e+001 56802 75880,76010,75906
 3.4000e+000 76062  1.1357e+001 -8.7060e+000 -3.9942e+000 56802 75880,76036,76010
 3.4000e+000 76505 -4.6899e-001 -1.4801e-001  5.3390e-003 56504 76306,76384,76332
 3.4000e+000 76482 -4.5551e-001 -1.1164e-001 -1.1266e-002 56504 76306,76410,76384
 3.4000e+000 76459 -9.6965e-001  1.4476e-001  5.0929e-001 56504 76332,76384,76358
 3.4000e+000 76436 -2.9350e-001 -2.3711e-002  2.2390e-002 56504 76280,76410,76306
 3.4000e+000 77011  2.4697e+001 -8.9942e+000 -2.1179e+001 56050 76740,76818,76792
 3.4000e+000 76988  6.7640e+000 -1.4866e+001 -2.7291e+001 56050 76714,76818,76740
 3.4000e+000 76965  7.0104e+000 -2.6738e+001 -2.5156e+001 56050 76688,76818,76714
 3.4000e+000 76942  3.7025e+001  1.2188e+001 -5.7733e+000 56050 76688,76844,76818
 3.4000e+000 76919  1.6607e+001 -1.5084e+001 -1.8255e+001 56050 76740,76792,76766
 3.4000e+000 76896  2.2090e+001  2.0872e+000  6.6775e+000 56050 76688,76870,76844
 3.4000e+000 77517 -4.2100e+001 -3.0766e+001  1.8115e+001 55738 77220,77350,77324
 3.4000e+000 77494 -7.7486e+000 -5.7825e+001 -1.3241e+001 55738 77220,77376,77350
 3.4000e+000 77471  1.2739e+001 -1.9936e+001 -5.4082e+000 55738 77194,77376,77220
 3.4000e+000 77448 -3.8779e+000 -1.7959e+001  9.0805e+000 55738 77220,77298,77246
 3.4000e+000 77425 -1.9519e+001 -2.5825e+001  2.0202e+001 55738 77220,77324,77298
 3.4000e+000 77402 -3.6634e+001 -2.1857e+001  8.6719e+001 55738 77246,77298,77272
 3.4000e+000 78064  2.7749e+001 -6.1003e+001 -7.7869e+000 55227 78231,78087,77773
 3.4000e+000 78041 -1.3318e+001 -1.3669e+002  5.1109e+000 55227 78087,77695,77643
 3.4000e+000 78018 -1.9148e-001 -8.4470e+001 -2.5979e+001 55227 78159,77799,77773
 3.4000e+000 77995  8.8307e+000 -2.2082e+001  2.2153e+000 55227 78231,77773,77721
 3.4000e+000 77972 -2.8162e+001 -3.7752e+001  3.0205e+001 55227 77643,77695,77669
 3.4000e+000 77949 -1.1467e+001 -5.2420e+001 -5.1011e+000 55227 77643,77877,77851
 3.4000e+000 77926 -7.9331e+000 -6.3848e+001  1.0519e-001 55227 77799,77851,77825
 3.4000e+000 77903  1.6400e+001  8.2974e+000 -1.6308e+001 55227 77721,77773,77747
 3.4000e+000 78113  1.3758e+001 -9.1401e+001 -1.9400e+001 55227 78159,77773,78087
 3.4000e+000 78136  1.8513e+001 -6.2423e+001  5.7797e-001 55227 77851,78087,77643
 3.4000e+000 78185 -2.6177e+001 -8.8546e+001 -2.2822e+001 55227 77851,77799,78159
 3.4000e+000 78208 -1.1582e+001 -9.5222e+001 -1.7309e+001 55227 77851,78159,78087
 3.4000e+000 78257  1.0315e+001 -1.0530e+002 -2.3976e+001 55227 77695,78087,78231
 3.4000e+000 78280 -1.3072e+001 -6.5248e+001 -1.7944e+001 55227 77695,78231,77721
 3.4000e+000 78737  1.4898e+001 -2.7221e+001 -8.6117e+000 54773 78463,78541,78515
 3.4000e+000 78714 -1.1528e+001 -4.9776e+001  9.8937e-001 54773 78463,78619,78541
 3.4000e+000 78691  2.4737e+001 -3.3208e-001  1.4446e+000 54773 78463,78515,78489
 3.4000e+000 78668 -1.3043e+001 -2.4065e+001 -7.1580e+000 54773 78541,78593,78567
 3.4000e+000 78645  2.6228e-001 -3.4287e+001 -1.1491e+001 54773 78541,78619,78593
 3.4000e+000 78838 -1.9746e-002 -3.3424e+000 -4.1635e-001 54211 78760,78812,78786
 3.4000e+000 79297  8.2082e+000 -3.7047e+001  6.1066e+000 53814 79520,79153,79049
 3.4000e+000 79274  1.0657e+001 -2.3644e+001 -9.4425e+000 53814 79520,79049,79023
 3.4000e+000 79251 -1.2222e+001 -5.6726e+001  1.2679e+001 53814 79320,79101,79049
 3.4000e+000 79228  9.3357e-001 -2.5514e+001  6.5436e+000 53814 79320,79049,79153
 3.4000e+000 79205  1.6181e+000 -5.2294e+001  1.6255e+001 53814 79049,79101,79075
 3.4000e+000 79346 -3.8721e+000 -2.5719e+001 -9.5173e+000 53814 79392,79320,79127
 3.4000e+000 79369  1.3997e-001 -2.4986e+001 -1.1583e+001 53814 79127,79320,79153
 3.4000e+000 79418 -5.0185e+000 -5.2651e+001 -1.4167e+001 53814 79101,79320,79392
 3.4000e+000 79546 -4.9228e+000 -6.3487e+001  2.0738e+001 53814 79179,79153,79520
 3.4000e+000 79569  1.8238e+001 -4.0767e+001  5.4688e-001 53814 79179,79520,79023
 3.4000e+000 80075 -2.7345e+001  6.9298e+000  1.0008e+001 53039 80098,79908,79830
 3.4000e+000 80052 -3.8042e+001  3.9257e+000 -1.7949e+001 53039 80098,79830,79804
 3.4000e+000 80029  2.2528e+000  1.6605e+001 -5.9149e+000 53039 79752,79934,79804
 3.4000e+000 80006 -4.3842e+000 -5.7237e+001  2.6822e+001 53039 79856,79908,79882
 3.4000e+000 79983  4.4561e+001 -9.4746e+001  1.3646e+001 53039 79830,79908,79856
 3.4000e+000 79960 -6.0773e-001  5.2316e+000 -4.6419e+000 53039 79752,79804,79778
 3.4000e+000 80124  1.7165e+001  3.2325e+001  2.2701e+001 53039 79934,79908,80098
 3.4000e+000 80147 -1.8895e+001  1.5785e+001 -7.3749e+000 53039 79934,80098,79804
 3.4000e+000 80555  2.6171e+001 -5.9530e+000 -2.1535e+000 52699 80356,80434,80408
 3.4000e+000 80532  6.7950e+000 -2.8605e+001  6.2734e+000 52699 80356,80460,80434
 3.4000e+000 80509 -4.4572e+000 -3.3769e+001  4.7432e+000 52699 80330,80460,80356
 3.4000e+000 80486 -3.2858e+001 -5.2901e+001  4.8066e+001 52699 80356,80408,80382
 3.4000e+000 80776  1.2840e+001  2.3971e+001 -6.8880e+000 52295 80600,80678,80626
 3.4000e+000 80753 -8.3444e+000  9.2277e+000 -4.2628e-001 52295 80600,80704,80678
 3.4000e+000 80730 -2.2454e+001  9.4876e+000 -4.8027e+000 52295 80626,80678,80652
 3.4000e+000 81156 -1.4127e+000 -6.0229e+001  1.5083e+001 51891 81179,80960,80908
 3.4000e+000 81133  1.6850e+000 -5.8755e+001 -5.5021e+000 51891 81179,80908,81012
 3.4000e+000 81110 -1.8051e+001 -4.3852e+001 -1.3248e+001 51891 80882,81012,80908
 3.4000e+000 81087  1.3802e+001 -5.1242e+001  2.0003e+001 51891 80908,80960,80934
 3.4000e+000 81064 -6.1949e+000 -1.0399e+001 -9.7639e+000 51891 80882,81038,81012
 3.4000e+000 81205  2.3998e+001 -4.8920e+001  1.7142e+001 51891 80986,80960,81179
 3.4000e+000 81228  1.0405e+001 -5.4801e+001 -4.3467e+000 51891 80986,81179,81012
 3.4000e+000 81606  7.8388e+000 -2.1280e+002 -7.5048e+001 51544 81410,81462,81436
 3.4000e+000 81583  2.4198e+001 -6.9964e+001 -8.8022e+000 51544 81384,81462,81410
 3.4000e+000 81560 -1.4565e+001 -9.1266e+001 -2.2505e+001 51544 81358,81462,81384
 3.4000e+000 81537 -8.7549e+000 -8.2254e+001 -3.5605e+001 51544 81358,81488,81462
 3.4000e+000 81514  1.3340e+001 -2.2534e+001 -2.7137e+001 51544 81332,81488,81358
 3.4000e+000 81854  1.9682e+000 -5.1280e+001  1.1078e+000 51004 81877,81655,81629
 3.4000e+000 81831  1.4956e+000 -2.6952e+001 -3.8837e+000 51004 81877,81629,81759
 3.4000e+000 81808  5.7886e+000 -2.7377e+001  2.8850e+001 51004 81655,81707,81681
 3.4000e+000 81785 -1.1769e+001 -4.9153e+001 -1.8952e+000 51004 81707,81759,81733
 3.4000e+000 81903  4.1092e+000 -6.2601e+001  2.2469e+000 51004 81707,81655,81877
 3.4000e+000 81926 -6.3568e+000 -5.4024e+001 -6.8525e+000 51004 81707,81877,81759
 3.4000e+000 82257 -1.9858e+001 -6.6758e+001 -1.1164e+001 50642 82058,82136,82110
 3.4000e+000 82234 -2.3354e+001 -3.2255e+001 -2.1069e+001 50642 82058,82162,82136
 3.4000e+000 82211 -1.0981e+001 -5.5291e+001 -2.4255e+001 50642 82058,82110,82084
 3.4000e+000 82188  2.2864e+001 -1.3501e+001 -6.0100e+000 50642 82032,82162,82058
 3.4000e+000 82684  3.4250e+001 -1.4773e+002  2.8072e+001 49931 82779,82707,82465
 3.4000e+000 82661 -1.2149e+001 -1.8276e+002  3.3485e+001 49931 82707,82413,82361
 3.4000e+000 82638 -3.8680e+000 -1.4052e+002 -3.2559e+001 49931 82779,82465,82439
 3.4000e+000 82615  3.7075e+000 -3.2946e+002  3.4514e+001 49931 82465,82543,82491
 3.4000e+000 82592 -1.7447e+001 -1.2970e+002 -3.0744e+000 49931 82361,82413,82387
 3.4000e+000 82569  4.5821e+000 -2.5523e+002  3.0268e+001 49931 82491,82543,82517
 3.4000e+000 82733  6.8506e+001 -1.7827e+002  2.9176e+001 49931 82543,82465,82707
 3.4000e+000 82756  1.7099e+001 -1.5210e+002  2.0345e+001 49931 82543,82707,82361
 3.4000e+000 82805 -6.0699e+000 -2.3359e+002  1.3220e+000 49931 82413,82707,82779
 3.4000e+000 82828 -2.6949e+001 -2.1186e+002 -5.6173e+001 49931 82413,82779,82439
 3.4000e+000 83255 -8.6504e+000 -1.9625e+002 -3.0483e+001 49327 82984,83114,83036
 3.4000e+000 83232 -2.6953e+001 -2.3421e+002 -6.0602e+001 49327 82958,83114,82984
 3.4000e+000 83209 -3.1805e+001 -2.6770e+002 -5.0260e+000 49327 83036,83114,83088
 3.4000e+000 83186 -6.2710e+001 -1.4486e+002  9.9736e+000 49327 82984,83036,83010
 3.4000e+000 83163 -4.3243e+001 -2.1563e+002 -4.9725e+001 49327 82932,83114,82958
 3.4000e+000 83140 -8.1486e+001 -4.4317e+002 -4.8976e+000 49327 83036,83088,83062
 3.4000e+000 83938 -2.1906e+001 -2.7430e+002  6.4676e+001 48965 83961,83673,83647
 3.4000e+000 83915  2.2897e+001 -1.1244e+002  7.1493e+001 48965 83961,83647,83543
 3.4000e+000 83892 -1.8349e+001 -1.2672e+002 -2.0824e+001 48965 83517,83725,83543
 3.4000e+000 83869 -4.3290e+001 -1.8459e+002 -3.1411e+001 48965 83673,83725,83699
 3.4000e+000 83846 -2.3240e+001 -5.0058e+001  1.4034e+000 48965 83543,83647,83621
 3.4000e+000 83823 -7.8005e+000 -7.2517e+001 -5.4017e+000 48965 83543,83621,83569
 3.4000e+000 83800 -2.6457e+000 -1.1311e+002  4.4572e+000 48965 83517,83751,83725
 3.4000e+000 83777 -7.6216e-001 -6.3820e+001  9.8303e+000 48965 83569,83621,83595
 3.4000e+000 83987 -1.4680e+001 -2.4857e+002 -4.0367e+001 48965 83725,83673,83961
 3.4000e+000 84010  1.2782e+001 -1.8255e+002 -1.4048e+001 48965 83725,83961,83543
 3.4000e+000 84258 -1.0177e+001 -1.7642e+002  2.2582e+001 48447 84281,84059,84033
 3.4000e+000 84235  3.8567e+000 -1.3847e+002 -1.4831e+000 48447 84281,84033,84163
 3.4000e+000 84212  2.0254e+001 -1.2836e+002 -2.1531e+001 48447 84059,84111,84085
 3.4000e+000 84189  2.6219e+001 -1.2028e+002 -3.3565e+001 48447 84111,84163,84137
 3.4000e+000 84307  1.1575e+001 -1.6786e+002 -6.9245e+000 48447 84111,84059,84281
 3.4000e+000 84330  3.3692e+001 -1.4233e+002 -3.0254e+001 48447 84111,84281,84163
 3.4000e+000 84529  3.1435e+001 -1.0111e+002 -7.8043e+000 47993 84552,84405,84379
 3.4000e+000 84506 -3.2013e+000 -1.0963e+002 -2.4671e+000 47993 84552,84379,84353
 3.4000e+000 84483  1.0468e+001 -1.0582e+002 -1.5744e+001 47993 84624,84457,84431
 3.4000e+000 84578  4.6815e+001 -9.9293e+001 -2.4084e+001 47993 84431,84405,84552
 3.4000e+000 84601  1.7839e+001 -1.0641e+002 -1.4494e+001 47993 84624,84431,84552
 3.4000e+000 84650  1.7992e+001 -1.0750e+002 -1.0299e+001 47993 84353,84457,84624
 3.4000e+000 84673  2.8178e+001 -1.0331e+002 -7.1598e+000 47993 84353,84624,84552
 3.4000e+000 85104 -2.6338e+001 -1.9116e+002 -1.7900e+001 47588 85199,85127,84885
 3.4000e+000 85081 -1.9181e+001 -2.0298e+002 -2.3891e+001 47588 85127,84781,84963
 3.4000e+000 85058 -5.5337e+001 -1.8477e+002  1.4898e+001 47588 85199,84885,84807
 3.4000e+000 85035 -4.1499e+000 -1.2568e+002  6.4356e+001 47588 84885,84937,84911
 3.4000e+000 85012 -2.3269e+001 -1.1250e+002 -9.8179e+000 47588 84807,84885,84833
 3.4000e+000 84989 -9.5431e+000 -1.0489e+002  2.1958e+001 47588 84833,84885,84859
 3.4000e+000 85153 -2.3461e+001 -2.2845e+002 -3.5180e+000 47588 84937,84885,85127
 3.4000e+000 85176  4.8003e+001 -2.0787e+002 -4.9924e+000 47588 84937,85127,84963
 3.4000e+000 85225 -8.1034e+001 -2.1140e+002 -1.6048e+001 47588 84781,85127,85199
 3.4000e+000 85248 -9.9618e+001 -2.0370e+002  2.1200e+001 47588 84781,85199,84807
 3.4000e+000 85518 -5.0586e+001 -3.3273e+002  5.5218e+001 47226 85293,85397,85319
 3.4000e+000 85495 -3.1152e+001 -2.9546e+002  2.4598e+001 47226 85293,85423,85397
 3.4000e+000 85472 -1.9713e+001 -3.4893e+002 -1.3186e+001 47226 85319,85397,85345
 3.4000e+000 85449  3.4775e+001 -8.5822e+001 -1.6217e+001 47226 85345,85397,85371
 3.4000e+000 85849 -2.0686e+001 -1.6051e+002  4.0108e+001 46572 85624,85702,85650
 3.4000e+000 85826 -1.8463e+001 -2.3649e+002 -9.7410e+000 46572 85624,85754,85702
 3.4000e+000 85803  4.3174e+001 -1.2527e+002  2.4472e+001 46572 85702,85754,85728
 3.4000e+000 85780 -1.5382e+001 -1.5866e+002  4.0999e+001 46572 85650,85702,85676
 3.4000e+000 86070 -1.7003e+002 -2.5601e+002 -6.2036e+000 46374 85920,85972,85946
 3.4000e+000 86047 -1.1028e+002 -1.1495e+002  2.6850e+000 46374 85920,85998,85972
 3.4000e+000 86024 -7.0622e+001 -8.7776e+001  2.6703e+001 46374 85894,85998,85920
 3.4000e+000 86401  1.0904e+001 -1.3334e+002  5.3992e+000 46034 86424,86280,86228
 3.4000e+000 86378 -3.0935e+001 -1.2871e+002  2.4264e+000 46034 86424,86228,86176
 3.4000e+000 86355 -4.1449e+001 -1.0339e+002 -4.1410e+001 46034 86176,86228,86202
 3.4000e+000 86332  5.1183e+001 -1.1527e+002 -4.2214e+001 46034 86228,86280,86254
 3.4000e+000 86450  8.6599e+001 -1.3905e+002 -1.2440e+001 46034 86306,86280,86424
 3.4000e+000 86473  6.2315e+000 -1.6200e+002 -1.8465e+001 46034 86306,86424,86176
 3.4000e+000 87058  1.0247e+001 -1.1495e+002  2.0845e+001 45516 86813,86917,86865
 3.4000e+000 87035 -1.3516e+001 -1.8039e+002  1.2516e+001 45516 86787,86917,86813
 3.4000e+000 87012 -3.7320e+000 -2.0510e+002  2.0907e+001 45516 86735,86917,86787
 3.4000e+000 86989  4.7735e+000 -1.2050e+002  2.3235e+001 45516 86865,86917,86891
 3.4000e+000 86966  1.6079e+001 -1.1479e+002  2.2317e+001 45516 86813,86865,86839
 3.4000e+000 86943 -1.4312e+001 -2.9711e+002 -2.6464e+000 45516 86735,86787,86761
 3.4000e+000 87208  5.3191e+001 -7.4676e+001 -1.5754e+001 45226 87231,87133,87107
 3.4000e+000 87185  1.1146e+001 -4.0490e+001  1.0468e-001 45226 87081,87159,87133
 3.4000e+000 87257  4.2188e+001  2.3083e+001 -1.4619e+001 45226 87081,87133,87231
 3.4000e+000 87537  3.3830e+001 -1.4965e+002  2.5716e+001 44772 87387,87439,87413
 3.4000e+000 87514 -9.1704e+000 -1.6548e+002  2.3391e+001 44772 87361,87439,87387
 3.4000e+000 87491  1.2775e+001 -1.0582e+002  8.3628e+000 44772 87361,87465,87439
 3.4000e+000 87996  2.4490e+000  1.3184e+000  1.1258e+001 44425 87748,87878,87852
 3.4000e+000 87973 -3.0098e-001  7.0717e-001  8.3851e-001 44425 87722,87878,87748
 3.4000e+000 87950  5.8309e-001 -2.6275e+001 -1.4539e+000 44425 87800,87852,87826
 3.4000e+000 87927  1.7931e+001 -7.8423e+000  1.2025e+001 44425 87748,87852,87800
 3.4000e+000 87904 -1.3286e+001 -2.8672e+001 -8.1873e+000 44425 87748,87800,87774
 3.4000e+000 88423 -2.1712e+000 -1.2208e+002  1.0512e+001 44078 88590,88230,88204
 3.4000e+000 88400  1.5230e+000 -7.3303e+001  1.8495e+001 44078 88518,88446,88204
 3.4000e+000 88377  6.0806e+000 -1.3303e+002 -2.1910e+001 44078 88446,88126,88282
 3.4000e+000 88354 -1.9580e+001 -4.4717e+001  1.3930e+000 44078 88518,88204,88178
 3.4000e+000 88331  2.2254e+000 -1.6208e+002 -2.1896e+001 44078 88100,88282,88126
 3.4000e+000 88308 -9.7737e+000 -6.6154e+001  2.3768e+001 44078 88126,88178,88152
 3.4000e+000 88472 -6.1731e+000 -1.3189e+002  1.2217e+001 44078 88590,88204,88446
 3.4000e+000 88495 -1.3499e+001 -2.0712e+002 -3.4710e+001 44078 88256,88446,88282
 3.4000e+000 88544 -1.0934e+001 -1.3776e+002  1.4797e+001 44078 88126,88446,88518
 3.4000e+000 88567 -1.2757e+001 -8.1546e+001  1.7214e+000 44078 88126,88518,88178
 3.4000e+000 88616 -7.3195e+001 -2.9197e+002 -2.2656e+001 44078 88256,88230,88590
 3.4000e+000 88639 -9.1351e-001 -1.2590e+002 -9.6357e-001 44078 88256,88590,88446
 3.4000e+000 89039  1.2265e+001 -1.4134e+001  9.7382e+000 43716 88791,88921,88895
 3.4000e+000 89016 -3.2731e+000  4.2093e+000  1.0592e+001 43716 88765,88921,88791
 3.4000e+000 88993  3.1418e+001 -1.8011e+001  1.5186e+001 43716 88817,88895,88869
 3.4000e+000 88970  1.9866e+000 -2.2939e+001  1.5726e+001 43716 88791,88895,88817
 3.4000e+000 88947 -5.4546e-001 -1.0065e+001 -2.5620e+000 43716 88817,88869,88843
 3.4000e+000 89496  6.3237e-001 -2.1269e+002 -2.4406e+001 43162 89519,89274,89248
 3.4000e+000 89473  9.9961e+000 -1.4193e+002 -1.0521e+001 43162 89519,89248,89222
 3.4000e+000 89450  1.1874e+001 -1.0336e+002 -5.1188e+001 43162 89326,89378,89352
 3.4000e+000 89427 -4.9357e+000 -1.4644e+002 -1.8262e+001 43162 89274,89378,89326
 3.4000e+000 89404  9.7296e+000 -1.4514e+002 -1.5211e+001 43162 89274,89326,89300
 3.4000e+000 89545 -2.8575e+000 -1.4935e+002 -8.6362e+000 43162 89378,89274,89519
 3.4000e+000 89568  1.0372e+001 -7.3853e+001  6.0380e+000 43162 89378,89519,89222
 3.4000e+000 89946 -1.9053e+001 -1.1912e+002 -7.8859e+001 42594 90041,89969,89750
 3.4000e+000 89923 -1.1461e+001 -1.0350e+002 -3.1375e+001 42594 89969,89698,89828
 3.4000e+000 89900  1.9445e+001 -1.3622e+002 -7.0952e+001 42594 90041,89750,89724
 3.4000e+000 89877 -3.6832e+001 -9.4408e+001 -2.6827e+001 42594 89750,89802,89776
 3.4000e+000 89854  2.7587e+001 -4.9832e+001 -1.3663e+001 42594 89672,89828,89698
 3.4000e+000 89995 -5.5291e+001 -9.5707e+001 -5.3418e+001 42594 89802,89750,89969
 3.4000e+000 90018  1.0519e+001 -2.4881e+001 -1.0369e+001 42594 89802,89969,89828
 3.4000e+000 90067  1.6295e+001 -9.4351e+001 -6.4247e+001 42594 89698,89969,90041
 3.4000e+000 90090  5.6603e+001 -1.2007e+002 -6.5181e+001 42594 89698,90041,89724
 3.4000e+000 90517  1.4760e+001 -1.5837e+002 -1.8272e+001 42140 90540,90220,90194
 3.4000e+000 90494  1.6876e+001 -1.7562e+002 -1.9095e+001 42140 90540,90194,90376
 3.4000e+000 90471 -2.1896e+001 -1.7196e+002  4.0466e+000 42140 90612,90350,90272
 3.4000e+000 90448 -4.4789e+001 -1.4570e+002 -6.5222e+000 42140 90272,90350,90298
 3.4000e+000 90425 -3.7069e+001 -1.3590e+002 -1.3788e+001 42140 90298,90350,90324
 3.4000e+000 90402  2.4260e+001 -9.2507e+001 -2.8355e-001 42140 90220,90272,90246
 3.4000e+000 90566  8.7315e+000 -9.7110e+001 -1.3403e+001 42140 90272,90220,90540
 3.4000e+000 90589 -1.7593e+001 -1.6211e+002 -3.3301e+000 42140 90612,90272,90540
 3.4000e+000 90638 -4.0202e+000 -1.9122e+002 -1.3758e+001 42140 90376,90350,90612
 3.4000e+000 90661  1.9360e+001 -1.6416e+002 -2.4804e+001 42140 90376,90612,90540
 3.4000e+000 91167 -1.6439e+001 -8.4784e+001 -8.6384e+000 41636 91190,90870,90844
 3.4000e+000 91144 -3.0211e+001 -2.8173e+002 -1.0030e+000 41636 91190,90844,91026
 3.4000e+000 91121 -5.2394e+000 -3.0758e+001 -2.5086e+001 41636 90870,90922,90896
 3.4000e+000 91098  9.1439e+000 -2.2731e+002  9.4591e+000 41636 90922,91026,90948
 3.4000e+000 91075  3.0988e+001 -1.7571e+002 -3.8699e+001 41636 90948,91026,91000
 3.4000e+000 91052 -2.8297e+001 -6.8297e+001  3.4577e+001 41636 90948,91000,90974
 3.4000e+000 91216 -3.9184e+001 -2.9990e+001 -6.6845e+000 41636 90922,90870,91190
 3.4000e+000 91239  3.9833e+001 -9.8009e+001  2.6962e+001 41636 90922,91190,91026
 3.4000e+000 91696 -1.3168e+001 -1.4550e+002 -1.9288e+001 40449 91448,91526,91474
 3.4000e+000 91673 -5.7621e+001 -1.7370e+002  2.7820e+000 40449 91448,91578,91526
 3.4000e+000 91650  2.1815e+001 -5.2119e+001 -6.3192e+000 40449 91474,91526,91500
 3.4000e+000 91627  1.7964e+000 -1.4150e+002  1.5234e+001 40449 91422,91578,91448
 3.4000e+000 91604  2.0586e+001 -1.1987e+002 -2.3328e+001 40449 91526,91578,91552
 3.4000e+000 92123 -1.3163e+001 -1.4647e+002 -4.8196e+000 39995 92146,91904,91826
 3.4000e+000 92100 -3.5203e+001 -1.5972e+002 -2.9354e+001 39995 92146,91826,91800
 3.4000e+000 92077 -6.7231e+001 -1.0855e+002 -1.2207e+001 39995 91826,91904,91852
 3.4000e+000 92054 -4.5359e+001 -2.9523e+002 -3.6841e+001 39995 91904,91982,91930
 3.4000e+000 92031 -1.4286e+001 -8.0986e+001  2.3591e+000 39995 91852,91904,91878
 3.4000e+000 92008 -1.8279e+001 -2.2315e+002 -4.4749e+001 39995 91930,91982,91956
 3.4000e+000 92172  2.8429e+000 -1.7603e+002 -2.8878e+001 39995 91982,91904,92146
 3.4000e+000 92195 -2.2529e+001 -2.1330e+002 -5.0514e+001 39995 91982,92146,91800
 3.4000e+000 92652  3.6863e+000  2.1484e+001  1.5151e+001 39633 92404,92534,92456
 3.4000e+000 92629 -1.1469e+001  1.5454e+001  9.6805e+000 39633 92378,92534,92404
 3.4000e+000 92606 -6.0118e+000  1.5810e+001  3.6101e+000 39633 92404,92456,92430
 3.4000e+000 92583  1.1531e+001 -1.8066e+000  2.4554e+000 39633 92456,92534,92508
 3.4000e+000 92560 -3.0489e-001 -6.0479e-001 -3.6696e+000 39633 92456,92508,92482
 3.4000e+000 93079  3.0012e+001 -5.7423e+001 -1.3267e+001 39093 93102,92808,92756
 3.4000e+000 93056  8.5632e+000 -7.8177e+001 -1.1850e+000 39093 93102,92756,92938
 3.4000e+000 93033  2.5813e+000 -5.7758e+001 -1.6304e+001 39093 93174,92912,92834
 3.4000e+000 93010 -1.4089e+000 -8.5124e+001 -2.9300e+001 39093 92834,92912,92860
 3.4000e+000 92987  2.5817e+001 -5.5697e+001 -8.9561e+000 39093 92756,92808,92782
 3.4000e+000 92964  1.2287e+001 -2.9448e+001 -6.1795e+000 39093 92860,92912,92886
 3.4000e+000 93128  9.4255e+000 -2.8565e+001 -1.7409e+001 39093 92834,92808,93102
 3.4000e+000 93151  5.3772e+000 -5.2416e+001 -1.3781e+001 39093 93174,92834,93102
 3.4000e+000 93200  1.4333e+000 -5.7242e+001 -1.9187e+001 39093 92938,92912,93174
 3.4000e+000 93223  1.3783e-001 -5.5512e+001 -1.7205e+001 39093 92938,93174,93102
 3.4000e+000 93680 -7.0890e+000 -1.1908e+001  8.8622e-001 38639 93703,93536,93484
 3.4000e+000 93657 -1.1657e+001 -9.1040e+000  1.8958e+000 38639 93703,93484,93432
 3.4000e+000 93634 -1.2322e+000 -1.1375e+001  8.8835e+000 38639 93432,93484,93458
 3.4000e+000 93611 -1.6334e+001 -4.0310e+001 -1.7405e+001 38639 93484,93536,93510
 3.4000e+000 93588  2.7155e+000  1.0920e+001  1.2115e+001 38639 93406,93562,93432
 3.4000e+000 93729 -1.0800e+001 -1.2164e+001 -7.4572e-002 38639 93562,93536,93703
 3.4000e+000 93752 -1.7480e+001 -1.0857e+001  1.7229e+000 38639 93562,93703,93432
 3.4000e+000 94160  1.2642e+001  9.4873e+000 -8.9680e+000 38292 93935,94039,93961
 3.4000e+000 94137 -1.7026e+000 -3.5851e+001  5.8414e+000 38292 93935,94065,94039
 3.4000e+000 94114 -8.0596e+000 -4.2383e+001 -1.2840e+001 38292 93961,94013,93987
 3.4000e+000 94091  9.0100e+000 -5.4661e+001 -2.7971e+000 38292 93961,94039,94013
 3.4000e+000 94408  3.2520e+001 -7.2237e+001  9.1584e+000 37880 94431,94261,94235
 3.4000e+000 94385  5.7831e+001 -6.5938e+001  2.0543e+001 37880 94431,94235,94313
 3.4000e+000 94362  4.1715e+001 -7.8115e+001  3.6576e+001 37880 94209,94313,94235
 3.4000e+000 94339  6.3334e+001  1.5774e+000 -1.1591e+001 37880 94183,94313,94209
 3.4000e+000 94457 -1.2915e+001 -5.9393e+001  9.6384e+000 37880 94287,94261,94431
 3.4000e+000 94480  2.8402e+001 -4.3916e+001  1.8545e+001 37880 94287,94431,94313
 3.4000e+000 94728 -6.2638e+001 -1.9604e+002  4.5639e+000 37426 94529,94607,94555
 3.4000e+000 94705 -2.6764e+000 -2.8898e+002 -2.8009e+001 37426 94529,94633,94607
 3.4000e+000 94682 -1.8980e+001 -2.9665e+002 -3.1373e+001 37426 94503,94633,94529
 3.4000e+000 94659 -3.0252e+001 -8.2445e+001 -4.9987e+001 37426 94555,94607,94581
 3.4000e+000 95257  2.3952e+000 -5.4103e+001 -1.7297e+000 36722 95496,95280,94862
 3.4000e+000 95234 -5.1532e+001 -8.2361e+001 -3.6485e+001 36722 95496,94862,94836
 3.4000e+000 95211 -1.8409e+000 -4.8888e+001 -1.2874e+001 36722 95352,95280,95070
 3.4000e+000 95188 -8.8774e+000 -6.6704e+001 -1.1963e+001 36722 95352,95070,95044
 3.4000e+000 95165 -3.9080e+001 -4.2696e+001  1.0969e+001 36722 95424,94888,94862
 3.4000e+000 95142 -3.8508e+001  1.6922e+000  7.0745e+000 36722 94914,94966,94940
 3.4000e+000 95119 -2.1774e+001 -8.1413e+001 -1.0822e+000 36722 94966,95044,95018
 3.4000e+000 95096 -4.9669e+000 -4.8375e+001  4.8882e+000 36722 94966,95018,94992
 3.4000e+000 95306 -6.1874e+000 -5.1580e+001 -4.5560e+000 36722 95424,94862,95280
 3.4000e+000 95329  1.2462e+001  2.5700e+000 -2.1476e+001 36722 94914,95280,94966
 3.4000e+000 95378 -9.5386e+000 -4.5237e+001 -2.8196e+000 36722 94966,95280,95352
 3.4000e+000 95401 -9.4660e+000 -4.9577e+001 -3.8685e+000 36722 94966,95352,95044
 3.4000e+000 95450  1.0642e+001 -2.9273e+001  1.3615e+001 36722 94914,94888,95424
 3.4000e+000 95473  1.7448e+001 -3.8234e+001  1.2761e+000 36722 94914,95424,95280
 3.4000e+000 95522  7.2919e+000 -7.7010e+001 -3.3104e+000 36722 95070,95280,95496
 3.4000e+000 95545  1.2674e+001 -8.0602e+001 -6.0508e+000 36722 95070,95496,94836
 3.4000e+000 96130  3.8388e+000  9.1244e+000 -1.0776e+001 36268 96153,95911,95859
 3.4000e+000 96107  6.1532e+000 -9.7055e+000 -9.9467e+000 36268 96153,95859,95807
 3.4000e+000 96084  2.2467e+001  2.1286e+001 -1.8274e+001 36268 95807,95859,95833
 3.4000e+000 96061  3.8716e+000 -1.1111e+001 -3.3754e+000 36268 95911,95989,95937
 3.4000e+000 96038 -1.0347e+000  9.9439e+000  1.8405e+000 36268 95859,95911,95885
 3.4000e+000 96015  1.2916e+001 -7.8385e+000 -4.3209e+000 36268 95937,95989,95963
 3.4000e+000 96179  8.2912e+000 -5.9948e+000 -6.3500e+000 36268 95989,95911,96153
 3.4000e+000 96202  6.9989e+000 -2.9716e+001 -5.7726e+000 36268 95989,96153,95807
 3.4000e+000 96531 -1.8759e+001 -1.5052e+002  4.1366e+001 35728 96358,96410,96384
 3.4000e+000 96508 -1.0620e+001 -1.3076e+002  3.1570e+001 35728 96332,96410,96358
 3.4000e+000 96485 -2.2471e+001 -1.3653e+002  4.7383e+001 35728 96332,96436,96410
 3.4000e+000 96462 -1.7124e+000 -7.8746e+001 -3.8238e+000 35728 96306,96436,96332
 3.4000e+000 96860 -3.0400e-001 -7.8830e+001  3.5369e+000 35324 96687,96765,96713
 3.4000e+000 96837  2.6315e+000 -7.7491e+001 -8.1845e+000 35324 96661,96765,96687
 3.4000e+000 96814 -1.0791e+001 -3.3073e+001 -2.2212e+001 35324 96713,96765,96739
 3.4000e+000 96791 -8.7408e+000 -7.0583e+001 -7.8918e+000 35324 96635,96765,96661
 3.4000e+000 97366 -1.0202e+001 -1.4884e+002  2.3838e+001 34920 97389,97069,97043
 3.4000e+000 97343 -2.2690e+001 -1.3017e+002  1.8440e+000 34920 97389,97043,97199
 3.4000e+000 97320 -8.3641e+000 -1.1463e+002 -5.8505e+000 34920 97043,97225,97199
 3.4000e+000 97297 -1.2586e+001 -2.8539e+002  4.2427e+001 34920 97069,97121,97095
 3.4000e+000 97274 -2.0255e+001 -7.5928e+001 -8.4473e+000 34920 97121,97199,97173
 3.4000e+000 97251 -3.0749e+001 -7.6104e+001 -1.0661e+001 34920 97121,97173,97147
 3.4000e+000 97415  5.5598e-001 -1.4043e+002  5.7578e+000 34920 97121,97069,97389
 3.4000e+000 97438  1.1177e+001 -9.8911e+001 -1.9449e+001 34920 97121,97389,97199
 3.4000e+000 97708 -3.8879e+001 -6.3102e+001  8.8701e+000 34722 97509,97587,97535
 3.4000e+000 97685 -1.1542e+001 -5.9780e+001  2.7771e+000 34722 97509,97613,97587
 3.4000e+000 97662 -3.0641e+001 -6.9844e+001 -1.3287e+000 34722 97483,97613,97509
 3.4000e+000 97639 -2.4213e+001 -5.4559e+001  1.4037e+001 34722 97535,97587,97561
 3.4000e+000 98216 -2.5517e+001 -1.5828e+002  2.3280e+001 34318 97971,98075,97997
 3.4000e+000 98193  8.1480e-001 -1.1606e+002  3.7973e+001 34318 97893,98075,97971
 3.4000e+000 98170  5.4175e+001 -1.0734e+002  1.1549e+001 34318 97893,97971,97919
 3.4000e+000 98147 -1.5988e+001 -1.0871e+002  2.9349e+001 34318 97997,98075,98049
 3.4000e+000 98124  1.4546e+001 -1.2880e+002  2.0429e+001 34318 97919,97971,97945
 3.4000e+000 98101 -5.7708e+001 -1.9835e+002  4.8812e+001 34318 97997,98049,98023
 3.4000e+000 98594  1.0782e+000 -3.4311e+001  8.1682e+000 33814 98961,98617,98424
 3.4000e+000 98571  1.6874e+000 -3.7643e+001 -4.3592e+000 33814 98689,98617,98372
 3.4000e+000 98548  2.7195e+001  4.2959e+000 -1.6487e+001 33814 99033,98689,98372
 3.4000e+000 98525 -2.3422e-001 -2.1888e+001  4.2278e+000 33814 98761,98476,98450
 3.4000e+000 98502 -8.2359e+000 -2.2782e+001  6.0942e+000 33814 98961,98424,98398
 3.4000e+000 98643 -8.6455e+000 -4.3236e+001  6.6701e-001 33814 98450,98424,98617
 3.4000e+000 98666  1.6109e+001 -7.8784e+000  1.2757e+001 33814 98761,98450,98617
 3.4000e+000 98715  1.5310e+001 -6.2579e+001 -3.5239e+000 33814 99161,98689,98320
 3.4000e+000 98738 -1.0830e+001 -5.7218e+001  1.1763e+000 33814 98320,98689,98346
 3.4000e+000 98787  1.7679e+001 -4.7838e+001  2.9625e+001 33814 98833,98761,98320
 3.4000e+000 98810  1.9788e+001 -7.0108e+001  1.1003e+001 33814 99161,98320,98761
 3.4000e+000 98859  2.3786e+001  3.5298e+001  6.6440e+000 33814 98476,98761,98833
 3.4000e+000 98987  9.1368e+000 -2.0744e+001  4.0591e+000 33814 98372,98617,98961
 3.4000e+000 99010  3.7697e+000 -3.9949e+000  6.8849e-001 33814 98372,98961,98398
 3.4000e+000 99059  1.1965e+001 -4.5601e+001  5.4866e+000 33814 98346,98689,99033
 3.4000e+000 99187  2.4080e+001 -3.7332e+001 -6.9125e+000 33814 98617,98689,99161
 3.4000e+000 99210  2.4425e+001 -4.9027e+001  8.8329e+000 33814 98617,99161,98761
 3.4000e+000 99588 -1.9326e+001 -5.7768e+001 -4.6025e+001 33566 99366,99444,99392
 3.4000e+000 99565  4.5441e+001 -3.0580e+001 -2.6868e+001 33566 99314,99444,99366
 3.4000e+000 99542  3.0213e+001 -5.4408e+000  3.4978e+000 33566 99314,99366,99340
 3.4000e+000 99519  1.7184e+001 -3.4496e+001 -3.6859e+001 33566 99314,99470,99444
 3.4000e+000 99496 -3.2155e+001 -1.9369e+001 -1.8368e+001 33566 99392,99444,99418
 3.4000e+000 99787  1.6819e+001 -8.4528e+001  4.4384e+001 33105 99637,99689,99663
 3.4000e+000 99764  8.1666e+000 -6.3516e+001  1.8888e+000 33105 99611,99689,99637
 3.4000e+000 99741  1.6187e+001 -7.7768e+000  6.8900e+000 33105 99611,99715,99689
 3.4000e+000 100167 -3.5237e+001 -1.4645e+002  7.5737e+001 32651 100190,99971,99919
 3.4000e+000 100144  2.9535e-001 -8.2429e+001  5.6394e+001 32651 100262,100190,99919
 3.4000e+000 100121 -7.0226e+000 -7.7500e+001  4.7121e+001 32651 100262,99919,100049
 3.4000e+000 100098  3.4755e+000 -7.2428e+001  4.1026e+000 32651 99893,100049,99919
 3.4000e+000 100075 -4.6950e+001 -1.5750e+002  6.9507e+001 32651 99919,99971,99945
 3.4000e+000 100216  4.8936e+000 -1.6948e+002  2.9620e+001 32651 99997,99971,100190
 3.4000e+000 100239  2.2906e+001 -1.2535e+002  2.6906e+001 32651 99997,100190,100023
 3.4000e+000 100288  3.6242e+000 -1.1658e+002  5.2230e+001 32651 100023,100190,100262
 3.4000e+000 100311  2.0889e+001 -9.5516e+001  2.8567e+001 32651 100023,100262,100049
 3.4000e+000 100608 -3.8468e+001 -1.4158e+002  2.9395e+000 32254 100386,100490,100464
 3.4000e+000 100585 -3.7474e+001 -9.6659e+001 -9.6639e+000 32254 100360,100490,100386
 3.4000e+000 100562 -4.6266e+001 -1.7327e+002 -1.5022e+001 32254 100386,100464,100412
 3.4000e+000 100539 -8.5743e+000 -8.8426e+001 -1.6443e+001 32254 100334,100490,100360
 3.4000e+000 100516 -1.2085e+000 -8.2703e+001  6.8950e-001 32254 100412,100464,100438
 3.4000e+000 100758 -1.1051e+001  2.0639e+000  6.0875e+000 31914 100985,100781,100683
 3.4000e+000 100735 -3.4735e+001 -5.7420e-001  3.0990e+001 31914 100853,100781,100657
 3.4000e+000 100807  1.1690e+001  1.0457e+001 -1.0750e+001 31914 100709,100683,100781
 3.4000e+000 100830 -7.6102e+000  1.1693e+001  2.3044e+001 31914 100709,100781,100631
 3.4000e+000 100879 -2.2219e+001 -3.1078e+001  2.7109e+001 31914 100631,100781,100853
 3.4000e+000 101011 -8.6131e+000 -3.3551e+000  8.5727e+000 31914 100657,100781,100985
 3.4000e+000 101191  1.5584e-002 -1.4351e+001 -1.2391e-001 31418 101113,101165,101139
 3.4000e+000 101341 -1.0087e+002 -2.1564e+002 -1.5883e+001 31106 101214,101266,101240
 3.4000e+000 101318 -5.4229e+001 -7.9452e+001  3.2205e+000 31106 101214,101292,101266
 3.4000e+000 101591 -4.5767e+001 -1.6882e+002  9.8352e+001 30552 101614,101470,101444
 3.4000e+000 101568 -6.0440e+001 -9.3331e+001  4.0801e+001 30552 101366,101496,101470
 3.4000e+000 101545 -1.6751e+001 -1.7217e+002  7.1989e+001 30552 101614,101444,101392
 3.4000e+000 101522 -9.1169e+000 -6.4388e+001 -1.0730e+001 30552 101392,101444,101418
 3.4000e+000 101640 -4.1706e+000 -1.6315e+002  9.2251e+001 30552 101366,101470,101614
 3.4000e+000 101663  2.0206e+001 -1.6966e+002  6.5842e+001 30552 101366,101614,101392
 3.4000e+000 102301  1.3379e+001 -1.4606e+002  4.3815e+000 30042 102396,102324,102059
 3.4000e+000 102278 -3.7381e+001 -1.1103e+002 -1.9411e+001 30042 102324,101981,101955
 3.4000e+000 102255 -1.1663e+000 -1.2411e+002  3.3975e+001 30042 102396,102059,102033
 3.4000e+000 102232  1.0259e+001 -6.1954e+001 -1.9592e+001 30042 101929,102111,101955
 3.4000e+000 102209 -1.2684e+001 -1.0705e+002 -1.3386e+001 30042 102059,102111,102085
 3.4000e+000 102186 -4.4321e+000 -7.2228e+001 -9.5373e+000 30042 101929,102137,102111
 3.4000e+000 102163  7.9371e+000 -2.4600e+001 -2.7924e+001 30042 101981,102033,102007
 3.4000e+000 102350  7.8186e+000 -1.3664e+002 -2.3241e+001 30042 102111,102059,102324
 3.4000e+000 102373  2.0343e+001 -8.2232e+001 -2.9723e+001 30042 102111,102324,101955
 3.4000e+000 102422  2.7021e+001 -7.5029e+001  2.1762e+000 30042 101981,102324,102396
 3.4000e+000 102445  1.3738e+001 -5.2548e+001  3.2715e+001 30042 101981,102396,102033
 3.4000e+000 103000  1.2354e+001 -1.5134e+002 -3.7909e+000 29730 103023,102706,102654
 3.4000e+000 102977 -3.2581e+001 -1.4859e+002 -2.0697e+001 29730 103023,102654,102810
 3.4000e+000 102954 -1.1199e+002 -2.9573e+002 -1.4520e+001 29730 102732,102810,102784
 3.4000e+000 102931 -5.8591e+001 -2.0275e+002 -3.9063e+001 29730 102628,102810,102654
 3.4000e+000 102908  6.2806e+000 -8.2293e+001  1.6420e+001 29730 102654,102706,102680
 3.4000e+000 102885 -6.1867e+001 -1.0720e+002 -7.6864e+001 29730 102732,102784,102758
 3.4000e+000 102862 -6.1374e+001 -2.0565e+002 -3.3357e+001 29730 102628,102836,102810
 3.4000e+000 103049 -1.6262e+001 -1.7671e+002 -2.3347e+001 29730 102732,102706,103023
 3.4000e+000 103072 -4.3445e+001 -1.5295e+002 -3.6471e+001 29730 102732,103023,102810
 3.4000e+000 103222  7.1265e+001 -1.4219e+002 -8.5815e+000 29226 103095,103147,103121
 3.4000e+000 103199  4.7257e+001 -1.1304e+002 -1.9147e+001 29226 103095,103173,103147
 3.4000e+000 103730 -4.4441e+000 -1.1947e+002  4.1484e+000 28822 103537,103589,103563
 3.4000e+000 103707  1.1083e+000 -1.3434e+002 -1.1992e+000 28822 103433,103589,103537
 3.4000e+000 103684 -5.2088e+000 -1.2111e+002 -2.7572e+001 28822 103433,103537,103459
 3.4000e+000 103661 -9.1588e+000 -1.0509e+002 -2.9074e+000 28822 103407,103589,103433
 3.4000e+000 103638 -2.1119e+001 -5.5326e+001  2.6289e+001 28822 103459,103511,103485
 3.4000e+000 103615 -3.3769e+001 -3.8909e+001  1.8867e+001 28822 103459,103537,103511
 3.4000e+000 103880  7.4329e+001 -1.1411e+002  4.1687e+001 28368 103975,103903,103779
 3.4000e+000 103857  3.8671e+001 -1.6421e+002  3.1784e+001 28368 103903,103753,103831
 3.4000e+000 103929  3.6541e+001 -8.0976e+001  1.7683e+001 28368 103805,103779,103903
 3.4000e+000 103952 -2.0978e+001 -1.2839e+002  7.1555e-001 28368 104105,103903,103831
 3.4000e+000 104001  1.0880e+002 -1.1995e+002  6.5210e+000 28368 103753,103903,103975
 3.4000e+000 104131 -1.6150e+001 -1.0877e+002  3.2420e+001 28368 103805,103903,104105
 3.4000e+000 104539  4.2700e+000 -1.5628e+001  1.3196e+001 28028 104562,104340,104314
 3.4000e+000 104516  2.3522e+001  4.0468e+001  9.3848e+000 28028 104634,104562,104314
 3.4000e+000 104493 -1.2358e+001 -1.6253e+001 -3.0901e+001 28028 104762,104366,104340
 3.4000e+000 104470  8.9863e-001  1.5920e+001 -5.0505e+000 28028 104366,104418,104392
 3.4000e+000 104588  1.1028e+001 -2.9087e+001 -1.1759e+001 28028 104762,104340,104562
 3.4000e+000 104611  7.3888e+000 -1.8340e+001  1.1777e+001 28028 104418,104562,104444
 3.4000e+000 104660  3.4322e+001 -7.2200e+000  9.3483e+000 28028 104444,104562,104634
 3.4000e+000 104788  7.7475e+000  5.2196e+000 -2.2604e+001 28028 104418,104366,104762
 3.4000e+000 104811  3.5511e+001  6.7266e-001 -1.2204e+000 28028 104418,104762,104562
 3.4000e+000 105010  9.7856e+000 -5.6329e+000 -4.7029e+000 27324 105033,104886,104860
 3.4000e+000 104987  1.2084e+001 -9.1980e-002  8.0733e+000 27324 105033,104860,104834
 3.4000e+000 104964  2.1506e+001  6.0622e+001 -1.1702e+001 27324 105105,104912,104886
 3.4000e+000 105059  2.3734e+001  4.0201e+001 -1.4318e+001 27324 105105,104886,105033
 3.4000e+000 105082  1.6119e+001 -3.7881e+001 -7.4926e+000 27324 104938,105033,104834
 3.4000e+000 105131  5.5634e+001  4.0976e+001  2.1587e+001 27324 104938,104912,105105
 3.4000e+000 105154  3.7827e+001 -9.5020e+000  1.2031e+001 27324 104938,105105,105033
 3.4000e+000 105402 -3.7107e+001 -1.1680e+002 -6.4668e+000 27012 105229,105281,105255
 3.4000e+000 105379 -6.4246e+000 -5.1513e+001 -3.0045e+001 27012 105229,105307,105281
 3.4000e+000 105356  4.3390e+001 -1.8723e+001 -1.5675e+001 27012 105177,105307,105229
 3.4000e+000 105333 -4.2664e+001 -1.0785e+002 -7.8609e+001 27012 105177,105229,105203
 3.4000e+000 105603  3.1348e+001  2.2733e+001  1.0760e+001 26508 105626,105453,105427
 3.4000e+000 105580  3.8109e+001  3.8495e+001  3.0811e+001 26508 105626,105427,105505
 3.4000e+000 105557  1.3515e+001  4.1408e+001  2.5620e+001 26508 105427,105531,105505
 3.4000e+000 105652  1.8583e+001  1.7360e+001  4.5121e+000 26508 105479,105453,105626
 3.4000e+000 105675  1.8109e+001  2.4393e+001  2.2915e+001 26508 105479,105626,105505
 3.4000e+000 106057 -2.0971e+001 -9.6800e+001  6.0109e+001 25947 106080,105887,105861
 3.4000e+000 106034 -7.7896e+000 -7.4402e+001  4.7357e+001 25947 106080,105861,105783
 3.4000e+000 106011 -6.4310e+000 -5.4068e+001  4.3127e+001 25947 105783,105835,105809
 3.4000e+000 105988 -2.6351e+001 -6.8693e+001  5.1020e+001 25947 105783,105861,105835
 3.4000e+000 105965  2.4211e+001 -6.2093e+001  2.8681e+001 25947 105887,105939,105913
 3.4000e+000 106106 -1.8303e+001 -8.8266e+001  4.0162e+001 25947 105939,105887,106080
 3.4000e+000 106129  9.1202e+000 -4.7973e+001  2.4606e+001 25947 105939,106080,105783
 3.4000e+000 106714 -2.4976e+001 -5.3659e+001  2.3087e+001 25557 106809,106737,106547
 3.4000e+000 106691 -3.5889e+001 -9.9951e+001  4.9930e+001 25557 106737,106417,106391
 3.4000e+000 106668 -6.4301e+000 -4.4234e+001  1.9055e+001 25557 106809,106547,106495
 3.4000e+000 106645 -4.0781e+001 -1.8074e+002  7.5490e+001 25557 106417,106495,106469
 3.4000e+000 106622 -1.1660e+001 -4.1824e+001  2.4846e+001 25557 106495,106547,106521
 3.4000e+000 106599 -5.3085e+001 -1.3905e+002  7.3954e+001 25557 106417,106469,106443
 3.4000e+000 106763 -3.9133e+001 -7.0260e+001  3.0467e+001 25557 106573,106547,106737
 3.4000e+000 106786 -1.6460e+001 -6.1158e+001  3.7326e+001 25557 106573,106737,106391
 3.4000e+000 106835 -1.7138e+000 -6.9757e+001  3.1357e+001 25557 106417,106737,106809
 3.4000e+000 106858  1.0960e+001 -6.2709e+001  2.6178e+001 25557 106417,106809,106495
 3.4000e+000 107364  3.7734e+000 -3.5117e+001 -6.5882e+000 25153 107459,107387,107171
 3.4000e+000 107341  1.0171e+001 -2.2274e+001 -5.6218e+000 25153 107387,107119,107067
 3.4000e+000 107318  3.2215e+000 -1.6225e+001  1.2490e+001 25153 107459,107171,107145
 3.4000e+000 107295  4.9657e+000 -2.9168e+001 -2.0514e+001 25153 107531,107223,107197
 3.4000e+000 107272  2.4780e+001  9.8016e+000 -9.0575e+000 25153 107067,107119,107093
 3.4000e+000 107249  1.5875e+001 -6.6292e+000 -1.2598e+001 25153 107041,107223,107067
 3.4000e+000 107413 -6.1954e+000 -3.4950e+001 -1.0795e+001 25153 107197,107171,107387
 3.4000e+000 107436  6.7329e+000 -3.4056e+001 -1.1471e+001 25153 107531,107197,107387
 3.4000e+000 107485  1.7405e+001 -6.8433e-001 -6.3550e-002 25153 107119,107387,107459
 3.4000e+000 107508  2.0158e+001  1.5435e+001  2.1522e+001 25153 107119,107459,107145
 3.4000e+000 107557  6.2428e+000 -2.0354e+001 -1.6894e+001 25153 107067,107223,107531
 3.4000e+000 107580  1.1712e+001 -1.7440e+001 -7.7772e+000 25153 107067,107531,107387
 3.4000e+000 107958  3.5889e+000 -1.0193e+002 -2.7152e+001 24741 107736,107814,107788
 3.4000e+000 107935 -2.8910e+001 -1.3711e+002 -5.2572e+001 24741 107736,107840,107814
 3.4000e+000 107912 -4.4453e+001 -1.2855e+002 -6.1994e+001 24741 107684,107840,107736
 3.4000e+000 107889 -2.9310e+001 -7.4282e+001 -3.5279e+001 24741 107736,107788,107762
 3.4000e+000 107866 -5.8394e+001 -1.8226e+002 -7.4958e+001 24741 107684,107736,107710
 3.4000e+000 108157 -1.5421e+001 -1.3891e+001  5.9871e-001 24237 108180,108059,108007
 3.4000e+000 108134  3.4641e+001  9.9483e+000  7.9741e+000 24237 108180,108007,107981
 3.4000e+000 108111  1.9250e+001 -7.8148e+001  9.5663e+000 24237 108007,108059,108033
 3.4000e+000 108206 -3.0620e+000 -2.9894e+000  4.2253e+001 24237 108085,108059,108180
 3.4000e+000 108229  4.5160e+001  1.9963e+001  4.9332e+001 24237 108085,108180,107981
 3.4000e+000 108658 -2.7531e+001 -1.1524e+002  1.9755e+001 23776 108361,108413,108387
 3.4000e+000 108635 -3.4312e+001 -1.8522e+002 -2.2766e+001 23776 108753,108681,108361
 3.4000e+000 108612 -5.5002e+000 -1.0818e+002 -2.1263e+001 23776 108681,108465,108439
 3.4000e+000 108589 -5.8949e-002 -2.0224e+002  2.4315e+000 23776 108753,108361,108335
 3.4000e+000 108566 -2.6537e+001 -1.8059e+002  7.2795e+001 23776 108335,108517,108465
 3.4000e+000 108543 -3.4439e+001 -1.6687e+002  6.6419e+001 23776 108465,108517,108491
 3.4000e+000 108707 -5.4703e+001 -1.1591e+002 -1.5381e+001 23776 108413,108361,108681
 3.4000e+000 108730 -2.5812e+001 -8.0351e+001  2.6827e+000 23776 108413,108681,108439
 3.4000e+000 108779 -1.7916e+000 -1.0739e+002 -1.2813e+001 23776 108465,108681,108753
 3.4000e+000 108802  4.6270e+000 -1.7008e+002  2.4734e+000 23776 108465,108753,108335
 3.4000e+000 109023  1.3584e+001 -1.0359e+001 -3.5447e+001 23414 108873,108925,108899
 3.4000e+000 109000  6.4781e+001  1.5912e+001 -2.6246e+001 23414 108847,108925,108873
 3.4000e+000 108977  9.6025e+001  1.2733e+002  1.2699e+001 23414 108847,108951,108925
 3.4000e+000 109474  3.9582e+001 -6.0781e+001  1.1868e+001 23024 109151,109307,109177
 3.4000e+000 109451  5.2413e+001  9.4463e+001 -6.1885e+000 23024 109151,109333,109307
 3.4000e+000 109428  3.0012e+001 -1.5854e+002 -4.5082e+000 23024 109177,109281,109203
 3.4000e+000 109405 -1.8893e+001 -1.3192e+002 -2.4192e+001 23024 109177,109307,109281
 3.4000e+000 109382  2.9663e+001 -1.2291e+002  1.7908e+001 23024 109203,109281,109229
 3.4000e+000 109359 -7.2681e+000 -1.1228e+002 -5.7369e+000 23024 109229,109281,109255
 3.4000e+000 109820  1.1391e+001 -9.1132e+001  1.8468e+001 22506 109843,109601,109523
 3.4000e+000 109797  1.1786e+001 -8.0434e+001  1.4166e+001 22506 109843,109523,109497
 3.4000e+000 109774  1.3224e+001 -1.0340e+002  7.5434e+000 22506 109915,109653,109627
 3.4000e+000 109751 -1.6713e+001 -6.6458e+001  1.6338e+001 22506 109497,109679,109653
 3.4000e+000 109728 -2.8269e-001 -1.2183e+002 -2.8445e+001 22506 109523,109601,109575
 3.4000e+000 109705 -5.0903e+001 -1.6883e+002 -5.0828e+001 22506 109523,109575,109549
 3.4000e+000 109869  1.9860e+001 -8.0761e+001  2.2874e+001 22506 109627,109601,109843
 3.4000e+000 109892  2.3604e+001 -8.8888e+001  1.9209e+001 22506 109915,109627,109843
 3.4000e+000 109941 -3.1835e+000 -9.4441e+001 -9.2224e-001 22506 109497,109653,109915
 3.4000e+000 109964 -2.0260e+000 -9.5101e+001  8.0148e+000 22506 109497,109915,109843
 3.4000e+000 110163  2.4203e+000 -6.7353e+001  7.2679e-001 21936 110186,110039,110013
 3.4000e+000 110140  1.3475e+001 -4.8657e+001  1.0740e+001 21936 110390,110186,110013
 3.4000e+000 110117  2.9866e+001 -6.3562e+001  2.6501e+001 21936 110390,110013,109987
 3.4000e+000 110212  2.0600e+001 -3.5884e+001 -2.7426e+001 21936 110065,110039,110186
 3.4000e+000 110235 -7.2342e+000 -3.7143e+001 -7.1112e+000 21936 110258,110186,110091
 3.4000e+000 110284 -4.5014e+001 -6.4914e+001 -1.9427e+001 21936 110065,110186,110258
 3.4000e+000 110416 -2.2554e+001 -5.7351e+001  1.4905e+001 21936 110091,110186,110390
 3.4000e+000 110439  1.5792e+000 -6.7262e+001  2.8990e+001 21936 110091,110390,109987
 3.4000e+000 110709  4.3586e+001 -8.9545e+001  1.9294e+000 21338 110510,110614,110588
 3.4000e+000 110686  2.5753e+001 -1.2814e+002 -8.2029e+000 21338 110484,110614,110510
 3.4000e+000 110663  6.9831e+001  1.1604e+001  2.5391e+000 21338 110510,110562,110536
 3.4000e+000 110640  2.7468e+001 -8.9614e+001 -4.9601e+000 21338 110510,110588,110562
 3.4000e+000 111296  2.0437e+001 -6.2345e+001 -1.1111e+000 20934 111025,111155,111103
 3.4000e+000 111273 -1.0742e+001 -2.0114e+002 -5.6770e-001 20934 110999,111155,111025
 3.4000e+000 111250 -5.6942e-001 -6.9870e+001 -6.4431e+000 20934 111103,111155,111129
 3.4000e+000 111227 -1.9518e+001 -1.5999e+002 -2.5849e+001 20934 111051,111103,111077
 3.4000e+000 111204 -2.3457e+001 -1.5425e+002 -2.0758e+001 20934 111025,111103,111051
 3.4000e+000 111181 -2.7315e+001 -2.4325e+002 -7.5914e+000 20934 110973,111155,110999
 3.4000e+000 111930 -5.0971e+001 -9.9461e+001 -4.8824e+001 20494 111662,111714,111688
 3.4000e+000 111907 -2.7582e+001 -6.1464e+001 -3.5167e+001 20494 111584,111714,111662
 3.4000e+000 111884 -1.8856e+001 -5.6842e+001 -3.7109e+001 20494 111584,111766,111714
 3.4000e+000 111861  3.2984e+001 -1.1334e+002 -1.9796e+000 20494 111584,111636,111610
 3.4000e+000 111838 -2.3721e+001 -7.4535e+001 -4.0013e+001 20494 111584,111662,111636
 3.4000e+000 111815 -6.8866e+000 -2.5503e+001  1.6456e+000 20494 111558,111766,111584
 3.4000e+000 111792 -1.6272e+001 -2.5995e+001  1.4495e+000 20494 111714,111766,111740
 3.4000e+000 112249 -6.0356e+000 -2.9803e+002  2.4571e+001 19940 111975,112053,112001
 3.4000e+000 112226  8.2495e+001 -1.1233e+002 -9.0527e-001 19940 111975,112131,112053
 3.4000e+000 112203  1.1277e+001 -2.7008e+002  0.0000e+000 19940 112053,112105,112079
 3.4000e+000 112180  2.7568e+001 -2.5961e+002  4.5063e+000 19940 112053,112131,112105
 3.4000e+000 112157  2.7757e+001 -2.5497e+002 -8.7631e+000 19940 112001,112053,112027
 3.4000e+000 112757  3.0830e+001 -9.2237e+001 -3.0792e+001 19486 112780,112538,112486
 3.4000e+000 112734  2.6206e+001 -1.0002e+002 -1.3985e+001 19486 112780,112486,112460
 3.4000e+000 112711  1.4872e-001 -8.0806e+001 -1.3604e+001 19486 112852,112616,112590
 3.4000e+000 112688  1.0567e+002 -1.3315e+002 -3.9461e+001 19486 112486,112538,112512
 3.4000e+000 112665 -2.0504e+001 -1.1724e+002  8.5107e+000 19486 112434,112616,112460
 3.4000e+000 112642  2.4865e+000 -7.4965e+001 -2.0868e+001 19486 112538,112590,112564
 3.4000e+000 112806  1.8229e+001 -9.9100e+001 -2.6711e+001 19486 112590,112538,112780
 3.4000e+000 112829  3.0064e+001 -8.8549e+001 -2.0032e+001 19486 112852,112590,112780
 3.4000e+000 112878 -1.9223e+001 -8.9716e+001 -5.6000e+000 19486 112460,112616,112852
 3.4000e+000 112901 -1.5977e+000 -1.0896e+002 -8.8223e+000 19486 112460,112852,112780
 3.4000e+000 113252 -8.1290e+001 -1.6215e+002 -8.2239e+000 19096 113105,113157,113131
 3.4000e+000 113229 -6.2864e+001 -1.1302e+002 -1.6429e+000 19096 113053,113157,113105
 3.4000e+000 113206 -4.5982e+001 -1.0529e+002  5.0263e-001 19096 113027,113157,113053
 3.4000e+000 113183 -9.4876e+001 -1.8345e+002  7.7496e+000 19096 113053,113105,113079
 3.4000e+000 113451 -2.6631e+000 -1.2819e+002 -3.1710e+001 18642 113327,113379,113353
 3.4000e+000 113428 -2.3600e+001 -1.8902e+002 -2.2648e+001 18642 113301,113379,113327
 3.4000e+000 113405  1.0275e+001 -1.5069e+002 -6.6132e+000 18642 113275,113379,113301
 3.4000e+000 113699  1.7496e+001 -1.4803e+002 -5.7666e+000 18138 113474,113552,113526
 3.4000e+000 113676  5.5461e+001 -1.6117e+002 -2.5250e+001 18138 113474,113578,113552
 3.4000e+000 113653  5.2957e+001 -1.5480e+002 -2.4650e+001 18138 113474,113604,113578
 3.4000e+000 113630  5.6003e+001 -1.1626e+002  1.3878e+001 18138 113474,113526,113500
 3.4000e+000 113851 -6.6447e+000 -1.7323e+002 -3.5974e+000 17682 113750,113802,113776
 3.4000e+000 113828  2.3390e+001 -1.5534e+002  4.1690e+000 17682 113724,113802,113750
 3.4000e+000 114383  3.3609e+001 -1.7203e+002 -1.5900e+001 17106 114086,114242,114164
 3.4000e+000 114360  1.1959e+001 -1.8131e+002 -1.6159e+001 17106 114060,114242,114086
 3.4000e+000 114337 -4.0088e+001 -3.1873e+002  2.4275e+001 17106 114086,114164,114138
 3.4000e+000 114314 -8.5038e+001 -4.9786e+002 -1.0929e+001 17106 114190,114242,114216
 3.4000e+000 114291 -3.7391e+001 -3.5063e+002 -3.6504e+001 17106 114164,114242,114190
 3.4000e+000 114268  5.8164e+000 -2.8087e+002  5.4136e+001 17106 114086,114138,114112
 3.4000e+000 114680 -5.4698e+001 -1.7215e+002  1.7930e+000 16766 114703,114432,114406
 3.4000e+000 114657 -5.9338e+001 -1.7270e+002 -1.6493e+000 16766 114703,114406,114510
 3.4000e+000 114634 -5.7846e+001 -1.2802e+002  1.0342e+001 16766 114406,114536,114510
 3.4000e+000 114611 -3.8499e+001 -1.8489e+002 -1.0357e+001 16766 114432,114484,114458
 3.4000e+000 114588 -7.0228e+001 -1.4950e+002  5.1195e+001 16766 114406,114562,114536
 3.4000e+000 114729 -3.7314e+001 -1.7129e+002  5.6428e+000 16766 114484,114432,114703
 3.4000e+000 114752 -5.1685e+001 -1.7912e+002  1.3045e+000 16766 114484,114703,114510
 3.4000e+000 114902  3.7922e+001 -2.8230e+002 -4.3972e+001 16362 114775,114827,114801
 3.4000e+000 114879  4.0576e+001 -2.6987e+002 -4.7782e+001 16362 114775,114853,114827
 3.4000e+000 115054 -3.1367e+002 -5.0616e+002 -2.1263e+001 15908 114953,115005,114979
 3.4000e+000 115031 -2.9157e+002 -5.1945e+002 -1.4221e+001 15908 114927,115005,114953
 3.4000e+000 115326  2.8682e+001 -1.1331e+002  5.8715e+001 15251 115101,115179,115153
 3.4000e+000 115303  1.7288e+001 -1.0410e+002  5.1073e+000 15251 115101,115231,115179
 3.4000e+000 115280  2.2410e+001 -9.3170e+001  3.6905e+000 15251 115179,115231,115205
 3.4000e+000 115257 -1.1074e+002 -5.7027e+002  4.5368e+001 15251 115101,115153,115127
 3.4000e+000 115429 -3.0722e+001 -1.9102e+002  3.8782e+001 421 115351,115403,115377
 3.5000e+000 66230 -4.2960e+001  4.4434e+001  1.4884e+001 65954 66152,66204,66178
 3.5000e+000 66429  6.9224e+000  2.8173e+001  8.2405e+000 65642 66279,66331,66305
 3.5000e+000 66406 -4.5034e+000 -1.0743e+001  4.0866e+000 65642 66279,66357,66331
 3.5000e+000 66383  1.0973e+001  4.2286e+001 -1.2900e+001 65642 66253,66357,66279
 3.5000e+000 66628 -4.6817e+000 -4.1223e+001  1.1254e+001 65444 66452,66530,66478
 3.5000e+000 66605  1.3020e+001 -7.2435e+001  3.4369e-002 65444 66452,66556,66530
 3.5000e+000 66582 -4.9503e+000 -6.4650e+001  1.4637e+001 65444 66478,66530,66504
 3.5000e+000 67006 -2.4010e+000 -4.2474e+001  3.2127e+000 65246 66732,66810,66758
 3.5000e+000 66983 -3.8138e+000 -2.0747e+001  8.2159e+000 65246 66732,66836,66810
 3.5000e+000 66960 -1.1747e+000 -1.4628e+001  8.6090e+000 65246 66732,66862,66836
 3.5000e+000 66937  6.5328e-002 -3.5242e+001  2.8442e+000 65246 66758,66810,66784
 3.5000e+000 66914  1.2547e+001 -9.8603e+001 -3.1109e+001 65246 66732,66888,66862
 3.5000e+000 67107  3.7280e+001 -3.9321e+001 -1.3755e+001 64934 67029,67081,67055
 3.5000e+000 67306 -9.4417e+000 -9.0791e+000  9.9292e+000 64736 67156,67208,67182
 3.5000e+000 67283 -4.6558e+000 -6.3462e+000  8.5105e+000 64736 67130,67208,67156
 3.5000e+000 67260  8.8258e+000 -5.4376e+001  1.7902e+001 64736 67130,67234,67208
 3.5000e+000 67507 -1.1648e+000 -4.7215e+001 -6.8428e+000 64389 67357,67409,67383
 3.5000e+000 67484 -7.4077e+000 -4.3339e+001 -9.4950e+000 64389 67357,67435,67409
 3.5000e+000 67461  8.9951e+000 -6.7749e+001 -3.8206e+000 64389 67331,67435,67357
 3.5000e+000 67708  4.0242e+001 -5.6727e+001  1.3214e+001 63985 67731,67584,67558
 3.5000e+000 67685  2.1196e+001 -5.4377e+000  4.6366e+000 63985 67731,67558,67636
 3.5000e+000 67662  7.9515e+000 -7.8278e+000  7.3654e+000 63985 67532,67636,67558
 3.5000e+000 67757  3.1581e+001 -8.2643e+001  9.5970e+000 63985 67610,67584,67731
 3.5000e+000 67780  2.9893e+000 -4.5980e+001 -1.6228e+000 63985 67610,67731,67636
 3.5000e+000 67981 -1.5691e+000  1.2222e+001  2.5543e+000 63787 67857,67909,67883
 3.5000e+000 67958  2.0569e+000  2.6506e+001 -3.8862e+000 63787 67831,67909,67857
 3.5000e+000 67935 -1.0677e+001 -8.1156e+000 -6.7565e+000 63787 67805,67909,67831
 3.5000e+000 68231 -2.9917e-001 -8.2019e+001  7.3992e+000 63589 68254,68084,68032
 3.5000e+000 68208 -3.8466e+000 -3.2490e+001  6.0253e+000 63589 68254,68032,68006
 3.5000e+000 68185  6.7567e+000 -1.6184e+001  1.1247e+001 63589 68326,68136,68110
 3.5000e+000 68162 -1.2766e+000 -7.6666e+001 -9.2244e+000 63589 68032,68084,68058
 3.5000e+000 68280  2.8385e+000 -3.8278e+001  8.8801e+000 63589 68110,68084,68254
 3.5000e+000 68303 -9.9412e-001 -1.9382e+001  1.7539e+001 63589 68326,68110,68254
 3.5000e+000 68352  1.8139e+001 -6.0535e-001 -9.3200e+000 63589 68006,68136,68326
 3.5000e+000 68375  3.8985e+000 -9.4942e+000 -2.2058e+000 63589 68006,68326,68254
 3.5000e+000 68836  1.3258e+000  1.2946e+001  6.7953e+000 63128 68859,68588,68562
 3.5000e+000 68813 -1.5410e+000  5.2796e-001  1.9526e+001 63128 68859,68562,68692
 3.5000e+000 68790  1.9549e+001 -2.3498e+001  7.0949e+000 63128 68614,68692,68666
 3.5000e+000 68767 -8.2581e+000 -1.0801e+001  1.5638e+001 63128 68562,68718,68692
 3.5000e+000 68744  2.2018e+001 -2.4034e+001 -3.3227e+001 63128 68614,68666,68640
 3.5000e+000 68885  9.2996e+000  3.1439e+001 -2.6083e-001 63128 68614,68588,68859
 3.5000e+000 68908  5.2870e+000  1.4972e+001  1.2187e+001 63128 68614,68859,68692
 3.5000e+000 69237  6.6615e+000 -3.0055e+001  9.9565e+000 62731 69064,69116,69090
 3.5000e+000 69214 -3.9228e+000 -6.6787e+001  1.2377e+000 62731 69064,69142,69116
 3.5000e+000 69191 -9.3658e+000 -5.8441e+001  7.1593e+000 62731 69038,69142,69064
 3.5000e+000 69168  3.8841e-001 -1.0590e+002  6.6022e+000 62731 69012,69142,69038
 3.5000e+000 69539  4.7857e-002  2.3536e+001 -4.4125e+000 62433 69389,69467,69441
 3.5000e+000 69516  6.0216e+000 -6.3818e+000  6.8337e-001 62433 69363,69467,69389
 3.5000e+000 69493  4.5019e+000 -4.8334e+000  1.8104e+001 62433 69389,69441,69415
 3.5000e+000 69966  4.2439e+000 -2.8921e+001  2.0230e+001 62235 69989,69773,69721
 3.5000e+000 69943  1.4239e+001 -5.9085e+001 -1.1174e+001 62235 70061,69989,69721
 3.5000e+000 69920  2.6175e+001 -5.7297e+001 -4.3975e+000 62235 70061,69721,69643
 3.5000e+000 69897  8.7189e+000  9.9693e+000  1.0161e+001 62235 69721,69773,69747
 3.5000e+000 69874 -2.1039e+001 -1.7089e+002  2.1965e-001 62235 69643,69721,69695
 3.5000e+000 69851  7.1481e+001  1.9000e+002 -3.0618e+001 62235 69643,69695,69669
 3.5000e+000 70015 -3.5157e+000 -6.0869e+001  1.0266e+001 62235 69799,69773,69989
 3.5000e+000 70038 -3.2920e+001 -8.5419e+001 -3.3769e+001 62235 69799,69989,69825
 3.5000e+000 70087 -7.3218e+000 -5.1019e+001 -8.5468e+000 62235 69825,69989,70061
 3.5000e+000 70110  9.0705e+000 -4.7742e+001 -4.7536e+000 62235 69825,70061,69643
 3.5000e+000 70260  9.4321e+000 -7.8392e+000 -2.4151e+000 62037 70133,70185,70159
 3.5000e+000 70237 -3.6345e-001 -1.2062e+001 -8.3235e+000 62037 70133,70211,70185
 3.5000e+000 70640 -1.0477e+001 -4.8835e+001  1.3134e+001 61583 70735,70663,70418
 3.5000e+000 70617 -2.7466e+001 -4.2589e+001  1.5283e+001 61583 70663,70366,70522
 3.5000e+000 70594 -5.4932e+000 -4.5575e+001  1.9528e+001 61583 70735,70418,70392
 3.5000e+000 70571 -2.3132e+001 -6.5044e+001  6.3640e+000 61583 70418,70496,70444
 3.5000e+000 70548 -4.6003e+001 -5.0458e+001  2.3594e+000 61583 70444,70496,70470
 3.5000e+000 70689 -2.8467e+001 -6.7253e+001  5.7458e+000 61583 70496,70418,70663
 3.5000e+000 70712 -4.3752e+001 -4.7698e+001  9.8575e+000 61583 70496,70663,70522
 3.5000e+000 70761 -2.7714e+001 -5.3286e+001  3.6712e+000 61583 70366,70663,70735
 3.5000e+000 70784 -1.7349e+001 -4.7701e+001  1.0018e+001 61583 70366,70735,70392
 3.5000e+000 71054 -2.5753e+000 -5.2863e-001  2.6800e+000 61313 71077,70881,70855
 3.5000e+000 71031 -1.9759e+000  3.7991e+000  1.1988e+000 61313 71077,70855,70829
 3.5000e+000 71008 -8.5669e-001 -4.0200e-001 -3.8047e+000 61313 70829,70959,70933
 3.5000e+000 70985 -5.4383e-001  9.1780e-001  6.5087e-002 61313 70881,70933,70907
 3.5000e+000 71103 -1.0801e+000  2.1012e+000  6.0895e-001 61313 70933,70881,71077
 3.5000e+000 71126 -1.7801e+000  4.7579e+000 -7.8096e-001 61313 70933,71077,70829
 3.5000e+000 71604 -4.1693e-001 -6.5495e+001  8.0558e+000 60909 71627,71232,71414
 3.5000e+000 71581 -1.2195e+001 -4.9518e+001 -1.2717e+001 60909 71232,71440,71414
 3.5000e+000 71558  4.4733e+000 -4.4986e+001  1.1237e+001 60909 71627,71414,71336
 3.5000e+000 71535  1.6495e+001 -1.2152e+002  2.9915e+001 60909 71362,71414,71388
 3.5000e+000 71512 -1.0159e+001 -8.7612e+001  4.9549e+000 60909 71336,71414,71362
 3.5000e+000 71489  1.7795e+001 -2.0523e+001 -2.6305e+000 60909 71258,71336,71310
 3.5000e+000 71466 -1.6146e+001 -3.6151e+001  2.4152e+000 60909 71258,71310,71284
 3.5000e+000 71653  2.2566e+000 -4.7279e+001  9.1450e+000 60909 71258,71232,71627
 3.5000e+000 71676 -3.0710e-001 -3.7025e+001  1.2247e+001 60909 71258,71627,71336
 3.5000e+000 71875  3.6176e-002 -2.7077e+000  6.5425e+000 60611 71898,71725,71699
 3.5000e+000 71852 -5.1062e+000 -1.9046e+000  8.0175e+000 60611 71898,71699,71803
 3.5000e+000 71829  1.1335e+001  1.3589e+001 -5.2511e+000 60611 71970,71751,71725
 3.5000e+000 71924  8.8021e+000  3.3269e+000  1.0337e+000 60611 71970,71725,71898
 3.5000e+000 71947 -3.1998e+000 -1.0079e+001  4.3719e+000 60611 71777,71898,71803
 3.5000e+000 71996  4.1639e+000  4.2577e-001 -8.4866e-001 60611 71777,71751,71970
 3.5000e+000 72019  3.7677e-001 -6.2402e+000  6.0841e+000 60611 71777,71970,71898
 3.5000e+000 72576  2.8312e+001 -1.1938e+002  1.4702e+001 60142 72599,72256,72230
 3.5000e+000 72553  4.1195e+001 -4.7099e+001  2.5204e+001 60142 72671,72599,72230
 3.5000e+000 72530 -2.5645e+000 -1.6530e+001 -3.4599e+000 60142 72671,72230,72204
 3.5000e+000 72507 -1.3308e+001 -2.6606e+001  1.1598e+001 60142 72743,72360,72334
 3.5000e+000 72484  4.3939e-001 -2.5545e+001 -1.1780e+001 60142 72815,72282,72256
 3.5000e+000 72461  3.1527e+001  1.8285e+001  2.6044e+001 60142 72887,72308,72282
 3.5000e+000 72438 -2.4467e+001 -9.5218e+001 -1.4878e+001 60142 72204,72412,72386
 3.5000e+000 72625 -9.5278e+000 -8.7349e+001 -2.4951e+001 60142 72815,72256,72599
 3.5000e+000 72648  1.0499e+000 -5.0622e+001  7.7640e+000 60142 72743,72334,72599
 3.5000e+000 72697  3.3226e+000 -9.7495e+001  8.6739e+000 60142 72386,72599,72671
 3.5000e+000 72720 -2.4553e+001 -5.9466e+001 -1.4388e+001 60142 72386,72671,72204
 3.5000e+000 72769  2.1850e+000 -4.8655e+001  5.2593e+001 60142 72386,72360,72743
 3.5000e+000 72792  6.7663e+000 -9.3692e+001  2.8612e+001 60142 72386,72743,72599
 3.5000e+000 72841  4.1196e+000  4.2829e+000  5.4023e+000 60142 72887,72282,72815
 3.5000e+000 72864  4.9168e+000 -3.3568e+001 -2.1797e+000 60142 72334,72815,72599
 3.5000e+000 72913 -7.1722e+000 -1.0573e+001  1.0745e+001 60142 72334,72308,72887
 3.5000e+000 72936 -2.0575e+001 -1.7509e+001 -8.1772e+000 60142 72334,72887,72815
 3.5000e+000 73491 -6.1969e+000 -1.1034e+002 -2.1226e+001 59738 73145,73327,73171
 3.5000e+000 73468  1.2210e+001 -9.3188e+001 -1.3701e+001 59738 73119,73327,73145
 3.5000e+000 73445 -8.2782e-001 -4.0512e+001  5.6603e+000 59738 73171,73327,73301
 3.5000e+000 73422  1.1517e+001 -4.7182e+001  4.9513e-001 59738 73514,73275,73249
 3.5000e+000 73399  3.9663e+000 -2.2899e+001 -5.1940e+000 59738 73586,73514,73249
 3.5000e+000 73376  1.2590e+001  1.7972e+001 -4.0266e+000 59738 73197,73249,73223
 3.5000e+000 73353  1.5621e+001 -1.3566e+001 -1.6897e+001 59738 73586,73249,73197
 3.5000e+000 73540  1.6377e+000 -7.6255e+001 -1.0930e+001 59738 73301,73275,73514
 3.5000e+000 73563 -6.7837e+000 -4.9223e+001  3.0664e+000 59738 73301,73514,73171
 3.5000e+000 73612  2.7067e+000 -4.2002e+001  7.6520e+000 59738 73171,73514,73586
 3.5000e+000 73635  6.0549e+000 -3.3230e+001 -2.3848e+000 59738 73171,73586,73197
 3.5000e+000 73964  6.6088e+000 -8.3520e+001 -5.8197e+000 59334 73791,73843,73817
 3.5000e+000 73941 -1.5681e-001 -8.9399e+001 -8.4360e+000 59334 73791,73869,73843
 3.5000e+000 73918 -1.4269e+001 -1.2173e+002 -1.0609e+001 59334 73739,73869,73791
 3.5000e+000 73895  8.9024e+000 -1.4876e+002 -7.0285e+000 59334 73739,73791,73765
 3.5000e+000 74261 -3.5472e+000 -3.2781e+001  1.0901e+001 58630 74065,74117,74091
 3.5000e+000 74238  1.2293e+000 -3.8202e+001 -4.1944e+000 58630 74356,74284,74065
 3.5000e+000 74215  9.8044e+000 -2.5603e+001 -3.5854e-001 58630 74284,74013,73987
 3.5000e+000 74192 -2.2625e+000 -3.8120e+001 -1.7264e+001 58630 74356,74065,74039
 3.5000e+000 74169  8.4027e+000 -2.1063e+001  3.0658e+000 58630 73987,74143,74117
 3.5000e+000 74310  8.7177e+000 -3.9367e+001 -6.5524e-001 58630 74117,74065,74284
 3.5000e+000 74333  2.5969e+000 -3.1338e+001 -3.0862e+000 58630 74117,74284,73987
 3.5000e+000 74382  2.2015e+001 -3.1200e+001 -4.9152e+000 58630 74013,74284,74356
 3.5000e+000 74405  1.9536e+001 -3.0441e+001 -1.8132e+001 58630 74013,74356,74039
 3.5000e+000 74815 -8.6832e+000 -5.7846e+001 -2.2061e+000 58226 74590,74642,74616
 3.5000e+000 74792 -1.0755e+001 -7.3508e+001 -3.6436e+000 58226 74590,74694,74642
 3.5000e+000 74769  1.1320e+001 -1.2222e+002  2.0268e+001 58226 74590,74720,74694
 3.5000e+000 74746 -1.1367e+001 -4.8482e+001 -2.8735e+000 58226 74642,74694,74668
 3.5000e+000 75014  7.1714e-001 -3.7377e+001  4.3398e+000 57786 75037,74864,74838
 3.5000e+000 74991 -1.2342e+000 -3.0498e+001  7.9678e+000 57786 75037,74838,74916
 3.5000e+000 74968 -1.3851e+000 -2.3518e+001 -4.2076e+000 57786 74838,74942,74916
 3.5000e+000 75063 -2.9680e+000 -4.3780e+001  2.0772e+000 57786 74890,74864,75037
 3.5000e+000 75086 -3.7657e+000 -3.5828e+001  6.0352e+000 57786 74890,75037,74916
 3.5000e+000 75368 -1.8729e+001  3.3418e+000  9.7755e+000 57496 75192,75270,75218
 3.5000e+000 75345  2.7490e+001  2.1172e+001  9.0524e+000 57496 75192,75296,75270
 3.5000e+000 75322  1.0333e+001  8.9767e+000  3.0145e+001 57496 75218,75270,75244
 3.5000e+000 75648  1.1222e+001 -1.5280e+001 -1.7421e+001 57206 75472,75550,75498
 3.5000e+000 75625  9.5853e+000 -1.7727e+001 -1.6703e+001 57206 75472,75576,75550
 3.5000e+000 75602 -7.3768e+000  8.8697e+000  8.7385e+000 57206 75671,75550,75524
 3.5000e+000 75697  1.1429e+001 -1.6479e+001  6.3479e+000 57206 75498,75550,75671
 3.5000e+000 76154 -6.9675e+000 -4.0169e+001  1.0167e+001 56802 75958,76010,75984
 3.5000e+000 76131  6.2876e-002 -2.1531e+001  8.2119e+000 56802 75932,76010,75958
 3.5000e+000 76108 -4.2533e+000 -4.3548e+001  1.3908e+001 56802 75906,76010,75932
 3.5000e+000 76085 -8.1532e+000 -5.7596e+000  1.5687e+001 56802 75880,76010,75906
 3.5000e+000 76062  1.1721e+001 -4.3959e+000 -4.4485e+000 56802 75880,76036,76010
 3.5000e+000 76505 -2.3006e-001  4.0599e-002  1.1821e-001 56504 76306,76384,76332
 3.5000e+000 76482  1.1810e-002  8.9257e-002  9.1533e-002 56504 76306,76410,76384
 3.5000e+000 76459 -5.7310e-001 -4.8701e-002  2.1807e-001 56504 76332,76384,76358
 3.5000e+000 76436 -3.9165e-002  4.1779e-002  6.2384e-002 56504 76280,76410,76306
 3.5000e+000 77011  2.7573e+001 -4.6841e+000 -2.0557e+001 56050 76740,76818,76792
 3.5000e+000 76988  8.8573e+000 -1.1505e+001 -2.4419e+001 56050 76714,76818,76740
 3.5000e+000 76965  1.0523e+001 -2.0751e+001 -2.3072e+001 56050 76688,76818,76714
 3.5000e+000 76942  4.0056e+001  1.6828e+001 -3.6709e+000 56050 76688,76844,76818
 3.5000e+000 76919  1.7204e+001 -1.4128e+001 -1.6546e+001 56050 76740,76792,76766
 3.5000e+000 76896  2.4768e+001  2.3807e+000  7.4908e+000 56050 76688,76870,76844
 3.5000e+000 77517 -3.7085e+001 -2.8580e+001  1.8949e+001 55738 77220,77350,77324
 3.5000e+000 77494  1.1230e+000 -5.0178e+001 -8.7336e+000 55738 77220,77376,77350
 3.5000e+000 77471  1.6859e+001 -1.3416e+001 -5.1306e+000 55738 77194,77376,77220
 3.5000e+000 77448  3.8216e+000 -1.8133e+001  6.4619e+000 55738 77220,77298,77246
 3.5000e+000 77425 -1.3151e+001 -2.1786e+001  1.9720e+001 55738 77220,77324,77298
 3.5000e+000 77402 -2.1670e+001 -2.2312e+001  5.9319e+001 55738 77246,77298,77272
 3.5000e+000 78064  2.6816e+001 -4.9840e+001 -7.7817e+000 55227 78231,78087,77773
 3.5000e+000 78041 -1.1740e+001 -1.1731e+002  3.9348e+000 55227 78087,77695,77643
 3.5000e+000 78018  1.4086e+000 -7.0744e+001 -2.5220e+001 55227 78159,77799,77773
 3.5000e+000 77995  9.9234e+000 -1.5501e+001  1.1752e+000 55227 78231,77773,77721
 3.5000e+000 77972 -2.3952e+001 -3.0734e+001  2.6133e+001 55227 77643,77695,77669
 3.5000e+000 77949 -8.4777e+000 -4.4788e+001 -4.0746e+000 55227 77643,77877,77851
 3.5000e+000 77926 -5.0716e+000 -4.6224e+001 -4.5270e+000 55227 77799,77851,77825
 3.5000e+000 77903  1.7242e+001  1.1299e+001 -1.5066e+001 55227 77721,77773,77747
 3.5000e+000 78113  1.4251e+001 -7.6887e+001 -1.9190e+001 55227 78159,77773,78087
 3.5000e+000 78136  1.7135e+001 -4.9907e+001 -8.7129e-001 55227 77851,78087,77643
 3.5000e+000 78185 -2.2866e+001 -7.3945e+001 -2.2465e+001 55227 77851,77799,78159
 3.5000e+000 78208 -9.4996e+000 -7.9935e+001 -1.7431e+001 55227 77851,78159,78087
 3.5000e+000 78257  1.0988e+001 -8.8634e+001 -2.2023e+001 55227 77695,78087,78231
 3.5000e+000 78280 -1.0009e+001 -5.3463e+001 -1.6541e+001 55227 77695,78231,77721
 3.5000e+000 78737  1.4579e+001 -2.4231e+001 -7.6306e+000 54773 78463,78541,78515
 3.5000e+000 78714 -1.0899e+001 -4.3953e+001  1.0044e+000 54773 78463,78619,78541
 3.5000e+000 78691  2.3663e+001  5.2095e-001  1.5912e+000 54773 78463,78515,78489
 3.5000e+000 78668 -1.2831e+001 -2.1260e+001 -6.5118e+000 54773 78541,78593,78567
 3.5000e+000 78645 -3.0225e-001 -2.9983e+001 -1.0236e+001 54773 78541,78619,78593
 3.5000e+000 78838  1.5300e-001 -6.8670e-001 -3.4861e-002 54211 78760,78812,78786
 3.5000e+000 79297  9.9013e+000 -2.9041e+001  5.8102e+000 53814 79520,79153,79049
 3.5000e+000 79274  1.1452e+001 -1.5241e+001 -1.0597e+001 53814 79520,79049,79023
 3.5000e+000 79251 -7.6067e+000 -3.8061e+001  9.5205e+000 53814 79320,79101,79049
 3.5000e+000 79228  1.8749e+000 -1.5646e+001  6.2174e+000 53814 79320,79049,79153
 3.5000e+000 79205  5.1143e+000 -3.4715e+001  1.2651e+001 53814 79049,79101,79075
 3.5000e+000 79346 -1.7814e+000 -1.6658e+001 -6.0269e+000 53814 79392,79320,79127
 3.5000e+000 79369  1.6509e-001 -1.5729e+001 -6.9950e+000 53814 79127,79320,79153
 3.5000e+000 79418 -3.5645e+000 -3.5629e+001 -9.5319e+000 53814 79101,79320,79392
 3.5000e+000 79546 -3.3363e+000 -5.6012e+001  1.9651e+001 53814 79179,79153,79520
 3.5000e+000 79569  1.7745e+001 -3.3447e+001 -1.4230e+000 53814 79179,79520,79023
 3.5000e+000 80075 -2.5105e+001 -1.1543e+001  1.9526e+001 53039 80098,79908,79830
 3.5000e+000 80052 -3.0659e+001  1.5854e+000 -1.2785e+001 53039 80098,79830,79804
 3.5000e+000 80029  3.5041e+000  2.7088e+001 -9.5920e+000 53039 79752,79934,79804
 3.5000e+000 80006  3.9341e+000 -3.7350e+001  2.0658e+001 53039 79856,79908,79882
 3.5000e+000 79983  1.8088e+001 -8.4510e+001  1.9985e+001 53039 79830,79908,79856
 3.5000e+000 79960 -1.1423e+000  8.8575e+000 -7.6402e+000 53039 79752,79804,79778
 3.5000e+000 80124  2.5832e+001  6.5812e+000  1.6784e+001 53039 79934,79908,80098
 3.5000e+000 80147 -7.1569e+000  1.0032e+001 -1.6400e+001 53039 79934,80098,79804
 3.5000e+000 80555  2.8682e+001  1.2774e+000 -2.4207e+000 52699 80356,80434,80408
 3.5000e+000 80532  6.9621e+000 -2.0579e+001  6.2963e+000 52699 80356,80460,80434
 3.5000e+000 80509 -3.7570e+000 -2.6307e+001  4.1597e+000 52699 80330,80460,80356
 3.5000e+000 80486 -2.9431e+001 -4.3981e+001  4.7471e+001 52699 80356,80408,80382
 3.5000e+000 80776  1.4340e+001  2.7995e+001 -8.5414e+000 52295 80600,80678,80626
 3.5000e+000 80753 -1.0159e+001  1.0426e+001 -8.5836e-001 52295 80600,80704,80678
 3.5000e+000 80730 -2.7799e+001  1.0737e+001 -5.8987e+000 52295 80626,80678,80652
 3.5000e+000 81156 -1.3832e-001 -5.0789e+001  1.4331e+001 51891 81179,80960,80908
 3.5000e+000 81133  1.5041e+000 -5.2152e+001 -4.6438e+000 51891 81179,80908,81012
 3.5000e+000 81110 -1.7390e+001 -3.6164e+001 -1.2841e+001 51891 80882,81012,80908
 3.5000e+000 81087  1.0786e+001 -3.6516e+001  1.9335e+001 51891 80908,80960,80934
 3.5000e+000 81064 -7.6434e+000 -8.4181e+000 -9.7404e+000 51891 80882,81038,81012
 3.5000e+000 81205  2.3298e+001 -3.9358e+001  1.8497e+001 51891 80986,80960,81179
 3.5000e+000 81228  9.2680e+000 -4.8163e+001 -1.5044e+000 51891 80986,81179,81012
 3.5000e+000 81606  5.6700e+000 -2.0596e+002 -6.4800e+001 51544 81410,81462,81436
 3.5000e+000 81583  2.5250e+001 -6.5774e+001 -5.0874e+000 51544 81384,81462,81410
 3.5000e+000 81560 -1.2623e+001 -8.4213e+001 -1.8176e+001 51544 81358,81462,81384
 3.5000e+000 81537 -4.9706e+000 -7.3656e+001 -3.2768e+001 51544 81358,81488,81462
 3.5000e+000 81514  1.3873e+001 -1.5560e+001 -2.5822e+001 51544 81332,81488,81358
 3.5000e+000 81854  1.3671e+000 -4.0687e+001  9.9943e-001 51004 81877,81655,81629
 3.5000e+000 81831  1.3271e+000 -1.7899e+001 -3.7455e+000 51004 81877,81629,81759
 3.5000e+000 81808  6.7923e+000 -2.0425e+001  2.5462e+001 51004 81655,81707,81681
 3.5000e+000 81785 -8.4870e+000 -3.3292e+001 -2.0885e+000 51004 81707,81759,81733
 3.5000e+000 81903  3.7469e+000 -5.1546e+001  2.2355e+000 51004 81707,81655,81877
 3.5000e+000 81926 -5.4902e+000 -4.3360e+001 -6.2713e+000 51004 81707,81877,81759
 3.5000e+000 82257 -1.6570e+001 -5.9684e+001 -1.0337e+001 50642 82058,82136,82110
 3.5000e+000 82234 -2.0509e+001 -2.4608e+001 -2.0363e+001 50642 82058,82162,82136
 3.5000e+000 82211 -6.3657e+000 -4.6517e+001 -2.5393e+001 50642 82058,82110,82084
 3.5000e+000 82188  2.8850e+001 -4.6447e+000 -3.2977e+000 50642 82032,82162,82058
 3.5000e+000 82684  3.3393e+001 -1.3892e+002  2.6611e+001 49931 82779,82707,82465
 3.5000e+000 82661 -1.1309e+001 -1.7121e+002  3.0309e+001 49931 82707,82413,82361
 3.5000e+000 82638 -4.8088e+000 -1.3302e+002 -3.0434e+001 49931 82779,82465,82439
 3.5000e+000 82615  7.0319e+000 -3.1738e+002  3.2470e+001 49931 82465,82543,82491
 3.5000e+000 82592 -1.7534e+001 -1.2444e+002 -3.9677e+000 49931 82361,82413,82387
 3.5000e+000 82569  5.3747e+000 -2.4907e+002  2.9501e+001 49931 82491,82543,82517
 3.5000e+000 82733  7.1064e+001 -1.6795e+002  2.6741e+001 49931 82543,82465,82707
 3.5000e+000 82756  1.7749e+001 -1.4410e+002  1.7127e+001 49931 82543,82707,82361
 3.5000e+000 82805 -5.0035e+000 -2.1999e+002 -6.8547e-001 49931 82413,82707,82779
 3.5000e+000 82828 -2.5841e+001 -1.9996e+002 -5.4789e+001 49931 82413,82779,82439
 3.5000e+000 83255 -4.9963e+000 -1.7853e+002 -2.6303e+001 49327 82984,83114,83036
 3.5000e+000 83232 -2.1064e+001 -2.1158e+002 -5.4891e+001 49327 82958,83114,82984
 3.5000e+000 83209 -2.8925e+001 -2.4654e+002 -1.9034e+000 49327 83036,83114,83088
 3.5000e+000 83186 -5.4914e+001 -1.2646e+002  1.3976e+001 49327 82984,83036,83010
 3.5000e+000 83163 -3.8668e+001 -1.9646e+002 -4.5770e+001 49327 82932,83114,82958
 3.5000e+000 83140 -7.2886e+001 -4.1068e+002 -3.7688e+000 49327 83036,83088,83062
 3.5000e+000 83938 -2.0535e+001 -2.5031e+002  6.0257e+001 48965 83961,83673,83647
 3.5000e+000 83915  2.1031e+001 -1.0145e+002  6.6337e+001 48965 83961,83647,83543
 3.5000e+000 83892 -1.6859e+001 -1.1613e+002 -1.8517e+001 48965 83517,83725,83543
 3.5000e+000 83869 -3.9988e+001 -1.7035e+002 -2.7619e+001 48965 83673,83725,83699
 3.5000e+000 83846 -2.1346e+001 -4.5094e+001  2.9612e+000 48965 83543,83647,83621
 3.5000e+000 83823 -6.5912e+000 -6.6486e+001 -3.5493e+000 48965 83543,83621,83569
 3.5000e+000 83800 -2.5684e+000 -1.0364e+002  5.0477e+000 48965 83517,83751,83725
 3.5000e+000 83777 -2.5344e+000 -5.9229e+001  1.1205e+001 48965 83569,83621,83595
 3.5000e+000 83987 -1.3419e+001 -2.2624e+002 -3.6078e+001 48965 83725,83673,83961
 3.5000e+000 84010  1.1839e+001 -1.6560e+002 -1.2168e+001 48965 83725,83961,83543
 3.5000e+000 84258 -1.1221e+001 -1.6345e+002  2.1412e+001 48447 84281,84059,84033
 3.5000e+000 84235  1.7469e+000 -1.2851e+002  1.4835e-001 48447 84281,84033,84163
 3.5000e+000 84212  1.7527e+001 -1.1835e+002 -1.9444e+001 48447 84059,84111,84085
 3.5000e+000 84189  2.1581e+001 -1.1202e+002 -2.9055e+001 48447 84111,84163,84137
 3.5000e+000 84307  8.1616e+000 -1.5582e+002 -5.5203e+000 48447 84111,84059,84281
 3.5000e+000 84330  2.8069e+001 -1.3239e+002 -2.6192e+001 48447 84111,84281,84163
 3.5000e+000 84529  2.9172e+001 -9.0644e+001 -4.4353e+000 47993 84552,84405,84379
 3.5000e+000 84506  3.4021e+000 -9.7878e+001 -1.5947e+000 47993 84552,84379,84353
 3.5000e+000 84483  8.8128e+000 -9.6461e+001 -1.5108e+001 47993 84624,84457,84431
 3.5000e+000 84578  4.1289e+001 -9.1017e+001 -1.7954e+001 47993 84431,84405,84552
 3.5000e+000 84601  1.5989e+001 -9.8799e+001 -1.2813e+001 47993 84624,84431,84552
 3.5000e+000 84650  1.6377e+001 -9.7084e+001 -9.8185e+000 47993 84353,84457,84624
 3.5000e+000 84673  2.7383e+001 -9.2628e+001 -5.3242e+000 47993 84353,84624,84552
 3.5000e+000 85104 -2.4628e+001 -1.7868e+002 -1.5544e+001 47588 85199,85127,84885
 3.5000e+000 85081 -1.9668e+001 -1.9252e+002 -2.2090e+001 47588 85127,84781,84963
 3.5000e+000 85058 -5.2028e+001 -1.7183e+002  1.5915e+001 47588 85199,84885,84807
 3.5000e+000 85035 -4.0335e+000 -1.1825e+002  5.9864e+001 47588 84885,84937,84911
 3.5000e+000 85012 -1.6557e+001 -1.0544e+002 -7.4424e+000 47588 84807,84885,84833
 3.5000e+000 84989 -9.0516e+000 -1.0026e+002  2.9556e+001 47588 84833,84885,84859
 3.5000e+000 85153 -2.3404e+001 -2.1402e+002 -3.4454e+000 47588 84937,84885,85127
 3.5000e+000 85176  4.1588e+001 -1.9538e+002 -4.7870e+000 47588 84937,85127,84963
 3.5000e+000 85225 -7.6963e+001 -1.9895e+002 -1.5191e+001 47588 84781,85127,85199
 3.5000e+000 85248 -9.3820e+001 -1.8974e+002  2.0449e+001 47588 84781,85199,84807
 3.5000e+000 85518 -4.6412e+001 -3.2037e+002  5.2542e+001 47226 85293,85397,85319
 3.5000e+000 85495 -2.7005e+001 -2.8575e+002  2.4569e+001 47226 85293,85423,85397
 3.5000e+000 85472 -1.5321e+001 -3.3505e+002 -1.2550e+001 47226 85319,85397,85345
 3.5000e+000 85449  3.6188e+001 -7.6472e+001 -1.6898e+001 47226 85345,85397,85371
 3.5000e+000 85849 -2.1521e+001 -1.6005e+002  4.3431e+001 46572 85624,85702,85650
 3.5000e+000 85826 -1.6933e+001 -2.2434e+002 -3.1978e+000 46572 85624,85754,85702
 3.5000e+000 85803  4.0045e+001 -1.1959e+002  2.8851e+001 46572 85702,85754,85728
 3.5000e+000 85780 -1.7468e+001 -1.6163e+002  5.2575e+001 46572 85650,85702,85676
 3.5000e+000 86070 -1.5767e+002 -2.3821e+002 -6.6708e+000 46374 85920,85972,85946
 3.5000e+000 86047 -9.8220e+001 -9.7818e+001  2.5004e+000 46374 85920,85998,85972
 3.5000e+000 86024 -6.2322e+001 -7.2283e+001  2.4073e+001 46374 85894,85998,85920
 3.5000e+000 86401  7.3264e+000 -1.1735e+002  6.0669e+000 46034 86424,86280,86228
 3.5000e+000 86378 -2.6851e+001 -1.1839e+002  2.1465e+000 46034 86424,86228,86176
 3.5000e+000 86355 -3.4215e+001 -9.5243e+001 -3.3214e+001 46034 86176,86228,86202
 3.5000e+000 86332  4.1972e+001 -1.0201e+002 -3.4505e+001 46034 86228,86280,86254
 3.5000e+000 86450  7.1636e+001 -1.2739e+002 -8.2048e+000 46034 86306,86280,86424
 3.5000e+000 86473  4.7964e+000 -1.5113e+002 -1.5848e+001 46034 86306,86424,86176
 3.5000e+000 87058  1.1317e+001 -1.0578e+002  2.0468e+001 45516 86813,86917,86865
 3.5000e+000 87035 -1.0760e+001 -1.6782e+002  1.1423e+001 45516 86787,86917,86813
 3.5000e+000 87012 -1.3844e+000 -1.8961e+002  1.9268e+001 45516 86735,86917,86787
 3.5000e+000 86989  3.6911e+000 -1.0888e+002  2.1875e+001 45516 86865,86917,86891
 3.5000e+000 86966  1.6112e+001 -1.0526e+002  2.1738e+001 45516 86813,86865,86839
 3.5000e+000 86943 -1.3778e+001 -2.8313e+002 -2.8637e+000 45516 86735,86787,86761
 3.5000e+000 87208  5.0220e+001 -6.6630e+001 -1.4467e+001 45226 87231,87133,87107
 3.5000e+000 87185  1.1771e+001 -3.4289e+001 -8.6154e-001 45226 87081,87159,87133
 3.5000e+000 87257  3.9762e+001  2.3534e+001 -1.3352e+001 45226 87081,87133,87231
 3.5000e+000 87537  2.1131e+001 -1.3432e+002  2.6089e+001 44772 87387,87439,87413
 3.5000e+000 87514 -1.1319e+001 -1.4631e+002  2.4440e+001 44772 87361,87439,87387
 3.5000e+000 87491  1.2230e+001 -9.9660e+001  1.1189e+001 44772 87361,87465,87439
 3.5000e+000 87996  5.3248e+000  7.4074e+000  1.1267e+001 44425 87748,87878,87852
 3.5000e+000 87973 -1.0983e-001  5.6686e+000  5.4105e-001 44425 87722,87878,87748
 3.5000e+000 87950  2.5162e-001 -1.4698e+001  8.7933e-001 44425 87800,87852,87826
 3.5000e+000 87927  2.0682e+001  1.7503e+000  1.1042e+001 44425 87748,87852,87800
 3.5000e+000 87904 -9.6266e+000 -1.8588e+001 -8.5360e+000 44425 87748,87800,87774
 3.5000e+000 88423 -7.5529e+000 -1.1412e+002  1.7851e+001 44078 88590,88230,88204
 3.5000e+000 88400 -4.7623e+000 -7.4680e+001  2.4123e+001 44078 88518,88446,88204
 3.5000e+000 88377  8.1089e+000 -1.2114e+002 -2.0000e+001 44078 88446,88126,88282
 3.5000e+000 88354 -2.0180e+001 -5.1511e+001  1.0304e+001 44078 88518,88204,88178
 3.5000e+000 88331  3.3912e+000 -1.4984e+002 -2.0456e+001 44078 88100,88282,88126
 3.5000e+000 88308 -1.3896e+001 -7.6247e+001  2.9895e+001 44078 88126,88178,88152
 3.5000e+000 88472 -1.1638e+001 -1.2402e+002  1.9187e+001 44078 88590,88204,88446
 3.5000e+000 88495 -1.6496e+001 -2.0114e+002 -2.8708e+001 44078 88256,88446,88282
 3.5000e+000 88544 -1.3169e+001 -1.2719e+002  2.2017e+001 44078 88126,88446,88518
 3.5000e+000 88567 -1.3135e+001 -8.1928e+001  1.1159e+001 44078 88126,88518,88178
 3.5000e+000 88616 -7.4973e+001 -2.8337e+002 -1.3825e+001 44078 88256,88230,88590
 3.5000e+000 88639 -5.4386e+000 -1.1763e+002  5.8982e+000 44078 88256,88590,88446
 3.5000e+000 89039  1.3688e+001 -6.6418e+000  9.7396e+000 43716 88791,88921,88895
 3.5000e+000 89016 -4.4559e-001  1.0288e+001  1.0570e+001 43716 88765,88921,88791
 3.5000e+000 88993  3.3331e+001 -9.0068e+000  1.4261e+001 43716 88817,88895,88869
 3.5000e+000 88970  7.6404e+000 -1.3159e+001  1.4824e+001 43716 88791,88895,88817
 3.5000e+000 88947  2.7572e+000 -7.8914e-001 -3.3217e+000 43716 88817,88869,88843
 3.5000e+000 89496  1.6734e+000 -1.9022e+002 -2.0930e+001 43162 89519,89274,89248
 3.5000e+000 89473  1.0794e+001 -1.2443e+002 -7.9230e+000 43162 89519,89248,89222
 3.5000e+000 89450  1.1903e+001 -8.9322e+001 -4.2951e+001 43162 89326,89378,89352
 3.5000e+000 89427 -2.8510e+000 -1.2711e+002 -1.3958e+001 43162 89274,89378,89326
 3.5000e+000 89404  9.6856e+000 -1.2673e+002 -1.1502e+001 43162 89274,89326,89300
 3.5000e+000 89545 -1.8768e+000 -1.3125e+002 -6.0416e+000 43162 89378,89274,89519
 3.5000e+000 89568  1.0893e+001 -6.0989e+001  7.7148e+000 43162 89378,89519,89222
 3.5000e+000 89946 -1.8886e+001 -1.0990e+002 -7.9287e+001 42594 90041,89969,89750
 3.5000e+000 89923 -1.1174e+001 -9.4122e+001 -3.1188e+001 42594 89969,89698,89828
 3.5000e+000 89900  2.1919e+001 -1.2797e+002 -7.0967e+001 42594 90041,89750,89724
 3.5000e+000 89877 -3.7791e+001 -8.4609e+001 -2.8164e+001 42594 89750,89802,89776
 3.5000e+000 89854  2.7863e+001 -4.5847e+001 -1.2848e+001 42594 89672,89828,89698
 3.5000e+000 89995 -5.5530e+001 -8.6140e+001 -5.3487e+001 42594 89802,89750,89969
 3.5000e+000 90018  1.1134e+001 -1.5157e+001 -1.0453e+001 42594 89802,89969,89828
 3.5000e+000 90067  1.8642e+001 -8.4002e+001 -6.3803e+001 42594 89698,89969,90041
 3.5000e+000 90090  6.1564e+001 -1.1095e+002 -6.4939e+001 42594 89698,90041,89724
 3.5000e+000 90517  1.5682e+001 -1.3800e+002 -1.5126e+001 42140 90540,90220,90194
 3.5000e+000 90494  1.7984e+001 -1.5053e+002 -1.6050e+001 42140 90540,90194,90376
 3.5000e+000 90471 -1.6658e+001 -1.4977e+002  4.2496e+000 42140 90612,90350,90272
 3.5000e+000 90448 -3.5716e+001 -1.2408e+002 -4.5676e+000 42140 90272,90350,90298
 3.5000e+000 90425 -3.0123e+001 -1.1361e+002 -7.3016e+000 42140 90298,90350,90324
 3.5000e+000 90402  2.6092e+001 -8.0083e+001 -9.7023e-002 42140 90220,90272,90246
 3.5000e+000 90566  1.0417e+001 -8.5076e+001 -1.0944e+001 42140 90272,90220,90540
 3.5000e+000 90589 -1.2806e+001 -1.4094e+002 -1.9857e+000 42140 90612,90272,90540
 3.5000e+000 90638 -1.1222e+000 -1.6687e+002 -1.1497e+001 42140 90376,90350,90612
 3.5000e+000 90661  1.9119e+001 -1.4305e+002 -2.1016e+001 42140 90376,90612,90540
 3.5000e+000 91167 -1.4478e+001 -7.6294e+001 -4.5811e+000 41636 91190,90870,90844
 3.5000e+000 91144 -2.6654e+001 -2.6114e+002  2.3674e+000 41636 91190,90844,91026
 3.5000e+000 91121 -2.6037e+000 -2.6742e+001 -2.1532e+001 41636 90870,90922,90896
 3.5000e+000 91098  1.1084e+001 -2.1613e+002  1.0069e+001 41636 90922,91026,90948
 3.5000e+000 91075  3.2986e+001 -1.6386e+002 -3.8811e+001 41636 90948,91026,91000
 3.5000e+000 91052 -3.9836e+001 -6.5695e+001  4.3436e+001 41636 90948,91000,90974
 3.5000e+000 91216 -3.5189e+001 -2.5078e+001 -2.6622e+000 41636 90922,90870,91190
 3.5000e+000 91239  3.9826e+001 -8.8858e+001  2.8958e+001 41636 90922,91190,91026
 3.5000e+000 91696 -9.7401e+000 -1.3417e+002 -1.5743e+001 40449 91448,91526,91474
 3.5000e+000 91673 -5.2186e+001 -1.6038e+002  3.6778e+000 40449 91448,91578,91526
 3.5000e+000 91650  2.1911e+001 -4.6033e+001 -4.1766e+000 40449 91474,91526,91500
 3.5000e+000 91627  5.6690e+000 -1.2282e+002  2.0145e+001 40449 91422,91578,91448
 3.5000e+000 91604  1.9061e+001 -1.1079e+002 -2.0245e+001 40449 91526,91578,91552
 3.5000e+000 92123 -1.1742e+001 -1.3454e+002 -5.4848e+000 39995 92146,91904,91826
 3.5000e+000 92100 -3.3157e+001 -1.4750e+002 -3.0111e+001 39995 92146,91826,91800
 3.5000e+000 92077 -6.3893e+001 -9.7381e+001 -1.2753e+001 39995 91826,91904,91852
 3.5000e+000 92054 -4.1619e+001 -2.7486e+002 -3.7404e+001 39995 91904,91982,91930
 3.5000e+000 92031 -1.3359e+001 -6.9593e+001  4.9722e+000 39995 91852,91904,91878
 3.5000e+000 92008 -1.4675e+001 -2.0777e+002 -4.5847e+001 39995 91930,91982,91956
 3.5000e+000 92172  3.9386e+000 -1.6393e+002 -2.9246e+001 39995 91982,91904,92146
 3.5000e+000 92195 -2.1028e+001 -2.0112e+002 -5.0922e+001 39995 91982,92146,91800
 3.5000e+000 92652  2.5070e+000  1.7315e+001  1.1760e+001 39633 92404,92534,92456
 3.5000e+000 92629 -9.4158e+000  1.3732e+001  7.5515e+000 39633 92378,92534,92404
 3.5000e+000 92606 -6.1775e+000  1.2672e+001  4.8184e+000 39633 92404,92456,92430
 3.5000e+000 92583  8.0333e+000  9.7708e-001  2.8327e+000 39633 92456,92534,92508
 3.5000e+000 92560  4.2551e-001 -1.2299e-001 -9.7394e-001 39633 92456,92508,92482
 3.5000e+000 93079  1.2929e+001 -5.0304e+001 -1.1544e+001 39093 93102,92808,92756
 3.5000e+000 93056  8.3937e+000 -6.0522e+001 -4.1373e+000 39093 93102,92756,92938
 3.5000e+000 93033  3.4708e-001 -5.4341e+001 -5.8524e+000 39093 93174,92912,92834
 3.5000e+000 93010 -7.8043e+000 -4.9758e+001 -3.3711e+000 39093 92834,92912,92860
 3.5000e+000 92987  1.2317e+001 -6.0003e+001 -1.3866e+001 39093 92756,92808,92782
 3.5000e+000 92964 -2.0269e+000 -2.6229e+001  6.3142e+000 39093 92860,92912,92886
 3.5000e+000 93128  7.4680e+000 -2.5668e+001 -1.1096e+001 39093 92834,92808,93102
 3.5000e+000 93151  2.3369e+000 -4.8935e+001 -7.2360e+000 39093 93174,92834,93102
 3.5000e+000 93200  1.9998e+000 -5.2150e+001 -1.0093e+001 39093 92938,92912,93174
 3.5000e+000 93223  4.5647e+000 -4.9113e+001 -1.1710e+001 39093 92938,93174,93102
 3.5000e+000 93680 -6.0519e+000 -7.0980e+000  1.9004e+000 38639 93703,93536,93484
 3.5000e+000 93657 -9.5652e+000 -3.8571e+000  2.5566e+000 38639 93703,93484,93432
 3.5000e+000 93634 -3.5045e+000 -4.9081e+000  6.2868e+000 38639 93432,93484,93458
 3.5000e+000 93611 -9.8795e+000 -2.0586e+001 -1.0622e+001 38639 93484,93536,93510
 3.5000e+000 93588  5.8468e+000  1.4716e+001  1.0811e+001 38639 93406,93562,93432
 3.5000e+000 93729 -8.5295e+000 -9.6462e+000  8.9519e-001 38639 93562,93536,93703
 3.5000e+000 93752 -1.2387e+001 -5.8924e+000  1.5953e+000 38639 93562,93703,93432
 3.5000e+000 94160  1.5250e+001  1.6259e+001 -7.1145e+000 38292 93935,94039,93961
 3.5000e+000 94137 -1.0567e+000 -3.3303e+001  7.0375e+000 38292 93935,94065,94039
 3.5000e+000 94114 -2.0941e+000 -3.6738e+001 -1.1128e+001 38292 93961,94013,93987
 3.5000e+000 94091  1.3973e+001 -5.5032e+001 -1.1847e+000 38292 93961,94039,94013
 3.5000e+000 94408  3.3453e+001 -6.1040e+001  9.6709e+000 37880 94431,94261,94235
 3.5000e+000 94385  5.9288e+001 -5.2682e+001  2.1261e+001 37880 94431,94235,94313
 3.5000e+000 94362  4.4382e+001 -6.5900e+001  3.5064e+001 37880 94209,94313,94235
 3.5000e+000 94339  6.6253e+001  1.4740e+001 -1.3746e+001 37880 94183,94313,94209
 3.5000e+000 94457 -1.2668e+001 -4.6141e+001  9.6031e+000 37880 94287,94261,94431
 3.5000e+000 94480  2.8851e+001 -2.9117e+001  1.8999e+001 37880 94287,94431,94313
 3.5000e+000 94728 -5.7304e+001 -1.7956e+002  3.6805e+000 37426 94529,94607,94555
 3.5000e+000 94705 -8.7561e-001 -2.6978e+002 -2.7056e+001 37426 94529,94633,94607
 3.5000e+000 94682 -1.7031e+001 -2.7893e+002 -3.1053e+001 37426 94503,94633,94529
 3.5000e+000 94659 -2.7847e+001 -7.6125e+001 -4.6068e+001 37426 94555,94607,94581
 3.5000e+000 95257  8.3589e+000 -5.0176e+001  2.8532e+000 36722 95496,95280,94862
 3.5000e+000 95234 -3.0058e+001 -6.7253e+001 -1.3124e+000 36722 95496,94862,94836
 3.5000e+000 95211 -1.4248e+000 -3.6147e+001 -1.0929e+001 36722 95352,95280,95070
 3.5000e+000 95188 -6.3901e+000 -5.1524e+001 -1.1334e+001 36722 95352,95070,95044
 3.5000e+000 95165 -3.0380e+001 -3.6903e+001  1.1175e+001 36722 95424,94888,94862
 3.5000e+000 95142 -3.3048e+001  5.3558e+000  3.6224e+000 36722 94914,94966,94940
 3.5000e+000 95119 -1.4777e+001 -5.9766e+001 -4.5974e+000 36722 94966,95044,95018
 3.5000e+000 95096 -2.6618e-001 -3.3360e+001  1.7191e+000 36722 94966,95018,94992
 3.5000e+000 95306 -9.3072e-002 -4.3087e+001 -2.9678e+000 36722 95424,94862,95280
 3.5000e+000 95329  1.7913e+001  9.7635e+000 -1.9365e+001 36722 94914,95280,94966
 3.5000e+000 95378 -6.0444e+000 -3.2417e+001 -2.6198e+000 36722 94966,95280,95352
 3.5000e+000 95401 -5.0332e+000 -3.6662e+001 -4.3881e+000 36722 94966,95352,95044
 3.5000e+000 95450  1.4892e+001 -2.3564e+001  1.2592e+001 36722 94914,94888,95424
 3.5000e+000 95473  2.0978e+001 -3.1675e+001  1.6169e+000 36722 94914,95424,95280
 3.5000e+000 95522  1.3184e+001 -5.5108e+001  9.8689e-001 36722 95070,95280,95496
 3.5000e+000 95545  1.2551e+001 -5.3523e+001  2.0018e+000 36722 95070,95496,94836
 3.5000e+000 96130 -4.1547e+000 -3.8429e+000  1.2788e+000 36268 96153,95911,95859
 3.5000e+000 96107 -5.5068e+000 -1.2940e+001  6.1198e-001 36268 96153,95859,95807
 3.5000e+000 96084  5.0879e+000  6.2019e+000 -5.8026e+000 36268 95807,95859,95833
 3.5000e+000 96061 -1.0529e+000 -1.8787e+001  2.4708e+000 36268 95911,95989,95937
 3.5000e+000 96038 -1.7954e-001 -1.9371e+000  2.3056e+000 36268 95859,95911,95885
 3.5000e+000 96015 -3.0724e+000 -2.8222e+001  7.9790e+000 36268 95937,95989,95963
 3.5000e+000 96179  5.4093e-001 -1.2012e+001  3.4214e+000 36268 95989,95911,96153
 3.5000e+000 96202 -2.6428e+000 -2.3704e+001  2.3841e+000 36268 95989,96153,95807
 3.5000e+000 96531 -1.5992e+001 -1.3241e+002  3.9750e+001 35728 96358,96410,96384
 3.5000e+000 96508 -7.0327e+000 -1.1214e+002  2.9734e+001 35728 96332,96410,96358
 3.5000e+000 96485 -2.0852e+001 -1.2410e+002  4.4786e+001 35728 96332,96436,96410
 3.5000e+000 96462 -1.3337e+000 -6.8532e+001 -4.6379e+000 35728 96306,96436,96332
 3.5000e+000 96860  2.2475e+000 -6.5771e+001  5.2677e+000 35324 96687,96765,96713
 3.5000e+000 96837  7.7253e+000 -5.9574e+001 -8.7542e+000 35324 96661,96765,96687
 3.5000e+000 96814 -5.6799e+000 -1.4197e+001 -2.3474e+001 35324 96713,96765,96739
 3.5000e+000 96791 -4.8796e+000 -4.6498e+001 -7.0021e+000 35324 96635,96765,96661
 3.5000e+000 97366 -3.5450e+000 -1.3550e+002  2.2949e+001 34920 97389,97069,97043
 3.5000e+000 97343 -1.6547e+001 -1.1731e+002  5.6157e-001 34920 97389,97043,97199
 3.5000e+000 97320 -4.1995e+000 -9.8184e+001 -4.9143e+000 34920 97043,97225,97199
 3.5000e+000 97297 -9.3471e+000 -2.7401e+002  4.3451e+001 34920 97069,97121,97095
 3.5000e+000 97274 -1.6443e+001 -6.7261e+001 -1.0729e+001 34920 97121,97199,97173
 3.5000e+000 97251 -2.6950e+001 -7.0441e+001 -1.0574e+001 34920 97121,97173,97147
 3.5000e+000 97415  7.8654e+000 -1.2697e+002  5.6253e+000 34920 97121,97069,97389
 3.5000e+000 97438  1.7940e+001 -8.6468e+001 -2.0044e+001 34920 97121,97389,97199
 3.5000e+000 97708 -3.7773e+001 -4.7659e+001  8.4236e+000 34722 97509,97587,97535
 3.5000e+000 97685 -1.4429e+001 -4.6038e+001  3.4657e+000 34722 97509,97613,97587
 3.5000e+000 97662 -2.9336e+001 -5.4303e+001 -3.6931e-001 34722 97483,97613,97509
 3.5000e+000 97639 -2.5950e+001 -4.1408e+001  1.1405e+001 34722 97535,97587,97561
 3.5000e+000 98216 -2.1412e+001 -1.3626e+002  2.4056e+001 34318 97971,98075,97997
 3.5000e+000 98193  1.6005e+000 -9.9604e+001  3.7014e+001 34318 97893,98075,97971
 3.5000e+000 98170  5.4382e+001 -9.4759e+001  1.0681e+001 34318 97893,97971,97919
 3.5000e+000 98147 -1.2566e+001 -9.5638e+001  2.8058e+001 34318 97997,98075,98049
 3.5000e+000 98124  1.4944e+001 -1.1615e+002  1.9535e+001 34318 97919,97971,97945
 3.5000e+000 98101 -5.2548e+001 -1.8318e+002  4.2854e+001 34318 97997,98049,98023
 3.5000e+000 98594 -2.4287e+000 -2.5877e+001  1.4541e+000 33814 98961,98617,98424
 3.5000e+000 98571  1.9545e+001 -2.7832e+001 -1.0454e+000 33814 98689,98617,98372
 3.5000e+000 98548  3.5813e+001  1.9021e+001 -1.0860e+001 33814 99033,98689,98372
 3.5000e+000 98525  3.8593e+000 -1.4805e+001  9.4899e-001 33814 98761,98476,98450
 3.5000e+000 98502 -1.8194e+001 -1.8145e+001 -3.0259e+000 33814 98961,98424,98398
 3.5000e+000 98643 -3.5263e+000 -2.9732e+001 -3.5114e+000 33814 98450,98424,98617
 3.5000e+000 98666  1.5459e+001 -5.4116e+000  6.4654e+000 33814 98761,98450,98617
 3.5000e+000 98715  2.2873e+001 -4.7641e+001  7.9827e-001 33814 99161,98689,98320
 3.5000e+000 98738 -1.3232e+001 -4.8011e+001  8.7395e+000 33814 98320,98689,98346
 3.5000e+000 98787  1.5094e+001 -3.7290e+001  2.2268e+001 33814 98833,98761,98320
 3.5000e+000 98810  2.2911e+001 -5.2319e+001  8.1124e+000 33814 99161,98320,98761
 3.5000e+000 98859  2.2907e+001  2.9720e+001  3.4377e+000 33814 98476,98761,98833
 3.5000e+000 98987  2.0556e+001 -2.5284e+001 -4.2203e+000 33814 98372,98617,98961
 3.5000e+000 99010  5.9827e+000 -1.6233e+001 -1.1855e+001 33814 98372,98961,98398
 3.5000e+000 99059  1.8123e+001 -3.5645e+001  9.0245e+000 33814 98346,98689,99033
 3.5000e+000 99187  2.6387e+001 -3.2672e+001 -4.9021e+000 33814 98617,98689,99161
 3.5000e+000 99210  2.1802e+001 -4.0644e+001  3.3985e+000 33814 98617,99161,98761
 3.5000e+000 99588 -1.0304e+001 -3.9998e+001 -1.3132e+001 33566 99366,99444,99392
 3.5000e+000 99565  8.8693e-001 -2.2817e+001 -7.5390e+000 33566 99314,99444,99366
 3.5000e+000 99542  3.9803e+000 -2.5284e+001 -1.2584e+001 33566 99314,99366,99340
 3.5000e+000 99519  1.5258e+000 -2.0776e+001 -1.0109e+001 33566 99314,99470,99444
 3.5000e+000 99496 -5.2841e+000 -2.6177e+001 -1.3387e+001 33566 99392,99444,99418
 3.5000e+000 99787  1.3697e+001 -7.3808e+001  4.4112e+001 33105 99637,99689,99663
 3.5000e+000 99764  8.7846e+000 -5.1353e+001  1.6474e+000 33105 99611,99689,99637
 3.5000e+000 99741  1.5196e+001 -2.2776e+000  6.5213e+000 33105 99611,99715,99689
 3.5000e+000 100167 -3.1865e+001 -1.3595e+002  7.3977e+001 32651 100190,99971,99919
 3.5000e+000 100144  3.7432e+000 -7.2972e+001  5.4788e+001 32651 100262,100190,99919
 3.5000e+000 100121 -3.8825e+000 -6.7820e+001  4.5076e+001 32651 100262,99919,100049
 3.5000e+000 100098  4.5530e+000 -6.3796e+001  6.9531e+000 32651 99893,100049,99919
 3.5000e+000 100075 -4.5737e+001 -1.5216e+002  6.7099e+001 32651 99919,99971,99945
 3.5000e+000 100216  8.2999e+000 -1.5744e+002  2.9890e+001 32651 99997,99971,100190
 3.5000e+000 100239  2.4663e+001 -1.1695e+002  2.7569e+001 32651 99997,100190,100023
 3.5000e+000 100288  7.3432e+000 -1.0892e+002  5.0454e+001 32651 100023,100190,100262
 3.5000e+000 100311  2.5747e+001 -8.6725e+001  2.5589e+001 32651 100023,100262,100049
 3.5000e+000 100608 -3.3844e+001 -1.2798e+002  5.6678e+000 32254 100386,100490,100464
 3.5000e+000 100585 -3.2699e+001 -8.2139e+001 -7.0969e+000 32254 100360,100490,100386
 3.5000e+000 100562 -4.5304e+001 -1.6591e+002 -1.5597e+001 32254 100386,100464,100412
 3.5000e+000 100539 -7.8641e+000 -7.6567e+001 -1.5883e+001 32254 100334,100490,100360
 3.5000e+000 100516  6.2460e+000 -7.0996e+001  4.1971e+000 32254 100412,100464,100438
 3.5000e+000 100758 -9.5927e+000  5.8409e+000  4.5004e+000 31914 100985,100781,100683
 3.5000e+000 100735 -3.5871e+001 -5.1510e+000  3.2125e+001 31914 100853,100781,100657
 3.5000e+000 100807  9.6250e+000  9.4246e+000 -1.0464e+001 31914 100709,100683,100781
 3.5000e+000 100830 -8.6095e+000  1.0732e+001  2.1174e+001 31914 100709,100781,100631
 3.5000e+000 100879 -2.1159e+001 -2.9615e+001  2.7272e+001 31914 100631,100781,100853
 3.5000e+000 101011 -5.8933e+000 -6.9734e+000  9.0385e+000 31914 100657,100781,100985
 3.5000e+000 101191 -1.2942e-001 -6.8084e+000  1.7358e-003 31418 101113,101165,101139
 3.5000e+000 101341 -9.0094e+001 -1.8962e+002 -1.5030e+001 31106 101214,101266,101240
 3.5000e+000 101318 -5.2454e+001 -7.7189e+001  2.5899e+000 31106 101214,101292,101266
 3.5000e+000 101591 -4.3141e+001 -1.5246e+002  9.5502e+001 30552 101614,101470,101444
 3.5000e+000 101568 -5.6175e+001 -8.8804e+001  3.4924e+001 30552 101366,101496,101470
 3.5000e+000 101545 -1.0965e+001 -1.4712e+002  6.8810e+001 30552 101614,101444,101392
 3.5000e+000 101522 -7.2842e+000 -4.8290e+001 -8.1133e+000 30552 101392,101444,101418
 3.5000e+000 101640  2.3860e+000 -1.5285e+002  8.3147e+001 30552 101366,101470,101614
 3.5000e+000 101663  2.9572e+001 -1.5131e+002  5.6641e+001 30552 101366,101614,101392
 3.5000e+000 102301  1.1886e+001 -1.4280e+002 -4.3108e+000 30042 102396,102324,102059
 3.5000e+000 102278 -2.0094e+001 -1.1694e+002 -3.0139e+001 30042 102324,101981,101955
 3.5000e+000 102255 -6.7862e+000 -1.1841e+002  2.9896e+001 30042 102396,102059,102033
 3.5000e+000 102232 -8.9889e+000 -6.9764e+001 -5.9617e+000 30042 101929,102111,101955
 3.5000e+000 102209 -8.7793e+000 -1.2810e+002 -1.1239e+001 30042 102059,102111,102085
 3.5000e+000 102186 -1.4693e+001 -7.3017e+001 -3.8913e+000 30042 101929,102137,102111
 3.5000e+000 102163  6.2140e+000 -1.7762e+001 -1.9307e+001 30042 101981,102033,102007
 3.5000e+000 102350  1.4903e+001 -1.3385e+002 -2.2228e+001 30042 102111,102059,102324
 3.5000e+000 102373  2.4130e+001 -1.0339e+002 -2.3457e+001 30042 102111,102324,101955
 3.5000e+000 102422  3.1554e+001 -6.2371e+001 -8.9429e+000 30042 101981,102324,102396
 3.5000e+000 102445  1.3969e+001 -3.7594e+001  2.6263e+001 30042 101981,102396,102033
 3.5000e+000 103000  3.2812e+001 -1.3379e+002  2.4314e+000 29730 103023,102706,102654
 3.5000e+000 102977 -2.1350e+001 -1.3760e+002 -1.1198e+001 29730 103023,102654,102810
 3.5000e+000 102954 -9.7407e+001 -2.5261e+002 -9.1676e+000 29730 102732,102810,102784
 3.5000e+000 102931 -2.2311e+001 -1.5879e+002 -1.7179e+001 29730 102628,102810,102654
 3.5000e+000 102908  3.3659e+001 -7.5481e+001  1.4569e+001 29730 102654,102706,102680
 3.5000e+000 102885 -5.1429e+001 -8.5545e+001 -6.1275e+001 29730 102732,102784,102758
 3.5000e+000 102862 -6.2098e+001 -1.7167e+002 -2.9936e+001 29730 102628,102836,102810
 3.5000e+000 103049 -5.7985e-002 -1.5288e+002 -2.3343e+001 29730 102732,102706,103023
 3.5000e+000 103072 -3.3395e+001 -1.3539e+002 -3.3767e+001 29730 102732,103023,102810
 3.5000e+000 103222  6.8043e+001 -1.3227e+002 -6.4369e+000 29226 103095,103147,103121
 3.5000e+000 103199  5.0577e+001 -9.9842e+001 -1.8495e+001 29226 103095,103173,103147
 3.5000e+000 103730 -9.7468e+000 -1.3464e+002  1.0424e+001 28822 103537,103589,103563
 3.5000e+000 103707 -3.6716e-001 -1.2332e+002  5.9837e+000 28822 103433,103589,103537
 3.5000e+000 103684  1.3734e+000 -1.0829e+002 -1.8201e+001 28822 103433,103537,103459
 3.5000e+000 103661  1.1640e+001 -1.2413e+002  1.0142e+001 28822 103407,103589,103433
 3.5000e+000 103638 -1.4919e+001 -4.8823e+001  3.0299e+001 28822 103459,103511,103485
 3.5000e+000 103615 -3.1495e+001 -3.4596e+001  2.3798e+001 28822 103459,103537,103511
 3.5000e+000 103880  2.5236e+001 -9.5718e+001  2.5381e+001 28368 103975,103903,103779
 3.5000e+000 103857 -6.6005e-001 -1.8109e+002  7.6593e+000 28368 103903,103753,103831
 3.5000e+000 103929 -4.3876e+000 -7.5576e+001  6.9137e+000 28368 103805,103779,103903
 3.5000e+000 103952 -1.1074e+001 -1.2106e+002 -4.9691e-001 28368 104105,103903,103831
 3.5000e+000 104001  2.0562e+001 -1.1562e+002 -6.5299e+000 28368 103753,103903,103975
 3.5000e+000 104131 -2.0157e+001 -1.1347e+002  1.9082e+001 28368 103805,103903,104105
 3.5000e+000 104539  6.8148e+000 -7.2623e+000  1.3159e+001 28028 104562,104340,104314
 3.5000e+000 104516  2.8835e+001  4.9906e+001  7.5460e+000 28028 104634,104562,104314
 3.5000e+000 104493 -8.4163e+000 -7.3074e+000 -3.0541e+001 28028 104762,104366,104340
 3.5000e+000 104470  4.6645e+000  2.5184e+001 -1.9152e+000 28028 104366,104418,104392
 3.5000e+000 104588  1.6706e+001 -1.9392e+001 -1.1507e+001 28028 104762,104340,104562
 3.5000e+000 104611  1.2976e+001 -1.3597e+001  1.3406e+001 28028 104418,104562,104444
 3.5000e+000 104660  4.5755e+001 -2.2620e-001  9.4355e+000 28028 104444,104562,104634
 3.5000e+000 104788  1.3984e+001  1.3533e+001 -2.1867e+001 28028 104418,104366,104762
 3.5000e+000 104811  4.3200e+001  9.5729e+000 -4.5120e-001 28028 104418,104762,104562
 3.5000e+000 105010  1.1610e+001  5.8150e+000 -2.7467e+000 27324 105033,104886,104860
 3.5000e+000 104987  9.1446e+000  8.9600e+000  8.8255e+000 27324 105033,104860,104834
 3.5000e+000 104964  2.1819e+001  7.0101e+001 -1.2248e+001 27324 105105,104912,104886
 3.5000e+000 105059  2.3547e+001  4.9706e+001 -1.4966e+001 27324 105105,104886,105033
 3.5000e+000 105082  1.5189e+001 -3.0275e+001 -9.0536e+000 27324 104938,105033,104834
 3.5000e+000 105131  5.6819e+001  5.0562e+001  2.1367e+001 27324 104938,104912,105105
 3.5000e+000 105154  3.8349e+001 -1.6026e-001  1.1584e+001 27324 104938,105105,105033
 3.5000e+000 105402 -2.5901e+001 -9.6087e+001 -6.0472e+000 27012 105229,105281,105255
 3.5000e+000 105379  1.1552e+000 -3.6203e+001 -2.7558e+001 27012 105229,105307,105281
 3.5000e+000 105356  4.5679e+001 -8.2264e+000 -1.5275e+001 27012 105177,105307,105229
 3.5000e+000 105333 -4.5369e+001 -1.0856e+002 -7.9288e+001 27012 105177,105229,105203
 3.5000e+000 105603  3.1323e+001  2.9922e+001  3.8685e+000 26508 105626,105453,105427
 3.5000e+000 105580  4.0201e+001  5.0644e+001  3.2718e+001 26508 105626,105427,105505
 3.5000e+000 105557  1.3183e+001  5.4686e+001  2.6494e+001 26508 105427,105531,105505
 3.5000e+000 105652  1.2584e+001  2.2002e+001 -4.0905e+000 26508 105479,105453,105626
 3.5000e+000 105675  1.1568e+001  3.1333e+001  2.2385e+001 26508 105479,105626,105505
 3.5000e+000 106057 -2.1534e+001 -9.0341e+001  5.8328e+001 25947 106080,105887,105861
 3.5000e+000 106034 -8.0235e+000 -6.7859e+001  4.4684e+001 25947 106080,105861,105783
 3.5000e+000 106011 -5.2682e+000 -4.6705e+001  4.0047e+001 25947 105783,105835,105809
 3.5000e+000 105988 -2.7265e+001 -6.4632e+001  4.8880e+001 25947 105783,105861,105835
 3.5000e+000 105965  2.4471e+001 -5.6290e+001  2.7099e+001 25947 105887,105939,105913
 3.5000e+000 106106 -1.8367e+001 -8.1577e+001  3.8201e+001 25947 105939,105887,106080
 3.5000e+000 106129  1.0046e+001 -4.0846e+001  2.1668e+001 25947 105939,106080,105783
 3.5000e+000 106714 -1.8697e+001 -4.0924e+001  2.3407e+001 25557 106809,106737,106547
 3.5000e+000 106691 -2.8682e+001 -8.8030e+001  4.9819e+001 25557 106737,106417,106391
 3.5000e+000 106668 -4.6338e-001 -3.0866e+001  1.9086e+001 25557 106809,106547,106495
 3.5000e+000 106645 -3.1767e+001 -1.6139e+002  7.3607e+001 25557 106417,106495,106469
 3.5000e+000 106622 -1.4355e+000 -2.8818e+001  2.2273e+001 25557 106495,106547,106521
 3.5000e+000 106599 -4.2933e+001 -1.2665e+002  7.1963e+001 25557 106417,106469,106443
 3.5000e+000 106763 -3.5691e+001 -5.9452e+001  3.2537e+001 25557 106573,106547,106737
 3.5000e+000 106786 -9.3430e+000 -4.8695e+001  3.8656e+001 25557 106573,106737,106391
 3.5000e+000 106835  4.3275e+000 -5.8604e+001  3.1575e+001 25557 106417,106737,106809
 3.5000e+000 106858  1.7107e+001 -5.0297e+001  2.6319e+001 25557 106417,106809,106495
 3.5000e+000 107364  6.9393e+000 -2.4115e+001 -3.0221e+000 25153 107459,107387,107171
 3.5000e+000 107341  9.3889e+000 -1.0545e+001 -4.9121e+000 25153 107387,107119,107067
 3.5000e+000 107318  5.3409e+000 -9.0065e+000  1.2639e+001 25153 107459,107171,107145
 3.5000e+000 107295  1.2901e+001 -6.3305e+000 -1.1932e+001 25153 107531,107223,107197
 3.5000e+000 107272  2.5606e+001  2.2365e+001 -1.1507e+001 25153 107067,107119,107093
 3.5000e+000 107249  1.9487e+001  1.3751e+001 -1.2504e+001 25153 107041,107223,107067
 3.5000e+000 107413 -9.6975e+000 -2.3070e+001 -1.0897e+001 25153 107197,107171,107387
 3.5000e+000 107436  9.6029e+000 -1.1313e+001 -5.9469e+000 25153 107531,107197,107387
 3.5000e+000 107485  1.8639e+001  4.4200e+000 -1.5287e-001 25153 107119,107387,107459
 3.5000e+000 107508  1.7898e+001  1.6453e+001  1.7478e+001 25153 107119,107459,107145
 3.5000e+000 107557  1.6527e+001 -1.2486e+000 -1.4623e+001 25153 107067,107223,107531
 3.5000e+000 107580  1.4994e+001 -1.5329e+000 -8.9118e+000 25153 107067,107531,107387
 3.5000e+000 107958  8.1461e+000 -8.8773e+001 -2.4259e+001 24741 107736,107814,107788
 3.5000e+000 107935 -2.4456e+001 -1.2141e+002 -4.6940e+001 24741 107736,107840,107814
 3.5000e+000 107912 -3.4343e+001 -1.1036e+002 -5.3411e+001 24741 107684,107840,107736
 3.5000e+000 107889 -2.6198e+001 -5.7867e+001 -3.3475e+001 24741 107736,107788,107762
 3.5000e+000 107866 -4.9491e+001 -1.6863e+002 -6.7417e+001 24741 107684,107736,107710
 3.5000e+000 108157 -1.2058e+001  6.6330e-001  1.1160e+000 24237 108180,108059,108007
 3.5000e+000 108134  3.5969e+001  1.9985e+001  4.9763e+000 24237 108180,108007,107981
 3.5000e+000 108111  2.1920e+001 -5.5427e+001  8.2720e+000 24237 108007,108059,108033
 3.5000e+000 108206 -1.8922e+000  7.4639e+000  4.0295e+001 24237 108085,108059,108180
 3.5000e+000 108229  4.4467e+001  2.6005e+001  4.3891e+001 24237 108085,108180,107981
 3.5000e+000 108658 -2.0883e+001 -1.0028e+002  2.3453e+001 23776 108361,108413,108387
 3.5000e+000 108635 -2.9044e+001 -1.6903e+002 -2.0469e+001 23776 108753,108681,108361
 3.5000e+000 108612 -2.2563e+000 -9.5780e+001 -1.7576e+001 23776 108681,108465,108439
 3.5000e+000 108589  3.3892e+000 -1.8534e+002  3.5478e+000 23776 108753,108361,108335
 3.5000e+000 108566 -2.2126e+001 -1.6537e+002  6.9639e+001 23776 108335,108517,108465
 3.5000e+000 108543 -2.9886e+001 -1.5298e+002  6.3495e+001 23776 108465,108517,108491
 3.5000e+000 108707 -4.9424e+001 -1.0180e+002 -1.3064e+001 23776 108413,108361,108681
 3.5000e+000 108730 -2.0933e+001 -6.5194e+001  5.6579e+000 23776 108413,108681,108439
 3.5000e+000 108779  1.7189e+000 -9.4675e+001 -1.1165e+001 23776 108465,108681,108753
 3.5000e+000 108802  7.6210e+000 -1.5451e+002  3.4494e+000 23776 108465,108753,108335
 3.5000e+000 109023  1.3881e+001  1.1454e+000 -3.6289e+001 23414 108873,108925,108899
 3.5000e+000 109000  6.7413e+001  2.8034e+001 -2.7251e+001 23414 108847,108925,108873
 3.5000e+000 108977  9.3898e+001  1.2862e+002  1.2398e+001 23414 108847,108951,108925
 3.5000e+000 109474 -1.5055e+000 -3.9054e+001  3.4302e+000 23024 109151,109307,109177
 3.5000e+000 109451 -5.6023e-001 -3.9970e-001 -4.8695e-001 23024 109151,109333,109307
 3.5000e+000 109428  1.8510e+001 -1.4065e+002 -4.0558e+000 23024 109177,109281,109203
 3.5000e+000 109405 -1.5520e+001 -9.9232e+001 -3.0801e+001 23024 109177,109307,109281
 3.5000e+000 109382  2.0146e+001 -1.0758e+002  1.6515e+001 23024 109203,109281,109229
 3.5000e+000 109359 -1.0852e+001 -9.9441e+001 -3.1898e+000 23024 109229,109281,109255
 3.5000e+000 109820 -8.8906e+000 -8.4372e+001  1.2199e+001 22506 109843,109601,109523
 3.5000e+000 109797 -1.1091e+000 -6.8589e+001  5.6535e+000 22506 109843,109523,109497
 3.5000e+000 109774  7.8036e-001 -9.8353e+001  2.7339e+000 22506 109915,109653,109627
 3.5000e+000 109751 -1.8977e+001 -6.3348e+001  4.3623e+000 22506 109497,109679,109653
 3.5000e+000 109728 -1.7080e+001 -1.0573e+002 -1.8462e+001 22506 109523,109601,109575
 3.5000e+000 109705 -4.8278e+001 -1.3560e+002 -3.2218e+001 22506 109523,109575,109549
 3.5000e+000 109869  6.7897e+000 -7.5379e+001  1.6199e+001 22506 109627,109601,109843
 3.5000e+000 109892  1.0623e+001 -8.3406e+001  1.2496e+001 22506 109915,109627,109843
 3.5000e+000 109941 -1.2932e+001 -8.8197e+001 -6.1330e+000 22506 109497,109653,109915
 3.5000e+000 109964 -1.1785e+001 -8.8230e+001  1.1164e+000 22506 109497,109915,109843
 3.5000e+000 110163  4.0768e+000 -5.8796e+001 -1.3161e+000 21936 110186,110039,110013
 3.5000e+000 110140  1.6841e+001 -3.9265e+001  9.0028e+000 21936 110390,110186,110013
 3.5000e+000 110117  3.4179e+001 -5.7454e+001  2.6198e+001 21936 110390,110013,109987
 3.5000e+000 110212  2.2241e+001 -2.6480e+001 -2.7161e+001 21936 110065,110039,110186
 3.5000e+000 110235 -5.8479e+000 -3.0587e+001 -7.5850e+000 21936 110258,110186,110091
 3.5000e+000 110284 -3.7624e+001 -5.4879e+001 -1.8241e+001 21936 110065,110186,110258
 3.5000e+000 110416 -2.1410e+001 -5.1222e+001  1.4548e+001 21936 110091,110186,110390
 3.5000e+000 110439  4.4272e+000 -6.3930e+001  2.9811e+001 21936 110091,110390,109987
 3.5000e+000 110709  2.9584e+001 -8.3513e+001  1.8935e+000 21338 110510,110614,110588
 3.5000e+000 110686  1.2973e+001 -1.1760e+002 -7.2828e+000 21338 110484,110614,110510
 3.5000e+000 110663  4.9322e+001 -2.2357e-001  1.9250e+000 21338 110510,110562,110536
 3.5000e+000 110640  1.4196e+001 -8.4104e+001 -4.0488e+000 21338 110510,110588,110562
 3.5000e+000 111296  1.6054e+001 -5.5640e+001  8.2829e-001 20934 111025,111155,111103
 3.5000e+000 111273 -9.0560e+000 -1.7524e+002  6.7319e-002 20934 110999,111155,111025
 3.5000e+000 111250 -3.9394e-001 -6.0986e+001 -5.4565e+000 20934 111103,111155,111129
 3.5000e+000 111227 -2.0088e+001 -1.3198e+002 -1.7457e+001 20934 111051,111103,111077
 3.5000e+000 111204 -2.1544e+001 -1.3129e+002 -1.5963e+001 20934 111025,111103,111051
 3.5000e+000 111181 -2.4083e+001 -2.0867e+002 -6.3587e+000 20934 110973,111155,110999
 3.5000e+000 111930 -4.1208e+001 -8.9562e+001 -4.7798e+001 20494 111662,111714,111688
 3.5000e+000 111907 -2.3991e+001 -4.9500e+001 -3.4224e+001 20494 111584,111714,111662
 3.5000e+000 111884 -1.3701e+001 -4.3672e+001 -3.6697e+001 20494 111584,111766,111714
 3.5000e+000 111861  4.1444e+001 -8.8730e+001 -4.4952e+000 20494 111584,111636,111610
 3.5000e+000 111838 -1.5165e+001 -5.7813e+001 -4.1712e+001 20494 111584,111662,111636
 3.5000e+000 111815 -3.0554e+000 -1.4046e+001  2.8681e-001 20494 111558,111766,111584
 3.5000e+000 111792 -8.7833e+000 -8.0879e+000  4.8563e-001 20494 111714,111766,111740
 3.5000e+000 112249 -3.2478e+000 -2.8306e+002  2.3110e+001 19940 111975,112053,112001
 3.5000e+000 112226  8.2368e+001 -1.0414e+002 -1.9103e+000 19940 111975,112131,112053
 3.5000e+000 112203  1.1546e+001 -2.5730e+002  0.0000e+000 19940 112053,112105,112079
 3.5000e+000 112180  2.9668e+001 -2.4703e+002  4.3306e+000 19940 112053,112131,112105
 3.5000e+000 112157  2.7787e+001 -2.4253e+002 -8.5388e+000 19940 112001,112053,112027
 3.5000e+000 112757  2.4628e+001 -8.3291e+001 -2.6163e+001 19486 112780,112538,112486
 3.5000e+000 112734  2.0477e+001 -9.0371e+001 -1.1525e+001 19486 112780,112486,112460
 3.5000e+000 112711 -1.7223e+000 -7.3750e+001 -1.1037e+001 19486 112852,112616,112590
 3.5000e+000 112688  8.7712e+001 -1.2012e+002 -3.4256e+001 19486 112486,112538,112512
 3.5000e+000 112665 -2.0207e+001 -1.0640e+002  7.3708e+000 19486 112434,112616,112460
 3.5000e+000 112642 -1.4673e+000 -6.8616e+001 -1.6991e+001 19486 112538,112590,112564
 3.5000e+000 112806  1.3306e+001 -8.9448e+001 -2.2524e+001 19486 112590,112538,112780
 3.5000e+000 112829  2.3787e+001 -8.0393e+001 -1.6557e+001 19486 112852,112590,112780
 3.5000e+000 112878 -1.8254e+001 -8.1468e+001 -4.1955e+000 19486 112460,112616,112852
 3.5000e+000 112901 -3.2379e+000 -9.7932e+001 -6.9702e+000 19486 112460,112852,112780
 3.5000e+000 113252 -7.5786e+001 -1.4216e+002 -6.2337e+000 19096 113105,113157,113131
 3.5000e+000 113229 -6.0065e+001 -1.0054e+002 -6.0183e-001 19096 113053,113157,113105
 3.5000e+000 113206 -4.8035e+001 -9.4372e+001  1.5637e+000 19096 113027,113157,113053
 3.5000e+000 113183 -8.8172e+001 -1.6270e+002  7.5678e+000 19096 113053,113105,113079
 3.5000e+000 113451  1.3068e+000 -1.2343e+002 -3.1532e+001 18642 113327,113379,113353
 3.5000e+000 113428 -1.7746e+001 -1.7928e+002 -2.2843e+001 18642 113301,113379,113327
 3.5000e+000 113405  1.5761e+001 -1.4060e+002 -6.6867e+000 18642 113275,113379,113301
 3.5000e+000 113699  1.3370e+001 -1.3430e+002 -7.8868e+000 18138 113474,113552,113526
 3.5000e+000 113676  5.0114e+001 -1.5059e+002 -2.6913e+001 18138 113474,113578,113552
 3.5000e+000 113653  5.0558e+001 -1.4651e+002 -2.7282e+001 18138 113474,113604,113578
 3.5000e+000 113630  4.1378e+001 -1.0164e+002  5.3523e+000 18138 113474,113526,113500
 3.5000e+000 113851 -1.1853e+001 -1.5034e+002 -4.5784e+000 17682 113750,113802,113776
 3.5000e+000 113828  7.9820e+000 -1.3440e+002  2.3946e+000 17682 113724,113802,113750
 3.5000e+000 114383  3.7087e+001 -1.6363e+002 -1.3763e+001 17106 114086,114242,114164
 3.5000e+000 114360  2.2021e+001 -1.7014e+002 -1.4408e+001 17106 114060,114242,114086
 3.5000e+000 114337 -3.0932e+001 -3.0553e+002  2.4251e+001 17106 114086,114164,114138
 3.5000e+000 114314 -7.9524e+001 -4.7258e+002 -9.4511e+000 17106 114190,114242,114216
 3.5000e+000 114291 -3.2140e+001 -3.3364e+002 -3.4460e+001 17106 114164,114242,114190
 3.5000e+000 114268  1.4695e+001 -2.6891e+002  5.4196e+001 17106 114086,114138,114112
 3.5000e+000 114680 -5.2104e+001 -1.6229e+002  1.4068e+000 16766 114703,114432,114406
 3.5000e+000 114657 -5.6386e+001 -1.6250e+002 -1.8322e+000 16766 114703,114406,114510
 3.5000e+000 114634 -5.6466e+001 -1.1919e+002  1.1224e+001 16766 114406,114536,114510
 3.5000e+000 114611 -3.6773e+001 -1.7331e+002 -1.0164e+001 16766 114432,114484,114458
 3.5000e+000 114588 -7.0024e+001 -1.4138e+002  5.2634e+001 16766 114406,114562,114536
 3.5000e+000 114729 -3.5949e+001 -1.6128e+002  4.7991e+000 16766 114484,114432,114703
 3.5000e+000 114752 -4.9351e+001 -1.6827e+002  8.2153e-001 16766 114484,114703,114510
 3.5000e+000 114902  4.6035e+001 -2.7370e+002 -4.4469e+001 16362 114775,114827,114801
 3.5000e+000 114879  3.9863e+001 -2.6362e+002 -4.6511e+001 16362 114775,114853,114827
 3.5000e+000 115054 -3.0477e+002 -4.9081e+002 -2.2751e+001 15908 114953,115005,114979
 3.5000e+000 115031 -2.8244e+002 -5.0572e+002 -1.5735e+001 15908 114927,115005,114953
 3.5000e+000 115326  1.7243e+001 -1.0248e+002  4.7367e+001 15251 115101,115179,115153
 3.5000e+000 115303  1.0939e+001 -9.3410e+001  2.9077e+000 15251 115101,115231,115179
 3.5000e+000 115280  1.4013e+001 -8.6911e+001  2.0324e+000 15251 115179,115231,115205
 3.5000e+000 115257 -9.2412e+001 -4.6902e+002  3.8325e+001 15251 115101,115153,115127
 3.5000e+000 115429 -2.7379e+001 -1.7672e+002  3.5449e+001 421 115351,115403,115377
 3.6000e+000 66230 -4.1874e+001  4.2722e+001  1.3975e+001 65954 66152,66204,66178
 3.6000e+000 66429  7.0412e+000  2.9833e+001  8.6883e+000 65642 66279,66331,66305
 3.6000e+000 66406 -4.3141e+000 -1.0489e+001  3.7401e+000 65642 66279,66357,66331
 3.6000e+000 66383  1.0205e+001  4.1722e+001 -1.2902e+001 65642 66253,66357,66279
 3.6000e+000 66628 -4.2884e+000 -3.5781e+001  1.0374e+001 65444 66452,66530,66478
 3.6000e+000 66605  1.2118e+001 -6.5007e+001 -1.3022e-001 65444 66452,66556,66530
 3.6000e+000 66582 -4.6785e+000 -5.8607e+001  1.3703e+001 65444 66478,66530,66504
 3.6000e+000 67006 -2.5032e+000 -3.8383e+001  3.1503e+000 65246 66732,66810,66758
 3.6000e+000 66983 -3.7959e+000 -1.8018e+001  7.8374e+000 65246 66732,66836,66810
 3.6000e+000 66960 -6.0874e-001 -1.1374e+001  8.8052e+000 65246 66732,66862,66836
 3.6000e+000 66937 -4.4164e-002 -3.0976e+001  2.8236e+000 65246 66758,66810,66784
 3.6000e+000 66914  1.2601e+001 -9.2078e+001 -2.9371e+001 65246 66732,66888,66862
 3.6000e+000 67107  3.5094e+001 -3.6636e+001 -1.2816e+001 64934 67029,67081,67055
 3.6000e+000 67306 -1.0256e+001 -7.0590e+000  9.7651e+000 64736 67156,67208,67182
 3.6000e+000 67283 -4.9250e+000 -3.5158e+000  8.0633e+000 64736 67130,67208,67156
 3.6000e+000 67260  8.2129e+000 -4.9226e+001  1.7150e+001 64736 67130,67234,67208
 3.6000e+000 67507 -5.2994e-002 -4.3091e+001 -5.6458e+000 64389 67357,67409,67383
 3.6000e+000 67484 -6.5077e+000 -3.8783e+001 -8.3847e+000 64389 67357,67435,67409
 3.6000e+000 67461  8.4519e+000 -6.1494e+001 -3.0701e+000 64389 67331,67435,67357
 3.6000e+000 67708  3.7906e+001 -5.1215e+001  1.2350e+001 63985 67731,67584,67558
 3.6000e+000 67685  2.0559e+001 -3.2539e+000  4.2704e+000 63985 67731,67558,67636
 3.6000e+000 67662  8.1686e+000 -5.5887e+000  6.7130e+000 63985 67532,67636,67558
 3.6000e+000 67757  3.0154e+001 -7.5549e+001  9.1198e+000 63985 67610,67584,67731
 3.6000e+000 67780  3.8440e+000 -4.1277e+001 -1.3741e+000 63985 67610,67731,67636
 3.6000e+000 67981 -2.2300e+000  1.2987e+001  2.7279e+000 63787 67857,67909,67883
 3.6000e+000 67958  3.1736e+000  2.9395e+001 -4.6650e+000 63787 67831,67909,67857
 3.6000e+000 67935 -7.7700e+000 -6.6591e+000 -6.0242e+000 63787 67805,67909,67831
 3.6000e+000 68231  4.6434e-001 -7.4136e+001  7.0767e+000 63589 68254,68084,68032
 3.6000e+000 68208 -3.0427e+000 -2.8973e+001  5.7048e+000 63589 68254,68032,68006
 3.6000e+000 68185  6.9686e+000 -1.4208e+001  1.0358e+001 63589 68326,68136,68110
 3.6000e+000 68162 -1.0596e+000 -6.9392e+001 -8.4741e+000 63589 68032,68084,68058
 3.6000e+000 68280  3.0695e+000 -3.4378e+001  8.5479e+000 63589 68110,68084,68254
 3.6000e+000 68303 -2.0863e-001 -1.7162e+001  1.6428e+001 63589 68326,68110,68254
 3.6000e+000 68352  1.7788e+001  7.9050e-001 -8.8231e+000 63589 68006,68136,68326
 3.6000e+000 68375  4.5088e+000 -7.5884e+000 -1.9775e+000 63589 68006,68326,68254
 3.6000e+000 68836  1.2122e+000  1.3747e+001  6.4003e+000 63128 68859,68588,68562
 3.6000e+000 68813 -7.0704e-001  2.8202e+000  1.7872e+001 63128 68859,68562,68692
 3.6000e+000 68790  1.8438e+001 -1.9207e+001  7.1951e+000 63128 68614,68692,68666
 3.6000e+000 68767 -7.0323e+000 -7.8059e+000  1.4227e+001 63128 68562,68718,68692
 3.6000e+000 68744  2.1328e+001 -1.8417e+001 -3.0703e+001 63128 68614,68666,68640
 3.6000e+000 68885  8.3890e+000  3.0373e+001  6.4248e-001 63128 68614,68588,68859
 3.6000e+000 68908  5.3648e+000  1.5744e+001  1.1849e+001 63128 68614,68859,68692
 3.6000e+000 69237  6.0973e+000 -2.7236e+001  9.2655e+000 62731 69064,69116,69090
 3.6000e+000 69214 -3.2648e+000 -6.2383e+001  1.1006e+000 62731 69064,69142,69116
 3.6000e+000 69191 -8.7403e+000 -5.3341e+001  7.1907e+000 62731 69038,69142,69064
 3.6000e+000 69168  6.4560e-001 -9.9473e+001  6.6230e+000 62731 69012,69142,69038
 3.6000e+000 69539  7.0000e-001  2.2049e+001 -4.5858e+000 62433 69389,69467,69441
 3.6000e+000 69516  5.5561e+000 -6.0543e+000  3.5369e-001 62433 69363,69467,69389
 3.6000e+000 69493  4.7424e+000 -5.4805e+000  1.6898e+001 62433 69389,69441,69415
 3.6000e+000 69966  3.5809e+000 -2.6135e+001  1.8124e+001 62235 69989,69773,69721
 3.6000e+000 69943  1.3092e+001 -5.2732e+001 -9.7439e+000 62235 70061,69989,69721
 3.6000e+000 69920  2.3995e+001 -5.1294e+001 -3.5239e+000 62235 70061,69721,69643
 3.6000e+000 69897  8.0234e+000  9.5809e+000  8.8160e+000 62235 69721,69773,69747
 3.6000e+000 69874 -1.9170e+001 -1.5572e+002  3.6212e-001 62235 69643,69721,69695
 3.6000e+000 69851  6.5900e+001  1.7863e+002 -2.8926e+001 62235 69643,69695,69669
 3.6000e+000 70015 -3.4207e+000 -5.4445e+001  9.5396e+000 62235 69799,69773,69989
 3.6000e+000 70038 -2.9356e+001 -7.6221e+001 -2.9679e+001 62235 69799,69989,69825
 3.6000e+000 70087 -6.6453e+000 -4.5626e+001 -7.2993e+000 62235 69825,69989,70061
 3.6000e+000 70110  8.4231e+000 -4.2729e+001 -3.8281e+000 62235 69825,70061,69643
 3.6000e+000 70260  7.8234e+000 -4.7778e+000 -3.4908e+000 62037 70133,70185,70159
 3.6000e+000 70237 -1.4672e-001 -7.8992e+000 -8.3430e+000 62037 70133,70211,70185
 3.6000e+000 70640 -1.1525e+001 -4.4447e+001  1.1063e+001 61583 70735,70663,70418
 3.6000e+000 70617 -2.4522e+001 -3.6678e+001  1.4155e+001 61583 70663,70366,70522
 3.6000e+000 70594 -7.5556e+000 -4.2052e+001  1.6277e+001 61583 70735,70418,70392
 3.6000e+000 70571 -2.2854e+001 -5.7904e+001  5.2124e+000 61583 70418,70496,70444
 3.6000e+000 70548 -4.3455e+001 -4.5182e+001  1.5782e+000 61583 70444,70496,70470
 3.6000e+000 70689 -2.6243e+001 -5.9331e+001  5.0378e+000 61583 70496,70418,70663
 3.6000e+000 70712 -3.9963e+001 -4.3179e+001  8.8357e+000 61583 70496,70663,70522
 3.6000e+000 70761 -2.5524e+001 -4.8146e+001  3.7090e+000 61583 70366,70663,70735
 3.6000e+000 70784 -1.7158e+001 -4.3850e+001  8.8643e+000 61583 70366,70735,70392
 3.6000e+000 71054 -2.6729e+000 -1.2922e+000  2.4239e+000 61313 71077,70881,70855
 3.6000e+000 71031 -2.1598e+000  3.1188e+000  7.7447e-001 61313 71077,70855,70829
 3.6000e+000 71008 -7.3966e-001 -1.9913e-001 -3.7774e+000 61313 70829,70959,70933
 3.6000e+000 70985 -7.7358e-001  1.2147e+000  1.2858e-001 61313 70881,70933,70907
 3.6000e+000 71103 -1.0214e+000  1.4150e+000  3.2731e-001 61313 70933,70881,71077
 3.6000e+000 71126 -1.8754e+000  4.1182e+000 -1.2156e+000 61313 70933,71077,70829
 3.6000e+000 71604 -5.9879e-001 -6.0499e+001  7.7184e+000 60909 71627,71232,71414
 3.6000e+000 71581 -1.1324e+001 -4.4947e+001 -1.2273e+001 60909 71232,71440,71414
 3.6000e+000 71558  3.7632e+000 -4.0107e+001  1.0707e+001 60909 71627,71414,71336
 3.6000e+000 71535  1.4207e+001 -1.1264e+002  2.8960e+001 60909 71362,71414,71388
 3.6000e+000 71512 -1.0503e+001 -8.0690e+001  5.4920e+000 60909 71336,71414,71362
 3.6000e+000 71489  1.6136e+001 -1.6967e+001 -2.3141e+000 60909 71258,71336,71310
 3.6000e+000 71466 -1.4057e+001 -3.0970e+001  2.2425e+000 60909 71258,71310,71284
 3.6000e+000 71653  2.3745e+000 -4.2524e+001  8.5587e+000 60909 71258,71232,71627
 3.6000e+000 71676 -6.4053e-001 -3.2324e+001  1.1599e+001 60909 71258,71627,71336
 3.6000e+000 71875  1.1503e+000 -5.6577e-001  5.7604e+000 60611 71898,71725,71699
 3.6000e+000 71852 -4.1056e+000 -1.4611e-001  6.9827e+000 60611 71898,71699,71803
 3.6000e+000 71829  1.2114e+001  1.4215e+001 -5.5134e+000 60611 71970,71751,71725
 3.6000e+000 71924  9.6655e+000  4.5131e+000  2.4360e-001 60611 71970,71725,71898
 3.6000e+000 71947 -2.0325e+000 -8.8657e+000  3.0619e+000 60611 71777,71898,71803
 3.6000e+000 71996  5.5405e+000  1.8265e+000 -1.3961e+000 60611 71777,71751,71970
 3.6000e+000 72019  2.0098e+000 -4.4132e+000  4.9856e+000 60611 71777,71970,71898
 3.6000e+000 72576  2.6502e+001 -1.0814e+002  1.3721e+001 60142 72599,72256,72230
 3.6000e+000 72553  3.8733e+001 -4.1221e+001  2.3224e+001 60142 72671,72599,72230
 3.6000e+000 72530 -2.2063e+000 -1.4713e+001 -2.0749e+000 60142 72671,72230,72204
 3.6000e+000 72507 -1.0795e+001 -2.1670e+001  9.3269e+000 60142 72743,72360,72334
 3.6000e+000 72484  1.6942e+000 -2.1783e+001 -1.1417e+001 60142 72815,72282,72256
 3.6000e+000 72461  2.8506e+001  1.8180e+001  2.4130e+001 60142 72887,72308,72282
 3.6000e+000 72438 -2.1566e+001 -8.2732e+001 -1.3308e+001 60142 72204,72412,72386
 3.6000e+000 72625 -7.7951e+000 -7.8106e+001 -2.3005e+001 60142 72815,72256,72599
 3.6000e+000 72648  2.4633e+000 -4.3574e+001  5.8262e+000 60142 72743,72334,72599
 3.6000e+000 72697  3.4090e+000 -8.6124e+001  7.8053e+000 60142 72386,72599,72671
 3.6000e+000 72720 -2.1841e+001 -5.2152e+001 -1.2782e+001 60142 72386,72671,72204
 3.6000e+000 72769  2.2067e+000 -4.2103e+001  4.6350e+001 60142 72386,72360,72743
 3.6000e+000 72792  7.1364e+000 -8.2604e+001  2.4648e+001 60142 72386,72743,72599
 3.6000e+000 72841  4.3902e+000  5.7271e+000  4.5196e+000 60142 72887,72282,72815
 3.6000e+000 72864  5.6599e+000 -2.9452e+001 -2.3596e+000 60142 72334,72815,72599
 3.6000e+000 72913 -5.8000e+000 -9.4230e+000  1.0430e+001 60142 72334,72308,72887
 3.6000e+000 72936 -1.7899e+001 -1.5697e+001 -7.4273e+000 60142 72334,72887,72815
 3.6000e+000 73491 -4.7082e+000 -1.0259e+002 -1.9820e+001 59738 73145,73327,73171
 3.6000e+000 73468  1.1736e+001 -8.8142e+001 -1.3165e+001 59738 73119,73327,73145
 3.6000e+000 73445  5.3488e-002 -3.6618e+001  5.9839e+000 59738 73171,73327,73301
 3.6000e+000 73422  1.0420e+001 -4.2249e+001  8.6408e-002 59738 73514,73275,73249
 3.6000e+000 73399  4.9482e+000 -1.7804e+001 -5.9196e+000 59738 73586,73514,73249
 3.6000e+000 73376  1.2690e+001  2.0205e+001 -6.7129e+000 59738 73197,73249,73223
 3.6000e+000 73353  1.6667e+001 -8.1942e+000 -1.8280e+001 59738 73586,73249,73197
 3.6000e+000 73540  2.4595e+000 -6.9344e+001 -1.0505e+001 59738 73301,73275,73514
 3.6000e+000 73563 -6.2992e+000 -4.4792e+001  3.1406e+000 59738 73301,73514,73171
 3.6000e+000 73612  3.3293e+000 -3.8020e+001  7.1173e+000 59738 73171,73514,73586
 3.6000e+000 73635  6.6646e+000 -2.8822e+001 -3.4980e+000 59738 73171,73586,73197
 3.6000e+000 73964  6.7479e+000 -7.3749e+001 -5.9396e+000 59334 73791,73843,73817
 3.6000e+000 73941  3.3068e-002 -7.9227e+001 -8.3644e+000 59334 73791,73869,73843
 3.6000e+000 73918 -1.1665e+001 -1.0601e+002 -1.0202e+001 59334 73739,73869,73791
 3.6000e+000 73895  8.2857e+000 -1.3215e+002 -6.3987e+000 59334 73739,73791,73765
 3.6000e+000 74261 -2.4296e+000 -2.5616e+001  8.1361e+000 58630 74065,74117,74091
 3.6000e+000 74238  1.8663e+000 -3.1495e+001 -4.5624e+000 58630 74356,74284,74065
 3.6000e+000 74215  1.0807e+001 -2.2483e+001 -3.8648e-001 58630 74284,74013,73987
 3.6000e+000 74192 -1.7564e+000 -3.1776e+001 -1.7426e+001 58630 74356,74065,74039
 3.6000e+000 74169  9.0604e+000 -1.7131e+001  2.5078e+000 58630 73987,74143,74117
 3.6000e+000 74310  9.0543e+000 -3.0350e+001 -1.2253e+000 58630 74117,74065,74284
 3.6000e+000 74333  4.2789e+000 -2.5581e+001 -2.5902e+000 58630 74117,74284,73987
 3.6000e+000 74382  2.2199e+001 -2.4233e+001 -4.7709e+000 58630 74013,74284,74356
 3.6000e+000 74405  1.9550e+001 -2.3911e+001 -1.7777e+001 58630 74013,74356,74039
 3.6000e+000 74815 -6.7400e+000 -5.1698e+001 -2.0212e+000 58226 74590,74642,74616
 3.6000e+000 74792 -8.8589e+000 -6.4478e+001 -2.8870e+000 58226 74590,74694,74642
 3.6000e+000 74769  1.0843e+001 -1.0852e+002  1.8654e+001 58226 74590,74720,74694
 3.6000e+000 74746 -1.0887e+001 -4.3419e+001 -2.8034e+000 58226 74642,74694,74668
 3.6000e+000 75014  3.5425e-001 -3.0538e+001  5.3749e+000 57786 75037,74864,74838
 3.6000e+000 74991 -6.9300e-001 -2.7118e+001  7.2515e+000 57786 75037,74838,74916
 3.6000e+000 74968 -1.1447e+000 -2.0852e+001 -3.8953e+000 57786 74838,74942,74916
 3.6000e+000 75063 -1.5570e+000 -3.3676e+001  4.2511e+000 57786 74890,74864,75037
 3.6000e+000 75086 -2.0258e+000 -2.9731e+001  6.2966e+000 57786 74890,75037,74916
 3.6000e+000 75368 -1.7603e+001  6.6202e+000  9.6182e+000 57496 75192,75270,75218
 3.6000e+000 75345  2.6598e+001  2.3416e+001  8.4930e+000 57496 75192,75296,75270
 3.6000e+000 75322  1.1426e+001  1.2466e+001  2.9930e+001 57496 75218,75270,75244
 3.6000e+000 75648  1.1277e+001 -1.0471e+001 -1.7154e+001 57206 75472,75550,75498
 3.6000e+000 75625  7.6437e+000 -1.3900e+001 -1.5289e+001 57206 75472,75576,75550
 3.6000e+000 75602 -8.4160e+000  1.0995e+001  1.0057e+001 57206 75671,75550,75524
 3.6000e+000 75697  1.2809e+001 -1.1211e+001  8.8081e+000 57206 75498,75550,75671
 3.6000e+000 76154 -5.9661e+000 -3.3922e+001  9.6616e+000 56802 75958,76010,75984
 3.6000e+000 76131  4.7311e-001 -1.7159e+001  7.8286e+000 56802 75932,76010,75958
 3.6000e+000 76108 -3.6625e+000 -3.6140e+001  1.2159e+001 56802 75906,76010,75932
 3.6000e+000 76085 -6.9666e+000 -3.3585e+000  1.3726e+001 56802 75880,76010,75906
 3.6000e+000 76062  1.1357e+001 -2.1106e+000 -4.8661e+000 56802 75880,76036,76010
 3.6000e+000 76505  1.9307e-001  3.1126e-001  2.7376e-001 56504 76306,76384,76332
 3.6000e+000 76482  6.3551e-001  4.2394e-001  2.1661e-001 56504 76306,76410,76384
 3.6000e+000 76459 -7.3609e-002 -1.0184e-001  4.8059e-002 56504 76332,76384,76358
 3.6000e+000 76436 -5.0231e-002  9.3102e-002  1.1265e-001 56504 76280,76410,76306
 3.6000e+000 77011  2.8327e+001 -1.7017e+000 -2.0532e+001 56050 76740,76818,76792
 3.6000e+000 76988  9.5519e+000 -8.7052e+000 -2.3815e+001 56050 76714,76818,76740
 3.6000e+000 76965  1.2765e+001 -1.8291e+001 -2.2740e+001 56050 76688,76818,76714
 3.6000e+000 76942  4.2928e+001  1.9653e+001 -2.7304e+000 56050 76688,76844,76818
 3.6000e+000 76919  1.8882e+001 -1.3287e+001 -1.6397e+001 56050 76740,76792,76766
 3.6000e+000 76896  2.7092e+001  2.3592e+000  7.9393e+000 56050 76688,76870,76844
 3.6000e+000 77517 -3.6740e+001 -2.4772e+001  1.9054e+001 55738 77220,77350,77324
 3.6000e+000 77494  1.2646e+000 -4.6513e+001 -8.6919e+000 55738 77220,77376,77350
 3.6000e+000 77471  1.6994e+001 -9.9582e+000 -5.0299e+000 55738 77194,77376,77220
 3.6000e+000 77448  3.3930e+000 -1.7731e+001  7.2359e+000 55738 77220,77298,77246
 3.6000e+000 77425 -1.3497e+001 -1.9367e+001  2.0911e+001 55738 77220,77324,77298
 3.6000e+000 77402 -2.3375e+001 -2.2259e+001  6.1228e+001 55738 77246,77298,77272
 3.6000e+000 78064  2.7220e+001 -3.7225e+001 -6.6662e+000 55227 78231,78087,77773
 3.6000e+000 78041 -9.4274e+000 -9.5132e+001  2.2924e+000 55227 78087,77695,77643
 3.6000e+000 78018  2.3668e+000 -5.6897e+001 -2.4330e+001 55227 78159,77799,77773
 3.6000e+000 77995  1.2351e+001 -7.7648e+000  1.2368e+000 55227 78231,77773,77721
 3.6000e+000 77972 -1.7375e+001 -2.3242e+001  2.1163e+001 55227 77643,77695,77669
 3.6000e+000 77949 -6.0512e+000 -3.3091e+001 -3.9821e+000 55227 77643,77877,77851
 3.6000e+000 77926 -6.6561e+000 -3.0536e+001 -8.3882e+000 55227 77799,77851,77825
 3.6000e+000 77903  1.8123e+001  1.4710e+001 -1.2416e+001 55227 77721,77773,77747
 3.6000e+000 78113  1.5631e+001 -6.1901e+001 -1.8149e+001 55227 78159,77773,78087
 3.6000e+000 78136  1.5942e+001 -3.5877e+001 -2.0224e+000 55227 77851,78087,77643
 3.6000e+000 78185 -2.2989e+001 -5.8191e+001 -2.2140e+001 55227 77851,77799,78159
 3.6000e+000 78208 -9.3822e+000 -6.3302e+001 -1.7008e+001 55227 77851,78159,78087
 3.6000e+000 78257  1.3003e+001 -7.0256e+001 -1.8870e+001 55227 77695,78087,78231
 3.6000e+000 78280 -5.6003e+000 -4.0278e+001 -1.3919e+001 55227 77695,78231,77721
 3.6000e+000 78737  1.4514e+001 -2.0558e+001 -6.4459e+000 54773 78463,78541,78515
 3.6000e+000 78714 -9.3661e+000 -3.6984e+001  1.0166e+000 54773 78463,78619,78541
 3.6000e+000 78691  2.2778e+001  1.9577e+000  1.9818e+000 54773 78463,78515,78489
 3.6000e+000 78668 -1.1521e+001 -1.8164e+001 -5.8025e+000 54773 78541,78593,78567
 3.6000e+000 78645 -3.5397e-001 -2.5502e+001 -8.9528e+000 54773 78541,78619,78593
 3.6000e+000 78838 -9.8013e-001  2.3006e+000  4.9448e-001 54211 78760,78812,78786
 3.6000e+000 79297  1.1041e+001 -2.2527e+001  5.5520e+000 53814 79520,79153,79049
 3.6000e+000 79274  1.1543e+001 -9.3044e+000 -1.0576e+001 53814 79520,79049,79023
 3.6000e+000 79251 -4.4387e+000 -2.3706e+001  7.5997e+000 53814 79320,79101,79049
 3.6000e+000 79228  2.2144e+000 -8.0392e+000  6.0468e+000 53814 79320,79049,79153
 3.6000e+000 79205  8.0262e+000 -2.3158e+001  1.0090e+001 53814 79049,79101,79075
 3.6000e+000 79346 -7.1396e-001 -9.2605e+000 -3.0243e+000 53814 79392,79320,79127
 3.6000e+000 79369 -6.9981e-001 -8.8326e+000 -3.0073e+000 53814 79127,79320,79153
 3.6000e+000 79418 -1.7601e+000 -2.2080e+001 -5.3544e+000 53814 79101,79320,79392
 3.6000e+000 79546 -1.3440e+000 -4.8073e+001  1.7551e+001 53814 79179,79153,79520
 3.6000e+000 79569  1.6010e+001 -2.7323e+001 -2.9243e+000 53814 79179,79520,79023
 3.6000e+000 80075 -2.3268e+001 -1.1013e+001  1.8325e+001 53039 80098,79908,79830
 3.6000e+000 80052 -2.8342e+001  1.9917e+000 -1.2462e+001 53039 80098,79830,79804
 3.6000e+000 80029  3.5556e+000  2.6641e+001 -9.7559e+000 53039 79752,79934,79804
 3.6000e+000 80006  1.5538e+000 -4.0157e+001  2.0385e+001 53039 79856,79908,79882
 3.6000e+000 79983  1.6762e+001 -7.9071e+001  1.8732e+001 53039 79830,79908,79856
 3.6000e+000 79960 -6.2595e-001  8.5991e+000 -7.3596e+000 53039 79752,79804,79778
 3.6000e+000 80124  2.5241e+001  5.9066e+000  1.5182e+001 53039 79934,79908,80098
 3.6000e+000 80147 -5.9116e+000  9.8765e+000 -1.6394e+001 53039 79934,80098,79804
 3.6000e+000 80555  3.0479e+001  7.4736e+000 -2.6851e+000 52699 80356,80434,80408
 3.6000e+000 80532  7.2694e+000 -1.3457e+001  6.1312e+000 52699 80356,80460,80434
 3.6000e+000 80509 -4.1131e+000 -1.8814e+001  4.4723e+000 52699 80330,80460,80356
 3.6000e+000 80486 -2.4465e+001 -3.3595e+001  4.5265e+001 52699 80356,80408,80382
 3.6000e+000 80776  1.4005e+001  3.1064e+001 -1.0351e+001 52295 80600,80678,80626
 3.6000e+000 80753 -1.4166e+001  1.0485e+001 -1.3635e+000 52295 80600,80704,80678
 3.6000e+000 80730 -3.5734e+001  1.0712e+001 -7.1525e+000 52295 80626,80678,80652
 3.6000e+000 81156  2.2702e+000 -4.1971e+001  1.2319e+001 51891 81179,80960,80908
 3.6000e+000 81133  2.8805e+000 -4.5217e+001 -4.9518e+000 51891 81179,80908,81012
 3.6000e+000 81110 -1.4575e+001 -2.7753e+001 -1.3781e+001 51891 80882,81012,80908
 3.6000e+000 81087  1.1520e+001 -2.3579e+001  1.7747e+001 51891 80908,80960,80934
 3.6000e+000 81064 -8.2558e+000 -8.8238e+000 -1.0969e+001 51891 80882,81038,81012
 3.6000e+000 81205  2.3661e+001 -3.0779e+001  1.7851e+001 51891 80986,80960,81179
 3.6000e+000 81228  9.7835e+000 -4.1306e+001 -4.9896e-001 51891 80986,81179,81012
 3.6000e+000 81606  7.2992e+000 -1.9143e+002 -5.9933e+001 51544 81410,81462,81436
 3.6000e+000 81583  2.5714e+001 -5.8377e+001 -2.7990e+000 51544 81384,81462,81410
 3.6000e+000 81560 -1.1225e+001 -7.6630e+001 -1.5590e+001 51544 81358,81462,81384
 3.6000e+000 81537 -5.5092e+000 -6.6419e+001 -3.0996e+001 51544 81358,81488,81462
 3.6000e+000 81514  1.0761e+001 -1.6902e+001 -2.4944e+001 51544 81332,81488,81358
 3.6000e+000 81854  1.3052e+000 -3.2698e+001  6.1685e-001 51004 81877,81655,81629
 3.6000e+000 81831  1.2440e+000 -1.1718e+001 -3.7394e+000 51004 81877,81629,81759
 3.6000e+000 81808  7.8882e+000 -1.4691e+001  2.2333e+001 51004 81655,81707,81681
 3.6000e+000 81785 -6.5887e+000 -2.1679e+001 -2.3301e+000 51004 81707,81759,81733
 3.6000e+000 81903  3.4676e+000 -4.2707e+001  1.7368e+000 51004 81707,81655,81877
 3.6000e+000 81926 -5.0738e+000 -3.5178e+001 -6.0879e+000 51004 81707,81877,81759
 3.6000e+000 82257 -1.5947e+001 -5.2242e+001 -1.1180e+001 50642 82058,82136,82110
 3.6000e+000 82234 -2.2137e+001 -1.8681e+001 -2.0511e+001 50642 82058,82162,82136
 3.6000e+000 82211 -3.7076e+000 -3.6422e+001 -2.9168e+001 50642 82058,82110,82084
 3.6000e+000 82188  3.2383e+001  3.3895e+000 -1.8646e+000 50642 82032,82162,82058
 3.6000e+000 82684  3.4532e+001 -1.3223e+002  2.5511e+001 49931 82779,82707,82465
 3.6000e+000 82661 -9.2683e+000 -1.5977e+002  2.8338e+001 49931 82707,82413,82361
 3.6000e+000 82638 -2.3686e+000 -1.2786e+002 -2.6129e+001 49931 82779,82465,82439
 3.6000e+000 82615  9.5557e+000 -3.0873e+002  3.0808e+001 49931 82465,82543,82491
 3.6000e+000 82592 -1.5718e+001 -1.1600e+002 -4.5472e+000 49931 82361,82413,82387
 3.6000e+000 82569  5.6580e+000 -2.4658e+002  2.9001e+001 49931 82491,82543,82517
 3.6000e+000 82733  7.4164e+001 -1.5793e+002  2.4526e+001 49931 82543,82465,82707
 3.6000e+000 82756  2.0325e+001 -1.3380e+002  1.4847e+001 49931 82543,82707,82361
 3.6000e+000 82805 -6.4340e-001 -2.0587e+002 -1.3064e+000 49931 82413,82707,82779
 3.6000e+000 82828 -2.0657e+001 -1.8819e+002 -5.0287e+001 49931 82413,82779,82439
 3.6000e+000 83255 -9.6332e-001 -1.6168e+002 -2.4881e+001 49327 82984,83114,83036
 3.6000e+000 83232 -1.6822e+001 -1.9453e+002 -5.1891e+001 49327 82958,83114,82984
 3.6000e+000 83209 -2.6265e+001 -2.2780e+002 -9.7910e-001 49327 83036,83114,83088
 3.6000e+000 83186 -4.8374e+001 -1.1049e+002  1.4454e+001 49327 82984,83036,83010
 3.6000e+000 83163 -3.5530e+001 -1.7993e+002 -4.2981e+001 49327 82932,83114,82958
 3.6000e+000 83140 -6.5436e+001 -3.7846e+002 -3.6303e+000 49327 83036,83088,83062
 3.6000e+000 83938 -1.7008e+001 -2.3042e+002  5.6881e+001 48965 83961,83673,83647
 3.6000e+000 83915  2.0972e+001 -9.0412e+001  6.3730e+001 48965 83961,83647,83543
 3.6000e+000 83892 -1.4088e+001 -1.0465e+002 -1.5757e+001 48965 83517,83725,83543
 3.6000e+000 83869 -3.6209e+001 -1.5757e+002 -2.6190e+001 48965 83673,83725,83699
 3.6000e+000 83846 -1.9545e+001 -3.8381e+001  4.8881e+000 48965 83543,83647,83621
 3.6000e+000 83823 -8.8086e+000 -5.7174e+001  1.3762e-001 48965 83543,83621,83569
 3.6000e+000 83800 -2.4522e+000 -9.5065e+001  1.4475e+000 48965 83517,83751,83725
 3.6000e+000 83777 -3.7946e+000 -5.0479e+001  1.2548e+001 48965 83569,83621,83595
 3.6000e+000 83987 -1.2312e+001 -2.0851e+002 -3.3769e+001 48965 83725,83673,83961
 3.6000e+000 84010  1.1607e+001 -1.5104e+002 -1.0241e+001 48965 83725,83961,83543
 3.6000e+000 84258 -9.4217e+000 -1.4875e+002  2.0010e+001 48447 84281,84059,84033
 3.6000e+000 84235  2.7947e+000 -1.1592e+002  6.0236e-001 48447 84281,84033,84163
 3.6000e+000 84212  1.6955e+001 -1.0457e+002 -1.8942e+001 48447 84059,84111,84085
 3.6000e+000 84189  2.0296e+001 -9.9500e+001 -2.6950e+001 48447 84111,84163,84137
 3.6000e+000 84307  8.4109e+000 -1.4173e+002 -5.1792e+000 48447 84111,84059,84281
 3.6000e+000 84330  2.6815e+001 -1.1979e+002 -2.4081e+001 48447 84111,84281,84163
 3.6000e+000 84529  2.7892e+001 -8.0793e+001 -3.1025e+000 47993 84552,84405,84379
 3.6000e+000 84506  6.3279e+000 -8.7018e+001 -9.4051e-001 47993 84552,84379,84353
 3.6000e+000 84483  8.0573e+000 -8.6581e+001 -1.3858e+001 47993 84624,84457,84431
 3.6000e+000 84578  3.8928e+001 -8.1256e+001 -1.5468e+001 47993 84431,84405,84552
 3.6000e+000 84601  1.5204e+001 -8.8983e+001 -1.1530e+001 47993 84624,84431,84552
 3.6000e+000 84650  1.5610e+001 -8.7155e+001 -8.5889e+000 47993 84353,84457,84624
 3.6000e+000 84673  2.6616e+001 -8.2705e+001 -4.0564e+000 47993 84353,84624,84552
 3.6000e+000 85104 -2.2047e+001 -1.6747e+002 -1.3385e+001 47588 85199,85127,84885
 3.6000e+000 85081 -1.8246e+001 -1.8163e+002 -1.9741e+001 47588 85127,84781,84963
 3.6000e+000 85058 -4.8165e+001 -1.6075e+002  1.6786e+001 47588 85199,84885,84807
 3.6000e+000 85035 -1.7688e+000 -1.1076e+002  5.6323e+001 47588 84885,84937,84911
 3.6000e+000 85012 -1.4792e+001 -9.8801e+001 -5.0103e+000 47588 84807,84885,84833
 3.6000e+000 84989 -8.3962e+000 -9.4043e+001  3.4208e+001 47588 84833,84885,84859
 3.6000e+000 85153 -2.1495e+001 -2.0028e+002 -2.7639e+000 47588 84937,84885,85127
 3.6000e+000 85176  3.8416e+001 -1.8354e+002 -3.7143e+000 47588 84937,85127,84963
 3.6000e+000 85225 -7.2126e+001 -1.8711e+002 -1.3390e+001 47588 84781,85127,85199
 3.6000e+000 85248 -8.7985e+001 -1.7782e+002  2.0756e+001 47588 84781,85199,84807
 3.6000e+000 85518 -4.6389e+001 -3.1196e+002  4.9616e+001 47226 85293,85397,85319
 3.6000e+000 85495 -3.0284e+001 -2.8039e+002  2.3579e+001 47226 85293,85423,85397
 3.6000e+000 85472 -2.0328e+001 -3.2722e+002 -1.1868e+001 47226 85319,85397,85345
 3.6000e+000 85449  3.1009e+001 -8.1388e+001 -1.4438e+001 47226 85345,85397,85371
 3.6000e+000 85849 -2.1744e+001 -1.5061e+002  4.4583e+001 46572 85624,85702,85650
 3.6000e+000 85826 -1.5973e+001 -2.0897e+002 -3.5633e-001 46572 85624,85754,85702
 3.6000e+000 85803  4.1696e+001 -1.0775e+002  3.1176e+001 46572 85702,85754,85728
 3.6000e+000 85780 -1.7788e+001 -1.5261e+002  5.4802e+001 46572 85650,85702,85676
 3.6000e+000 86070 -1.3518e+002 -1.9764e+002 -5.5200e+000 46374 85920,85972,85946
 3.6000e+000 86047 -8.5404e+001 -8.0343e+001  1.9587e+000 46374 85920,85998,85972
 3.6000e+000 86024 -5.3776e+001 -5.8336e+001  2.1068e+001 46374 85894,85998,85920
 3.6000e+000 86401  8.9512e+000 -1.0280e+002  7.2350e+000 46034 86424,86280,86228
 3.6000e+000 86378 -2.3096e+001 -1.0459e+002  3.3034e+000 46034 86424,86228,86176
 3.6000e+000 86355 -2.9566e+001 -8.2763e+001 -2.9062e+001 46034 86176,86228,86202
 3.6000e+000 86332  3.8119e+001 -8.9890e+001 -3.1673e+001 46034 86228,86280,86254
 3.6000e+000 86450  6.9740e+001 -1.1318e+002 -6.0902e+000 46034 86306,86280,86424
 3.6000e+000 86473  6.8205e+000 -1.3632e+002 -1.3733e+001 46034 86306,86424,86176
 3.6000e+000 87058  1.2210e+001 -9.2819e+001  1.9689e+001 45516 86813,86917,86865
 3.6000e+000 87035 -7.4301e+000 -1.4911e+002  1.0493e+001 45516 86787,86917,86813
 3.6000e+000 87012  2.0131e+000 -1.6531e+002  1.7796e+001 45516 86735,86917,86787
 3.6000e+000 86989  4.0600e+000 -9.5293e+001  2.0845e+001 45516 86865,86917,86891
 3.6000e+000 86966  1.6672e+001 -9.1825e+001  2.0950e+001 45516 86813,86865,86839
 3.6000e+000 86943 -1.0613e+001 -2.5488e+002 -2.5587e+000 45516 86735,86787,86761
 3.6000e+000 87208  5.1033e+001 -5.7095e+001 -1.5370e+001 45226 87231,87133,87107
 3.6000e+000 87185  1.2373e+001 -2.4148e+001 -1.3312e+000 45226 87081,87159,87133
 3.6000e+000 87257  3.7769e+001  2.8043e+001 -1.3018e+001 45226 87081,87133,87231
 3.6000e+000 87537  1.7166e+001 -1.2076e+002  2.4975e+001 44772 87387,87439,87413
 3.6000e+000 87514 -7.4686e+000 -1.3043e+002  2.4740e+001 44772 87361,87439,87387
 3.6000e+000 87491  1.4759e+001 -8.7307e+001  1.2379e+001 44772 87361,87465,87439
 3.6000e+000 87996 -7.9410e+000  1.3119e+001  1.2478e+001 44425 87748,87878,87852
 3.6000e+000 87973 -4.6180e-001  1.6956e+001  1.1217e+000 44425 87722,87878,87748
 3.6000e+000 87950  7.3719e-001 -4.5603e-001  4.9764e+000 44425 87800,87852,87826
 3.6000e+000 87927  2.6123e+001  1.1847e+001  8.7606e+000 44425 87748,87852,87800
 3.6000e+000 87904 -2.3894e+000 -6.4238e+000 -9.8701e+000 44425 87748,87800,87774
 3.6000e+000 88423 -9.3776e+000 -1.0376e+002  1.9738e+001 44078 88590,88230,88204
 3.6000e+000 88400 -6.3092e+000 -6.8773e+001  2.4562e+001 44078 88518,88446,88204
 3.6000e+000 88377  8.7918e+000 -1.0908e+002 -1.8074e+001 44078 88446,88126,88282
 3.6000e+000 88354 -1.8399e+001 -4.8432e+001  1.2531e+001 44078 88518,88204,88178
 3.6000e+000 88331  3.6485e+000 -1.3565e+002 -1.8912e+001 44078 88100,88282,88126
 3.6000e+000 88308 -1.1416e+001 -7.1271e+001  2.7292e+001 44078 88126,88178,88152
 3.6000e+000 88472 -1.3218e+001 -1.1300e+002  2.0699e+001 44078 88590,88204,88446
 3.6000e+000 88495 -1.6036e+001 -1.8656e+002 -2.5052e+001 44078 88256,88446,88282
 3.6000e+000 88544 -1.2222e+001 -1.1505e+002  2.3441e+001 44078 88126,88446,88518
 3.6000e+000 88567 -1.0892e+001 -7.5570e+001  1.3751e+001 44078 88126,88518,88178
 3.6000e+000 88616 -7.0050e+001 -2.6298e+002 -8.9926e+000 44078 88256,88230,88590
 3.6000e+000 88639 -6.5758e+000 -1.0660e+002  8.0785e+000 44078 88256,88590,88446
 3.6000e+000 89039  1.4124e+001  1.3154e+001  5.9066e+000 43716 88791,88921,88895
 3.6000e+000 89016  8.7958e+000  2.6553e+001  7.6839e+000 43716 88765,88921,88791
 3.6000e+000 88993  3.1599e+001 -9.2704e+000  1.2340e+001 43716 88817,88895,88869
 3.6000e+000 88970  9.5687e-001 -3.3496e+000  1.9719e+001 43716 88791,88895,88817
 3.6000e+000 88947  2.9711e+000 -1.4836e+000 -4.2365e+000 43716 88817,88869,88843
 3.6000e+000 89496  3.1440e+000 -1.6706e+002 -1.7606e+001 43162 89519,89274,89248
 3.6000e+000 89473  1.1799e+001 -1.0743e+002 -5.7332e+000 43162 89519,89248,89222
 3.6000e+000 89450  1.3113e+001 -8.1877e+001 -3.0771e+001 43162 89326,89378,89352
 3.6000e+000 89427 -1.0758e+000 -1.0970e+002 -1.0081e+001 43162 89274,89378,89326
 3.6000e+000 89404  9.1118e+000 -1.0795e+002 -7.7765e+000 43162 89274,89326,89300
 3.6000e+000 89545 -3.6374e-001 -1.1309e+002 -3.8203e+000 43162 89378,89274,89519
 3.6000e+000 89568  1.1676e+001 -4.9327e+001  8.7560e+000 43162 89378,89519,89222
 3.6000e+000 89946 -1.7526e+001 -9.6771e+001 -7.9955e+001 42594 90041,89969,89750
 3.6000e+000 89923 -1.0694e+001 -8.3531e+001 -3.0767e+001 42594 89969,89698,89828
 3.6000e+000 89900  2.5636e+001 -1.1537e+002 -7.1387e+001 42594 90041,89750,89724
 3.6000e+000 89877 -3.3514e+001 -6.6038e+001 -2.6989e+001 42594 89750,89802,89776
 3.6000e+000 89854  2.8645e+001 -4.1423e+001 -1.1517e+001 42594 89672,89828,89698
 3.6000e+000 89995 -5.4951e+001 -7.4475e+001 -5.3839e+001 42594 89802,89750,89969
 3.6000e+000 90018  1.2522e+001 -3.7890e+000 -1.1239e+001 42594 89802,89969,89828
 3.6000e+000 90067  2.2488e+001 -7.1953e+001 -6.3553e+001 42594 89698,89969,90041
 3.6000e+000 90090  6.9561e+001 -9.8068e+001 -6.5610e+001 42594 89698,90041,89724
 3.6000e+000 90517  1.8707e+001 -1.2008e+002 -1.2619e+001 42140 90540,90220,90194
 3.6000e+000 90494  2.2676e+001 -1.2767e+002 -1.4278e+001 42140 90540,90194,90376
 3.6000e+000 90471 -1.0235e+001 -1.3080e+002  5.2976e+000 42140 90612,90350,90272
 3.6000e+000 90448 -2.6762e+001 -1.0674e+002 -2.3677e+000 42140 90272,90350,90298
 3.6000e+000 90425 -2.3448e+001 -9.9573e+001 -3.2840e+000 42140 90298,90350,90324
 3.6000e+000 90402  2.9475e+001 -6.8157e+001  8.1840e-002 42140 90220,90272,90246
 3.6000e+000 90566  1.4640e+001 -7.3095e+001 -8.7488e+000 42140 90272,90220,90540
 3.6000e+000 90589 -6.7058e+000 -1.2271e+002 -4.2116e-001 42140 90612,90272,90540
 3.6000e+000 90638  3.9434e+000 -1.4651e+002 -9.1374e+000 42140 90376,90350,90612
 3.6000e+000 90661  2.2505e+001 -1.2468e+002 -1.7864e+001 42140 90376,90612,90540
 3.6000e+000 91167 -1.3805e+001 -6.6795e+001 -2.3322e+000 41636 91190,90870,90844
 3.6000e+000 91144 -2.4555e+001 -2.3925e+002  3.7774e+000 41636 91190,90844,91026
 3.6000e+000 91121 -2.0513e+000 -2.2088e+001 -2.0021e+001 41636 90870,90922,90896
 3.6000e+000 91098  1.3326e+001 -1.9844e+002  8.3984e+000 41636 90922,91026,90948
 3.6000e+000 91075  3.5551e+001 -1.5204e+002 -3.3819e+001 41636 90948,91026,91000
 3.6000e+000 91052 -4.1961e+001 -6.1235e+001  5.0698e+001 41636 90948,91000,90974
 3.6000e+000 91216 -3.2626e+001 -1.9172e+001 -3.9350e-001 41636 90922,90870,91190
 3.6000e+000 91239  3.8094e+001 -7.8710e+001  2.8975e+001 41636 90922,91190,91026
 3.6000e+000 91696 -4.4294e+000 -1.2060e+002 -1.2040e+001 40449 91448,91526,91474
 3.6000e+000 91673 -4.7075e+001 -1.4565e+002  4.6238e+000 40449 91448,91578,91526
 3.6000e+000 91650  2.0264e+001 -3.3751e+001 -3.9580e+000 40449 91474,91526,91500
 3.6000e+000 91627  7.0201e+000 -1.0402e+002  2.4596e+001 40449 91422,91578,91448
 3.6000e+000 91604  2.0905e+001 -1.0104e+002 -1.7646e+001 40449 91526,91578,91552
 3.6000e+000 92123 -9.5036e+000 -1.2577e+002 -3.8103e+000 39995 92146,91904,91826
 3.6000e+000 92100 -2.6232e+001 -1.3658e+002 -2.7792e+001 39995 92146,91826,91800
 3.6000e+000 92077 -6.2569e+001 -8.8327e+001 -1.1008e+001 39995 91826,91904,91852
 3.6000e+000 92054 -3.9878e+001 -2.5240e+002 -3.4565e+001 39995 91904,91982,91930
 3.6000e+000 92031 -1.1070e+001 -5.8313e+001  1.1507e+001 39995 91852,91904,91878
 3.6000e+000 92008 -1.3286e+001 -1.9134e+002 -4.3536e+001 39995 91930,91982,91956
 3.6000e+000 92172  3.6421e+000 -1.5273e+002 -2.4531e+001 39995 91982,91904,92146
 3.6000e+000 92195 -1.7736e+001 -1.8775e+002 -4.5360e+001 39995 91982,92146,91800
 3.6000e+000 92652  2.5095e+000  2.0325e+001  1.1726e+001 39633 92404,92534,92456
 3.6000e+000 92629 -9.5209e+000  1.5364e+001  7.3665e+000 39633 92378,92534,92404
 3.6000e+000 92606 -9.4995e+000  1.4600e+001  7.3149e+000 39633 92404,92456,92430
 3.6000e+000 92583  6.4885e+000  3.5831e+000  4.0185e+000 39633 92456,92534,92508
 3.6000e+000 92560  1.2959e+000  2.4792e+000  1.4585e+000 39633 92456,92508,92482
 3.6000e+000 93079  1.2606e+001 -3.8991e+001 -8.0632e+000 39093 93102,92808,92756
 3.6000e+000 93056  1.1286e+001 -4.6317e+001 -2.2834e+000 39093 93102,92756,92938
 3.6000e+000 93033  3.8862e+000 -4.2722e+001 -1.4178e+000 39093 93174,92912,92834
 3.6000e+000 93010 -3.3603e+000 -2.8241e+001  5.8215e+000 39093 92834,92912,92860
 3.6000e+000 92987  1.2310e+001 -4.9138e+001 -1.0809e+001 39093 92756,92808,92782
 3.6000e+000 92964 -4.2249e+000 -2.2335e+001  1.3920e+001 39093 92860,92912,92886
 3.6000e+000 93128  1.0074e+001 -1.8696e+001 -7.0546e+000 39093 92834,92808,93102
 3.6000e+000 93151  5.1665e+000 -3.8567e+001 -3.6021e+000 39093 93174,92834,93102
 3.6000e+000 93200  5.9420e+000 -4.0572e+001 -5.0491e+000 39093 92938,92912,93174
 3.6000e+000 93223  9.0094e+000 -3.7868e+001 -7.3262e+000 39093 92938,93174,93102
 3.6000e+000 93680 -3.3349e+000 -5.3810e-001  2.6354e+000 38639 93703,93536,93484
 3.6000e+000 93657 -5.3316e+000  1.8807e+000  2.9432e+000 38639 93703,93484,93432
 3.6000e+000 93634 -1.1677e+000  7.4960e-001  5.9766e+000 38639 93432,93484,93458
 3.6000e+000 93611 -6.5855e+000 -1.1694e+001 -7.2498e+000 38639 93484,93536,93510
 3.6000e+000 93588  1.0595e+001  1.9844e+001  1.0422e+001 38639 93406,93562,93432
 3.6000e+000 93729 -4.6178e+000 -3.1172e+000  1.9212e+000 38639 93562,93536,93703
 3.6000e+000 93752 -6.2284e+000  3.6807e-001  1.9962e+000 38639 93562,93703,93432
 3.6000e+000 94160  1.2726e+001  1.8256e+001 -3.4135e+000 38292 93935,94039,93961
 3.6000e+000 94137 -1.3673e+000 -2.4020e+001  7.9932e+000 38292 93935,94065,94039
 3.6000e+000 94114 -3.5530e+000 -3.4342e+001 -9.3758e+000 38292 93961,94013,93987
 3.6000e+000 94091  1.4256e+001 -4.9470e+001  1.2442e+000 38292 93961,94039,94013
 3.6000e+000 94408  3.5684e+001 -4.3486e+001  1.1256e+001 37880 94431,94261,94235
 3.6000e+000 94385  6.1754e+001 -3.7519e+001  2.2945e+001 37880 94431,94235,94313
 3.6000e+000 94362  4.8255e+001 -5.0849e+001  3.4774e+001 37880 94209,94313,94235
 3.6000e+000 94339  7.0776e+001  3.0986e+001 -1.2855e+001 37880 94183,94313,94209
 3.6000e+000 94457 -1.1069e+001 -3.0723e+001  1.1971e+001 37880 94287,94261,94431
 3.6000e+000 94480  3.1624e+001 -1.5131e+001  2.1018e+001 37880 94287,94431,94313
 3.6000e+000 94728 -5.2260e+001 -1.6445e+002  3.3760e+000 37426 94529,94607,94555
 3.6000e+000 94705 -1.0195e+000 -2.4867e+002 -2.4605e+001 37426 94529,94633,94607
 3.6000e+000 94682 -1.5930e+001 -2.5867e+002 -2.8966e+001 37426 94503,94633,94529
 3.6000e+000 94659 -2.5499e+001 -6.9872e+001 -4.2198e+001 37426 94555,94607,94581
 3.6000e+000 95257  1.0386e+001 -3.3354e+001  5.6028e+000 36722 95496,95280,94862
 3.6000e+000 95234 -1.6891e+001 -4.3493e+001  1.4873e+001 36722 95496,94862,94836
 3.6000e+000 95211 -1.1001e+000 -1.8084e+001 -7.8067e+000 36722 95352,95280,95070
 3.6000e+000 95188 -5.3983e+000 -3.1390e+001 -8.1648e+000 36722 95352,95070,95044
 3.6000e+000 95165 -2.3414e+001 -2.0144e+001  1.2316e+001 36722 95424,94888,94862
 3.6000e+000 95142 -3.3042e+001  1.0511e+001  2.7688e+000 36722 94914,94966,94940
 3.6000e+000 95119 -1.0399e+001 -3.3471e+001 -1.9937e+000 36722 94966,95044,95018
 3.6000e+000 95096  1.0195e+000 -1.2080e+001  2.6197e+000 36722 94966,95018,94992
 3.6000e+000 95306  3.1650e+000 -2.6163e+001 -1.0627e-001 36722 95424,94862,95280
 3.6000e+000 95329  1.8591e+001  1.9157e+001 -1.4319e+001 36722 94914,95280,94966
 3.6000e+000 95378 -5.0470e+000 -1.4856e+001 -6.0854e-001 36722 94966,95280,95352
 3.6000e+000 95401 -4.1835e+000 -1.8534e+001 -2.1392e+000 36722 94966,95352,95044
 3.6000e+000 95450  1.6419e+001 -8.7407e+000  1.3887e+001 36722 94914,94888,95424
 3.6000e+000 95473  2.1830e+001 -1.5894e+001  4.1520e+000 36722 94914,95424,95280
 3.6000e+000 95522  1.4579e+001 -3.0110e+001  3.8246e+000 36722 95070,95280,95496
 3.6000e+000 95545  1.1472e+001 -2.6544e+001  6.2908e+000 36722 95070,95496,94836
 3.6000e+000 96130 -1.4570e+000  8.2361e-001  5.7688e-001 36268 96153,95911,95859
 3.6000e+000 96107 -4.6535e-001 -2.7306e+000  9.5513e-001 36268 96153,95859,95807
 3.6000e+000 96084  8.8004e+000  1.3590e+001 -5.0755e+000 36268 95807,95859,95833
 3.6000e+000 96061 -9.9373e-001 -4.4955e-001  1.8327e+000 36268 95911,95989,95937
 3.6000e+000 96038 -3.1640e-001  1.7073e+000  2.4345e+000 36268 95859,95911,95885
 3.6000e+000 96015 -7.4889e-001 -2.0062e+001  1.3765e+001 36268 95937,95989,95963
 3.6000e+000 96179 -1.1392e+000 -1.8927e+000  1.4037e+000 36268 95989,95911,96153
 3.6000e+000 96202 -8.0852e-001 -6.3158e+000  1.7844e+000 36268 95989,96153,95807
 3.6000e+000 96531 -1.2470e+001 -1.1136e+002  3.9619e+001 35728 96358,96410,96384
 3.6000e+000 96508 -3.4825e+000 -9.2954e+001  3.0583e+001 35728 96332,96410,96358
 3.6000e+000 96485 -1.9126e+001 -1.1248e+002  4.3752e+001 35728 96332,96436,96410
 3.6000e+000 96462 -1.4198e+000 -6.0162e+001 -3.0316e+000 35728 96306,96436,96332
 3.6000e+000 96860  3.6384e+000 -5.3069e+001  3.7146e+000 35324 96687,96765,96713
 3.6000e+000 96837  1.2020e+001 -3.9116e+001 -8.5104e+000 35324 96661,96765,96687
 3.6000e+000 96814 -3.4788e+000  1.0267e+000 -2.6279e+001 35324 96713,96765,96739
 3.6000e+000 96791 -3.8989e+000 -2.7747e+001 -7.6458e+000 35324 96635,96765,96661
 3.6000e+000 97366 -3.3660e+000 -1.1698e+002  1.9023e+001 34920 97389,97069,97043
 3.6000e+000 97343 -1.5247e+001 -1.0161e+002 -8.7578e-001 34920 97389,97043,97199
 3.6000e+000 97320 -5.5468e+000 -8.3933e+001 -4.6419e+000 34920 97043,97225,97199
 3.6000e+000 97297 -1.6164e+000 -2.3709e+002  3.6582e+001 34920 97069,97121,97095
 3.6000e+000 97274 -1.9466e+001 -5.8796e+001 -9.9979e+000 34920 97121,97199,97173
 3.6000e+000 97251 -2.8517e+001 -6.7749e+001 -4.9606e+000 34920 97121,97173,97147
 3.6000e+000 97415  7.2200e+000 -1.0945e+002  4.7773e+000 34920 97121,97069,97389
 3.6000e+000 97438  1.5416e+001 -7.5204e+001 -1.8064e+001 34920 97121,97389,97199
 3.6000e+000 97708 -4.1274e+001 -3.1342e+001  1.0492e+001 34722 97509,97587,97535
 3.6000e+000 97685 -1.7938e+001 -3.0046e+001  5.5963e+000 34722 97509,97613,97587
 3.6000e+000 97662 -2.8519e+001 -3.6527e+001  1.9255e+000 34722 97483,97613,97509
 3.6000e+000 97639 -2.9316e+001 -2.7026e+001  9.6903e+000 34722 97535,97587,97561
 3.6000e+000 98216 -1.8450e+001 -1.1357e+002  2.6782e+001 34318 97971,98075,97997
 3.6000e+000 98193  1.1167e-001 -8.7331e+001  3.9011e+001 34318 97893,98075,97971
 3.6000e+000 98170  5.4743e+001 -8.1952e+001  1.1695e+001 34318 97893,97971,97919
 3.6000e+000 98147 -1.0499e+001 -8.3835e+001  2.8335e+001 34318 97997,98075,98049
 3.6000e+000 98124  1.4831e+001 -1.0644e+002  2.2123e+001 34318 97919,97971,97945
 3.6000e+000 98101 -4.7336e+001 -1.6632e+002  3.7761e+001 34318 97997,98049,98023
 3.6000e+000 98594  2.2256e+000 -1.4250e+001  1.6906e+000 33814 98961,98617,98424
 3.6000e+000 98571  2.6775e+001 -1.3927e+001  8.4901e-001 33814 98689,98617,98372
 3.6000e+000 98548  4.0956e+001  3.2014e+001 -8.2255e+000 33814 99033,98689,98372
 3.6000e+000 98525  9.4271e+000 -6.3276e+000 -2.2175e-001 33814 98761,98476,98450
 3.6000e+000 98502 -1.4104e+001 -6.7215e+000 -2.9833e+000 33814 98961,98424,98398
 3.6000e+000 98643  4.5856e+000 -1.6602e+001 -3.0172e+000 33814 98450,98424,98617
 3.6000e+000 98666  1.9610e+001  2.2666e+000  4.9708e+000 33814 98761,98450,98617
 3.6000e+000 98715  2.8770e+001 -3.1194e+001  2.8408e+000 33814 99161,98689,98320
 3.6000e+000 98738 -1.0640e+001 -3.3052e+001  1.1788e+001 33814 98320,98689,98346
 3.6000e+000 98787  1.9172e+001 -2.4102e+001  1.8575e+001 33814 98833,98761,98320
 3.6000e+000 98810  2.7508e+001 -3.4851e+001  7.7656e+000 33814 99161,98320,98761
 3.6000e+000 98859  2.6100e+001  3.1045e+001  3.0440e+000 33814 98476,98761,98833
 3.6000e+000 98987  2.6389e+001 -1.4520e+001 -4.1391e+000 33814 98372,98617,98961
 3.6000e+000 99010  1.1077e+001 -5.9240e+000 -1.2117e+001 33814 98372,98961,98398
 3.6000e+000 99059  2.4957e+001 -1.9004e+001  1.2117e+001 33814 98346,98689,99033
 3.6000e+000 99187  3.0581e+001 -1.9865e+001 -3.3214e+000 33814 98617,98689,99161
 3.6000e+000 99210  2.4727e+001 -2.6433e+001  2.4801e+000 33814 98617,99161,98761
 3.6000e+000 99588 -2.9338e+000 -2.3535e+001 -7.3186e+000 33566 99366,99444,99392
 3.6000e+000 99565  1.2029e+000 -1.1681e+001 -4.2223e+000 33566 99314,99444,99366
 3.6000e+000 99542  4.0255e+000 -1.4825e+001 -9.2519e+000 33566 99314,99366,99340
 3.6000e+000 99519  4.9428e+000 -6.1581e+000 -1.0046e+001 33566 99314,99470,99444
 3.6000e+000 99496 -1.9058e+000 -2.1930e+001 -7.8458e+000 33566 99392,99444,99418
 3.6000e+000 99787  1.2708e+001 -5.7416e+001  4.3179e+001 33105 99637,99689,99663
 3.6000e+000 99764  1.1076e+001 -3.4253e+001  1.7013e+000 33105 99611,99689,99637
 3.6000e+000 99741  1.5870e+001  7.1335e+000  6.2497e+000 33105 99611,99715,99689
 3.6000e+000 100167 -3.6246e+001 -1.2534e+002  7.8538e+001 32651 100190,99971,99919
 3.6000e+000 100144  1.7264e+001 -6.1573e+001  5.5291e+001 32651 100262,100190,99919
 3.6000e+000 100121  8.1328e+000 -5.7006e+001  4.5717e+001 32651 100262,99919,100049
 3.6000e+000 100098  6.8095e+000 -5.6992e+001  9.8636e+000 32651 99893,100049,99919
 3.6000e+000 100075 -5.7545e+001 -1.3298e+002  6.5207e+001 32651 99919,99971,99945
 3.6000e+000 100216  2.0007e+001 -1.4289e+002  3.1356e+001 32651 99997,99971,100190
 3.6000e+000 100239  4.5756e+001 -9.9726e+001  1.9424e+001 32651 99997,100190,100023
 3.6000e+000 100288  1.5763e+001 -9.1578e+001  5.0472e+001 32651 100023,100190,100262
 3.6000e+000 100311  2.1847e+001 -7.6155e+001  2.8962e+001 32651 100023,100262,100049
 3.6000e+000 100608 -2.7184e+001 -1.0967e+002  8.1670e+000 32254 100386,100490,100464
 3.6000e+000 100585 -2.4137e+001 -6.4255e+001 -2.6952e+000 32254 100360,100490,100386
 3.6000e+000 100562 -4.0595e+001 -1.4962e+002 -1.4074e+001 32254 100386,100464,100412
 3.6000e+000 100539 -6.6334e+000 -6.3251e+001 -1.4678e+001 32254 100334,100490,100360
 3.6000e+000 100516  1.2994e+001 -5.7964e+001  7.9667e+000 32254 100412,100464,100438
 3.6000e+000 100758 -7.8527e+000  6.6876e+000  3.4943e+000 31914 100985,100781,100683
 3.6000e+000 100735 -3.4556e+001 -2.9978e+000  3.1592e+001 31914 100853,100781,100657
 3.6000e+000 100807  1.2421e+001  1.0920e+001 -1.2152e+001 31914 100709,100683,100781
 3.6000e+000 100830 -6.2515e+000  1.2388e+001  2.0442e+001 31914 100709,100781,100631
 3.6000e+000 100879 -1.9535e+001 -3.0030e+001  2.6741e+001 31914 100631,100781,100853
 3.6000e+000 101011 -2.6852e+000 -4.0033e+000  8.7101e+000 31914 100657,100781,100985
 3.6000e+000 101191 -5.4993e+000  5.9624e+000 -7.7420e-001 31418 101113,101165,101139
 3.6000e+000 101341 -9.9177e+001 -1.9303e+002 -1.6123e+001 31106 101214,101266,101240
 3.6000e+000 101318 -5.8648e+001 -7.0807e+001  3.8841e+000 31106 101214,101292,101266
 3.6000e+000 101591 -3.9995e+001 -1.3950e+002  8.8207e+001 30552 101614,101470,101444
 3.6000e+000 101568 -5.3322e+001 -8.1976e+001  3.3695e+001 30552 101366,101496,101470
 3.6000e+000 101545 -9.5076e+000 -1.3521e+002  6.2525e+001 30552 101614,101444,101392
 3.6000e+000 101522 -6.9027e+000 -4.5244e+001 -7.2595e+000 30552 101392,101444,101418
 3.6000e+000 101640  3.1996e+000 -1.3911e+002  7.7000e+001 30552 101366,101470,101614
 3.6000e+000 101663  2.8948e+001 -1.3840e+002  5.1468e+001 30552 101366,101614,101392
 3.6000e+000 102301  1.0412e+001 -1.3301e+002 -9.9665e+000 30042 102396,102324,102059
 3.6000e+000 102278 -2.1064e+001 -1.1293e+002 -3.8843e+001 30042 102324,101981,101955
 3.6000e+000 102255 -9.7837e+000 -1.0839e+002  2.5354e+001 30042 102396,102059,102033
 3.6000e+000 102232 -1.1553e+001 -6.4264e+001 -3.8778e+000 30042 101929,102111,101955
 3.6000e+000 102209 -5.7886e+000 -1.2318e+002 -8.9468e+000 30042 102059,102111,102085
 3.6000e+000 102186 -1.6072e+001 -6.6780e+001 -2.4079e+000 30042 101929,102137,102111
 3.6000e+000 102163  4.8967e+000 -1.1837e+001 -1.4635e+001 30042 101981,102033,102007
 3.6000e+000 102350  2.0933e+001 -1.2378e+002 -2.1286e+001 30042 102111,102059,102324
 3.6000e+000 102373  2.5069e+001 -1.0337e+002 -2.4228e+001 30042 102111,102324,101955
 3.6000e+000 102422  3.2892e+001 -5.0990e+001 -1.5928e+001 30042 101981,102324,102396
 3.6000e+000 102445  1.3627e+001 -2.6059e+001  2.0377e+001 30042 101981,102396,102033
 3.6000e+000 103000  3.7414e+001 -1.1843e+002  4.3503e+000 29730 103023,102706,102654
 3.6000e+000 102977 -1.5706e+001 -1.2287e+002 -8.3336e+000 29730 103023,102654,102810
 3.6000e+000 102954 -8.7046e+001 -2.2141e+002 -5.9827e+000 29730 102732,102810,102784
 3.6000e+000 102931 -1.1376e+001 -1.3753e+002 -1.1824e+001 29730 102628,102810,102654
 3.6000e+000 102908  3.7576e+001 -6.0669e+001  1.6901e+001 29730 102654,102706,102680
 3.6000e+000 102885 -3.9612e+001 -6.3112e+001 -4.6064e+001 29730 102732,102784,102758
 3.6000e+000 102862 -5.4400e+001 -1.5175e+002 -2.4655e+001 29730 102628,102836,102810
 3.6000e+000 103049  5.3208e+000 -1.3599e+002 -2.1164e+001 29730 102732,102706,103023
 3.6000e+000 103072 -2.7411e+001 -1.1994e+002 -3.0839e+001 29730 102732,103023,102810
 3.6000e+000 103222  6.7175e+001 -1.1966e+002 -4.2941e+000 29226 103095,103147,103121
 3.6000e+000 103199  5.3207e+001 -8.2536e+001 -1.8307e+001 29226 103095,103173,103147
 3.6000e+000 103730 -8.4251e+000 -1.2948e+002  1.1970e+001 28822 103537,103589,103563
 3.6000e+000 103707  1.8295e+000 -1.1089e+002  7.8881e+000 28822 103433,103589,103537
 3.6000e+000 103684  1.0836e+001 -9.4175e+001 -1.4302e+001 28822 103433,103537,103459
 3.6000e+000 103661  2.1197e+001 -1.1966e+002  1.4082e+001 28822 103407,103589,103433
 3.6000e+000 103638 -8.8265e+000 -3.9431e+001  3.2210e+001 28822 103459,103511,103485
 3.6000e+000 103615 -2.8550e+001 -2.5137e+001  2.5652e+001 28822 103459,103537,103511
 3.6000e+000 103880  2.6651e+001 -8.1300e+001  2.5032e+001 28368 103975,103903,103779
 3.6000e+000 103857  9.5097e-002 -1.7408e+002  8.3530e+000 28368 103903,103753,103831
 3.6000e+000 103929 -3.3621e+000 -6.0616e+001  6.2853e+000 28368 103805,103779,103903
 3.6000e+000 103952 -8.9159e+000 -1.0638e+002  4.8282e-001 28368 104105,103903,103831
 3.6000e+000 104001  2.1910e+001 -1.0128e+002 -6.9441e+000 28368 103753,103903,103975
 3.6000e+000 104131 -1.4233e+001 -9.8557e+001  1.7791e+001 28368 103805,103903,104105
 3.6000e+000 104539  9.9029e+000  1.7642e+001  7.6541e+000 28028 104562,104340,104314
 3.6000e+000 104516  1.9571e+001  4.2715e+001  5.1978e+000 28028 104634,104562,104314
 3.6000e+000 104493 -2.5504e+000  1.4135e+001  6.1243e+000 28028 104762,104366,104340
 3.6000e+000 104470  5.4956e+000  3.8712e+000  6.8606e+000 28028 104366,104418,104392
 3.6000e+000 104588  1.3639e+001  1.8590e+001  6.8797e+000 28028 104762,104340,104562
 3.6000e+000 104611  7.8625e+000 -8.3107e+000  2.3011e+001 28028 104418,104562,104444
 3.6000e+000 104660  3.9496e+001  3.0217e+000  8.8573e+000 28028 104444,104562,104634
 3.6000e+000 104788  1.7654e+001  1.0746e+001  9.9323e+000 28028 104418,104366,104762
 3.6000e+000 104811  3.2127e+001  1.4785e+001  1.2044e+001 28028 104418,104762,104562
 3.6000e+000 105010  3.2125e+000  1.5894e+001 -1.1908e+001 27324 105033,104886,104860
 3.6000e+000 104987  1.0429e+000  1.8119e+001 -2.9561e+000 27324 105033,104860,104834
 3.6000e+000 104964  2.4616e+001  1.2188e+001 -7.6055e+000 27324 105105,104912,104886
 3.6000e+000 105059  4.9076e+000  1.9228e+001 -1.1216e+001 27324 105105,104886,105033
 3.6000e+000 105082  8.5473e+000  2.0303e+001 -9.5446e+000 27324 104938,105033,104834
 3.6000e+000 105131  5.2012e+001  1.9429e+001 -5.5427e+000 27324 104938,104912,105105
 3.6000e+000 105154  3.0495e+001  2.4143e+001 -1.2472e+001 27324 104938,105105,105033
 3.6000e+000 105402 -2.1397e+001 -7.2603e+001 -9.2300e+000 27012 105229,105281,105255
 3.6000e+000 105379  7.0328e+000 -2.5457e+001 -2.6810e+001 27012 105229,105307,105281
 3.6000e+000 105356  5.0326e+001  4.0217e+000 -1.3911e+001 27012 105177,105307,105229
 3.6000e+000 105333 -3.9557e+001 -1.0087e+002 -7.4660e+001 27012 105177,105229,105203
 3.6000e+000 105603  2.9154e+001  3.4299e+001 -1.4199e+000 26508 105626,105453,105427
 3.6000e+000 105580  3.8484e+001  5.6148e+001  3.2654e+001 26508 105626,105427,105505
 3.6000e+000 105557  1.4139e+001  5.9513e+001  2.7219e+001 26508 105427,105531,105505
 3.6000e+000 105652  6.5246e+000  2.4699e+001 -9.4194e+000 26508 105479,105453,105626
 3.6000e+000 105675  4.8381e+000  3.4641e+001  2.1839e+001 26508 105479,105626,105505
 3.6000e+000 106057 -1.9771e+001 -8.0783e+001  5.3063e+001 25947 106080,105887,105861
 3.6000e+000 106034 -7.0226e+000 -5.9458e+001  4.0410e+001 25947 106080,105861,105783
 3.6000e+000 106011 -4.1725e+000 -3.8820e+001  3.5914e+001 25947 105783,105835,105809
 3.6000e+000 105988 -2.5527e+001 -5.7062e+001  4.4544e+001 25947 105783,105861,105835
 3.6000e+000 105965  2.1132e+001 -4.9063e+001  2.3692e+001 25947 105887,105939,105913
 3.6000e+000 106106 -1.6912e+001 -7.2580e+001  3.3998e+001 25947 105939,105887,106080
 3.6000e+000 106129  9.7733e+000 -3.4037e+001  1.8625e+001 25947 105939,106080,105783
 3.6000e+000 106714 -1.2140e+001 -2.8527e+001  2.4391e+001 25557 106809,106737,106547
 3.6000e+000 106691 -2.0305e+001 -7.0681e+001  4.7941e+001 25557 106737,106417,106391
 3.6000e+000 106668  7.3297e+000 -1.8840e+001  2.0267e+001 25557 106809,106547,106495
 3.6000e+000 106645 -2.0222e+001 -1.4148e+002  6.8935e+001 25557 106417,106495,106469
 3.6000e+000 106622  1.1678e+001 -1.7560e+001  1.9819e+001 25557 106495,106547,106521
 3.6000e+000 106599 -3.0125e+001 -1.1876e+002  6.6903e+001 25557 106417,106469,106443
 3.6000e+000 106763 -3.1507e+001 -4.7692e+001  3.5174e+001 25557 106573,106547,106737
 3.6000e+000 106786 -3.1360e+000 -3.5788e+001  3.8041e+001 25557 106573,106737,106391
 3.6000e+000 106835  1.2191e+001 -4.4964e+001  3.3159e+001 25557 106417,106737,106809
 3.6000e+000 106858  2.5434e+001 -3.7905e+001  2.7779e+001 25557 106417,106809,106495
 3.6000e+000 107364  1.0576e+001 -1.4305e+001  1.0089e+000 25153 107459,107387,107171
 3.6000e+000 107341  9.3224e+000  9.9469e-001 -3.5777e+000 25153 107387,107119,107067
 3.6000e+000 107318  7.9146e+000 -2.3919e+000  1.3834e+001 25153 107459,107171,107145
 3.6000e+000 107295  1.9713e+001  1.2906e+001 -5.5639e+000 25153 107531,107223,107197
 3.6000e+000 107272  2.6542e+001  3.3726e+001 -1.2819e+001 25153 107067,107119,107093
 3.6000e+000 107249  2.7760e+001  2.6164e+001 -1.1474e+001 25153 107041,107223,107067
 3.6000e+000 107413 -5.8934e+000 -1.0737e+001 -9.6565e+000 25153 107197,107171,107387
 3.6000e+000 107436  1.2467e+001  7.2813e+000 -1.0348e+000 25153 107531,107197,107387
 3.6000e+000 107485  2.0761e+001  9.3849e+000  4.3820e-001 25153 107119,107387,107459
 3.6000e+000 107508  1.6606e+001  1.7823e+001  1.4769e+001 25153 107119,107459,107145
 3.6000e+000 107557  2.5432e+001  1.5924e+001 -1.3020e+001 25153 107067,107223,107531
 3.6000e+000 107580  1.8781e+001  1.3346e+001 -9.0488e+000 25153 107067,107531,107387
 3.6000e+000 107958  5.1649e+000 -7.9206e+001 -1.5162e+001 24741 107736,107814,107788
 3.6000e+000 107935 -1.2034e+001 -1.1068e+002 -4.2414e+001 24741 107736,107840,107814
 3.6000e+000 107912 -2.2784e+001 -8.2240e+001 -5.0727e+001 24741 107684,107840,107736
 3.6000e+000 107889 -2.5465e+001 -4.5037e+001 -2.5638e+001 24741 107736,107788,107762
 3.6000e+000 107866 -4.0234e+001 -1.5063e+002 -6.7945e+001 24741 107684,107736,107710
 3.6000e+000 108157 -8.6334e+000  1.2443e+001 -2.3143e+000 24237 108180,108059,108007
 3.6000e+000 108134  4.1435e+001  3.0584e+001 -9.8838e-002 24237 108180,108007,107981
 3.6000e+000 108111  2.1068e+001 -4.2500e+001  5.3142e+000 24237 108007,108059,108033
 3.6000e+000 108206  9.8714e-001  1.7474e+001  3.8100e+001 24237 108085,108059,108180
 3.6000e+000 108229  4.9373e+001  3.4837e+001  4.0043e+001 24237 108085,108180,107981
 3.6000e+000 108658 -1.9069e+001 -8.3598e+001  2.4451e+001 23776 108361,108413,108387
 3.6000e+000 108635 -2.6181e+001 -1.5287e+002 -1.4947e+001 23776 108753,108681,108361
 3.6000e+000 108612  8.9039e-001 -8.5054e+001 -1.3426e+001 23776 108681,108465,108439
 3.6000e+000 108589 -2.0795e+000 -1.6810e+002  5.5314e+000 23776 108753,108361,108335
 3.6000e+000 108566 -2.9144e+001 -1.5784e+002  5.5599e+001 23776 108335,108517,108465
 3.6000e+000 108543 -3.5888e+001 -1.3508e+002  4.8894e+001 23776 108465,108517,108491
 3.6000e+000 108707 -4.6109e+001 -9.0119e+001 -7.5016e+000 23776 108413,108361,108681
 3.6000e+000 108730 -1.9271e+001 -5.3542e+001  1.1436e+001 23776 108413,108681,108439
 3.6000e+000 108779 -3.4921e+000 -8.7293e+001 -9.6518e+000 23776 108465,108681,108753
 3.6000e+000 108802 -1.8497e+000 -1.3940e+002  3.4686e+000 23776 108465,108753,108335
 3.6000e+000 109023  1.3988e+001  7.3928e+000 -3.6300e+001 23414 108873,108925,108899
 3.6000e+000 109000  6.8109e+001  3.4281e+001 -2.7461e+001 23414 108847,108925,108873
 3.6000e+000 108977  9.1706e+001  1.2783e+002  1.2120e+001 23414 108847,108951,108925
 3.6000e+000 109474 -1.8750e+000 -2.0186e+001  3.4318e+000 23024 109151,109307,109177
 3.6000e+000 109451  8.2928e-001  1.2787e+000  5.4862e-001 23024 109151,109333,109307
 3.6000e+000 109428  1.9764e+001 -1.2565e+002 -2.8285e+000 23024 109177,109281,109203
 3.6000e+000 109405 -1.0955e+001 -8.0473e+001 -3.1396e+001 23024 109177,109307,109281
 3.6000e+000 109382  1.9220e+001 -9.6870e+001  1.5339e+001 23024 109203,109281,109229
 3.6000e+000 109359 -9.4372e+000 -8.7495e+001 -3.0580e+000 23024 109229,109281,109255
 3.6000e+000 109820 -4.8477e+000 -7.5198e+001  1.1033e+001 22506 109843,109601,109523
 3.6000e+000 109797  1.6230e+000 -5.8270e+001  4.0611e+000 22506 109843,109523,109497
 3.6000e+000 109774  2.5624e+000 -9.0684e+001  2.1734e+000 22506 109915,109653,109627
 3.6000e+000 109751 -1.4544e+001 -5.0103e+001  2.2030e+000 22506 109497,109679,109653
 3.6000e+000 109728 -1.2110e+001 -9.4213e+001 -1.7394e+001 22506 109523,109601,109575
 3.6000e+000 109705 -4.2609e+001 -1.2175e+002 -3.0859e+001 22506 109523,109575,109549
 3.6000e+000 109869  9.7219e+000 -6.6767e+001  1.4781e+001 22506 109627,109601,109843
 3.6000e+000 109892  1.2828e+001 -7.4429e+001  1.1612e+001 22506 109915,109627,109843
 3.6000e+000 109941 -1.0703e+001 -7.9211e+001 -7.5029e+000 22506 109497,109653,109915
 3.6000e+000 109964 -9.4505e+000 -7.8857e+001 -6.3961e-001 22506 109497,109915,109843
 3.6000e+000 110163  8.7026e+000 -5.2004e+001 -1.0160e+000 21936 110186,110039,110013
 3.6000e+000 110140  2.4277e+001 -3.2909e+001  8.7388e+000 21936 110390,110186,110013
 3.6000e+000 110117  4.2441e+001 -4.6579e+001  2.5602e+001 21936 110390,110013,109987
 3.6000e+000 110212  2.3766e+001 -2.5079e+001 -2.2271e+001 21936 110065,110039,110186
 3.6000e+000 110235 -3.0639e+000 -2.4474e+001 -8.1984e+000 21936 110258,110186,110091
 3.6000e+000 110284 -3.0640e+001 -4.6614e+001 -1.7779e+001 21936 110065,110186,110258
 3.6000e+000 110416 -1.5518e+001 -3.9260e+001  1.1994e+001 21936 110091,110186,110390
 3.6000e+000 110439  1.0894e+001 -4.7611e+001  2.7191e+001 21936 110091,110390,109987
 3.6000e+000 110709  2.9345e+001 -7.2366e+001  1.8817e+000 21338 110510,110614,110588
 3.6000e+000 110686  1.5939e+001 -1.0450e+002 -6.1835e+000 21338 110484,110614,110510
 3.6000e+000 110663  4.8709e+001  5.6567e+000  2.1602e+000 21338 110510,110562,110536
 3.6000e+000 110640  1.6252e+001 -7.2062e+001 -4.1393e+000 21338 110510,110588,110562
 3.6000e+000 111296  1.6170e+001 -4.8422e+001 -7.5306e-001 20934 111025,111155,111103
 3.6000e+000 111273 -7.8667e+000 -1.5595e+002 -4.9874e-001 20934 110999,111155,111025
 3.6000e+000 111250 -5.7994e-001 -5.4291e+001 -5.4903e+000 20934 111103,111155,111129
 3.6000e+000 111227 -1.5225e+001 -1.1931e+002 -1.6232e+001 20934 111051,111103,111077
 3.6000e+000 111204 -1.6091e+001 -1.1853e+002 -1.5243e+001 20934 111025,111103,111051
 3.6000e+000 111181 -2.0276e+001 -1.8520e+002 -5.7938e+000 20934 110973,111155,110999
 3.6000e+000 111930 -3.4093e+001 -7.9071e+001 -4.8305e+001 20494 111662,111714,111688
 3.6000e+000 111907 -2.2334e+001 -4.0447e+001 -3.5748e+001 20494 111584,111714,111662
 3.6000e+000 111884 -1.3513e+001 -3.3841e+001 -3.8648e+001 20494 111584,111766,111714
 3.6000e+000 111861  4.5738e+001 -6.1159e+001 -6.8423e+000 20494 111584,111636,111610
 3.6000e+000 111838 -1.1479e+001 -4.0353e+001 -4.3263e+001 20494 111584,111662,111636
 3.6000e+000 111815 -6.5815e+000 -1.0334e+001 -8.3336e+000 20494 111558,111766,111584
 3.6000e+000 111792 -6.3763e+000  3.5591e+000 -6.7128e+000 20494 111714,111766,111740
 3.6000e+000 112249  9.1856e-001 -2.6868e+002  2.2707e+001 19940 111975,112053,112001
 3.6000e+000 112226  8.3529e+001 -9.3819e+001 -1.8165e-001 19940 111975,112131,112053
 3.6000e+000 112203  1.2800e+001 -2.4314e+002  0.0000e+000 19940 112053,112105,112079
 3.6000e+000 112180  3.2223e+001 -2.3152e+002  4.9447e+000 19940 112053,112131,112105
 3.6000e+000 112157  2.8391e+001 -2.2988e+002 -8.4115e+000 19940 112001,112053,112027
 3.6000e+000 112757  2.4313e+001 -7.3139e+001 -2.3885e+001 19486 112780,112538,112486
 3.6000e+000 112734  2.0470e+001 -7.9763e+001 -1.0683e+001 19486 112780,112486,112460
 3.6000e+000 112711 -1.5395e-001 -6.3739e+001 -1.0012e+001 19486 112852,112616,112590
 3.6000e+000 112688  8.2392e+001 -1.0641e+002 -3.1109e+001 19486 112486,112538,112512
 3.6000e+000 112665 -1.7976e+001 -9.4933e+001  6.5101e+000 19486 112434,112616,112460
 3.6000e+000 112642  9.1567e-001 -5.9766e+001 -1.5465e+001 19486 112538,112590,112564
 3.6000e+000 112806  1.4321e+001 -7.8650e+001 -2.0488e+001 19486 112590,112538,112780
 3.6000e+000 112829  2.3687e+001 -7.0080e+001 -1.5248e+001 19486 112852,112590,112780
 3.6000e+000 112878 -1.5527e+001 -7.1139e+001 -3.6421e+000 19486 112460,112616,112852
 3.6000e+000 112901 -1.4903e+000 -8.6679e+001 -6.2802e+000 19486 112460,112852,112780
 3.6000e+000 113252 -6.6902e+001 -1.2734e+002 -5.7188e+000 19096 113105,113157,113131
 3.6000e+000 113229 -5.2155e+001 -8.9583e+001 -3.5238e-001 19096 113053,113157,113105
 3.6000e+000 113206 -4.1200e+001 -8.3755e+001  1.8188e+000 19096 113027,113157,113053
 3.6000e+000 113183 -7.7002e+001 -1.4523e+002  6.6954e+000 19096 113053,113105,113079
 3.6000e+000 113451  5.4578e+000 -1.1318e+002 -3.0816e+001 18642 113327,113379,113353
 3.6000e+000 113428 -1.1397e+001 -1.6324e+002 -2.2523e+001 18642 113301,113379,113327
 3.6000e+000 113405  1.7776e+001 -1.2525e+002 -6.8028e+000 18642 113275,113379,113301
 3.6000e+000 113699  1.6985e+001 -1.2410e+002 -8.5477e+000 18138 113474,113552,113526
 3.6000e+000 113676  4.7779e+001 -1.4008e+002 -2.4614e+001 18138 113474,113578,113552
 3.6000e+000 113653  4.7637e+001 -1.3779e+002 -2.4673e+001 18138 113474,113604,113578
 3.6000e+000 113630  4.4016e+001 -8.9231e+001  3.8588e+000 18138 113474,113526,113500
 3.6000e+000 113851 -8.2307e+000 -1.3728e+002 -4.7196e+000 17682 113750,113802,113776
 3.6000e+000 113828  1.0609e+001 -1.2120e+002  2.3235e+000 17682 113724,113802,113750
 3.6000e+000 114383  3.6293e+001 -1.5671e+002 -1.3642e+001 17106 114086,114242,114164
 3.6000e+000 114360  2.8139e+001 -1.6047e+002 -1.6788e+001 17106 114060,114242,114086
 3.6000e+000 114337 -2.6275e+001 -2.8862e+002  2.1514e+001 17106 114086,114164,114138
 3.6000e+000 114314 -7.5957e+001 -4.5176e+002 -9.0610e+000 17106 114190,114242,114216
 3.6000e+000 114291 -2.9529e+001 -3.1737e+002 -3.3468e+001 17106 114164,114242,114190
 3.6000e+000 114268  1.7940e+001 -2.5176e+002  5.0157e+001 17106 114086,114138,114112
 3.6000e+000 114680 -4.9226e+001 -1.5025e+002  3.6926e+000 16766 114703,114432,114406
 3.6000e+000 114657 -5.4865e+001 -1.4690e+002 -1.3248e+000 16766 114703,114406,114510
 3.6000e+000 114634 -5.9116e+001 -1.1030e+002  1.3621e+001 16766 114406,114536,114510
 3.6000e+000 114611 -2.7432e+001 -1.5708e+002 -1.0301e+001 16766 114432,114484,114458
 3.6000e+000 114588 -6.6768e+001 -1.2823e+002  5.0351e+001 16766 114406,114562,114536
 3.6000e+000 114729 -2.7244e+001 -1.4590e+002  5.7079e+000 16766 114484,114432,114703
 3.6000e+000 114752 -4.6273e+001 -1.5176e+002  9.3727e-001 16766 114484,114703,114510
 3.6000e+000 114902  5.0666e+001 -2.5500e+002 -4.3417e+001 16362 114775,114827,114801
 3.6000e+000 114879  3.7876e+001 -2.4798e+002 -4.3772e+001 16362 114775,114853,114827
 3.6000e+000 115054 -2.8550e+002 -4.6067e+002 -2.3524e+001 15908 114953,115005,114979
 3.6000e+000 115031 -2.6337e+002 -4.7453e+002 -1.6519e+001 15908 114927,115005,114953
 3.6000e+000 115326  1.9559e+001 -8.9295e+001  4.3909e+001 15251 115101,115179,115153
 3.6000e+000 115303  1.2362e+001 -8.1529e+001  3.0892e+000 15251 115101,115231,115179
 3.6000e+000 115280  1.5090e+001 -7.5857e+001  2.2741e+000 15251 115179,115231,115205
 3.6000e+000 115257 -8.3013e+001 -4.2921e+002  3.4898e+001 15251 115101,115153,115127
 3.6000e+000 115429 -2.1127e+001 -1.6129e+002  3.0515e+001 421 115351,115403,115377
 3.7000e+000 66230 -4.3919e+001  4.5529e+001  1.5234e+001 65954 66152,66204,66178
 3.7000e+000 66429  5.5683e+000  2.9442e+001  9.5773e+000 65642 66279,66331,66305
 3.7000e+000 66406 -5.9640e+000 -1.2149e+001  4.2295e+000 65642 66279,66357,66331
 3.7000e+000 66383  1.0830e+001  4.3379e+001 -1.3627e+001 65642 66253,66357,66279
 3.7000e+000 66628 -3.5017e+000 -3.1234e+001  9.1664e+000 65444 66452,66530,66478
 3.7000e+000 66605  1.0531e+001 -5.6947e+001 -7.8720e-002 65444 66452,66556,66530
 3.7000e+000 66582 -4.0205e+000 -5.1276e+001  1.2133e+001 65444 66478,66530,66504
 3.7000e+000 67006 -2.4466e+000 -3.3911e+001  3.4058e+000 65246 66732,66810,66758
 3.7000e+000 66983 -4.4058e+000 -1.5503e+001  7.5084e+000 65246 66732,66836,66810
 3.7000e+000 66960 -1.2591e-001 -8.4382e+000  1.0043e+001 65246 66732,66862,66836
 3.7000e+000 66937  2.5340e-001 -2.7979e+001  2.5736e+000 65246 66758,66810,66784
 3.7000e+000 66914  1.2754e+001 -8.6056e+001 -2.6841e+001 65246 66732,66888,66862
 3.7000e+000 67107  3.4033e+001 -3.4667e+001 -1.2297e+001 64934 67029,67081,67055
 3.7000e+000 67306 -9.5409e+000 -4.0893e+000  8.5295e+000 64736 67156,67208,67182
 3.7000e+000 67283 -4.6017e+000 -1.6256e+000  7.1502e+000 64736 67130,67208,67156
 3.7000e+000 67260  7.6226e+000 -4.3417e+001  1.5548e+001 64736 67130,67234,67208
 3.7000e+000 67507  9.4717e-001 -3.9052e+001 -4.8288e+000 64389 67357,67409,67383
 3.7000e+000 67484 -5.6438e+000 -3.3572e+001 -7.6171e+000 64389 67357,67435,67409
 3.7000e+000 67461  7.8943e+000 -5.3975e+001 -2.8436e+000 64389 67331,67435,67357
 3.7000e+000 67708  3.5879e+001 -4.4795e+001  1.1348e+001 63985 67731,67584,67558
 3.7000e+000 67685  1.9240e+001 -1.6180e+000  4.2725e+000 63985 67731,67558,67636
 3.7000e+000 67662  8.2315e+000 -4.1418e+000  5.9266e+000 63985 67532,67636,67558
 3.7000e+000 67757  2.8161e+001 -6.6408e+001  8.0983e+000 63985 67610,67584,67731
 3.7000e+000 67780  3.5205e+000 -3.5556e+001 -1.2736e+000 63985 67610,67731,67636
 3.7000e+000 67981 -2.1877e+000  1.4521e+001  2.5424e+000 63787 67857,67909,67883
 3.7000e+000 67958  2.6082e+000  3.1793e+001 -5.2409e+000 63787 67831,67909,67857
 3.7000e+000 67935 -9.7125e+000 -7.4586e+000 -7.0331e+000 63787 67805,67909,67831
 3.7000e+000 68231  1.1589e+000 -6.5551e+001  6.7899e+000 63589 68254,68084,68032
 3.7000e+000 68208 -2.4414e+000 -2.4721e+001  5.3594e+000 63589 68254,68032,68006
 3.7000e+000 68185  6.4877e+000 -1.2000e+001  9.0219e+000 63589 68326,68136,68110
 3.7000e+000 68162 -7.2144e-001 -6.1472e+001 -7.3066e+000 63589 68032,68084,68058
 3.7000e+000 68280  4.3244e+000 -2.9837e+001  7.6530e+000 63589 68110,68084,68254
 3.7000e+000 68303  3.1242e-001 -1.4527e+001  1.4665e+001 63589 68326,68110,68254
 3.7000e+000 68352  1.6292e+001  1.8366e+000 -7.8611e+000 63589 68006,68136,68326
 3.7000e+000 68375  4.6721e+000 -5.6403e+000 -1.5270e+000 63589 68006,68326,68254
 3.7000e+000 68836  1.4930e+000  1.4472e+001  6.5539e+000 63128 68859,68588,68562
 3.7000e+000 68813 -7.3367e-001  4.3972e+000  1.6936e+001 63128 68859,68562,68692
 3.7000e+000 68790  1.6960e+001 -1.6939e+001  6.7685e+000 63128 68614,68692,68666
 3.7000e+000 68767 -5.0960e+000 -6.7187e+000  1.3433e+001 63128 68562,68718,68692
 3.7000e+000 68744  2.0959e+001 -1.3119e+001 -2.9407e+001 63128 68614,68666,68640
 3.7000e+000 68885  8.0051e+000  2.9561e+001  9.5099e-001 63128 68614,68588,68859
 3.7000e+000 68908  4.8194e+000  1.6165e+001  1.1103e+001 63128 68614,68859,68692
 3.7000e+000 69237  5.1063e+000 -2.4559e+001  8.3377e+000 62731 69064,69116,69090
 3.7000e+000 69214 -2.9339e+000 -5.7745e+001  8.1467e-001 62731 69064,69142,69116
 3.7000e+000 69191 -7.6402e+000 -4.8089e+001  6.4385e+000 62731 69038,69142,69064
 3.7000e+000 69168  8.4237e-001 -9.3319e+001  5.6553e+000 62731 69012,69142,69038
 3.7000e+000 69539 -1.1460e-001  2.0730e+001 -4.4851e+000 62433 69389,69467,69441
 3.7000e+000 69516  5.2991e+000 -5.6639e+000 -2.6472e-002 62433 69363,69467,69389
 3.7000e+000 69493  4.5582e+000 -4.8477e+000  1.6767e+001 62433 69389,69441,69415
 3.7000e+000 69966  1.8683e+000 -2.7526e+001  1.4539e+001 62235 69989,69773,69721
 3.7000e+000 69943  1.1301e+001 -4.8144e+001 -7.7559e+000 62235 70061,69989,69721
 3.7000e+000 69920  2.1555e+001 -4.5719e+001 -2.0199e+000 62235 70061,69721,69643
 3.7000e+000 69897  4.9995e+000  6.3169e+000  5.9275e+000 62235 69721,69773,69747
 3.7000e+000 69874 -2.0473e+001 -1.5062e+002 -2.4145e-001 62235 69643,69721,69695
 3.7000e+000 69851  6.5418e+001  1.9186e+002 -3.1563e+001 62235 69643,69695,69669
 3.7000e+000 70015 -3.1868e+000 -4.9003e+001  7.4544e+000 62235 69799,69773,69989
 3.7000e+000 70038 -2.7186e+001 -6.8093e+001 -2.5354e+001 62235 69799,69989,69825
 3.7000e+000 70087 -6.8716e+000 -4.0333e+001 -5.7505e+000 62235 69825,69989,70061
 3.7000e+000 70110  6.8382e+000 -3.7041e+001 -2.4582e+000 62235 69825,70061,69643
 3.7000e+000 70260  7.7133e+000 -2.6320e+000 -3.4193e+000 62037 70133,70185,70159
 3.7000e+000 70237  1.4152e-001 -3.9443e+000 -8.2694e+000 62037 70133,70211,70185
 3.7000e+000 70640 -1.1070e+001 -3.9029e+001  1.0348e+001 61583 70735,70663,70418
 3.7000e+000 70617 -2.2334e+001 -3.1931e+001  1.3090e+001 61583 70663,70366,70522
 3.7000e+000 70594 -7.6489e+000 -3.7286e+001  1.5042e+001 61583 70735,70418,70392
 3.7000e+000 70571 -2.2007e+001 -5.0862e+001  5.0184e+000 61583 70418,70496,70444
 3.7000e+000 70548 -4.1882e+001 -3.7336e+001  1.7178e+000 61583 70444,70496,70470
 3.7000e+000 70689 -2.3678e+001 -5.1598e+001  5.2073e+000 61583 70496,70418,70663
 3.7000e+000 70712 -3.5470e+001 -3.8010e+001  8.5099e+000 61583 70496,70663,70522
 3.7000e+000 70761 -2.3599e+001 -4.2502e+001  4.3645e+000 61583 70366,70663,70735
 3.7000e+000 70784 -1.6200e+001 -3.9034e+001  8.9736e+000 61583 70366,70735,70392
 3.7000e+000 71054 -2.5290e+000 -2.0241e+000  2.4817e+000 61313 71077,70881,70855
 3.7000e+000 71031 -1.7152e+000  2.8083e+000  1.0380e+000 61313 71077,70855,70829
 3.7000e+000 71008 -2.8024e-001 -7.4327e-002 -3.6125e+000 61313 70829,70959,70933
 3.7000e+000 70985 -1.0412e+000  1.0925e+000  9.9436e-002 61313 70881,70933,70907
 3.7000e+000 71103 -1.1109e+000  8.8940e-001  1.1632e-001 61313 70933,70881,71077
 3.7000e+000 71126 -1.7023e+000  3.8336e+000 -1.2526e+000 61313 70933,71077,70829
 3.7000e+000 71604 -1.0143e+000 -5.4348e+001  7.9896e+000 60909 71627,71232,71414
 3.7000e+000 71581 -7.8176e+000 -3.8645e+001 -1.0812e+001 60909 71232,71440,71414
 3.7000e+000 71558  3.6810e+000 -3.4964e+001  1.1012e+001 60909 71627,71414,71336
 3.7000e+000 71535  1.2446e+001 -1.0278e+002  2.7672e+001 60909 71362,71414,71388
 3.7000e+000 71512 -9.9100e+000 -7.3487e+001  6.1880e+000 60909 71336,71414,71362
 3.7000e+000 71489  1.2306e+001 -1.3705e+001 -1.5898e+000 60909 71258,71336,71310
 3.7000e+000 71466 -1.2330e+001 -2.5679e+001  2.5249e+000 60909 71258,71310,71284
 3.7000e+000 71653  1.4845e+000 -3.7117e+001  9.0287e+000 60909 71258,71232,71627
 3.7000e+000 71676 -8.5330e-001 -2.7414e+001  1.1962e+001 60909 71258,71627,71336
 3.7000e+000 71875  1.1754e+000  1.8606e+000  4.6664e+000 60611 71898,71725,71699
 3.7000e+000 71852 -2.7242e+000  1.8256e+000  5.3302e+000 60611 71898,71699,71803
 3.7000e+000 71829  1.0594e+001  1.4024e+001 -5.4739e+000 60611 71970,71751,71725
 3.7000e+000 71924  8.6283e+000  5.8212e+000 -2.7176e-001 60611 71970,71725,71898
 3.7000e+000 71947 -1.8799e+000 -7.3519e+000  2.3186e+000 60611 71777,71898,71803
 3.7000e+000 71996  4.6238e+000  3.5050e+000 -1.9231e+000 60611 71777,71751,71970
 3.7000e+000 72019  1.5414e+000 -1.9250e+000  3.7765e+000 60611 71777,71970,71898
 3.7000e+000 72576  2.4532e+001 -9.8245e+001  1.2629e+001 60142 72599,72256,72230
 3.7000e+000 72553  3.6979e+001 -3.5432e+001  2.0739e+001 60142 72671,72599,72230
 3.7000e+000 72530 -1.8413e+000 -1.5000e+001  1.5434e-001 60142 72671,72230,72204
 3.7000e+000 72507 -7.7377e+000 -1.6636e+001  5.8053e+000 60142 72743,72360,72334
 3.7000e+000 72484  3.2167e+000 -1.5075e+001 -1.1716e+001 60142 72815,72282,72256
 3.7000e+000 72461  2.2584e+001  1.9451e+001  1.9462e+001 60142 72887,72308,72282
 3.7000e+000 72438 -1.8072e+001 -7.0819e+001 -1.1587e+001 60142 72204,72412,72386
 3.7000e+000 72625 -6.5114e+000 -6.8991e+001 -2.2209e+001 60142 72815,72256,72599
 3.7000e+000 72648  4.2207e+000 -3.5938e+001  2.7095e+000 60142 72743,72334,72599
 3.7000e+000 72697  3.7392e+000 -7.3004e+001  6.2382e+000 60142 72386,72599,72671
 3.7000e+000 72720 -1.8379e+001 -4.4406e+001 -1.1070e+001 60142 72386,72671,72204
 3.7000e+000 72769  2.2149e+000 -3.5066e+001  3.7887e+001 60142 72386,72360,72743
 3.7000e+000 72792  7.6563e+000 -6.9934e+001  1.8991e+001 60142 72386,72743,72599
 3.7000e+000 72841  3.0408e+000  9.3555e+000  2.7712e+000 60142 72887,72282,72815
 3.7000e+000 72864  8.3448e+000 -2.2109e+001 -2.2079e+000 60142 72334,72815,72599
 3.7000e+000 72913 -5.2600e+000 -4.0619e+000  8.2803e+000 60142 72334,72308,72887
 3.7000e+000 72936 -1.5276e+001 -9.1923e+000 -6.8593e+000 60142 72334,72887,72815
 3.7000e+000 73491 -3.3910e+000 -9.4283e+001 -1.8309e+001 59738 73145,73327,73171
 3.7000e+000 73468  1.2018e+001 -8.4793e+001 -1.2407e+001 59738 73119,73327,73145
 3.7000e+000 73445  1.1046e+000 -3.1935e+001  6.0622e+000 59738 73171,73327,73301
 3.7000e+000 73422  1.0408e+001 -3.6573e+001 -2.3111e-001 59738 73514,73275,73249
 3.7000e+000 73399  6.4256e+000 -1.3017e+001 -6.1884e+000 59738 73586,73514,73249
 3.7000e+000 73376  1.3280e+001  2.1538e+001 -8.3121e+000 59738 73197,73249,73223
 3.7000e+000 73353  1.7868e+001 -3.5439e+000 -1.8507e+001 59738 73586,73249,73197
 3.7000e+000 73540  3.8969e+000 -6.1043e+001 -9.7652e+000 59738 73301,73275,73514
 3.7000e+000 73563 -5.0413e+000 -3.9410e+001  3.2814e+000 59738 73301,73514,73171
 3.7000e+000 73612  4.6716e+000 -3.3184e+001  6.5561e+000 59738 73171,73514,73586
 3.7000e+000 73635  7.9390e+000 -2.4040e+001 -4.0316e+000 59738 73171,73586,73197
 3.7000e+000 73964  5.7484e+000 -6.2378e+001 -4.9738e+000 59334 73791,73843,73817
 3.7000e+000 73941 -7.3652e-001 -6.9733e+001 -8.3147e+000 59334 73791,73869,73843
 3.7000e+000 73918 -8.8829e+000 -8.8215e+001 -1.0058e+001 59334 73739,73869,73791
 3.7000e+000 73895  7.3533e+000 -1.1153e+002 -6.4730e+000 59334 73739,73791,73765
 3.7000e+000 74261 -1.9778e+000 -1.5804e+001  4.9309e+000 58630 74065,74117,74091
 3.7000e+000 74238  2.3730e+000 -2.3482e+001 -4.5748e+000 58630 74356,74284,74065
 3.7000e+000 74215  1.0851e+001 -1.8875e+001  3.0858e-001 58630 74284,74013,73987
 3.7000e+000 74192 -1.3024e+000 -2.4375e+001 -1.6566e+001 58630 74356,74065,74039
 3.7000e+000 74169  7.2705e+000 -1.3812e+001  2.0037e+000 58630 73987,74143,74117
 3.7000e+000 74310  8.6354e+000 -1.8287e+001 -1.7644e+000 58630 74117,74065,74284
 3.7000e+000 74333  4.4813e+000 -1.8524e+001 -1.4114e+000 58630 74117,74284,73987
 3.7000e+000 74382  2.1132e+001 -1.6003e+001 -3.8077e+000 58630 74013,74284,74356
 3.7000e+000 74405  1.8317e+001 -1.6452e+001 -1.5926e+001 58630 74013,74356,74039
 3.7000e+000 74815 -5.6260e+000 -4.5051e+001 -2.3133e+000 58226 74590,74642,74616
 3.7000e+000 74792 -8.0011e+000 -5.6242e+001 -2.6965e+000 58226 74590,74694,74642
 3.7000e+000 74769  8.9564e+000 -9.5593e+001  1.6459e+001 58226 74590,74720,74694
 3.7000e+000 74746 -1.0206e+001 -3.7717e+001 -2.7675e+000 58226 74642,74694,74668
 3.7000e+000 75014  1.0195e+000 -2.1876e+001  4.7536e+000 57786 75037,74864,74838
 3.7000e+000 74991 -1.7932e+000 -2.4603e+001  6.5082e+000 57786 75037,74838,74916
 3.7000e+000 74968 -8.8249e-001 -1.8500e+001 -3.4389e+000 57786 74838,74942,74916
 3.7000e+000 75063 -2.7227e+000 -1.7807e+001  5.4422e+000 57786 74890,74864,75037
 3.7000e+000 75086 -5.5364e+000 -2.0905e+001  7.3507e+000 57786 74890,75037,74916
 3.7000e+000 75368 -1.6220e+001  1.0246e+001  8.9182e+000 57496 75192,75270,75218
 3.7000e+000 75345  2.6272e+001  2.5842e+001  6.9077e+000 57496 75192,75296,75270
 3.7000e+000 75322  1.2762e+001  1.5544e+001  2.9319e+001 57496 75218,75270,75244
 3.7000e+000 75648  1.1511e+001 -4.5866e+000 -1.6836e+001 57206 75472,75550,75498
 3.7000e+000 75625  3.6594e+000 -7.0535e+000 -1.2146e+001 57206 75472,75576,75550
 3.7000e+000 75602 -8.3874e+000  1.1830e+001  1.0640e+001 57206 75671,75550,75524
 3.7000e+000 75697  1.2680e+001 -5.5101e+000  1.0475e+001 57206 75498,75550,75671
 3.7000e+000 76154 -4.7939e+000 -2.8771e+001  8.5371e+000 56802 75958,76010,75984
 3.7000e+000 76131  6.9235e-001 -1.3307e+001  7.1440e+000 56802 75932,76010,75958
 3.7000e+000 76108 -2.9914e+000 -2.9273e+001  1.0492e+001 56802 75906,76010,75932
 3.7000e+000 76085 -5.5790e+000 -2.0285e+000  1.1857e+001 56802 75880,76010,75906
 3.7000e+000 76062  9.8183e+000 -9.9362e-001 -3.8464e+000 56802 75880,76036,76010
 3.7000e+000 76505  1.8945e-001  2.9514e-002  1.6215e-001 56504 76306,76384,76332
 3.7000e+000 76482  2.9979e-001  2.8057e-001  5.6176e-002 56504 76306,76410,76384
 3.7000e+000 76459  3.1277e-001  5.3402e-002  2.2841e-001 56504 76332,76384,76358
 3.7000e+000 76436  6.9645e-001  5.5835e-001  1.9704e-001 56504 76280,76410,76306
 3.7000e+000 77011  2.9661e+001  2.5627e+000 -1.9166e+001 56050 76740,76818,76792
 3.7000e+000 76988  1.1089e+001 -4.5683e+000 -2.1673e+001 56050 76714,76818,76740
 3.7000e+000 76965  1.4760e+001 -1.3419e+001 -2.0832e+001 56050 76688,76818,76714
 3.7000e+000 76942  4.4167e+001  2.3135e+001 -1.1271e+000 56050 76688,76844,76818
 3.7000e+000 76919  1.9916e+001 -1.1307e+001 -1.4591e+001 56050 76740,76792,76766
 3.7000e+000 76896  2.7925e+001  2.7082e+000  8.7841e+000 56050 76688,76870,76844
 3.7000e+000 77517 -3.4366e+001 -1.8962e+001  1.9313e+001 55738 77220,77350,77324
 3.7000e+000 77494  4.8676e+000 -3.9194e+001 -7.4457e+000 55738 77220,77376,77350
 3.7000e+000 77471  1.9338e+001 -3.3933e+000 -4.7653e+000 55738 77194,77376,77220
 3.7000e+000 77448  4.0347e+000 -1.6418e+001  7.5540e+000 55738 77220,77298,77246
 3.7000e+000 77425 -1.2632e+001 -1.4752e+001  2.1837e+001 55738 77220,77324,77298
 3.7000e+000 77402 -2.1872e+001 -2.1105e+001  5.7283e+001 55738 77246,77298,77272
 3.7000e+000 78064  2.4929e+001 -2.7305e+001 -4.9576e+000 55227 78231,78087,77773
 3.7000e+000 78041 -6.9737e+000 -6.8983e+001 -1.7406e+000 55227 78087,77695,77643
 3.7000e+000 78018  1.7045e+000 -5.1559e+001 -2.0286e+001 55227 78159,77799,77773
 3.7000e+000 77995  1.4120e+001 -5.6579e+000  8.3630e-001 55227 78231,77773,77721
 3.7000e+000 77972 -1.0324e+001 -1.2995e+001  1.3495e+001 55227 77643,77695,77669
 3.7000e+000 77949 -6.6216e+000 -1.7119e+001 -7.3722e+000 55227 77643,77877,77851
 3.7000e+000 77926 -6.8194e+000 -1.9069e+001 -8.4415e+000 55227 77799,77851,77825
 3.7000e+000 77903  1.8126e+001  1.0745e+001 -9.1401e+000 55227 77721,77773,77747
 3.7000e+000 78113  1.3777e+001 -5.1214e+001 -1.4774e+001 55227 78159,77773,78087
 3.7000e+000 78136  1.2723e+001 -2.2954e+001 -4.1041e+000 55227 77851,78087,77643
 3.7000e+000 78185 -2.2074e+001 -4.5132e+001 -2.0811e+001 55227 77851,77799,78159
 3.7000e+000 78208 -1.0424e+001 -4.5871e+001 -1.6327e+001 55227 77851,78159,78087
 3.7000e+000 78257  1.4548e+001 -5.1454e+001 -1.3901e+001 55227 77695,78087,78231
 3.7000e+000 78280  9.8645e-001 -2.9464e+001 -1.0273e+001 55227 77695,78231,77721
 3.7000e+000 78737  1.3659e+001 -1.7535e+001 -5.7027e+000 54773 78463,78541,78515
 3.7000e+000 78714 -8.0531e+000 -3.1552e+001  8.0347e-001 54773 78463,78619,78541
 3.7000e+000 78691  2.1352e+001  3.4724e+000  2.3437e+000 54773 78463,78515,78489
 3.7000e+000 78668 -9.9921e+000 -1.4673e+001 -4.9054e+000 54773 78541,78593,78567
 3.7000e+000 78645 -1.7018e-001 -2.1333e+001 -7.7841e+000 54773 78541,78619,78593
 3.7000e+000 78838 -4.5767e-001  5.9292e+000  6.5488e-001 54211 78760,78812,78786
 3.7000e+000 79297  1.2182e+001 -1.7594e+001  5.1135e+000 53814 79520,79153,79049
 3.7000e+000 79274  1.0949e+001 -6.5687e+000 -8.9982e+000 53814 79520,79049,79023
 3.7000e+000 79251 -3.0225e-001 -5.9534e+000  7.6571e+000 53814 79320,79101,79049
 3.7000e+000 79228  2.4643e+000  7.3477e-001  5.3896e+000 53814 79320,79049,79153
 3.7000e+000 79205  6.6358e+000 -1.3913e+001  7.2823e+000 53814 79049,79101,79075
 3.7000e+000 79346  2.0780e+000  3.9507e+000  3.2968e+000 53814 79392,79320,79127
 3.7000e+000 79369  2.4543e+000  8.6162e-001  2.9007e+000 53814 79127,79320,79153
 3.7000e+000 79418  1.5673e+000 -4.9142e+000  1.7274e+000 53814 79101,79320,79392
 3.7000e+000 79546  2.3960e+000 -3.8321e+001  1.2903e+001 53814 79179,79153,79520
 3.7000e+000 79569  1.1948e+001 -2.2549e+001 -4.6070e+000 53814 79179,79520,79023
 3.7000e+000 80075 -2.2019e+001 -1.0167e+001  1.7258e+001 53039 80098,79908,79830
 3.7000e+000 80052 -2.6679e+001  1.8792e+000 -1.1148e+001 53039 80098,79830,79804
 3.7000e+000 80029  3.0575e+000  2.3800e+001 -8.9511e+000 53039 79752,79934,79804
 3.7000e+000 80006  1.5851e+000 -3.8532e+001  1.9327e+001 53039 79856,79908,79882
 3.7000e+000 79983  1.5347e+001 -7.2810e+001  1.7804e+001 53039 79830,79908,79856
 3.7000e+000 79960 -3.5857e-001  7.1429e+000 -6.2477e+000 53039 79752,79804,79778
 3.7000e+000 80124  2.2728e+001  5.4237e+000  1.4341e+001 53039 79934,79908,80098
 3.7000e+000 80147 -5.9889e+000  9.1461e+000 -1.4796e+001 53039 79934,80098,79804
 3.7000e+000 80555  3.1670e+001  1.6665e+001 -2.3761e+000 52699 80356,80434,80408
 3.7000e+000 80532  6.6493e+000 -5.3273e+000  7.0127e+000 52699 80356,80460,80434
 3.7000e+000 80509 -5.7244e+000 -1.4379e+001  2.4864e+000 52699 80330,80460,80356
 3.7000e+000 80486 -1.9921e+001 -1.9620e+001  4.3739e+001 52699 80356,80408,80382
 3.7000e+000 80776  1.3950e+001  3.3251e+001 -1.1570e+001 52295 80600,80678,80626
 3.7000e+000 80753 -1.5522e+001  1.0828e+001 -1.8041e+000 52295 80600,80704,80678
 3.7000e+000 80730 -3.8122e+001  1.2047e+001 -7.7720e+000 52295 80626,80678,80652
 3.7000e+000 81156  4.2721e+000 -3.2702e+001  1.0343e+001 51891 81179,80960,80908
 3.7000e+000 81133  3.9733e+000 -3.7655e+001 -5.6622e+000 51891 81179,80908,81012
 3.7000e+000 81110 -1.2372e+001 -1.9407e+001 -1.4799e+001 51891 80882,81012,80908
 3.7000e+000 81087  1.0605e+001 -1.0840e+001  1.5816e+001 51891 80908,80960,80934
 3.7000e+000 81064 -7.9397e+000 -6.3042e+000 -1.2967e+001 51891 80882,81038,81012
 3.7000e+000 81205  2.4131e+001 -2.1594e+001  1.7126e+001 51891 80986,80960,81179
 3.7000e+000 81228  1.0195e+001 -3.3780e+001 -1.7692e-002 51891 80986,81179,81012
 3.7000e+000 81606  6.4794e+000 -1.7860e+002 -5.5046e+001 51544 81410,81462,81436
 3.7000e+000 81583  2.4653e+001 -5.1312e+001 -1.1011e+000 51544 81384,81462,81410
 3.7000e+000 81560 -1.0229e+001 -7.0088e+001 -1.3351e+001 51544 81358,81462,81384
 3.7000e+000 81537 -6.3671e+000 -6.0290e+001 -2.9350e+001 51544 81358,81488,81462
 3.7000e+000 81514  7.9470e+000 -1.7831e+001 -2.3952e+001 51544 81332,81488,81358
 3.7000e+000 81854  9.0201e-001 -2.3325e+001  9.2649e-002 51004 81877,81655,81629
 3.7000e+000 81831  9.4272e-001 -4.6086e+000 -3.8015e+000 51004 81877,81629,81759
 3.7000e+000 81808  9.3320e+000 -7.3534e+000  1.9044e+001 51004 81655,81707,81681
 3.7000e+000 81785 -4.3216e+000 -8.4928e+000 -2.6451e+000 51004 81707,81759,81733
 3.7000e+000 81903  2.9509e+000 -3.2341e+001  1.1402e+000 51004 81707,81655,81877
 3.7000e+000 81926 -4.5385e+000 -2.5587e+001 -5.8275e+000 51004 81707,81877,81759
 3.7000e+000 82257 -1.2589e+001 -4.5383e+001 -1.0203e+001 50642 82058,82136,82110
 3.7000e+000 82234 -1.9087e+001 -1.2022e+001 -1.9435e+001 50642 82058,82162,82136
 3.7000e+000 82211  6.3799e-001 -2.8532e+001 -2.9970e+001 50642 82058,82110,82084
 3.7000e+000 82188  3.7044e+001  1.0660e+001  3.1342e-001 50642 82032,82162,82058
 3.7000e+000 82684  3.4290e+001 -1.2286e+002  2.4815e+001 49931 82779,82707,82465
 3.7000e+000 82661 -7.2760e+000 -1.4745e+002  2.6338e+001 49931 82707,82413,82361
 3.7000e+000 82638 -1.6205e+000 -1.1964e+002 -2.2713e+001 49931 82779,82465,82439
 3.7000e+000 82615  1.1971e+001 -2.9482e+002  2.8736e+001 49931 82465,82543,82491
 3.7000e+000 82592 -1.4172e+001 -1.0783e+002 -4.8268e+000 49931 82361,82413,82387
 3.7000e+000 82569  6.2616e+000 -2.3477e+002  2.7719e+001 49931 82491,82543,82517
 3.7000e+000 82733  7.5466e+001 -1.4662e+002  2.3102e+001 49931 82543,82465,82707
 3.7000e+000 82756  2.1535e+001 -1.2456e+002  1.3109e+001 49931 82543,82707,82361
 3.7000e+000 82805  1.5388e+000 -1.9086e+002 -1.7000e+000 49931 82413,82707,82779
 3.7000e+000 82828 -1.7815e+001 -1.7496e+002 -4.6786e+001 49931 82413,82779,82439
 3.7000e+000 83255  1.0930e+000 -1.4689e+002 -2.2515e+001 49327 82984,83114,83036
 3.7000e+000 83232 -1.4139e+001 -1.7838e+002 -4.9041e+001 49327 82958,83114,82984
 3.7000e+000 83209 -2.4171e+001 -2.0944e+002  2.0744e-001 49327 83036,83114,83088
 3.7000e+000 83186 -4.3483e+001 -9.8522e+001  1.4623e+001 49327 82984,83036,83010
 3.7000e+000 83163 -2.7285e+001 -1.6384e+002 -4.0517e+001 49327 82932,83114,82958
 3.7000e+000 83140 -6.0181e+001 -3.5224e+002 -3.2093e+000 49327 83036,83088,83062
 3.7000e+000 83938 -1.7678e+001 -2.1359e+002  5.2990e+001 48965 83961,83673,83647
 3.7000e+000 83915  1.7732e+001 -8.0604e+001  6.0216e+001 48965 83961,83647,83543
 3.7000e+000 83892 -1.3765e+001 -9.6649e+001 -1.4647e+001 48965 83517,83725,83543
 3.7000e+000 83869 -3.4983e+001 -1.4805e+002 -2.6594e+001 48965 83673,83725,83699
 3.7000e+000 83846 -1.9686e+001 -3.4571e+001  7.7713e+000 48965 83543,83647,83621
 3.7000e+000 83823 -1.2271e+001 -5.4031e+001  4.4783e+000 48965 83543,83621,83569
 3.7000e+000 83800 -8.5382e+000 -9.2616e+001 -7.8089e+000 48965 83517,83751,83725
 3.7000e+000 83777 -6.0102e+000 -4.7999e+001  1.3934e+001 48965 83569,83621,83595
 3.7000e+000 83987 -1.4520e+001 -1.9319e+002 -3.3038e+001 48965 83725,83673,83961
 3.7000e+000 84010  8.3502e+000 -1.3826e+002 -1.0055e+001 48965 83725,83961,83543
 3.7000e+000 84258 -9.1145e+000 -1.3557e+002  1.9125e+001 48447 84281,84059,84033
 3.7000e+000 84235  2.0844e+000 -1.0524e+002  5.7559e-001 48447 84281,84033,84163
 3.7000e+000 84212  1.6644e+001 -9.3530e+001 -1.7415e+001 48447 84059,84111,84085
 3.7000e+000 84189  1.8811e+001 -8.8187e+001 -2.5052e+001 48447 84111,84163,84137
 3.7000e+000 84307  7.7125e+000 -1.2891e+002 -4.2713e+000 48447 84111,84059,84281
 3.7000e+000 84330  2.5044e+001 -1.0852e+002 -2.2320e+001 48447 84111,84281,84163
 3.7000e+000 84529  2.7999e+001 -7.0704e+001 -2.0275e+000 47993 84552,84405,84379
 3.7000e+000 84506  9.7079e+000 -7.6169e+001 -4.2152e-001 47993 84552,84379,84353
 3.7000e+000 84483  7.7525e+000 -7.6612e+001 -1.3576e+001 47993 84624,84457,84431
 3.7000e+000 84578  3.8316e+001 -7.1366e+001 -1.3686e+001 47993 84431,84405,84552
 3.7000e+000 84601  1.5144e+001 -7.9455e+001 -1.0954e+001 47993 84624,84431,84552
 3.7000e+000 84650  1.5611e+001 -7.6967e+001 -8.1415e+000 47993 84353,84457,84624
 3.7000e+000 84673  2.7217e+001 -7.2292e+001 -3.1662e+000 47993 84353,84624,84552
 3.7000e+000 85104 -1.8165e+001 -1.5503e+002 -1.1722e+001 47588 85199,85127,84885
 3.7000e+000 85081 -1.5600e+001 -1.6982e+002 -1.8014e+001 47588 85127,84781,84963
 3.7000e+000 85058 -4.3544e+001 -1.4831e+002  1.7788e+001 47588 85199,84885,84807
 3.7000e+000 85035  2.4269e+000 -1.0176e+002  5.2719e+001 47588 84885,84937,84911
 3.7000e+000 85012 -1.2169e+001 -8.9860e+001 -2.7308e+000 47588 84807,84885,84833
 3.7000e+000 84989 -1.2794e+001 -8.8087e+001  3.8744e+001 47588 84833,84885,84859
 3.7000e+000 85153 -1.8369e+001 -1.8575e+002 -2.5170e+000 47588 84937,84885,85127
 3.7000e+000 85176  3.7263e+001 -1.7076e+002 -3.0261e+000 47588 84937,85127,84963
 3.7000e+000 85225 -6.7088e+001 -1.7445e+002 -1.2089e+001 47588 84781,85127,85199
 3.7000e+000 85248 -8.2287e+001 -1.6492e+002  2.1279e+001 47588 84781,85199,84807
 3.7000e+000 85518 -4.2710e+001 -2.9717e+002  4.7521e+001 47226 85293,85397,85319
 3.7000e+000 85495 -2.6387e+001 -2.6718e+002  2.3124e+001 47226 85293,85423,85397
 3.7000e+000 85472 -1.6292e+001 -3.1124e+002 -1.1495e+001 47226 85319,85397,85345
 3.7000e+000 85449  3.1993e+001 -7.1022e+001 -1.5277e+001 47226 85345,85397,85371
 3.7000e+000 85849 -2.1957e+001 -1.4248e+002  4.4392e+001 46572 85624,85702,85650
 3.7000e+000 85826 -1.5233e+001 -1.9533e+002  1.2272e+000 46572 85624,85754,85702
 3.7000e+000 85803  4.0374e+001 -9.8916e+001  3.1426e+001 46572 85702,85754,85728
 3.7000e+000 85780 -1.8180e+001 -1.4519e+002  5.6390e+001 46572 85650,85702,85676
 3.7000e+000 86070 -1.2536e+002 -1.7961e+002 -5.0507e+000 46374 85920,85972,85946
 3.7000e+000 86047 -7.5868e+001 -6.3035e+001  2.2065e+000 46374 85920,85998,85972
 3.7000e+000 86024 -4.7346e+001 -4.2409e+001  1.9292e+001 46374 85894,85998,85920
 3.7000e+000 86401  9.1002e+000 -9.0572e+001  7.2128e+000 46034 86424,86280,86228
 3.7000e+000 86378 -2.0125e+001 -9.3727e+001  3.1652e+000 46034 86424,86228,86176
 3.7000e+000 86355 -2.5961e+001 -7.4306e+001 -2.5760e+001 46034 86176,86228,86202
 3.7000e+000 86332  3.5927e+001 -7.8728e+001 -2.9283e+001 46034 86228,86280,86254
 3.7000e+000 86450  6.5356e+001 -1.0180e+002 -4.8588e+000 46034 86306,86280,86424
 3.7000e+000 86473  7.5698e+000 -1.2450e+002 -1.2689e+001 46034 86306,86424,86176
 3.7000e+000 87058  1.1674e+001 -8.5636e+001  1.9437e+001 45516 86813,86917,86865
 3.7000e+000 87035 -4.7341e+000 -1.3407e+002  1.0277e+001 45516 86787,86917,86813
 3.7000e+000 87012  2.7434e+000 -1.4669e+002  1.6040e+001 45516 86735,86917,86787
 3.7000e+000 86989  4.1422e+000 -8.1762e+001  1.7956e+001 45516 86865,86917,86891
 3.7000e+000 86966  1.6957e+001 -7.8941e+001  2.1777e+001 45516 86813,86865,86839
 3.7000e+000 86943 -1.0312e+001 -2.3252e+002 -2.4087e+000 45516 86735,86787,86761
 3.7000e+000 87208  5.1939e+001 -4.9036e+001 -1.6689e+001 45226 87231,87133,87107
 3.7000e+000 87185  1.4954e+001 -2.1500e+001 -4.2807e+000 45226 87081,87159,87133
 3.7000e+000 87257  3.9505e+001  2.9678e+001 -1.4503e+001 45226 87081,87133,87231
 3.7000e+000 87537  1.1084e+001 -1.0817e+002  2.2271e+001 44772 87387,87439,87413
 3.7000e+000 87514 -1.0086e+001 -1.1626e+002  2.1683e+001 44772 87361,87439,87387
 3.7000e+000 87491  1.2647e+001 -8.1862e+001  1.0643e+001 44772 87361,87465,87439
 3.7000e+000 87996 -4.8611e+000  1.9140e+001  1.2100e+001 44425 87748,87878,87852
 3.7000e+000 87973 -1.5158e-001  2.1782e+001  9.7607e-001 44425 87722,87878,87748
 3.7000e+000 87950  1.8980e+000  6.8075e+000  5.9720e+000 44425 87800,87852,87826
 3.7000e+000 87927  2.9128e+001  1.8358e+001  8.2467e+000 44425 87748,87852,87800
 3.7000e+000 87904  1.7113e-002  1.0803e+000 -1.1081e+001 44425 87748,87800,87774
 3.7000e+000 88423 -9.4830e+000 -9.3482e+001  2.0348e+001 44078 88590,88230,88204
 3.7000e+000 88400 -5.9519e+000 -6.0747e+001  2.4123e+001 44078 88518,88446,88204
 3.7000e+000 88377  1.0007e+001 -9.8246e+001 -1.6636e+001 44078 88446,88126,88282
 3.7000e+000 88354 -1.5462e+001 -4.1863e+001  1.3089e+001 44078 88518,88204,88178
 3.7000e+000 88331  4.7749e+000 -1.2285e+002 -1.7667e+001 44078 88100,88282,88126
 3.7000e+000 88308 -1.3215e+001 -7.5760e+001  3.0205e+001 44078 88126,88178,88152
 3.7000e+000 88472 -1.3115e+001 -1.0216e+002  2.1019e+001 44078 88590,88204,88446
 3.7000e+000 88495 -1.4364e+001 -1.7326e+002 -2.2927e+001 44078 88256,88446,88282
 3.7000e+000 88544 -9.7609e+000 -1.0377e+002  2.3900e+001 44078 88126,88446,88518
 3.7000e+000 88567 -7.0027e+000 -6.7447e+001  1.4741e+001 44078 88126,88518,88178
 3.7000e+000 88616 -6.4360e+001 -2.4238e+002 -5.8103e+000 44078 88256,88230,88590
 3.7000e+000 88639 -6.3853e+000 -9.5921e+001  9.1260e+000 44078 88256,88590,88446
 3.7000e+000 89039  1.4933e+001  1.9140e+001  5.8676e+000 43716 88791,88921,88895
 3.7000e+000 89016  1.0738e+001  3.0487e+001  7.4352e+000 43716 88765,88921,88791
 3.7000e+000 88993  3.3137e+001 -2.5226e+000  1.1427e+001 43716 88817,88895,88869
 3.7000e+000 88970  6.0373e+000  4.6308e+000  1.9137e+001 43716 88791,88895,88817
 3.7000e+000 88947  4.1022e+000  3.4655e+000 -3.5533e+000 43716 88817,88869,88843
 3.7000e+000 89496  3.5475e+000 -1.4731e+002 -1.5118e+001 43162 89519,89274,89248
 3.7000e+000 89473  1.2470e+001 -9.2740e+001 -4.0191e+000 43162 89519,89248,89222
 3.7000e+000 89450  1.3656e+001 -7.3250e+001 -2.2625e+001 43162 89326,89378,89352
 3.7000e+000 89427 -8.2675e-001 -9.4464e+001 -7.6339e+000 43162 89274,89378,89326
 3.7000e+000 89404  7.9553e+000 -9.3883e+001 -5.8392e+000 43162 89274,89326,89300
 3.7000e+000 89545 -3.4590e-001 -9.7883e+001 -1.9980e+000 43162 89378,89274,89519
 3.7000e+000 89568  1.1741e+001 -3.9477e+001  9.7775e+000 43162 89378,89519,89222
 3.7000e+000 89946 -1.5061e+001 -8.4576e+001 -7.6230e+001 42594 90041,89969,89750
 3.7000e+000 89923 -9.8559e+000 -7.4408e+001 -2.8788e+001 42594 89969,89698,89828
 3.7000e+000 89900  2.6324e+001 -1.0210e+002 -6.8205e+001 42594 90041,89750,89724
 3.7000e+000 89877 -2.9826e+001 -5.6063e+001 -2.6259e+001 42594 89750,89802,89776
 3.7000e+000 89854  2.7923e+001 -3.7532e+001 -9.9029e+000 42594 89672,89828,89698
 3.7000e+000 89995 -5.0436e+001 -6.4841e+001 -5.1659e+001 42594 89802,89750,89969
 3.7000e+000 90018  1.2990e+001  1.8077e+000 -1.1400e+001 42594 89802,89969,89828
 3.7000e+000 90067  2.3539e+001 -6.2577e+001 -6.0499e+001 42594 89698,89969,90041
 3.7000e+000 90090  6.9828e+001 -8.5992e+001 -6.3100e+001 42594 89698,90041,89724
 3.7000e+000 90517  2.0796e+001 -1.0218e+002 -1.0771e+001 42140 90540,90220,90194
 3.7000e+000 90494  2.6125e+001 -1.0838e+002 -1.3015e+001 42140 90540,90194,90376
 3.7000e+000 90471 -3.6825e+000 -1.1286e+002  5.0794e+000 42140 90612,90350,90272
 3.7000e+000 90448 -1.7627e+001 -9.4996e+001 -1.3638e+000 42140 90272,90350,90298
 3.7000e+000 90425 -1.3254e+001 -8.4029e+001 -1.3889e+000 42140 90298,90350,90324
 3.7000e+000 90402  3.1647e+001 -5.4437e+001  2.0893e+000 42140 90220,90272,90246
 3.7000e+000 90566  1.8454e+001 -5.8670e+001 -6.7717e+000 42140 90272,90220,90540
 3.7000e+000 90589 -2.1566e-001 -1.0489e+002  3.6704e-001 42140 90612,90272,90540
 3.7000e+000 90638  8.9732e+000 -1.2764e+002 -8.3463e+000 42140 90376,90350,90612
 3.7000e+000 90661  2.5378e+001 -1.0741e+002 -1.5956e+001 42140 90376,90612,90540
 3.7000e+000 91167 -1.3312e+001 -5.6340e+001  4.7416e-001 41636 91190,90870,90844
 3.7000e+000 91144 -2.3262e+001 -2.2115e+002  6.0444e+000 41636 91190,90844,91026
 3.7000e+000 91121 -2.3199e+000 -1.6669e+001 -2.0196e+001 41636 90870,90922,90896
 3.7000e+000 91098  1.7952e+001 -1.8102e+002  5.6993e+000 41636 90922,91026,90948
 3.7000e+000 91075  3.9580e+001 -1.4327e+002 -2.7269e+001 41636 90948,91026,91000
 3.7000e+000 91052 -5.2472e+001 -9.9600e+001  5.7753e+001 41636 90948,91000,90974
 3.7000e+000 91216 -3.1014e+001 -1.0932e+001  2.4357e+000 41636 90922,90870,91190
 3.7000e+000 91239  3.6967e+001 -6.7886e+001  3.0377e+001 41636 90922,91190,91026
 3.7000e+000 91696  2.5356e+000 -1.0795e+002 -1.0449e+001 40449 91448,91526,91474
 3.7000e+000 91673 -4.1657e+001 -1.3293e+002  4.5957e+000 40449 91448,91578,91526
 3.7000e+000 91650  2.0207e+001 -2.1802e+001 -5.8776e+000 40449 91474,91526,91500
 3.7000e+000 91627  1.1927e+001 -1.0366e+002  1.5972e+001 40449 91422,91578,91448
 3.7000e+000 91604  2.5371e+001 -9.2955e+001 -1.6546e+001 40449 91526,91578,91552
 3.7000e+000 92123 -5.3901e+000 -1.1332e+002 -2.2089e+000 39995 92146,91904,91826
 3.7000e+000 92100 -2.3526e+001 -1.2456e+002 -2.5207e+001 39995 92146,91826,91800
 3.7000e+000 92077 -5.6901e+001 -7.4724e+001 -9.8925e+000 39995 91826,91904,91852
 3.7000e+000 92054 -3.4601e+001 -2.3565e+002 -3.4056e+001 39995 91904,91982,91930
 3.7000e+000 92031 -6.8511e+000 -4.4719e+001  1.4171e+001 39995 91852,91904,91878
 3.7000e+000 92008 -1.1209e+001 -1.7702e+002 -4.1323e+001 39995 91930,91982,91956
 3.7000e+000 92172  8.2328e+000 -1.4000e+002 -2.3319e+001 39995 91982,91904,92146
 3.7000e+000 92195 -1.3750e+001 -1.7414e+002 -4.3441e+001 39995 91982,92146,91800
 3.7000e+000 92652  2.6020e+000  2.4448e+001  1.2160e+001 39633 92404,92534,92456
 3.7000e+000 92629 -9.5255e+000  1.9753e+001  7.7916e+000 39633 92378,92534,92404
 3.7000e+000 92606 -1.3982e+001  1.7272e+001  1.1467e+001 39633 92404,92456,92430
 3.7000e+000 92583  4.5018e+000  8.5853e+000  6.4506e+000 39633 92456,92534,92508
 3.7000e+000 92560  2.6399e+000  4.9897e+000  5.7437e+000 39633 92456,92508,92482
 3.7000e+000 93079  2.8360e+000 -3.8380e+001 -8.2089e+000 39093 93102,92808,92756
 3.7000e+000 93056  9.1864e+000 -4.0601e+001 -4.8168e+000 39093 93102,92756,92938
 3.7000e+000 93033  1.5287e+000 -4.3117e+001  1.9652e+000 39093 93174,92912,92834
 3.7000e+000 93010 -4.3403e+000 -2.3231e+001  1.1826e+001 39093 92834,92912,92860
 3.7000e+000 92987  6.8011e+000 -5.4507e+001 -1.6653e+001 39093 92756,92808,92782
 3.7000e+000 92964  6.5254e+000 -4.5216e+000  3.7782e+000 39093 92860,92912,92886
 3.7000e+000 93128  7.1884e+000 -2.1709e+001 -5.3028e+000 39093 92834,92808,93102
 3.7000e+000 93151  2.0834e+000 -3.9710e+001 -1.9861e+000 39093 93174,92834,93102
 3.7000e+000 93200  4.7933e+000 -4.0409e+001 -1.7709e+000 39093 92938,92912,93174
 3.7000e+000 93223  9.3916e+000 -3.7509e+001 -5.6283e+000 39093 92938,93174,93102
 3.7000e+000 93680  2.1508e+000  5.0891e+000  2.7321e+000 38639 93703,93536,93484
 3.7000e+000 93657  8.0014e-001  6.4192e+000  2.9762e+000 38639 93703,93484,93432
 3.7000e+000 93634  2.6480e+000  6.2242e+000  3.9592e+000 38639 93432,93484,93458
 3.7000e+000 93611  1.2601e+000  2.4335e+000  1.0818e+000 38639 93484,93536,93510
 3.7000e+000 93588  1.4676e+001  2.0127e+001  1.0431e+001 38639 93406,93562,93432
 3.7000e+000 93729  1.2064e+000  3.9392e+000  2.3220e+000 38639 93562,93536,93703
 3.7000e+000 93752 -1.9449e-001  5.5789e+000  2.5465e+000 38639 93562,93703,93432
 3.7000e+000 94160  1.2946e+001  2.2589e+001  1.0623e+000 38292 93935,94039,93961
 3.7000e+000 94137 -3.0567e-001 -1.4545e+001  8.2029e+000 38292 93935,94065,94039
 3.7000e+000 94114 -6.1052e+000 -3.3162e+001 -8.4963e+000 38292 93961,94013,93987
 3.7000e+000 94091  1.7082e+001 -4.3912e+001  4.6412e+000 38292 93961,94039,94013
 3.7000e+000 94408  3.6192e+001 -2.7423e+001  1.1285e+001 37880 94431,94261,94235
 3.7000e+000 94385  6.2303e+001 -2.6642e+001  2.3023e+001 37880 94431,94235,94313
 3.7000e+000 94362  5.0846e+001 -3.7478e+001  3.3344e+001 37880 94209,94313,94235
 3.7000e+000 94339  7.2769e+001  3.9357e+001 -7.7610e+000 37880 94183,94313,94209
 3.7000e+000 94457 -1.1218e+001 -1.9427e+001  1.3561e+001 37880 94287,94261,94431
 3.7000e+000 94480  3.3270e+001 -7.1290e+000  2.1752e+001 37880 94287,94431,94313
 3.7000e+000 94728 -4.6219e+001 -1.4738e+002  2.2368e+000 37426 94529,94607,94555
 3.7000e+000 94705  1.8021e+000 -2.3088e+002 -2.4137e+001 37426 94529,94633,94607
 3.7000e+000 94682 -1.4044e+001 -2.3995e+002 -2.8099e+001 37426 94503,94633,94529
 3.7000e+000 94659 -2.3079e+001 -6.3472e+001 -3.8273e+001 37426 94555,94607,94581
 3.7000e+000 95257  9.0644e+000 -8.4312e+000  5.7361e+000 36722 95496,95280,94862
 3.7000e+000 95234 -1.8819e+001 -2.0933e+001  2.1508e+000 36722 95496,94862,94836
 3.7000e+000 95211 -2.7828e+000 -8.5809e+000 -5.9139e+000 36722 95352,95280,95070
 3.7000e+000 95188 -5.0481e+000 -1.1744e+001 -4.6485e+000 36722 95352,95070,95044
 3.7000e+000 95165 -2.4646e+001 -3.9391e+001  2.3826e+001 36722 95424,94888,94862
 3.7000e+000 95142 -2.9476e+001  8.9877e+000  8.0313e-001 36722 94914,94966,94940
 3.7000e+000 95119 -7.8340e+000 -1.3068e+001 -6.0846e-001 36722 94966,95044,95018
 3.7000e+000 95096 -3.6364e+000 -7.1423e+000  2.0989e+000 36722 94966,95018,94992
 3.7000e+000 95306  7.5690e+000 -1.4423e+001  9.4505e+000 36722 95424,94862,95280
 3.7000e+000 95329  1.9209e+001  1.7534e+001 -1.4644e+001 36722 94914,95280,94966
 3.7000e+000 95378 -6.0556e+000 -8.4367e+000 -3.7919e+000 36722 94966,95280,95352
 3.7000e+000 95401 -6.8969e+000 -8.7394e+000 -3.1898e+000 36722 94966,95352,95044
 3.7000e+000 95450  1.8650e+001 -8.7414e+000  7.8243e+000 36722 94914,94888,95424
 3.7000e+000 95473  2.1159e+001 -1.5821e+001  1.6885e+000 36722 94914,95424,95280
 3.7000e+000 95522  1.2532e+001 -1.2299e+001  4.4073e+000 36722 95070,95280,95496
 3.7000e+000 95545  1.2166e+001 -1.1280e+001  5.0549e+000 36722 95070,95496,94836
 3.7000e+000 96130  5.6733e-001  1.0505e+000  1.0554e+000 36268 96153,95911,95859
 3.7000e+000 96107  2.5845e+000  5.1917e+000  1.9524e+000 36268 96153,95859,95807
 3.7000e+000 96084  7.4895e+000  1.4270e+001 -8.4221e-001 36268 95807,95859,95833
 3.7000e+000 96061 -3.1201e+000  5.1958e+000  2.1787e-001 36268 95911,95989,95937
 3.7000e+000 96038 -1.6067e+000  7.7976e-001  4.1180e+000 36268 95859,95911,95885
 3.7000e+000 96015 -1.0165e+000  1.0380e+001 -2.6743e+000 36268 95937,95989,95963
 3.7000e+000 96179 -2.9714e+000  5.2682e+000  7.5083e-002 36268 95989,95911,96153
 3.7000e+000 96202 -7.2144e-002  1.0715e+001  1.2810e+000 36268 95989,96153,95807
 3.7000e+000 96531 -9.7089e+000 -9.5804e+001  3.9626e+001 35728 96358,96410,96384
 3.7000e+000 96508  1.5647e+000 -7.8432e+001  3.1264e+001 35728 96332,96410,96358
 3.7000e+000 96485 -1.3263e+001 -9.7614e+001  4.3315e+001 35728 96332,96436,96410
 3.7000e+000 96462 -6.4218e-001 -4.8304e+001 -2.1511e+000 35728 96306,96436,96332
 3.7000e+000 96860  8.5859e+000 -3.9749e+001  4.4594e+000 35324 96687,96765,96713
 3.7000e+000 96837  1.8840e+001 -2.0090e+001 -5.1988e+000 35324 96661,96765,96687
 3.7000e+000 96814  1.4146e+000  1.2607e+001 -2.4482e+001 35324 96713,96765,96739
 3.7000e+000 96791 -4.3713e+000 -7.1317e+000 -4.8581e+000 35324 96635,96765,96661
 3.7000e+000 97366  4.9404e+000 -1.0584e+002  2.2398e+001 34920 97389,97069,97043
 3.7000e+000 97343 -9.9376e+000 -8.9313e+001 -1.2953e+000 34920 97389,97043,97199
 3.7000e+000 97320 -2.4464e+000 -7.4264e+001 -3.9192e+000 34920 97043,97225,97199
 3.7000e+000 97297  5.5281e+000 -2.2683e+002  4.0761e+001 34920 97069,97121,97095
 3.7000e+000 97274 -1.5195e+001 -4.4858e+001 -1.1686e+001 34920 97121,97199,97173
 3.7000e+000 97251 -2.2072e+001 -5.8339e+001 -2.6012e+000 34920 97121,97173,97147
 3.7000e+000 97415  1.8638e+001 -9.6881e+001  7.8875e+000 34920 97121,97069,97389
 3.7000e+000 97438  2.6643e+001 -6.0022e+001 -1.9340e+001 34920 97121,97389,97199
 3.7000e+000 97708 -4.4320e+001 -1.9253e+001  1.1677e+001 34722 97509,97587,97535
 3.7000e+000 97685 -2.2783e+001 -1.5756e+001  6.6911e+000 34722 97509,97613,97587
 3.7000e+000 97662 -2.9810e+001 -2.0048e+001  4.2690e+000 34722 97483,97613,97509
 3.7000e+000 97639 -3.2127e+001 -1.6603e+001  7.5108e+000 34722 97535,97587,97561
 3.7000e+000 98216 -1.4229e+001 -8.9515e+001  2.5935e+001 34318 97971,98075,97997
 3.7000e+000 98193 -4.7835e-002 -7.4428e+001  3.7944e+001 34318 97893,98075,97971
 3.7000e+000 98170  5.4882e+001 -6.6510e+001  1.0542e+001 34318 97893,97971,97919
 3.7000e+000 98147 -8.7925e+000 -7.4376e+001  2.5412e+001 34318 97997,98075,98049
 3.7000e+000 98124  1.5508e+001 -9.1447e+001  2.1231e+001 34318 97919,97971,97945
 3.7000e+000 98101 -4.4718e+001 -1.5534e+002  3.3386e+001 34318 97997,98049,98023
 3.7000e+000 98594  8.7216e+000 -2.4512e+000  2.5522e+000 33814 98961,98617,98424
 3.7000e+000 98571  3.0456e+001 -3.5578e+000  2.3940e+000 33814 98689,98617,98372
 3.7000e+000 98548  4.1381e+001  3.7115e+001 -5.1111e+000 33814 99033,98689,98372
 3.7000e+000 98525  1.5166e+001  2.7409e+000  1.1680e+000 33814 98761,98476,98450
 3.7000e+000 98502 -4.6594e+000  2.3724e+000 -1.3641e+000 33814 98961,98424,98398
 3.7000e+000 98643  1.3647e+001 -1.6169e+000  1.0269e+000 33814 98450,98424,98617
 3.7000e+000 98666  2.2849e+001  1.0023e+001  5.8907e+000 33814 98761,98450,98617
 3.7000e+000 98715  3.0286e+001 -1.5345e+001  4.3617e+000 33814 99161,98689,98320
 3.7000e+000 98738 -1.0279e+001 -2.0648e+001  1.4211e+001 33814 98320,98689,98346
 3.7000e+000 98787  2.3514e+001 -1.0104e+001  1.5580e+001 33814 98833,98761,98320
 3.7000e+000 98810  2.9232e+001 -1.7942e+001  7.7497e+000 33814 99161,98320,98761
 3.7000e+000 98859  2.8449e+001  3.2753e+001  3.6139e+000 33814 98476,98761,98833
 3.7000e+000 98987  2.9608e+001 -5.2212e+000 -2.1164e+000 33814 98372,98617,98961
 3.7000e+000 99010  1.6397e+001 -3.9551e-001 -8.8512e+000 33814 98372,98961,98398
 3.7000e+000 99059  2.7683e+001 -6.8982e+000  1.2607e+001 33814 98346,98689,99033
 3.7000e+000 99187  3.1418e+001 -7.4690e+000 -1.7115e-001 33814 98617,98689,99161
 3.7000e+000 99210  2.7017e+001 -1.2158e+001  3.8449e+000 33814 98617,99161,98761
 3.7000e+000 99588  5.2534e+000 -4.9835e+000  1.7785e+000 33566 99366,99444,99392
 3.7000e+000 99565  1.6948e+000 -1.7421e+000  1.6364e+000 33566 99314,99444,99366
 3.7000e+000 99542  2.8580e+000 -5.9600e+000 -1.8313e+000 33566 99314,99366,99340
 3.7000e+000 99519  4.0945e+000  3.2675e+000 -4.1371e+000 33566 99314,99470,99444
 3.7000e+000 99496  2.8058e+000 -2.3681e+001 -2.6808e+000 33566 99392,99444,99418
 3.7000e+000 99787  1.3210e+001 -4.0981e+001  4.2156e+001 33105 99637,99689,99663
 3.7000e+000 99764  1.5151e+001 -1.6838e+001  1.4040e+000 33105 99611,99689,99637
 3.7000e+000 99741  1.8690e+001  1.8901e+001  5.7669e+000 33105 99611,99715,99689
 3.7000e+000 100167 -3.6722e+001 -1.1721e+002  7.0979e+001 32651 100190,99971,99919
 3.7000e+000 100144  1.5533e+001 -6.0485e+001  4.9265e+001 32651 100262,100190,99919
 3.7000e+000 100121  6.2535e+000 -5.5872e+001  3.9595e+001 32651 100262,99919,100049
 3.7000e+000 100098  3.6185e+000 -5.6390e+001  4.9591e+000 32651 99893,100049,99919
 3.7000e+000 100075 -5.4887e+001 -1.1447e+002  5.8151e+001 32651 99919,99971,99945
 3.7000e+000 100216  1.7572e+001 -1.2972e+002  3.0836e+001 32651 99997,99971,100190
 3.7000e+000 100239  3.9894e+001 -9.6216e+001  1.8903e+001 32651 99997,100190,100023
 3.7000e+000 100288  1.3627e+001 -9.0196e+001  4.4372e+001 32651 100023,100190,100262
 3.7000e+000 100311  1.8801e+001 -7.5143e+001  2.2940e+001 32651 100023,100262,100049
 3.7000e+000 100608 -1.9649e+001 -9.2396e+001  9.0911e+000 32254 100386,100490,100464
 3.7000e+000 100585 -1.6098e+001 -4.4525e+001 -2.0675e+000 32254 100360,100490,100386
 3.7000e+000 100562 -3.6109e+001 -1.3343e+002 -1.3456e+001 32254 100386,100464,100412
 3.7000e+000 100539 -6.2708e+000 -4.7213e+001 -1.5191e+001 32254 100334,100490,100360
 3.7000e+000 100516  1.8822e+001 -4.6756e+001  1.0658e+001 32254 100412,100464,100438
 3.7000e+000 100758 -8.9362e+000  8.7122e+000  2.8849e+000 31914 100985,100781,100683
 3.7000e+000 100735 -3.5667e+001 -1.2059e+000  3.1777e+001 31914 100853,100781,100657
 3.7000e+000 100807  1.1575e+001  1.2551e+001 -1.3000e+001 31914 100709,100683,100781
 3.7000e+000 100830 -8.3625e+000  1.3453e+001  1.9129e+001 31914 100709,100781,100631
 3.7000e+000 100879 -2.1043e+001 -2.9842e+001  2.7173e+001 31914 100631,100781,100853
 3.7000e+000 101011 -8.4641e-001 -5.2428e-001  9.8861e+000 31914 100657,100781,100985
 3.7000e+000 101191 -2.1694e+001  2.2159e+001 -2.9700e+000 31418 101113,101165,101139
 3.7000e+000 101341 -1.0882e+002 -1.9858e+002 -1.6624e+001 31106 101214,101266,101240
 3.7000e+000 101318 -6.3503e+001 -6.3337e+001  4.5180e+000 31106 101214,101292,101266
 3.7000e+000 101591 -3.5649e+001 -1.2332e+002  8.3054e+001 30552 101614,101470,101444
 3.7000e+000 101568 -4.8976e+001 -7.0695e+001  2.6508e+001 30552 101366,101496,101470
 3.7000e+000 101545 -4.5105e+000 -1.1446e+002  5.8022e+001 30552 101614,101444,101392
 3.7000e+000 101522 -4.8556e+000 -3.3130e+001 -5.6664e+000 30552 101392,101444,101418
 3.7000e+000 101640  8.1470e+000 -1.2621e+002  6.8802e+001 30552 101366,101470,101614
 3.7000e+000 101663  3.4534e+001 -1.2114e+002  4.4040e+001 30552 101366,101614,101392
 3.7000e+000 102301  8.3072e+000 -1.2034e+002 -1.5435e+001 30042 102396,102324,102059
 3.7000e+000 102278 -2.5653e+001 -1.0816e+002 -4.6325e+001 30042 102324,101981,101955
 3.7000e+000 102255 -1.1893e+001 -9.5945e+001  1.9888e+001 30042 102396,102059,102033
 3.7000e+000 102232 -1.4983e+001 -5.9341e+001 -6.4143e-001 30042 101929,102111,101955
 3.7000e+000 102209 -2.9040e+000 -1.1783e+002 -6.9026e+000 30042 102059,102111,102085
 3.7000e+000 102186 -1.8663e+001 -6.0657e+001 -1.1948e+000 30042 101929,102137,102111
 3.7000e+000 102163  2.3237e+000 -5.3963e+000 -8.9882e+000 30042 101981,102033,102007
 3.7000e+000 102350  2.3996e+001 -1.1225e+002 -1.9236e+001 30042 102111,102059,102324
 3.7000e+000 102373  2.3515e+001 -1.0259e+002 -2.3155e+001 30042 102111,102324,101955
 3.7000e+000 102422  3.1096e+001 -3.8405e+001 -2.1486e+001 30042 101981,102324,102396
 3.7000e+000 102445  1.1803e+001 -1.3717e+001  1.4815e+001 30042 101981,102396,102033
 3.7000e+000 103000  4.2184e+001 -1.0182e+002  5.7211e+000 29730 103023,102706,102654
 3.7000e+000 102977 -1.0850e+001 -1.0792e+002 -5.3333e+000 29730 103023,102654,102810
 3.7000e+000 102954 -7.5987e+001 -1.8859e+002 -4.7820e+000 29730 102732,102810,102784
 3.7000e+000 102931  3.9637e-002 -1.1517e+002 -5.9299e+000 29730 102628,102810,102654
 3.7000e+000 102908  4.0942e+001 -4.5942e+001  1.8949e+001 29730 102654,102706,102680
 3.7000e+000 102885 -3.3605e+001 -5.0377e+001 -3.7455e+001 29730 102732,102784,102758
 3.7000e+000 102862 -5.0153e+001 -1.3235e+002 -1.9003e+001 29730 102628,102836,102810
 3.7000e+000 103049  1.0501e+001 -1.1661e+002 -2.0291e+001 29730 102732,102706,103023
 3.7000e+000 103072 -2.2282e+001 -1.0320e+002 -2.8661e+001 29730 102732,103023,102810
 3.7000e+000 103222  6.6991e+001 -1.0836e+002 -2.2443e+000 29226 103095,103147,103121
 3.7000e+000 103199  5.5262e+001 -6.6914e+001 -1.8027e+001 29226 103095,103173,103147
 3.7000e+000 103730 -7.7577e+000 -1.2237e+002  1.1816e+001 28822 103537,103589,103563
 3.7000e+000 103707  2.8201e+000 -9.8331e+001  8.2078e+000 28822 103433,103589,103537
 3.7000e+000 103684  1.6031e+001 -8.1665e+001 -1.1139e+001 28822 103433,103537,103459
 3.7000e+000 103661  2.6507e+001 -1.1409e+002  1.5442e+001 28822 103407,103589,103433
 3.7000e+000 103638 -4.4607e+000 -3.4753e+001  3.2670e+001 28822 103459,103511,103485
 3.7000e+000 103615 -2.6377e+001 -1.9119e+001  2.5482e+001 28822 103459,103537,103511
 3.7000e+000 103880  2.5734e+001 -7.0625e+001  2.3711e+001 28368 103975,103903,103779
 3.7000e+000 103857 -2.1496e-001 -1.6994e+002  8.9321e+000 28368 103903,103753,103831
 3.7000e+000 103929 -3.4380e+000 -4.8299e+001  5.2784e+000 28368 103805,103779,103903
 3.7000e+000 103952 -7.1219e+000 -9.5057e+001  1.6983e+000 28368 104105,103903,103831
 3.7000e+000 104001  2.0882e+001 -9.0020e+001 -7.1006e+000 28368 103753,103903,103975
 3.7000e+000 104131 -8.3490e+000 -8.7178e+001  1.6214e+001 28368 103805,103903,104105
 3.7000e+000 104539  1.2152e+001  3.1088e+001  2.7187e-001 28028 104562,104340,104314
 3.7000e+000 104516  2.1050e+001  4.9962e+001 -2.7311e+000 28028 104634,104562,104314
 3.7000e+000 104493 -4.2394e+000  2.6244e+001  8.0441e+000 28028 104762,104366,104340
 3.7000e+000 104470  6.7483e+000  7.0177e+000  7.4274e+000 28028 104366,104418,104392
 3.7000e+000 104588  1.5697e+001  3.5678e+001  5.2195e+000 28028 104762,104340,104562
 3.7000e+000 104611  1.0924e+001 -4.6887e+000  2.3543e+001 28028 104418,104562,104444
 3.7000e+000 104660  5.4197e+001  1.0994e+001  5.4666e+000 28028 104444,104562,104634
 3.7000e+000 104788  2.2509e+001  1.6522e+001  1.2181e+001 28028 104418,104366,104762
 3.7000e+000 104811  3.8902e+001  2.3625e+001  1.0961e+001 28028 104418,104762,104562
 3.7000e+000 105010  6.4266e+000  2.6813e+001 -1.4020e+001 27324 105033,104886,104860
 3.7000e+000 104987 -3.1203e+000  2.6033e+001 -4.8625e+000 27324 105033,104860,104834
 3.7000e+000 104964  2.4642e+001  1.2534e+001 -1.1242e+001 27324 105105,104912,104886
 3.7000e+000 105059  4.6328e+000  2.2825e+001 -1.4395e+001 27324 105105,104886,105033
 3.7000e+000 105082  7.8619e+000  3.7788e+001 -1.1786e+001 27324 104938,105033,104834
 3.7000e+000 105131  4.6583e+001  2.3013e+001 -1.4389e+001 27324 104938,104912,105105
 3.7000e+000 105154  2.7886e+001  3.5616e+001 -1.9740e+001 27324 104938,105105,105033
 3.7000e+000 105402 -1.7553e+001 -5.1887e+001 -1.2648e+001 27012 105229,105281,105255
 3.7000e+000 105379  1.2493e+001 -1.8341e+001 -2.6063e+001 27012 105229,105307,105281
 3.7000e+000 105356  5.3912e+001  1.3020e+001 -1.2395e+001 27012 105177,105307,105229
 3.7000e+000 105333 -3.4339e+001 -9.3974e+001 -7.0379e+001 27012 105177,105229,105203
 3.7000e+000 105603  2.7034e+001  3.5059e+001 -5.4396e+000 26508 105626,105453,105427
 3.7000e+000 105580  3.6981e+001  5.8381e+001  3.3217e+001 26508 105626,105427,105505
 3.7000e+000 105557  1.4494e+001  6.1708e+001  2.8060e+001 26508 105427,105531,105505
 3.7000e+000 105652  1.0798e+000  2.4030e+001 -1.3738e+001 26508 105479,105453,105626
 3.7000e+000 105675 -1.0955e+000  3.4709e+001  2.1720e+001 26508 105479,105626,105505
 3.7000e+000 106057 -1.7311e+001 -6.9433e+001  4.5916e+001 25947 106080,105887,105861
 3.7000e+000 106034 -6.2624e+000 -5.1055e+001  3.4851e+001 25947 106080,105861,105783
 3.7000e+000 106011 -3.3560e+000 -3.2781e+001  3.0880e+001 25947 105783,105835,105809
 3.7000e+000 105988 -2.1745e+001 -4.9630e+001  3.8392e+001 25947 105783,105861,105835
 3.7000e+000 105965  1.9074e+001 -4.2362e+001  2.0694e+001 25947 105887,105939,105913
 3.7000e+000 106106 -1.4747e+001 -6.2344e+001  2.9456e+001 25947 105939,105887,106080
 3.7000e+000 106129  8.4501e+000 -2.9049e+001  1.6027e+001 25947 105939,106080,105783
 3.7000e+000 106714 -4.8652e+000 -2.0830e+001  2.3273e+001 25557 106809,106737,106547
 3.7000e+000 106691 -1.2192e+001 -5.9199e+001  4.5931e+001 25557 106737,106417,106391
 3.7000e+000 106668  1.3427e+001 -1.2387e+001  1.9704e+001 25557 106809,106547,106495
 3.7000e+000 106645 -1.2640e+001 -1.2581e+002  6.4042e+001 25557 106417,106495,106469
 3.7000e+000 106622  2.1474e+001 -1.0850e+001  1.7786e+001 25557 106495,106547,106521
 3.7000e+000 106599 -2.1234e+001 -1.1198e+002  6.1888e+001 25557 106417,106469,106443
 3.7000e+000 106763 -2.2159e+001 -3.6852e+001  3.3114e+001 25557 106573,106547,106737
 3.7000e+000 106786  4.0403e+000 -2.5960e+001  3.7055e+001 25557 106573,106737,106391
 3.7000e+000 106835  1.7810e+001 -3.4707e+001  3.1521e+001 25557 106417,106737,106809
 3.7000e+000 106858  3.0006e+001 -2.9210e+001  2.6611e+001 25557 106417,106809,106495
 3.7000e+000 107364  1.2275e+001 -8.4339e+000  3.0133e+000 25153 107459,107387,107171
 3.7000e+000 107341  9.6103e+000  8.4787e+000 -3.7017e+000 25153 107387,107119,107067
 3.7000e+000 107318  8.6380e+000  1.0132e+000  1.3716e+001 25153 107459,107171,107145
 3.7000e+000 107295  2.3289e+001  2.5314e+001 -1.0597e+000 25153 107531,107223,107197
 3.7000e+000 107272  2.9654e+001  4.2594e+001 -1.8499e+001 25153 107067,107119,107093
 3.7000e+000 107249  3.1470e+001  3.2771e+001 -1.0138e+001 25153 107041,107223,107067
 3.7000e+000 107413 -1.6031e+000 -1.8854e+000 -9.9642e+000 25153 107197,107171,107387
 3.7000e+000 107436  1.4010e+001  2.0245e+001  1.2739e+000 25153 107531,107197,107387
 3.7000e+000 107485  2.1410e+001  1.1666e+001 -5.6593e-001 25153 107119,107387,107459
 3.7000e+000 107508  1.4181e+001  1.7186e+001  1.1276e+001 25153 107119,107459,107145
 3.7000e+000 107557  2.9722e+001  2.5903e+001 -1.1238e+001 25153 107067,107223,107531
 3.7000e+000 107580  1.9872e+001  2.1799e+001 -9.6036e+000 25153 107067,107531,107387
 3.7000e+000 107958  9.4481e+000 -6.6608e+001 -1.4518e+001 24741 107736,107814,107788
 3.7000e+000 107935 -6.3421e+000 -9.6135e+001 -4.0240e+001 24741 107736,107840,107814
 3.7000e+000 107912 -1.4762e+001 -6.5363e+001 -4.7432e+001 24741 107684,107840,107736
 3.7000e+000 107889 -1.9624e+001 -3.4849e+001 -2.4199e+001 24741 107736,107788,107762
 3.7000e+000 107866 -3.2808e+001 -1.3312e+002 -6.3208e+001 24741 107684,107736,107710
 3.7000e+000 108157 -4.0199e+000  2.0597e+001 -5.9356e+000 24237 108180,108059,108007
 3.7000e+000 108134  4.6491e+001  3.7907e+001 -4.6001e+000 24237 108180,108007,107981
 3.7000e+000 108111  1.6457e+001 -3.2750e+001  2.8667e+000 24237 108007,108059,108033
 3.7000e+000 108206  5.2116e+000  2.4636e+001  3.4620e+001 24237 108085,108059,108180
 3.7000e+000 108229  5.4053e+001  4.1179e+001  3.5683e+001 24237 108085,108180,107981
 3.7000e+000 108658 -1.4693e+001 -7.1303e+001  2.5136e+001 23776 108361,108413,108387
 3.7000e+000 108635 -2.2603e+001 -1.3854e+002 -1.2000e+001 23776 108753,108681,108361
 3.7000e+000 108612  3.0672e+000 -7.4821e+001 -1.0714e+001 23776 108681,108465,108439
 3.7000e+000 108589 -2.7216e+000 -1.5301e+002  6.5172e+000 23776 108753,108361,108335
 3.7000e+000 108566 -2.9299e+001 -1.4617e+002  4.7600e+001 23776 108335,108517,108465
 3.7000e+000 108543 -3.5331e+001 -1.2246e+002  4.1231e+001 23776 108465,108517,108491
 3.7000e+000 108707 -4.0950e+001 -7.9132e+001 -5.1011e+000 23776 108413,108361,108681
 3.7000e+000 108730 -1.6469e+001 -4.3242e+001  1.3704e+001 23776 108413,108681,108439
 3.7000e+000 108779 -3.9926e+000 -7.8044e+001 -8.6272e+000 23776 108465,108681,108753
 3.7000e+000 108802 -4.3302e+000 -1.2573e+002  3.5962e+000 23776 108465,108753,108335
 3.7000e+000 109023  1.3533e+001  1.1417e+001 -3.5252e+001 23414 108873,108925,108899
 3.7000e+000 109000  6.6561e+001  3.7531e+001 -2.6825e+001 23414 108847,108925,108873
 3.7000e+000 108977  8.7271e+001  1.2295e+002  1.1513e+001 23414 108847,108951,108925
 3.7000e+000 109474 -3.5365e+000 -1.7609e+000  4.5765e+000 23024 109151,109307,109177
 3.7000e+000 109451  2.9666e+000  1.7049e+000  2.1774e+000 23024 109151,109333,109307
 3.7000e+000 109428  1.7455e+001 -1.1251e+002 -1.1585e+000 23024 109177,109281,109203
 3.7000e+000 109405 -1.1119e+001 -6.3835e+001 -3.1495e+001 23024 109177,109307,109281
 3.7000e+000 109382  1.3414e+001 -8.7495e+001  1.5100e+001 23024 109203,109281,109229
 3.7000e+000 109359 -1.1395e+001 -7.6713e+001 -1.0991e+000 23024 109229,109281,109255
 3.7000e+000 109820 -1.9157e+000 -6.5806e+001  9.1525e+000 22506 109843,109601,109523
 3.7000e+000 109797  3.5768e+000 -4.9537e+001  2.4695e+000 22506 109843,109523,109497
 3.7000e+000 109774  4.2107e+000 -8.0918e+001  6.7780e-001 22506 109915,109653,109627
 3.7000e+000 109751 -1.1847e+001 -4.0811e+001  4.1584e-001 22506 109497,109679,109653
 3.7000e+000 109728 -8.4910e+000 -8.2975e+001 -1.6263e+001 22506 109523,109601,109575
 3.7000e+000 109705 -3.4167e+001 -1.0461e+002 -2.7609e+001 22506 109523,109575,109549
 3.7000e+000 109869  1.1367e+001 -5.7818e+001  1.2692e+001 22506 109627,109601,109843
 3.7000e+000 109892  1.4190e+001 -6.5045e+001  9.7733e+000 22506 109915,109627,109843
 3.7000e+000 109941 -8.5664e+000 -6.9662e+001 -8.7792e+000 22506 109497,109653,109915
 3.7000e+000 109964 -7.3463e+000 -6.9282e+001 -2.1822e+000 22506 109497,109915,109843
 3.7000e+000 110163  1.3652e+001 -4.1595e+001 -1.1751e+000 21936 110186,110039,110013
 3.7000e+000 110140  3.0075e+001 -2.3134e+001  8.1038e+000 21936 110390,110186,110013
 3.7000e+000 110117  4.9242e+001 -3.5917e+001  2.5553e+001 21936 110390,110013,109987
 3.7000e+000 110212  2.7506e+001 -1.6970e+001 -2.1058e+001 21936 110065,110039,110186
 3.7000e+000 110235 -6.8086e-001 -1.6606e+001 -1.0011e+001 21936 110258,110186,110091
 3.7000e+000 110284 -2.3732e+001 -3.5645e+001 -1.8188e+001 21936 110065,110186,110258
 3.7000e+000 110416 -1.1870e+001 -2.7961e+001  1.0763e+001 21936 110091,110186,110390
 3.7000e+000 110439  1.5812e+001 -3.5256e+001  2.6564e+001 21936 110091,110390,109987
 3.7000e+000 110709  2.2687e+001 -6.2960e+001  2.4471e+000 21338 110510,110614,110588
 3.7000e+000 110686  1.1469e+001 -9.2168e+001 -4.6348e+000 21338 110484,110614,110510
 3.7000e+000 110663  3.7799e+001  1.0074e+000  1.5407e+000 21338 110510,110562,110536
 3.7000e+000 110640  1.1348e+001 -6.2268e+001 -3.2760e+000 21338 110510,110588,110562
 3.7000e+000 111296  1.5660e+001 -4.1187e+001 -1.5563e+000 20934 111025,111155,111103
 3.7000e+000 111273 -7.3225e+000 -1.3806e+002 -4.7487e-001 20934 110999,111155,111025
 3.7000e+000 111250 -3.6326e-001 -4.7303e+001 -4.1182e+000 20934 111103,111155,111129
 3.7000e+000 111227 -1.2819e+001 -1.0640e+002 -1.3795e+001 20934 111051,111103,111077
 3.7000e+000 111204 -1.2201e+001 -1.0564e+002 -1.4133e+001 20934 111025,111103,111051
 3.7000e+000 111181 -1.8288e+001 -1.6256e+002 -5.1675e+000 20934 110973,111155,110999
 3.7000e+000 111930 -2.7087e+001 -6.9852e+001 -4.6618e+001 20494 111662,111714,111688
 3.7000e+000 111907 -1.9761e+001 -3.3237e+001 -3.5131e+001 20494 111584,111714,111662
 3.7000e+000 111884 -1.1633e+001 -2.5915e+001 -3.8401e+001 20494 111584,111766,111714
 3.7000e+000 111861  4.7596e+001 -4.3919e+001 -7.8240e+000 20494 111584,111636,111610
 3.7000e+000 111838 -7.9720e+000 -2.8886e+001 -4.2597e+001 20494 111584,111662,111636
 3.7000e+000 111815 -7.1973e+000 -5.5737e+000 -1.1216e+001 20494 111558,111766,111584
 3.7000e+000 111792 -3.2637e+000  1.2821e+001 -8.8134e+000 20494 111714,111766,111740
 3.7000e+000 112249  3.1915e+000 -2.5373e+002  2.1287e+001 19940 111975,112053,112001
 3.7000e+000 112226  8.2506e+001 -8.5930e+001 -7.3587e-001 19940 111975,112131,112053
 3.7000e+000 112203  1.2901e+001 -2.2995e+002  0.0000e+000 19940 112053,112105,112079
 3.7000e+000 112180  3.3481e+001 -2.1850e+002  4.8152e+000 19940 112053,112131,112105
 3.7000e+000 112157  2.7245e+001 -2.1712e+002 -8.7411e+000 19940 112001,112053,112027
 3.7000e+000 112757  2.2426e+001 -6.4639e+001 -2.1516e+001 19486 112780,112538,112486
 3.7000e+000 112734  1.9182e+001 -7.0064e+001 -9.4085e+000 19486 112780,112486,112460
 3.7000e+000 112711  1.1478e-001 -5.6511e+001 -9.2037e+000 19486 112852,112616,112590
 3.7000e+000 112688  7.4945e+001 -9.6008e+001 -2.8481e+001 19486 112486,112538,112512
 3.7000e+000 112665 -1.6032e+001 -8.2797e+001  5.7390e+000 19486 112434,112616,112460
 3.7000e+000 112642  1.5871e+000 -5.3372e+001 -1.3693e+001 19486 112538,112590,112564
 3.7000e+000 112806  1.4018e+001 -6.9390e+001 -1.8385e+001 19486 112590,112538,112780
 3.7000e+000 112829  2.2131e+001 -6.1993e+001 -1.3842e+001 19486 112852,112590,112780
 3.7000e+000 112878 -1.4258e+001 -6.2718e+001 -3.2633e+000 19486 112460,112616,112852
 3.7000e+000 112901 -1.3314e+000 -7.6662e+001 -5.5939e+000 19486 112460,112852,112780
 3.7000e+000 113252 -5.8165e+001 -1.1502e+002 -5.4429e+000 19096 113105,113157,113131
 3.7000e+000 113229 -4.5528e+001 -8.0502e+001 -9.8566e-001 19096 113053,113157,113105
 3.7000e+000 113206 -3.3902e+001 -7.4536e+001  1.1083e+000 19096 113027,113157,113053
 3.7000e+000 113183 -6.8142e+001 -1.2978e+002  5.7656e+000 19096 113053,113105,113079
 3.7000e+000 113451  8.3023e+000 -1.0353e+002 -2.9044e+001 18642 113327,113379,113353
 3.7000e+000 113428 -7.2187e+000 -1.4951e+002 -2.1540e+001 18642 113301,113379,113327
 3.7000e+000 113405  2.0608e+001 -1.1216e+002 -6.1218e+000 18642 113275,113379,113301
 3.7000e+000 113699  2.1017e+001 -1.0959e+002 -8.9697e+000 18138 113474,113552,113526
 3.7000e+000 113676  4.9903e+001 -1.2549e+002 -2.4088e+001 18138 113474,113578,113552
 3.7000e+000 113653  5.0371e+001 -1.2552e+002 -2.4255e+001 18138 113474,113604,113578
 3.7000e+000 113630  4.4342e+001 -7.6273e+001  1.3795e+000 18138 113474,113526,113500
 3.7000e+000 113851 -4.1714e+000 -1.2083e+002 -5.0906e+000 17682 113750,113802,113776
 3.7000e+000 113828  1.2806e+001 -1.0570e+002  1.5427e+000 17682 113724,113802,113750
 3.7000e+000 114383  3.8092e+001 -1.4843e+002 -1.2988e+001 17106 114086,114242,114164
 3.7000e+000 114360  4.1785e+001 -1.4749e+002 -2.0489e+001 17106 114060,114242,114086
 3.7000e+000 114337 -1.7190e+001 -2.7013e+002  1.8801e+001 17106 114086,114164,114138
 3.7000e+000 114314 -7.1397e+001 -4.2688e+002 -8.3123e+000 17106 114190,114242,114216
 3.7000e+000 114291 -2.4809e+001 -2.9871e+002 -3.2418e+001 17106 114164,114242,114190
 3.7000e+000 114268  2.5045e+001 -2.3199e+002  4.5381e+001 17106 114086,114138,114112
 3.7000e+000 114680 -4.4063e+001 -1.3898e+002  4.4299e+000 16766 114703,114432,114406
 3.7000e+000 114657 -4.9724e+001 -1.3495e+002 -7.4711e-001 16766 114703,114406,114510
 3.7000e+000 114634 -5.5691e+001 -1.0089e+002  1.5039e+001 16766 114406,114536,114510
 3.7000e+000 114611 -2.0793e+001 -1.4192e+002 -9.6326e+000 16766 114432,114484,114458
 3.7000e+000 114588 -6.2659e+001 -1.1720e+002  4.8377e+001 16766 114406,114562,114536
 3.7000e+000 114729 -2.1881e+001 -1.3404e+002  5.9870e+000 16766 114484,114432,114703
 3.7000e+000 114752 -4.1232e+001 -1.3930e+002  1.2864e+000 16766 114484,114703,114510
 3.7000e+000 114902  5.2045e+001 -2.3770e+002 -4.1497e+001 16362 114775,114827,114801
 3.7000e+000 114879  3.5400e+001 -2.3214e+002 -4.0964e+001 16362 114775,114853,114827
 3.7000e+000 115054 -2.6501e+002 -4.2988e+002 -2.3876e+001 15908 114953,115005,114979
 3.7000e+000 115031 -2.4367e+002 -4.4134e+002 -1.7001e+001 15908 114927,115005,114953
 3.7000e+000 115326  1.5071e+001 -7.7646e+001  3.6251e+001 15251 115101,115179,115153
 3.7000e+000 115303  9.7190e+000 -7.0627e+001  1.4376e+000 15251 115101,115231,115179
 3.7000e+000 115280  1.1058e+001 -6.8050e+001  9.5369e-001 15251 115179,115231,115205
 3.7000e+000 115257 -6.9302e+001 -3.5775e+002  2.8998e+001 15251 115101,115153,115127
 3.7000e+000 115429 -1.4175e+001 -1.4449e+002  2.8193e+001 421 115351,115403,115377
 3.8000e+000 66230 -4.6136e+001  4.8349e+001  1.5375e+001 65954 66152,66204,66178
 3.8000e+000 66429  6.9666e+000  3.2258e+001  9.3606e+000 65642 66279,66331,66305
 3.8000e+000 66406 -5.6589e+000 -1.1897e+001  4.1941e+000 65642 66279,66357,66331
 3.8000e+000 66383  1.1723e+001  4.4605e+001 -1.4013e+001 65642 66253,66357,66279
 3.8000e+000 66628 -3.5150e+000 -2.3827e+001  8.3710e+000 65444 66452,66530,66478
 3.8000e+000 66605  8.4116e+000 -4.7701e+001 -2.5255e-001 65444 66452,66556,66530
 3.8000e+000 66582 -3.7800e+000 -4.3977e+001  1.1285e+001 65444 66478,66530,66504
 3.8000e+000 67006 -2.2857e+000 -2.8382e+001  3.0036e+000 65246 66732,66810,66758
 3.8000e+000 66983 -4.5127e+000 -1.1316e+001  6.7282e+000 65246 66732,66836,66810
 3.8000e+000 66960 -6.1621e-002 -4.7967e+000  9.9220e+000 65246 66732,66862,66836
 3.8000e+000 66937 -1.0272e+000 -2.2105e+001  3.3633e+000 65246 66758,66810,66784
 3.8000e+000 66914  1.2216e+001 -7.6423e+001 -2.4446e+001 65246 66732,66888,66862
 3.8000e+000 67107  2.9676e+001 -3.1557e+001 -1.0458e+001 64934 67029,67081,67055
 3.8000e+000 67306 -7.4229e+000 -3.6793e+000  7.1910e+000 64736 67156,67208,67182
 3.8000e+000 67283 -4.2426e+000  5.3109e-001  5.6715e+000 64736 67130,67208,67156
 3.8000e+000 67260  6.1601e+000 -3.8182e+001  1.2978e+001 64736 67130,67234,67208
 3.8000e+000 67507  1.8129e+000 -3.0702e+001 -3.5648e+000 64389 67357,67409,67383
 3.8000e+000 67484 -3.8498e+000 -2.6790e+001 -5.9894e+000 64389 67357,67435,67409
 3.8000e+000 67461  5.4358e+000 -4.4662e+001 -1.5432e+000 64389 67331,67435,67357
 3.8000e+000 67708  3.1854e+001 -4.1670e+001  9.0367e+000 63985 67731,67584,67558
 3.8000e+000 67685  1.4885e+001  7.5547e-001  2.1840e+000 63985 67731,67558,67636
 3.8000e+000 67662  5.5091e+000 -1.1971e+000  3.8228e+000 63985 67532,67636,67558
 3.8000e+000 67757  2.3770e+001 -6.2680e+001  5.6157e+000 63985 67610,67584,67731
 3.8000e+000 67780 -1.0006e+000 -3.2348e+001 -3.5734e+000 63985 67610,67731,67636
 3.8000e+000 67981 -2.4013e+000  1.5792e+001  2.8606e+000 63787 67857,67909,67883
 3.8000e+000 67958  3.3201e+000  3.4406e+001 -5.5134e+000 63787 67831,67909,67857
 3.8000e+000 67935 -7.9681e+000 -5.7127e+000 -6.4446e+000 63787 67805,67909,67831
 3.8000e+000 68231  1.1591e+000 -6.0665e+001  7.6798e+000 63589 68254,68084,68032
 3.8000e+000 68208 -2.5979e+000 -2.1120e+001  6.1790e+000 63589 68254,68032,68006
 3.8000e+000 68185  5.1971e+000 -1.0182e+001  8.3537e+000 63589 68326,68136,68110
 3.8000e+000 68162 -9.9819e-001 -5.6557e+001 -6.8286e+000 63589 68032,68084,68058
 3.8000e+000 68280  5.8741e+000 -2.6446e+001  7.5933e+000 63589 68110,68084,68254
 3.8000e+000 68303 -1.5939e-001 -1.2354e+001  1.4073e+001 63589 68326,68110,68254
 3.8000e+000 68352  1.4568e+001  3.6718e+000 -6.6270e+000 63589 68006,68136,68326
 3.8000e+000 68375  4.2146e+000 -3.2961e+000 -2.6697e-001 63589 68006,68326,68254
 3.8000e+000 68836  1.6864e+000  1.6085e+001  6.9452e+000 63128 68859,68588,68562
 3.8000e+000 68813 -6.4640e-001  6.7590e+000  1.6443e+001 63128 68859,68562,68692
 3.8000e+000 68790  1.6376e+001 -1.4555e+001  6.5317e+000 63128 68614,68692,68666
 3.8000e+000 68767 -3.2379e+000 -4.3120e+000  1.3196e+001 63128 68562,68718,68692
 3.8000e+000 68744  2.0607e+001 -9.7619e+000 -2.7491e+001 63128 68614,68666,68640
 3.8000e+000 68885  7.6444e+000  2.9890e+001  1.5120e+000 63128 68614,68588,68859
 3.8000e+000 68908  4.4657e+000  1.7546e+001  1.0805e+001 63128 68614,68859,68692
 3.8000e+000 69237  4.8956e+000 -2.0236e+001  7.5325e+000 62731 69064,69116,69090
 3.8000e+000 69214 -2.8537e+000 -5.0558e+001  5.6990e-001 62731 69064,69142,69116
 3.8000e+000 69191 -7.2753e+000 -4.0329e+001  6.0890e+000 62731 69038,69142,69064
 3.8000e+000 69168  1.8074e+000 -8.3109e+001  5.7153e+000 62731 69012,69142,69038
 3.8000e+000 69539  6.4330e-001  2.1637e+001 -3.9366e+000 62433 69389,69467,69441
 3.8000e+000 69516  5.2414e+000 -6.0845e+000  9.4305e-001 62433 69363,69467,69389
 3.8000e+000 69493  4.2846e+000 -4.5691e+000  1.6120e+001 62433 69389,69441,69415
 3.8000e+000 69966  7.4359e-001 -2.6752e+001  1.3316e+001 62235 69989,69773,69721
 3.8000e+000 69943  1.0744e+001 -4.3935e+001 -5.9413e+000 62235 70061,69989,69721
 3.8000e+000 69920  2.0982e+001 -3.9713e+001 -3.9383e-001 62235 70061,69721,69643
 3.8000e+000 69897  4.5403e+000  4.3448e+000  5.2662e+000 62235 69721,69773,69747
 3.8000e+000 69874 -1.9127e+001 -1.4116e+002  4.6779e-001 62235 69643,69721,69695
 3.8000e+000 69851  6.7006e+001  1.9960e+002 -2.9966e+001 62235 69643,69695,69669
 3.8000e+000 70015 -3.2179e+000 -4.4078e+001  7.3423e+000 62235 69799,69773,69989
 3.8000e+000 70038 -2.6622e+001 -6.2113e+001 -2.2700e+001 62235 69799,69989,69825
 3.8000e+000 70087 -6.8341e+000 -3.4166e+001 -4.4441e+000 62235 69825,69989,70061
 3.8000e+000 70110  6.0838e+000 -2.9934e+001 -1.1058e+000 62235 69825,70061,69643
 3.8000e+000 70260  6.1841e+000 -1.6903e+000 -2.9863e+000 62037 70133,70185,70159
 3.8000e+000 70237  1.7568e-001 -3.7674e+000 -6.6768e+000 62037 70133,70211,70185
 3.8000e+000 70640 -9.4756e+000 -3.2963e+001  9.9049e+000 61583 70735,70663,70418
 3.8000e+000 70617 -1.9020e+001 -2.8714e+001  1.1588e+001 61583 70663,70366,70522
 3.8000e+000 70594 -6.6706e+000 -3.1371e+001  1.3637e+001 61583 70735,70418,70392
 3.8000e+000 70571 -1.7819e+001 -4.2206e+001  5.8113e+000 61583 70418,70496,70444
 3.8000e+000 70548 -3.6174e+001 -2.7524e+001  3.0859e+000 61583 70444,70496,70470
 3.8000e+000 70689 -1.9767e+001 -4.3027e+001  5.7297e+000 61583 70496,70418,70663
 3.8000e+000 70712 -2.8884e+001 -3.2187e+001  8.2673e+000 61583 70496,70663,70522
 3.8000e+000 70761 -1.9465e+001 -3.5629e+001  4.8057e+000 61583 70366,70663,70735
 3.8000e+000 70784 -1.3512e+001 -3.2676e+001  8.4842e+000 61583 70366,70735,70392
 3.8000e+000 71054 -2.0141e+000  4.3928e-001  1.9345e+000 61313 71077,70881,70855
 3.8000e+000 71031 -1.5554e+000  3.8627e+000  7.4869e-001 61313 71077,70855,70829
 3.8000e+000 71008 -2.3101e-001 -4.1671e-001 -3.8014e+000 61313 70829,70959,70933
 3.8000e+000 70985 -4.9462e-001  6.9006e-001 -2.5500e-001 61313 70881,70933,70907
 3.8000e+000 71103 -8.9097e-001  2.5063e+000  2.9434e-001 61313 70933,70881,71077
 3.8000e+000 71126 -1.4710e+000  4.5998e+000 -8.2276e-001 61313 70933,71077,70829
 3.8000e+000 71604 -5.8290e-001 -4.9586e+001  6.6591e+000 60909 71627,71232,71414
 3.8000e+000 71581 -7.6543e+000 -3.6232e+001 -9.8303e+000 60909 71232,71440,71414
 3.8000e+000 71558  3.5899e+000 -2.7994e+001  9.6580e+000 60909 71627,71414,71336
 3.8000e+000 71535  1.0387e+001 -9.1441e+001  2.5329e+001 60909 71362,71414,71388
 3.8000e+000 71512 -9.4897e+000 -6.4450e+001  5.6049e+000 60909 71336,71414,71362
 3.8000e+000 71489  6.2418e+000 -9.0546e+000 -2.4110e+000 60909 71258,71336,71310
 3.8000e+000 71466 -3.6811e+000 -1.1041e+001 -2.8379e+000 60909 71258,71310,71284
 3.8000e+000 71653  2.8705e+000 -3.0733e+001  7.2984e+000 60909 71258,71232,71627
 3.8000e+000 71676 -7.0697e-001 -1.9905e+001  1.0479e+001 60909 71258,71627,71336
 3.8000e+000 71875  5.8659e-001  2.3257e+000  4.1790e+000 60611 71898,71725,71699
 3.8000e+000 71852 -2.5473e+000  1.9499e+000  4.4650e+000 60611 71898,71699,71803
 3.8000e+000 71829  8.1885e+000  1.1480e+001 -4.5561e+000 60611 71970,71751,71725
 3.8000e+000 71924  6.8068e+000  5.1361e+000 -4.6444e-002 60611 71970,71725,71898
 3.8000e+000 71947 -2.1356e+000 -6.0569e+000  2.1119e+000 60611 71777,71898,71803
 3.8000e+000 71996  3.0125e+000  3.2544e+000 -1.7034e+000 60611 71777,71751,71970
 3.8000e+000 72019  4.8642e-001 -1.1395e+000  3.1518e+000 60611 71777,71970,71898
 3.8000e+000 72576  2.3560e+001 -8.7470e+001  1.1961e+001 60142 72599,72256,72230
 3.8000e+000 72553  3.5461e+001 -2.8738e+001  1.9371e+001 60142 72671,72599,72230
 3.8000e+000 72530 -1.7412e+000 -1.3364e+001  2.6321e+000 60142 72671,72230,72204
 3.8000e+000 72507 -4.7269e+000 -1.1456e+001  3.5412e+000 60142 72743,72360,72334
 3.8000e+000 72484  5.5124e+000 -9.1884e+000 -1.2096e+001 60142 72815,72282,72256
 3.8000e+000 72461  1.6737e+001  2.0272e+001  1.5665e+001 60142 72887,72308,72282
 3.8000e+000 72438 -1.4205e+001 -6.0218e+001 -1.0119e+001 60142 72204,72412,72386
 3.8000e+000 72625 -4.6971e+000 -5.9595e+001 -2.0707e+001 60142 72815,72256,72599
 3.8000e+000 72648  5.7789e+000 -2.8181e+001  8.4869e-001 60142 72743,72334,72599
 3.8000e+000 72697  3.8466e+000 -6.0325e+001  5.5949e+000 60142 72386,72599,72671
 3.8000e+000 72720 -1.5740e+001 -3.6145e+001 -9.0596e+000 60142 72386,72671,72204
 3.8000e+000 72769  3.0506e+000 -2.7677e+001  3.1036e+001 60142 72386,72360,72743
 3.8000e+000 72792  8.3690e+000 -5.7419e+001  1.4786e+001 60142 72386,72743,72599
 3.8000e+000 72841  2.1764e+000  1.2574e+001  1.1766e+000 60142 72887,72282,72815
 3.8000e+000 72864  9.9632e+000 -1.5851e+001 -1.9872e+000 60142 72334,72815,72599
 3.8000e+000 72913 -4.4119e+000 -3.8257e-001  6.9652e+000 60142 72334,72308,72887
 3.8000e+000 72936 -1.2286e+001 -4.4321e+000 -6.0244e+000 60142 72334,72887,72815
 3.8000e+000 73491 -9.8124e-001 -8.0873e+001 -1.6617e+001 59738 73145,73327,73171
 3.8000e+000 73468  1.1468e+001 -7.5001e+001 -1.1987e+001 59738 73119,73327,73145
 3.8000e+000 73445  1.9315e+000 -2.5749e+001  6.2913e+000 59738 73171,73327,73301
 3.8000e+000 73422  8.1028e+000 -2.9811e+001 -1.9385e-001 59738 73514,73275,73249
 3.8000e+000 73399  6.7473e+000 -7.8573e+000 -6.0535e+000 59738 73586,73514,73249
 3.8000e+000 73376  1.3077e+001  2.2104e+001 -9.4692e+000 59738 73197,73249,73223
 3.8000e+000 73353  1.7660e+001  1.2231e+000 -1.7942e+001 59738 73586,73249,73197
 3.8000e+000 73540  4.2757e+000 -5.0649e+001 -8.2365e+000 59738 73301,73275,73514
 3.8000e+000 73563 -4.2407e+000 -3.2854e+001  3.4700e+000 59738 73301,73514,73171
 3.8000e+000 73612  4.9845e+000 -2.7315e+001  6.1244e+000 59738 73171,73514,73586
 3.8000e+000 73635  8.0951e+000 -1.8512e+001 -4.0981e+000 59738 73171,73586,73197
 3.8000e+000 73964  2.8771e+000 -5.2862e+001 -3.8772e+000 59334 73791,73843,73817
 3.8000e+000 73941  1.3871e-001 -5.7598e+001 -6.0763e+000 59334 73791,73869,73843
 3.8000e+000 73918 -7.3794e+000 -7.4204e+001 -8.9474e+000 59334 73739,73869,73791
 3.8000e+000 73895  5.4111e+000 -9.0530e+001 -6.6534e+000 59334 73739,73791,73765
 3.8000e+000 74261  6.3054e-001  5.7637e+000 -2.3279e+000 58630 74065,74117,74091
 3.8000e+000 74238  7.7610e+000 -1.1502e+001 -6.9648e+000 58630 74356,74284,74065
 3.8000e+000 74215  1.1708e+001 -1.2720e+001  1.0921e+000 58630 74284,74013,73987
 3.8000e+000 74192  3.9326e+000 -1.4310e+001 -1.6530e+001 58630 74356,74065,74039
 3.8000e+000 74169  4.0352e-001 -7.5409e+000  3.7929e-001 58630 73987,74143,74117
 3.8000e+000 74310  1.0375e+001  5.7166e+000 -6.1190e+000 58630 74117,74065,74284
 3.8000e+000 74333  5.3125e-001 -6.4249e+000 -1.2183e+000 58630 74117,74284,73987
 3.8000e+000 74382  2.2108e+001 -3.2981e+000 -3.2917e+000 58630 74013,74284,74356
 3.8000e+000 74405  1.8813e+001 -6.1352e+000 -1.2938e+001 58630 74013,74356,74039
 3.8000e+000 74815 -3.8643e+000 -3.7777e+001 -2.0734e+000 58226 74590,74642,74616
 3.8000e+000 74792 -6.7862e+000 -4.6294e+001 -1.5469e+000 58226 74590,74694,74642
 3.8000e+000 74769  7.0733e+000 -7.9728e+001  1.4674e+001 58226 74590,74720,74694
 3.8000e+000 74746 -1.0720e+001 -3.2395e+001 -2.4617e+000 58226 74642,74694,74668
 3.8000e+000 75014  2.8052e+000 -6.1074e+000 -5.5085e-001 57786 75037,74864,74838
 3.8000e+000 74991  4.5602e-001 -1.2249e+001 -1.4217e-001 57786 75037,74838,74916
 3.8000e+000 74968 -2.3351e-001 -1.1272e+001 -2.3532e+000 57786 74838,74942,74916
 3.8000e+000 75063  1.4512e-001  1.3342e+000  1.2064e+000 57786 74890,74864,75037
 3.8000e+000 75086 -2.7078e+000 -5.6946e+000  1.6459e+000 57786 74890,75037,74916
 3.8000e+000 75368 -1.5890e+001  1.4567e+001  8.5492e+000 57496 75192,75270,75218
 3.8000e+000 75345  2.4548e+001  2.7876e+001  4.0474e+000 57496 75192,75296,75270
 3.8000e+000 75322  1.2178e+001  1.6276e+001  2.9005e+001 57496 75218,75270,75244
 3.8000e+000 75648  7.8903e+000 -3.1708e+000 -1.3285e+001 57206 75472,75550,75498
 3.8000e+000 75625  2.0593e-001  3.3604e-001 -7.9159e+000 57206 75472,75576,75550
 3.8000e+000 75602 -9.5854e+000  1.1571e+001  1.0965e+001 57206 75671,75550,75524
 3.8000e+000 75697  1.1813e+001 -2.7340e+000  1.1557e+001 57206 75498,75550,75671
 3.8000e+000 76154 -3.6730e+000 -2.2919e+001  7.2717e+000 56802 75958,76010,75984
 3.8000e+000 76131  1.4199e+000 -8.7115e+000  5.9567e+000 56802 75932,76010,75958
 3.8000e+000 76108 -1.7042e+000 -2.1386e+001  8.3406e+000 56802 75906,76010,75932
 3.8000e+000 76085 -4.7243e+000 -1.2583e+000  8.9775e+000 56802 75880,76010,75906
 3.8000e+000 76062  7.6616e+000 -2.0149e-001 -2.9645e+000 56802 75880,76036,76010
 3.8000e+000 76505  6.6942e-001  1.7628e-001 -3.9366e-001 56504 76306,76384,76332
 3.8000e+000 76482 -5.5932e-002 -1.4816e-001 -2.4729e-001 56504 76306,76410,76384
 3.8000e+000 76459  1.4363e+000  6.9482e-001 -5.7519e-002 56504 76332,76384,76358
 3.8000e+000 76436 -5.7977e-002 -1.5330e-001 -2.5151e-001 56504 76280,76410,76306
 3.8000e+000 77011  2.8713e+001  4.1671e+000 -1.7898e+001 56050 76740,76818,76792
 3.8000e+000 76988  1.1975e+001 -2.5387e+000 -1.9147e+001 56050 76714,76818,76740
 3.8000e+000 76965  1.5377e+001 -8.9506e+000 -1.8696e+001 56050 76688,76818,76714
 3.8000e+000 76942  4.3392e+001  2.5072e+001  4.3880e-001 56050 76688,76844,76818
 3.8000e+000 76919  1.8927e+001 -1.1487e+001 -1.3026e+001 56050 76740,76792,76766
 3.8000e+000 76896  2.8109e+001  2.4318e+000  8.4439e+000 56050 76688,76870,76844
 3.8000e+000 77517 -3.4198e+001 -1.6120e+001  1.9656e+001 55738 77220,77350,77324
 3.8000e+000 77494  6.1281e+000 -3.3466e+001 -4.8902e+000 55738 77220,77376,77350
 3.8000e+000 77471  1.7253e+001  3.9250e+000 -5.9734e+000 55738 77194,77376,77220
 3.8000e+000 77448  1.8390e+000 -1.7357e+001  7.6709e+000 55738 77220,77298,77246
 3.8000e+000 77425 -1.3992e+001 -1.2272e+001  2.2073e+001 55738 77220,77324,77298
 3.8000e+000 77402 -2.1588e+001 -2.1260e+001  5.4916e+001 55738 77246,77298,77272
 3.8000e+000 78064  2.4777e+001 -1.8367e+001 -4.0820e+000 55227 78231,78087,77773
 3.8000e+000 78041 -4.5637e+000 -5.0211e+001 -3.9883e+000 55227 78087,77695,77643
 3.8000e+000 78018  2.9732e+000 -4.4067e+001 -1.8269e+001 55227 78159,77799,77773
 3.8000e+000 77995  1.5942e+001 -1.3140e+000  6.5671e-001 55227 78231,77773,77721
 3.8000e+000 77972 -5.3218e+000 -6.1869e+000  8.3093e+000 55227 77643,77695,77669
 3.8000e+000 77949 -4.9097e-001 -5.9104e+000 -8.8528e+000 55227 77643,77877,77851
 3.8000e+000 77926 -5.9253e+000 -9.0804e+000 -1.0568e+001 55227 77799,77851,77825
 3.8000e+000 77903  1.8834e+001  1.1105e+001 -6.9079e+000 55227 77721,77773,77747
 3.8000e+000 78113  1.4170e+001 -4.1098e+001 -1.3210e+001 55227 78159,77773,78087
 3.8000e+000 78136  1.1661e+001 -1.2294e+001 -5.5290e+000 55227 77851,78087,77643
 3.8000e+000 78185 -1.9627e+001 -3.3728e+001 -2.0179e+001 55227 77851,77799,78159
 3.8000e+000 78208 -9.2451e+000 -3.2335e+001 -1.6123e+001 55227 77851,78159,78087
 3.8000e+000 78257  1.5978e+001 -3.7045e+001 -1.1067e+001 55227 77695,78087,78231
 3.8000e+000 78280  4.7735e+000 -1.9915e+001 -7.9975e+000 55227 77695,78231,77721
 3.8000e+000 78737  1.1808e+001 -1.3642e+001 -4.5395e+000 54773 78463,78541,78515
 3.8000e+000 78714 -6.8353e+000 -2.4793e+001  7.7674e-001 54773 78463,78619,78541
 3.8000e+000 78691  1.8367e+001  4.2435e+000  2.2546e+000 54773 78463,78515,78489
 3.8000e+000 78668 -1.0512e+001 -1.1721e+001 -4.2128e+000 54773 78541,78593,78567
 3.8000e+000 78645 -3.5183e-001 -1.6275e+001 -6.1879e+000 54773 78541,78619,78593
 3.8000e+000 78838 -1.5950e+000  7.0479e+000  3.5154e-001 54211 78760,78812,78786
 3.8000e+000 79297  1.2430e+001 -1.3595e+001  4.7934e+000 53814 79520,79153,79049
 3.8000e+000 79274  1.0246e+001 -5.0397e+000 -6.6590e+000 53814 79520,79049,79023
 3.8000e+000 79251  1.8000e+000  3.3420e+000  7.0592e+000 53814 79320,79101,79049
 3.8000e+000 79228  2.5095e+000  5.2124e+000  5.0960e+000 53814 79320,79049,79153
 3.8000e+000 79205  7.0441e+000 -5.9143e+000  6.0745e+000 53814 79049,79101,79075
 3.8000e+000 79346  3.3027e+000  8.9942e+000  5.8951e+000 53814 79392,79320,79127
 3.8000e+000 79369  4.4006e+000  6.0159e+000  5.1205e+000 53814 79127,79320,79153
 3.8000e+000 79418  2.3981e+000  3.6891e+000  4.8102e+000 53814 79101,79320,79392
 3.8000e+000 79546  5.1768e+000 -2.9335e+001  9.2953e+000 53814 79179,79153,79520
 3.8000e+000 79569  9.0841e+000 -1.8165e+001 -4.6421e+000 53814 79179,79520,79023
 3.8000e+000 80075 -2.1975e+001 -8.3612e+000  1.6361e+001 53039 80098,79908,79830
 3.8000e+000 80052 -2.6113e+001  1.0106e+000 -7.2885e+000 53039 80098,79830,79804
 3.8000e+000 80029  2.0008e+000  1.6144e+001 -5.9015e+000 53039 79752,79934,79804
 3.8000e+000 80006  6.3229e-001 -4.0300e+001  1.9453e+001 53039 79856,79908,79882
 3.8000e+000 79983  1.3639e+001 -6.4853e+001  1.7413e+001 53039 79830,79908,79856
 3.8000e+000 79960 -5.6794e-001  5.4343e+000 -4.5807e+000 53039 79752,79804,79778
 3.8000e+000 80124  1.5297e+001  5.0323e+000  1.4596e+001 53039 79934,79908,80098
 3.8000e+000 80147 -8.9342e+000  7.2564e+000 -9.7358e+000 53039 79934,80098,79804
 3.8000e+000 80555  3.0174e+001  2.0914e+001 -2.0314e+000 52699 80356,80434,80408
 3.8000e+000 80532  6.2744e+000 -2.8590e-001  6.9786e+000 52699 80356,80460,80434
 3.8000e+000 80509 -6.9627e+000 -1.0198e+001  1.9350e+000 52699 80330,80460,80356
 3.8000e+000 80486 -1.6657e+001 -1.0598e+001  4.0558e+001 52699 80356,80408,80382
 3.8000e+000 80776  1.3316e+001  3.4530e+001 -1.2599e+001 52295 80600,80678,80626
 3.8000e+000 80753 -1.7295e+001  1.0569e+001 -2.1828e+000 52295 80600,80704,80678
 3.8000e+000 80730 -4.3239e+001  1.1523e+001 -8.3708e+000 52295 80626,80678,80652
 3.8000e+000 81156  6.7970e+000 -2.4792e+001  7.7439e+000 51891 81179,80960,80908
 3.8000e+000 81133  6.1252e+000 -3.0367e+001 -7.5157e+000 51891 81179,80908,81012
 3.8000e+000 81110 -9.2172e+000 -1.1024e+001 -1.7121e+001 51891 80882,81012,80908
 3.8000e+000 81087  1.0687e+001 -2.0445e+000  1.2876e+001 51891 80908,80960,80934
 3.8000e+000 81064 -5.0100e+000 -1.5069e+000 -1.7859e+001 51891 80882,81038,81012
 3.8000e+000 81205  2.5752e+001 -1.3902e+001  1.4890e+001 51891 80986,80960,81179
 3.8000e+000 81228  1.1989e+001 -2.6574e+001 -1.5151e+000 51891 80986,81179,81012
 3.8000e+000 81606  3.3667e+000 -1.6672e+002 -5.0378e+001 51544 81410,81462,81436
 3.8000e+000 81583  1.9863e+001 -5.0277e+001 -6.1567e-001 51544 81384,81462,81410
 3.8000e+000 81560 -1.1810e+001 -6.6883e+001 -1.1680e+001 51544 81358,81462,81384
 3.8000e+000 81537 -8.6503e+000 -5.6859e+001 -2.8629e+001 51544 81358,81488,81462
 3.8000e+000 81514  4.7787e+000 -2.1437e+001 -2.3364e+001 51544 81332,81488,81358
 3.8000e+000 81854  2.1668e-001 -1.6384e+001 -4.4835e-001 51004 81877,81655,81629
 3.8000e+000 81831  2.4533e-001 -2.8560e-001 -3.7844e+000 51004 81877,81629,81759
 3.8000e+000 81808  1.1044e+001 -1.3628e+000  1.6106e+001 51004 81655,81707,81681
 3.8000e+000 81785 -4.5884e+000 -6.9812e-002 -1.9031e+000 51004 81707,81759,81733
 3.8000e+000 81903  1.9421e+000 -2.4145e+001  4.2761e-001 51004 81707,81655,81877
 3.8000e+000 81926 -4.5109e+000 -1.8334e+001 -5.5538e+000 51004 81707,81877,81759
 3.8000e+000 82257 -1.0829e+001 -4.1133e+001 -9.2164e+000 50642 82058,82136,82110
 3.8000e+000 82234 -1.7442e+001 -7.3990e+000 -1.8543e+001 50642 82058,82162,82136
 3.8000e+000 82211  2.6282e+000 -2.4993e+001 -3.0673e+001 50642 82058,82110,82084
 3.8000e+000 82188  3.9331e+001  1.5464e+001  2.5479e+000 50642 82032,82162,82058
 3.8000e+000 82684  3.2982e+001 -1.1342e+002  2.3810e+001 49931 82779,82707,82465
 3.8000e+000 82661 -7.1969e+000 -1.3599e+002  2.4550e+001 49931 82707,82413,82361
 3.8000e+000 82638 -1.6210e+000 -1.1095e+002 -2.0320e+001 49931 82779,82465,82439
 3.8000e+000 82615  1.4168e+001 -2.7908e+002  2.6752e+001 49931 82465,82543,82491
 3.8000e+000 82592 -1.3703e+001 -1.0055e+002 -3.7145e+000 49931 82361,82413,82387
 3.8000e+000 82569  6.9839e+000 -2.1939e+002  2.6306e+001 49931 82491,82543,82517
 3.8000e+000 82733  7.5436e+001 -1.3608e+002  2.1615e+001 49931 82543,82465,82707
 3.8000e+000 82756  2.1442e+001 -1.1624e+002  1.1282e+001 49931 82543,82707,82361
 3.8000e+000 82805  2.3108e+000 -1.7676e+002 -1.9610e+000 49931 82413,82707,82779
 3.8000e+000 82828 -1.6273e+001 -1.6223e+002 -4.3822e+001 49931 82413,82779,82439
 3.8000e+000 83255  9.0018e-001 -1.3339e+002 -2.0480e+001 49327 82984,83114,83036
 3.8000e+000 83232 -1.4385e+001 -1.6510e+002 -4.6605e+001 49327 82958,83114,82984
 3.8000e+000 83209 -2.3464e+001 -1.9280e+002  1.1379e+000 49327 83036,83114,83088
 3.8000e+000 83186 -3.9150e+001 -8.8546e+001  1.3786e+001 49327 82984,83036,83010
 3.8000e+000 83163 -2.1142e+001 -1.4912e+002 -3.7729e+001 49327 82932,83114,82958
 3.8000e+000 83140 -5.3154e+001 -3.1818e+002 -3.4110e+000 49327 83036,83088,83062
 3.8000e+000 83938 -1.7351e+001 -1.9611e+002  4.8312e+001 48965 83961,83673,83647
 3.8000e+000 83915  1.5269e+001 -7.3372e+001  5.5133e+001 48965 83961,83647,83543
 3.8000e+000 83892 -1.2750e+001 -8.7924e+001 -1.3480e+001 48965 83517,83725,83543
 3.8000e+000 83869 -3.3551e+001 -1.3773e+002 -2.4931e+001 48965 83673,83725,83699
 3.8000e+000 83846 -1.7242e+001 -3.1161e+001  7.6243e+000 48965 83543,83647,83621
 3.8000e+000 83823 -1.0831e+001 -4.8810e+001  4.7729e+000 48965 83543,83621,83569
 3.8000e+000 83800 -1.1589e+001 -8.6972e+001 -1.1709e+001 48965 83517,83751,83725
 3.8000e+000 83777 -5.2788e+000 -4.4583e+001  1.0421e+001 48965 83569,83621,83595
 3.8000e+000 83987 -1.4650e+001 -1.7725e+002 -3.0963e+001 48965 83725,83673,83961
 3.8000e+000 84010  6.4907e+000 -1.2650e+002 -9.6727e+000 48965 83725,83961,83543
 3.8000e+000 84258 -8.5481e+000 -1.2279e+002  1.7468e+001 48447 84281,84059,84033
 3.8000e+000 84235  1.0152e+000 -9.6146e+001 -1.3582e+000 48447 84281,84033,84163
 3.8000e+000 84212  1.5988e+001 -8.3017e+001 -1.5925e+001 48447 84059,84111,84085
 3.8000e+000 84189  1.9531e+001 -7.8119e+001 -2.3897e+001 48447 84111,84163,84137
 3.8000e+000 84307  7.7539e+000 -1.1627e+002 -3.5914e+000 48447 84111,84059,84281
 3.8000e+000 84330  2.4328e+001 -9.7916e+001 -2.1804e+001 48447 84111,84281,84163
 3.8000e+000 84529  2.6978e+001 -6.4013e+001 -3.5584e-001 47993 84552,84405,84379
 3.8000e+000 84506  8.5594e+000 -7.0115e+001  5.1112e-001 47993 84552,84379,84353
 3.8000e+000 84483  9.0415e+000 -7.0571e+001 -1.1026e+001 47993 84624,84457,84431
 3.8000e+000 84578  3.6296e+001 -6.5621e+001 -1.1296e+001 47993 84431,84405,84552
 3.8000e+000 84601  1.5572e+001 -7.2861e+001 -8.8511e+000 47993 84624,84431,84552
 3.8000e+000 84650  1.5967e+001 -7.1016e+001 -6.2216e+000 47993 84353,84457,84624
 3.8000e+000 84673  2.6085e+001 -6.6938e+001 -2.0120e+000 47993 84353,84624,84552
 3.8000e+000 85104 -1.7910e+001 -1.4391e+002 -9.5258e+000 47588 85199,85127,84885
 3.8000e+000 85081 -1.5118e+001 -1.6071e+002 -1.4982e+001 47588 85127,84781,84963
 3.8000e+000 85058 -4.1577e+001 -1.3744e+002  1.8199e+001 47588 85199,84885,84807
 3.8000e+000 85035  5.1968e+000 -9.3969e+001  4.9015e+001 47588 84885,84937,84911
 3.8000e+000 85012 -1.6856e+001 -8.5505e+001  3.7526e-001 47588 84807,84885,84833
 3.8000e+000 84989 -1.4846e+001 -8.2930e+001  3.8061e+001 47588 84833,84885,84859
 3.8000e+000 85153 -1.8193e+001 -1.7143e+002 -1.4290e+000 47588 84937,84885,85127
 3.8000e+000 85176  3.4560e+001 -1.5901e+002 -6.5141e-001 47588 84937,85127,84963
 3.8000e+000 85225 -6.3779e+001 -1.6234e+002 -1.0213e+001 47588 84781,85127,85199
 3.8000e+000 85248 -7.7736e+001 -1.5296e+002  2.1101e+001 47588 84781,85199,84807
 3.8000e+000 85518 -4.0397e+001 -2.8134e+002  4.4630e+001 47226 85293,85397,85319
 3.8000e+000 85495 -2.3433e+001 -2.5250e+002  2.1578e+001 47226 85293,85423,85397
 3.8000e+000 85472 -1.4505e+001 -2.9437e+002 -1.1351e+001 47226 85319,85397,85345
 3.8000e+000 85449  3.1778e+001 -6.4493e+001 -1.4947e+001 47226 85345,85397,85371
 3.8000e+000 85849 -2.0923e+001 -1.3041e+002  4.2858e+001 46572 85624,85702,85650
 3.8000e+000 85826 -1.3587e+001 -1.7646e+002  2.8444e+000 46572 85624,85754,85702
 3.8000e+000 85803  3.7336e+001 -8.7022e+001  3.0746e+001 46572 85702,85754,85728
 3.8000e+000 85780 -1.6301e+001 -1.3191e+002  5.2398e+001 46572 85650,85702,85676
 3.8000e+000 86070 -1.0978e+002 -1.5402e+002 -3.9597e+000 46374 85920,85972,85946
 3.8000e+000 86047 -7.0252e+001 -6.1248e+001  1.5170e+000 46374 85920,85998,85972
 3.8000e+000 86024 -4.4945e+001 -4.3759e+001  1.6840e+001 46374 85894,85998,85920
 3.8000e+000 86401  8.7903e+000 -8.3297e+001  6.0298e+000 46034 86424,86280,86228
 3.8000e+000 86378 -1.9000e+001 -8.6306e+001  2.1813e+000 46034 86424,86228,86176
 3.8000e+000 86355 -2.5081e+001 -7.0950e+001 -2.3714e+001 46034 86176,86228,86202
 3.8000e+000 86332  3.3592e+001 -7.2352e+001 -2.7699e+001 46034 86228,86280,86254
 3.8000e+000 86450  6.2371e+001 -9.4018e+001 -5.4766e+000 46034 86306,86280,86424
 3.8000e+000 86473  7.3651e+000 -1.1564e+002 -1.2933e+001 46034 86306,86424,86176
 3.8000e+000 87058  1.2130e+001 -7.5660e+001  1.8322e+001 45516 86813,86917,86865
 3.8000e+000 87035 -2.6046e+000 -1.2076e+002  8.4114e+000 45516 86787,86917,86813
 3.8000e+000 87012  5.8037e+000 -1.2902e+002  1.4270e+001 45516 86735,86917,86787
 3.8000e+000 86989  3.6862e+000 -7.0515e+001  1.6331e+001 45516 86865,86917,86891
 3.8000e+000 86966  1.5706e+001 -7.0043e+001  2.0072e+001 45516 86813,86865,86839
 3.8000e+000 86943 -9.7159e+000 -2.1740e+002 -2.4453e+000 45516 86735,86787,86761
 3.8000e+000 87208  4.9547e+001 -4.3056e+001 -1.6982e+001 45226 87231,87133,87107
 3.8000e+000 87185  1.5226e+001 -2.1953e+001 -5.7280e+000 45226 87081,87159,87133
 3.8000e+000 87257  3.8600e+001  2.6958e+001 -1.5137e+001 45226 87081,87133,87231
 3.8000e+000 87537  7.5584e+000 -9.7949e+001  2.0281e+001 44772 87387,87439,87413
 3.8000e+000 87514 -1.3686e+001 -1.0499e+002  1.7769e+001 44772 87361,87439,87387
 3.8000e+000 87491  1.0267e+001 -7.9473e+001  7.9032e+000 44772 87361,87465,87439
 3.8000e+000 87996 -3.4579e+000  2.1367e+001  1.1961e+001 44425 87748,87878,87852
 3.8000e+000 87973  1.8799e-002  2.3500e+001  6.0027e-001 44425 87722,87878,87748
 3.8000e+000 87950  2.4711e+000  1.1078e+001  6.9550e+000 44425 87800,87852,87826
 3.8000e+000 87927  3.0967e+001  2.1689e+001  7.7331e+000 44425 87748,87852,87800
 3.8000e+000 87904  1.7349e+000  3.2892e+000 -1.1425e+001 44425 87748,87800,87774
 3.8000e+000 88423 -1.0160e+001 -8.8124e+001  1.7522e+001 44078 88590,88230,88204
 3.8000e+000 88400 -7.1737e+000 -5.9710e+001  2.0776e+001 44078 88518,88446,88204
 3.8000e+000 88377  7.3677e+000 -9.2203e+001 -1.5516e+001 44078 88446,88126,88282
 3.8000e+000 88354 -1.4951e+001 -4.3334e+001  1.1281e+001 44078 88518,88204,88178
 3.8000e+000 88331  1.9055e+000 -1.1624e+002 -1.6722e+001 44078 88100,88282,88126
 3.8000e+000 88308 -1.3745e+001 -7.4540e+001  2.9575e+001 44078 88126,88178,88152
 3.8000e+000 88472 -1.3320e+001 -9.5654e+001  1.7984e+001 44078 88590,88204,88446
 3.8000e+000 88495 -1.4558e+001 -1.5947e+002 -2.1093e+001 44078 88256,88446,88282
 3.8000e+000 88544 -9.9279e+000 -9.7050e+001  2.0817e+001 44078 88126,88446,88518
 3.8000e+000 88567 -7.1222e+000 -6.5667e+001  1.2860e+001 44078 88126,88518,88178
 3.8000e+000 88616 -5.6422e+001 -2.1589e+002 -4.6669e+000 44078 88256,88230,88590
 3.8000e+000 88639 -7.3129e+000 -9.0146e+001  7.7201e+000 44078 88256,88590,88446
 3.8000e+000 89039  1.4811e+001  2.1829e+001  6.4676e+000 43716 88791,88921,88895
 3.8000e+000 89016  1.0529e+001  2.9959e+001  7.3494e+000 43716 88765,88921,88791
 3.8000e+000 88993  3.4275e+001  8.8481e-001  1.1863e+001 43716 88817,88895,88869
 3.8000e+000 88970  7.4077e+000  8.0226e+000  1.9537e+001 43716 88791,88895,88817
 3.8000e+000 88947  6.2267e+000  8.4783e+000 -4.3493e+000 43716 88817,88869,88843
 3.8000e+000 89496  3.6021e+000 -1.3461e+002 -1.3283e+001 43162 89519,89274,89248
 3.8000e+000 89473  1.1915e+001 -8.3442e+001 -2.8989e+000 43162 89519,89248,89222
 3.8000e+000 89450  1.0126e+001 -6.4620e+001 -2.0482e+001 43162 89326,89378,89352
 3.8000e+000 89427 -1.1217e-001 -8.4432e+001 -5.5726e+000 43162 89274,89378,89326
 3.8000e+000 89404  6.6632e+000 -8.4003e+001 -4.1889e+000 43162 89274,89326,89300
 3.8000e+000 89545 -4.0964e-002 -8.7988e+001 -9.6018e-001 43162 89378,89274,89519
 3.8000e+000 89568  1.1269e+001 -3.3188e+001  1.0063e+001 43162 89378,89519,89222
 3.8000e+000 89946 -1.3813e+001 -7.5002e+001 -7.1087e+001 42594 90041,89969,89750
 3.8000e+000 89923 -9.0185e+000 -6.6324e+001 -2.6456e+001 42594 89969,89698,89828
 3.8000e+000 89900  2.5169e+001 -9.1407e+001 -6.3653e+001 42594 90041,89750,89724
 3.8000e+000 89877 -2.6254e+001 -4.5267e+001 -2.4019e+001 42594 89750,89802,89776
 3.8000e+000 89854  2.6447e+001 -3.3511e+001 -8.5494e+000 42594 89672,89828,89698
 3.8000e+000 89995 -4.7085e+001 -5.7046e+001 -4.7960e+001 42594 89802,89750,89969
 3.8000e+000 90018  1.2627e+001  5.2479e+000 -1.0349e+001 42594 89802,89969,89828
 3.8000e+000 90067  2.2681e+001 -5.4962e+001 -5.6274e+001 42594 89698,89969,90041
 3.8000e+000 90090  6.6718e+001 -7.6400e+001 -5.9023e+001 42594 89698,90041,89724
 3.8000e+000 90517  1.9049e+001 -9.1788e+001 -1.0387e+001 42140 90540,90220,90194
 3.8000e+000 90494  2.5449e+001 -9.5341e+001 -1.3098e+001 42140 90540,90194,90376
 3.8000e+000 90471 -1.2932e+000 -1.0111e+002  3.8732e+000 42140 90612,90350,90272
 3.8000e+000 90448 -1.4042e+001 -8.7745e+001 -1.9863e+000 42140 90272,90350,90298
 3.8000e+000 90425 -9.2466e+000 -7.3463e+001 -2.6971e-001 42140 90298,90350,90324
 3.8000e+000 90402  2.9577e+001 -5.1361e+001  5.5790e-001 42140 90220,90272,90246
 3.8000e+000 90566  1.7787e+001 -5.5215e+001 -6.8287e+000 42140 90272,90220,90540
 3.8000e+000 90589  1.5768e+000 -9.4531e+001 -5.8621e-001 42140 90612,90272,90540
 3.8000e+000 90638  9.9298e+000 -1.1356e+002 -7.5372e+000 42140 90376,90350,90612
 3.8000e+000 90661  2.4596e+001 -9.6171e+001 -1.4412e+001 42140 90376,90612,90540
 3.8000e+000 91167 -1.2956e+001 -5.1560e+001  7.6549e-001 41636 91190,90870,90844
 3.8000e+000 91144 -2.1679e+001 -1.9576e+002  5.3543e+000 41636 91190,90844,91026
 3.8000e+000 91121 -5.2973e+000 -1.9477e+001 -2.0287e+001 41636 90870,90922,90896
 3.8000e+000 91098  1.4420e+001 -1.5927e+002  5.2047e+000 41636 90922,91026,90948
 3.8000e+000 91075  3.4266e+001 -1.3132e+002 -1.7515e+001 41636 90948,91026,91000
 3.8000e+000 91052 -4.6982e+001 -9.3425e+001  5.7889e+001 41636 90948,91000,90974
 3.8000e+000 91216 -2.8521e+001 -1.1682e+001  2.5900e+000 41636 90922,90870,91190
 3.8000e+000 91239  3.0971e+001 -6.1746e+001  2.6797e+001 41636 90922,91190,91026
 3.8000e+000 91696  5.9914e+000 -9.6067e+001 -8.2778e+000 40449 91448,91526,91474
 3.8000e+000 91673 -3.8899e+001 -1.2042e+002  4.7442e+000 40449 91448,91578,91526
 3.8000e+000 91650  1.7923e+001 -1.5760e+001 -6.2588e+000 40449 91474,91526,91500
 3.8000e+000 91627  7.1043e+000 -9.1223e+001  1.7394e+001 40449 91422,91578,91448
 3.8000e+000 91604  2.6902e+001 -8.4060e+001 -1.5447e+001 40449 91526,91578,91552
 3.8000e+000 92123 -2.8198e+000 -1.0477e+002 -1.6756e+000 39995 92146,91904,91826
 3.8000e+000 92100 -2.0023e+001 -1.1513e+002 -2.1842e+001 39995 92146,91826,91800
 3.8000e+000 92077 -5.3860e+001 -6.6797e+001 -9.1018e+000 39995 91826,91904,91852
 3.8000e+000 92054 -3.0352e+001 -2.1217e+002 -3.3082e+001 39995 91904,91982,91930
 3.8000e+000 92031  7.1756e-001 -3.6867e+001  1.0076e+001 39995 91852,91904,91878
 3.8000e+000 92008 -8.0484e+000 -1.6229e+002 -4.0764e+001 39995 91930,91982,91956
 3.8000e+000 92172  9.6848e+000 -1.2866e+002 -2.0977e+001 39995 91982,91904,92146
 3.8000e+000 92195 -1.0498e+001 -1.5888e+002 -3.8717e+001 39995 91982,92146,91800
 3.8000e+000 92652  2.4027e+000  2.8808e+001  1.2872e+001 39633 92404,92534,92456
 3.8000e+000 92629 -9.8881e+000  2.4424e+001  8.4765e+000 39633 92378,92534,92404
 3.8000e+000 92606 -1.7517e+001  2.0424e+001  1.3780e+001 39633 92404,92456,92430
 3.8000e+000 92583  3.5993e+000  1.2628e+001  7.6785e+000 39633 92456,92534,92508
 3.8000e+000 92560  3.4320e+000  8.3930e+000  7.8775e+000 39633 92456,92508,92482
 3.8000e+000 93079 -2.5163e+000 -3.7637e+001 -8.9286e+000 39093 93102,92808,92756
 3.8000e+000 93056  5.3995e+000 -3.7894e+001 -6.7964e+000 39093 93102,92756,92938
 3.8000e+000 93033 -5.9527e-001 -4.2073e+001  1.7030e-001 39093 93174,92912,92834
 3.8000e+000 93010 -6.0247e+000 -2.0483e+001  1.0878e+001 39093 92834,92912,92860
 3.8000e+000 92987  1.4201e+000 -5.8016e+001 -1.8620e+001 39093 92756,92808,92782
 3.8000e+000 92964  3.9159e+000 -4.1997e+000  2.5924e+000 39093 92860,92912,92886
 3.8000e+000 93128  3.6555e+000 -2.4581e+001 -5.7643e+000 39093 92834,92808,93102
 3.8000e+000 93151 -1.1601e-001 -3.9125e+001 -3.2050e+000 39093 93174,92834,93102
 3.8000e+000 93200  2.1726e+000 -3.9766e+001 -3.0031e+000 39093 92938,92912,93174
 3.8000e+000 93223  6.1170e+000 -3.7237e+001 -6.3071e+000 39093 92938,93174,93102
 3.8000e+000 93680  2.8095e+000  7.0343e+000  2.0805e+000 38639 93703,93536,93484
 3.8000e+000 93657  1.5031e+000  8.3240e+000  2.3169e+000 38639 93703,93484,93432
 3.8000e+000 93634  2.2600e+000  7.3838e+000  3.7107e+000 38639 93432,93484,93458
 3.8000e+000 93611  2.5223e+000  6.9477e+000  3.7127e+000 38639 93484,93536,93510
 3.8000e+000 93588  1.1333e+001  1.7957e+001  7.6209e+000 38639 93406,93562,93432
 3.8000e+000 93729  1.8732e+000  5.8641e+000  1.6692e+000 38639 93562,93536,93703
 3.8000e+000 93752  5.3062e-001  7.4801e+000  1.8801e+000 38639 93562,93703,93432
 3.8000e+000 94160  5.2824e+000  1.5805e+001  4.5763e+000 38292 93935,94039,93961
 3.8000e+000 94137 -3.5470e+000 -1.0346e+001  1.1083e+001 38292 93935,94065,94039
 3.8000e+000 94114 -1.7171e+001 -3.6105e+001 -7.3048e+000 38292 93961,94013,93987
 3.8000e+000 94091  9.6213e+000 -4.2489e+001  7.3780e+000 38292 93961,94039,94013
 3.8000e+000 94408  3.3979e+001 -1.2978e+001  1.3844e+001 37880 94431,94261,94235
 3.8000e+000 94385  5.5470e+001 -1.5918e+001  2.3474e+001 37880 94431,94235,94313
 3.8000e+000 94362  4.6265e+001 -2.7997e+001  3.0005e+001 37880 94209,94313,94235
 3.8000e+000 94339  6.8129e+001  4.5854e+001 -5.6147e+000 37880 94183,94313,94209
 3.8000e+000 94457 -5.2904e+000 -9.7061e+000  1.6832e+001 37880 94287,94261,94431
 3.8000e+000 94480  3.2425e+001 -1.9156e+000  2.2922e+001 37880 94287,94431,94313
 3.8000e+000 94728 -3.7823e+001 -1.2253e+002  1.0774e+000 37426 94529,94607,94555
 3.8000e+000 94705  4.4702e+000 -2.0820e+002 -2.2587e+001 37426 94529,94633,94607
 3.8000e+000 94682 -1.1829e+001 -2.2166e+002 -2.8440e+001 37426 94503,94633,94529
 3.8000e+000 94659 -1.9381e+001 -5.3650e+001 -3.2247e+001 37426 94555,94607,94581
 3.8000e+000 95257  7.7150e+000 -1.2825e+001  4.0755e+000 36722 95496,95280,94862
 3.8000e+000 95234 -1.4939e+001 -2.2434e+001  4.6028e+000 36722 95496,94862,94836
 3.8000e+000 95211 -2.7275e+000 -7.5782e+000 -6.6053e+000 36722 95352,95280,95070
 3.8000e+000 95188 -4.3946e+000 -8.9659e+000 -5.3142e+000 36722 95352,95070,95044
 3.8000e+000 95165 -2.1368e+001 -3.1253e+001  1.7457e+001 36722 95424,94888,94862
 3.8000e+000 95142 -2.5829e+001  7.7554e+000 -3.8382e-001 36722 94914,94966,94940
 3.8000e+000 95119 -6.4464e+000 -9.3045e+000 -2.9859e+000 36722 94966,95044,95018
 3.8000e+000 95096 -7.0479e+000 -1.1675e+001 -2.6232e+000 36722 94966,95018,94992
 3.8000e+000 95306  6.2573e+000 -1.4581e+001  5.0175e+000 36722 95424,94862,95280
 3.8000e+000 95329  1.6467e+001  1.4595e+001 -1.4832e+001 36722 94914,95280,94966
 3.8000e+000 95378 -5.3725e+000 -7.8466e+000 -5.4635e+000 36722 94966,95280,95352
 3.8000e+000 95401 -6.3263e+000 -7.6912e+000 -4.6631e+000 36722 94966,95352,95044
 3.8000e+000 95450  1.6519e+001 -7.4118e+000  6.3814e+000 36722 94914,94888,95424
 3.8000e+000 95473  1.9271e+001 -1.3695e+001  2.6780e-001 36722 94914,95424,95280
 3.8000e+000 95522  1.0744e+001 -1.4086e+001  2.8637e+000 36722 95070,95280,95496
 3.8000e+000 95545  9.7140e+000 -1.2564e+001  3.8870e+000 36722 95070,95496,94836
 3.8000e+000 96130 -9.0433e-002 -8.8294e-003  2.2845e+000 36268 96153,95911,95859
 3.8000e+000 96107  1.3215e+000  4.5155e+000  2.9345e+000 36268 96153,95859,95807
 3.8000e+000 96084  3.8538e+000  8.3034e+000  5.9845e-001 36268 95807,95859,95833
 3.8000e+000 96061 -4.4335e+000  2.9041e-001  1.0791e+000 36268 95911,95989,95937
 3.8000e+000 96038 -3.1003e+000 -8.6801e-001  4.2806e+000 36268 95859,95911,95885
 3.8000e+000 96015 -2.0031e+000  1.8541e+000  4.0159e-001 36268 95937,95989,95963
 3.8000e+000 96179 -3.1600e+000  4.2507e+000  1.2529e+000 36268 95989,95911,96153
 3.8000e+000 96202 -8.2456e-001  1.0108e+001  2.1587e+000 36268 95989,96153,95807
 3.8000e+000 96531 -7.0556e+000 -7.2398e+001  3.0942e+001 35728 96358,96410,96384
 3.8000e+000 96508  2.5106e+000 -6.7016e+001  2.8703e+001 35728 96332,96410,96358
 3.8000e+000 96485 -7.1076e+000 -8.1446e+001  3.5251e+001 35728 96332,96436,96410
 3.8000e+000 96462 -1.4269e+000 -4.2409e+001 -2.1820e+000 35728 96306,96436,96332
 3.8000e+000 96860  3.2993e+000 -2.8955e+001  1.7488e+000 35324 96687,96765,96713
 3.8000e+000 96837  1.2237e+001 -1.3022e+001 -9.6461e+000 35324 96661,96765,96687
 3.8000e+000 96814  6.5946e+000  1.9250e+001 -2.4015e+001 35324 96713,96765,96739
 3.8000e+000 96791 -1.1777e+001  4.3277e+000 -8.1453e+000 35324 96635,96765,96661
 3.8000e+000 97366 -4.0727e+000 -8.8294e+001  1.3576e+001 34920 97389,97069,97043
 3.8000e+000 97343 -9.9605e-002 -7.9091e+001  1.4397e+001 34920 97389,97043,97199
 3.8000e+000 97320  1.6551e+001 -6.5290e+001  4.4492e+000 34920 97043,97225,97199
 3.8000e+000 97297  2.8993e+000 -2.1753e+002  2.9112e+001 34920 97069,97121,97095
 3.8000e+000 97274  3.7285e+001 -6.9270e+001  5.3787e-001 34920 97121,97199,97173
 3.8000e+000 97251  2.8896e+001 -2.5618e+001 -3.4176e+001 34920 97121,97173,97147
 3.8000e+000 97415 -1.0432e+001 -8.8160e+001  9.2932e-001 34920 97121,97069,97389
 3.8000e+000 97438 -1.6626e+000 -6.8068e+001  2.0591e+000 34920 97121,97389,97199
 3.8000e+000 97708 -4.2859e+001 -1.3105e+001  1.0077e+001 34722 97509,97587,97535
 3.8000e+000 97685 -2.3891e+001 -1.1693e+001  6.0247e+000 34722 97509,97613,97587
 3.8000e+000 97662 -3.0133e+001 -1.5869e+001  3.3148e+000 34722 97483,97613,97509
 3.8000e+000 97639 -2.7412e+001 -8.9511e+000  6.2964e+000 34722 97535,97587,97561
 3.8000e+000 98216 -6.6141e+000 -6.8635e+001  1.7995e+001 34318 97971,98075,97997
 3.8000e+000 98193  2.7373e+000 -7.5602e+001  3.4859e+001 34318 97893,98075,97971
 3.8000e+000 98170  4.4412e+001 -7.3182e+001  1.3684e+001 34318 97893,97971,97919
 3.8000e+000 98147 -6.1126e+000 -6.2954e+001  1.9270e+001 34318 97997,98075,98049
 3.8000e+000 98124  8.3694e+000 -5.1193e+001  8.9250e-001 34318 97919,97971,97945
 3.8000e+000 98101 -3.1200e+001 -1.1963e+002  2.4556e+001 34318 97997,98049,98023
 3.8000e+000 98594  8.3025e+000  2.4673e+000  2.5035e+000 33814 98961,98617,98424
 3.8000e+000 98571  2.8485e+001 -2.8978e+000  1.7390e+000 33814 98689,98617,98372
 3.8000e+000 98548  3.8095e+001  3.2294e+001 -4.7919e+000 33814 99033,98689,98372
 3.8000e+000 98525  1.7030e+001  9.2911e+000  3.8401e+000 33814 98761,98476,98450
 3.8000e+000 98502 -3.0653e+000  4.4394e+000 -9.9248e-001 33814 98961,98424,98398
 3.8000e+000 98643  1.4943e+001  6.0585e+000  4.0373e+000 33814 98450,98424,98617
 3.8000e+000 98666  2.1507e+001  1.4424e+001  7.4871e+000 33814 98761,98450,98617
 3.8000e+000 98715  2.7969e+001 -1.0057e+001  3.3303e+000 33814 99161,98689,98320
 3.8000e+000 98738 -1.1712e+001 -1.8494e+001  1.3553e+001 33814 98320,98689,98346
 3.8000e+000 98787  2.7796e+001 -2.8004e+000  1.4167e+001 33814 98833,98761,98320
 3.8000e+000 98810  2.8037e+001 -1.2062e+001  6.4735e+000 33814 99161,98320,98761
 3.8000e+000 98859  2.7430e+001  3.4962e+001  4.2940e+000 33814 98476,98761,98833
 3.8000e+000 98987  2.7901e+001 -4.0338e+000 -1.2864e+000 33814 98372,98617,98961
 3.8000e+000 99010  1.5620e+001 -3.4748e+000 -7.3671e+000 33814 98372,98961,98398
 3.8000e+000 99059  2.6113e+001 -5.9090e+000  1.0201e+001 33814 98346,98689,99033
 3.8000e+000 99187  2.9436e+001 -3.8564e+000  1.0198e+000 33814 98617,98689,99161
 3.8000e+000 99210  2.7604e+001 -7.2371e+000  4.5688e+000 33814 98617,99161,98761
 3.8000e+000 99588  1.0917e+000 -2.8063e+000  2.3064e+000 33566 99366,99444,99392
 3.8000e+000 99565  1.1317e+000  2.9640e+000  3.4097e+000 33566 99314,99444,99366
 3.8000e+000 99542  1.3329e+000 -5.2201e+000 -7.2147e-001 33566 99314,99366,99340
 3.8000e+000 99519  1.8856e+000  7.0088e+000 -1.8542e+000 33566 99314,99470,99444
 3.8000e+000 99496 -6.2399e-001  1.9650e+000  6.0164e+000 33566 99392,99444,99418
 3.8000e+000 99787  7.5089e+000 -2.7775e+001  3.6585e+001 33105 99637,99689,99663
 3.8000e+000 99764  1.1352e+001 -4.8781e+000 -6.0567e-001 33105 99611,99689,99637
 3.8000e+000 99741  1.2708e+001  1.9217e+001  3.0993e+000 33105 99611,99715,99689
 3.8000e+000 100167 -3.3026e+001 -1.0511e+002  6.1812e+001 32651 100190,99971,99919
 3.8000e+000 100144  1.8671e+001 -5.6397e+001  4.1641e+001 32651 100262,100190,99919
 3.8000e+000 100121  4.4498e+000 -5.1031e+001  2.8918e+001 32651 100262,99919,100049
 3.8000e+000 100098 -2.9422e+000 -5.3560e+001 -3.9401e+000 32651 99893,100049,99919
 3.8000e+000 100075 -4.7343e+001 -1.0504e+002  5.2074e+001 32651 99919,99971,99945
 3.8000e+000 100216  1.8271e+001 -1.1226e+002  2.9640e+001 32651 99997,99971,100190
 3.8000e+000 100239  3.8284e+001 -8.9692e+001  1.5924e+001 32651 99997,100190,100023
 3.8000e+000 100288  9.8418e+000 -8.8833e+001  3.4584e+001 32651 100023,100190,100262
 3.8000e+000 100311  1.6656e+000 -7.7151e+001  1.0115e+001 32651 100023,100262,100049
 3.8000e+000 100608 -1.2170e+001 -7.6241e+001  7.5879e+000 32254 100386,100490,100464
 3.8000e+000 100585 -6.5837e+000 -2.9599e+001 -1.2626e+000 32254 100360,100490,100386
 3.8000e+000 100562 -3.2814e+001 -1.1683e+002 -1.4261e+001 32254 100386,100464,100412
 3.8000e+000 100539 -5.9720e+000 -3.4714e+001 -1.1854e+001 32254 100334,100490,100360
 3.8000e+000 100516  1.8516e+001 -3.9824e+001  9.1095e+000 32254 100412,100464,100438
 3.8000e+000 100758 -8.1483e+000  7.9285e+000  2.0310e+000 31914 100985,100781,100683
 3.8000e+000 100735 -2.7164e+001  2.7831e+000  2.3946e+001 31914 100853,100781,100657
 3.8000e+000 100807  7.3509e+000  1.1269e+001 -9.8567e+000 31914 100709,100683,100781
 3.8000e+000 100830 -6.0165e+000  1.3001e+001  1.5688e+001 31914 100709,100781,100631
 3.8000e+000 100879 -1.7465e+001 -2.3589e+001  2.1157e+001 31914 100631,100781,100853
 3.8000e+000 101011 -6.8880e-001  3.5905e+000  7.8325e+000 31914 100657,100781,100985
 3.8000e+000 101191 -2.4697e+001  2.4087e+001 -3.2714e+000 31418 101113,101165,101139
 3.8000e+000 101341 -1.0256e+002 -1.8326e+002 -1.6342e+001 31106 101214,101266,101240
 3.8000e+000 101318 -5.9348e+001 -5.4572e+001  3.5605e+000 31106 101214,101292,101266
 3.8000e+000 101591 -3.0571e+001 -1.0758e+002  7.2794e+001 30552 101614,101470,101444
 3.8000e+000 101568 -4.3271e+001 -6.3369e+001  2.5164e+001 30552 101366,101496,101470
 3.8000e+000 101545 -3.3321e+000 -1.0023e+002  5.0538e+001 30552 101614,101444,101392
 3.8000e+000 101522 -4.4919e+000 -2.8142e+001 -5.4997e+000 30552 101392,101444,101418
 3.8000e+000 101640  7.8493e+000 -1.0963e+002  6.0499e+001 30552 101366,101470,101614
 3.8000e+000 101663  3.0940e+001 -1.0556e+002  3.8460e+001 30552 101366,101614,101392
 3.8000e+000 102301  6.5997e+000 -1.0893e+002 -1.5829e+001 30042 102396,102324,102059
 3.8000e+000 102278 -2.4374e+001 -9.9379e+001 -4.5585e+001 30042 102324,101981,101955
 3.8000e+000 102255 -1.2799e+001 -8.6194e+001  1.7347e+001 30042 102396,102059,102033
 3.8000e+000 102232 -1.5169e+001 -5.3368e+001  5.1938e-001 30042 101929,102111,101955
 3.8000e+000 102209 -1.5601e+000 -1.0584e+002 -5.6849e+000 30042 102059,102111,102085
 3.8000e+000 102186 -1.8280e+001 -5.4846e+001  8.9565e-001 30042 101929,102137,102111
 3.8000e+000 102163  4.3351e-001 -3.6749e+000 -6.4122e+000 30042 101981,102033,102007
 3.8000e+000 102350  2.3673e+001 -1.0132e+002 -1.7259e+001 30042 102111,102059,102324
 3.8000e+000 102373  2.1587e+001 -9.5637e+001 -2.1442e+001 30042 102111,102324,101955
 3.8000e+000 102422  2.8858e+001 -3.2160e+001 -2.2004e+001 30042 101981,102324,102396
 3.8000e+000 102445  1.0257e+001 -9.1408e+000  1.2088e+001 30042 101981,102396,102033
 3.8000e+000 103000  4.2309e+001 -8.9218e+001  3.9806e+000 29730 103023,102706,102654
 3.8000e+000 102977 -5.6012e+000 -9.5100e+001 -5.6600e+000 29730 103023,102654,102810
 3.8000e+000 102954 -6.5819e+001 -1.6485e+002 -3.4088e+000 29730 102732,102810,102784
 3.8000e+000 102931  6.7415e-001 -1.0517e+002 -7.6239e+000 29730 102628,102810,102654
 3.8000e+000 102908  3.8272e+001 -3.6001e+001  1.8832e+001 29730 102654,102706,102680
 3.8000e+000 102885 -2.9087e+001 -4.3669e+001 -3.2910e+001 29730 102732,102784,102758
 3.8000e+000 102862 -2.6195e+001 -1.1733e+002 -4.6779e+000 29730 102628,102836,102810
 3.8000e+000 103049  1.3762e+001 -1.0203e+002 -1.9611e+001 29730 102732,102706,103023
 3.8000e+000 103072 -1.5863e+001 -9.0467e+001 -2.6887e+001 29730 102732,103023,102810
 3.8000e+000 103222  5.5004e+001 -9.4358e+001 -5.0587e-001 29226 103095,103147,103121
 3.8000e+000 103199  4.4099e+001 -5.3161e+001 -1.6203e+001 29226 103095,103173,103147
 3.8000e+000 103730 -7.9093e+000 -1.1285e+002  1.1920e+001 28822 103537,103589,103563
 3.8000e+000 103707  2.8651e+000 -8.8276e+001  8.2531e+000 28822 103433,103589,103537
 3.8000e+000 103684  1.5137e+001 -7.1853e+001 -1.1339e+001 28822 103433,103537,103459
 3.8000e+000 103661  2.4497e+001 -1.0353e+002  1.4821e+001 28822 103407,103589,103433
 3.8000e+000 103638 -7.2345e-001 -2.6573e+001  3.0435e+001 28822 103459,103511,103485
 3.8000e+000 103615 -2.5555e+001 -1.1993e+001  2.3693e+001 28822 103459,103537,103511
 3.8000e+000 103880  2.6204e+001 -6.1014e+001  2.1656e+001 28368 103975,103903,103779
 3.8000e+000 103857  2.7376e-001 -1.5674e+002  8.5104e+000 28368 103903,103753,103831
 3.8000e+000 103929 -2.2732e+000 -3.7115e+001  3.4759e+000 28368 103805,103779,103903
 3.8000e+000 103952 -6.9191e+000 -8.3776e+001  1.2068e+000 28368 104105,103903,103831
 3.8000e+000 104001  1.9767e+001 -7.9678e+001 -6.7295e+000 28368 103753,103903,103975
 3.8000e+000 104131 -7.5513e+000 -7.6330e+001  1.4553e+001 28368 103805,103903,104105
 3.8000e+000 104539  5.3487e+000  2.7444e+001  1.2245e+000 28028 104562,104340,104314
 3.8000e+000 104516  2.6894e+000  4.3513e+000 -9.0857e-001 28028 104634,104562,104314
 3.8000e+000 104493  1.3877e+000  2.5824e+001  9.3996e+000 28028 104762,104366,104340
 3.8000e+000 104470  1.1764e-001  1.1499e+001 -3.4702e+000 28028 104366,104418,104392
 3.8000e+000 104588  3.9797e-001  2.8796e+001  6.2431e+000 28028 104762,104340,104562
 3.8000e+000 104611  2.1732e+001  3.3360e+001 -4.8774e+000 28028 104418,104562,104444
 3.8000e+000 104660  2.0424e+000  2.5869e+001  4.2920e-001 28028 104444,104562,104634
 3.8000e+000 104788  1.6783e+000  2.1476e+001  8.6876e+000 28028 104418,104366,104762
 3.8000e+000 104811 -3.8090e-001  2.2960e+001  5.3974e+000 28028 104418,104762,104562
 3.8000e+000 105010  5.9017e+000  2.3104e+001 -1.2925e+001 27324 105033,104886,104860
 3.8000e+000 104987 -5.0863e+000  2.2186e+001 -2.5502e+000 27324 105033,104860,104834
 3.8000e+000 104964  2.3562e+001  1.2123e+001 -1.0972e+001 27324 105105,104912,104886
 3.8000e+000 105059  4.5638e+000  2.1225e+001 -1.4109e+001 27324 105105,104886,105033
 3.8000e+000 105082  6.8695e+000  3.3943e+001 -1.0392e+001 27324 104938,105033,104834
 3.8000e+000 105131  4.5575e+001  2.1443e+001 -1.2898e+001 27324 104938,104912,105105
 3.8000e+000 105154  2.7195e+001  3.1798e+001 -1.8357e+001 27324 104938,105105,105033
 3.8000e+000 105402 -2.1865e+001 -4.8689e+001 -1.2831e+001 27012 105229,105281,105255
 3.8000e+000 105379  7.0758e+000 -2.3917e+001 -2.3369e+001 27012 105229,105307,105281
 3.8000e+000 105356  4.2715e+001  8.4318e+000 -9.3521e+000 27012 105177,105307,105229
 3.8000e+000 105333 -3.8391e+001 -8.7362e+001 -6.3682e+001 27012 105177,105229,105203
 3.8000e+000 105603  2.4041e+001  2.9591e+001 -7.2151e+000 26508 105626,105453,105427
 3.8000e+000 105580  3.4690e+001  5.4349e+001  3.3808e+001 26508 105626,105427,105505
 3.8000e+000 105557  1.5307e+001  5.8933e+001  2.8291e+001 26508 105427,105531,105505
 3.8000e+000 105652 -3.5013e+000  1.7905e+001 -1.6073e+001 26508 105479,105453,105626
 3.8000e+000 105675 -5.7381e+000  2.9198e+001  2.1562e+001 26508 105479,105626,105505
 3.8000e+000 106057 -1.8019e+001 -5.8291e+001  3.9327e+001 25947 106080,105887,105861
 3.8000e+000 106034 -6.8885e+000 -4.0468e+001  2.7218e+001 25947 106080,105861,105783
 3.8000e+000 106011 -4.9978e-001 -2.3708e+001  2.2753e+001 25947 105783,105835,105809
 3.8000e+000 105988 -2.0163e+001 -4.3375e+001  3.0904e+001 25947 105783,105861,105835
 3.8000e+000 105965  1.0362e+001 -3.0456e+001  1.4252e+001 25947 105887,105939,105913
 3.8000e+000 106106 -1.4790e+001 -5.1053e+001  2.3220e+001 25947 105939,105887,106080
 3.8000e+000 106129  9.1182e+000 -1.8290e+001  8.7037e+000 25947 105939,106080,105783
 3.8000e+000 106714  4.0356e-001 -2.4977e+001  1.4527e+001 25557 106809,106737,106547
 3.8000e+000 106691 -2.5539e+000 -5.8049e+001  3.5721e+001 25557 106737,106417,106391
 3.8000e+000 106668  1.1891e+001 -1.8602e+001  1.1792e+001 25557 106809,106547,106495
 3.8000e+000 106645 -1.6112e+001 -1.1910e+002  5.0406e+001 25557 106417,106495,106469
 3.8000e+000 106622  2.2513e+001 -1.7504e+001  8.0424e+000 25557 106495,106547,106521
 3.8000e+000 106599 -2.1360e+001 -1.1564e+002  4.8773e+001 25557 106417,106469,106443
 3.8000e+000 106763 -1.5966e+001 -3.5256e+001  2.4818e+001 25557 106573,106547,106737
 3.8000e+000 106786  1.2317e+001 -2.3876e+001  3.3971e+001 25557 106573,106737,106391
 3.8000e+000 106835  1.4845e+001 -3.6203e+001  1.9719e+001 25557 106417,106737,106809
 3.8000e+000 106858  2.2936e+001 -3.0891e+001  1.6404e+001 25557 106417,106809,106495
 3.8000e+000 107364  4.9524e+000  9.9325e+000  1.1372e+000 25153 107459,107387,107171
 3.8000e+000 107341  3.2832e+000  2.9783e+000 -3.6476e+000 25153 107387,107119,107067
 3.8000e+000 107318  3.6349e+000  1.0318e+001  1.9698e+000 25153 107459,107171,107145
 3.8000e+000 107295  1.7716e+001  5.5084e+000 -5.4372e+000 25153 107531,107223,107197
 3.8000e+000 107272  2.1708e+001  3.2891e+001 -1.8738e+001 25153 107067,107119,107093
 3.8000e+000 107249  2.9004e+001  2.6340e+001 -1.2932e+001 25153 107041,107223,107067
 3.8000e+000 107413 -1.0194e+001 -7.4059e-001  7.1850e+000 25153 107197,107171,107387
 3.8000e+000 107436  7.9478e+000 -3.9404e+000  3.7139e+000 25153 107531,107197,107387
 3.8000e+000 107485  6.1389e+000  1.1750e+001 -1.4157e+000 25153 107119,107387,107459
 3.8000e+000 107508  2.8120e+000  1.1065e+001 -5.7887e-001 25153 107119,107459,107145
 3.8000e+000 107557  2.6205e+001  1.2459e+001 -1.4900e+001 25153 107067,107223,107531
 3.8000e+000 107580  1.8427e+001  9.7091e+000 -6.5220e+000 25153 107067,107531,107387
 3.8000e+000 107958  1.0791e+001 -5.8169e+001 -1.2447e+001 24741 107736,107814,107788
 3.8000e+000 107935 -6.2035e+000 -8.5509e+001 -3.5383e+001 24741 107736,107840,107814
 3.8000e+000 107912 -1.2929e+001 -5.9541e+001 -4.1245e+001 24741 107684,107840,107736
 3.8000e+000 107889 -1.5905e+001 -2.7724e+001 -2.1798e+001 24741 107736,107788,107762
 3.8000e+000 107866 -2.9571e+001 -1.2048e+002 -5.4733e+001 24741 107684,107736,107710
 3.8000e+000 108157  6.1838e+000 -5.4983e+000 -4.7584e+000 24237 108180,108059,108007
 3.8000e+000 108134  3.6233e+001  1.9242e+001  9.1879e+000 24237 108180,108007,107981
 3.8000e+000 108111 -2.7861e+000  1.7389e+001 -8.2909e+000 24237 108007,108059,108033
 3.8000e+000 108206  1.8814e+001  1.1686e+001  2.2650e+001 24237 108085,108059,108180
 3.8000e+000 108229  4.7538e+001  3.5780e+001  3.6395e+001 24237 108085,108180,107981
 3.8000e+000 108658 -1.0801e+001 -6.2421e+001  2.4129e+001 23776 108361,108413,108387
 3.8000e+000 108635 -1.9381e+001 -1.2498e+002 -1.1236e+001 23776 108753,108681,108361
 3.8000e+000 108612  3.5163e+000 -6.6221e+001 -9.2948e+000 23776 108681,108465,108439
 3.8000e+000 108589 -1.4002e+000 -1.3847e+002  5.8472e+000 23776 108753,108361,108335
 3.8000e+000 108566 -2.5218e+001 -1.3063e+002  4.2265e+001 23776 108335,108517,108465
 3.8000e+000 108543 -3.0484e+001 -1.1265e+002  3.7029e+001 23776 108465,108517,108491
 3.8000e+000 108707 -3.5956e+001 -6.9572e+001 -5.0121e+000 23776 108413,108361,108681
 3.8000e+000 108730 -1.3814e+001 -3.5206e+001  1.3136e+001 23776 108413,108681,108439
 3.8000e+000 108779 -2.5681e+000 -6.8911e+001 -8.3857e+000 23776 108465,108681,108753
 3.8000e+000 108802 -3.2398e+000 -1.1305e+002  2.9573e+000 23776 108465,108753,108335
 3.8000e+000 109023  1.0807e+001  2.2093e+001 -2.7482e+001 23414 108873,108925,108899
 3.8000e+000 109000  5.3448e+001  4.2422e+001 -2.1385e+001 23414 108847,108925,108873
 3.8000e+000 108977  6.3112e+001  9.3121e+001  8.3048e+000 23414 108847,108951,108925
 3.8000e+000 109474 -3.1490e+000  4.9208e+000  4.0954e+000 23024 109151,109307,109177
 3.8000e+000 109451  2.9447e+000  2.0564e+000  2.4222e+000 23024 109151,109333,109307
 3.8000e+000 109428  1.7327e+001 -9.8259e+001 -6.1663e-001 23024 109177,109281,109203
 3.8000e+000 109405 -7.6590e+000 -5.2036e+001 -2.9244e+001 23024 109177,109307,109281
 3.8000e+000 109382  1.2263e+001 -7.7059e+001  1.3382e+001 23024 109203,109281,109229
 3.8000e+000 109359 -1.0217e+001 -6.8436e+001 -1.1390e+000 23024 109229,109281,109255
 3.8000e+000 109820 -6.4634e-001 -5.9500e+001  7.8671e+000 22506 109843,109601,109523
 3.8000e+000 109797  3.5762e+000 -4.4816e+001  1.8543e+000 22506 109843,109523,109497
 3.8000e+000 109774  3.4220e+000 -7.4320e+001  6.0850e-001 22506 109915,109653,109627
 3.8000e+000 109751 -1.0381e+001 -3.5798e+001 -5.9230e-001 22506 109497,109679,109653
 3.8000e+000 109728 -6.6590e+000 -7.5188e+001 -1.5546e+001 22506 109523,109601,109575
 3.8000e+000 109705 -3.0461e+001 -9.4595e+001 -2.6065e+001 22506 109523,109575,109549
 3.8000e+000 109869  1.0732e+001 -5.1454e+001  1.1388e+001 22506 109627,109601,109843
 3.8000e+000 109892  1.2892e+001 -5.8927e+001  8.8717e+000 22506 109915,109627,109843
 3.8000e+000 109941 -8.1649e+000 -6.3173e+001 -8.5939e+000 22506 109497,109653,109915
 3.8000e+000 109964 -6.9897e+000 -6.2640e+001 -2.6788e+000 22506 109497,109915,109843
 3.8000e+000 110163  1.2641e+001 -3.6947e+001 -5.3507e-001 21936 110186,110039,110013
 3.8000e+000 110140  2.9629e+001 -1.9320e+001  8.1799e+000 21936 110390,110186,110013
 3.8000e+000 110117  4.8726e+001 -3.2602e+001  2.5685e+001 21936 110390,110013,109987
 3.8000e+000 110212  2.5825e+001 -1.3536e+001 -1.9473e+001 21936 110065,110039,110186
 3.8000e+000 110235 -1.3219e+000 -1.3796e+001 -9.1134e+000 21936 110258,110186,110091
 3.8000e+000 110284 -2.3475e+001 -3.1443e+001 -1.6766e+001 21936 110065,110186,110258
 3.8000e+000 110416 -1.2181e+001 -2.4770e+001  1.1091e+001 21936 110091,110186,110390
 3.8000e+000 110439  1.5466e+001 -3.2540e+001  2.6918e+001 21936 110091,110390,109987
 3.8000e+000 110709  2.1014e+001 -5.6674e+001  1.7269e+000 21338 110510,110614,110588
 3.8000e+000 110686  1.2144e+001 -8.0159e+001 -3.9306e+000 21338 110484,110614,110510
 3.8000e+000 110663  3.6184e+001  2.3673e+000  1.5161e+000 21338 110510,110562,110536
 3.8000e+000 110640  1.1656e+001 -5.6272e+001 -2.7905e+000 21338 110510,110588,110562
 3.8000e+000 111296  1.4595e+001 -3.4968e+001 -2.5502e+000 20934 111025,111155,111103
 3.8000e+000 111273 -6.4181e+000 -1.2167e+002 -1.3234e+000 20934 110999,111155,111025
 3.8000e+000 111250 -6.5116e-001 -4.1055e+001 -3.9266e+000 20934 111103,111155,111129
 3.8000e+000 111227 -1.0921e+001 -9.7641e+001 -1.5070e+001 20934 111051,111103,111077
 3.8000e+000 111204 -1.1074e+001 -9.4837e+001 -1.4153e+001 20934 111025,111103,111051
 3.8000e+000 111181 -1.4907e+001 -1.3994e+002 -4.9624e+000 20934 110973,111155,110999
 3.8000e+000 111930 -2.3849e+001 -6.3191e+001 -4.3570e+001 20494 111662,111714,111688
 3.8000e+000 111907 -1.7995e+001 -2.7384e+001 -3.2465e+001 20494 111584,111714,111662
 3.8000e+000 111884 -1.0133e+001 -2.1306e+001 -3.5142e+001 20494 111584,111766,111714
 3.8000e+000 111861  4.6285e+001 -3.5236e+001 -7.9776e+000 20494 111584,111636,111610
 3.8000e+000 111838 -5.7079e+000 -2.2989e+001 -4.0282e+001 20494 111584,111662,111636
 3.8000e+000 111815 -6.5643e+000 -3.3627e+000 -1.0892e+001 20494 111558,111766,111584
 3.8000e+000 111792 -6.9927e-001  1.7415e+001 -9.4407e+000 20494 111714,111766,111740
 3.8000e+000 112249 -1.8890e+000 -2.3944e+002  1.7553e+001 19940 111975,112053,112001
 3.8000e+000 112226  7.2475e+001 -8.8030e+001 -6.4326e+000 19940 111975,112131,112053
 3.8000e+000 112203  9.8123e+000 -2.2234e+002  0.0000e+000 19940 112053,112105,112079
 3.8000e+000 112180  2.8124e+001 -2.1462e+002  3.0542e+000 19940 112053,112131,112105
 3.8000e+000 112157  1.3448e+001 -2.0922e+002 -8.8793e+000 19940 112001,112053,112027
 3.8000e+000 112757  2.0603e+001 -5.7790e+001 -1.8891e+001 19486 112780,112538,112486
 3.8000e+000 112734  1.8379e+001 -6.1064e+001 -8.0670e+000 19486 112780,112486,112460
 3.8000e+000 112711  1.2115e+000 -5.0200e+001 -8.8164e+000 19486 112852,112616,112590
 3.8000e+000 112688  6.8598e+001 -8.3926e+001 -2.4376e+001 19486 112486,112538,112512
 3.8000e+000 112665 -1.2720e+001 -7.2756e+001  4.7861e+000 19486 112434,112616,112460
 3.8000e+000 112642  2.3671e+000 -4.6415e+001 -1.2757e+001 19486 112538,112590,112564
 3.8000e+000 112806  1.3364e+001 -6.1596e+001 -1.6890e+001 19486 112590,112538,112780
 3.8000e+000 112829  2.0679e+001 -5.4839e+001 -1.2811e+001 19486 112852,112590,112780
 3.8000e+000 112878 -1.1542e+001 -5.5347e+001 -3.5497e+000 19486 112460,112616,112852
 3.8000e+000 112901 -1.2443e-001 -6.7444e+001 -5.5521e+000 19486 112460,112852,112780
 3.8000e+000 113252 -5.1403e+001 -1.0204e+002 -4.7033e+000 19096 113105,113157,113131
 3.8000e+000 113229 -3.9690e+001 -7.0666e+001 -5.3253e-001 19096 113053,113157,113105
 3.8000e+000 113206 -2.9518e+001 -6.6528e+001  2.5933e-001 19096 113027,113157,113053
 3.8000e+000 113183 -6.0920e+001 -1.1740e+002  5.6901e+000 19096 113053,113105,113079
 3.8000e+000 113451  8.8832e+000 -9.5938e+001 -2.7386e+001 18642 113327,113379,113353
 3.8000e+000 113428 -4.6953e+000 -1.3672e+002 -2.0301e+001 18642 113301,113379,113327
 3.8000e+000 113405  2.1526e+001 -1.0164e+002 -5.8149e+000 18642 113275,113379,113301
 3.8000e+000 113699  1.9794e+001 -9.9178e+001 -8.3304e+000 18138 113474,113552,113526
 3.8000e+000 113676  4.6014e+001 -1.1438e+002 -2.2090e+001 18138 113474,113578,113552
 3.8000e+000 113653  4.6248e+001 -1.1523e+002 -2.2130e+001 18138 113474,113604,113578
 3.8000e+000 113630  4.0972e+001 -6.8229e+001  9.8849e-001 18138 113474,113526,113500
 3.8000e+000 113851 -4.0563e+000 -1.0913e+002 -4.7085e+000 17682 113750,113802,113776
 3.8000e+000 113828  1.2334e+001 -9.4344e+001  1.7707e+000 17682 113724,113802,113750
 3.8000e+000 114383  3.6915e+001 -1.3522e+002 -1.1283e+001 17106 114086,114242,114164
 3.8000e+000 114360  3.9596e+001 -1.3438e+002 -1.4869e+001 17106 114060,114242,114086
 3.8000e+000 114337 -1.4925e+001 -2.4910e+002  1.8496e+001 17106 114086,114164,114138
 3.8000e+000 114314 -6.4008e+001 -3.8521e+002 -7.2501e+000 17106 114190,114242,114216
 3.8000e+000 114291 -2.0981e+001 -2.7376e+002 -2.9122e+001 17106 114164,114242,114190
 3.8000e+000 114268  2.3277e+001 -2.1613e+002  4.2943e+001 17106 114086,114138,114112
 3.8000e+000 114680 -3.9302e+001 -1.2627e+002  3.8892e+000 16766 114703,114432,114406
 3.8000e+000 114657 -4.4501e+001 -1.2299e+002 -7.7771e-001 16766 114703,114406,114510
 3.8000e+000 114634 -4.9362e+001 -9.0548e+001  1.3482e+001 16766 114406,114536,114510
 3.8000e+000 114611 -1.7785e+001 -1.2873e+002 -8.6403e+000 16766 114432,114484,114458
 3.8000e+000 114588 -5.6500e+001 -1.0619e+002  4.4999e+001 16766 114406,114562,114536
 3.8000e+000 114729 -1.9013e+001 -1.2209e+002  5.6127e+000 16766 114484,114432,114703
 3.8000e+000 114752 -3.6626e+001 -1.2732e+002  1.2388e+000 16766 114484,114703,114510
 3.8000e+000 114902  5.0079e+001 -2.2026e+002 -3.8920e+001 16362 114775,114827,114801
 3.8000e+000 114879  3.2984e+001 -2.1585e+002 -3.8015e+001 16362 114775,114853,114827
 3.8000e+000 115054 -2.4599e+002 -3.9775e+002 -2.2174e+001 15908 114953,115005,114979
 3.8000e+000 115031 -2.2602e+002 -4.0942e+002 -1.5789e+001 15908 114927,115005,114953
 3.8000e+000 115326  1.4367e+001 -6.8674e+001  3.2850e+001 15251 115101,115179,115153
 3.8000e+000 115303  9.8733e+000 -6.2323e+001  1.9904e+000 15251 115101,115231,115179
 3.8000e+000 115280  1.1399e+001 -5.9234e+001  1.5009e+000 15251 115179,115231,115205
 3.8000e+000 115257 -6.2153e+001 -3.2238e+002  2.6242e+001 15251 115101,115153,115127
 3.8000e+000 115429 -1.1873e+001 -1.3090e+002  2.5910e+001 421 115351,115403,115377
 3.9000e+000 66230 -4.4378e+001  4.7575e+001  1.4716e+001 65954 66152,66204,66178
 3.9000e+000 66429  7.2940e+000  3.6544e+001  9.5191e+000 65642 66279,66331,66305
 3.9000e+000 66406 -6.6045e+000 -1.1536e+001  4.0951e+000 65642 66279,66357,66331
 3.9000e+000 66383  1.1870e+001  4.6060e+001 -1.4558e+001 65642 66253,66357,66279
 3.9000e+000 66628 -2.8254e+000 -1.9738e+001  6.9410e+000 65444 66452,66530,66478
 3.9000e+000 66605  7.8948e+000 -3.9613e+001 -1.7206e-001 65444 66452,66556,66530
 3.9000e+000 66582 -2.9996e+000 -3.7226e+001  9.4630e+000 65444 66478,66530,66504
 3.9000e+000 67006 -1.7775e+000 -2.3010e+001  3.2604e+000 65246 66732,66810,66758
 3.9000e+000 66983 -3.9599e+000 -8.4940e+000  6.3672e+000 65246 66732,66836,66810
 3.9000e+000 66960  9.1971e-001 -1.8552e+000  1.0220e+001 65246 66732,66862,66836
 3.9000e+000 66937  8.5262e-001 -1.7680e+001  2.3517e+000 65246 66758,66810,66784
 3.9000e+000 66914  1.2574e+001 -6.6515e+001 -2.1291e+001 65246 66732,66888,66862
 3.9000e+000 67107  2.7110e+001 -2.7404e+001 -9.2821e+000 64934 67029,67081,67055
 3.9000e+000 67306 -5.8510e+000 -2.5169e+000  5.7238e+000 64736 67156,67208,67182
 3.9000e+000 67283 -3.8472e+000  6.3541e-001  4.6478e+000 64736 67130,67208,67156
 3.9000e+000 67260  6.1617e+000 -3.2048e+001  1.1457e+001 64736 67130,67234,67208
 3.9000e+000 67507  1.7358e+000 -2.5897e+001 -3.8105e+000 64389 67357,67409,67383
 3.9000e+000 67484 -2.5016e+000 -2.0545e+001 -5.6328e+000 64389 67357,67435,67409
 3.9000e+000 67461  6.4539e+000 -3.5807e+001 -1.9215e+000 64389 67331,67435,67357
 3.9000e+000 67708  2.8846e+001 -3.6151e+001  7.9170e+000 63985 67731,67584,67558
 3.9000e+000 67685  1.3138e+001  5.1031e-001  2.1687e+000 63985 67731,67558,67636
 3.9000e+000 67662  6.4650e+000 -5.9031e-001  3.6727e+000 63985 67532,67636,67558
 3.9000e+000 67757  2.1111e+001 -5.3985e+001  4.6183e+000 63985 67610,67584,67731
 3.9000e+000 67780 -1.2656e+000 -2.7775e+001 -3.2733e+000 63985 67610,67731,67636
 3.9000e+000 67981 -9.0004e-001  1.6988e+001  1.8307e+000 63787 67857,67909,67883
 3.9000e+000 67958  2.0039e+000  3.3947e+001 -5.8359e+000 63787 67831,67909,67857
 3.9000e+000 67935 -1.0081e+001 -7.5248e+000 -7.0828e+000 63787 67805,67909,67831
 3.9000e+000 68231  8.8157e-001 -5.2471e+001  6.3985e+000 63589 68254,68084,68032
 3.9000e+000 68208 -2.1564e+000 -1.7996e+001  5.1638e+000 63589 68254,68032,68006
 3.9000e+000 68185  3.7748e+000 -9.1047e+000  6.3134e+000 63589 68326,68136,68110
 3.9000e+000 68162 -9.5780e-001 -4.9061e+001 -5.8192e+000 63589 68032,68084,68058
 3.9000e+000 68280  5.7989e+000 -2.2703e+001  5.8570e+000 63589 68110,68084,68254
 3.9000e+000 68303 -5.5527e-001 -1.0837e+001  1.1304e+001 63589 68326,68110,68254
 3.9000e+000 68352  1.1703e+001  2.8669e+000 -5.7818e+000 63589 68006,68136,68326
 3.9000e+000 68375  3.2469e+000 -2.9554e+000 -2.5545e-001 63589 68006,68326,68254
 3.9000e+000 68836  1.5620e+000  1.6189e+001  7.1326e+000 63128 68859,68588,68562
 3.9000e+000 68813 -2.5701e-001  8.3691e+000  1.5168e+001 63128 68859,68562,68692
 3.9000e+000 68790  1.4504e+001 -1.1121e+001  6.8468e+000 63128 68614,68692,68666
 3.9000e+000 68767 -3.0131e+000 -2.9893e+000  1.1827e+001 63128 68562,68718,68692
 3.9000e+000 68744  1.8670e+001 -6.2265e+000 -2.5432e+001 63128 68614,68666,68640
 3.9000e+000 68885  6.6299e+000  2.7916e+001  2.7085e+000 63128 68614,68588,68859
 3.9000e+000 68908  4.0730e+000  1.7527e+001  1.0569e+001 63128 68614,68859,68692
 3.9000e+000 69237  4.6784e+000 -1.7224e+001  6.9392e+000 62731 69064,69116,69090
 3.9000e+000 69214 -2.3858e+000 -4.4839e+001  5.9898e-001 62731 69064,69142,69116
 3.9000e+000 69191 -6.0099e+000 -3.5011e+001  5.4182e+000 62731 69038,69142,69064
 3.9000e+000 69168  2.0954e+000 -7.2748e+001  5.1416e+000 62731 69012,69142,69038
 3.9000e+000 69539  4.3919e-002  2.0979e+001 -3.6119e+000 62433 69389,69467,69441
 3.9000e+000 69516  4.7908e+000 -5.6976e+000  1.0265e+000 62433 69363,69467,69389
 3.9000e+000 69493  4.1572e+000 -3.1345e+000  1.5983e+001 62433 69389,69441,69415
 3.9000e+000 69966  1.2619e+000 -2.3313e+001  1.2568e+001 62235 69989,69773,69721
 3.9000e+000 69943  1.0031e+001 -3.8387e+001 -4.3115e+000 62235 70061,69989,69721
 3.9000e+000 69920  1.9317e+001 -3.4322e+001  7.0193e-001 62235 70061,69721,69643
 3.9000e+000 69897  4.8104e+000  5.8525e+000  5.0162e+000 62235 69721,69773,69747
 3.9000e+000 69874 -1.6786e+001 -1.2713e+002  5.7543e-001 62235 69643,69721,69695
 3.9000e+000 69851  6.2477e+001  1.9328e+002 -2.9881e+001 62235 69643,69695,69669
 3.9000e+000 70015 -1.8661e+000 -3.8223e+001  6.8725e+000 62235 69799,69773,69989
 3.9000e+000 70038 -2.3904e+001 -5.4770e+001 -1.9771e+001 62235 69799,69989,69825
 3.9000e+000 70087 -5.8507e+000 -2.9345e+001 -3.0127e+000 62235 69825,69989,70061
 3.9000e+000 70110  5.7725e+000 -2.5377e+001  2.8846e-002 62235 69825,70061,69643
 3.9000e+000 70260  6.2070e+000 -1.0364e+000 -2.1481e+000 62037 70133,70185,70159
 3.9000e+000 70237  2.2351e-001 -2.4380e+000 -5.9217e+000 62037 70133,70211,70185
 3.9000e+000 70640 -7.5828e+000 -2.7076e+001  8.9444e+000 61583 70735,70663,70418
 3.9000e+000 70617 -1.5723e+001 -2.3765e+001  9.8237e+000 61583 70663,70366,70522
 3.9000e+000 70594 -5.1617e+000 -2.5598e+001  1.2093e+001 61583 70735,70418,70392
 3.9000e+000 70571 -1.5567e+001 -3.6076e+001  5.8561e+000 61583 70418,70496,70444
 3.9000e+000 70548 -3.2761e+001 -1.9477e+001  3.7127e+000 61583 70444,70496,70470
 3.9000e+000 70689 -1.6142e+001 -3.6264e+001  5.3870e+000 61583 70496,70418,70663
 3.9000e+000 70712 -2.3195e+001 -2.6678e+001  7.2776e+000 61583 70496,70663,70522
 3.9000e+000 70761 -1.6116e+001 -2.9316e+001  4.4760e+000 61583 70366,70663,70735
 3.9000e+000 70784 -1.1047e+001 -2.6697e+001  7.5886e+000 61583 70366,70735,70392
 3.9000e+000 71054 -1.8722e+000 -2.1166e-001  2.2074e+000 61313 71077,70881,70855
 3.9000e+000 71031 -1.1813e+000  3.5314e+000  1.1781e+000 61313 71077,70855,70829
 3.9000e+000 71008  9.3839e-002 -3.0719e-001 -3.3816e+000 61313 70829,70959,70933
 3.9000e+000 70985 -5.9260e-001  5.7796e-001 -7.8659e-002 61313 70881,70933,70907
 3.9000e+000 71103 -9.0580e-001  2.0217e+000  3.5695e-001 61313 70933,70881,71077
 3.9000e+000 71126 -1.2817e+000  4.2963e+000 -6.2707e-001 61313 70933,71077,70829
 3.9000e+000 71604 -2.6570e-001 -4.3163e+001  5.7309e+000 60909 71627,71232,71414
 3.9000e+000 71581 -4.9300e+000 -3.0447e+001 -9.3032e+000 60909 71232,71440,71414
 3.9000e+000 71558  2.8405e+000 -2.3730e+001  8.1940e+000 60909 71627,71414,71336
 3.9000e+000 71535  7.7975e+000 -8.0452e+001  2.3841e+001 60909 71362,71414,71388
 3.9000e+000 71512 -9.8597e+000 -5.6739e+001  6.4586e+000 60909 71336,71414,71362
 3.9000e+000 71489  3.4124e+000 -8.0920e+000 -2.3170e+000 60909 71258,71336,71310
 3.9000e+000 71466 -1.0302e+000 -6.5228e+000 -4.3261e+000 60909 71258,71310,71284
 3.9000e+000 71653  3.2590e+000 -2.6368e+001  5.9809e+000 60909 71258,71232,71627
 3.9000e+000 71676 -5.6155e-001 -1.6611e+001  8.7788e+000 60909 71258,71627,71336
 3.9000e+000 71875  6.6530e-001  2.5200e+000  3.3792e+000 60611 71898,71725,71699
 3.9000e+000 71852 -2.0919e+000  1.9903e+000  3.4892e+000 60611 71898,71699,71803
 3.9000e+000 71829  7.0436e+000  9.7656e+000 -4.2877e+000 60611 71970,71751,71725
 3.9000e+000 71924  6.0166e+000  4.6326e+000 -3.2042e-001 60611 71970,71725,71898
 3.9000e+000 71947 -1.7616e+000 -4.7936e+000  1.5112e+000 60611 71777,71898,71803
 3.9000e+000 71996  2.4487e+000  3.1058e+000 -1.9174e+000 60611 71777,71751,71970
 3.9000e+000 72019  2.9542e-001 -6.1860e-001  2.2947e+000 60611 71777,71970,71898
 3.9000e+000 72576  2.1664e+001 -8.0082e+001  1.1607e+001 60142 72599,72256,72230
 3.9000e+000 72553  3.2969e+001 -2.4711e+001  1.8551e+001 60142 72671,72599,72230
 3.9000e+000 72530 -2.6061e+000 -1.2258e+001  4.1290e+000 60142 72671,72230,72204
 3.9000e+000 72507 -3.5827e+000 -8.9461e+000  2.3197e+000 60142 72743,72360,72334
 3.9000e+000 72484  5.9684e+000 -7.3888e+000 -1.1767e+001 60142 72815,72282,72256
 3.9000e+000 72461  1.4251e+001  1.9729e+001  1.4984e+001 60142 72887,72308,72282
 3.9000e+000 72438 -1.2816e+001 -5.1124e+001 -8.8301e+000 60142 72204,72412,72386
 3.9000e+000 72625 -3.9878e+000 -5.3615e+001 -1.9011e+001 60142 72815,72256,72599
 3.9000e+000 72648  5.8812e+000 -2.3869e+001 -8.5018e-002 60142 72743,72334,72599
 3.9000e+000 72697  2.8984e+000 -5.2563e+001  5.4587e+000 60142 72386,72599,72671
 3.9000e+000 72720 -1.5000e+001 -3.1174e+001 -7.5256e+000 60142 72386,72671,72204
 3.9000e+000 72769  2.4632e+000 -2.3656e+001  2.6599e+001 60142 72386,72360,72743
 3.9000e+000 72792  7.7400e+000 -4.9790e+001  1.2233e+001 60142 72386,72743,72599
 3.9000e+000 72841  1.9134e+000  1.3024e+001  7.8959e-001 60142 72887,72282,72815
 3.9000e+000 72864  9.4229e+000 -1.3842e+001 -1.9680e+000 60142 72334,72815,72599
 3.9000e+000 72913 -3.8647e+000 -6.0715e-001  7.3286e+000 60142 72334,72308,72887
 3.9000e+000 72936 -1.0992e+001 -4.3003e+000 -5.2783e+000 60142 72334,72887,72815
 3.9000e+000 73491 -1.1991e-001 -7.2934e+001 -1.5492e+001 59738 73145,73327,73171
 3.9000e+000 73468  1.0719e+001 -6.8385e+001 -1.1500e+001 59738 73119,73327,73145
 3.9000e+000 73445  2.4375e+000 -2.1462e+001  6.0834e+000 59738 73171,73327,73301
 3.9000e+000 73422  8.2873e+000 -2.5774e+001 -2.3620e-001 59738 73514,73275,73249
 3.9000e+000 73399  7.6545e+000 -5.2828e+000 -5.7885e+000 59738 73586,73514,73249
 3.9000e+000 73376  1.3791e+001  2.2794e+001 -9.1598e+000 59738 73197,73249,73223
 3.9000e+000 73353  1.8077e+001  3.3481e+000 -1.7048e+001 59738 73586,73249,73197
 3.9000e+000 73540  5.2319e+000 -4.4338e+001 -7.3849e+000 59738 73301,73275,73514
 3.9000e+000 73563 -3.1263e+000 -2.8813e+001  3.6054e+000 59738 73301,73514,73171
 3.9000e+000 73612  6.0037e+000 -2.3699e+001  5.7861e+000 59738 73171,73514,73586
 3.9000e+000 73635  9.0041e+000 -1.5348e+001 -3.8964e+000 59738 73171,73586,73197
 3.9000e+000 73964  2.2522e+000 -4.4269e+001 -2.8633e+000 59334 73791,73843,73817
 3.9000e+000 73941  6.7077e-001 -4.8996e+001 -5.0966e+000 59334 73791,73869,73843
 3.9000e+000 73918 -5.7477e+000 -6.3101e+001 -7.7432e+000 59334 73739,73869,73791
 3.9000e+000 73895  4.5473e+000 -7.6312e+001 -5.8868e+000 59334 73739,73791,73765
 3.9000e+000 74261  6.9816e-001  1.0532e+001 -2.9182e+000 58630 74065,74117,74091
 3.9000e+000 74238  8.2405e+000 -6.7444e+000 -6.5810e+000 58630 74356,74284,74065
 3.9000e+000 74215  1.1917e+001 -8.9605e+000  1.4589e+000 58630 74284,74013,73987
 3.9000e+000 74192  4.5290e+000 -9.7739e+000 -1.5362e+001 58630 74356,74065,74039
 3.9000e+000 74169  3.5066e-001 -4.0928e+000 -7.2784e-001 58630 73987,74143,74117
 3.9000e+000 74310  1.0531e+001  1.1284e+001 -5.9009e+000 58630 74117,74065,74284
 3.9000e+000 74333  1.2865e+000 -2.0496e+000 -6.2091e-001 58630 74117,74284,73987
 3.9000e+000 74382  2.1317e+001  1.2716e+000 -2.5625e+000 58630 74013,74284,74356
 3.9000e+000 74405  1.8063e+001 -1.8665e+000 -1.1414e+001 58630 74013,74356,74039
 3.9000e+000 74815 -3.1289e+000 -3.1651e+001 -1.9539e+000 58226 74590,74642,74616
 3.9000e+000 74792 -4.9271e+000 -3.8256e+001 -1.8900e+000 58226 74590,74694,74642
 3.9000e+000 74769  4.3615e+000 -6.6482e+001  1.1722e+001 58226 74590,74720,74694
 3.9000e+000 74746 -7.8762e+000 -2.6527e+001 -2.5192e+000 58226 74642,74694,74668
 3.9000e+000 75014  2.3226e-001  9.6786e-002 -4.3931e-002 57786 75037,74864,74838
 3.9000e+000 74991  1.2273e-001 -6.9243e+000 -1.8507e+000 57786 75037,74838,74916
 3.9000e+000 74968 -2.9384e-001 -7.2507e+000 -1.5927e+000 57786 74838,74942,74916
 3.9000e+000 75063  9.0949e-001  7.4850e+000  2.1118e+000 57786 74890,74864,75037
 3.9000e+000 75086 -1.0452e-001 -5.9513e-001  1.3532e-001 57786 74890,75037,74916
 3.9000e+000 75368 -1.5099e+001  1.4827e+001  7.8065e+000 57496 75192,75270,75218
 3.9000e+000 75345  2.3169e+001  2.7705e+001  4.0445e+000 57496 75192,75296,75270
 3.9000e+000 75322  1.2482e+001  1.6867e+001  2.7859e+001 57496 75218,75270,75244
 3.9000e+000 75648  5.6672e+000 -1.4204e+000 -1.0941e+001 57206 75472,75550,75498
 3.9000e+000 75625 -2.3090e+000  3.3286e+000 -5.2198e+000 57206 75472,75576,75550
 3.9000e+000 75602 -9.3577e+000  1.2046e+001  1.1334e+001 57206 75671,75550,75524
 3.9000e+000 75697  1.2066e+001  1.4397e-001  1.2460e+001 57206 75498,75550,75671
 3.9000e+000 76154 -3.1054e+000 -1.7026e+001  6.7209e+000 56802 75958,76010,75984
 3.9000e+000 76131  9.3348e-001 -5.1125e+000  5.7688e+000 56802 75932,76010,75958
 3.9000e+000 76108 -1.8843e+000 -1.5492e+001  7.3594e+000 56802 75906,76010,75932
 3.9000e+000 76085 -4.3684e+000  6.6291e-002  7.8001e+000 56802 75880,76010,75906
 3.9000e+000 76062  6.4978e+000  8.9358e-001 -2.9605e+000 56802 75880,76036,76010
 3.9000e+000 76505  5.9332e-001 -8.0334e-002 -5.6914e-001 56504 76306,76384,76332
 3.9000e+000 76482 -4.7545e-001 -4.2517e-001 -4.0688e-001 56504 76306,76410,76384
 3.9000e+000 76459  1.5676e+000  4.7986e-001 -2.5604e-001 56504 76332,76384,76358
 3.9000e+000 76436  1.5988e-001 -9.1761e-002 -2.8548e-001 56504 76280,76410,76306
 3.9000e+000 77011  2.8179e+001  5.9618e+000 -1.6567e+001 56050 76740,76818,76792
 3.9000e+000 76988  1.1780e+001 -6.6192e-001 -1.7592e+001 56050 76714,76818,76740
 3.9000e+000 76965  1.5840e+001 -6.3166e+000 -1.7425e+001 56050 76688,76818,76714
 3.9000e+000 76942  4.2632e+001  2.6233e+001  8.6294e-001 56050 76688,76844,76818
 3.9000e+000 76919  1.8952e+001 -9.2543e+000 -1.1901e+001 56050 76740,76792,76766
 3.9000e+000 76896  2.7642e+001  2.5765e+000  8.1567e+000 56050 76688,76870,76844
 3.9000e+000 77517 -3.1837e+001 -1.3536e+001  1.8793e+001 55738 77220,77350,77324
 3.9000e+000 77494  7.2041e+000 -2.9345e+001 -4.1436e+000 55738 77220,77376,77350
 3.9000e+000 77471  1.7547e+001  6.4165e+000 -5.4699e+000 55738 77194,77376,77220
 3.9000e+000 77448  1.7350e+000 -1.5572e+001  8.0524e+000 55738 77220,77298,77246
 3.9000e+000 77425 -1.2306e+001 -9.8288e+000  2.1137e+001 55738 77220,77324,77298
 3.9000e+000 77402 -1.9455e+001 -1.9301e+001  4.9825e+001 55738 77246,77298,77272
 3.9000e+000 78064  2.2803e+001 -1.3137e+001 -3.6127e+000 55227 78231,78087,77773
 3.9000e+000 78041 -4.0764e+000 -3.9901e+001 -4.3112e+000 55227 78087,77695,77643
 3.9000e+000 78018  2.5999e+000 -3.7147e+001 -1.6963e+001 55227 78159,77799,77773
 3.9000e+000 77995  1.5297e+001  1.1589e+000  4.1680e-001 55227 78231,77773,77721
 3.9000e+000 77972 -3.5828e+000 -3.2769e+000  6.0935e+000 55227 77643,77695,77669
 3.9000e+000 77949  1.3593e+000 -1.1306e+000 -8.7157e+000 55227 77643,77877,77851
 3.9000e+000 77926 -6.3008e+000 -3.0892e+000 -1.2138e+001 55227 77799,77851,77825
 3.9000e+000 77903  1.7702e+001  1.1462e+001 -5.8546e+000 55227 77721,77773,77747
 3.9000e+000 78113  1.3135e+001 -3.3762e+001 -1.2218e+001 55227 78159,77773,78087
 3.9000e+000 78136  1.0045e+001 -6.8884e+000 -5.7753e+000 55227 77851,78087,77643
 3.9000e+000 78185 -1.8552e+001 -2.6616e+001 -1.9023e+001 55227 77851,77799,78159
 3.9000e+000 78208 -8.8612e+000 -2.4816e+001 -1.5224e+001 55227 77851,78159,78087
 3.9000e+000 78257  1.5225e+001 -2.8717e+001 -9.4615e+000 55227 77695,78087,78231
 3.9000e+000 78280  5.6711e+000 -1.4415e+001 -6.8211e+000 55227 77695,78231,77721
 3.9000e+000 78737  1.0271e+001 -8.8631e+000 -3.8298e+000 54773 78463,78541,78515
 3.9000e+000 78714 -5.3198e+000 -1.8132e+001  5.9902e-001 54773 78463,78619,78541
 3.9000e+000 78691  1.5465e+001  5.7929e+000  2.8990e+000 54773 78463,78515,78489
 3.9000e+000 78668 -9.5583e+000 -8.5662e+000 -3.8307e+000 54773 78541,78593,78567
 3.9000e+000 78645 -2.9265e-001 -1.2135e+001 -5.3860e+000 54773 78541,78619,78593
 3.9000e+000 78838 -2.0773e-001  6.5038e+000  8.6807e-002 54211 78760,78812,78786
 3.9000e+000 79297  1.2501e+001 -7.4877e+000  3.7731e+000 53814 79520,79153,79049
 3.9000e+000 79274  1.0431e+001 -3.1925e-002 -6.2597e+000 53814 79520,79049,79023
 3.9000e+000 79251  2.8945e+000  9.5983e+000  5.8701e+000 53814 79320,79101,79049
 3.9000e+000 79228  2.5198e+000  8.8853e+000  4.4209e+000 53814 79320,79049,79153
 3.9000e+000 79205  6.9920e+000  1.0701e+000  4.8212e+000 53814 79049,79101,79075
 3.9000e+000 79346  3.7661e+000  1.2404e+001  6.4604e+000 53814 79392,79320,79127
 3.9000e+000 79369  5.0107e+000  9.8756e+000  5.6354e+000 53814 79127,79320,79153
 3.9000e+000 79418  2.5669e+000  9.4571e+000  5.6926e+000 53814 79101,79320,79392
 3.9000e+000 79546  6.2439e+000 -2.1132e+001  7.4586e+000 53814 79179,79153,79520
 3.9000e+000 79569  9.1338e+000 -1.1560e+001 -4.7134e+000 53814 79179,79520,79023
 3.9000e+000 80075 -2.0524e+001 -7.5607e+000  1.5307e+001 53039 80098,79908,79830
 3.9000e+000 80052 -2.4487e+001  3.5461e-001 -6.0487e+000 53039 80098,79830,79804
 3.9000e+000 80029  1.8154e+000  1.3464e+001 -4.4807e+000 53039 79752,79934,79804
 3.9000e+000 80006  4.4015e-001 -3.8199e+001  1.8520e+001 53039 79856,79908,79882
 3.9000e+000 79983  1.2805e+001 -5.9583e+001  1.6443e+001 53039 79830,79908,79856
 3.9000e+000 79960 -1.0466e+000  4.7954e+000 -4.2821e+000 53039 79752,79804,79778
 3.9000e+000 80124  1.3147e+001  4.9067e+000  1.4301e+001 53039 79934,79908,80098
 3.9000e+000 80147 -9.0262e+000  6.1674e+000 -7.7276e+000 53039 79934,80098,79804
 3.9000e+000 80555  3.0009e+001  2.2838e+001 -2.0521e+000 52699 80356,80434,80408
 3.9000e+000 80532  6.0947e+000  2.3647e+000  6.8150e+000 52699 80356,80460,80434
 3.9000e+000 80509 -4.9967e+000 -7.9779e+000  8.5568e-001 52699 80330,80460,80356
 3.9000e+000 80486 -1.3087e+001 -6.6076e+000  3.7017e+001 52699 80356,80408,80382
 3.9000e+000 80776  1.4032e+001  3.4653e+001 -1.2581e+001 52295 80600,80678,80626
 3.9000e+000 80753 -1.5745e+001  1.1089e+001 -2.3450e+000 52295 80600,80704,80678
 3.9000e+000 80730 -4.0644e+001  1.2448e+001 -8.3307e+000 52295 80626,80678,80652
 3.9000e+000 81156  6.8956e+000 -2.1316e+001  8.1671e+000 51891 81179,80960,80908
 3.9000e+000 81133  6.1292e+000 -2.6966e+001 -6.6588e+000 51891 81179,80908,81012
 3.9000e+000 81110 -7.8374e+000 -8.3582e+000 -1.5866e+001 51891 80882,81012,80908
 3.9000e+000 81087  8.6614e+000 -1.1924e+000  1.2361e+001 51891 80908,80960,80934
 3.9000e+000 81064 -2.7759e+000  1.9430e+000 -1.7726e+001 51891 80882,81038,81012
 3.9000e+000 81205  2.5323e+001 -1.0634e+001  1.5345e+001 51891 80986,80960,81179
 3.9000e+000 81228  1.1806e+001 -2.3248e+001 -6.0986e-001 51891 80986,81179,81012
 3.9000e+000 81606  3.4168e+000 -1.5299e+002 -4.5877e+001 51544 81410,81462,81436
 3.9000e+000 81583  1.7937e+001 -4.6900e+001  5.1774e-001 51544 81384,81462,81410
 3.9000e+000 81560 -1.2854e+001 -6.1144e+001 -1.0007e+001 51544 81358,81462,81384
 3.9000e+000 81537 -7.5797e+000 -5.0902e+001 -2.5711e+001 51544 81358,81488,81462
 3.9000e+000 81514  4.3437e+000 -1.8624e+001 -2.1059e+001 51544 81332,81488,81358
 3.9000e+000 81854  3.5800e-001 -1.3443e+001 -7.5243e-002 51004 81877,81655,81629
 3.9000e+000 81831  4.5196e-001  2.0694e-001 -2.9076e+000 51004 81877,81629,81759
 3.9000e+000 81808  9.5658e+000 -5.7021e-001  1.4169e+001 51004 81655,81707,81681
 3.9000e+000 81785 -3.0728e+000  6.3754e-001 -1.5701e+000 51004 81707,81759,81733
 3.9000e+000 81903  1.8963e+000 -2.0064e+001  6.9513e-001 51004 81707,81655,81877
 3.9000e+000 81926 -3.4798e+000 -1.5107e+001 -4.3656e+000 51004 81707,81877,81759
 3.9000e+000 82257 -9.1607e+000 -3.7108e+001 -8.4509e+000 50642 82058,82136,82110
 3.9000e+000 82234 -1.4935e+001 -4.3605e+000 -1.7569e+001 50642 82058,82162,82136
 3.9000e+000 82211  4.4746e+000 -2.0868e+001 -3.0378e+001 50642 82058,82110,82084
 3.9000e+000 82188  4.1021e+001  1.8178e+001  3.0415e+000 50642 82032,82162,82058
 3.9000e+000 82684  3.1026e+001 -1.0353e+002  2.2634e+001 49931 82779,82707,82465
 3.9000e+000 82661 -5.5541e+000 -1.2337e+002  2.2022e+001 49931 82707,82413,82361
 3.9000e+000 82638 -1.8931e+000 -1.0212e+002 -1.6911e+001 49931 82779,82465,82439
 3.9000e+000 82615  1.5232e+001 -2.6090e+002  2.4679e+001 49931 82465,82543,82491
 3.9000e+000 82592 -1.2253e+001 -9.2983e+001 -3.6789e+000 49931 82361,82413,82387
 3.9000e+000 82569  7.1775e+000 -2.0240e+002  2.4631e+001 49931 82491,82543,82517
 3.9000e+000 82733  7.3759e+001 -1.2429e+002  1.9943e+001 49931 82543,82465,82707
 3.9000e+000 82756  2.1228e+001 -1.0777e+002  9.4937e+000 49931 82543,82707,82361
 3.9000e+000 82805  3.1741e+000 -1.6054e+002 -2.1964e+000 49931 82413,82707,82779
 3.9000e+000 82828 -1.4417e+001 -1.4789e+002 -3.9711e+001 49931 82413,82779,82439
 3.9000e+000 83255  1.7047e+000 -1.1968e+002 -1.6758e+001 49327 82984,83114,83036
 3.9000e+000 83232 -1.1840e+001 -1.4739e+002 -4.2670e+001 49327 82958,83114,82984
 3.9000e+000 83209 -1.9742e+001 -1.7182e+002  2.2229e+000 49327 83036,83114,83088
 3.9000e+000 83186 -3.4829e+001 -7.9369e+001  1.4122e+001 49327 82984,83036,83010
 3.9000e+000 83163 -1.6932e+001 -1.3136e+002 -3.3880e+001 49327 82932,83114,82958
 3.9000e+000 83140 -4.6864e+001 -2.8935e+002 -2.6244e+000 49327 83036,83088,83062
 3.9000e+000 83938 -1.5325e+001 -1.7612e+002  4.3314e+001 48965 83961,83673,83647
 3.9000e+000 83915  1.4100e+001 -6.4373e+001  4.9849e+001 48965 83961,83647,83543
 3.9000e+000 83892 -1.1772e+001 -7.9822e+001 -1.2775e+001 48965 83517,83725,83543
 3.9000e+000 83869 -2.9679e+001 -1.2453e+002 -2.3552e+001 48965 83673,83725,83699
 3.9000e+000 83846 -1.4728e+001 -2.6882e+001  7.6910e+000 48965 83543,83647,83621
 3.9000e+000 83823 -7.9909e+000 -4.2627e+001  4.7049e+000 48965 83543,83621,83569
 3.9000e+000 83800 -1.1763e+001 -7.9531e+001 -1.1658e+001 48965 83517,83751,83725
 3.9000e+000 83777 -5.2742e+000 -3.9788e+001  9.8160e+000 48965 83569,83621,83595
 3.9000e+000 83987 -1.3369e+001 -1.5910e+002 -2.8732e+001 48965 83725,83673,83961
 3.9000e+000 84010  5.9444e+000 -1.1272e+002 -9.0841e+000 48965 83725,83961,83543
 3.9000e+000 84258 -8.8987e+000 -1.1308e+002  1.7674e+001 48447 84281,84059,84033
 3.9000e+000 84235  2.7924e-001 -8.7461e+001 -3.3310e-001 48447 84281,84033,84163
 3.9000e+000 84212  1.3841e+001 -7.6246e+001 -1.3831e+001 48447 84059,84111,84085
 3.9000e+000 84189  1.7835e+001 -7.1166e+001 -2.2010e+001 48447 84111,84163,84137
 3.9000e+000 84307  6.6863e+000 -1.0683e+002 -2.5244e+000 48447 84111,84059,84281
 3.9000e+000 84330  2.2571e+001 -8.9160e+001 -1.9958e+001 48447 84111,84281,84163
 3.9000e+000 84529  2.7151e+001 -5.6128e+001  2.4601e-001 47993 84552,84405,84379
 3.9000e+000 84506  9.3694e+000 -6.2528e+001  4.4022e-001 47993 84552,84379,84353
 3.9000e+000 84483  1.1397e+001 -6.3213e+001 -9.1630e+000 47993 84624,84457,84431
 3.9000e+000 84578  3.5659e+001 -5.8237e+001 -1.0005e+001 47993 84431,84405,84552
 3.9000e+000 84601  1.7234e+001 -6.4585e+001 -7.6362e+000 47993 84624,84431,84552
 3.9000e+000 84650  1.7530e+001 -6.4054e+001 -4.8403e+000 47993 84353,84457,84624
 3.9000e+000 84673  2.6154e+001 -6.0558e+001 -1.6308e+000 47993 84353,84624,84552
 3.9000e+000 85104 -1.5742e+001 -1.3242e+002 -8.3039e+000 47588 85199,85127,84885
 3.9000e+000 85081 -1.3435e+001 -1.4960e+002 -1.3410e+001 47588 85127,84781,84963
 3.9000e+000 85058 -3.7897e+001 -1.2618e+002  1.7842e+001 47588 85199,84885,84807
 3.9000e+000 85035  7.3769e+000 -8.5886e+001  4.5162e+001 47588 84885,84937,84911
 3.9000e+000 85012 -1.6516e+001 -7.7820e+001  1.4746e+000 47588 84807,84885,84833
 3.9000e+000 84989 -1.7370e+001 -7.6617e+001  3.8550e+001 47588 84833,84885,84859
 3.9000e+000 85153 -1.6334e+001 -1.5750e+002 -1.2927e+000 47588 84937,84885,85127
 3.9000e+000 85176  3.2495e+001 -1.4675e+002 -6.9060e-002 47588 84937,85127,84963
 3.9000e+000 85225 -5.8920e+001 -1.4998e+002 -9.2625e+000 47588 84781,85127,85199
 3.9000e+000 85248 -7.1788e+001 -1.4073e+002  2.0237e+001 47588 84781,85199,84807
 3.9000e+000 85518 -3.7217e+001 -2.6261e+002  4.1547e+001 47226 85293,85397,85319
 3.9000e+000 85495 -1.9607e+001 -2.3538e+002  2.0307e+001 47226 85293,85423,85397
 3.9000e+000 85472 -1.1505e+001 -2.7423e+002 -1.0868e+001 47226 85319,85397,85345
 3.9000e+000 85449  3.1713e+001 -5.5332e+001 -1.4887e+001 47226 85345,85397,85371
 3.9000e+000 85849 -2.1320e+001 -1.2247e+002  4.2247e+001 46572 85624,85702,85650
 3.9000e+000 85826 -1.2847e+001 -1.6156e+002  4.6351e+000 46572 85624,85754,85702
 3.9000e+000 85803  3.6290e+001 -8.0309e+001  3.0595e+001 46572 85702,85754,85728
 3.9000e+000 85780 -1.6408e+001 -1.2350e+002  5.0796e+001 46572 85650,85702,85676
 3.9000e+000 86070 -1.0415e+002 -1.5506e+002 -4.5447e+000 46374 85920,85972,85946
 3.9000e+000 86047 -6.0794e+001 -5.3237e+001  1.3068e+000 46374 85920,85998,85972
 3.9000e+000 86024 -3.8602e+001 -3.6407e+001  1.4460e+001 46374 85894,85998,85920
 3.9000e+000 86401  9.7166e+000 -7.3300e+001  7.0238e+000 46034 86424,86280,86228
 3.9000e+000 86378 -1.6218e+001 -7.5508e+001  3.6153e+000 46034 86424,86228,86176
 3.9000e+000 86355 -2.1562e+001 -6.0475e+001 -2.0421e+001 46034 86176,86228,86202
 3.9000e+000 86332  3.2824e+001 -6.3077e+001 -2.6702e+001 46034 86228,86280,86254
 3.9000e+000 86450  5.9426e+001 -8.2703e+001 -3.7475e+000 46034 86306,86280,86424
 3.9000e+000 86473  8.1935e+000 -1.0229e+002 -1.0374e+001 46034 86306,86424,86176
 3.9000e+000 87058  1.0596e+001 -6.9150e+001  1.6782e+001 45516 86813,86917,86865
 3.9000e+000 87035 -1.3837e+000 -1.0752e+002  6.9488e+000 45516 86787,86917,86813
 3.9000e+000 87012  6.4834e+000 -1.1292e+002  1.2188e+001 45516 86735,86917,86787
 3.9000e+000 86989  2.3961e+000 -6.2204e+001  1.4039e+001 45516 86865,86917,86891
 3.9000e+000 86966  1.2331e+001 -6.3140e+001  1.8134e+001 45516 86813,86865,86839
 3.9000e+000 86943 -1.0032e+001 -1.9882e+002 -2.4805e+000 45516 86735,86787,86761
 3.9000e+000 87208  4.6329e+001 -3.7809e+001 -1.6889e+001 45226 87231,87133,87107
 3.9000e+000 87185  1.3551e+001 -1.9723e+001 -5.1139e+000 45226 87081,87159,87133
 3.9000e+000 87257  3.5447e+001  2.5355e+001 -1.4890e+001 45226 87081,87133,87231
 3.9000e+000 87537  7.8601e+000 -8.8100e+001  1.8317e+001 44772 87387,87439,87413
 3.9000e+000 87514 -1.2129e+001 -9.4356e+001  1.5299e+001 44772 87361,87439,87387
 3.9000e+000 87491  9.3245e+000 -7.0891e+001  6.3614e+000 44772 87361,87465,87439
 3.9000e+000 87996 -1.4425e+000  2.4267e+001  1.1303e+001 44425 87748,87878,87852
 3.9000e+000 87973  1.5503e-001  2.5567e+001  4.6348e-001 44425 87722,87878,87748
 3.9000e+000 87950  3.1048e+000  1.4783e+001  7.1093e+000 44425 87800,87852,87826
 3.9000e+000 87927  3.2007e+001  2.4830e+001  7.1206e+000 44425 87748,87852,87800
 3.9000e+000 87904  3.0516e+000  6.3658e+000 -1.1794e+001 44425 87748,87800,87774
 3.9000e+000 88423 -8.8920e+000 -7.6980e+001  1.7451e+001 44078 88590,88230,88204
 3.9000e+000 88400 -5.5979e+000 -4.9748e+001  1.9948e+001 44078 88518,88446,88204
 3.9000e+000 88377  8.3373e+000 -8.0855e+001 -1.4073e+001 44078 88446,88126,88282
 3.9000e+000 88354 -1.2501e+001 -3.4075e+001  1.0922e+001 44078 88518,88204,88178
 3.9000e+000 88331  4.1888e+000 -1.0233e+002 -1.4759e+001 44078 88100,88282,88126
 3.9000e+000 88308 -1.0665e+001 -6.4609e+001  2.5254e+001 44078 88126,88178,88152
 3.9000e+000 88472 -1.1863e+001 -8.3981e+001  1.7580e+001 44078 88590,88204,88446
 3.9000e+000 88495 -1.2301e+001 -1.4426e+002 -1.9403e+001 44078 88256,88446,88282
 3.9000e+000 88544 -7.7440e+000 -8.5381e+001  2.0199e+001 44078 88126,88446,88518
 3.9000e+000 88567 -4.6056e+000 -5.5480e+001  1.2560e+001 44078 88126,88518,88178
 3.9000e+000 88616 -4.8991e+001 -1.9499e+002 -2.0534e+000 44078 88256,88230,88590
 3.9000e+000 88639 -5.5551e+000 -7.8516e+001  7.9720e+000 44078 88256,88590,88446
 3.9000e+000 89039  1.4643e+001  2.4486e+001  6.3137e+000 43716 88791,88921,88895
 3.9000e+000 89016  1.0862e+001  3.0024e+001  6.7507e+000 43716 88765,88921,88791
 3.9000e+000 88993  3.4133e+001  4.9764e+000  1.1033e+001 43716 88817,88895,88869
 3.9000e+000 88970  1.0054e+001  1.2402e+001  1.8546e+001 43716 88791,88895,88817
 3.9000e+000 88947  7.1999e+000  1.2127e+001 -4.4098e+000 43716 88817,88869,88843
 3.9000e+000 89496  3.3041e+000 -1.2202e+002 -1.2375e+001 43162 89519,89274,89248
 3.9000e+000 89473  1.1093e+001 -7.5198e+001 -2.8383e+000 43162 89519,89248,89222
 3.9000e+000 89450  9.2479e+000 -5.7170e+001 -1.9960e+001 43162 89326,89378,89352
 3.9000e+000 89427 -3.9805e-001 -7.6301e+001 -5.4457e+000 43162 89274,89378,89326
 3.9000e+000 89404  5.2606e+000 -7.7020e+001 -4.5119e+000 43162 89274,89326,89300
 3.9000e+000 89545 -1.2849e-001 -7.9210e+001 -1.0236e+000 43162 89378,89274,89519
 3.9000e+000 89568  1.0435e+001 -2.9021e+001  9.1071e+000 43162 89378,89519,89222
 3.9000e+000 89946 -1.1560e+001 -6.4101e+001 -6.5040e+001 42594 90041,89969,89750
 3.9000e+000 89923 -8.0091e+000 -5.8343e+001 -2.3661e+001 42594 89969,89698,89828
 3.9000e+000 89900  2.4009e+001 -7.8745e+001 -5.8472e+001 42594 90041,89750,89724
 3.9000e+000 89877 -2.2563e+001 -3.6431e+001 -2.2420e+001 42594 89750,89802,89776
 3.9000e+000 89854  2.4646e+001 -2.9040e+001 -7.0980e+000 42594 89672,89828,89698
 3.9000e+000 89995 -4.2101e+001 -4.9073e+001 -4.3924e+001 42594 89802,89750,89969
 3.9000e+000 90018  1.2409e+001  7.6945e+000 -9.6053e+000 42594 89802,89969,89828
 3.9000e+000 90067  2.1941e+001 -4.7489e+001 -5.1540e+001 42594 89698,89969,90041
 3.9000e+000 90090  6.3184e+001 -6.5494e+001 -5.4661e+001 42594 89698,90041,89724
 3.9000e+000 90517  1.9907e+001 -8.4436e+001 -1.1238e+001 42140 90540,90220,90194
 3.9000e+000 90494  2.4986e+001 -8.8330e+001 -1.3378e+001 42140 90540,90194,90376
 3.9000e+000 90471 -1.0780e+000 -9.2849e+001  2.8507e+000 42140 90612,90350,90272
 3.9000e+000 90448 -1.3990e+001 -8.2899e+001 -3.0602e+000 42140 90272,90350,90298
 3.9000e+000 90425 -1.0187e+001 -6.9163e+001  1.2889e-001 42140 90298,90350,90324
 3.9000e+000 90402  3.0135e+001 -4.5441e+001  2.1690e+000 42140 90220,90272,90246
 3.9000e+000 90566  1.7836e+001 -4.9108e+001 -8.0767e+000 42140 90272,90220,90540
 3.9000e+000 90589  1.6158e+000 -8.6701e+001 -1.7332e+000 42140 90612,90272,90540
 3.9000e+000 90638  9.9789e+000 -1.0475e+002 -8.0982e+000 42140 90376,90350,90612
 3.9000e+000 90661  2.4524e+001 -8.7966e+001 -1.4962e+001 42140 90376,90612,90540
 3.9000e+000 91167 -1.1792e+001 -4.2298e+001  2.3553e+000 41636 91190,90870,90844
 3.9000e+000 91144 -1.9704e+001 -1.7728e+002  6.3884e+000 41636 91190,90844,91026
 3.9000e+000 91121 -4.2446e+000 -1.2924e+001 -1.8286e+001 41636 90870,90922,90896
 3.9000e+000 91098  1.7026e+001 -1.4321e+002  3.1404e+000 41636 90922,91026,90948
 3.9000e+000 91075  3.6411e+001 -1.1964e+002 -1.4974e+001 41636 90948,91026,91000
 3.9000e+000 91052 -4.9199e+001 -9.6339e+001  6.0762e+001 41636 90948,91000,90974
 3.9000e+000 91216 -2.6144e+001 -5.0348e+000  4.1676e+000 41636 90922,90870,91190
 3.9000e+000 91239  2.9869e+001 -5.1972e+001  2.6686e+001 41636 90922,91190,91026
 3.9000e+000 91696  8.7075e+000 -8.4501e+001 -7.6467e+000 40449 91448,91526,91474
 3.9000e+000 91673 -3.4960e+001 -1.0800e+002  4.5367e+000 40449 91448,91578,91526
 3.9000e+000 91650  1.6655e+001 -6.2722e+000 -7.4736e+000 40449 91474,91526,91500
 3.9000e+000 91627  6.5345e+000 -8.0574e+001  1.6726e+001 40449 91422,91578,91448
 3.9000e+000 91604  2.9195e+001 -7.4935e+001 -1.4689e+001 40449 91526,91578,91552
 3.9000e+000 92123  1.1686e+000 -9.4031e+001  2.4785e-001 39995 92146,91904,91826
 3.9000e+000 92100 -1.7530e+001 -1.0470e+002 -1.7878e+001 39995 92146,91826,91800
 3.9000e+000 92077 -4.9389e+001 -5.7138e+001 -6.8274e+000 39995 91826,91904,91852
 3.9000e+000 92054 -2.5178e+001 -1.9321e+002 -3.2623e+001 39995 91904,91982,91930
 3.9000e+000 92031  4.9629e+000 -2.8189e+001  1.0091e+001 39995 91852,91904,91878
 3.9000e+000 92008 -5.7541e+000 -1.4830e+002 -3.9124e+001 39995 91930,91982,91956
 3.9000e+000 92172  1.3948e+001 -1.1675e+002 -1.9007e+001 39995 91982,91904,92146
 3.9000e+000 92195 -6.4847e+000 -1.4477e+002 -3.5181e+001 39995 91982,92146,91800
 3.9000e+000 92652  2.6064e+000  2.6657e+001  1.1790e+001 39633 92404,92534,92456
 3.9000e+000 92629 -9.1443e+000  2.0424e+001  7.4151e+000 39633 92378,92534,92404
 3.9000e+000 92606 -1.6248e+001  1.8598e+001  1.1727e+001 39633 92404,92456,92430
 3.9000e+000 92583  3.8597e+000  9.0812e+000  6.1974e+000 39633 92456,92534,92508
 3.9000e+000 92560  2.7859e+000  6.2837e+000  5.8533e+000 39633 92456,92508,92482
 3.9000e+000 93079  7.8669e-001 -3.3719e+001 -8.3895e+000 39093 93102,92808,92756
 3.9000e+000 93056  5.0055e+000 -3.6415e+001 -5.1312e+000 39093 93102,92756,92938
 3.9000e+000 93033  6.2609e-001 -3.5262e+001 -1.3497e+000 39093 93174,92912,92834
 3.9000e+000 93010 -3.0359e+000 -1.4660e+001  8.8109e+000 39093 92834,92912,92860
 3.9000e+000 92987  3.1996e+000 -5.3988e+001 -1.6640e+001 39093 92756,92808,92782
 3.9000e+000 92964  4.7092e+000 -2.3536e+000  1.9191e+000 39093 92860,92912,92886
 3.9000e+000 93128  3.6120e+000 -2.1995e+001 -6.4148e+000 39093 92834,92808,93102
 3.9000e+000 93151  3.6467e-001 -3.4335e+001 -4.2270e+000 39093 93174,92834,93102
 3.9000e+000 93200  2.7886e+000 -3.3779e+001 -2.9556e+000 39093 92938,92912,93174
 3.9000e+000 93223  5.7936e+000 -3.2389e+001 -5.6695e+000 39093 92938,93174,93102
 3.9000e+000 93680  3.2101e-001  5.8235e+000  1.8931e+000 38639 93703,93536,93484
 3.9000e+000 93657  1.2721e+000  4.8128e+000  1.7301e+000 38639 93703,93484,93432
 3.9000e+000 93634  2.7380e+000  2.9553e+000  4.4883e+000 38639 93432,93484,93458
 3.9000e+000 93611  2.9631e-001  6.1931e+000  3.0589e+000 38639 93484,93536,93510
 3.9000e+000 93588  1.4238e+001  1.8451e+001  8.4855e+000 38639 93406,93562,93432
 3.9000e+000 93729  9.7311e-001  6.7748e+000  2.2023e+000 38639 93562,93536,93703
 3.9000e+000 93752  1.8899e+000  5.4516e+000  2.0848e+000 38639 93562,93703,93432
 3.9000e+000 94160  4.8462e+000  1.8797e+001  7.6088e+000 38292 93935,94039,93961
 3.9000e+000 94137 -2.7780e+000 -2.6123e+000  1.1655e+001 38292 93935,94065,94039
 3.9000e+000 94114 -1.5622e+001 -3.2010e+001 -5.1848e+000 38292 93961,94013,93987
 3.9000e+000 94091  1.1327e+001 -3.8190e+001  9.5003e+000 38292 93961,94039,94013
 3.9000e+000 94408  3.2193e+001 -3.8492e+000  1.4554e+001 37880 94431,94261,94235
 3.9000e+000 94385  5.1160e+001 -9.3015e+000  2.3051e+001 37880 94431,94235,94313
 3.9000e+000 94362  4.3761e+001 -2.1160e+001  2.7148e+001 37880 94209,94313,94235
 3.9000e+000 94339  6.5196e+001  4.8294e+001 -2.7068e+000 37880 94183,94313,94209
 3.9000e+000 94457 -2.7401e+000 -3.5827e+000  1.8043e+001 37880 94287,94261,94431
 3.9000e+000 94480  3.1461e+001  1.4491e+000  2.2920e+001 37880 94287,94431,94313
 3.9000e+000 94728 -3.1850e+001 -1.0589e+002  2.6515e-001 37426 94529,94607,94555
 3.9000e+000 94705  6.1070e+000 -1.9041e+002 -2.1240e+001 37426 94529,94633,94607
 3.9000e+000 94682 -1.0303e+001 -2.0402e+002 -2.7157e+001 37426 94503,94633,94529
 3.9000e+000 94659 -1.6967e+001 -4.7061e+001 -2.8272e+001 37426 94555,94607,94581
 3.9000e+000 95257  6.8664e+000 -1.0583e+001  2.7098e+000 36722 95496,95280,94862
 3.9000e+000 95234 -1.2572e+001 -1.8694e+001  4.0432e+000 36722 95496,94862,94836
 3.9000e+000 95211 -2.5253e+000 -3.8914e+000 -6.9863e+000 36722 95352,95280,95070
 3.9000e+000 95188 -3.0371e+000 -1.9128e+000 -5.6733e+000 36722 95352,95070,95044
 3.9000e+000 95165 -1.8859e+001 -2.6709e+001  1.4930e+001 36722 95424,94888,94862
 3.9000e+000 95142 -2.0221e+001  6.9102e+000 -2.2657e+000 36722 94914,94966,94940
 3.9000e+000 95119 -3.3506e+000  2.7816e-001 -6.1432e+000 36722 94966,95044,95018
 3.9000e+000 95096 -5.6145e+000 -7.4394e+000 -5.2627e+000 36722 94966,95018,94992
 3.9000e+000 95306  6.9631e+000 -1.1448e+001  3.2894e+000 36722 95424,94862,95280
 3.9000e+000 95329  1.5315e+001  1.2276e+001 -1.5044e+001 36722 94914,95280,94966
 3.9000e+000 95378 -4.0832e+000 -4.9629e+000 -7.7089e+000 36722 94966,95280,95352
 3.9000e+000 95401 -5.1998e+000 -3.9219e+000 -6.5706e+000 36722 94966,95352,95044
 3.9000e+000 95450  1.6582e+001 -4.5894e+000  4.7506e+000 36722 94914,94888,95424
 3.9000e+000 95473  1.9192e+001 -1.0491e+001 -1.0315e+000 36722 94914,95424,95280
 3.9000e+000 95522  9.4979e+000 -1.1182e+001  1.6457e+000 36722 95070,95280,95496
 3.9000e+000 95545  8.3791e+000 -9.7258e+000  2.6407e+000 36722 95070,95496,94836
 3.9000e+000 96130  1.3985e+000  1.0137e-001  1.1435e+000 36268 96153,95911,95859
 3.9000e+000 96107  3.0027e+000  5.2582e+000  1.8816e+000 36268 96153,95859,95807
 3.9000e+000 96084  5.1909e+000  7.0788e+000 -1.5529e+000 36268 95807,95859,95833
 3.9000e+000 96061 -3.8372e+000  2.9247e-001 -1.8988e-002 36268 95911,95989,95937
 3.9000e+000 96038 -1.5184e+000 -5.6540e-001  3.8553e+000 36268 95859,95911,95885
 3.9000e+000 96015 -1.3036e+000  1.2970e+000 -3.4922e-001 36268 95937,95989,95963
 3.9000e+000 96179 -2.1115e+000  5.0211e+000 -5.3069e-002 36268 95989,95911,96153
 3.9000e+000 96202  5.5367e-001  1.1710e+001  9.7993e-001 36268 95989,96153,95807
 3.9000e+000 96531 -4.1818e+000 -5.4287e+001  2.8460e+001 35728 96358,96410,96384
 3.9000e+000 96508  7.5869e+000 -5.3501e+001  2.8709e+001 35728 96332,96410,96358
 3.9000e+000 96485 -6.6759e-001 -6.7999e+001  3.2958e+001 35728 96332,96436,96410
 3.9000e+000 96462 -1.0625e+000 -3.5121e+001 -3.0305e-001 35728 96306,96436,96332
 3.9000e+000 96860  4.9177e+000 -1.8839e+001  2.4135e+000 35324 96687,96765,96713
 3.9000e+000 96837  1.4241e+001 -2.0145e+000 -9.2461e+000 35324 96661,96765,96687
 3.9000e+000 96814  1.0164e+001  2.5966e+001 -2.1295e+001 35324 96713,96765,96739
 3.9000e+000 96791 -1.1978e+001  1.5788e+001 -7.8578e+000 35324 96635,96765,96661
 3.9000e+000 97366 -2.5775e-001 -8.0245e+001  1.4487e+001 34920 97389,97069,97043
 3.9000e+000 97343  5.6889e+000 -7.1363e+001  1.7645e+001 34920 97389,97043,97199
 3.9000e+000 97320  2.4476e+001 -5.4486e+001  6.6536e+000 34920 97043,97225,97199
 3.9000e+000 97297  5.3404e+000 -2.0980e+002  2.9198e+001 34920 97069,97121,97095
 3.9000e+000 97274  5.1040e+001 -6.5366e+001  2.2058e+000 34920 97121,97199,97173
 3.9000e+000 97251  4.1599e+001 -1.5108e+001 -3.7300e+001 34920 97121,97173,97147
 3.9000e+000 97415 -8.8083e+000 -8.0901e+001  1.5062e+000 34920 97121,97069,97389
 3.9000e+000 97438  4.3718e-001 -6.1575e+001  5.3663e+000 34920 97121,97389,97199
 3.9000e+000 97708 -3.7943e+001 -7.7467e+000  8.4952e+000 34722 97509,97587,97535
 3.9000e+000 97685 -2.1487e+001 -1.0775e+001  5.8400e+000 34722 97509,97613,97587
 3.9000e+000 97662 -2.6763e+001 -1.5289e+001  2.0342e+000 34722 97483,97613,97509
 3.9000e+000 97639 -2.2927e+001 -4.3193e+000  3.6669e+000 34722 97535,97587,97561
 3.9000e+000 98216 -3.7151e+000 -5.2996e+001  1.5663e+001 34318 97971,98075,97997
 3.9000e+000 98193  2.5576e+000 -6.7121e+001  3.1918e+001 34318 97893,98075,97971
 3.9000e+000 98170  3.8347e+001 -6.5478e+001  1.3634e+001 34318 97893,97971,97919
 3.9000e+000 98147 -4.1260e+000 -4.9986e+001  1.6990e+001 34318 97997,98075,98049
 3.9000e+000 98124  4.4813e+000 -3.5321e+001 -3.0194e+000 34318 97919,97971,97945
 3.9000e+000 98101 -2.2355e+001 -8.9892e+001  2.3947e+001 34318 97997,98049,98023
 3.9000e+000 98594  7.9469e+000  2.9708e+000  2.1087e+000 33814 98961,98617,98424
 3.9000e+000 98571  2.7827e+001 -1.2027e+000  1.2315e+000 33814 98689,98617,98372
 3.9000e+000 98548  3.6031e+001  3.1862e+001 -4.6635e+000 33814 99033,98689,98372
 3.9000e+000 98525  1.4844e+001  7.3273e+000  2.0612e+000 33814 98761,98476,98450
 3.9000e+000 98502 -2.8905e+000  4.8217e+000 -1.2335e+000 33814 98961,98424,98398
 3.9000e+000 98643  1.6591e+001  7.8619e+000  4.4177e+000 33814 98450,98424,98617
 3.9000e+000 98666  2.0743e+001  1.3697e+001  6.4638e+000 33814 98761,98450,98617
 3.9000e+000 98715  2.6597e+001 -9.0623e+000  3.1077e+000 33814 99161,98689,98320
 3.9000e+000 98738 -1.1698e+001 -1.5523e+001  1.2655e+001 33814 98320,98689,98346
 3.9000e+000 98787  2.5738e+001 -3.1332e+000  1.3093e+001 33814 98833,98761,98320
 3.9000e+000 98810  2.6497e+001 -1.1160e+001  6.3019e+000 33814 99161,98320,98761
 3.9000e+000 98859  2.5822e+001  3.2819e+001  3.6160e+000 33814 98476,98761,98833
 3.9000e+000 98987  2.6791e+001 -3.4238e+000 -1.5003e+000 33814 98372,98617,98961
 3.9000e+000 99010  1.5035e+001 -2.9824e+000 -7.3246e+000 33814 98372,98961,98398
 3.9000e+000 99059  2.5618e+001 -2.5224e+000  1.0284e+001 33814 98346,98689,99033
 3.9000e+000 99187  2.8045e+001 -2.4790e+000  4.0680e-001 33814 98617,98689,99161
 3.9000e+000 99210  2.5787e+001 -6.0841e+000  4.0498e+000 33814 98617,99161,98761
 3.9000e+000 99588  2.5266e+000 -9.2332e-001  3.4102e+000 33566 99366,99444,99392
 3.9000e+000 99565  2.5972e+000  6.2878e+000  4.7920e+000 33566 99314,99444,99366
 3.9000e+000 99542  2.6423e+000 -4.3473e+000 -2.8660e-001 33566 99314,99366,99340
 3.9000e+000 99519  3.6187e+000  1.1758e+001 -2.3241e+000 33566 99314,99470,99444
 3.9000e+000 99496  1.3011e+000  9.7341e+000  8.8460e+000 33566 99392,99444,99418
 3.9000e+000 99787  9.8521e+000 -1.3098e+001  3.5932e+001 33105 99637,99689,99663
 3.9000e+000 99764  1.3671e+001  9.3710e+000 -5.1829e-001 33105 99611,99689,99637
 3.9000e+000 99741  1.3997e+001  2.6624e+001  2.6106e+000 33105 99611,99715,99689
 3.9000e+000 100167 -3.0981e+001 -9.8508e+001  5.4897e+001 32651 100190,99971,99919
 3.9000e+000 100144  1.7800e+001 -5.6239e+001  3.6510e+001 32651 100262,100190,99919
 3.9000e+000 100121  2.2518e+000 -5.0662e+001  2.3008e+001 32651 100262,99919,100049
 3.9000e+000 100098 -5.1838e+000 -5.3175e+001 -7.7828e+000 32651 99893,100049,99919
 3.9000e+000 100075 -4.2100e+001 -9.6833e+001  4.7114e+001 32651 99919,99971,99945
 3.9000e+000 100216  1.6392e+001 -1.0202e+002  2.8932e+001 32651 99997,99971,100190
 3.9000e+000 100239  3.3208e+001 -8.7558e+001  1.5573e+001 32651 99997,100190,100023
 3.9000e+000 100288  7.1182e+000 -8.9225e+001  2.8884e+001 32651 100023,100190,100262
 3.9000e+000 100311 -4.7462e+000 -7.8487e+001  3.7034e+000 32651 100023,100262,100049
 3.9000e+000 100608 -4.9243e+000 -6.2828e+001  6.9438e+000 32254 100386,100490,100464
 3.9000e+000 100585 -2.7496e-001 -1.7560e+001 -2.3876e+000 32254 100360,100490,100386
 3.9000e+000 100562 -2.9121e+001 -1.0342e+002 -1.4522e+001 32254 100386,100464,100412
 3.9000e+000 100539 -2.6769e+000 -1.9280e+001 -3.8448e+000 32254 100334,100490,100360
 3.9000e+000 100516  2.2906e+001 -3.1708e+001  1.0498e+001 32254 100412,100464,100438
 3.9000e+000 100758 -5.7994e+000  7.6848e+000  9.9992e-001 31914 100985,100781,100683
 3.9000e+000 100735 -2.2115e+001  2.5282e+000  1.9633e+001 31914 100853,100781,100657
 3.9000e+000 100807  6.9516e+000  9.8487e+000 -8.8934e+000 31914 100709,100683,100781
 3.9000e+000 100830 -4.4740e+000  1.1071e+001  1.1959e+001 31914 100709,100781,100631
 3.9000e+000 100879 -1.3600e+001 -1.9264e+001  1.7146e+001 31914 100631,100781,100853
 3.9000e+000 101011  1.4257e+000  3.9582e+000  6.5609e+000 31914 100657,100781,100985
 3.9000e+000 101191 -3.4420e+001  3.4403e+001 -4.6180e+000 31418 101113,101165,101139
 3.9000e+000 101341 -8.8922e+001 -1.5970e+002 -1.4314e+001 31106 101214,101266,101240
 3.9000e+000 101318 -5.0060e+001 -4.4961e+001  2.7184e+000 31106 101214,101292,101266
 3.9000e+000 101591 -2.6808e+001 -9.5514e+001  6.6294e+001 30552 101614,101470,101444
 3.9000e+000 101568 -3.7056e+001 -6.1864e+001  2.0349e+001 30552 101366,101496,101470
 3.9000e+000 101545 -1.4130e-001 -8.2836e+001  4.5914e+001 30552 101614,101444,101392
 3.9000e+000 101522 -3.4489e+000 -2.0128e+001 -3.0735e+000 30552 101392,101444,101418
 3.9000e+000 101640  1.0417e+001 -1.0138e+002  5.0816e+001 30552 101366,101470,101614
 3.9000e+000 101663  3.3153e+001 -9.2053e+001  3.0787e+001 30552 101366,101614,101392
 3.9000e+000 102301  5.8787e+000 -9.5355e+001 -1.4965e+001 30042 102396,102324,102059
 3.9000e+000 102278 -2.0280e+001 -8.7464e+001 -4.1715e+001 30042 102324,101981,101955
 3.9000e+000 102255 -1.1769e+001 -7.4984e+001  1.4792e+001 30042 102396,102059,102033
 3.9000e+000 102232 -1.5448e+001 -4.6933e+001  6.8270e-001 30042 101929,102111,101955
 3.9000e+000 102209 -1.1853e+000 -9.3074e+001 -5.0266e+000 30042 102059,102111,102085
 3.9000e+000 102186 -2.1146e+001 -5.0798e+001  4.1930e+000 30042 101929,102137,102111
 3.9000e+000 102163  1.1002e+000 -1.6494e+000 -4.9994e+000 30042 101981,102033,102007
 3.9000e+000 102350  2.1962e+001 -8.8485e+001 -1.5610e+001 30042 102111,102059,102324
 3.9000e+000 102373  1.9741e+001 -8.5052e+001 -1.9149e+001 30042 102111,102324,101955
 3.9000e+000 102422  2.6248e+001 -2.6509e+001 -2.0765e+001 30042 101981,102324,102396
 3.9000e+000 102445  9.3010e+000 -5.8581e+000  9.8222e+000 30042 101981,102396,102033
 3.9000e+000 103000  4.3269e+001 -7.6297e+001  3.4825e+000 29730 103023,102706,102654
 3.9000e+000 102977 -1.9877e+000 -8.1914e+001 -5.5759e+000 29730 103023,102654,102810
 3.9000e+000 102954 -5.5763e+001 -1.3823e+002 -3.7567e+000 29730 102732,102810,102784
 3.9000e+000 102931  4.4442e+000 -9.0569e+001 -7.1257e+000 29730 102628,102810,102654
 3.9000e+000 102908  3.8595e+001 -2.7005e+001  1.7957e+001 29730 102654,102706,102680
 3.9000e+000 102885 -2.4512e+001 -3.6569e+001 -2.7405e+001 29730 102732,102784,102758
 3.9000e+000 102862 -1.6077e+001 -1.0149e+002  7.0133e-001 29730 102628,102836,102810
 3.9000e+000 103049  1.6256e+001 -8.8384e+001 -1.8857e+001 29730 102732,102706,103023
 3.9000e+000 103072 -1.1706e+001 -7.7542e+001 -2.5690e+001 29730 102732,103023,102810
 3.9000e+000 103222  5.5356e+001 -8.4291e+001  1.4321e+000 29226 103095,103147,103121
 3.9000e+000 103199  4.4746e+001 -4.0554e+001 -1.5264e+001 29226 103095,103173,103147
 3.9000e+000 103730 -6.3497e+000 -9.9679e+001  1.0980e+001 28822 103537,103589,103563
 3.9000e+000 103707  2.9717e+000 -7.6723e+001  8.0079e+000 28822 103433,103589,103537
 3.9000e+000 103684  1.6299e+001 -6.1544e+001 -8.8783e+000 28822 103433,103537,103459
 3.9000e+000 103661  2.4379e+001 -9.2243e+001  1.4523e+001 28822 103407,103589,103433
 3.9000e+000 103638  2.5058e+000 -2.0560e+001  2.7202e+001 28822 103459,103511,103485
 3.9000e+000 103615 -2.2827e+001 -9.1922e+000  2.1869e+001 28822 103459,103537,103511
 3.9000e+000 103880  2.4663e+001 -5.0709e+001  1.9737e+001 28368 103975,103903,103779
 3.9000e+000 103857  1.0156e+000 -1.3892e+002  7.8091e+000 28368 103903,103753,103831
 3.9000e+000 103929 -1.2131e+000 -2.8279e+001  3.1180e+000 28368 103805,103779,103903
 3.9000e+000 103952 -5.9619e+000 -7.2261e+001  8.8486e-001 28368 104105,103903,103831
 3.9000e+000 104001  1.8600e+001 -6.7882e+001 -6.1732e+000 28368 103753,103903,103975
 3.9000e+000 104131 -5.3602e+000 -6.4824e+001  1.3345e+001 28368 103805,103903,104105
 3.9000e+000 104539  4.8648e+000  3.3871e+001 -3.9654e+000 28028 104562,104340,104314
 3.9000e+000 104516 -4.1709e-001 -1.0028e+000 -6.2838e+000 28028 104634,104562,104314
 3.9000e+000 104493  1.1167e+000  3.2376e+001  1.0504e+001 28028 104762,104366,104340
 3.9000e+000 104470 -3.2193e-001  1.3781e+001 -5.1336e+000 28028 104366,104418,104392
 3.9000e+000 104588 -1.5789e+000  3.7225e+001  4.9994e+000 28028 104762,104340,104562
 3.9000e+000 104611  2.4490e+001  4.0682e+001 -1.0086e+001 28028 104418,104562,104444
 3.9000e+000 104660  8.0463e-001  3.1719e+001 -3.5161e+000 28028 104444,104562,104634
 3.9000e+000 104788  3.1432e-001  2.4980e+001  9.0110e+000 28028 104418,104366,104762
 3.9000e+000 104811 -4.1223e+000  2.7284e+001  3.1935e+000 28028 104418,104762,104562
 3.9000e+000 105010  8.4677e+000  3.0131e+001 -1.4240e+001 27324 105033,104886,104860
 3.9000e+000 104987 -5.6167e+000  2.7411e+001 -5.3237e+000 27324 105033,104860,104834
 3.9000e+000 104964  2.2968e+001  1.2376e+001 -1.3166e+001 27324 105105,104912,104886
 3.9000e+000 105059  4.8499e+000  2.3114e+001 -1.5831e+001 27324 105105,104886,105033
 3.9000e+000 105082  7.0788e+000  4.3399e+001 -1.2546e+001 27324 104938,105033,104834
 3.9000e+000 105131  4.0197e+001  2.3288e+001 -1.8392e+001 27324 104938,104912,105105
 3.9000e+000 105154  2.4698e+001  3.8239e+001 -2.2516e+001 27324 104938,105105,105033
 3.9000e+000 105402 -1.5036e+001 -4.1530e+001 -1.2745e+001 27012 105229,105281,105255
 3.9000e+000 105379  1.2129e+001 -1.9533e+001 -2.2240e+001 27012 105229,105307,105281
 3.9000e+000 105356  4.5387e+001  1.4006e+001 -7.7503e+000 27012 105177,105307,105229
 3.9000e+000 105333 -3.4209e+001 -8.1851e+001 -6.0301e+001 27012 105177,105229,105203
 3.9000e+000 105603  2.2118e+001  2.9054e+001 -9.8475e+000 26508 105626,105453,105427
 3.9000e+000 105580  3.2933e+001  5.4166e+001  3.3738e+001 26508 105626,105427,105505
 3.9000e+000 105557  1.4145e+001  5.8206e+001  2.8653e+001 26508 105427,105531,105505
 3.9000e+000 105652 -7.3712e+000  1.6531e+001 -1.8615e+001 26508 105479,105453,105626
 3.9000e+000 105675 -9.9446e+000  2.8044e+001  2.1366e+001 26508 105479,105626,105505
 3.9000e+000 106057 -1.5493e+001 -4.8077e+001  3.2620e+001 25947 106080,105887,105861
 3.9000e+000 106034 -5.5521e+000 -3.2401e+001  2.1486e+001 25947 106080,105861,105783
 3.9000e+000 106011  8.2431e-001 -1.7896e+001  1.7477e+001 25947 105783,105835,105809
 3.9000e+000 105988 -1.6793e+001 -3.6352e+001  2.4840e+001 25947 105783,105861,105835
 3.9000e+000 105965  8.4136e+000 -2.2759e+001  1.0196e+001 25947 105887,105939,105913
 3.9000e+000 106106 -1.2405e+001 -4.1597e+001  1.8386e+001 25947 105939,105887,106080
 3.9000e+000 106129  9.1413e+000 -1.2592e+001  5.0907e+000 25947 105939,106080,105783
 3.9000e+000 106714  5.7807e+000 -2.1017e+001  1.1074e+001 25557 106809,106737,106547
 3.9000e+000 106691  3.8825e+000 -5.0180e+001  3.0960e+001 25557 106737,106417,106391
 3.9000e+000 106668  1.5288e+001 -1.5884e+001  8.8773e+000 25557 106809,106547,106495
 3.9000e+000 106645 -1.1334e+001 -1.0621e+002  4.3916e+001 25557 106417,106495,106469
 3.9000e+000 106622  2.8793e+001 -1.4009e+001  4.7437e+000 25557 106495,106547,106521
 3.9000e+000 106599 -1.5995e+001 -1.0982e+002  4.2055e+001 25557 106417,106469,106443
 3.9000e+000 106763 -8.4870e+000 -2.8228e+001  2.0390e+001 25557 106573,106547,106737
 3.9000e+000 106786  1.7593e+001 -1.7871e+001  3.0691e+001 25557 106573,106737,106391
 3.9000e+000 106835  1.7672e+001 -2.9974e+001  1.5369e+001 25557 106417,106737,106809
 3.9000e+000 106858  2.4318e+001 -2.5823e+001  1.2657e+001 25557 106417,106809,106495
 3.9000e+000 107364  3.5400e+000  1.9612e+001  1.0004e+000 25153 107459,107387,107171
 3.9000e+000 107341  1.4177e+000  5.8154e+000 -3.6131e+000 25153 107387,107119,107067
 3.9000e+000 107318  2.7439e+000  1.5922e+001 -2.4316e+000 25153 107459,107171,107145
 3.9000e+000 107295  1.7068e+001  6.7010e+000 -4.8600e+000 25153 107531,107223,107197
 3.9000e+000 107272  2.1057e+001  3.5872e+001 -2.1538e+001 25153 107067,107119,107093
 3.9000e+000 107249  2.9218e+001  2.6042e+001 -1.3250e+001 25153 107041,107223,107067
 3.9000e+000 107413 -1.2674e+001  4.6187e+000  1.1557e+001 25153 107197,107171,107387
 3.9000e+000 107436  6.4823e+000 -3.5925e+000  5.1516e+000 25153 107531,107197,107387
 3.9000e+000 107485  1.5106e+000  1.3649e+001 -2.1524e+000 25153 107119,107387,107459
 3.9000e+000 107508 -1.4124e+000  9.7634e+000 -6.1175e+000 25153 107119,107459,107145
 3.9000e+000 107557  2.6293e+001  1.4305e+001 -1.5105e+001 25153 107067,107223,107531
 3.9000e+000 107580  1.7904e+001  1.1354e+001 -5.9329e+000 25153 107067,107531,107387
 3.9000e+000 107958  1.2963e+001 -4.7446e+001 -1.1440e+001 24741 107736,107814,107788
 3.9000e+000 107935 -1.6889e+000 -7.3362e+001 -3.3727e+001 24741 107736,107840,107814
 3.9000e+000 107912 -7.8866e+000 -4.6988e+001 -3.9323e+001 24741 107684,107840,107736
 3.9000e+000 107889 -9.8177e+000 -1.7353e+001 -2.0893e+001 24741 107736,107788,107762
 3.9000e+000 107866 -2.4318e+001 -1.0465e+002 -5.0897e+001 24741 107684,107736,107710
 3.9000e+000 108157  1.2437e+001 -6.6531e+000 -7.4416e+000 24237 108180,108059,108007
 3.9000e+000 108134  3.8404e+001  1.8737e+001  8.2999e+000 24237 108180,108007,107981
 3.9000e+000 108111 -3.1833e+000  3.4502e+001 -1.3796e+001 24237 108007,108059,108033
 3.9000e+000 108206  2.5317e+001  1.2289e+001  1.7183e+001 24237 108085,108059,108180
 3.9000e+000 108229  5.0069e+001  3.7089e+001  3.2733e+001 24237 108085,108180,107981
 3.9000e+000 108658 -6.8968e+000 -5.3104e+001  2.3499e+001 23776 108361,108413,108387
 3.9000e+000 108635 -1.6704e+001 -1.1223e+002 -9.3956e+000 23776 108753,108681,108361
 3.9000e+000 108612  3.5903e+000 -5.8303e+001 -7.1166e+000 23776 108681,108465,108439
 3.9000e+000 108589 -2.0364e+000 -1.2484e+002  5.9227e+000 23776 108753,108361,108335
 3.9000e+000 108566 -2.4890e+001 -1.1926e+002  3.5499e+001 23776 108335,108517,108465
 3.9000e+000 108543 -2.9608e+001 -1.0094e+002  3.0564e+001 23776 108465,108517,108491
 3.9000e+000 108707 -3.0985e+001 -6.0645e+001 -4.0485e+000 23776 108413,108361,108681
 3.9000e+000 108730 -1.1899e+001 -2.7423e+001  1.3757e+001 23776 108413,108681,108439
 3.9000e+000 108779 -3.0900e+000 -6.1073e+001 -7.9162e+000 23776 108465,108681,108753
 3.9000e+000 108802 -5.0757e+000 -1.0106e+002  2.5312e+000 23776 108465,108753,108335
 3.9000e+000 109023  1.0440e+001  2.6323e+001 -2.6236e+001 23414 108873,108925,108899
 3.9000e+000 109000  5.1695e+001  4.5727e+001 -2.0605e+001 23414 108847,108925,108873
 3.9000e+000 108977  5.8230e+001  8.7550e+001  7.6601e+000 23414 108847,108951,108925
 3.9000e+000 109474 -2.7107e+000  6.4710e+000  3.3269e+000 23024 109151,109307,109177
 3.9000e+000 109451  2.6108e+000  1.6131e+000  2.0862e+000 23024 109151,109333,109307
 3.9000e+000 109428  1.5854e+001 -8.3342e+001 -3.5658e-001 23024 109177,109281,109203
 3.9000e+000 109405 -4.8910e+000 -4.2561e+001 -2.5524e+001 23024 109177,109307,109281
 3.9000e+000 109382  1.1210e+001 -6.5540e+001  1.1456e+001 23024 109203,109281,109229
 3.9000e+000 109359 -7.9090e+000 -5.6834e+001 -1.0224e+000 23024 109229,109281,109255
 3.9000e+000 109820  1.1472e-001 -5.1177e+001  6.6202e+000 22506 109843,109601,109523
 3.9000e+000 109797  4.4309e+000 -3.6698e+001  6.8303e-001 22506 109843,109523,109497
 3.9000e+000 109774  4.4974e+000 -6.4944e+001 -3.2342e-001 22506 109915,109653,109627
 3.9000e+000 109751 -6.6449e+000 -2.7635e+001 -2.3364e+000 22506 109497,109679,109653
 3.9000e+000 109728 -4.8053e+000 -6.4078e+001 -1.3286e+001 22506 109523,109601,109575
 3.9000e+000 109705 -2.5740e+001 -8.2086e+001 -2.2522e+001 22506 109523,109575,109549
 3.9000e+000 109869  1.1169e+001 -4.4486e+001  9.5840e+000 22506 109627,109601,109843
 3.9000e+000 109892  1.3247e+001 -5.0714e+001  7.3055e+000 22506 109915,109627,109843
 3.9000e+000 109941 -6.1876e+000 -5.4639e+001 -8.8315e+000 22506 109497,109653,109915
 3.9000e+000 109964 -5.1037e+000 -5.4141e+001 -3.3706e+000 22506 109497,109915,109843
 3.9000e+000 110163  1.4683e+001 -2.9431e+001 -1.1712e+000 21936 110186,110039,110013
 3.9000e+000 110140  3.0959e+001 -1.2164e+001  7.4044e+000 21936 110390,110186,110013
 3.9000e+000 110117  4.9026e+001 -2.3929e+001  2.3811e+001 21936 110390,110013,109987
 3.9000e+000 110212  2.7909e+001 -5.4424e+000 -1.8890e+001 21936 110065,110039,110186
 3.9000e+000 110235  8.2801e-001 -8.3534e+000 -9.6684e+000 21936 110258,110186,110091
 3.9000e+000 110284 -1.7687e+001 -2.2580e+001 -1.5899e+001 21936 110065,110186,110258
 3.9000e+000 110416 -8.5547e+000 -1.6363e+001  9.7559e+000 21936 110091,110186,110390
 3.9000e+000 110439  1.7495e+001 -2.2983e+001  2.4627e+001 21936 110091,110390,109987
 3.9000e+000 110709  1.9632e+001 -4.5265e+001  1.9241e+000 21338 110510,110614,110588
 3.9000e+000 110686  1.1917e+001 -6.6971e+001 -3.1801e+000 21338 110484,110614,110510
 3.9000e+000 110663  3.2457e+001  4.5607e+000  1.2858e+000 21338 110510,110562,110536
 3.9000e+000 110640  1.2026e+001 -4.4345e+001 -2.4551e+000 21338 110510,110588,110562
 3.9000e+000 111296  1.3160e+001 -2.9135e+001 -2.4887e+000 20934 111025,111155,111103
 3.9000e+000 111273 -5.3299e+000 -1.0216e+002 -9.5295e-001 20934 110999,111155,111025
 3.9000e+000 111250  1.1340e-001 -3.4425e+001 -3.3477e+000 20934 111103,111155,111129
 3.9000e+000 111227 -8.0282e+000 -8.3946e+001 -1.3588e+001 20934 111051,111103,111077
 3.9000e+000 111204 -8.5126e+000 -8.0894e+001 -1.2306e+001 20934 111025,111103,111051
 3.9000e+000 111181 -1.2637e+001 -1.1797e+002 -4.0858e+000 20934 110973,111155,110999
 3.9000e+000 111930 -1.9652e+001 -5.7034e+001 -4.2463e+001 20494 111662,111714,111688
 3.9000e+000 111907 -1.6500e+001 -2.1431e+001 -3.1698e+001 20494 111584,111714,111662
 3.9000e+000 111884 -8.8940e+000 -1.5065e+001 -3.4521e+001 20494 111584,111766,111714
 3.9000e+000 111861  4.5068e+001 -1.9326e+001 -1.0699e+001 20494 111584,111636,111610
 3.9000e+000 111838 -3.0526e+000 -1.4447e+001 -3.9898e+001 20494 111584,111662,111636
 3.9000e+000 111815 -7.5068e+000  5.5149e-002 -1.3115e+001 20494 111558,111766,111584
 3.9000e+000 111792  1.4267e+000  2.4036e+001 -1.1443e+001 20494 111714,111766,111740
 3.9000e+000 112249 -6.7857e-001 -2.2593e+002  1.5874e+001 19940 111975,112053,112001
 3.9000e+000 112226  7.0606e+001 -8.2041e+001 -7.8297e+000 19940 111975,112131,112053
 3.9000e+000 112203  9.6832e+000 -2.1147e+002  0.0000e+000 19940 112053,112105,112079
 3.9000e+000 112180  2.8679e+001 -2.0421e+002  2.8033e+000 19940 112053,112131,112105
 3.9000e+000 112157  8.7796e+000 -1.9893e+002 -9.2665e+000 19940 112001,112053,112027
 3.9000e+000 112757  1.8476e+001 -4.7775e+001 -1.6733e+001 19486 112780,112538,112486
 3.9000e+000 112734  1.5874e+001 -5.2190e+001 -7.2998e+000 19486 112780,112486,112460
 3.9000e+000 112711  1.3555e+000 -4.2332e+001 -7.1176e+000 19486 112852,112616,112590
 3.9000e+000 112688  6.0334e+001 -6.9650e+001 -2.1198e+001 19486 112486,112538,112512
 3.9000e+000 112665 -1.0810e+001 -6.1970e+001  4.5944e+000 19486 112434,112616,112460
 3.9000e+000 112642  2.9459e+000 -3.8862e+001 -1.0648e+001 19486 112538,112590,112564
 3.9000e+000 112806  1.2032e+001 -5.1530e+001 -1.4060e+001 19486 112590,112538,112780
 3.9000e+000 112829  1.8147e+001 -4.6330e+001 -1.0568e+001 19486 112852,112590,112780
 3.9000e+000 112878 -9.6973e+000 -4.6770e+001 -2.5508e+000 19486 112460,112616,112852
 3.9000e+000 112901  1.3308e-001 -5.7214e+001 -4.2857e+000 19486 112460,112852,112780
 3.9000e+000 113252 -4.2549e+001 -8.6399e+001 -4.0461e+000 19096 113105,113157,113131
 3.9000e+000 113229 -3.2857e+001 -5.9670e+001 -6.4520e-001 19096 113053,113157,113105
 3.9000e+000 113206 -2.3703e+001 -5.5122e+001  8.6010e-001 19096 113027,113157,113053
 3.9000e+000 113183 -5.0429e+001 -9.7830e+001  4.6340e+000 19096 113053,113105,113079
 3.9000e+000 113451  1.0234e+001 -8.6028e+001 -2.6474e+001 18642 113327,113379,113353
 3.9000e+000 113428 -1.6569e+000 -1.2220e+002 -1.9855e+001 18642 113301,113379,113327
 3.9000e+000 113405  2.1654e+001 -8.9692e+001 -6.4731e+000 18642 113275,113379,113301
 3.9000e+000 113699  2.1060e+001 -8.8101e+001 -8.1432e+000 18138 113474,113552,113526
 3.9000e+000 113676  4.6322e+001 -1.0209e+002 -2.1374e+001 18138 113474,113578,113552
 3.9000e+000 113653  4.7000e+001 -1.0239e+002 -2.1605e+001 18138 113474,113604,113578
 3.9000e+000 113630  3.8655e+001 -5.9021e+001 -7.7404e-001 18138 113474,113526,113500
 3.9000e+000 113851 -3.5160e-001 -9.4511e+001 -4.5204e+000 17682 113750,113802,113776
 3.9000e+000 113828  1.1697e+001 -8.1653e+001  1.1317e+000 17682 113724,113802,113750
 3.9000e+000 114383  3.6726e+001 -1.2651e+002 -1.0665e+001 17106 114086,114242,114164
 3.9000e+000 114360  4.5083e+001 -1.2333e+002 -1.5164e+001 17106 114060,114242,114086
 3.9000e+000 114337 -1.0257e+001 -2.3200e+002  1.6645e+001 17106 114086,114164,114138
 3.9000e+000 114314 -5.9489e+001 -3.5816e+002 -6.7574e+000 17106 114190,114242,114216
 3.9000e+000 114291 -1.7768e+001 -2.5559e+002 -2.7650e+001 17106 114164,114242,114190
 3.9000e+000 114268  2.4738e+001 -2.0023e+002  3.8625e+001 17106 114086,114138,114112
 3.9000e+000 114680 -3.4184e+001 -1.1252e+002  2.8609e+000 16766 114703,114432,114406
 3.9000e+000 114657 -3.8943e+001 -1.0975e+002 -1.3638e+000 16766 114703,114406,114510
 3.9000e+000 114634 -4.4758e+001 -7.8890e+001  1.3313e+001 16766 114406,114536,114510
 3.9000e+000 114611 -1.5772e+001 -1.1781e+002 -8.2037e+000 16766 114432,114484,114458
 3.9000e+000 114588 -5.3684e+001 -9.3911e+001  4.1357e+001 16766 114406,114562,114536
 3.9000e+000 114729 -1.5641e+001 -1.0891e+002  4.6200e+000 16766 114484,114432,114703
 3.9000e+000 114752 -3.1692e+001 -1.1393e+002  5.8034e-001 16766 114484,114703,114510
 3.9000e+000 114902  4.8970e+001 -2.0347e+002 -3.7520e+001 16362 114775,114827,114801
 3.9000e+000 114879  3.0342e+001 -2.0167e+002 -3.5697e+001 16362 114775,114853,114827
 3.9000e+000 115054 -2.2757e+002 -3.6856e+002 -2.1406e+001 15908 114953,115005,114979
 3.9000e+000 115031 -2.0900e+002 -3.7972e+002 -1.5483e+001 15908 114927,115005,114953
 3.9000e+000 115326  1.4431e+001 -5.7373e+001  2.8430e+001 15251 115101,115179,115153
 3.9000e+000 115303  9.3381e+000 -5.2189e+001  1.1236e+000 15251 115101,115231,115179
 3.9000e+000 115280  1.0617e+001 -4.9681e+001  6.8095e-001 15251 115179,115231,115205
 3.9000e+000 115257 -5.2634e+001 -2.7716e+002  2.2183e+001 15251 115101,115153,115127
 3.9000e+000 115429 -8.3410e+000 -1.1894e+002  2.3832e+001 421 115351,115403,115377
 4.0000e+000 66230 -2.0869e+001  2.1750e+001  6.7232e+000 65954 66152,66204,66178
 4.0000e+000 66429  2.3658e+000 -1.5579e+000  4.4935e-001 65642 66279,66331,66305
 4.0000e+000 66406  8.2834e-002 -2.0559e+000  3.2609e+000 65642 66279,66357,66331
 4.0000e+000 66383  7.8543e+000  2.3029e+001 -4.8652e+000 65642 66253,66357,66279
 4.0000e+000 66628 -1.3279e+000 -7.5550e+000  2.5825e+000 65444 66452,66530,66478
 4.0000e+000 66605  5.0186e+000 -1.9603e+001 -1.6425e+000 65444 66452,66556,66530
 4.0000e+000 66582  1.7621e+000 -1.6949e+001  3.1408e+000 65444 66478,66530,66504
 4.0000e+000 67006 -3.7460e+000 -8.6794e+000  3.8387e+000 65246 66732,66810,66758
 4.0000e+000 66983 -4.6640e+000 -3.7672e+000  4.8425e+000 65246 66732,66836,66810
 4.0000e+000 66960  1.5136e+000  2.4617e+000  1.1258e+001 65246 66732,66862,66836
 4.0000e+000 66937  1.9834e-001 -9.7901e+000  5.8749e-001 65246 66758,66810,66784
 4.0000e+000 66914  1.1902e+001 -3.9936e+001 -1.1874e+001 65246 66732,66888,66862
 4.0000e+000 67107  1.6604e+001 -1.8652e+001 -5.8502e+000 64934 67029,67081,67055
 4.0000e+000 67306 -5.8471e+000  4.1866e+000  3.6728e+000 64736 67156,67208,67182
 4.0000e+000 67283  1.4963e-002  1.8094e+000  3.3224e+000 64736 67130,67208,67156
 4.0000e+000 67260  2.9184e+000 -1.2665e+001  5.5984e+000 64736 67130,67234,67208
 4.0000e+000 67507 -2.5046e+000 -1.1801e+001 -3.3621e+000 64389 67357,67409,67383
 4.0000e+000 67484 -2.1711e+000 -5.7326e+000 -3.2761e+000 64389 67357,67435,67409
 4.0000e+000 67461  5.6762e+000 -1.6439e+001 -7.7301e-001 64389 67331,67435,67357
 4.0000e+000 67708  2.3795e+001 -2.5334e+001  5.6008e+000 63985 67731,67584,67558
 4.0000e+000 67685  1.1174e+001 -6.4576e+000  3.3752e+000 63985 67731,67558,67636
 4.0000e+000 67662  4.1045e+000 -7.5434e+000  5.0401e+000 63985 67532,67636,67558
 4.0000e+000 67757  1.6428e+001 -3.3216e+001  2.3567e+000 63985 67610,67584,67731
 4.0000e+000 67780  7.4127e-001 -1.9665e+001 -1.5210e+000 63985 67610,67731,67636
 4.0000e+000 67981  7.6212e-001  1.8730e+000  9.7790e-001 63787 67857,67909,67883
 4.0000e+000 67958  8.7366e-001  1.1119e+000  1.3268e+000 63787 67831,67909,67857
 4.0000e+000 67935 -4.4646e+000 -4.3661e-001 -2.0414e+000 63787 67805,67909,67831
 4.0000e+000 68231  9.6866e-001 -3.7235e+001  1.9755e+000 63589 68254,68084,68032
 4.0000e+000 68208  2.4105e-001 -1.4564e+001  1.6355e+000 63589 68254,68032,68006
 4.0000e+000 68185  2.2339e+000 -8.7480e+000  2.2108e+000 63589 68326,68136,68110
 4.0000e+000 68162 -4.6112e-001 -3.5823e+001 -4.1312e+000 63589 68032,68084,68058
 4.0000e+000 68280  4.7730e+000 -1.7235e+001  1.2816e+000 63589 68110,68084,68254
 4.0000e+000 68303 -1.2010e-001 -9.6677e+000  4.7043e+000 63589 68326,68110,68254
 4.0000e+000 68352  6.3533e+000 -2.7553e+000 -4.2083e+000 63589 68006,68136,68326
 4.0000e+000 68375  1.8362e+000 -5.7659e+000 -1.4338e+000 63589 68006,68326,68254
 4.0000e+000 68836  1.5647e+000  5.3734e+000 -8.6119e-001 63128 68859,68588,68562
 4.0000e+000 68813 -1.9621e+000 -4.2493e+000  8.6440e+000 63128 68859,68562,68692
 4.0000e+000 68790  7.1475e+000 -1.1004e+001  8.8832e-001 63128 68614,68692,68666
 4.0000e+000 68767 -6.6696e+000 -8.6643e+000  6.8634e+000 63128 68562,68718,68692
 4.0000e+000 68744  1.1549e+001 -3.9149e+000 -1.8527e+001 63128 68614,68666,68640
 4.0000e+000 68885  7.6149e+000  1.9196e+001 -7.3056e+000 63128 68614,68588,68859
 4.0000e+000 68908  3.3571e+000  6.6397e+000  2.0263e+000 63128 68614,68859,68692
 4.0000e+000 69237  3.4879e+000 -1.1520e+001  4.8469e+000 62731 69064,69116,69090
 4.0000e+000 69214 -1.4821e+000 -2.8880e+001  7.4569e-001 62731 69064,69142,69116
 4.0000e+000 69191 -3.9217e+000 -2.4035e+001  3.6101e+000 62731 69038,69142,69064
 4.0000e+000 69168  1.0401e+000 -4.4759e+001  3.6785e+000 62731 69012,69142,69038
 4.0000e+000 69539  4.7019e-001  1.1628e+001 -3.2300e+000 62433 69389,69467,69441
 4.0000e+000 69516 -1.6713e-001 -2.3008e+000 -1.8566e-001 62433 69363,69467,69389
 4.0000e+000 69493  2.7675e+000 -3.8109e+000  8.9977e+000 62433 69389,69441,69415
 4.0000e+000 69966  1.5812e+000 -1.7361e+001  7.1883e+000 62235 69989,69773,69721
 4.0000e+000 69943  6.4467e+000 -2.6693e+001 -3.0092e+000 62235 70061,69989,69721
 4.0000e+000 69920  1.0962e+001 -2.1652e+001 -8.6833e-001 62235 70061,69721,69643
 4.0000e+000 69897  2.1930e+000  2.2852e+000  2.3502e+000 62235 69721,69773,69747
 4.0000e+000 69874 -1.4945e+001 -8.6209e+001  3.6994e-001 62235 69643,69721,69695
 4.0000e+000 69851  4.4141e+001  1.2998e+002 -1.4386e+001 62235 69643,69695,69669
 4.0000e+000 70015 -1.4803e+000 -2.7032e+001  5.5512e+000 62235 69799,69773,69989
 4.0000e+000 70038 -1.0125e+001 -3.5196e+001 -1.0764e+001 62235 69799,69989,69825
 4.0000e+000 70087 -1.8436e-001 -1.9125e+001 -3.2753e+000 62235 69825,69989,70061
 4.0000e+000 70110  4.1935e+000 -1.5555e+001 -1.6906e+000 62235 69825,70061,69643
 4.0000e+000 70260  4.7554e+000 -3.3029e-001 -2.3925e+000 62037 70133,70185,70159
 4.0000e+000 70237  6.8350e-001  2.4181e+000 -5.5216e+000 62037 70133,70211,70185
 4.0000e+000 70640 -7.7145e+000 -2.2783e+001  6.6119e+000 61583 70735,70663,70418
 4.0000e+000 70617 -1.3081e+001 -2.1827e+001  6.9529e+000 61583 70663,70366,70522
 4.0000e+000 70594 -6.3934e+000 -2.2915e+001  8.9668e+000 61583 70735,70418,70392
 4.0000e+000 70571 -1.4155e+001 -2.6658e+001  3.0359e+000 61583 70418,70496,70444
 4.0000e+000 70548 -2.5330e+001 -1.5133e+001  1.7634e+000 61583 70444,70496,70470
 4.0000e+000 70689 -1.2753e+001 -2.6262e+001  4.7181e+000 61583 70496,70418,70663
 4.0000e+000 70712 -1.6513e+001 -2.2766e+001  5.8242e+000 61583 70496,70663,70522
 4.0000e+000 70761 -1.3625e+001 -2.4793e+001  5.0402e+000 61583 70366,70663,70735
 4.0000e+000 70784 -1.0256e+001 -2.4023e+001  7.2781e+000 61583 70366,70735,70392
 4.0000e+000 71054 -6.7779e-001  1.4144e+000  8.4955e-001 61313 71077,70881,70855
 4.0000e+000 71031 -7.4227e-001  2.1863e+000  3.4953e-001 61313 71077,70855,70829
 4.0000e+000 71008  5.7342e-001  3.0910e-001 -1.2297e+000 61313 70829,70959,70933
 4.0000e+000 70985  3.8924e-002  3.4595e-001  1.1655e-001 61313 70881,70933,70907
 4.0000e+000 71103 -2.0137e-001  1.9114e+000  5.2061e-001 61313 70933,70881,71077
 4.0000e+000 71126 -5.5619e-001  2.3960e+000  6.1143e-002 61313 70933,71077,70829
 4.0000e+000 71604 -3.2301e+000 -3.0452e+001  3.9089e+000 60909 71627,71232,71414
 4.0000e+000 71581 -3.9780e+000 -2.1616e+001 -5.8130e+000 60909 71232,71440,71414
 4.0000e+000 71558 -3.4167e+000 -1.8780e+001  4.6461e+000 60909 71627,71414,71336
 4.0000e+000 71535  2.2207e+000 -5.6859e+001  2.1055e+001 60909 71362,71414,71388
 4.0000e+000 71512 -1.5289e+001 -4.2432e+001  9.4880e+000 60909 71336,71414,71362
 4.0000e+000 71489 -4.0310e+000 -1.1763e+001 -9.3852e-001 60909 71258,71336,71310
 4.0000e+000 71466 -2.1313e+000 -8.5275e+000 -2.9895e+000 60909 71258,71310,71284
 4.0000e+000 71653  1.8591e-001 -2.1036e+001  3.0544e+000 60909 71258,71232,71627
 4.0000e+000 71676 -4.0015e+000 -1.5121e+001  4.5423e+000 60909 71258,71627,71336
 4.0000e+000 71875  9.5120e-001  3.7115e+000  3.2541e+000 60611 71898,71725,71699
 4.0000e+000 71852 -1.4512e+000  2.9043e+000  3.1036e+000 60611 71898,71699,71803
 4.0000e+000 71829  6.9854e+000  9.9164e+000 -4.2170e+000 60611 71970,71751,71725
 4.0000e+000 71924  6.1046e+000  5.2547e+000 -4.0649e-001 60611 71970,71725,71898
 4.0000e+000 71947 -1.5065e+000 -4.5911e+000  1.2792e+000 60611 71777,71898,71803
 4.0000e+000 71996  2.6051e+000  3.7993e+000 -2.0146e+000 60611 71777,71751,71970
 4.0000e+000 72019  5.9274e-001  3.6103e-001  2.0071e+000 60611 71777,71970,71898
 4.0000e+000 72576  7.5794e+000 -5.9304e+001  1.0015e+001 60142 72599,72256,72230
 4.0000e+000 72553  1.9446e+001 -2.3971e+001  9.8841e+000 60142 72671,72599,72230
 4.0000e+000 72530 -4.3734e+000 -1.8023e+001  1.8863e+000 60142 72671,72230,72204
 4.0000e+000 72507 -5.4146e+000 -6.5046e+000  5.5949e-001 60142 72743,72360,72334
 4.0000e+000 72484  1.0216e+001 -4.7134e+000 -9.7902e+000 60142 72815,72282,72256
 4.0000e+000 72461  6.6100e+000  1.4502e+001  1.1866e+001 60142 72887,72308,72282
 4.0000e+000 72438 -8.5977e+000 -4.3339e+001 -8.0674e+000 60142 72204,72412,72386
 4.0000e+000 72625 -3.8919e-002 -3.7550e+001 -1.1333e+001 60142 72815,72256,72599
 4.0000e+000 72648  9.1722e-001 -1.7442e+001 -1.3071e+000 60142 72743,72334,72599
 4.0000e+000 72697 -5.7889e-001 -4.0179e+001  1.1810e+000 60142 72386,72599,72671
 4.0000e+000 72720 -1.1626e+001 -2.7675e+001 -6.4390e+000 60142 72386,72671,72204
 4.0000e+000 72769  2.6384e+000 -1.6792e+001  1.9501e+001 60142 72386,72360,72743
 4.0000e+000 72792  3.9508e+000 -3.7526e+001  8.2542e+000 60142 72386,72743,72599
 4.0000e+000 72841  1.8437e+000  1.1331e+001  6.1774e-001 60142 72887,72282,72815
 4.0000e+000 72864  4.5490e+000 -1.0139e+001  4.0385e-001 60142 72334,72815,72599
 4.0000e+000 72913 -1.2939e+000 -1.9479e+000  7.9366e+000 60142 72334,72308,72887
 4.0000e+000 72936 -5.2657e+000 -4.1302e+000 -1.7487e+000 60142 72334,72887,72815
 4.0000e+000 73491  6.8184e-001 -5.9267e+001 -1.4611e+001 59738 73145,73327,73171
 4.0000e+000 73468  1.0450e+001 -5.0967e+001 -1.0655e+001 59738 73119,73327,73145
 4.0000e+000 73445  1.9697e+000 -1.3294e+001  5.8316e+000 59738 73171,73327,73301
 4.0000e+000 73422  8.4277e+000 -1.9612e+001 -5.3007e-002 59738 73514,73275,73249
 4.0000e+000 73399  8.5271e+000 -4.0077e+000 -4.3585e+000 59738 73586,73514,73249
 4.0000e+000 73376  1.1544e+001  1.9694e+001 -7.2140e+000 59738 73197,73249,73223
 4.0000e+000 73353  1.5772e+001  2.7110e+000 -1.4087e+001 59738 73586,73249,73197
 4.0000e+000 73540  5.9774e+000 -3.0382e+001 -4.2278e+000 59738 73301,73275,73514
 4.0000e+000 73563 -1.9644e+000 -2.2797e+001  4.3825e+000 59738 73301,73514,73171
 4.0000e+000 73612  6.2407e+000 -2.0076e+001  4.0781e+000 59738 73171,73514,73586
 4.0000e+000 73635  8.1964e+000 -1.3093e+001 -4.3226e+000 59738 73171,73586,73197
 4.0000e+000 73964  1.6730e+000 -3.6374e+001 -3.2931e+000 59334 73791,73843,73817
 4.0000e+000 73941  1.0830e+000 -3.9185e+001 -4.6316e+000 59334 73791,73869,73843
 4.0000e+000 73918 -5.0477e+000 -5.2773e+001 -6.8474e+000 59334 73739,73869,73791
 4.0000e+000 73895  3.3748e+000 -6.1547e+001 -5.8489e+000 59334 73739,73791,73765
 4.0000e+000 74261  1.2925e+000  1.7698e+001 -5.3574e+000 58630 74065,74117,74091
 4.0000e+000 74238  9.8661e+000 -1.3848e+000 -8.6162e+000 58630 74356,74284,74065
 4.0000e+000 74215  1.3311e+001 -1.0213e+001 -1.3848e+000 58630 74284,74013,73987
 4.0000e+000 74192  6.7331e+000 -4.6301e+000 -1.4954e+001 58630 74356,74065,74039
 4.0000e+000 74169  5.6560e+000 -1.1359e+000 -3.5510e-001 58630 73987,74143,74117
 4.0000e+000 74310  1.0954e+001  1.8215e+001 -8.5279e+000 58630 74117,74065,74284
 4.0000e+000 74333  6.0450e+000  6.4081e-001 -2.0375e+000 58630 74117,74284,73987
 4.0000e+000 74382  1.9002e+001  5.5498e+000 -4.1460e+000 58630 74013,74284,74356
 4.0000e+000 74405  1.6115e+001  2.0241e+000 -1.0524e+001 58630 74013,74356,74039
 4.0000e+000 74815 -1.4979e+000 -2.5564e+001 -2.0670e+000 58226 74590,74642,74616
 4.0000e+000 74792 -3.4691e+000 -3.0040e+001 -1.4701e+000 58226 74590,74694,74642
 4.0000e+000 74769  3.7281e+000 -5.4445e+001  1.0267e+001 58226 74590,74720,74694
 4.0000e+000 74746 -7.4609e+000 -2.1504e+001 -2.6290e+000 58226 74642,74694,74668
 4.0000e+000 75014  1.7818e-001  3.5816e+000  1.2540e+000 57786 75037,74864,74838
 4.0000e+000 74991  4.2571e-001 -4.4420e+000 -1.1362e+000 57786 75037,74838,74916
 4.0000e+000 74968 -1.6924e-001 -4.8535e+000 -8.5254e-001 57786 74838,74942,74916
 4.0000e+000 75063  1.5036e+000  1.1891e+001  3.7468e+000 57786 74890,74864,75037
 4.0000e+000 75086  6.7173e-001  2.6528e+000  1.1335e+000 57786 74890,75037,74916
 4.0000e+000 75368 -1.4545e+001  1.1337e+001  5.7772e+000 57496 75192,75270,75218
 4.0000e+000 75345  2.3038e+001  2.6708e+001  6.7277e+000 57496 75192,75296,75270
 4.0000e+000 75322  1.4328e+001  1.5255e+001  2.6498e+001 57496 75218,75270,75244
 4.0000e+000 75648  7.3500e-001 -2.8034e+000 -6.6160e+000 57206 75472,75550,75498
 4.0000e+000 75625 -7.6024e+000  4.8485e+000 -2.7943e-001 57206 75472,75576,75550
 4.0000e+000 75602 -1.0008e+001  1.1815e+001  1.2097e+001 57206 75671,75550,75524
 4.0000e+000 75697  1.2064e+001  1.0316e+000  1.3580e+001 57206 75498,75550,75671
 4.0000e+000 76154 -1.3295e+000 -8.9026e+000  5.4966e+000 56802 75958,76010,75984
 4.0000e+000 76131  2.2728e+000  2.0714e+000  4.6946e+000 56802 75932,76010,75958
 4.0000e+000 76108 -2.3815e-001 -4.1962e+000  4.5186e+000 56802 75906,76010,75932
 4.0000e+000 76085 -1.6536e+000  3.2064e+000  4.6466e+000 56802 75880,76010,75906
 4.0000e+000 76062  5.9191e+000  3.6799e+000 -3.1196e+000 56802 75880,76036,76010
 4.0000e+000 76505  7.9400e-001  2.3821e-001 -5.7923e-001 56504 76306,76384,76332
 4.0000e+000 76482 -3.8206e-001 -2.7072e-001 -3.4792e-001 56504 76306,76410,76384
 4.0000e+000 76459  1.5957e+000  7.2553e-001 -2.8255e-001 56504 76332,76384,76358
 4.0000e+000 76436  3.4185e-001  3.9758e-002 -2.7448e-001 56504 76280,76410,76306
 4.0000e+000 77011  2.6598e+001  5.7617e+000 -1.5618e+001 56050 76740,76818,76792
 4.0000e+000 76988  9.7513e+000 -1.2438e+000 -1.5936e+001 56050 76714,76818,76740
 4.0000e+000 76965  1.5557e+001 -4.7060e+000 -1.6551e+001 56050 76688,76818,76714
 4.0000e+000 76942  4.1776e+001  2.5900e+001  1.8901e+000 56050 76688,76844,76818
 4.0000e+000 76919  1.6651e+001 -1.0407e+001 -1.0626e+001 56050 76740,76792,76766
 4.0000e+000 76896  2.7795e+001  3.1928e+000  8.4408e+000 56050 76688,76870,76844
 4.0000e+000 77517 -2.9777e+001 -1.0919e+001  1.6441e+001 55738 77220,77350,77324
 4.0000e+000 77494  2.6117e+000 -2.5890e+001 -4.1147e+000 55738 77220,77376,77350
 4.0000e+000 77471  1.3328e+001  6.7714e+000 -4.1030e+000 55738 77194,77376,77220
 4.0000e+000 77448 -1.9337e+000 -1.5903e+001  7.6217e+000 55738 77220,77298,77246
 4.0000e+000 77425 -1.3893e+001 -8.9076e+000  1.9281e+001 55738 77220,77324,77298
 4.0000e+000 77402 -1.8927e+001 -1.8356e+001  4.5641e+001 55738 77246,77298,77272
 4.0000e+000 78064  2.2299e+001 -7.0406e+000 -3.2592e+000 55227 78231,78087,77773
 4.0000e+000 78041 -3.0909e+000 -2.9076e+001 -4.8357e+000 55227 78087,77695,77643
 4.0000e+000 78018  3.7542e+000 -3.0600e+001 -1.5905e+001 55227 78159,77799,77773
 4.0000e+000 77995  1.5652e+001  5.0046e+000  2.9846e-001 55227 78231,77773,77721
 4.0000e+000 77972 -8.5767e-001 -9.2862e-002  3.6510e+000 55227 77643,77695,77669
 4.0000e+000 77949  3.2367e+000  2.0447e+000 -7.6903e+000 55227 77643,77877,77851
 4.0000e+000 77926 -4.9597e+000  2.8648e+000 -1.4058e+001 55227 77799,77851,77825
 4.0000e+000 77903  1.7733e+001  1.3233e+001 -4.6859e+000 55227 77721,77773,77747
 4.0000e+000 78113  1.3253e+001 -2.6234e+001 -1.1649e+001 55227 78159,77773,78087
 4.0000e+000 78136  9.2591e+000 -1.8378e-001 -6.4688e+000 55227 77851,78087,77643
 4.0000e+000 78185 -1.5596e+001 -1.8944e+001 -1.8461e+001 55227 77851,77799,78159
 4.0000e+000 78208 -7.0718e+000 -1.6292e+001 -1.5083e+001 55227 77851,78159,78087
 4.0000e+000 78257  1.5233e+001 -1.9749e+001 -8.0985e+000 55227 77695,78087,78231
 4.0000e+000 78280  6.6511e+000 -7.9039e+000 -5.6659e+000 55227 77695,78231,77721
 4.0000e+000 78737  8.4878e+000 -3.8188e+000 -2.8675e+000 54773 78463,78541,78515
 4.0000e+000 78714 -4.2443e+000 -1.0778e+001  5.6209e-001 54773 78463,78619,78541
 4.0000e+000 78691  1.3084e+001  9.4022e+000  3.7623e+000 54773 78463,78515,78489
 4.0000e+000 78668 -8.2151e+000 -4.7741e+000 -3.5684e+000 54773 78541,78593,78567
 4.0000e+000 78645 -3.6550e-001 -6.3950e+000 -4.2877e+000 54773 78541,78619,78593
 4.0000e+000 78838  7.2093e-001  8.8341e+000  1.4212e-001 54211 78760,78812,78786
 4.0000e+000 79297  1.0652e+001 -6.1616e-001  1.6313e+000 53814 79520,79153,79049
 4.0000e+000 79274  7.9846e+000  4.6566e+000 -5.9719e+000 53814 79520,79049,79023
 4.0000e+000 79251  3.5976e+000  1.6018e+001  2.5147e+000 53814 79320,79101,79049
 4.0000e+000 79228  1.5292e+000  1.1171e+001  2.6495e+000 53814 79320,79049,79153
 4.0000e+000 79205  7.4770e+000  1.0408e+001  2.0438e+000 53814 79049,79101,79075
 4.0000e+000 79346  2.5410e+000  1.0369e+001  5.1941e+000 53814 79392,79320,79127
 4.0000e+000 79369  4.3379e+000  1.2265e+001  4.3619e+000 53814 79127,79320,79153
 4.0000e+000 79418  2.7313e+000  1.5474e+001  6.0807e+000 53814 79101,79320,79392
 4.0000e+000 79546  6.5787e+000 -9.8615e+000  2.6781e+000 53814 79179,79153,79520
 4.0000e+000 79569  5.1203e+000 -4.1706e+000 -6.2754e+000 53814 79179,79520,79023
 4.0000e+000 80075 -2.0601e+001 -6.1252e+000  1.4368e+001 53039 80098,79908,79830
 4.0000e+000 80052 -2.4085e+001 -4.4688e-001 -2.8641e+000 53039 80098,79830,79804
 4.0000e+000 80029  9.5113e-001  7.4062e+000 -1.8240e+000 53039 79752,79934,79804
 4.0000e+000 80006 -1.3053e+000 -3.9158e+001  1.8751e+001 53039 79856,79908,79882
 4.0000e+000 79983  1.1122e+001 -5.2294e+001  1.5980e+001 53039 79830,79908,79856
 4.0000e+000 79960 -1.3088e+000  3.3406e+000 -2.7514e+000 53039 79752,79804,79778
 4.0000e+000 80124  6.5957e+000  4.3959e+000  1.4276e+001 53039 79934,79908,80098
 4.0000e+000 80147 -1.1660e+001  4.4585e+000 -3.5713e+000 53039 79934,80098,79804
 4.0000e+000 80555  2.4489e+001  1.9004e+001 -1.2511e+000 52699 80356,80434,80408
 4.0000e+000 80532  4.0114e+000  1.9870e+000  6.2416e+000 52699 80356,80460,80434
 4.0000e+000 80509 -6.5214e+000 -8.8855e+000 -3.2842e-001 52699 80330,80460,80356
 4.0000e+000 80486 -1.0924e+001 -4.4009e+000  3.1307e+001 52699 80356,80408,80382
 4.0000e+000 80776  1.5245e+001  3.3611e+001 -1.2698e+001 52295 80600,80678,80626
 4.0000e+000 80753 -1.1924e+001  1.0626e+001 -2.7548e+000 52295 80600,80704,80678
 4.0000e+000 80730 -3.7239e+001  1.2406e+001 -8.1242e+000 52295 80626,80678,80652
 4.0000e+000 81156  8.8725e+000 -1.6910e+001  6.6205e+000 51891 81179,80960,80908
 4.0000e+000 81133  8.0884e+000 -2.2450e+001 -7.7522e+000 51891 81179,80908,81012
 4.0000e+000 81110 -4.4372e+000 -3.0606e+000 -1.7275e+001 51891 80882,81012,80908
 4.0000e+000 81087  8.6092e+000 -1.0522e+000  9.5838e+000 51891 80908,80960,80934
 4.0000e+000 81064 -1.2892e-001  5.7017e+000 -1.8869e+001 51891 80882,81038,81012
 4.0000e+000 81205  2.6733e+001 -6.5269e+000  1.3657e+001 51891 80986,80960,81179
 4.0000e+000 81228  1.3578e+001 -1.8841e+001 -1.8138e+000 51891 80986,81179,81012
 4.0000e+000 81606 -1.7172e-001 -1.4401e+002 -4.1708e+001 51544 81410,81462,81436
 4.0000e+000 81583  1.3828e+001 -4.5281e+001  7.8045e-001 51544 81384,81462,81410
 4.0000e+000 81560 -1.4042e+001 -5.8100e+001 -8.7327e+000 51544 81358,81462,81384
 4.0000e+000 81537 -8.3153e+000 -4.7428e+001 -2.4884e+001 51544 81358,81488,81462
 4.0000e+000 81514  4.4974e+000 -2.1524e+001 -1.9523e+001 51544 81332,81488,81358
 4.0000e+000 81854  2.0513e+000 -1.0809e+001 -1.4630e+000 51004 81877,81655,81629
 4.0000e+000 81831  8.3512e-001 -9.3480e-001 -3.2510e+000 51004 81877,81629,81759
 4.0000e+000 81808  9.9852e+000  3.7143e+000  1.1266e+001 51004 81655,81707,81681
 4.0000e+000 81785 -4.1984e+000  1.7730e+000 -2.1023e+000 51004 81707,81759,81733
 4.0000e+000 81903  1.9819e+000 -1.4852e+001 -1.4541e+000 51004 81707,81655,81877
 4.0000e+000 81926 -3.7245e+000 -1.1739e+001 -5.1283e+000 51004 81707,81877,81759
 4.0000e+000 82257 -8.1458e+000 -3.5421e+001 -7.8915e+000 50642 82058,82136,82110
 4.0000e+000 82234 -1.2410e+001 -3.9144e+000 -1.6799e+001 50642 82058,82162,82136
 4.0000e+000 82211  4.9122e+000 -2.0297e+001 -2.9514e+001 50642 82058,82110,82084
 4.0000e+000 82188  4.0202e+001  1.7242e+001  2.9785e+000 50642 82032,82162,82058
 4.0000e+000 82684  2.8433e+001 -9.5103e+001  2.1092e+001 49931 82779,82707,82465
 4.0000e+000 82661 -6.0590e+000 -1.1306e+002  2.0319e+001 49931 82707,82413,82361
 4.0000e+000 82638 -2.0950e+000 -9.4041e+001 -1.4942e+001 49931 82779,82465,82439
 4.0000e+000 82615  1.4803e+001 -2.4222e+002  2.2813e+001 49931 82465,82543,82491
 4.0000e+000 82592 -1.1252e+001 -8.5837e+001 -1.4693e+000 49931 82361,82413,82387
 4.0000e+000 82569  7.4338e+000 -1.8482e+002  2.2585e+001 49931 82491,82543,82517
 4.0000e+000 82733  6.9570e+001 -1.1438e+002  1.8328e+001 49931 82543,82465,82707
 4.0000e+000 82756  1.9553e+001 -9.9516e+001  8.2732e+000 49931 82543,82707,82361
 4.0000e+000 82805  2.9425e+000 -1.4711e+002 -2.0250e+000 49931 82413,82707,82779
 4.0000e+000 82828 -1.3319e+001 -1.3567e+002 -3.6202e+001 49931 82413,82779,82439
 4.0000e+000 83255  1.5785e+000 -1.0615e+002 -1.5647e+001 49327 82984,83114,83036
 4.0000e+000 83232 -1.0715e+001 -1.3151e+002 -3.8122e+001 49327 82958,83114,82984
 4.0000e+000 83209 -1.5597e+001 -1.5160e+002  7.9319e-001 49327 83036,83114,83088
 4.0000e+000 83186 -3.0929e+001 -6.8448e+001  1.2964e+001 49327 82984,83036,83010
 4.0000e+000 83163 -1.4413e+001 -1.1597e+002 -2.9679e+001 49327 82932,83114,82958
 4.0000e+000 83140 -4.1292e+001 -2.5721e+002 -2.5021e+000 49327 83036,83088,83062
 4.0000e+000 83938 -1.3391e+001 -1.5758e+002  3.8387e+001 48965 83961,83673,83647
 4.0000e+000 83915  1.2038e+001 -5.8439e+001  4.4887e+001 48965 83961,83647,83543
 4.0000e+000 83892 -1.0486e+001 -6.8467e+001 -1.0164e+001 48965 83517,83725,83543
 4.0000e+000 83869 -2.6956e+001 -1.0905e+002 -2.1185e+001 48965 83673,83725,83699
 4.0000e+000 83846 -1.3680e+001 -2.4688e+001  7.0232e+000 48965 83543,83647,83621
 4.0000e+000 83823 -8.6291e+000 -3.9207e+001  4.7805e+000 48965 83543,83621,83569
 4.0000e+000 83800 -1.1951e+001 -6.9543e+001 -1.1846e+001 48965 83517,83751,83725
 4.0000e+000 83777 -4.3187e+000 -3.6245e+001  8.5516e+000 48965 83569,83621,83595
 4.0000e+000 83987 -1.2845e+001 -1.4293e+002 -2.5519e+001 48965 83725,83673,83961
 4.0000e+000 84010  4.3739e+000 -1.0152e+002 -7.4511e+000 48965 83725,83961,83543
 4.0000e+000 84258 -8.4349e+000 -1.0108e+002  1.4764e+001 48447 84281,84059,84033
 4.0000e+000 84235 -1.2922e+000 -8.0243e+001 -2.7935e+000 48447 84281,84033,84163
 4.0000e+000 84212  1.2554e+001 -6.7697e+001 -1.2424e+001 48447 84059,84111,84085
 4.0000e+000 84189  1.7632e+001 -6.3500e+001 -2.0363e+001 48447 84111,84163,84137
 4.0000e+000 84307  6.0196e+000 -9.5221e+001 -2.2464e+000 48447 84111,84059,84281
 4.0000e+000 84330  2.0491e+001 -8.0343e+001 -1.9136e+001 48447 84111,84281,84163
 4.0000e+000 84529  2.7015e+001 -4.9108e+001  1.3897e+000 47993 84552,84405,84379
 4.0000e+000 84506  9.6270e+000 -5.6370e+001  3.0865e-001 47993 84552,84379,84353
 4.0000e+000 84483  1.4451e+001 -5.7229e+001 -7.2830e+000 47993 84624,84457,84431
 4.0000e+000 84578  3.3812e+001 -5.2866e+001 -7.6124e+000 47993 84431,84405,84552
 4.0000e+000 84601  1.9087e+001 -5.8158e+001 -6.1717e+000 47993 84624,84431,84552
 4.0000e+000 84650  1.9267e+001 -5.7966e+001 -3.8800e+000 47993 84353,84457,84624
 4.0000e+000 84673  2.6025e+001 -5.5222e+001 -1.4652e+000 47993 84353,84624,84552
 4.0000e+000 85104 -1.5823e+001 -1.2198e+002 -7.0356e+000 47588 85199,85127,84885
 4.0000e+000 85081 -1.3767e+001 -1.3966e+002 -1.1696e+001 47588 85127,84781,84963
 4.0000e+000 85058 -3.6029e+001 -1.1609e+002  1.6983e+001 47588 85199,84885,84807
 4.0000e+000 85035  5.3996e+000 -7.9415e+001  4.1239e+001 47588 84885,84937,84911
 4.0000e+000 85012 -1.7306e+001 -7.2151e+001  2.2205e+000 47588 84807,84885,84833
 4.0000e+000 84989 -1.7112e+001 -7.0706e+001  3.6524e+001 47588 84833,84885,84859
 4.0000e+000 85153 -1.6654e+001 -1.4452e+002 -1.0535e+000 47588 84937,84885,85127
 4.0000e+000 85176  2.8151e+001 -1.3548e+002  6.2379e-001 47588 84937,85127,84963
 4.0000e+000 85225 -5.5422e+001 -1.3837e+002 -8.3696e+000 47588 84781,85127,85199
 4.0000e+000 85248 -6.6918e+001 -1.2936e+002  1.8693e+001 47588 84781,85199,84807
 4.0000e+000 85518 -3.4071e+001 -2.4345e+002  3.7925e+001 47226 85293,85397,85319
 4.0000e+000 85495 -1.6733e+001 -2.1805e+002  1.8409e+001 47226 85293,85423,85397
 4.0000e+000 85472 -1.0228e+001 -2.5412e+002 -1.0358e+001 47226 85319,85397,85345
 4.0000e+000 85449  2.9933e+001 -5.1128e+001 -1.4063e+001 47226 85345,85397,85371
 4.0000e+000 85849 -2.0819e+001 -1.1292e+002  4.1096e+001 46572 85624,85702,85650
 4.0000e+000 85826 -1.1301e+001 -1.4495e+002  6.1520e+000 46572 85624,85754,85702
 4.0000e+000 85803  3.2662e+001 -7.1670e+001  2.9507e+001 46572 85702,85754,85728
 4.0000e+000 85780 -1.4378e+001 -1.1282e+002  4.8223e+001 46572 85650,85702,85676
 4.0000e+000 86070 -8.8046e+001 -1.2622e+002 -3.7723e+000 46374 85920,85972,85946
 4.0000e+000 86047 -5.2867e+001 -4.3716e+001  1.3898e+000 46374 85920,85998,85972
 4.0000e+000 86024 -3.3090e+001 -2.9355e+001  1.3236e+001 46374 85894,85998,85920
 4.0000e+000 86401  9.1944e+000 -6.5570e+001  7.6425e+000 46034 86424,86280,86228
 4.0000e+000 86378 -1.4685e+001 -6.7363e+001  4.5722e+000 46034 86424,86228,86176
 4.0000e+000 86355 -1.9574e+001 -5.3287e+001 -1.7701e+001 46034 86176,86228,86202
 4.0000e+000 86332  2.9756e+001 -5.6479e+001 -2.4938e+001 46034 86228,86280,86254
 4.0000e+000 86450  5.4831e+001 -7.3814e+001 -2.3008e+000 46034 86306,86280,86424
 4.0000e+000 86473  7.7336e+000 -9.1577e+001 -8.2526e+000 46034 86306,86424,86176
 4.0000e+000 87058  1.1553e+001 -5.7186e+001  1.5780e+001 45516 86813,86917,86865
 4.0000e+000 87035 -4.6137e-001 -9.5102e+001  6.5284e+000 45516 86787,86917,86813
 4.0000e+000 87012  7.4021e+000 -9.8029e+001  1.1509e+001 45516 86735,86917,86787
 4.0000e+000 86989  3.0118e+000 -5.3115e+001  1.4229e+001 45516 86865,86917,86891
 4.0000e+000 86966  1.1648e+001 -5.4487e+001  1.6217e+001 45516 86813,86865,86839
 4.0000e+000 86943 -6.7639e+000 -1.7367e+002 -1.8160e+000 45516 86735,86787,86761
 4.0000e+000 87208  4.2885e+001 -3.2486e+001 -1.6101e+001 45226 87231,87133,87107
 4.0000e+000 87185  1.2200e+001 -1.5070e+001 -3.9271e+000 45226 87081,87159,87133
 4.0000e+000 87257  3.2368e+001  2.5547e+001 -1.4109e+001 45226 87081,87133,87231
 4.0000e+000 87537  7.8598e+000 -7.9166e+001  1.6967e+001 44772 87387,87439,87413
 4.0000e+000 87514 -9.4548e+000 -8.4311e+001  1.3857e+001 44772 87361,87439,87387
 4.0000e+000 87491  9.0435e+000 -6.1377e+001  5.7050e+000 44772 87361,87465,87439
 4.0000e+000 87996 -8.3811e-001  2.3741e+001  1.0893e+001 44425 87748,87878,87852
 4.0000e+000 87973  2.8845e-001  2.4820e+001  4.0885e-001 44425 87722,87878,87748
 4.0000e+000 87950  3.4551e+000  1.5086e+001  6.9029e+000 44425 87800,87852,87826
 4.0000e+000 87927  3.0952e+001  2.4572e+001  6.8315e+000 44425 87748,87852,87800
 4.0000e+000 87904  2.9740e+000  6.9175e+000 -1.1479e+001 44425 87748,87800,87774
 4.0000e+000 88423 -8.6297e+000 -6.9320e+001  1.6870e+001 44078 88590,88230,88204
 4.0000e+000 88400 -5.1076e+000 -4.4549e+001  1.8627e+001 44078 88518,88446,88204
 4.0000e+000 88377  8.2423e+000 -7.2651e+001 -1.2315e+001 44078 88446,88126,88282
 4.0000e+000 88354 -1.1090e+001 -3.0322e+001  1.0472e+001 44078 88518,88204,88178
 4.0000e+000 88331  3.9107e+000 -9.1907e+001 -1.3262e+001 44078 88100,88282,88126
 4.0000e+000 88308 -9.6512e+000 -5.9483e+001  2.3505e+001 44078 88126,88178,88152
 4.0000e+000 88472 -1.1327e+001 -7.5642e+001  1.6862e+001 44078 88590,88204,88446
 4.0000e+000 88495 -1.0794e+001 -1.3033e+002 -1.6801e+001 44078 88256,88446,88282
 4.0000e+000 88544 -6.6947e+000 -7.6923e+001  1.9014e+001 44078 88126,88446,88518
 4.0000e+000 88567 -3.5877e+000 -4.9841e+001  1.2063e+001 44078 88126,88518,88178
 4.0000e+000 88616 -4.3601e+001 -1.7576e+002 -2.8942e-001 44078 88256,88230,88590
 4.0000e+000 88639 -5.2723e+000 -7.0523e+001  8.1347e+000 44078 88256,88590,88446
 4.0000e+000 89039  1.3637e+001  2.4371e+001  5.9031e+000 43716 88791,88921,88895
 4.0000e+000 89016  1.0460e+001  2.9091e+001  6.2848e+000 43716 88765,88921,88791
 4.0000e+000 88993  3.1734e+001  6.0683e+000  1.0101e+001 43716 88817,88895,88869
 4.0000e+000 88970  1.0228e+001  1.3447e+001  1.7272e+001 43716 88791,88895,88817
 4.0000e+000 88947  6.8740e+000  1.2135e+001 -3.6520e+000 43716 88817,88869,88843
 4.0000e+000 89496  3.9099e+000 -1.0681e+002 -1.0419e+001 43162 89519,89274,89248
 4.0000e+000 89473  1.0939e+001 -6.5093e+001 -1.9087e+000 43162 89519,89248,89222
 4.0000e+000 89450  7.4204e+000 -5.2676e+001 -1.4649e+001 43162 89326,89378,89352
 4.0000e+000 89427  3.4279e-001 -6.6735e+001 -3.8029e+000 43162 89274,89378,89326
 4.0000e+000 89404  5.4357e+000 -6.5534e+001 -2.5741e+000 43162 89274,89326,89300
 4.0000e+000 89545  6.4140e-001 -6.8886e+001 -2.1878e-001 43162 89378,89274,89519
 4.0000e+000 89568  1.0170e+001 -2.4141e+001  8.8250e+000 43162 89378,89519,89222
 4.0000e+000 89946 -1.1301e+001 -5.8426e+001 -5.9152e+001 42594 90041,89969,89750
 4.0000e+000 89923 -8.0281e+000 -5.2131e+001 -2.1413e+001 42594 89969,89698,89828
 4.0000e+000 89900  2.1267e+001 -7.2070e+001 -5.3087e+001 42594 90041,89750,89724
 4.0000e+000 89877 -2.0041e+001 -3.0813e+001 -2.0424e+001 42594 89750,89802,89776
 4.0000e+000 89854  2.0635e+001 -2.5073e+001 -7.0411e+000 42594 89672,89828,89698
 4.0000e+000 89995 -3.8545e+001 -4.3907e+001 -4.0121e+001 42594 89802,89750,89969
 4.0000e+000 90018  1.0562e+001  7.9113e+000 -8.5790e+000 42594 89802,89969,89828
 4.0000e+000 90067  1.9338e+001 -4.2142e+001 -4.6782e+001 42594 89698,89969,90041
 4.0000e+000 90090  5.6447e+001 -5.9605e+001 -4.9352e+001 42594 89698,90041,89724
 4.0000e+000 90517  1.9454e+001 -7.6523e+001 -1.0150e+001 42140 90540,90220,90194
 4.0000e+000 90494  2.3450e+001 -7.9828e+001 -1.1828e+001 42140 90540,90194,90376
 4.0000e+000 90471 -4.6830e-002 -8.3452e+001  2.8373e+000 42140 90612,90350,90272
 4.0000e+000 90448 -1.3421e+001 -7.5085e+001 -3.2738e+000 42140 90272,90350,90298
 4.0000e+000 90425 -9.2783e+000 -6.1529e+001 -8.7929e-001 42140 90298,90350,90324
 4.0000e+000 90402  3.0336e+001 -4.1864e+001  2.5028e+000 42140 90220,90272,90246
 4.0000e+000 90566  1.7076e+001 -4.5971e+001 -7.6109e+000 42140 90272,90220,90540
 4.0000e+000 90589  2.0990e+000 -7.8589e+001 -1.6423e+000 42140 90612,90272,90540
 4.0000e+000 90638  9.9613e+000 -9.3688e+001 -6.6589e+000 42140 90376,90350,90612
 4.0000e+000 90661  2.3272e+001 -7.9149e+001 -1.3023e+001 42140 90376,90612,90540
 4.0000e+000 91167 -9.8514e+000 -3.8118e+001  2.0939e+000 41636 91190,90870,90844
 4.0000e+000 91144 -1.7381e+001 -1.5739e+002  5.7394e+000 41636 91190,90844,91026
 4.0000e+000 91121 -2.9772e+000 -1.0967e+001 -1.5418e+001 41636 90870,90922,90896
 4.0000e+000 91098  1.4428e+001 -1.2661e+002  2.6303e+000 41636 90922,91026,90948
 4.0000e+000 91075  3.2127e+001 -1.0824e+002 -1.0445e+001 41636 90948,91026,91000
 4.0000e+000 91052 -4.4927e+001 -9.2750e+001  5.6709e+001 41636 90948,91000,90974
 4.0000e+000 91216 -2.3052e+001 -4.8944e+000  3.6585e+000 41636 90922,90870,91190
 4.0000e+000 91239  2.5788e+001 -4.6596e+001  2.3470e+001 41636 90922,91190,91026
 4.0000e+000 91696  8.5060e+000 -7.4066e+001 -5.4293e+000 40449 91448,91526,91474
 4.0000e+000 91673 -3.3204e+001 -9.5641e+001  4.3370e+000 40449 91448,91578,91526
 4.0000e+000 91650  1.1399e+001 -6.4471e+000 -7.2518e+000 40449 91474,91526,91500
 4.0000e+000 91627  4.1645e+000 -6.9991e+001  1.6000e+001 40449 91422,91578,91448
 4.0000e+000 91604  2.6325e+001 -6.6592e+001 -1.3190e+001 40449 91526,91578,91552
 4.0000e+000 92123  2.7193e+000 -8.4342e+001  2.1579e+000 39995 92146,91904,91826
 4.0000e+000 92100 -1.5824e+001 -9.4785e+001 -1.4978e+001 39995 92146,91826,91800
 4.0000e+000 92077 -4.7657e+001 -5.0351e+001 -3.9965e+000 39995 91826,91904,91852
 4.0000e+000 92054 -2.2249e+001 -1.7777e+002 -3.0166e+001 39995 91904,91982,91930
 4.0000e+000 92031  4.2754e+000 -2.2054e+001  1.3846e+001 39995 91852,91904,91878
 4.0000e+000 92008 -5.1608e+000 -1.3580e+002 -3.5568e+001 39995 91930,91982,91956
 4.0000e+000 92172  1.5212e+001 -1.0618e+002 -1.6573e+001 39995 91982,91904,92146
 4.0000e+000 92195 -4.7120e+000 -1.3289e+002 -3.1923e+001 39995 91982,92146,91800
 4.0000e+000 92652  2.2769e+000  2.4670e+001  1.0645e+001 39633 92404,92534,92456
 4.0000e+000 92629 -8.1125e+000  1.7806e+001  6.6637e+000 39633 92378,92534,92404
 4.0000e+000 92606 -1.4287e+001  1.7597e+001  1.0648e+001 39633 92404,92456,92430
 4.0000e+000 92583  3.8412e+000  7.9724e+000  5.0184e+000 39633 92456,92534,92508
 4.0000e+000 92560  2.3309e+000  5.6409e+000  4.4246e+000 39633 92456,92508,92482
 4.0000e+000 93079  1.5026e+000 -3.1190e+001 -7.4898e+000 39093 93102,92808,92756
 4.0000e+000 93056  5.1418e+000 -3.3353e+001 -4.8120e+000 39093 93102,92756,92938
 4.0000e+000 93033  9.4487e-001 -3.2745e+001 -1.1282e+000 39093 93174,92912,92834
 4.0000e+000 93010 -2.6088e+000 -1.4689e+001  7.7875e+000 39093 92834,92912,92860
 4.0000e+000 92987  3.5926e+000 -4.8645e+001 -1.4608e+001 39093 92756,92808,92782
 4.0000e+000 92964  4.3699e+000 -2.7258e+000  2.4716e+000 39093 92860,92912,92886
 4.0000e+000 93128  3.8109e+000 -2.1072e+001 -5.8282e+000 39093 92834,92808,93102
 4.0000e+000 93151  7.1157e-001 -3.1847e+001 -3.8334e+000 39093 93174,92834,93102
 4.0000e+000 93200  2.9818e+000 -3.1330e+001 -2.6937e+000 39093 92938,92912,93174
 4.0000e+000 93223  5.8029e+000 -3.0037e+001 -5.2447e+000 39093 92938,93174,93102
 4.0000e+000 93680 -7.3813e-001  5.0522e+000  1.3963e+000 38639 93703,93536,93484
 4.0000e+000 93657  1.5156e+000  2.8847e+000  9.8545e-001 38639 93703,93484,93432
 4.0000e+000 93634  3.4554e+000  8.3735e-001  4.1657e+000 38639 93432,93484,93458
 4.0000e+000 93611 -8.7496e-001  5.2476e+000  2.8090e+000 38639 93484,93536,93510
 4.0000e+000 93588  1.6437e+001  1.8790e+001  8.3314e+000 38639 93406,93562,93432
 4.0000e+000 93729  8.5986e-001  6.7804e+000  2.0594e+000 38639 93562,93536,93703
 4.0000e+000 93752  3.2978e+000  4.2297e+000  1.6378e+000 38639 93562,93703,93432
 4.0000e+000 94160  4.9740e-001  1.4939e+001  7.7536e+000 38292 93935,94039,93961
 4.0000e+000 94137 -5.6344e+000 -2.5353e+000  1.1328e+001 38292 93935,94065,94039
 4.0000e+000 94114 -1.4995e+001 -2.8080e+001 -3.5493e+000 38292 93961,94013,93987
 4.0000e+000 94091  7.6754e+000 -3.5977e+001  8.9511e+000 38292 93961,94039,94013
 4.0000e+000 94408  2.9513e+001  5.2593e+000  1.3775e+001 37880 94431,94261,94235
 4.0000e+000 94385  4.6862e+001 -1.9838e+000  2.1563e+001 37880 94431,94235,94313
 4.0000e+000 94362  4.0097e+001 -1.2691e+001  2.5381e+001 37880 94209,94313,94235
 4.0000e+000 94339  6.0723e+001  5.0842e+001  2.0441e+000 37880 94183,94313,94209
 4.0000e+000 94457 -2.6831e+000  3.4241e+000  1.7622e+001 37880 94287,94261,94431
 4.0000e+000 94480  2.9339e+001  6.5759e+000  2.1709e+001 37880 94287,94431,94313
 4.0000e+000 94728 -2.7962e+001 -9.5662e+001  3.5233e-002 37426 94529,94607,94555
 4.0000e+000 94705  6.3692e+000 -1.7570e+002 -1.9536e+001 37426 94529,94633,94607
 4.0000e+000 94682 -9.7825e+000 -1.8765e+002 -2.4739e+001 37426 94503,94633,94529
 4.0000e+000 94659 -1.5387e+001 -4.2816e+001 -2.5663e+001 37426 94555,94607,94581
 4.0000e+000 95257  5.5831e+000 -7.9480e+000  2.7244e+000 36722 95496,95280,94862
 4.0000e+000 95234 -1.0306e+001 -1.4766e+001  2.7045e+000 36722 95496,94862,94836
 4.0000e+000 95211 -2.3269e+000 -2.2486e+000 -5.3725e+000 36722 95352,95280,95070
 4.0000e+000 95188 -2.7397e+000 -2.2172e+000 -4.9087e+000 36722 95352,95070,95044
 4.0000e+000 95165 -1.5085e+001 -1.8836e+001  1.1805e+001 36722 95424,94888,94862
 4.0000e+000 95142 -1.6129e+001  1.1252e+001  1.6874e+000 36722 94914,94966,94940
 4.0000e+000 95119 -2.3465e+000  5.7347e-001 -4.9756e+000 36722 94966,95044,95018
 4.0000e+000 95096 -3.9427e+000 -4.3709e+000 -4.6430e+000 36722 94966,95018,94992
 4.0000e+000 95306  5.1428e+000 -7.9296e+000  2.6532e+000 36722 95424,94862,95280
 4.0000e+000 95329  1.2257e+001  1.3408e+001 -1.1862e+001 36722 94914,95280,94966
 4.0000e+000 95378 -3.0864e+000 -2.4598e+000 -5.2513e+000 36722 94966,95280,95352
 4.0000e+000 95401 -3.4514e+000 -2.2632e+000 -4.9133e+000 36722 94966,95352,95044
 4.0000e+000 95450  1.2833e+001 -2.0598e+000  4.4212e+000 36722 94914,94888,95424
 4.0000e+000 95473  1.5018e+001 -6.7148e+000 -3.0723e-001 36722 94914,95424,95280
 4.0000e+000 95522  7.6843e+000 -9.0478e+000  1.8841e+000 36722 95070,95280,95496
 4.0000e+000 95545  7.0545e+000 -8.0623e+000  2.5469e+000 36722 95070,95496,94836
 4.0000e+000 96130  1.8424e+000 -3.4217e-001  3.2726e-001 36268 96153,95911,95859
 4.0000e+000 96107  3.2840e+000  3.7450e+000  9.8348e-001 36268 96153,95859,95807
 4.0000e+000 96084  3.9647e+000  2.0378e+000 -2.3151e+000 36268 95807,95859,95833
 4.0000e+000 96061 -2.9041e+000 -3.6650e-001 -2.5236e-001 36268 95911,95989,95937
 4.0000e+000 96038 -1.5394e+000 -1.4939e+000  1.6813e+000 36268 95859,95911,95885
 4.0000e+000 96015 -5.1527e-001  2.8992e-001 -3.8930e-001 36268 95937,95989,95963
 4.0000e+000 96179 -1.1430e+000  3.6462e+000 -6.2958e-001 36268 95989,95911,96153
 4.0000e+000 96202  1.1530e+000  8.9736e+000  2.8006e-001 36268 95989,96153,95807
 4.0000e+000 96531 -2.6189e+000 -4.8198e+001  3.0295e+001 35728 96358,96410,96384
 4.0000e+000 96508  1.0529e+001 -4.4139e+001  2.8932e+001 35728 96332,96410,96358
 4.0000e+000 96485  1.9076e+000 -5.9837e+001  3.3007e+001 35728 96332,96436,96410
 4.0000e+000 96462 -1.0554e+000 -3.0039e+001  1.9843e+000 35728 96306,96436,96332
 4.0000e+000 96860  2.2024e+000 -1.5915e+001  9.2563e-003 35324 96687,96765,96713
 4.0000e+000 96837  1.1026e+001  6.9680e-001 -9.4665e+000 35324 96661,96765,96687
 4.0000e+000 96814  2.2969e+000  2.6904e+001 -2.2986e+001 35324 96713,96765,96739
 4.0000e+000 96791 -1.0518e+001  1.6976e+001 -7.8611e+000 35324 96635,96765,96661
 4.0000e+000 97366 -4.9537e+000 -6.6953e+001  1.0025e+001 34920 97389,97069,97043
 4.0000e+000 97343 -2.8044e+000 -6.0844e+001  1.0025e+001 34920 97389,97043,97199
 4.0000e+000 97320  1.0361e+001 -4.8719e+001  2.3958e+000 34920 97043,97225,97199
 4.0000e+000 97297  9.7585e+000 -1.7946e+002  2.5171e+001 34920 97069,97121,97095
 4.0000e+000 97274  2.1891e+001 -5.7017e+001 -3.9397e-001 34920 97121,97199,97173
 4.0000e+000 97251  4.7461e+000 -3.3227e+001 -2.1931e+001 34920 97121,97173,97147
 4.0000e+000 97415 -8.6327e+000 -6.6662e+001  1.8457e+000 34920 97121,97069,97389
 4.0000e+000 97438 -2.9976e+000 -5.3331e+001  1.9598e+000 34920 97121,97389,97199
 4.0000e+000 97708 -3.4582e+001 -5.6165e+000  7.5965e+000 34722 97509,97587,97535
 4.0000e+000 97685 -1.8931e+001 -8.7476e+000  5.1233e+000 34722 97509,97613,97587
 4.0000e+000 97662 -2.4479e+001 -1.3324e+001  1.3838e+000 34722 97483,97613,97509
 4.0000e+000 97639 -1.8501e+001 -1.5666e+000  3.1458e+000 34722 97535,97587,97561
 4.0000e+000 98216 -7.7241e+000 -4.8937e+001  1.8658e+001 34318 97971,98075,97997
 4.0000e+000 98193 -1.9701e+000 -5.9975e+001  3.2551e+001 34318 97893,98075,97971
 4.0000e+000 98170  3.3022e+001 -5.5778e+001  1.4816e+001 34318 97893,97971,97919
 4.0000e+000 98147 -5.2902e+000 -4.1719e+001  1.8572e+001 34318 97997,98075,98049
 4.0000e+000 98124 -1.9051e+000 -4.4401e+001  7.4924e+000 34318 97919,97971,97945
 4.0000e+000 98101 -2.3511e+001 -8.1361e+001  2.6135e+001 34318 97997,98049,98023
 4.0000e+000 98594  7.5490e+000  5.4506e+000  1.3625e+000 33814 98961,98617,98424
 4.0000e+000 98571  2.5654e+001  9.4197e-001 -2.6145e-001 33814 98689,98617,98372
 4.0000e+000 98548  3.3983e+001  3.0147e+001 -5.8028e+000 33814 99033,98689,98372
 4.0000e+000 98525  1.4730e+001  8.0069e+000  1.1476e+000 33814 98761,98476,98450
 4.0000e+000 98502 -1.5108e+000  5.6704e+000 -1.5456e+000 33814 98961,98424,98398
 4.0000e+000 98643  1.8803e+001  1.2358e+001  5.1540e+000 33814 98450,98424,98617
 4.0000e+000 98666  1.9390e+001  1.3722e+001  5.3056e+000 33814 98761,98450,98617
 4.0000e+000 98715  2.5449e+001 -6.1118e+000  1.9561e+000 33814 99161,98689,98320
 4.0000e+000 98738 -9.9820e+000 -1.2015e+001  1.0771e+001 33814 98320,98689,98346
 4.0000e+000 98787  2.4800e+001 -1.1783e+000  1.0938e+001 33814 98833,98761,98320
 4.0000e+000 98810  2.5338e+001 -8.1571e+000  5.0626e+000 33814 99161,98320,98761
 4.0000e+000 98859  2.4493e+001  3.0531e+001  2.6291e+000 33814 98476,98761,98833
 4.0000e+000 98987  2.4213e+001 -2.3314e+000 -1.4970e+000 33814 98372,98617,98961
 4.0000e+000 99010  1.3776e+001 -4.1207e+000 -6.5754e+000 33814 98372,98961,98398
 4.0000e+000 99059  2.5635e+001  7.4654e-001  9.0716e+000 33814 98346,98689,99033
 4.0000e+000 99187  2.6894e+001  4.4246e-001 -7.2819e-001 33814 98617,98689,99161
 4.0000e+000 99210  2.4641e+001 -3.0928e+000  2.8261e+000 33814 98617,99161,98761
 4.0000e+000 99588  3.6468e+000  2.2061e+000  4.1510e+000 33566 99366,99444,99392
 4.0000e+000 99565  3.0102e+000  8.8240e+000  5.2735e+000 33566 99314,99444,99366
 4.0000e+000 99542  2.8836e+000 -2.3640e+000  1.4626e-001 33566 99314,99366,99340
 4.0000e+000 99519  4.7662e+000  1.4990e+001 -2.4173e+000 33566 99314,99470,99444
 4.0000e+000 99496  2.2070e+000  1.6433e+001  1.1212e+001 33566 99392,99444,99418
 4.0000e+000 99787  1.3449e+001 -2.5742e+000  3.2670e+001 33105 99637,99689,99663
 4.0000e+000 99764  1.5964e+001  1.6758e+001  8.4466e-001 33105 99611,99689,99637
 4.0000e+000 99741  1.6405e+001  3.0407e+001  3.1822e+000 33105 99611,99715,99689
 4.0000e+000 100167 -2.2959e+001 -7.7189e+001  4.6138e+001 32651 100190,99971,99919
 4.0000e+000 100144  1.4319e+001 -4.5112e+001  3.2120e+001 32651 100262,100190,99919
 4.0000e+000 100121  1.8919e+000 -4.0970e+001  2.1753e+001 32651 100262,99919,100049
 4.0000e+000 100098 -4.1910e+000 -4.2923e+001 -6.2756e+000 32651 99893,100049,99919
 4.0000e+000 100075 -3.3870e+001 -7.9900e+001  3.9213e+001 32651 99919,99971,99945
 4.0000e+000 100216  1.2801e+001 -8.0614e+001  2.5510e+001 32651 99997,99971,100190
 4.0000e+000 100239  2.7152e+001 -6.7417e+001  1.4446e+001 32651 99997,100190,100023
 4.0000e+000 100288  4.6175e+000 -6.8765e+001  2.6125e+001 32651 100023,100190,100262
 4.0000e+000 100311 -8.1147e+000 -6.2486e+001  7.7100e+000 32651 100023,100262,100049
 4.0000e+000 100608 -7.6770e-001 -4.8146e+001  5.7406e+000 32254 100386,100490,100464
 4.0000e+000 100585  3.2522e+000 -9.0739e+000 -2.2501e+000 32254 100360,100490,100386
 4.0000e+000 100562 -2.3006e+001 -8.2413e+001 -1.2217e+001 32254 100386,100464,100412
 4.0000e+000 100539 -1.1419e+000 -9.5744e+000  2.9419e-001 32254 100334,100490,100360
 4.0000e+000 100516  2.3494e+001 -2.2380e+001  1.0984e+001 32254 100412,100464,100438
 4.0000e+000 100758 -2.8823e+000  7.3532e+000 -6.5345e-001 31914 100985,100781,100683
 4.0000e+000 100735 -1.7750e+001  2.7228e+000  1.5462e+001 31914 100853,100781,100657
 4.0000e+000 100807  1.0935e+001  1.0496e+001 -1.1176e+001 31914 100709,100683,100781
 4.0000e+000 100830 -4.8859e+000  8.9742e+000  6.5388e+000 31914 100709,100781,100631
 4.0000e+000 100879 -1.0656e+001 -1.5272e+001  1.3386e+001 31914 100631,100781,100853
 4.0000e+000 101011  3.2015e+000  4.1154e+000  4.0512e+000 31914 100657,100781,100985
 4.0000e+000 101191 -3.9711e+001  3.9303e+001 -5.3077e+000 31418 101113,101165,101139
 4.0000e+000 101341 -8.0868e+001 -1.4771e+002 -1.2890e+001 31106 101214,101266,101240
 4.0000e+000 101318 -4.5952e+001 -4.4820e+001  2.2445e+000 31106 101214,101292,101266
 4.0000e+000 101591 -2.0376e+001 -8.3612e+001  4.8300e+001 30552 101614,101470,101444
 4.0000e+000 101568 -2.5140e+001 -5.4250e+001  1.8164e+001 30552 101366,101496,101470
 4.0000e+000 101545 -4.9613e+000 -7.8383e+001  3.5736e+001 30552 101614,101444,101392
 4.0000e+000 101522 -3.6841e+000 -2.2897e+001 -6.0719e+000 30552 101392,101444,101418
 4.0000e+000 101640  1.3093e+000 -8.5355e+001  4.0610e+001 30552 101366,101470,101614
 4.0000e+000 101663  1.4455e+001 -8.1966e+001  2.8183e+001 30552 101366,101614,101392
 4.0000e+000 102301  6.0246e+000 -8.6397e+001 -1.4147e+001 30042 102396,102324,102059
 4.0000e+000 102278 -1.7134e+001 -7.9304e+001 -3.9167e+001 30042 102324,101981,101955
 4.0000e+000 102255 -1.0570e+001 -6.7806e+001  1.3153e+001 30042 102396,102059,102033
 4.0000e+000 102232 -1.4378e+001 -4.2061e+001  2.5347e-001 30042 101929,102111,101955
 4.0000e+000 102209 -7.9966e-002 -8.4249e+001 -4.0158e+000 30042 102059,102111,102085
 4.0000e+000 102186 -1.9170e+001 -4.5171e+001  2.8597e+000 30042 101929,102137,102111
 4.0000e+000 102163  1.2908e+000 -1.6877e+000 -4.4772e+000 30042 101981,102033,102007
 4.0000e+000 102350  2.2276e+001 -7.9706e+001 -1.4216e+001 30042 102111,102059,102324
 4.0000e+000 102373  1.9383e+001 -7.7330e+001 -1.8093e+001 30042 102111,102324,101955
 4.0000e+000 102422  2.5552e+001 -2.3547e+001 -1.9982e+001 30042 101981,102324,102396
 4.0000e+000 102445  9.5363e+000 -4.7019e+000  8.0747e+000 30042 101981,102396,102033
 4.0000e+000 103000  4.4252e+001 -6.6144e+001  2.0676e+000 29730 103023,102706,102654
 4.0000e+000 102977  3.5672e+000 -7.2449e+001 -4.8408e+000 29730 103023,102654,102810
 4.0000e+000 102954 -4.5490e+001 -1.2338e+002 -3.4737e+000 29730 102732,102810,102784
 4.0000e+000 102931  8.2423e+000 -8.0556e+001 -6.4664e+000 29730 102628,102810,102654
 4.0000e+000 102908  3.9274e+001 -2.1373e+001  1.5809e+001 29730 102654,102706,102680
 4.0000e+000 102885 -1.7154e+001 -3.2211e+001 -2.3922e+001 29730 102732,102784,102758
 4.0000e+000 102862 -5.6791e+000 -9.0017e+001  5.9099e+000 29730 102628,102836,102810
 4.0000e+000 103049  2.0211e+001 -7.4992e+001 -1.8391e+001 29730 102732,102706,103023
 4.0000e+000 103072 -5.0011e+000 -6.7209e+001 -2.3532e+001 29730 102732,103023,102810
 4.0000e+000 103222  5.2826e+001 -6.9164e+001  2.5048e+000 29226 103095,103147,103121
 4.0000e+000 103199  4.3429e+001 -2.8876e+001 -1.2863e+001 29226 103095,103173,103147
 4.0000e+000 103730 -6.8813e+000 -8.9141e+001  1.0286e+001 28822 103537,103589,103563
 4.0000e+000 103707  2.0818e+000 -6.8349e+001  7.2658e+000 28822 103433,103589,103537
 4.0000e+000 103684  1.3067e+001 -5.4000e+001 -9.8445e+000 28822 103433,103537,103459
 4.0000e+000 103661  2.1129e+001 -8.2487e+001  1.3074e+001 28822 103407,103589,103433
 4.0000e+000 103638  4.0170e+000 -1.4916e+001  2.3024e+001 28822 103459,103511,103485
 4.0000e+000 103615 -2.3883e+001 -5.5958e+000  1.8575e+001 28822 103459,103537,103511
 4.0000e+000 103880  2.5833e+001 -4.4059e+001  1.7026e+001 28368 103975,103903,103779
 4.0000e+000 103857  1.2099e+000 -1.2563e+002  6.9714e+000 28368 103903,103753,103831
 4.0000e+000 103929  8.2426e-002 -2.2986e+001  5.8244e-001 28368 103805,103779,103903
 4.0000e+000 103952 -5.3018e+000 -6.1982e+001  4.1486e-001 28368 104105,103903,103831
 4.0000e+000 104001  1.7540e+001 -6.0464e+001 -5.9323e+000 28368 103753,103903,103975
 4.0000e+000 104131 -5.7150e+000 -5.6471e+001  1.0232e+001 28368 103805,103903,104105
 4.0000e+000 104539  1.7102e+000  9.3845e+000  4.8202e+000 28028 104562,104340,104314
 4.0000e+000 104516  3.9360e+000  2.7379e+000  2.0474e+000 28028 104634,104562,104314
 4.0000e+000 104493  4.2285e+000  1.0576e+001  6.4505e+000 28028 104762,104366,104340
 4.0000e+000 104470  2.1230e+000  5.9564e+000  4.6220e-001 28028 104366,104418,104392
 4.0000e+000 104588  2.7488e+000  1.0557e+001  6.0187e+000 28028 104762,104340,104562
 4.0000e+000 104611  1.0790e+001  1.0749e+001  8.0832e-001 28028 104418,104562,104444
 4.0000e+000 104660  5.7936e-001  6.4590e+000  1.1993e+000 28028 104444,104562,104634
 4.0000e+000 104788  2.5535e+000  1.0378e+001  6.0477e+000 28028 104418,104366,104762
 4.0000e+000 104811  1.0927e+000  1.0219e+001  5.4848e+000 28028 104418,104762,104562
 4.0000e+000 105010  2.0930e+000  5.1841e+000 -5.6633e+000 27324 105033,104886,104860
 4.0000e+000 104987 -5.8706e+000  4.7151e+000  2.2141e+000 27324 105033,104860,104834
 4.0000e+000 104964  1.2994e+001  7.9796e+000 -6.3363e+000 27324 105105,104912,104886
 4.0000e+000 105059  2.7607e+000  1.0195e+001 -8.5030e+000 27324 105105,104886,105033
 4.0000e+000 105082  2.4992e+000  6.7210e+000 -5.1748e+000 27324 104938,105033,104834
 4.0000e+000 105131  2.9958e+001  1.0365e+001 -2.7871e+000 27324 104938,104912,105105
 4.0000e+000 105154  1.7320e+001  9.1702e+000 -7.2182e+000 27324 104938,105105,105033
 4.0000e+000 105402 -9.6902e+000 -1.6157e+001 -1.5178e+001 27012 105229,105281,105255
 4.0000e+000 105379  1.6293e+001 -1.2213e+001 -1.8884e+001 27012 105229,105307,105281
 4.0000e+000 105356  4.4461e+001  1.7736e+001 -5.9585e+000 27012 105177,105307,105229
 4.0000e+000 105333 -2.5071e+001 -6.7556e+001 -5.1136e+001 27012 105177,105229,105203
 4.0000e+000 105603  1.5862e+001  2.6353e+001 -1.3450e+001 26508 105626,105453,105427
 4.0000e+000 105580  2.5351e+001  4.8037e+001  2.9050e+001 26508 105626,105427,105505
 4.0000e+000 105557  1.2638e+001  5.1220e+001  2.5342e+001 26508 105427,105531,105505
 4.0000e+000 105652 -1.3403e+001  1.3928e+001 -2.0522e+001 26508 105479,105453,105626
 4.0000e+000 105675 -1.6317e+001  2.3922e+001  1.8439e+001 26508 105479,105626,105505
 4.0000e+000 106057 -1.0627e+001 -3.7691e+001  2.2587e+001 25947 106080,105887,105861
 4.0000e+000 106034 -3.7376e+000 -2.7088e+001  1.4399e+001 25947 106080,105861,105783
 4.0000e+000 106011  1.0230e+000 -1.9397e+001  1.1888e+001 25947 105783,105835,105809
 4.0000e+000 105988 -8.8443e+000 -2.9234e+001  1.5983e+001 25947 105783,105861,105835
 4.0000e+000 105965  5.4267e+000 -1.7592e+001  6.1616e+000 25947 105887,105939,105913
 4.0000e+000 106106 -8.2199e+000 -3.3115e+001  1.2881e+001 25947 105939,105887,106080
 4.0000e+000 106129  7.0202e+000 -1.3234e+001  3.1737e+000 25947 105939,106080,105783
 4.0000e+000 106714  1.1807e+000 -1.7988e+001  5.5564e+000 25557 106809,106737,106547
 4.0000e+000 106691 -4.4480e+000 -4.2789e+001  2.1549e+001 25557 106737,106417,106391
 4.0000e+000 106668  1.2313e+001 -1.3339e+001  3.6053e+000 25557 106809,106547,106495
 4.0000e+000 106645 -5.1839e+000 -8.3930e+001  3.9241e+001 25557 106417,106495,106469
 4.0000e+000 106622  3.0201e+001 -4.5752e+000  6.3699e+000 25557 106495,106547,106521
 4.0000e+000 106599 -1.1630e+001 -8.3040e+001  3.7034e+001 25557 106417,106469,106443
 4.0000e+000 106763 -6.5424e+000 -2.5362e+001  9.9135e+000 25557 106573,106547,106737
 4.0000e+000 106786  6.7512e+000 -2.0093e+001  1.4995e+001 25557 106573,106737,106391
 4.0000e+000 106835  1.4833e+001 -2.5287e+001  1.0548e+001 25557 106417,106737,106809
 4.0000e+000 106858  2.2075e+001 -2.2786e+001  7.6602e+000 25557 106417,106809,106495
 4.0000e+000 107364 -1.5458e+000  2.6063e+001 -3.5414e+000 25153 107459,107387,107171
 4.0000e+000 107341 -2.5407e+000  6.6617e+000 -6.7414e+000 25153 107387,107119,107067
 4.0000e+000 107318 -1.4866e+000  2.0259e+001 -9.3967e+000 25153 107459,107171,107145
 4.0000e+000 107295  1.1509e+001  5.1085e+000 -1.1172e+001 25153 107531,107223,107197
 4.0000e+000 107272  2.1492e+001  4.4509e+001 -2.7684e+001 25153 107067,107119,107093
 4.0000e+000 107249  2.6092e+001  1.5971e+001 -1.9423e+001 25153 107041,107223,107067
 4.0000e+000 107413 -2.3396e+001  5.7383e+000  1.0804e+001 25153 107197,107171,107387
 4.0000e+000 107436  8.3992e-001 -6.8416e+000  1.4271e+000 25153 107531,107197,107387
 4.0000e+000 107485 -5.6819e+000  1.5510e+001 -5.7847e+000 25153 107119,107387,107459
 4.0000e+000 107508 -6.8607e+000  1.0432e+001 -1.2434e+001 25153 107119,107459,107145
 4.0000e+000 107557  2.1455e+001  1.5184e+001 -2.1063e+001 25153 107067,107223,107531
 4.0000e+000 107580  1.3963e+001  1.2761e+001 -9.3214e+000 25153 107067,107531,107387
 4.0000e+000 107958  6.0851e+000 -4.4462e+001 -4.2172e+000 24741 107736,107814,107788
 4.0000e+000 107935 -9.1457e+000 -6.7156e+001 -2.2799e+001 24741 107736,107840,107814
 4.0000e+000 107912 -1.0894e+001 -5.3413e+001 -2.4902e+001 24741 107684,107840,107736
 4.0000e+000 107889 -5.5701e+000 -9.6289e+000 -1.6066e+001 24741 107736,107788,107762
 4.0000e+000 107866 -2.2074e+001 -9.5034e+001 -3.4478e+001 24741 107684,107736,107710
 4.0000e+000 108157  1.9107e+001 -7.9078e+000 -1.2408e+001 24237 108180,108059,108007
 4.0000e+000 108134  3.7255e+001  1.6943e+001  5.1675e+000 24237 108180,108007,107981
 4.0000e+000 108111 -4.9840e+000  5.3369e+001 -2.1523e+001 24237 108007,108059,108033
 4.0000e+000 108206  3.1605e+001  1.2643e+001  6.4783e+000 24237 108085,108059,108180
 4.0000e+000 108229  4.8808e+001  3.7049e+001  2.3886e+001 24237 108085,108180,107981
 4.0000e+000 108658 -2.1042e+000 -4.3714e+001  1.9667e+001 23776 108361,108413,108387
 4.0000e+000 108635 -1.3271e+001 -9.3454e+001 -9.6830e+000 23776 108753,108681,108361
 4.0000e+000 108612  1.1766e+000 -4.8681e+001 -5.8308e+000 23776 108681,108465,108439
 4.0000e+000 108589 -2.8725e-001 -1.0420e+002  3.5244e+000 23776 108753,108361,108335
 4.0000e+000 108566 -1.7800e+001 -9.4233e+001  3.0051e+001 23776 108335,108517,108465
 4.0000e+000 108543 -2.0045e+001 -8.9604e+001  2.8181e+001 23776 108465,108517,108491
 4.0000e+000 108707 -2.3834e+001 -4.9407e+001 -5.8508e+000 23776 108413,108361,108681
 4.0000e+000 108730 -9.2978e+000 -1.9803e+001  1.0242e+001 23776 108413,108681,108439
 4.0000e+000 108779 -1.1782e+000 -4.9447e+001 -8.1708e+000 23776 108465,108681,108753
 4.0000e+000 108802 -2.5915e+000 -8.3856e+001  7.8017e-001 23776 108465,108753,108335
 4.0000e+000 109023  7.7075e+000  2.7016e+001 -1.9132e+001 23414 108873,108925,108899
 4.0000e+000 109000  3.8520e+001  4.1126e+001 -1.5317e+001 23414 108847,108925,108873
 4.0000e+000 108977  3.9353e+001  6.2012e+001  5.2000e+000 23414 108847,108951,108925
 4.0000e+000 109474 -2.4864e+000  7.6299e+000  2.7959e+000 23024 109151,109307,109177
 4.0000e+000 109451  2.2501e+000  1.4707e+000  1.8633e+000 23024 109151,109333,109307
 4.0000e+000 109428  1.4672e+001 -7.3229e+001 -1.9710e-001 23024 109177,109281,109203
 4.0000e+000 109405 -3.1641e+000 -3.6085e+001 -2.3041e+001 23024 109177,109307,109281
 4.0000e+000 109382  1.0636e+001 -5.7922e+001  9.9712e+000 23024 109203,109281,109229
 4.0000e+000 109359 -6.5296e+000 -4.9837e+001 -1.2440e+000 23024 109229,109281,109255
 4.0000e+000 109820 -1.0798e+000 -4.7840e+001  5.6585e+000 22506 109843,109601,109523
 4.0000e+000 109797  4.0706e+000 -3.5912e+001  7.2535e-001 22506 109843,109523,109497
 4.0000e+000 109774  3.6416e+000 -5.9818e+001  1.2795e+000 22506 109915,109653,109627
 4.0000e+000 109751 -3.2879e+000 -3.0378e+001 -1.4957e+000 22506 109497,109679,109653
 4.0000e+000 109728 -6.3143e+000 -6.1367e+001 -1.2701e+001 22506 109523,109601,109575
 4.0000e+000 109705 -2.5263e+001 -7.7736e+001 -2.1057e+001 22506 109523,109575,109549
 4.0000e+000 109869  9.1826e+000 -4.1827e+001  8.3291e+000 22506 109627,109601,109843
 4.0000e+000 109892  1.0526e+001 -4.7965e+001  6.5491e+000 22506 109915,109627,109843
 4.0000e+000 109941 -3.7598e+000 -5.0942e+001 -5.7742e+000 22506 109497,109653,109915
 4.0000e+000 109964 -2.8244e+000 -5.0095e+001 -2.1629e+000 22506 109497,109915,109843
 4.0000e+000 110163  6.8100e+000 -2.9698e+001  2.4309e+000 21936 110186,110039,110013
 4.0000e+000 110140  2.4454e+001 -1.4390e+001  9.6782e+000 21936 110390,110186,110013
 4.0000e+000 110117  4.1580e+001 -2.8454e+001  2.5859e+001 21936 110390,110013,109987
 4.0000e+000 110212  2.0662e+001 -4.2481e+000 -1.5179e+001 21936 110065,110039,110186
 4.0000e+000 110235 -4.2055e+000 -1.4233e+001 -4.9888e+000 21936 110258,110186,110091
 4.0000e+000 110284 -2.3781e+001 -2.3810e+001 -9.8494e+000 21936 110065,110186,110258
 4.0000e+000 110416 -1.3085e+001 -2.1803e+001  1.3323e+001 21936 110091,110186,110390
 4.0000e+000 110439  1.1958e+001 -3.0766e+001  2.7851e+001 21936 110091,110390,109987
 4.0000e+000 110709  1.7614e+001 -4.2668e+001  1.8087e+000 21338 110510,110614,110588
 4.0000e+000 110686  1.0543e+001 -6.3040e+001 -2.9383e+000 21338 110484,110614,110510
 4.0000e+000 110663  2.9395e+001  3.8551e+000  1.1431e+000 21338 110510,110562,110536
 4.0000e+000 110640  1.0295e+001 -4.1861e+001 -2.3106e+000 21338 110510,110588,110562
 4.0000e+000 111296  1.2276e+001 -2.4176e+001 -2.8635e+000 20934 111025,111155,111103
 4.0000e+000 111273 -4.0060e+000 -8.8985e+001 -1.6011e+000 20934 110999,111155,111025
 4.0000e+000 111250 -1.7184e-001 -2.9234e+001 -3.6370e+000 20934 111103,111155,111129
 4.0000e+000 111227 -6.7900e+000 -7.6774e+001 -1.4812e+001 20934 111051,111103,111077
 4.0000e+000 111204 -8.1250e+000 -7.1226e+001 -1.2081e+001 20934 111025,111103,111051
 4.0000e+000 111181 -1.0007e+001 -1.0168e+002 -4.1749e+000 20934 110973,111155,110999
 4.0000e+000 111930 -1.5863e+001 -5.0172e+001 -3.7467e+001 20494 111662,111714,111688
 4.0000e+000 111907 -1.3881e+001 -1.7301e+001 -2.7628e+001 20494 111584,111714,111662
 4.0000e+000 111884 -6.1551e+000 -9.3744e+000 -3.1198e+001 20494 111584,111766,111714
 4.0000e+000 111861  4.1379e+001 -1.0641e+001 -1.3818e+001 20494 111584,111636,111610
 4.0000e+000 111838  1.8435e+000 -1.0340e+001 -3.7429e+001 20494 111584,111662,111636
 4.0000e+000 111815 -3.8782e+000  5.1562e+000 -1.1095e+001 20494 111558,111766,111584
 4.0000e+000 111792  3.2577e+000  2.8043e+001 -7.1975e+000 20494 111714,111766,111740
 4.0000e+000 112249 -6.5676e+000 -2.1141e+002  1.3417e+001 19940 111975,112053,112001
 4.0000e+000 112226  5.8240e+001 -8.3887e+001 -9.9950e+000 19940 111975,112131,112053
 4.0000e+000 112203  6.6401e+000 -2.0000e+002  0.0000e+000 19940 112053,112105,112079
 4.0000e+000 112180  2.0971e+001 -1.9562e+002  1.5631e+000 19940 112053,112131,112105
 4.0000e+000 112157 -3.6067e-001 -1.8730e+002 -9.8473e+000 19940 112001,112053,112027
 4.0000e+000 112757  1.7669e+001 -4.2056e+001 -1.4915e+001 19486 112780,112538,112486
 4.0000e+000 112734  1.5455e+001 -4.5689e+001 -6.2149e+000 19486 112780,112486,112460
 4.0000e+000 112711  2.2601e+000 -3.7112e+001 -6.3247e+000 19486 112852,112616,112590
 4.0000e+000 112688  5.5892e+001 -6.4182e+001 -1.9723e+001 19486 112486,112538,112512
 4.0000e+000 112665 -9.1025e+000 -5.5240e+001  3.8238e+000 19486 112434,112616,112460
 4.0000e+000 112642  3.7180e+000 -3.3974e+001 -9.8266e+000 19486 112538,112590,112564
 4.0000e+000 112806  1.1535e+001 -4.5475e+001 -1.2748e+001 19486 112590,112538,112780
 4.0000e+000 112829  1.7347e+001 -4.0662e+001 -9.4044e+000 19486 112852,112590,112780
 4.0000e+000 112878 -7.6524e+000 -4.1047e+001 -2.2286e+000 19486 112460,112616,112852
 4.0000e+000 112901  1.1833e+000 -5.0379e+001 -3.7737e+000 19486 112460,112852,112780
 4.0000e+000 113252 -3.7820e+001 -7.7978e+001 -2.9649e+000 19096 113105,113157,113131
 4.0000e+000 113229 -2.9661e+001 -5.4433e+001 -1.7140e-001 19096 113053,113157,113105
 4.0000e+000 113206 -2.1878e+001 -5.0914e+001  7.7440e-001 19096 113027,113157,113053
 4.0000e+000 113183 -4.5086e+001 -8.7314e+001  4.6154e+000 19096 113053,113105,113079
 4.0000e+000 113451  1.1460e+001 -7.7716e+001 -2.3693e+001 18642 113327,113379,113353
 4.0000e+000 113428  8.1749e-001 -1.0931e+002 -1.8526e+001 18642 113301,113379,113327
 4.0000e+000 113405  1.8470e+001 -7.8661e+001 -6.0871e+000 18642 113275,113379,113301
 4.0000e+000 113699  1.5632e+001 -7.7331e+001 -5.7097e+000 18138 113474,113552,113526
 4.0000e+000 113676  3.7282e+001 -8.8417e+001 -1.7007e+001 18138 113474,113578,113552
 4.0000e+000 113653  3.7400e+001 -8.8352e+001 -1.7049e+001 18138 113474,113604,113578
 4.0000e+000 113630  3.1162e+001 -5.4589e+001  1.1194e+000 18138 113474,113526,113500
 4.0000e+000 113851 -2.4960e+000 -8.4654e+001 -3.0841e+000 17682 113750,113802,113776
 4.0000e+000 113828  8.4538e+000 -7.3909e+001  1.6322e+000 17682 113724,113802,113750
 4.0000e+000 114383  3.8764e+001 -1.1539e+002 -9.2622e+000 17106 114086,114242,114164
 4.0000e+000 114360  5.7789e+001 -1.0803e+002 -1.8438e+001 17106 114060,114242,114086
 4.0000e+000 114337  3.9422e-002 -2.1090e+002  1.4467e+001 17106 114086,114164,114138
 4.0000e+000 114314 -5.3850e+001 -3.2608e+002 -5.9775e+000 17106 114190,114242,114216
 4.0000e+000 114291 -1.2864e+001 -2.3287e+002 -2.6070e+001 17106 114164,114242,114190
 4.0000e+000 114268  3.1116e+001 -1.7911e+002  3.3046e+001 17106 114086,114138,114112
 4.0000e+000 114680 -2.9778e+001 -9.6652e+001  2.0073e+000 16766 114703,114432,114406
 4.0000e+000 114657 -3.3230e+001 -9.5707e+001 -8.3799e-001 16766 114703,114406,114510
 4.0000e+000 114634 -3.5977e+001 -6.7106e+001  1.0272e+001 16766 114406,114536,114510
 4.0000e+000 114611 -1.6748e+001 -1.0227e+002 -6.3223e+000 16766 114432,114484,114458
 4.0000e+000 114588 -5.3524e+001 -8.7098e+001  4.2027e+001 16766 114406,114562,114536
 4.0000e+000 114729 -1.6562e+001 -9.4913e+001  3.9900e+000 16766 114484,114432,114703
 4.0000e+000 114752 -2.7794e+001 -9.9521e+001  9.2551e-001 16766 114484,114703,114510
 4.0000e+000 114902  4.5841e+001 -1.8291e+002 -3.4369e+001 16362 114775,114827,114801
 4.0000e+000 114879  2.7636e+001 -1.8200e+002 -3.2358e+001 16362 114775,114853,114827
 4.0000e+000 115054 -2.0474e+002 -3.3395e+002 -2.0435e+001 15908 114953,115005,114979
 4.0000e+000 115031 -1.8744e+002 -3.4191e+002 -1.4760e+001 15908 114927,115005,114953
 4.0000e+000 115326  1.2040e+001 -5.1943e+001  2.5515e+001 15251 115101,115179,115153
 4.0000e+000 115303  8.3841e+000 -4.7066e+001  1.6842e+000 15251 115101,115231,115179
 4.0000e+000 115280  1.0081e+001 -4.3479e+001  1.2017e+000 15251 115179,115231,115205
 4.0000e+000 115257 -4.7639e+001 -2.4892e+002  2.0273e+001 15251 115101,115153,115127
 4.0000e+000 115429 -1.0985e+001 -1.0371e+002  2.1607e+001 421 115351,115403,115377
 4.1000e+000 66230 -8.6719e+000  9.8373e+000  3.3488e+000 65954 66152,66204,66178
 4.1000e+000 66429  3.4143e-001 -4.9480e-001  4.1071e-001 65642 66279,66331,66305
 4.1000e+000 66406 -5.4615e-001 -7.3878e-001  1.4890e+000 65642 66279,66357,66331
 4.1000e+000 66383  3.2973e+000  1.0308e+001 -2.1812e+000 65642 66253,66357,66279
 4.1000e+000 66628 -1.4349e+000 -8.3197e+000  2.2951e+000 65444 66452,66530,66478
 4.1000e+000 66605  5.3281e+000 -1.8666e+001 -1.2695e+000 65444 66452,66556,66530
 4.1000e+000 66582  1.3679e+000 -1.5610e+001  2.6206e+000 65444 66478,66530,66504
 4.1000e+000 67006 -3.2012e+000 -8.9607e+000  3.2149e+000 65246 66732,66810,66758
 4.1000e+000 66983 -4.7988e+000 -3.9936e+000  4.1171e+000 65246 66732,66836,66810
 4.1000e+000 66960  1.0670e+000  1.7049e+000  1.0366e+001 65246 66732,66862,66836
 4.1000e+000 66937  2.7920e-001 -1.0516e+001  2.2911e-001 65246 66758,66810,66784
 4.1000e+000 66914  1.0785e+001 -3.7367e+001 -1.1077e+001 65246 66732,66888,66862
 4.1000e+000 67107  1.7121e+001 -1.6406e+001 -5.1114e+000 64934 67029,67081,67055
 4.1000e+000 67306 -5.6649e+000  1.8399e+000  3.7839e+000 64736 67156,67208,67182
 4.1000e+000 67283 -6.3173e-001  8.8899e-001  3.2177e+000 64736 67130,67208,67156
 4.1000e+000 67260  1.9460e+000 -1.1516e+001  5.2097e+000 64736 67130,67234,67208
 4.1000e+000 67507 -1.6491e+000 -1.0896e+001 -4.2097e+000 64389 67357,67409,67383
 4.1000e+000 67484 -3.9106e-001 -6.1444e+000 -3.7397e+000 64389 67357,67435,67409
 4.1000e+000 67461  5.4657e+000 -1.6576e+001 -1.1238e+000 64389 67331,67435,67357
 4.1000e+000 67708  2.1227e+001 -2.0200e+001  5.0872e+000 63985 67731,67584,67558
 4.1000e+000 67685  1.0842e+001 -4.2299e+000  3.1644e+000 63985 67731,67558,67636
 4.1000e+000 67662  4.7105e+000 -5.2593e+000  4.5117e+000 63985 67532,67636,67558
 4.1000e+000 67757  1.5297e+001 -2.6974e+001  2.4822e+000 63985 67610,67584,67731
 4.1000e+000 67780  2.2749e+000 -1.5529e+001 -7.9563e-001 63985 67610,67731,67636
 4.1000e+000 67981  6.7780e-001  7.1037e-001  3.8332e-001 63787 67857,67909,67883
 4.1000e+000 67958  4.3343e-001  6.1606e-001  4.1949e-001 63787 67831,67909,67857
 4.1000e+000 67935 -1.1959e+000 -2.3887e-001 -4.3661e-001 63787 67805,67909,67831
 4.1000e+000 68231  2.2624e+000 -3.1355e+001  1.3884e+000 63589 68254,68084,68032
 4.1000e+000 68208  1.4797e+000 -1.1596e+001  1.0283e+000 63589 68254,68032,68006
 4.1000e+000 68185  3.6171e+000 -6.3963e+000  1.7325e+000 63589 68326,68136,68110
 4.1000e+000 68162 -4.6689e-001 -3.0967e+001 -3.2696e+000 63589 68032,68084,68058
 4.1000e+000 68280  5.4020e+000 -1.3977e+001  8.7315e-001 63589 68110,68084,68254
 4.1000e+000 68303  1.4348e+000 -7.2536e+000  3.9107e+000 63589 68326,68110,68254
 4.1000e+000 68352  7.3472e+000 -1.0219e+000 -4.1698e+000 63589 68006,68136,68326
 4.1000e+000 68375  3.2019e+000 -3.7385e+000 -1.7354e+000 63589 68006,68326,68254
 4.1000e+000 68836  1.3434e+000  3.1140e+000 -6.6782e-001 63128 68859,68588,68562
 4.1000e+000 68813 -7.7936e-001 -1.9662e+000  4.3192e+000 63128 68859,68562,68692
 4.1000e+000 68790  4.1619e+000 -5.7793e+000  1.7444e-002 63128 68614,68692,68666
 4.1000e+000 68767 -2.8940e+000 -4.5042e+000  3.3995e+000 63128 68562,68718,68692
 4.1000e+000 68744  6.1398e+000 -2.9046e+000 -9.6762e+000 63128 68614,68666,68640
 4.1000e+000 68885  4.5487e+000  1.0328e+001 -4.2893e+000 63128 68614,68588,68859
 4.1000e+000 68908  2.0608e+000  3.7203e+000  6.1757e-001 63128 68614,68859,68692
 4.1000e+000 69237  2.9090e+000 -1.1259e+001  4.2116e+000 62731 69064,69116,69090
 4.1000e+000 69214 -1.9565e+000 -2.7244e+001  3.6989e-001 62731 69064,69142,69116
 4.1000e+000 69191 -4.1635e+000 -2.2132e+001  3.1100e+000 62731 69038,69142,69064
 4.1000e+000 69168  1.2974e+000 -4.2526e+001  3.3751e+000 62731 69012,69142,69038
 4.1000e+000 69539  3.4213e-001  4.5441e+000 -2.4754e+000 62433 69389,69467,69441
 4.1000e+000 69516 -1.7905e+000  3.6135e-001 -1.1845e+000 62433 69363,69467,69389
 4.1000e+000 69493  2.1043e+000 -1.8132e+000  3.8544e+000 62433 69389,69441,69415
 4.1000e+000 69966  1.1925e+000 -7.4895e+000  4.6119e+000 62235 69989,69773,69721
 4.1000e+000 69943  3.3294e+000 -1.3851e+001 -1.9129e+000 62235 70061,69989,69721
 4.1000e+000 69920  5.5878e+000 -1.1865e+001 -7.8107e-001 62235 70061,69721,69643
 4.1000e+000 69897  1.9073e+000  2.0251e+000  2.1668e+000 62235 69721,69773,69747
 4.1000e+000 69874 -5.6802e+000 -3.9132e+001  2.5372e-001 62235 69643,69721,69695
 4.1000e+000 69851  1.8955e+001  5.0986e+001 -5.8679e+000 62235 69643,69695,69669
 4.1000e+000 70015 -7.9084e-001 -1.4238e+001  3.2030e+000 62235 69799,69773,69989
 4.1000e+000 70038 -5.6380e+000 -1.9028e+001 -6.4166e+000 62235 69799,69989,69825
 4.1000e+000 70087 -2.0951e-001 -1.0611e+001 -1.9132e+000 62235 69825,69989,70061
 4.1000e+000 70110  2.2093e+000 -9.1127e+000 -1.1321e+000 62235 69825,70061,69643
 4.1000e+000 70260  2.1753e+000  1.0168e+000 -1.4440e+000 62037 70133,70185,70159
 4.1000e+000 70237  6.0611e-001 -3.4550e-001 -2.2835e+000 62037 70133,70211,70185
 4.1000e+000 70640 -6.4613e+000 -1.5572e+001  5.3682e+000 61583 70735,70663,70418
 4.1000e+000 70617 -9.3356e+000 -1.5139e+001  5.9073e+000 61583 70663,70366,70522
 4.1000e+000 70594 -5.6187e+000 -1.4660e+001  6.1956e+000 61583 70735,70418,70392
 4.1000e+000 70571 -1.3990e+001 -2.0177e+001  3.6172e+000 61583 70418,70496,70444
 4.1000e+000 70548 -2.1691e+001 -1.2600e+001  2.7041e+000 61583 70444,70496,70470
 4.1000e+000 70689 -9.6759e+000 -1.8392e+001  4.0975e+000 61583 70496,70418,70663
 4.1000e+000 70712 -1.2614e+001 -1.5117e+001  4.9304e+000 61583 70496,70663,70522
 4.1000e+000 70761 -8.8173e+000 -1.5991e+001  3.4755e+000 61583 70366,70663,70735
 4.1000e+000 70784 -7.3105e+000 -1.4803e+001  4.3309e+000 61583 70366,70735,70392
 4.1000e+000 71054 -8.9904e-001  7.9652e-002  8.9645e-001 61313 71077,70881,70855
 4.1000e+000 71031 -1.2491e+000  1.3523e+000 -2.8461e-001 61313 71077,70855,70829
 4.1000e+000 71008  8.1307e-001  2.5957e+000 -2.9744e-001 61313 70829,70959,70933
 4.1000e+000 70985 -1.5529e-001  1.2245e+000  8.3990e-001 61313 70881,70933,70907
 4.1000e+000 71103  3.9217e-001  9.7862e-001  4.3591e-001 61313 70933,70881,71077
 4.1000e+000 71126 -5.1915e-001  1.8084e+000 -6.2877e-001 61313 70933,71077,70829
 4.1000e+000 71604 -3.3093e+000 -2.6696e+001  3.6389e+000 60909 71627,71232,71414
 4.1000e+000 71581 -4.5598e+000 -1.9348e+001 -4.6900e+000 60909 71232,71440,71414
 4.1000e+000 71558 -3.4986e+000 -1.5788e+001  4.3220e+000 60909 71627,71414,71336
 4.1000e+000 71535  1.7295e+000 -5.0793e+001  1.8753e+001 60909 71362,71414,71388
 4.1000e+000 71512 -1.4198e+001 -3.7638e+001  8.2122e+000 60909 71336,71414,71362
 4.1000e+000 71489 -4.9613e+000 -9.6736e+000 -7.6349e-001 60909 71258,71336,71310
 4.1000e+000 71466 -1.1124e+000 -5.5751e+000 -3.0760e+000 60909 71258,71310,71284
 4.1000e+000 71653 -9.5635e-002 -1.7894e+001  2.8261e+000 60909 71258,71232,71627
 4.1000e+000 71676 -4.0184e+000 -1.2363e+001  4.2156e+000 60909 71258,71627,71336
 4.1000e+000 71875  4.6775e-001  1.6419e+000  1.2459e+000 60611 71898,71725,71699
 4.1000e+000 71852 -5.5661e-001  1.3145e+000  1.1938e+000 60611 71898,71699,71803
 4.1000e+000 71829  2.8059e+000  4.0825e+000 -2.1016e+000 60611 71970,71751,71725
 4.1000e+000 71924  2.6139e+000  2.3822e+000 -2.5631e-001 60611 71970,71725,71898
 4.1000e+000 71947 -5.5954e-001 -9.8137e-001  6.2395e-001 60611 71777,71898,71803
 4.1000e+000 71996  6.3581e-001  1.8188e+000 -1.2039e+000 60611 71777,71751,71970
 4.1000e+000 72019 -2.4861e-001  3.4058e-001  6.7091e-001 60611 71777,71970,71898
 4.1000e+000 72576  4.7164e+000 -3.3817e+001  6.5057e+000 60142 72599,72256,72230
 4.1000e+000 72553  1.1327e+001 -1.6038e+001  5.8009e+000 60142 72671,72599,72230
 4.1000e+000 72530 -1.1898e+000 -9.7894e+000 -5.8195e-001 60142 72671,72230,72204
 4.1000e+000 72507 -2.3719e+000 -5.6743e+000  2.1657e+000 60142 72743,72360,72334
 4.1000e+000 72484  4.1387e+000 -4.5473e+000 -3.1945e+000 60142 72815,72282,72256
 4.1000e+000 72461  3.9499e-001  5.4528e+000  9.4096e+000 60142 72887,72308,72282
 4.1000e+000 72438 -4.6914e+000 -2.8949e+001 -5.1838e+000 60142 72204,72412,72386
 4.1000e+000 72625 -1.5523e+000 -2.3552e+001 -4.3349e+000 60142 72815,72256,72599
 4.1000e+000 72648  1.5329e+000 -1.2688e+001  9.4916e-001 60142 72743,72334,72599
 4.1000e+000 72697  6.1995e-001 -2.7854e+001  1.1370e+000 60142 72386,72599,72671
 4.1000e+000 72720 -6.3956e+000 -1.8931e+001 -4.2471e+000 60142 72386,72671,72204
 4.1000e+000 72769  3.7529e+000 -1.2122e+001  1.4610e+001 60142 72386,72360,72743
 4.1000e+000 72792  3.9330e+000 -2.5819e+001  7.2190e+000 60142 72386,72743,72599
 4.1000e+000 72841 -9.0703e-001  4.1857e+000  2.4922e+000 60142 72887,72282,72815
 4.1000e+000 72864  4.0466e+000 -7.8423e+000  2.3941e+000 60142 72334,72815,72599
 4.1000e+000 72913 -2.4294e+000 -4.7644e+000  7.6716e+000 60142 72334,72308,72887
 4.1000e+000 72936 -4.2976e+000 -5.8674e+000  1.8113e+000 60142 72334,72887,72815
 4.1000e+000 73491  5.5782e-001 -5.2654e+001 -1.2887e+001 59738 73145,73327,73171
 4.1000e+000 73468  9.8154e+000 -4.6504e+001 -9.2765e+000 59738 73119,73327,73145
 4.1000e+000 73445  2.1126e+000 -1.1622e+001  4.8408e+000 59738 73171,73327,73301
 4.1000e+000 73422  5.7540e+000 -1.5932e+001 -2.1431e-001 59738 73514,73275,73249
 4.1000e+000 73399  7.6537e+000 -1.4888e+000 -4.4340e+000 59738 73586,73514,73249
 4.1000e+000 73376  1.0174e+001  1.7775e+001 -8.3390e+000 59738 73197,73249,73223
 4.1000e+000 73353  1.4435e+001  4.8064e+000 -1.3571e+001 59738 73586,73249,73197
 4.1000e+000 73540  5.4311e+000 -2.5345e+001 -3.7830e+000 59738 73301,73275,73514
 4.1000e+000 73563 -1.3210e+000 -1.8989e+001  3.5112e+000 59738 73301,73514,73171
 4.1000e+000 73612  5.5036e+000 -1.6550e+001  3.4713e+000 59738 73171,73514,73586
 4.1000e+000 73635  7.3309e+000 -1.0000e+001 -4.4207e+000 59738 73171,73586,73197
 4.1000e+000 73964 -2.6708e+000 -2.7331e+001 -2.4332e+000 59334 73791,73843,73817
 4.1000e+000 73941  5.7508e-002 -2.8249e+001 -2.9649e+000 59334 73791,73869,73843
 4.1000e+000 73918 -4.0747e+000 -3.6915e+001 -5.8681e+000 59334 73739,73869,73791
 4.1000e+000 73895  3.8483e+000 -4.4741e+001 -5.0304e+000 59334 73739,73791,73765
 4.1000e+000 74261  1.9001e+000  2.0892e+001 -6.5225e+000 58630 74065,74117,74091
 4.1000e+000 74238  1.0193e+001  2.9074e+000 -8.2492e+000 58630 74356,74284,74065
 4.1000e+000 74215  1.4246e+001 -5.2366e+000 -6.5377e-001 58630 74284,74013,73987
 4.1000e+000 74192  6.8132e+000 -5.7766e-001 -1.5071e+001 58630 74356,74065,74039
 4.1000e+000 74169  6.1422e+000  2.8139e+000  1.1335e-001 58630 73987,74143,74117
 4.1000e+000 74310  1.1764e+001  2.3144e+001 -7.9382e+000 58630 74117,74065,74284
 4.1000e+000 74333  6.8785e+000  5.2990e+000 -1.3642e+000 58630 74117,74284,73987
 4.1000e+000 74382  1.9927e+001  1.0358e+001 -3.4008e+000 58630 74013,74284,74356
 4.1000e+000 74405  1.6811e+001  6.5665e+000 -1.0265e+001 58630 74013,74356,74039
 4.1000e+000 74815  5.9618e-001 -2.0596e+001 -3.0387e+000 58226 74590,74642,74616
 4.1000e+000 74792 -1.6937e+000 -2.1143e+001 -1.4605e+000 58226 74590,74694,74642
 4.1000e+000 74769  1.8394e+000 -3.5654e+001  5.4882e+000 58226 74590,74720,74694
 4.1000e+000 74746 -6.2430e+000 -1.8409e+001 -3.0749e+000 58226 74642,74694,74668
 4.1000e+000 75014  2.7730e-001  8.7335e+000  2.3496e+000 57786 75037,74864,74838
 4.1000e+000 74991  9.5329e-001 -1.1472e+000 -9.3169e-001 57786 75037,74838,74916
 4.1000e+000 74968  4.2751e-002 -1.8569e+000 -3.4523e-001 57786 74838,74942,74916
 4.1000e+000 75063  2.4371e+000  1.8818e+001  5.4489e+000 57786 74890,74864,75037
 4.1000e+000 75086  1.7386e+000  7.4392e+000  1.8641e+000 57786 74890,75037,74916
 4.1000e+000 75368 -1.2642e+001  1.2257e+001  5.0428e+000 57496 75192,75270,75218
 4.1000e+000 75345  2.1226e+001  2.5499e+001  4.8746e+000 57496 75192,75296,75270
 4.1000e+000 75322  1.2331e+001  1.4913e+001  2.3123e+001 57496 75218,75270,75244
 4.1000e+000 75648  6.8946e-001  2.1813e+000 -5.7039e+000 57206 75472,75550,75498
 4.1000e+000 75625 -8.4721e+000  8.2596e+000  9.5782e-001 57206 75472,75576,75550
 4.1000e+000 75602 -1.0159e+001  1.2835e+001  1.1970e+001 57206 75671,75550,75524
 4.1000e+000 75697  1.1933e+001  5.9684e+000  1.4320e+001 57206 75498,75550,75671
 4.1000e+000 76154 -3.6778e-001 -2.4468e+000  4.3222e+000 56802 75958,76010,75984
 4.1000e+000 76131  2.4342e+000  2.5087e+000  3.1978e+000 56802 75932,76010,75958
 4.1000e+000 76108  4.7693e-001 -3.6376e-001  1.9786e+000 56802 75906,76010,75932
 4.1000e+000 76085  1.3731e+000  5.0843e+000  2.7100e+000 56802 75880,76010,75906
 4.1000e+000 76062  6.5992e+000  5.0108e+000 -3.7450e+000 56802 75880,76036,76010
 4.1000e+000 76505  2.8330e-001 -1.9269e-002 -1.7585e-001 56504 76306,76384,76332
 4.1000e+000 76482  1.6467e-001 -5.3443e-002 -1.6087e-001 56504 76306,76410,76384
 4.1000e+000 76459  1.3987e+000  2.4997e-001 -1.7680e-001 56504 76332,76384,76358
 4.1000e+000 76436  5.3970e-002 -8.9556e-002 -1.6151e-001 56504 76280,76410,76306
 4.1000e+000 77011  2.2926e+001  7.3232e+000 -1.2818e+001 56050 76740,76818,76792
 4.1000e+000 76988  8.8377e+000  1.5027e+000 -1.3215e+001 56050 76714,76818,76740
 4.1000e+000 76965  1.3598e+001 -2.3032e+000 -1.3546e+001 56050 76688,76818,76714
 4.1000e+000 76942  3.6044e+001  2.3616e+001  2.3425e+000 56050 76688,76844,76818
 4.1000e+000 76919  1.5898e+001 -7.3419e+000 -8.7739e+000 56050 76740,76792,76766
 4.1000e+000 76896  2.3964e+001  2.0660e+000  7.2492e+000 56050 76688,76870,76844
 4.1000e+000 77517 -2.4778e+001 -5.8033e+000  1.5039e+001 55738 77220,77350,77324
 4.1000e+000 77494  4.0906e+000 -1.9467e+001 -3.5802e+000 55738 77220,77376,77350
 4.1000e+000 77471  1.3643e+001  1.0029e+001 -3.6857e+000 55738 77194,77376,77220
 4.1000e+000 77448 -1.1755e+000 -1.3397e+001  8.0030e+000 55738 77220,77298,77246
 4.1000e+000 77425 -1.1363e+001 -5.2511e+000  1.8493e+001 55738 77220,77324,77298
 4.1000e+000 77402 -1.5808e+001 -1.5914e+001  3.8343e+001 55738 77246,77298,77272
 4.1000e+000 78064  1.8649e+001 -5.1289e+000 -2.9385e+000 55227 78231,78087,77773
 4.1000e+000 78041 -4.5542e+000 -2.5719e+001 -3.3053e+000 55227 78087,77695,77643
 4.1000e+000 78018  1.9887e+000 -2.5828e+001 -1.4219e+001 55227 78159,77799,77773
 4.1000e+000 77995  1.2533e+001  5.7253e+000  3.3162e-001 55227 78231,77773,77721
 4.1000e+000 77972 -2.1118e+000 -1.4516e+000  3.8785e+000 55227 77643,77695,77669
 4.1000e+000 77949 -2.0092e-001 -2.2570e+000 -2.3418e+000 55227 77643,77877,77851
 4.1000e+000 77926 -5.0978e+000  7.9285e+000 -1.4124e+001 55227 77799,77851,77825
 4.1000e+000 77903  1.2993e+001  1.2395e+001 -3.8716e+000 55227 77721,77773,77747
 4.1000e+000 78113  1.0668e+001 -2.2051e+001 -1.0331e+001 55227 78159,77773,78087
 4.1000e+000 78136  7.6406e+000  2.7908e+000 -4.4866e+000 55227 77851,78087,77643
 4.1000e+000 78185 -1.5684e+001 -1.5643e+001 -1.6389e+001 55227 77851,77799,78159
 4.1000e+000 78208 -7.8623e+000 -1.3380e+001 -1.3298e+001 55227 77851,78159,78087
 4.1000e+000 78257  1.2105e+001 -1.6447e+001 -7.2679e+000 55227 77695,78087,78231
 4.1000e+000 78280  4.1789e+000 -5.8364e+000 -5.0005e+000 55227 77695,78231,77721
 4.1000e+000 78737  5.6767e+000 -1.2897e+000 -2.0206e+000 54773 78463,78541,78515
 4.1000e+000 78714 -2.6179e+000 -5.0709e+000 -1.8519e-002 54773 78463,78619,78541
 4.1000e+000 78691  8.2998e+000  6.5616e+000  2.5295e+000 54773 78463,78515,78489
 4.1000e+000 78668 -1.0671e+001 -5.8998e+000 -2.7175e+000 54773 78541,78593,78567
 4.1000e+000 78645 -1.4202e+000 -4.2432e+000 -2.0156e+000 54773 78541,78619,78593
 4.1000e+000 78838 -2.2373e-001  6.3891e+000  5.0933e-001 54211 78760,78812,78786
 4.1000e+000 79297  1.0533e+001  2.6855e+000  8.3759e-001 53814 79520,79153,79049
 4.1000e+000 79274  8.2346e+000  6.5164e+000 -4.8530e+000 53814 79520,79049,79023
 4.1000e+000 79251  4.1917e+000  1.7787e+001  3.0061e-001 53814 79320,79101,79049
 4.1000e+000 79228  1.7559e+000  1.1893e+001  2.0856e+000 53814 79320,79049,79153
 4.1000e+000 79205  6.7651e+000  1.0199e+001 -8.3175e-001 53814 79049,79101,79075
 4.1000e+000 79346  2.5335e+000  9.0761e+000  3.9673e+000 53814 79392,79320,79127
 4.1000e+000 79369  3.6725e+000  1.2618e+001  3.5910e+000 53814 79127,79320,79153
 4.1000e+000 79418  1.5284e+000  1.6431e+001  4.9379e+000 53814 79101,79320,79392
 4.1000e+000 79546  7.6785e+000 -3.9152e+000  1.0935e+000 53814 79179,79153,79520
 4.1000e+000 79569  5.5155e+000 -1.2861e-001 -5.5259e+000 53814 79179,79520,79023
 4.1000e+000 80075 -1.8595e+001 -5.2559e+000  1.3089e+001 53039 80098,79908,79830
 4.1000e+000 80052 -2.1723e+001  2.5706e-001 -2.9301e+000 53039 80098,79830,79804
 4.1000e+000 80029  8.5416e-001  7.4912e+000 -2.2162e+000 53039 79752,79934,79804
 4.1000e+000 80006 -1.7405e+000 -3.5772e+001  1.7182e+001 53039 79856,79908,79882
 4.1000e+000 79983  9.9950e+000 -4.7303e+001  1.4519e+001 53039 79830,79908,79856
 4.1000e+000 79960 -7.9035e-001  3.1602e+000 -2.3560e+000 53039 79752,79804,79778
 4.1000e+000 80124  6.6893e+000  4.3727e+000  1.2770e+001 53039 79934,79908,80098
 4.1000e+000 80147 -1.0141e+001  4.7507e+000 -3.8039e+000 53039 79934,80098,79804
 4.1000e+000 80555  2.3754e+001  1.6762e+001 -1.4580e+000 52699 80356,80434,80408
 4.1000e+000 80532  4.1926e+000  1.4964e+000  5.5006e+000 52699 80356,80460,80434
 4.1000e+000 80509 -2.2973e+000 -6.2859e+000  5.2962e-001 52699 80330,80460,80356
 4.1000e+000 80486 -8.6682e+000 -5.8061e+000  2.7856e+001 52699 80356,80408,80382
 4.1000e+000 80776  1.1116e+001  2.9815e+001 -1.1871e+001 52295 80600,80678,80626
 4.1000e+000 80753 -1.3385e+001  8.8039e+000 -2.7884e+000 52295 80600,80704,80678
 4.1000e+000 80730 -3.6677e+001  1.0526e+001 -7.6113e+000 52295 80626,80678,80652
 4.1000e+000 81156  8.2749e+000 -1.5577e+001  4.8310e+000 51891 81179,80960,80908
 4.1000e+000 81133  7.3954e+000 -2.0845e+001 -7.6583e+000 51891 81179,80908,81012
 4.1000e+000 81110 -1.0673e+000  1.0493e+000 -1.8252e+001 51891 80882,81012,80908
 4.1000e+000 81087  6.4564e+000 -3.1746e-002  7.4082e+000 51891 80908,80960,80934
 4.1000e+000 81064  6.8312e-002  2.9689e+000 -1.9021e+001 51891 80882,81038,81012
 4.1000e+000 81205  2.3827e+001 -6.3909e+000  1.1292e+001 51891 80986,80960,81179
 4.1000e+000 81228  1.2147e+001 -1.7654e+001 -2.1856e+000 51891 80986,81179,81012
 4.1000e+000 81606 -6.7404e-001 -1.3280e+002 -3.9364e+001 51544 81410,81462,81436
 4.1000e+000 81583  1.2309e+001 -4.1872e+001 -3.3366e-001 51544 81384,81462,81410
 4.1000e+000 81560 -1.2707e+001 -5.4514e+001 -9.0070e+000 51544 81358,81462,81384
 4.1000e+000 81537 -9.2803e+000 -4.5309e+001 -2.4109e+001 51544 81358,81488,81462
 4.1000e+000 81514  1.4422e+000 -2.2090e+001 -1.9672e+001 51544 81332,81488,81358
 4.1000e+000 81854  3.3915e+000 -9.7478e+000 -8.1629e-001 51004 81877,81655,81629
 4.1000e+000 81831  1.5644e+000 -9.0294e-001 -2.2697e+000 51004 81877,81629,81759
 4.1000e+000 81808  8.6604e+000  3.2358e+000  1.0087e+001 51004 81655,81707,81681
 4.1000e+000 81785 -3.9600e+000  9.0088e-001 -1.8795e+000 51004 81707,81759,81733
 4.1000e+000 81903  2.6410e+000 -1.2826e+001 -1.1256e+000 51004 81707,81655,81877
 4.1000e+000 81926 -3.5119e+000 -1.0306e+001 -4.4273e+000 51004 81707,81877,81759
 4.1000e+000 82257 -5.5806e+000 -2.8599e+001 -6.3916e+000 50642 82058,82136,82110
 4.1000e+000 82234 -1.0709e+001 -6.1360e-001 -1.4144e+001 50642 82058,82162,82136
 4.1000e+000 82211  5.7190e+000 -1.5253e+001 -2.4858e+001 50642 82058,82110,82084
 4.1000e+000 82188  3.6699e+001  1.8390e+001  4.2555e+000 50642 82032,82162,82058
 4.1000e+000 82684  2.5956e+001 -8.5873e+001  1.8764e+001 49931 82779,82707,82465
 4.1000e+000 82661 -5.0026e+000 -1.0158e+002  1.8255e+001 49931 82707,82413,82361
 4.1000e+000 82638 -1.8391e+000 -8.4987e+001 -1.3836e+001 49931 82779,82465,82439
 4.1000e+000 82615  1.2950e+001 -2.1736e+002  2.0406e+001 49931 82465,82543,82491
 4.1000e+000 82592 -9.7138e+000 -7.5215e+001 -2.3177e+000 49931 82361,82413,82387
 4.1000e+000 82569  6.6237e+000 -1.6334e+002  1.9993e+001 49931 82491,82543,82517
 4.1000e+000 82733  6.2146e+001 -1.0250e+002  1.6237e+001 49931 82543,82465,82707
 4.1000e+000 82756  1.7721e+001 -8.7501e+001  7.6307e+000 49931 82543,82707,82361
 4.1000e+000 82805  2.8278e+000 -1.3298e+002 -2.3288e+000 49931 82413,82707,82779
 4.1000e+000 82828 -1.1932e+001 -1.2263e+002 -3.3238e+001 49931 82413,82779,82439
 4.1000e+000 83255  2.3270e+000 -9.4842e+001 -1.4417e+001 49327 82984,83114,83036
 4.1000e+000 83232 -8.8618e+000 -1.1794e+002 -3.5316e+001 49327 82958,83114,82984
 4.1000e+000 83209 -1.3329e+001 -1.3477e+002  8.1220e-002 49327 83036,83114,83088
 4.1000e+000 83186 -2.8056e+001 -6.1173e+001  1.1280e+001 49327 82984,83036,83010
 4.1000e+000 83163 -1.3064e+001 -1.0381e+002 -2.7600e+001 49327 82932,83114,82958
 4.1000e+000 83140 -3.7670e+001 -2.3157e+002 -2.3047e+000 49327 83036,83088,83062
 4.1000e+000 83938 -1.1188e+001 -1.4085e+002  3.4986e+001 48965 83961,83673,83647
 4.1000e+000 83915  1.1749e+001 -5.0591e+001  4.1141e+001 48965 83961,83647,83543
 4.1000e+000 83892 -8.4368e+000 -6.0653e+001 -8.8498e+000 48965 83517,83725,83543
 4.1000e+000 83869 -2.3701e+001 -9.7371e+001 -1.9243e+001 48965 83673,83725,83699
 4.1000e+000 83846 -1.0620e+001 -2.0209e+001  7.2807e+000 48965 83543,83647,83621
 4.1000e+000 83823 -4.4811e+000 -3.2967e+001  4.5692e+000 48965 83543,83621,83569
 4.1000e+000 83800 -1.0041e+001 -6.1653e+001 -1.0026e+001 48965 83517,83751,83725
 4.1000e+000 83777 -2.9719e+000 -3.1986e+001  6.2601e+000 48965 83569,83621,83595
 4.1000e+000 83987 -1.1073e+001 -1.2765e+002 -2.3112e+001 48965 83725,83673,83961
 4.1000e+000 84010  4.6457e+000 -8.9815e+001 -6.4631e+000 48965 83725,83961,83543
 4.1000e+000 84258 -7.6783e+000 -9.1991e+001  1.3313e+001 48447 84281,84059,84033
 4.1000e+000 84235 -1.1406e+000 -7.2808e+001 -3.1662e+000 48447 84281,84033,84163
 4.1000e+000 84212  1.0740e+001 -6.0727e+001 -1.1909e+001 48447 84059,84111,84085
 4.1000e+000 84189  1.6700e+001 -5.8759e+001 -1.9399e+001 48447 84111,84163,84137
 4.1000e+000 84307  5.8088e+000 -8.6522e+001 -2.4428e+000 48447 84111,84059,84281
 4.1000e+000 84330  1.9298e+001 -7.2779e+001 -1.8287e+001 48447 84111,84281,84163
 4.1000e+000 84529  2.4376e+001 -4.5929e+001  3.3377e-001 47993 84552,84405,84379
 4.1000e+000 84506  8.4617e+000 -5.2482e+001 -5.3674e-001 47993 84552,84379,84353
 4.1000e+000 84483  1.4070e+001 -5.2795e+001 -7.2041e+000 47993 84624,84457,84431
 4.1000e+000 84578  3.0023e+001 -4.9477e+001 -7.3136e+000 47993 84431,84405,84552
 4.1000e+000 84601  1.7695e+001 -5.3906e+001 -6.1010e+000 47993 84624,84431,84552
 4.1000e+000 84650  1.7919e+001 -5.3172e+001 -4.5187e+000 47993 84353,84457,84624
 4.1000e+000 84673  2.3438e+001 -5.0947e+001 -2.3167e+000 47993 84353,84624,84552
 4.1000e+000 85104 -1.5910e+001 -1.0911e+002 -8.4131e+000 47588 85199,85127,84885
 4.1000e+000 85081 -1.3499e+001 -1.2572e+002 -1.2455e+001 47588 85127,84781,84963
 4.1000e+000 85058 -3.3605e+001 -1.0382e+002  1.2727e+001 47588 85199,84885,84807
 4.1000e+000 85035  6.6995e-001 -7.0535e+001  3.5818e+001 47588 84885,84937,84911
 4.1000e+000 85012 -1.3092e+001 -6.2055e+001 -1.6224e+000 47588 84807,84885,84833
 4.1000e+000 84989 -1.1255e+001 -6.0146e+001  2.7820e+001 47588 84833,84885,84859
 4.1000e+000 85153 -1.6467e+001 -1.2927e+002 -2.9141e+000 47588 84937,84885,85127
 4.1000e+000 85176  2.4549e+001 -1.2125e+002 -1.2226e+000 47588 84937,85127,84963
 4.1000e+000 85225 -5.0687e+001 -1.2361e+002 -9.7564e+000 47588 84781,85127,85199
 4.1000e+000 85248 -6.0639e+001 -1.1543e+002  1.4042e+001 47588 84781,85199,84807
 4.1000e+000 85518 -2.8656e+001 -2.1701e+002  3.4252e+001 47226 85293,85397,85319
 4.1000e+000 85495 -1.4104e+001 -1.9541e+002  1.7595e+001 47226 85293,85423,85397
 4.1000e+000 85472 -6.5104e+000 -2.2619e+002 -8.8449e+000 47226 85319,85397,85345
 4.1000e+000 85449  2.8304e+001 -4.0833e+001 -1.3490e+001 47226 85345,85397,85371
 4.1000e+000 85849 -1.8595e+001 -1.0199e+002  3.6164e+001 46572 85624,85702,85650
 4.1000e+000 85826 -1.0505e+001 -1.3238e+002  4.5057e+000 46572 85624,85754,85702
 4.1000e+000 85803  2.6946e+001 -6.5483e+001  2.5287e+001 46572 85702,85754,85728
 4.1000e+000 85780 -1.3661e+001 -1.0193e+002  4.1646e+001 46572 85650,85702,85676
 4.1000e+000 86070 -7.9765e+001 -1.0944e+002 -1.8242e+000 46374 85920,85972,85946
 4.1000e+000 86047 -4.8107e+001 -3.5727e+001  1.2970e+000 46374 85920,85998,85972
 4.1000e+000 86024 -3.0037e+001 -2.2758e+001  1.2151e+001 46374 85894,85998,85920
 4.1000e+000 86401  8.6992e+000 -5.9616e+001  7.0592e+000 46034 86424,86280,86228
 4.1000e+000 86378 -1.3624e+001 -6.1123e+001  4.2335e+000 46034 86424,86228,86176
 4.1000e+000 86355 -1.7499e+001 -4.7104e+001 -1.5883e+001 46034 86176,86228,86202
 4.1000e+000 86332  2.8103e+001 -5.1088e+001 -2.2666e+001 46034 86228,86280,86254
 4.1000e+000 86450  5.1336e+001 -6.7146e+001 -2.2442e+000 46034 86306,86280,86424
 4.1000e+000 86473  7.3134e+000 -8.3600e+001 -7.7257e+000 46034 86306,86424,86176
 4.1000e+000 87058  9.0016e+000 -5.1337e+001  1.4462e+001 45516 86813,86917,86865
 4.1000e+000 87035 -1.0794e+000 -8.3677e+001  6.1576e+000 45516 86787,86917,86813
 4.1000e+000 87012  5.1897e+000 -8.4319e+001  9.9507e+000 45516 86735,86917,86787
 4.1000e+000 86989  2.3265e+000 -4.6570e+001  1.2590e+001 45516 86865,86917,86891
 4.1000e+000 86966  7.9086e+000 -4.7429e+001  1.4787e+001 45516 86813,86865,86839
 4.1000e+000 86943 -8.6104e+000 -1.5482e+002 -1.8085e+000 45516 86735,86787,86761
 4.1000e+000 87208  4.0476e+001 -2.7505e+001 -1.5358e+001 45226 87231,87133,87107
 4.1000e+000 87185  1.1356e+001 -1.2058e+001 -3.6353e+000 45226 87081,87159,87133
 4.1000e+000 87257  2.9861e+001  2.5019e+001 -1.3177e+001 45226 87081,87133,87231
 4.1000e+000 87537  8.0623e+000 -7.3267e+001  1.6170e+001 44772 87387,87439,87413
 4.1000e+000 87514 -7.7684e+000 -7.7255e+001  1.2032e+001 44772 87361,87439,87387
 4.1000e+000 87491  7.5872e+000 -5.5126e+001  4.7535e+000 44772 87361,87465,87439
 4.1000e+000 87996  6.6617e-001  2.3215e+001  8.1501e+000 44425 87748,87878,87852
 4.1000e+000 87973  2.3528e-001  2.3474e+001  2.1810e-001 44425 87722,87878,87748
 4.1000e+000 87950  2.7949e+000  1.4476e+001  5.0164e+000 44425 87800,87852,87826
 4.1000e+000 87927  2.7087e+001  2.2947e+001  5.0508e+000 44425 87748,87852,87800
 4.1000e+000 87904  2.7829e+000  8.9871e+000 -1.1160e+001 44425 87748,87800,87774
 4.1000e+000 88423 -7.7708e+000 -6.3769e+001  1.5841e+001 44078 88590,88230,88204
 4.1000e+000 88400 -4.4810e+000 -4.0680e+001  1.7485e+001 44078 88518,88446,88204
 4.1000e+000 88377  8.1591e+000 -6.6641e+001 -1.1803e+001 44078 88446,88126,88282
 4.1000e+000 88354 -1.0185e+001 -2.7469e+001  9.9095e+000 44078 88518,88204,88178
 4.1000e+000 88331  4.6052e+000 -8.3909e+001 -1.2472e+001 44078 88100,88282,88126
 4.1000e+000 88308 -8.1263e+000 -5.2886e+001  2.0820e+001 44078 88126,88178,88152
 4.1000e+000 88472 -1.0343e+001 -6.9804e+001  1.5850e+001 44078 88590,88204,88446
 4.1000e+000 88495 -9.7548e+000 -1.2064e+002 -1.5868e+001 44078 88256,88446,88282
 4.1000e+000 88544 -6.1263e+000 -7.0763e+001  1.7754e+001 44078 88126,88446,88518
 4.1000e+000 88567 -3.3830e+000 -4.5602e+001  1.1323e+001 44078 88126,88518,88178
 4.1000e+000 88616 -4.2001e+001 -1.6710e+002 -9.4550e-001 44078 88256,88230,88590
 4.1000e+000 88639 -4.5618e+000 -6.4872e+001  7.3992e+000 44078 88256,88590,88446
 4.1000e+000 89039  1.1909e+001  2.1804e+001  4.9812e+000 43716 88791,88921,88895
 4.1000e+000 89016  9.5575e+000  2.5995e+001  5.4100e+000 43716 88765,88921,88791
 4.1000e+000 88993  2.7516e+001  5.7284e+000  8.4140e+000 43716 88817,88895,88869
 4.1000e+000 88970  9.8554e+000  1.2657e+001  1.4838e+001 43716 88791,88895,88817
 4.1000e+000 88947  5.8197e+000  1.0492e+001 -3.0952e+000 43716 88817,88869,88843
 4.1000e+000 89496  3.7194e+000 -9.3704e+001 -8.5091e+000 43162 89519,89274,89248
 4.1000e+000 89473  1.0178e+001 -5.8043e+001 -1.1315e+000 43162 89519,89248,89222
 4.1000e+000 89450  6.6339e+000 -4.5126e+001 -1.5748e+001 43162 89326,89378,89352
 4.1000e+000 89427 -5.0460e-001 -6.0991e+001 -3.3242e+000 43162 89274,89378,89326
 4.1000e+000 89404  4.7527e+000 -5.8668e+001 -1.8281e+000 43162 89274,89326,89300
 4.1000e+000 89545  6.3865e-001 -6.1228e+001  4.1592e-001 43162 89378,89274,89519
 4.1000e+000 89568  9.2752e+000 -2.2936e+001  8.2647e+000 43162 89378,89519,89222
 4.1000e+000 89946 -1.1192e+001 -5.3695e+001 -5.7122e+001 42594 90041,89969,89750
 4.1000e+000 89923 -8.1773e+000 -4.8629e+001 -2.1143e+001 42594 89969,89698,89828
 4.1000e+000 89900  1.9675e+001 -6.6503e+001 -5.1449e+001 42594 90041,89750,89724
 4.1000e+000 89877 -1.9501e+001 -2.8420e+001 -1.9551e+001 42594 89750,89802,89776
 4.1000e+000 89854  1.8253e+001 -2.5151e+001 -7.7289e+000 42594 89672,89828,89698
 4.1000e+000 89995 -3.7403e+001 -4.0539e+001 -3.8898e+001 42594 89802,89750,89969
 4.1000e+000 90018  9.6473e+000  8.6652e+000 -9.0349e+000 42594 89802,89969,89828
 4.1000e+000 90067  1.7962e+001 -3.9060e+001 -4.5394e+001 42594 89698,89969,90041
 4.1000e+000 90090  5.3660e+001 -5.4896e+001 -4.8105e+001 42594 89698,90041,89724
 4.1000e+000 90517  1.9176e+001 -6.9235e+001 -9.5087e+000 42140 90540,90220,90194
 4.1000e+000 90494  2.3475e+001 -7.0544e+001 -1.1328e+001 42140 90540,90194,90376
 4.1000e+000 90471  6.1203e-001 -7.5418e+001  2.9313e+000 42140 90612,90350,90272
 4.1000e+000 90448 -1.2316e+001 -6.7720e+001 -2.9829e+000 42140 90272,90350,90298
 4.1000e+000 90425 -9.8444e+000 -5.7473e+001  5.6283e-002 42140 90298,90350,90324
 4.1000e+000 90402  2.9547e+001 -3.7358e+001  2.7058e+000 42140 90220,90272,90246
 4.1000e+000 90566  1.6950e+001 -4.1225e+001 -7.2124e+000 42140 90272,90220,90540
 4.1000e+000 90589  2.5925e+000 -7.0950e+001 -1.4086e+000 42140 90612,90272,90540
 4.1000e+000 90638  1.0163e+001 -8.5007e+001 -5.9792e+000 42140 90376,90350,90612
 4.1000e+000 90661  2.2867e+001 -7.1332e+001 -1.2070e+001 42140 90376,90612,90540
 4.1000e+000 91167 -8.7770e+000 -3.5514e+001  1.4167e+000 41636 91190,90870,90844
 4.1000e+000 91144 -1.5279e+001 -1.4409e+002  4.5093e+000 41636 91190,90844,91026
 4.1000e+000 91121 -1.3928e+000 -9.7221e+000 -1.3284e+001 41636 90870,90922,90896
 4.1000e+000 91098  1.3009e+001 -1.1767e+002  2.3373e+000 41636 90922,91026,90948
 4.1000e+000 91075  2.6995e+001 -9.7157e+001 -1.4270e+001 41636 90948,91026,91000
 4.1000e+000 91052 -3.3142e+001 -7.2433e+001  4.1442e+001 41636 90948,91000,90974
 4.1000e+000 91216 -2.0513e+001 -5.3806e+000  2.9215e+000 41636 90922,90870,91190
 4.1000e+000 91239  2.4387e+001 -4.3362e+001  2.0873e+001 41636 90922,91190,91026
 4.1000e+000 91696 -3.7515e-001 -7.1890e+001 -6.8628e+000 40449 91448,91526,91474
 4.1000e+000 91673 -3.2669e+001 -8.9820e+001  3.2856e+000 40449 91448,91578,91526
 4.1000e+000 91650  7.2922e+000 -3.3721e+000 -6.2917e+000 40449 91474,91526,91500
 4.1000e+000 91627  2.8651e+000 -6.5656e+001  1.4216e+001 40449 91422,91578,91448
 4.1000e+000 91604  1.7231e+001 -6.3849e+001 -1.1746e+001 40449 91526,91578,91552
 4.1000e+000 92123 -2.8877e-001 -7.3152e+001 -1.7006e+000 39995 92146,91904,91826
 4.1000e+000 92100 -1.3516e+001 -8.1072e+001 -1.7012e+001 39995 92146,91826,91800
 4.1000e+000 92077 -4.4380e+001 -4.4767e+001 -6.6943e+000 39995 91826,91904,91852
 4.1000e+000 92054 -2.0648e+001 -1.5386e+002 -2.5499e+001 39995 91904,91982,91930
 4.1000e+000 92031 -2.4951e+000 -2.0811e+001  1.0578e+001 39995 91852,91904,91878
 4.1000e+000 92008 -4.8565e+000 -1.1548e+002 -3.0534e+001 39995 91930,91982,91956
 4.1000e+000 92172  9.2450e+000 -9.1406e+001 -1.6492e+001 39995 91982,91904,92146
 4.1000e+000 92195 -6.1566e+000 -1.1432e+002 -2.9966e+001 39995 91982,92146,91800
 4.1000e+000 92652  2.4552e+000  2.2766e+001  9.7537e+000 39633 92404,92534,92456
 4.1000e+000 92629 -7.4303e+000  1.4681e+001  5.8351e+000 39633 92378,92534,92404
 4.1000e+000 92606 -1.2447e+001  1.6345e+001  9.3421e+000 39633 92404,92456,92430
 4.1000e+000 92583  4.0986e+000  5.4835e+000  3.9156e+000 39633 92456,92534,92508
 4.1000e+000 92560  2.1455e+000  4.4944e+000  3.0196e+000 39633 92456,92508,92482
 4.1000e+000 93079  3.9779e+000 -2.6655e+001 -5.7634e+000 39093 93102,92808,92756
 4.1000e+000 93056  5.4234e+000 -2.9501e+001 -3.0470e+000 39093 93102,92756,92938
 4.1000e+000 93033  1.4155e+000 -2.8217e+001 -7.4677e-001 39093 93174,92912,92834
 4.1000e+000 93010 -4.8333e-001 -1.3710e+001  6.3699e+000 39093 92834,92912,92860
 4.1000e+000 92987  5.2492e+000 -3.9382e+001 -1.0722e+001 39093 92756,92808,92782
 4.1000e+000 92964  3.9806e+000 -5.5947e+000  3.3993e+000 39093 92860,92912,92886
 4.1000e+000 93128  4.4446e+000 -1.6840e+001 -4.7229e+000 39093 92834,92808,93102
 4.1000e+000 93151  1.4889e+000 -2.6937e+001 -2.8330e+000 39093 93174,92834,93102
 4.1000e+000 93200  3.0489e+000 -2.6956e+001 -2.3581e+000 39093 92938,92912,93174
 4.1000e+000 93223  5.3623e+000 -2.5674e+001 -4.3628e+000 39093 92938,93174,93102
 4.1000e+000 93680 -2.3239e+000  3.7639e+000  1.6257e+000 38639 93703,93536,93484
 4.1000e+000 93657  1.0703e+000  4.1622e-001  1.0193e+000 38639 93703,93484,93432
 4.1000e+000 93634  2.6548e+000 -2.0426e+000  4.5379e+000 38639 93432,93484,93458
 4.1000e+000 93611 -3.0038e+000  2.1763e+000  1.5996e+000 38639 93484,93536,93510
 4.1000e+000 93588  1.7386e+001  1.7988e+001  9.0158e+000 38639 93406,93562,93432
 4.1000e+000 93729  9.4382e-002  6.5727e+000  2.6584e+000 38639 93562,93536,93703
 4.1000e+000 93752  3.6813e+000  2.5234e+000  2.0752e+000 38639 93562,93703,93432
 4.1000e+000 94160  3.7551e+000  1.3800e+001  5.1115e+000 38292 93935,94039,93961
 4.1000e+000 94137 -2.4871e+000 -3.5558e+000  8.2234e+000 38292 93935,94065,94039
 4.1000e+000 94114 -8.8129e+000 -2.3953e+001 -3.0614e+000 38292 93961,94013,93987
 4.1000e+000 94091  8.6934e+000 -2.9145e+001  6.5201e+000 38292 93961,94039,94013
 4.1000e+000 94408  2.4850e+001  1.7522e+000  9.6696e+000 37880 94431,94261,94235
 4.1000e+000 94385  4.0671e+001  1.5634e+000  1.6764e+001 37880 94431,94235,94313
 4.1000e+000 94362  3.5391e+001 -7.1068e+000  1.9558e+001 37880 94209,94313,94235
 4.1000e+000 94339  5.0899e+001  4.5533e+001 -6.4377e+000 37880 94183,94313,94209
 4.1000e+000 94457 -3.8381e+000  5.9991e+000  1.1253e+001 37880 94287,94261,94431
 4.1000e+000 94480  2.3250e+001  1.2983e+001  1.6084e+001 37880 94287,94431,94313
 4.1000e+000 94728 -2.3590e+001 -8.0563e+001 -4.4779e-002 37426 94529,94607,94555
 4.1000e+000 94705  5.3809e+000 -1.5002e+002 -1.6611e+001 37426 94529,94633,94607
 4.1000e+000 94682 -8.5792e+000 -1.6059e+002 -2.1211e+001 37426 94503,94633,94529
 4.1000e+000 94659 -1.2954e+001 -3.6217e+001 -2.1655e+001 37426 94555,94607,94581
 4.1000e+000 95257  4.2635e+000 -4.7916e+000  1.3964e+000 36722 95496,95280,94862
 4.1000e+000 95234 -7.7622e+000 -9.8976e+000  1.8020e+000 36722 95496,94862,94836
 4.1000e+000 95211 -1.5518e+000  1.4401e+000 -4.8069e+000 36722 95352,95280,95070
 4.1000e+000 95188 -6.5154e-001  3.5352e+000 -4.9935e+000 36722 95352,95070,95044
 4.1000e+000 95165 -1.1023e+001 -1.1935e+001  7.6714e+000 36722 95424,94888,94862
 4.1000e+000 95142 -6.5397e+000  1.1401e+001 -1.3794e+000 36722 94914,94966,94940
 4.1000e+000 95119  1.6553e+000  8.8449e+000 -8.3617e+000 36722 94966,95044,95018
 4.1000e+000 95096 -5.5258e-002  7.7532e+000 -1.0242e+001 36722 94966,95018,94992
 4.1000e+000 95306  4.6009e+000 -3.4795e+000  5.9509e-001 36722 95424,94862,95280
 4.1000e+000 95329  9.7934e+000  1.1842e+001 -1.0486e+001 36722 94914,95280,94966
 4.1000e+000 95378 -4.9057e-001  1.0751e+000 -6.0115e+000 36722 94966,95280,95352
 4.1000e+000 95401 -4.3564e-001  1.5559e+000 -5.9469e+000 36722 94966,95352,95044
 4.1000e+000 95450  1.0586e+001  1.0547e+000  1.9572e+000 36722 94914,94888,95424
 4.1000e+000 95473  1.2272e+001 -2.5164e+000 -1.6923e+000 36722 94914,95424,95280
 4.1000e+000 95522  5.8273e+000 -5.4497e+000  7.6635e-001 36722 95070,95280,95496
 4.1000e+000 95545  5.2177e+000 -4.6222e+000  1.3339e+000 36722 95070,95496,94836
 4.1000e+000 96130  2.2480e+000 -2.1201e-001  4.0255e-002 36268 96153,95911,95859
 4.1000e+000 96107  3.6805e+000  2.6418e+000  6.7634e-001 36268 96153,95859,95807
 4.1000e+000 96084  4.8367e+000  2.3249e+000 -2.3838e+000 36268 95807,95859,95833
 4.1000e+000 96061 -1.4594e+000  3.7247e-001 -2.2612e-001 36268 95911,95989,95937
 4.1000e+000 96038 -1.1367e-002 -1.0155e+000  7.8457e-001 36268 95859,95911,95885
 4.1000e+000 96015  8.6799e-002  1.4531e+000 -7.1116e-001 36268 95937,95989,95963
 4.1000e+000 96179 -2.8074e-001  2.7014e+000 -6.2826e-001 36268 95989,95911,96153
 4.1000e+000 96202  1.7650e+000  6.4622e+000  2.2685e-001 36268 95989,96153,95807
 4.1000e+000 96531 -4.4745e+000 -4.9330e+001  2.4479e+001 35728 96358,96410,96384
 4.1000e+000 96508  4.9057e+000 -3.8784e+001  1.9560e+001 35728 96332,96410,96358
 4.1000e+000 96485 -4.2776e+000 -5.1988e+001  2.6186e+001 35728 96332,96436,96410
 4.1000e+000 96462 -2.6269e+000 -2.4512e+001 -1.0089e+000 35728 96306,96436,96332
 4.1000e+000 96860  3.3237e+000 -9.4075e+000 -5.9321e-001 35324 96687,96765,96713
 4.1000e+000 96837  1.3348e+001  1.0936e+001 -7.9053e+000 35324 96661,96765,96687
 4.1000e+000 96814  1.0736e+000  2.8603e+001 -2.1241e+001 35324 96713,96765,96739
 4.1000e+000 96791 -2.6655e+000  1.4066e+001 -9.1606e+000 35324 96635,96765,96661
 4.1000e+000 97366 -4.1923e+000 -5.6769e+001  8.0332e+000 34920 97389,97069,97043
 4.1000e+000 97343 -3.2410e+000 -5.1979e+001  7.2033e+000 34920 97389,97043,97199
 4.1000e+000 97320  7.5580e+000 -4.0834e+001  1.2119e+000 34920 97043,97225,97199
 4.1000e+000 97297  1.5765e+001 -1.5036e+002  2.0310e+001 34920 97069,97121,97095
 4.1000e+000 97274  1.6189e+001 -4.7434e+001 -2.3008e-001 34920 97121,97199,97173
 4.1000e+000 97251  1.1426e+000 -2.9992e+001 -1.6680e+001 34920 97121,97173,97147
 4.1000e+000 97415 -6.2559e+000 -5.6270e+001  1.8565e+000 34920 97121,97069,97389
 4.1000e+000 97438 -2.0866e+000 -4.5759e+001  9.7667e-001 34920 97121,97389,97199
 4.1000e+000 97708 -3.1057e+001 -2.3101e+000  6.8525e+000 34722 97509,97587,97535
 4.1000e+000 97685 -1.6933e+001 -6.7185e+000  4.9411e+000 34722 97509,97613,97587
 4.1000e+000 97662 -2.1432e+001 -1.0985e+001  1.0542e+000 34722 97483,97613,97509
 4.1000e+000 97639 -1.7826e+001  4.4499e-001  2.1199e+000 34722 97535,97587,97561
 4.1000e+000 98216 -9.6369e+000 -4.8237e+001  1.4869e+001 34318 97971,98075,97997
 4.1000e+000 98193 -1.8252e+000 -5.0730e+001  2.7190e+001 34318 97893,98075,97971
 4.1000e+000 98170  2.8623e+001 -4.8615e+001  1.1738e+001 34318 97893,97971,97919
 4.1000e+000 98147 -6.3889e+000 -3.7020e+001  1.5239e+001 34318 97997,98075,98049
 4.1000e+000 98124 -1.5531e+000 -4.3332e+001  7.6293e+000 34318 97919,97971,97945
 4.1000e+000 98101 -2.5637e+001 -8.0346e+001  1.9642e+001 34318 97997,98049,98023
 4.1000e+000 98594  7.4040e+000  5.8868e+000  1.5537e+000 33814 98961,98617,98424
 4.1000e+000 98571  2.4280e+001  2.9075e+000 -5.2256e-001 33814 98689,98617,98372
 4.1000e+000 98548  3.2535e+001  3.1164e+001 -5.9495e+000 33814 99033,98689,98372
 4.1000e+000 98525  1.2934e+001  6.3872e+000  3.5551e-001 33814 98761,98476,98450
 4.1000e+000 98502 -1.4249e+000  6.9665e+000 -1.2090e+000 33814 98961,98424,98398
 4.1000e+000 98643  1.9429e+001  1.3122e+001  5.3893e+000 33814 98450,98424,98617
 4.1000e+000 98666  1.8675e+001  1.2785e+001  4.8313e+000 33814 98761,98450,98617
 4.1000e+000 98715  2.4326e+001 -5.2102e+000  1.9225e+000 33814 99161,98689,98320
 4.1000e+000 98738 -9.9422e+000 -9.5006e+000  1.0185e+001 33814 98320,98689,98346
 4.1000e+000 98787  2.2826e+001 -1.4782e+000  1.0643e+001 33814 98833,98761,98320
 4.1000e+000 98810  2.4117e+001 -7.5107e+000  5.3700e+000 33814 99161,98320,98761
 4.1000e+000 98859  2.2972e+001  2.8173e+001  2.8065e+000 33814 98476,98761,98833
 4.1000e+000 98987  2.3013e+001  1.0505e-002 -1.3393e+000 33814 98372,98617,98961
 4.1000e+000 99010  1.3254e+001 -3.0331e-001 -6.1466e+000 33814 98372,98961,98398
 4.1000e+000 99059  2.5138e+001  3.6900e+000  9.4914e+000 33814 98346,98689,99033
 4.1000e+000 99187  2.5854e+001  2.0765e+000 -1.2375e+000 33814 98617,98689,99161
 4.1000e+000 99210  2.3159e+001 -1.9252e+000  2.7185e+000 33814 98617,99161,98761
 4.1000e+000 99588  3.8840e+000  3.0486e+000  4.8802e+000 33566 99366,99444,99392
 4.1000e+000 99565  2.7233e+000  8.6281e+000  5.6928e+000 33566 99314,99444,99366
 4.1000e+000 99542  2.1778e+000 -3.2281e+000  7.9586e-001 33566 99314,99366,99340
 4.1000e+000 99519  4.6215e+000  1.4518e+001 -1.5502e+000 33566 99314,99470,99444
 4.1000e+000 99496  2.3423e+000  2.0947e+001  1.3458e+001 33566 99392,99444,99418
 4.1000e+000 99787  6.8641e+000 -1.2119e+000  1.5383e+001 33105 99637,99689,99663
 4.1000e+000 99764  1.0656e+001  8.7870e+000  7.5155e-001 33105 99611,99689,99637
 4.1000e+000 99741  1.1117e+001  1.9073e+001  2.4200e+000 33105 99611,99715,99689
 4.1000e+000 100167 -2.0587e+001 -6.5551e+001  3.5542e+001 32651 100190,99971,99919
 4.1000e+000 100144  6.6073e+000 -3.9822e+001  2.4904e+001 32651 100262,100190,99919
 4.1000e+000 100121  1.0542e+000 -3.8005e+001  2.0345e+001 32651 100262,99919,100049
 4.1000e+000 100098 -4.5907e+000 -3.9698e+001 -7.1072e+000 32651 99893,100049,99919
 4.1000e+000 100075 -2.6129e+001 -6.9009e+001  3.2384e+001 32651 99919,99971,99945
 4.1000e+000 100216  6.4012e+000 -7.1542e+001  1.5563e+001 32651 99997,99971,100190
 4.1000e+000 100239  2.0538e+001 -5.2715e+001  6.9968e+000 32651 99997,100190,100023
 4.1000e+000 100288  2.1839e+000 -5.0286e+001  2.2210e+001 32651 100023,100190,100262
 4.1000e+000 100311 -3.6769e+000 -4.7608e+001  1.4119e+001 32651 100023,100262,100049
 4.1000e+000 100608 -2.3412e+000 -2.5267e+001  1.7031e+000 32254 100386,100490,100464
 4.1000e+000 100585 -1.3990e+000 -5.1598e+000 -3.3373e+000 32254 100360,100490,100386
 4.1000e+000 100562 -1.2769e+001 -4.2000e+001 -7.1697e+000 32254 100386,100464,100412
 4.1000e+000 100539 -4.0451e+000 -7.7787e+000 -6.4708e+000 32254 100334,100490,100360
 4.1000e+000 100516  9.8718e+000 -1.2788e+001  4.1074e+000 32254 100412,100464,100438
 4.1000e+000 100758  1.2248e+000  7.5579e+000 -2.3506e+000 31914 100985,100781,100683
 4.1000e+000 100735 -1.1702e+001  1.0808e+000  1.0533e+001 31914 100853,100781,100657
 4.1000e+000 100807  1.1850e+001  8.5999e+000 -1.0744e+001 31914 100709,100683,100781
 4.1000e+000 100830 -2.1993e+000  6.2655e+000  1.5443e+000 31914 100709,100781,100631
 4.1000e+000 100879 -4.8896e+000 -1.0119e+001  8.3207e+000 31914 100631,100781,100853
 4.1000e+000 101011  6.4851e+000  3.0894e+000  2.0029e+000 31914 100657,100781,100985
 4.1000e+000 101191 -2.5887e+001  2.4292e+001 -3.3521e+000 31418 101113,101165,101139
 4.1000e+000 101341 -7.2732e+001 -1.3025e+002 -1.1230e+001 31106 101214,101266,101240
 4.1000e+000 101318 -4.1963e+001 -3.9772e+001  1.9462e+000 31106 101214,101292,101266
 4.1000e+000 101591 -1.5537e+001 -6.8874e+001  3.4513e+001 30552 101614,101470,101444
 4.1000e+000 101568 -1.4291e+001 -4.8693e+001  1.2130e+001 30552 101366,101496,101470
 4.1000e+000 101545 -5.4099e+000 -6.2890e+001  2.6897e+001 30552 101614,101444,101392
 4.1000e+000 101522 -3.3374e+000 -1.9660e+001 -5.0575e+000 30552 101392,101444,101418
 4.1000e+000 101640 -1.4874e+000 -7.1772e+001  2.7811e+001 30552 101366,101470,101614
 4.1000e+000 101663  7.2300e+000 -6.7054e+001  2.0345e+001 30552 101366,101614,101392
 4.1000e+000 102301  5.3512e+000 -7.6615e+001 -1.4135e+001 30042 102396,102324,102059
 4.1000e+000 102278 -1.3893e+001 -7.0826e+001 -3.7626e+001 30042 102324,101981,101955
 4.1000e+000 102255 -1.0589e+001 -5.9473e+001  1.1261e+001 30042 102396,102059,102033
 4.1000e+000 102232 -1.3737e+001 -3.6430e+001  7.0817e-001 30042 101929,102111,101955
 4.1000e+000 102209  2.5394e-001 -7.4830e+001 -3.3580e+000 30042 102059,102111,102085
 4.1000e+000 102186 -1.8608e+001 -3.9719e+001  3.6628e+000 30042 101929,102137,102111
 4.1000e+000 102163  1.2933e+000  7.1805e-001 -3.5951e+000 30042 101981,102033,102007
 4.1000e+000 102350  2.1922e+001 -7.0214e+001 -1.3228e+001 30042 102111,102059,102324
 4.1000e+000 102373  1.8420e+001 -7.0288e+001 -1.6871e+001 30042 102111,102324,101955
 4.1000e+000 102422  2.4353e+001 -1.8432e+001 -2.0060e+001 30042 101981,102324,102396
 4.1000e+000 102445  8.8855e+000 -1.0675e+000  6.0324e+000 30042 101981,102396,102033
 4.1000e+000 103000  4.9531e+001 -5.3994e+001  8.3336e-001 29730 103023,102706,102654
 4.1000e+000 102977  8.8593e+000 -6.1073e+001 -5.3213e+000 29730 103023,102654,102810
 4.1000e+000 102954 -3.6003e+001 -9.9881e+001 -4.9517e+000 29730 102732,102810,102784
 4.1000e+000 102931  1.3031e+001 -6.7814e+001 -6.6340e+000 29730 102628,102810,102654
 4.1000e+000 102908  4.3997e+001 -1.1868e+001  1.4422e+001 29730 102654,102706,102680
 4.1000e+000 102885 -1.2601e+001 -2.6692e+001 -1.9820e+001 29730 102732,102784,102758
 4.1000e+000 102862  4.1691e+000 -7.6561e+001  1.0685e+001 29730 102628,102836,102810
 4.1000e+000 103049  2.5703e+001 -6.1454e+001 -1.9866e+001 29730 102732,102706,103023
 4.1000e+000 103072  4.5868e-001 -5.4874e+001 -2.4408e+001 29730 102732,103023,102810
 4.1000e+000 103222  2.5393e+001 -3.4742e+001  4.9873e-001 29226 103095,103147,103121
 4.1000e+000 103199  2.0776e+001 -1.5680e+001 -6.7196e+000 29226 103095,103173,103147
 4.1000e+000 103730 -6.4466e+000 -8.0792e+001  9.9083e+000 28822 103537,103589,103563
 4.1000e+000 103707  2.2435e+000 -6.0328e+001  7.0136e+000 28822 103433,103589,103537
 4.1000e+000 103684  1.3434e+001 -4.6352e+001 -9.3678e+000 28822 103433,103537,103459
 4.1000e+000 103661  2.0210e+001 -7.3259e+001  1.2539e+001 28822 103407,103589,103433
 4.1000e+000 103638  3.8494e+000 -8.6528e+000  1.9289e+001 28822 103459,103511,103485
 4.1000e+000 103615 -2.3213e+001 -2.7828e+000  1.6397e+001 28822 103459,103537,103511
 4.1000e+000 103880  2.6581e+001 -3.5950e+001  1.4844e+001 28368 103975,103903,103779
 4.1000e+000 103857  1.8988e+000 -1.1386e+002  6.3368e+000 28368 103903,103753,103831
 4.1000e+000 103929  1.3864e+000 -1.3769e+001 -1.3950e+000 28368 103805,103779,103903
 4.1000e+000 103952 -4.6922e+000 -5.2104e+001 -1.8996e-001 28368 104105,103903,103831
 4.1000e+000 104001  1.6831e+001 -5.1642e+001 -5.8209e+000 28368 103753,103903,103975
 4.1000e+000 104131 -5.1629e+000 -4.7328e+001  8.3837e+000 28368 103805,103903,104105
 4.1000e+000 104539  2.9044e+000  5.7379e+000  5.8223e+000 28028 104562,104340,104314
 4.1000e+000 104516  4.6102e+000  8.7662e+000  5.1457e+000 28028 104634,104562,104314
 4.1000e+000 104493 -2.5022e+000  3.9656e+000  8.8681e-001 28028 104762,104366,104340
 4.1000e+000 104470 -4.5137e-001  2.3811e+000 -2.0884e+000 28028 104366,104418,104392
 4.1000e+000 104588  8.1570e-001  3.0076e+000  2.7712e+000 28028 104762,104340,104562
 4.1000e+000 104611  8.3662e+000  8.6423e+000  2.2834e+000 28028 104418,104562,104444
 4.1000e+000 104660  2.8529e+000  6.5923e+000  4.3872e+000 28028 104444,104562,104634
 4.1000e+000 104788  7.4475e-001  5.8365e+000  1.9278e+000 28028 104418,104366,104762
 4.1000e+000 104811  4.3907e+000  5.6543e+000  4.1204e+000 28028 104418,104762,104562
 4.1000e+000 105010  3.2516e+000  2.1287e+000 -6.2687e+000 27324 105033,104886,104860
 4.1000e+000 104987 -1.5545e+000  2.7801e+000  1.0483e+000 27324 105033,104860,104834
 4.1000e+000 104964  1.1138e+001  7.5446e+000 -6.3436e+000 27324 105105,104912,104886
 4.1000e+000 105059  5.0237e+000  8.2321e+000 -7.7422e+000 27324 105105,104886,105033
 4.1000e+000 105082  4.3812e+000  5.3795e+000 -3.8237e+000 27324 104938,105033,104834
 4.1000e+000 105131  2.2505e+001  8.3439e+000 -3.1201e+000 27324 104938,104912,105105
 4.1000e+000 105154  1.4285e+001  6.0037e+000 -6.1152e+000 27324 104938,105105,105033
 4.1000e+000 105402 -8.5455e+000 -2.4954e+001 -4.1027e+000 27012 105229,105281,105255
 4.1000e+000 105379  3.0161e+000 -8.4154e+000 -1.0397e+001 27012 105229,105307,105281
 4.1000e+000 105356  2.0294e+001  6.4173e+000 -3.9548e+000 27012 105177,105307,105229
 4.1000e+000 105333 -1.4989e+001 -3.5097e+001 -2.7445e+001 27012 105177,105229,105203
 4.1000e+000 105603  5.1925e+000  1.3884e+001 -8.7464e+000 26508 105626,105453,105427
 4.1000e+000 105580  8.7653e+000  2.1520e+001  1.2144e+001 26508 105626,105427,105505
 4.1000e+000 105557  5.6940e+000  2.2591e+001  1.1062e+001 26508 105427,105531,105505
 4.1000e+000 105652 -9.7545e+000  7.5338e+000 -1.0629e+001 26508 105479,105453,105626
 4.1000e+000 105675 -1.1595e+001  1.1087e+001  8.4786e+000 26508 105479,105626,105505
 4.1000e+000 106057 -5.2519e+000 -2.0873e+001  1.1117e+001 25947 106080,105887,105861
 4.1000e+000 106034 -7.0398e-001 -1.3424e+001  6.1418e+000 25947 106080,105861,105783
 4.1000e+000 106011  2.4902e+000 -8.7534e+000  4.5141e+000 25947 105783,105835,105809
 4.1000e+000 105988 -3.8555e+000 -1.4837e+001  7.1409e+000 25947 105783,105861,105835
 4.1000e+000 105965  8.3063e-002 -5.8693e+000 -6.3862e-001 25947 105887,105939,105913
 4.1000e+000 106106 -4.0261e+000 -1.7820e+001  4.4366e+000 25947 105939,105887,106080
 4.1000e+000 106129  5.8219e+000 -4.1331e+000 -1.5372e+000 25947 105939,106080,105783
 4.1000e+000 106714  4.4539e+000 -1.0068e+001 -2.8341e+000 25557 106809,106737,106547
 4.1000e+000 106691  5.6034e-001 -3.2060e+001  1.1048e+001 25557 106737,106417,106391
 4.1000e+000 106668  1.5478e+001 -5.5454e+000 -4.7484e+000 25557 106809,106547,106495
 4.1000e+000 106645  1.2373e+000 -6.8989e+001  2.7034e+001 25557 106417,106495,106469
 4.1000e+000 106622  1.4295e+001 -1.5121e+000  1.2602e+000 25557 106495,106547,106521
 4.1000e+000 106599 -1.4296e+001 -5.2274e+001  2.2713e+001 25557 106417,106469,106443
 4.1000e+000 106763 -5.1741e+000 -1.8074e+001  2.8924e+000 25557 106573,106547,106737
 4.1000e+000 106786  1.0268e+001 -1.1784e+001  6.2035e+000 25557 106573,106737,106391
 4.1000e+000 106835  1.7986e+001 -1.7079e+001  2.0238e+000 25557 106417,106737,106809
 4.1000e+000 106858  2.5106e+001 -1.4751e+001 -8.3845e-001 25557 106417,106809,106495
 4.1000e+000 107364  2.3869e-001 -3.8429e+000 -4.0583e+000 25153 107459,107387,107171
 4.1000e+000 107341  2.3057e+000 -4.8584e+000 -3.6495e+000 25153 107387,107119,107067
 4.1000e+000 107318  5.4106e-001  1.2825e+000  1.0748e+000 25153 107459,107171,107145
 4.1000e+000 107295  5.1441e+000 -2.5601e+000 -1.1618e+001 25153 107531,107223,107197
 4.1000e+000 107272  1.4076e+001  1.8202e+001 -9.4324e+000 25153 107067,107119,107093
 4.1000e+000 107249  1.5259e+001  2.5988e+000 -1.3366e+001 25153 107041,107223,107067
 4.1000e+000 107413 -2.4327e+001 -1.3014e+001 -3.4612e+000 25153 107197,107171,107387
 4.1000e+000 107436  9.5319e-001 -9.1959e+000 -3.7038e+000 25153 107531,107197,107387
 4.1000e+000 107485  3.7409e+000  5.2705e+000 -1.4263e+000 25153 107119,107387,107459
 4.1000e+000 107508  5.6137e+000  9.9637e+000  4.4098e+000 25153 107119,107459,107145
 4.1000e+000 107557  9.8494e+000  4.2325e+000 -1.5050e+001 25153 107067,107223,107531
 4.1000e+000 107580  8.0124e+000  3.8345e+000 -7.4740e+000 25153 107067,107531,107387
 4.1000e+000 107958  6.6324e+000 -3.8331e+001 -3.1616e+000 24741 107736,107814,107788
 4.1000e+000 107935 -7.8060e+000 -5.9858e+001 -2.0799e+001 24741 107736,107840,107814
 4.1000e+000 107912 -8.4039e+000 -4.7635e+001 -2.2134e+001 24741 107684,107840,107736
 4.1000e+000 107889 -2.9402e+000 -5.4649e+000 -1.4420e+001 24741 107736,107788,107762
 4.1000e+000 107866 -1.9175e+001 -8.5886e+001 -3.0079e+001 24741 107684,107736,107710
 4.1000e+000 108157 -1.5363e+000 -6.1572e+000 -6.1245e+000 24237 108180,108059,108007
 4.1000e+000 108134  1.6172e+001  5.8490e+000 -2.4342e-001 24237 108180,108007,107981
 4.1000e+000 108111 -5.0965e+000 -5.7544e+000 -5.5893e+000 24237 108007,108059,108033
 4.1000e+000 108206  4.6964e+000  1.2933e+000  9.4476e+000 24237 108085,108059,108180
 4.1000e+000 108229  2.1705e+001  1.2987e+001  1.5236e+001 24237 108085,108180,107981
 4.1000e+000 108658  4.4448e+000 -3.5412e+001  1.6738e+001 23776 108361,108413,108387
 4.1000e+000 108635 -1.0027e+001 -8.0510e+001 -1.0801e+001 23776 108753,108681,108361
 4.1000e+000 108612  1.3594e+000 -4.0249e+001 -7.0470e+000 23776 108681,108465,108439
 4.1000e+000 108589  6.1327e-002 -9.0497e+001  8.9688e-001 23776 108753,108361,108335
 4.1000e+000 108566 -1.3492e+001 -7.6169e+001  2.0020e+001 23776 108335,108517,108465
 4.1000e+000 108543 -1.3181e+001 -8.5230e+001  2.1256e+001 23776 108465,108517,108491
 4.1000e+000 108707 -1.6848e+001 -4.0571e+001 -8.4674e+000 23776 108413,108361,108681
 4.1000e+000 108730 -6.8939e+000 -1.3432e+001  6.6474e+000 23776 108413,108681,108439
 4.1000e+000 108779 -7.3556e-001 -4.0787e+001 -1.0497e+001 23776 108465,108681,108753
 4.1000e+000 108802 -3.3115e+000 -7.1617e+001 -2.3014e+000 23776 108465,108753,108335
 4.1000e+000 109023  4.1429e+000 -3.4171e-001 -1.1519e+001 23414 108873,108925,108899
 4.1000e+000 109000  2.1013e+001  8.1247e+000 -8.6811e+000 23414 108847,108925,108873
 4.1000e+000 108977  2.9566e+001  4.0248e+001  3.8104e+000 23414 108847,108951,108925
 4.1000e+000 109474 -1.7204e+000  1.1115e+001  2.0025e+000 23024 109151,109307,109177
 4.1000e+000 109451  2.0487e+000  1.4496e+000  1.7076e+000 23024 109151,109333,109307
 4.1000e+000 109428  1.5111e+001 -6.0602e+001 -2.4758e-002 23024 109177,109281,109203
 4.1000e+000 109405  5.6337e-001 -2.6786e+001 -2.0682e+001 23024 109177,109307,109281
 4.1000e+000 109382  1.0920e+001 -4.7932e+001  8.5051e+000 23024 109203,109281,109229
 4.1000e+000 109359 -4.3437e+000 -4.0485e+001 -1.4808e+000 23024 109229,109281,109255
 4.1000e+000 109820  5.1336e-001 -4.1735e+001  3.6467e+000 22506 109843,109601,109523
 4.1000e+000 109797  6.5694e+000 -2.9846e+001 -1.2938e+000 22506 109843,109523,109497
 4.1000e+000 109774  5.4916e+000 -5.4111e+001  7.2716e-001 22506 109915,109653,109627
 4.1000e+000 109751  3.6532e+000 -2.3905e+001 -4.9412e+000 22506 109497,109679,109653
 4.1000e+000 109728 -4.1236e+000 -5.3699e+001 -1.2512e+001 22506 109523,109601,109575
 4.1000e+000 109705 -2.1900e+001 -7.2109e+001 -2.0314e+001 22506 109523,109575,109549
 4.1000e+000 109869  1.1131e+001 -3.5490e+001  6.4197e+000 22506 109627,109601,109843
 4.1000e+000 109892  1.1943e+001 -4.2309e+001  4.8908e+000 22506 109915,109627,109843
 4.1000e+000 109941 -3.5725e-001 -4.4708e+001 -6.4412e+000 22506 109497,109653,109915
 4.1000e+000 109964  5.1263e-001 -4.3655e+001 -3.7942e+000 22506 109497,109915,109843
 4.1000e+000 110163  8.0781e+000 -2.4408e+001  2.6101e+000 21936 110186,110039,110013
 4.1000e+000 110140  2.6180e+001 -1.0549e+001  8.9399e+000 21936 110390,110186,110013
 4.1000e+000 110117  4.3309e+001 -2.4456e+001  2.5085e+001 21936 110390,110013,109987
 4.1000e+000 110212  2.1214e+001 -4.6649e-001 -1.4552e+001 21936 110065,110039,110186
 4.1000e+000 110235 -3.4142e+000 -1.2086e+001 -5.7317e+000 21936 110258,110186,110091
 4.1000e+000 110284 -2.1865e+001 -1.9090e+001 -9.6729e+000 21936 110065,110186,110258
 4.1000e+000 110416 -1.1425e+001 -1.7677e+001  1.2470e+001 21936 110091,110186,110390
 4.1000e+000 110439  1.3606e+001 -2.6489e+001  2.6975e+001 21936 110091,110390,109987
 4.1000e+000 110709  1.7575e+001 -3.4897e+001  1.3462e+000 21338 110510,110614,110588
 4.1000e+000 110686  1.1880e+001 -5.1086e+001 -2.4469e+000 21338 110484,110614,110510
 4.1000e+000 110663  2.8724e+001  6.2798e+000  1.3041e+000 21338 110510,110562,110536
 4.1000e+000 110640  1.1793e+001 -3.4289e+001 -1.8728e+000 21338 110510,110588,110562
 4.1000e+000 111296  1.1874e+001 -1.9158e+001 -3.6746e+000 20934 111025,111155,111103
 4.1000e+000 111273 -3.6044e+000 -7.5825e+001 -1.7624e+000 20934 110999,111155,111025
 4.1000e+000 111250  3.3126e-002 -2.4469e+001 -2.4639e+000 20934 111103,111155,111129
 4.1000e+000 111227 -4.3991e+000 -6.6905e+001 -1.4514e+001 20934 111051,111103,111077
 4.1000e+000 111204 -6.1443e+000 -6.2944e+001 -1.1854e+001 20934 111025,111103,111051
 4.1000e+000 111181 -8.2635e+000 -8.5693e+001 -3.7584e+000 20934 110973,111155,110999
 4.1000e+000 111930 -1.4629e+001 -4.7352e+001 -3.6221e+001 20494 111662,111714,111688
 4.1000e+000 111907 -1.3064e+001 -1.7665e+001 -2.7346e+001 20494 111584,111714,111662
 4.1000e+000 111884  3.3455e+000 -4.0328e+000 -3.3383e+001 20494 111584,111766,111714
 4.1000e+000 111861  4.2222e+001 -4.2239e+000 -1.8275e+001 20494 111584,111636,111610
 4.1000e+000 111838  6.4110e+000 -7.4852e+000 -3.9250e+001 20494 111584,111662,111636
 4.1000e+000 111815 -4.6553e+000  6.1541e+000 -1.3780e+001 20494 111558,111766,111584
 4.1000e+000 111792  2.0976e+000  1.0838e+001 -4.6408e+000 20494 111714,111766,111740
 4.1000e+000 112249 -1.7653e+001 -1.8493e+002  1.5912e+001 19940 111975,112053,112001
 4.1000e+000 112226  3.4866e+001 -7.8468e+001 -1.3014e+000 19940 111975,112131,112053
 4.1000e+000 112203  3.9532e+000 -1.6620e+002  0.0000e+000 19940 112053,112105,112079
 4.1000e+000 112180  4.6618e+000 -1.6086e+002  2.6089e+000 19940 112053,112131,112105
 4.1000e+000 112157  5.6599e+000 -1.5627e+002 -5.9635e+000 19940 112001,112053,112027
 4.1000e+000 112757  1.6060e+001 -3.6856e+001 -1.3085e+001 19486 112780,112538,112486
 4.1000e+000 112734  1.4545e+001 -3.9044e+001 -5.4171e+000 19486 112780,112486,112460
 4.1000e+000 112711  2.7628e+000 -3.1897e+001 -6.0668e+000 19486 112852,112616,112590
 4.1000e+000 112688  5.0757e+001 -5.4541e+001 -1.6622e+001 19486 112486,112538,112512
 4.1000e+000 112665 -7.2994e+000 -4.8247e+001  3.0822e+000 19486 112434,112616,112460
 4.1000e+000 112642  4.3934e+000 -2.9067e+001 -9.3743e+000 19486 112538,112590,112564
 4.1000e+000 112806  1.0792e+001 -3.9579e+001 -1.1744e+001 19486 112590,112538,112780
 4.1000e+000 112829  1.6048e+001 -3.4990e+001 -8.7656e+000 19486 112852,112590,112780
 4.1000e+000 112878 -5.9928e+000 -3.5316e+001 -2.4477e+000 19486 112460,112616,112852
 4.1000e+000 112901  1.7786e+000 -4.3502e+001 -3.8032e+000 19486 112460,112852,112780
 4.1000e+000 113252 -3.1431e+001 -6.8121e+001 -3.2082e+000 19096 113105,113157,113131
 4.1000e+000 113229 -2.3823e+001 -4.6032e+001 -6.1155e-001 19096 113053,113157,113105
 4.1000e+000 113206 -1.6760e+001 -4.3054e+001  3.9816e-002 19096 113027,113157,113053
 4.1000e+000 113183 -3.8812e+001 -7.8014e+001  4.0321e+000 19096 113053,113105,113079
 4.1000e+000 113451  1.2283e+001 -7.5771e+001 -2.3785e+001 18642 113327,113379,113353
 4.1000e+000 113428  3.5686e+000 -1.0293e+002 -1.8363e+001 18642 113301,113379,113327
 4.1000e+000 113405  2.1682e+001 -7.2911e+001 -6.1471e+000 18642 113275,113379,113301
 4.1000e+000 113699  1.7226e+001 -6.8410e+001 -5.8946e+000 18138 113474,113552,113526
 4.1000e+000 113676  3.7057e+001 -7.9649e+001 -1.6295e+001 18138 113474,113578,113552
 4.1000e+000 113653  3.7474e+001 -7.7949e+001 -1.6529e+001 18138 113474,113604,113578
 4.1000e+000 113630  3.0700e+001 -4.7806e+001 -6.6613e-002 18138 113474,113526,113500
 4.1000e+000 113851  1.1304e+000 -7.3710e+001 -3.4872e+000 17682 113750,113802,113776
 4.1000e+000 113828  9.7846e+000 -6.4324e+001  6.3861e-001 17682 113724,113802,113750
 4.1000e+000 114383  2.9291e+001 -1.0343e+002 -6.4647e+000 17106 114086,114242,114164
 4.1000e+000 114360  2.1540e+001 -1.0670e+002 -5.9698e+000 17106 114060,114242,114086
 4.1000e+000 114337 -1.1562e+001 -1.9865e+002  1.7796e+001 17106 114086,114164,114138
 4.1000e+000 114314 -4.8959e+001 -2.9839e+002 -4.9174e+000 17106 114190,114242,114216
 4.1000e+000 114291 -1.7359e+001 -2.1213e+002 -2.1254e+001 17106 114164,114242,114190
 4.1000e+000 114268  1.8130e+001 -1.7792e+002  3.8092e+001 17106 114086,114138,114112
 4.1000e+000 114680 -2.4980e+001 -8.7140e+001  9.1090e-001 16766 114703,114432,114406
 4.1000e+000 114657 -2.8032e+001 -8.6360e+001 -1.5929e+000 16766 114703,114406,114510
 4.1000e+000 114634 -2.9458e+001 -5.9625e+001  7.7215e+000 16766 114406,114536,114510
 4.1000e+000 114611 -1.3608e+001 -9.2498e+001 -6.3867e+000 16766 114432,114484,114458
 4.1000e+000 114588 -4.6886e+001 -7.8510e+001  3.6812e+001 16766 114406,114562,114536
 4.1000e+000 114729 -1.3286e+001 -8.5646e+001  2.7033e+000 16766 114484,114432,114703
 4.1000e+000 114752 -2.3201e+001 -8.9775e+001 -1.4745e-002 16766 114484,114703,114510
 4.1000e+000 114902  4.6776e+001 -1.7721e+002 -3.3927e+001 16362 114775,114827,114801
 4.1000e+000 114879  2.7254e+001 -1.7775e+002 -3.1348e+001 16362 114775,114853,114827
 4.1000e+000 115054 -2.0151e+002 -3.2175e+002 -1.8259e+001 15908 114953,115005,114979
 4.1000e+000 115031 -1.8509e+002 -3.3525e+002 -1.3231e+001 15908 114927,115005,114953
 4.1000e+000 115326  1.2689e+001 -4.3827e+001  2.2823e+001 15251 115101,115179,115153
 4.1000e+000 115303  8.7539e+000 -3.9754e+001  1.6124e+000 15251 115101,115231,115179
 4.1000e+000 115280  1.0351e+001 -3.6394e+001  1.1517e+000 15251 115179,115231,115205
 4.1000e+000 115257 -4.1373e+001 -2.2027e+002  1.7721e+001 15251 115101,115153,115127
 4.1000e+000 115429 -7.3467e+000 -9.4180e+001  1.9405e+001 421 115351,115403,115377
 4.2000e+000 66230  3.3065e+000 -2.0060e+000 -7.4202e-001 65954 66152,66204,66178
 4.2000e+000 66429  1.4894e+000 -2.2015e+000 -2.6740e+000 65642 66279,66331,66305
 4.2000e+000 66406  8.6998e-001  1.1291e+000 -1.7605e-001 65642 66279,66357,66331
 4.2000e+000 66383 -9.4648e-001 -1.8975e+000  8.4061e-001 65642 66253,66357,66279
 4.2000e+000 66628 -1.2273e+000 -9.2147e+000  1.9903e+000 65444 66452,66530,66478
 4.2000e+000 66605  2.8080e+000 -1.7640e+001 -9.6604e-001 65444 66452,66556,66530
 4.2000e+000 66582  1.4087e+000 -1.4027e+001  1.9993e+000 65444 66478,66530,66504
 4.2000e+000 67006 -3.1290e+000 -7.6291e+000  2.8658e+000 65246 66732,66810,66758
 4.2000e+000 66983 -5.1636e+000 -3.4539e+000  3.5068e+000 65246 66732,66836,66810
 4.2000e+000 66960  7.3030e-001  1.5634e+000  1.0283e+001 65246 66732,66862,66836
 4.2000e+000 66937  1.0630e+000 -9.4028e+000 -7.0273e-001 65246 66758,66810,66784
 4.2000e+000 66914  1.0240e+001 -3.4020e+001 -9.8579e+000 65246 66732,66888,66862
 4.2000e+000 67107  1.5318e+001 -1.5706e+001 -4.8355e+000 64934 67029,67081,67055
 4.2000e+000 67306 -5.4516e+000  8.9637e-002  3.5338e+000 64736 67156,67208,67182
 4.2000e+000 67283 -8.8371e-001 -1.4236e-002  2.8356e+000 64736 67130,67208,67156
 4.2000e+000 67260  7.5887e-001 -9.5859e+000  4.1934e+000 64736 67130,67234,67208
 4.2000e+000 67507 -3.6142e+000 -9.9994e+000 -4.3766e+000 64389 67357,67409,67383
 4.2000e+000 67484 -1.5525e+000 -6.4574e+000 -3.5726e+000 64389 67357,67435,67409
 4.2000e+000 67461  2.9934e+000 -1.5858e+001 -1.1422e+000 64389 67331,67435,67357
 4.2000e+000 67708  1.8306e+001 -1.4095e+001  4.2664e+000 63985 67731,67584,67558
 4.2000e+000 67685  9.2354e+000 -9.9341e-001  2.7849e+000 63985 67731,67558,67636
 4.2000e+000 67662  4.8901e+000 -2.3466e+000  3.0245e+000 63985 67532,67636,67558
 4.2000e+000 67757  1.2991e+001 -1.9500e+001  1.9242e+000 63985 67610,67584,67731
 4.2000e+000 67780  1.8108e+000 -1.0097e+001 -7.3766e-001 63985 67610,67731,67636
 4.2000e+000 67981 -5.2661e-001 -2.4266e-001  3.0895e-002 63787 67857,67909,67883
 4.2000e+000 67958 -3.7289e-001  2.6298e-001 -2.0559e-001 63787 67831,67909,67857
 4.2000e+000 67935  6.1203e-001  7.6482e-001  5.8032e-001 63787 67805,67909,67831
 4.2000e+000 68231  3.1380e+000 -2.3133e+001  7.8526e-001 63589 68254,68084,68032
 4.2000e+000 68208  2.5390e+000 -7.6835e+000  5.0480e-001 63589 68254,68032,68006
 4.2000e+000 68185  4.3345e+000 -3.4550e+000  1.1700e+000 63589 68326,68136,68110
 4.2000e+000 68162 -2.8621e-001 -2.3418e+001 -2.7289e+000 63589 68032,68084,68058
 4.2000e+000 68280  5.1018e+000 -9.5218e+000  6.4050e-001 63589 68110,68084,68254
 4.2000e+000 68303  2.5227e+000 -4.1623e+000  3.0529e+000 63589 68326,68110,68254
 4.2000e+000 68352  7.4969e+000  1.0729e+000 -3.8674e+000 63589 68006,68136,68326
 4.2000e+000 68375  4.0037e+000 -1.2343e+000 -1.7688e+000 63589 68006,68326,68254
 4.2000e+000 68836  3.1012e-001  5.7716e-001 -4.8531e-001 63128 68859,68588,68562
 4.2000e+000 68813  3.8612e-001  2.8151e-001 -1.0431e-001 63128 68859,68562,68692
 4.2000e+000 68790  1.4029e+000 -1.5669e+000 -4.4838e-001 63128 68614,68692,68666
 4.2000e+000 68767  1.1941e+000 -1.1990e+000 -3.1677e-001 63128 68562,68718,68692
 4.2000e+000 68744  1.0929e+000 -2.4454e+000 -1.2272e+000 63128 68614,68666,68640
 4.2000e+000 68885  5.4039e-001  1.1032e+000 -5.4904e-001 63128 68614,68588,68859
 4.2000e+000 68908  5.6742e-001  6.7761e-001 -1.7871e-001 63128 68614,68859,68692
 4.2000e+000 69237  2.4683e+000 -9.6624e+000  3.8636e+000 62731 69064,69116,69090
 4.2000e+000 69214 -1.4977e+000 -2.4510e+001  4.2332e-001 62731 69064,69142,69116
 4.2000e+000 69191 -3.2536e+000 -2.0262e+001  2.6394e+000 62731 69038,69142,69064
 4.2000e+000 69168  1.8622e+000 -3.8383e+001  2.9705e+000 62731 69012,69142,69038
 4.2000e+000 69539  1.1317e-001 -8.7026e-001 -1.2105e+000 62433 69389,69467,69441
 4.2000e+000 69516 -1.5991e+000  2.2945e+000 -1.5585e+000 62433 69363,69467,69389
 4.2000e+000 69493  1.0004e+000  4.4009e-001 -6.3039e-001 62433 69389,69441,69415
 4.2000e+000 69966  1.0849e+000  2.8619e+000  2.2846e+000 62235 69989,69773,69721
 4.2000e+000 69943  8.1217e-001 -1.2981e+000 -1.4527e+000 62235 70061,69989,69721
 4.2000e+000 69920  1.0771e+000 -2.5154e+000 -1.1602e+000 62235 70061,69721,69643
 4.2000e+000 69897  2.0791e+000  2.7059e+000  2.1548e+000 62235 69721,69773,69747
 4.2000e+000 69874  2.7153e+000  5.5846e+000  1.0474e+000 62235 69643,69721,69695
 4.2000e+000 69851 -2.3948e+000 -1.9506e+001  4.8121e+000 62235 69643,69695,69669
 4.2000e+000 70015 -2.2028e-001 -1.9573e+000  1.0893e+000 62235 69799,69773,69989
 4.2000e+000 70038 -1.3974e+000 -3.6224e+000 -2.8847e+000 62235 69799,69989,69825
 4.2000e+000 70087 -1.2182e-001 -2.4592e+000 -1.0298e+000 62235 69825,69989,70061
 4.2000e+000 70110  7.7548e-001 -3.0572e+000 -9.6911e-001 62235 69825,70061,69643
 4.2000e+000 70260  4.7942e-001  1.9807e+000 -3.7813e-001 62037 70133,70185,70159
 4.2000e+000 70237  7.7434e-001 -2.4406e+000  4.8322e-001 62037 70133,70211,70185
 4.2000e+000 70640 -4.0235e+000 -8.6478e+000  4.4706e+000 61583 70735,70663,70418
 4.2000e+000 70617 -6.7180e+000 -1.0403e+001  5.1288e+000 61583 70663,70366,70522
 4.2000e+000 70594 -3.3988e+000 -7.1915e+000  4.5575e+000 61583 70735,70418,70392
 4.2000e+000 70571 -9.8975e+000 -1.0985e+001  2.6367e+000 61583 70418,70496,70444
 4.2000e+000 70548 -9.6562e+000 -8.1887e+000  3.1191e+000 61583 70444,70496,70470
 4.2000e+000 70689 -7.2379e+000 -9.9377e+000  3.3605e+000 61583 70496,70418,70663
 4.2000e+000 70712 -1.0376e+001 -7.7070e+000  4.3313e+000 61583 70496,70663,70522
 4.2000e+000 70761 -4.8479e+000 -8.3389e+000  2.3005e+000 61583 70366,70663,70735
 4.2000e+000 70784 -4.2318e+000 -6.9102e+000  2.4889e+000 61583 70366,70735,70392
 4.2000e+000 71054  1.3381e-001 -1.4091e+000  3.3855e-001 61313 71077,70881,70855
 4.2000e+000 71031  3.4447e-001  6.0716e-001 -4.5249e-001 61313 71077,70855,70829
 4.2000e+000 71008  1.4613e+000  3.8094e+000  1.1560e-001 61313 70829,70959,70933
 4.2000e+000 70985 -8.6068e-001  3.0730e+000  1.0448e+000 61313 70881,70933,70907
 4.2000e+000 71103  8.8854e-001 -1.7756e-001 -6.1836e-001 61313 70933,70881,71077
 4.2000e+000 71126  4.6568e-001  1.0583e+000 -1.3592e+000 61313 70933,71077,70829
 4.2000e+000 71604 -3.5207e+000 -2.1032e+001  3.9163e+000 60909 71627,71232,71414
 4.2000e+000 71581 -3.4464e+000 -1.3989e+001 -3.6175e+000 60909 71232,71440,71414
 4.2000e+000 71558 -3.3830e+000 -1.1579e+001  4.6096e+000 60909 71627,71414,71336
 4.2000e+000 71535 -2.6375e-002 -4.1620e+001  1.6934e+001 60909 71362,71414,71388
 4.2000e+000 71512 -1.2967e+001 -3.0877e+001  8.3329e+000 60909 71336,71414,71362
 4.2000e+000 71489 -8.3921e+000 -7.4039e+000 -6.5388e-003 60909 71258,71336,71310
 4.2000e+000 71466 -3.1977e-001 -2.6647e+000 -1.9682e+000 60909 71258,71310,71284
 4.2000e+000 71653 -9.2069e-001 -1.3297e+001  3.3503e+000 60909 71258,71232,71627
 4.2000e+000 71676 -4.0387e+000 -8.5089e+000  4.5759e+000 60909 71258,71627,71336
 4.2000e+000 71875  1.7433e+000 -1.0772e+000 -7.1817e-001 60611 71898,71725,71699
 4.2000e+000 71852  1.3377e+000 -2.1885e-001 -4.0472e-002 60611 71898,71699,71803
 4.2000e+000 71829  9.2571e-001 -4.7050e-001  1.2605e-001 60611 71970,71751,71725
 4.2000e+000 71924  1.0725e+000 -5.4994e-002  1.2583e-002 60611 71970,71725,71898
 4.2000e+000 71947  2.4221e+000  4.2715e+000  1.6158e-001 60611 71777,71898,71803
 4.2000e+000 71996  1.0373e+000  4.0523e-002 -1.8813e-002 60611 71777,71751,71970
 4.2000e+000 72019  1.1494e+000  2.4608e-001 -1.7339e-001 60611 71777,71970,71898
 4.2000e+000 72576  3.0517e+000 -8.2967e+000  2.2972e+000 60142 72599,72256,72230
 4.2000e+000 72553  3.9086e+000 -7.5006e+000  1.7093e+000 60142 72671,72599,72230
 4.2000e+000 72530  1.2897e+000 -8.3397e-001 -3.3489e+000 60142 72671,72230,72204
 4.2000e+000 72507  2.7916e-001 -3.9516e+000  3.4013e+000 60142 72743,72360,72334
 4.2000e+000 72484 -1.9255e+000 -3.6774e+000  3.1557e+000 60142 72815,72282,72256
 4.2000e+000 72461 -2.0490e+000 -1.2671e+000  7.5483e+000 60142 72887,72308,72282
 4.2000e+000 72438 -2.1077e+000 -1.3311e+001 -3.0266e+000 60142 72204,72412,72386
 4.2000e+000 72625 -2.6737e+000 -9.4350e+000  1.7282e+000 60142 72815,72256,72599
 4.2000e+000 72648  2.1021e+000 -7.3870e+000  2.7929e+000 60142 72743,72334,72599
 4.2000e+000 72697  1.3402e+000 -1.5510e+001  5.7930e-001 60142 72386,72599,72671
 4.2000e+000 72720 -2.1565e+000 -9.5552e+000 -2.9331e+000 60142 72386,72671,72204
 4.2000e+000 72769  3.8764e+000 -7.0343e+000  9.7096e+000 60142 72386,72360,72743
 4.2000e+000 72792  3.5519e+000 -1.4012e+001  5.9679e+000 60142 72386,72743,72599
 4.2000e+000 72841 -2.1162e+000 -1.6247e+000  4.3842e+000 60142 72887,72282,72815
 4.2000e+000 72864  3.3663e+000 -5.0471e+000  3.6424e+000 60142 72334,72815,72599
 4.2000e+000 72913 -2.6205e+000 -5.9520e+000  6.9971e+000 60142 72334,72308,72887
 4.2000e+000 72936 -3.3173e+000 -6.3928e+000  4.3473e+000 60142 72334,72887,72815
 4.2000e+000 73491  2.0921e+000 -4.3934e+001 -1.1395e+001 59738 73145,73327,73171
 4.2000e+000 73468  9.3415e+000 -4.0943e+001 -8.7071e+000 59738 73119,73327,73145
 4.2000e+000 73445  2.8497e+000 -7.8385e+000  4.9913e+000 59738 73171,73327,73301
 4.2000e+000 73422  3.8462e+000 -1.1675e+001 -7.2504e-002 59738 73514,73275,73249
 4.2000e+000 73399  7.3913e+000  1.8881e+000 -4.2626e+000 59738 73586,73514,73249
 4.2000e+000 73376  9.6431e+000  1.8035e+001 -9.0579e+000 59738 73197,73249,73223
 4.2000e+000 73353  1.3888e+001  7.9523e+000 -1.3111e+001 59738 73586,73249,73197
 4.2000e+000 73540  5.3645e+000 -1.9356e+001 -2.9062e+000 59738 73301,73275,73514
 4.2000e+000 73563 -8.5603e-001 -1.4796e+001  3.4861e+000 59738 73301,73514,73171
 4.2000e+000 73612  5.2696e+000 -1.2707e+001  3.3295e+000 59738 73171,73514,73586
 4.2000e+000 73635  7.0142e+000 -6.3765e+000 -4.3153e+000 59738 73171,73586,73197
 4.2000e+000 73964 -4.4238e+000 -1.7051e+001 -1.8508e+000 59334 73791,73843,73817
 4.2000e+000 73941  2.7993e-001 -1.5125e+001 -1.0747e+000 59334 73791,73869,73843
 4.2000e+000 73918 -2.2875e+000 -1.9840e+001 -4.8023e+000 59334 73739,73869,73791
 4.2000e+000 73895  2.4155e+000 -2.9070e+001 -3.1295e+000 59334 73739,73791,73765
 4.2000e+000 74261  2.0585e+000  2.2934e+001 -6.7643e+000 58630 74065,74117,74091
 4.2000e+000 74238  9.1875e+000  7.9348e+000 -6.8581e+000 58630 74356,74284,74065
 4.2000e+000 74215  1.2880e+001  9.9437e-001 -2.0289e-001 58630 74284,74013,73987
 4.2000e+000 74192  6.3138e+000  4.4802e+000 -1.1899e+001 58630 74356,74065,74039
 4.2000e+000 74169  6.2915e+000  7.0547e+000 -2.1660e-001 58630 73987,74143,74117
 4.2000e+000 74310  1.0658e+001  2.6289e+001 -6.5500e+000 58630 74117,74065,74284
 4.2000e+000 74333  7.4343e+000  9.8606e+000 -5.8713e-001 58630 74117,74284,73987
 4.2000e+000 74382  1.6165e+001  1.4429e+001 -1.9382e+000 58630 74013,74284,74356
 4.2000e+000 74405  1.3413e+001  1.0575e+001 -7.0014e+000 58630 74013,74356,74039
 4.2000e+000 74815  1.7204e+000 -1.4017e+001 -2.4300e+000 58226 74590,74642,74616
 4.2000e+000 74792  5.8837e-002 -1.1137e+001 -6.6151e-001 58226 74590,74694,74642
 4.2000e+000 74769 -1.2402e+000 -1.8324e+001  2.6920e+000 58226 74590,74720,74694
 4.2000e+000 74746 -6.6146e+000 -1.4353e+001 -3.3323e+000 58226 74642,74694,74668
 4.2000e+000 75014  9.1778e-001  1.3575e+001  3.9540e+000 57786 75037,74864,74838
 4.2000e+000 74991  1.4437e+000  2.0339e+000  3.4591e-001 57786 75037,74838,74916
 4.2000e+000 74968  1.1977e-001  1.5843e+000  1.8946e-001 57786 74838,74942,74916
 4.2000e+000 75063  3.0686e+000  2.5450e+001  7.5590e+000 57786 74890,74864,75037
 4.2000e+000 75086  2.0273e+000  1.2170e+001  3.6173e+000 57786 74890,75037,74916
 4.2000e+000 75368 -1.1235e+001  1.3219e+001  4.4749e+000 57496 75192,75270,75218
 4.2000e+000 75345  1.9891e+001  2.5119e+001  3.8702e+000 57496 75192,75296,75270
 4.2000e+000 75322  1.1717e+001  1.4935e+001  2.1249e+001 57496 75218,75270,75244
 4.2000e+000 75648  1.0432e-001  7.3421e+000 -4.5906e+000 57206 75472,75550,75498
 4.2000e+000 75625 -1.1107e+001  1.1736e+001  3.1599e+000 57206 75472,75576,75550
 4.2000e+000 75602 -9.7866e+000  1.3563e+001  1.1931e+001 57206 75671,75550,75524
 4.2000e+000 75697  1.1650e+001  1.1264e+001  1.5183e+001 57206 75498,75550,75671
 4.2000e+000 76154 -2.1630e-001  2.5077e+000  4.1620e+000 56802 75958,76010,75984
 4.2000e+000 76131  2.5482e+000  3.8843e+000  2.5668e+000 56802 75932,76010,75958
 4.2000e+000 76108  7.8700e-001  2.2653e+000  9.4531e-001 56802 75906,76010,75932
 4.2000e+000 76085  1.4331e+000  6.3347e+000  1.4811e+000 56802 75880,76010,75906
 4.2000e+000 76062  6.6500e+000  6.9191e+000 -3.0328e+000 56802 75880,76036,76010
 4.2000e+000 76505  4.7166e-001  3.6017e-001  2.2026e-001 56504 76306,76384,76332
 4.2000e+000 76482  5.7645e-001  3.0499e-001  2.3880e-001 56504 76306,76410,76384
 4.2000e+000 76459  3.9552e-001 -6.4018e-002 -7.2018e-002 56504 76332,76384,76358
 4.2000e+000 76436  5.4228e-001  2.4148e-001  1.8964e-001 56504 76280,76410,76306
 4.2000e+000 77011  2.0232e+001  1.0446e+001 -1.0148e+001 56050 76740,76818,76792
 4.2000e+000 76988  6.5871e+000  4.7075e+000 -1.0163e+001 56050 76714,76818,76740
 4.2000e+000 76965  1.4133e+001  2.4166e+000 -1.1379e+001 56050 76688,76818,76714
 4.2000e+000 76942  3.4869e+001  2.4942e+001  3.9176e+000 56050 76688,76844,76818
 4.2000e+000 76919  1.4014e+001 -3.3345e+000 -6.4433e+000 56050 76740,76792,76766
 4.2000e+000 76896  2.4601e+001  2.5777e+000  6.5169e+000 56050 76688,76870,76844
 4.2000e+000 77517 -2.0119e+001 -7.4823e-001  1.3976e+001 55738 77220,77350,77324
 4.2000e+000 77494  6.9488e+000 -1.2661e+001 -2.7394e+000 55738 77220,77376,77350
 4.2000e+000 77471  1.4118e+001  1.2291e+001 -3.7125e+000 55738 77194,77376,77220
 4.2000e+000 77448 -3.8461e-001 -1.0269e+001  7.8408e+000 55738 77220,77298,77246
 4.2000e+000 77425 -9.3131e+000 -1.1476e+000  1.7535e+001 55738 77220,77324,77298
 4.2000e+000 77402 -1.3257e+001 -1.2865e+001  3.1937e+001 55738 77246,77298,77272
 4.2000e+000 78064  1.5130e+001 -2.9671e+000 -2.6586e+000 55227 78231,78087,77773
 4.2000e+000 78041 -5.3355e+000 -2.2121e+001 -1.3710e+000 55227 78087,77695,77643
 4.2000e+000 78018  8.1115e-001 -1.5206e+001 -1.3544e+001 55227 78159,77799,77773
 4.2000e+000 77995  9.5651e+000  6.6384e+000  3.1172e-001 55227 78231,77773,77721
 4.2000e+000 77972 -2.9287e+000 -3.2305e+000  4.2894e+000 55227 77643,77695,77669
 4.2000e+000 77949 -4.9022e+000 -6.9809e+000  1.6924e+000 55227 77643,77877,77851
 4.2000e+000 77926 -4.7323e+000  1.7479e+001 -1.4706e+001 55227 77799,77851,77825
 4.2000e+000 77903  9.6618e+000  1.2184e+001 -3.2199e+000 55227 77721,77773,77747
 4.2000e+000 78113  9.3887e+000 -1.4731e+001 -9.6636e+000 55227 78159,77773,78087
 4.2000e+000 78136  5.6180e+000  3.5101e+000 -2.9417e+000 55227 77851,78087,77643
 4.2000e+000 78185 -1.6017e+001 -1.0446e+001 -1.3930e+001 55227 77851,77799,78159
 4.2000e+000 78208 -7.7822e+000 -1.0778e+001 -1.0779e+001 55227 77851,78159,78087
 4.2000e+000 78257  8.9358e+000 -1.2823e+001 -6.4659e+000 55227 77695,78087,78231
 4.2000e+000 78280  1.6643e+000 -3.5317e+000 -4.3591e+000 55227 77695,78231,77721
 4.2000e+000 78737  5.0159e+000 -3.9512e-002 -3.7633e-001 54773 78463,78541,78515
 4.2000e+000 78714 -9.2820e-001 -5.9642e-001  3.9816e-001 54773 78463,78619,78541
 4.2000e+000 78691  7.0295e+000  5.6592e+000  2.1965e+000 54773 78463,78515,78489
 4.2000e+000 78668 -1.1135e+001 -4.7020e+000 -1.8876e+000 54773 78541,78593,78567
 4.2000e+000 78645 -9.1289e-001 -1.5291e+000 -5.2816e-001 54773 78541,78619,78593
 4.2000e+000 78838  1.2641e-001  4.9618e+000  6.1259e-001 54211 78760,78812,78786
 4.2000e+000 79297  1.0734e+001  5.9956e+000  5.4559e-001 53814 79520,79153,79049
 4.2000e+000 79274  8.6903e+000  9.7512e+000 -4.9511e+000 53814 79520,79049,79023
 4.2000e+000 79251  4.8815e+000  2.0431e+001 -1.4586e+000 53814 79320,79101,79049
 4.2000e+000 79228  1.8939e+000  1.3063e+001  2.0767e+000 53814 79320,79049,79153
 4.2000e+000 79205  6.0939e+000  1.3622e+001 -2.6725e+000 53814 79049,79101,79075
 4.2000e+000 79346  2.0309e+000  6.4474e+000  3.0373e+000 53814 79392,79320,79127
 4.2000e+000 79369  2.8522e+000  1.3411e+001  3.0476e+000 53814 79127,79320,79153
 4.2000e+000 79418  1.3458e+000  1.8640e+001  4.8682e+000 53814 79101,79320,79392
 4.2000e+000 79546  7.8937e+000 -4.9809e-001  1.0729e+000 53814 79179,79153,79520
 4.2000e+000 79569  6.3875e+000  3.3979e+000 -5.3573e+000 53814 79179,79520,79023
 4.2000e+000 80075 -1.7150e+001 -5.0453e+000  1.2037e+001 53039 80098,79908,79830
 4.2000e+000 80052 -2.0349e+001 -1.5180e-001 -3.4695e+000 53039 80098,79830,79804
 4.2000e+000 80029  1.0163e+000  7.4007e+000 -2.2410e+000 53039 79752,79934,79804
 4.2000e+000 80006 -1.4102e+000 -3.2626e+001  1.6012e+001 53039 79856,79908,79882
 4.2000e+000 79983  9.7355e+000 -4.3796e+001  1.3524e+001 53039 79830,79908,79856
 4.2000e+000 79960 -6.6691e-001  2.9886e+000 -2.3913e+000 53039 79752,79804,79778
 4.2000e+000 80124  7.3355e+000  4.5616e+000  1.2177e+001 53039 79934,79908,80098
 4.2000e+000 80147 -9.1765e+000  4.3292e+000 -3.9094e+000 53039 79934,80098,79804
 4.2000e+000 80555  2.3965e+001  1.5947e+001 -1.5787e+000 52699 80356,80434,80408
 4.2000e+000 80532  5.1030e+000  3.1210e+000  4.7478e+000 52699 80356,80460,80434
 4.2000e+000 80509 -3.9778e-001 -2.6227e+000  1.2655e+000 52699 80330,80460,80356
 4.2000e+000 80486 -6.4177e+000 -4.5593e+000  2.6138e+001 52699 80356,80408,80382
 4.2000e+000 80776  1.0933e+001  3.0213e+001 -1.2143e+001 52295 80600,80678,80626
 4.2000e+000 80753 -1.4920e+001  8.7106e+000 -2.8315e+000 52295 80600,80704,80678
 4.2000e+000 80730 -4.0394e+001  9.3996e+000 -8.0093e+000 52295 80626,80678,80652
 4.2000e+000 81156  8.5739e+000 -1.1813e+001  4.2754e+000 51891 81179,80960,80908
 4.2000e+000 81133  7.4839e+000 -1.7234e+001 -6.9256e+000 51891 81179,80908,81012
 4.2000e+000 81110  3.8064e-002  4.3564e+000 -1.7343e+001 51891 80882,81012,80908
 4.2000e+000 81087  5.2455e+000  4.8280e+000  6.7437e+000 51891 80908,80960,80934
 4.2000e+000 81064 -6.2206e-002  3.7370e+000 -1.7682e+001 51891 80882,81038,81012
 4.2000e+000 81205  2.2534e+001 -3.3005e+000  1.0690e+001 51891 80986,80960,81179
 4.2000e+000 81228  1.1675e+001 -1.4282e+001 -1.4489e+000 51891 80986,81179,81012
 4.2000e+000 81606 -6.4016e-001 -1.1852e+002 -3.4728e+001 51544 81410,81462,81436
 4.2000e+000 81583  1.1624e+001 -3.5757e+001  8.3834e-002 51544 81384,81462,81410
 4.2000e+000 81560 -1.1493e+001 -4.7533e+001 -7.9431e+000 51544 81358,81462,81384
 4.2000e+000 81537 -8.5310e+000 -3.8806e+001 -2.2487e+001 51544 81358,81488,81462
 4.2000e+000 81514  6.5427e-001 -1.9804e+001 -1.8638e+001 51544 81332,81488,81358
 4.2000e+000 81854  2.1077e+000 -6.1380e+000 -9.4891e-002 51004 81877,81655,81629
 4.2000e+000 81831  1.1522e+000  2.5958e+000 -1.6961e+000 51004 81877,81629,81759
 4.2000e+000 81808  7.4528e+000  2.7211e+000  8.5766e+000 51004 81655,81707,81681
 4.2000e+000 81785 -2.0821e+000  5.3375e+000 -1.3424e+000 51004 81707,81759,81733
 4.2000e+000 81903  2.1436e+000 -9.8024e+000 -4.4054e-002 51004 81707,81655,81877
 4.2000e+000 81926 -2.7350e+000 -7.0029e+000 -3.2880e+000 51004 81707,81877,81759
 4.2000e+000 82257 -3.7389e+000 -2.1262e+001 -5.6163e+000 50642 82058,82136,82110
 4.2000e+000 82234 -9.7890e+000  4.3959e+000 -1.2568e+001 50642 82058,82162,82136
 4.2000e+000 82211  7.2424e+000 -8.2349e+000 -2.3534e+001 50642 82058,82110,82084
 4.2000e+000 82188  3.6554e+001  2.2922e+001  6.0131e+000 50642 82032,82162,82058
 4.2000e+000 82684  2.3277e+001 -7.6026e+001  1.6485e+001 49931 82779,82707,82465
 4.2000e+000 82661 -4.5069e+000 -8.9130e+001  1.5766e+001 49931 82707,82413,82361
 4.2000e+000 82638 -1.7461e+000 -7.5640e+001 -1.1773e+001 49931 82779,82465,82439
 4.2000e+000 82615  1.2036e+001 -1.9452e+002  1.7571e+001 49931 82465,82543,82491
 4.2000e+000 82592 -8.7765e+000 -6.6439e+001 -2.1464e+000 49931 82361,82413,82387
 4.2000e+000 82569  5.8467e+000 -1.4470e+002  1.7341e+001 49931 82491,82543,82517
 4.2000e+000 82733  5.6686e+001 -9.0264e+001  1.3881e+001 49931 82543,82465,82707
 4.2000e+000 82756  1.6177e+001 -7.6603e+001  6.0694e+000 49931 82543,82707,82361
 4.2000e+000 82805  3.0187e+000 -1.1703e+002 -2.6308e+000 49931 82413,82707,82779
 4.2000e+000 82828 -1.0221e+001 -1.0822e+002 -2.9418e+001 49931 82413,82779,82439
 4.2000e+000 83255  3.5944e+000 -8.4283e+001 -1.2320e+001 49327 82984,83114,83036
 4.2000e+000 83232 -6.6710e+000 -1.0533e+002 -3.2944e+001 49327 82958,83114,82984
 4.2000e+000 83209 -1.1361e+001 -1.2028e+002  8.3010e-001 49327 83036,83114,83088
 4.2000e+000 83186 -2.4083e+001 -5.3001e+001  1.1451e+001 49327 82984,83036,83010
 4.2000e+000 83163 -1.2556e+001 -9.1731e+001 -2.5418e+001 49327 82932,83114,82958
 4.2000e+000 83140 -3.3093e+001 -2.0913e+002 -1.8335e+000 49327 83036,83088,83062
 4.2000e+000 83938 -9.1424e+000 -1.2559e+002  3.0440e+001 48965 83961,83673,83647
 4.2000e+000 83915  1.0807e+001 -4.5292e+001  3.6383e+001 48965 83961,83647,83543
 4.2000e+000 83892 -8.4856e+000 -5.6256e+001 -8.5905e+000 48965 83517,83725,83543
 4.2000e+000 83869 -2.1465e+001 -8.9634e+001 -1.7542e+001 48965 83673,83725,83699
 4.2000e+000 83846 -8.8686e+000 -1.7748e+001  5.8605e+000 48965 83543,83647,83621
 4.2000e+000 83823 -2.6454e+000 -2.8733e+001  3.1180e+000 48965 83543,83621,83569
 4.2000e+000 83800 -9.8374e+000 -5.6634e+001 -7.8306e+000 48965 83517,83751,83725
 4.2000e+000 83777 -3.1310e+000 -2.7952e+001  6.4160e+000 48965 83569,83621,83595
 4.2000e+000 83987 -9.8516e+000 -1.1418e+002 -2.1200e+001 48965 83725,83673,83961
 4.2000e+000 84010  4.2031e+000 -8.0295e+001 -5.9643e+000 48965 83725,83961,83543
 4.2000e+000 84258 -7.1952e+000 -8.3233e+001  1.2955e+001 48447 84281,84059,84033
 4.2000e+000 84235 -8.0183e-001 -6.4767e+001 -1.8963e+000 48447 84281,84033,84163
 4.2000e+000 84212  8.3684e+000 -5.3723e+001 -1.0878e+001 48447 84059,84111,84085
 4.2000e+000 84189  1.5213e+001 -5.1497e+001 -1.7304e+001 48447 84111,84163,84137
 4.2000e+000 84307  5.1410e+000 -7.8245e+001 -1.9654e+000 48447 84111,84059,84281
 4.2000e+000 84330  1.7604e+001 -6.5152e+001 -1.6283e+001 48447 84111,84281,84163
 4.2000e+000 84529  2.2715e+001 -3.9482e+001  7.5416e-001 47993 84552,84405,84379
 4.2000e+000 84506  9.5380e+000 -4.5249e+001 -3.9988e-001 47993 84552,84379,84353
 4.2000e+000 84483  1.2841e+001 -4.6106e+001 -6.6085e+000 47993 84624,84457,84431
 4.2000e+000 84578  2.7718e+001 -4.2869e+001 -6.1129e+000 47993 84431,84405,84552
 4.2000e+000 84601  1.6429e+001 -4.7177e+001 -5.5341e+000 47993 84624,84431,84552
 4.2000e+000 84650  1.6651e+001 -4.6434e+001 -3.9577e+000 47993 84353,84457,84624
 4.2000e+000 84673  2.2098e+001 -4.4236e+001 -1.8024e+000 47993 84353,84624,84552
 4.2000e+000 85104 -1.2618e+001 -9.5511e+001 -7.7896e+000 47588 85199,85127,84885
 4.2000e+000 85081 -1.1347e+001 -1.1005e+002 -1.2253e+001 47588 85127,84781,84963
 4.2000e+000 85058 -2.8623e+001 -9.0432e+001  1.1502e+001 47588 85199,84885,84807
 4.2000e+000 85035  9.3052e-001 -6.2821e+001  3.1867e+001 47588 84885,84937,84911
 4.2000e+000 85012 -8.3638e+000 -5.3177e+001 -1.5233e+000 47588 84807,84885,84833
 4.2000e+000 84989 -8.0938e+000 -5.2014e+001  2.7006e+001 47588 84833,84885,84859
 4.2000e+000 85153 -1.3682e+001 -1.1523e+002 -2.9203e+000 47588 84937,84885,85127
 4.2000e+000 85176  2.2670e+001 -1.0687e+002 -2.3542e+000 47588 84937,85127,84963
 4.2000e+000 85225 -4.4324e+001 -1.0905e+002 -9.5429e+000 47588 84781,85127,85199
 4.2000e+000 85248 -5.3065e+001 -1.0092e+002  1.2144e+001 47588 84781,85199,84807
 4.2000e+000 85518 -2.3996e+001 -1.9319e+002  3.0391e+001 47226 85293,85397,85319
 4.2000e+000 85495 -1.0983e+001 -1.7474e+002  1.6359e+001 47226 85293,85423,85397
 4.2000e+000 85472 -3.6485e+000 -2.0098e+002 -7.6374e+000 47226 85319,85397,85345
 4.2000e+000 85449  2.6771e+001 -3.2887e+001 -1.2642e+001 47226 85345,85397,85371
 4.2000e+000 85849 -1.7356e+001 -9.1654e+001  3.3837e+001 46572 85624,85702,85650
 4.2000e+000 85826 -9.6713e+000 -1.1820e+002  5.2131e+000 46572 85624,85754,85702
 4.2000e+000 85803  2.4361e+001 -5.7947e+001  2.3997e+001 46572 85702,85754,85728
 4.2000e+000 85780 -1.2597e+001 -9.1415e+001  3.8623e+001 46572 85650,85702,85676
 4.2000e+000 86070 -7.3536e+001 -1.0478e+002 -3.3561e+000 46374 85920,85972,85946
 4.2000e+000 86047 -4.3041e+001 -3.3396e+001  1.2648e+000 46374 85920,85998,85972
 4.2000e+000 86024 -2.7351e+001 -2.1614e+001  1.0590e+001 46374 85894,85998,85920
 4.2000e+000 86401  8.2151e+000 -5.2335e+001  7.1143e+000 46034 86424,86280,86228
 4.2000e+000 86378 -1.2272e+001 -5.3777e+001  4.4961e+000 46034 86424,86228,86176
 4.2000e+000 86355 -1.5762e+001 -4.1704e+001 -1.3174e+001 46034 86176,86228,86202
 4.2000e+000 86332  2.5510e+001 -4.4763e+001 -2.1194e+001 46034 86228,86280,86254
 4.2000e+000 86450  4.7416e+001 -5.9410e+001 -1.3999e+000 46034 86306,86280,86424
 4.2000e+000 86473  6.9557e+000 -7.4609e+001 -6.4838e+000 46034 86306,86424,86176
 4.2000e+000 87058  7.2708e+000 -4.2596e+001  1.2428e+001 45516 86813,86917,86865
 4.2000e+000 87035 -1.6969e+000 -7.1804e+001  4.5948e+000 45516 86787,86917,86813
 4.2000e+000 87012  4.4337e+000 -6.9260e+001  7.9692e+000 45516 86735,86917,86787
 4.2000e+000 86989  2.3536e+000 -3.7411e+001  1.0353e+001 45516 86865,86917,86891
 4.2000e+000 86966  5.5049e+000 -4.0253e+001  1.2346e+001 45516 86813,86865,86839
 4.2000e+000 86943 -8.8774e+000 -1.3523e+002 -2.5882e+000 45516 86735,86787,86761
 4.2000e+000 87208  3.7373e+001 -2.3621e+001 -1.4514e+001 45226 87231,87133,87107
 4.2000e+000 87185  1.0889e+001 -1.0506e+001 -4.2464e+000 45226 87081,87159,87133
 4.2000e+000 87257  2.7523e+001  2.3058e+001 -1.2453e+001 45226 87081,87133,87231
 4.2000e+000 87537  7.4643e+000 -6.3640e+001  1.3966e+001 44772 87387,87439,87413
 4.2000e+000 87514 -7.3373e+000 -6.7376e+001  1.0105e+001 44772 87361,87439,87387
 4.2000e+000 87491  7.2473e+000 -4.9038e+001  3.6330e+000 44772 87361,87465,87439
 4.2000e+000 87996  1.9801e+000  2.3606e+001  6.9671e+000 44425 87748,87878,87852
 4.2000e+000 87973  1.8978e-001  2.3224e+001  4.4028e-002 44425 87722,87878,87748
 4.2000e+000 87950  2.8821e+000  1.5025e+001  3.9758e+000 44425 87800,87852,87826
 4.2000e+000 87927  2.5109e+001  2.3080e+001  4.3359e+000 44425 87748,87852,87800
 4.2000e+000 87904  2.6777e+000  1.2253e+001 -1.1082e+001 44425 87748,87800,87774
 4.2000e+000 88423 -8.1484e+000 -5.5307e+001  1.5398e+001 44078 88590,88230,88204
 4.2000e+000 88400 -4.0777e+000 -3.3043e+001  1.6019e+001 44078 88518,88446,88204
 4.2000e+000 88377  8.1715e+000 -5.8310e+001 -1.0901e+001 44078 88446,88126,88282
 4.2000e+000 88354 -8.5208e+000 -2.0374e+001  8.8284e+000 44078 88518,88204,88178
 4.2000e+000 88331  4.5186e+000 -7.5322e+001 -1.1639e+001 44078 88100,88282,88126
 4.2000e+000 88308 -6.6208e+000 -4.7425e+001  1.8771e+001 44078 88126,88178,88152
 4.2000e+000 88472 -1.0594e+001 -6.0971e+001  1.5141e+001 44078 88590,88204,88446
 4.2000e+000 88495 -8.4427e+000 -1.0828e+002 -1.4606e+001 44078 88256,88446,88282
 4.2000e+000 88544 -4.7010e+000 -6.1952e+001  1.6742e+001 44078 88126,88446,88518
 4.2000e+000 88567 -1.1625e+000 -3.8011e+001  1.0472e+001 44078 88126,88518,88178
 4.2000e+000 88616 -3.7961e+001 -1.5174e+002  5.6137e-001 44078 88256,88230,88590
 4.2000e+000 88639 -4.6222e+000 -5.6094e+001  7.1552e+000 44078 88256,88590,88446
 4.2000e+000 89039  1.1270e+001  2.1915e+001  4.6860e+000 43716 88791,88921,88895
 4.2000e+000 89016  9.2157e+000  2.5084e+001  4.9583e+000 43716 88765,88921,88791
 4.2000e+000 88993  2.5616e+001  8.6392e+000  7.4599e+000 43716 88817,88895,88869
 4.2000e+000 88970  1.0865e+001  1.4686e+001  1.2987e+001 43716 88791,88895,88817
 4.2000e+000 88947  5.7555e+000  1.2144e+001 -2.2579e+000 43716 88817,88869,88843
 4.2000e+000 89496  3.1131e+000 -8.2941e+001 -7.6338e+000 43162 89519,89274,89248
 4.2000e+000 89473  8.5069e+000 -5.0196e+001 -9.9294e-001 43162 89519,89248,89222
 4.2000e+000 89450  5.8724e+000 -3.7955e+001 -1.4949e+001 43162 89326,89378,89352
 4.2000e+000 89427 -3.1391e-001 -5.2735e+001 -3.1812e+000 43162 89274,89378,89326
 4.2000e+000 89404  4.7611e+000 -5.1618e+001 -1.9689e+000 43162 89274,89326,89300
 4.2000e+000 89545  5.7287e-001 -5.3351e+001  2.7792e-001 43162 89378,89274,89519
 4.2000e+000 89568  7.9536e+000 -1.8187e+001  7.3338e+000 43162 89378,89519,89222
 4.2000e+000 89946 -9.6834e+000 -4.6368e+001 -5.1542e+001 42594 90041,89969,89750
 4.2000e+000 89923 -7.5280e+000 -4.1602e+001 -1.8616e+001 42594 89969,89698,89828
 4.2000e+000 89900  1.8349e+001 -5.8084e+001 -4.6387e+001 42594 90041,89750,89724
 4.2000e+000 89877 -1.6387e+001 -2.3821e+001 -1.7309e+001 42594 89750,89802,89776
 4.2000e+000 89854  1.6473e+001 -2.0259e+001 -6.4463e+000 42594 89672,89828,89698
 4.2000e+000 89995 -3.2755e+001 -3.4158e+001 -3.5391e+001 42594 89802,89750,89969
 4.2000e+000 90018  8.8856e+000  1.0444e+001 -8.0382e+000 42594 89802,89969,89828
 4.2000e+000 90067  1.6754e+001 -3.2656e+001 -4.0901e+001 42594 89698,89969,90041
 4.2000e+000 90090  4.8897e+001 -4.7420e+001 -4.3259e+001 42594 89698,90041,89724
 4.2000e+000 90517  1.7249e+001 -5.9365e+001 -8.1044e+000 42140 90540,90220,90194
 4.2000e+000 90494  2.1624e+001 -6.0721e+001 -9.9526e+000 42140 90540,90194,90376
 4.2000e+000 90471  1.2068e+000 -6.5259e+001  2.9087e+000 42140 90612,90350,90272
 4.2000e+000 90448 -9.6097e+000 -5.8665e+001 -2.0441e+000 42140 90272,90350,90298
 4.2000e+000 90425 -6.8180e+000 -4.9229e+001 -2.3674e-001 42140 90298,90350,90324
 4.2000e+000 90402  2.6039e+001 -3.0357e+001  1.6886e+000 42140 90220,90272,90246
 4.2000e+000 90566  1.5717e+001 -3.3593e+001 -5.8421e+000 42140 90272,90220,90540
 4.2000e+000 90589  3.1034e+000 -6.0968e+001 -8.0490e-001 42140 90612,90272,90540
 4.2000e+000 90638  9.7627e+000 -7.4070e+001 -5.2265e+000 42140 90376,90350,90612
 4.2000e+000 90661  2.1027e+001 -6.1584e+001 -1.0587e+001 42140 90376,90612,90540
 4.2000e+000 91167 -5.3930e+000 -2.9932e+001  8.5026e-001 41636 91190,90870,90844
 4.2000e+000 91144 -1.2462e+001 -1.2895e+002  4.1096e+000 41636 91190,90844,91026
 4.2000e+000 91121  4.9316e-001 -3.6970e+000 -9.7870e+000 41636 90870,90922,90896
 4.2000e+000 91098  1.2553e+001 -1.0433e+002  9.3861e-001 41636 90922,91026,90948
 4.2000e+000 91075  2.6831e+001 -8.5349e+001 -1.3897e+001 41636 90948,91026,91000
 4.2000e+000 91052 -3.1125e+001 -6.7202e+001  3.8534e+001 41636 90948,91000,90974
 4.2000e+000 91216 -1.7111e+001 -1.9026e+000  2.0623e+000 41636 90922,90870,91190
 4.2000e+000 91239  2.2426e+001 -3.6794e+001  1.8467e+001 41636 90922,91190,91026
 4.2000e+000 91696  7.1261e-001 -6.0600e+001 -5.8255e+000 40449 91448,91526,91474
 4.2000e+000 91673 -2.7278e+001 -7.6252e+001  3.1894e+000 40449 91448,91578,91526
 4.2000e+000 91650  6.1043e+000 -6.1151e-001 -5.9666e+000 40449 91474,91526,91500
 4.2000e+000 91627  6.6646e+000 -5.4620e+001  1.2599e+001 40449 91422,91578,91448
 4.2000e+000 91604  1.5684e+001 -5.4016e+001 -9.7368e+000 40449 91526,91578,91552
 4.2000e+000 92123  7.8897e-001 -6.2317e+001 -1.9919e+000 39995 92146,91904,91826
 4.2000e+000 92100 -1.1004e+001 -6.9347e+001 -1.5406e+001 39995 92146,91826,91800
 4.2000e+000 92077 -4.1349e+001 -3.8681e+001 -5.6656e+000 39995 91826,91904,91852
 4.2000e+000 92054 -1.8267e+001 -1.3683e+002 -2.2998e+001 39995 91904,91982,91930
 4.2000e+000 92031 -4.1340e+000 -1.7515e+001  9.3440e+000 39995 91852,91904,91878
 4.2000e+000 92008 -4.0364e+000 -1.0087e+002 -2.7355e+001 39995 91930,91982,91956
 4.2000e+000 92172  9.2132e+000 -7.8418e+001 -1.5061e+001 39995 91982,91904,92146
 4.2000e+000 92195 -4.4142e+000 -9.8539e+001 -2.6876e+001 39995 91982,92146,91800
 4.2000e+000 92652  2.4372e+000  2.1701e+001  8.7563e+000 39633 92404,92534,92456
 4.2000e+000 92629 -5.6621e+000  1.7029e+001  5.7090e+000 39633 92378,92534,92404
 4.2000e+000 92606 -1.2216e+001  1.5565e+001  9.6454e+000 39633 92404,92456,92430
 4.2000e+000 92583  3.2492e+000  8.1826e+000  4.5888e+000 39633 92456,92534,92508
 4.2000e+000 92560  2.0295e+000  6.6832e+000  4.0998e+000 39633 92456,92508,92482
 4.2000e+000 93079  3.8934e+000 -2.2844e+001 -5.1367e+000 39093 93102,92808,92756
 4.2000e+000 93056  4.7747e+000 -2.5465e+001 -2.7438e+000 39093 93102,92756,92938
 4.2000e+000 93033  2.1507e+000 -2.3160e+001 -1.4052e+000 39093 93174,92912,92834
 4.2000e+000 93010  6.9178e-001 -8.4383e+000  5.8007e+000 39093 92834,92912,92860
 4.2000e+000 92987  5.2415e+000 -3.4109e+001 -9.7346e+000 39093 92756,92808,92782
 4.2000e+000 92964  6.9812e+000  1.9095e+000  5.5293e-001 39093 92860,92912,92886
 4.2000e+000 93128  3.9933e+000 -1.5681e+001 -4.4542e+000 39093 92834,92808,93102
 4.2000e+000 93151  1.8601e+000 -2.2952e+001 -3.0917e+000 39093 93174,92834,93102
 4.2000e+000 93200  3.3608e+000 -2.2398e+001 -2.1246e+000 39093 92938,92912,93174
 4.2000e+000 93223  5.0471e+000 -2.1753e+001 -3.6929e+000 39093 92938,93174,93102
 4.2000e+000 93680  1.7582e-001  4.4508e+000  1.0517e+000 38639 93703,93536,93484
 4.2000e+000 93657  1.9448e+000  3.5129e+000  6.4224e-001 38639 93703,93484,93432
 4.2000e+000 93634  2.8847e+000  2.8000e+000  1.8535e+000 38639 93432,93484,93458
 4.2000e+000 93611  6.4654e-001  5.9307e+000  2.0646e+000 38639 93484,93536,93510
 4.2000e+000 93588  1.3927e+001  1.5083e+001  5.8484e+000 38639 93406,93562,93432
 4.2000e+000 93729  1.5583e+000  4.7498e+000  1.4411e+000 38639 93562,93536,93703
 4.2000e+000 93752  4.0207e+000  4.2392e+000  7.7976e-001 38639 93562,93703,93432
 4.2000e+000 94160  4.5483e+000  1.5592e+001  2.3726e+000 38292 93935,94039,93961
 4.2000e+000 94137 -1.3003e+000 -1.5959e+000  6.4902e+000 38292 93935,94065,94039
 4.2000e+000 94114  6.6079e-001 -1.6034e+001 -3.3123e+000 38292 93961,94013,93987
 4.2000e+000 94091  1.1432e+001 -2.3179e+001  2.8285e+000 38292 93961,94039,94013
 4.2000e+000 94408  2.2746e+001  1.6998e+000  9.0817e+000 37880 94431,94261,94235
 4.2000e+000 94385  3.6020e+001  5.0466e+000  1.5016e+001 37880 94431,94235,94313
 4.2000e+000 94362  3.1066e+001 -4.3755e+000  1.6947e+001 37880 94209,94313,94235
 4.2000e+000 94339  4.5718e+001  4.4760e+001 -6.9042e+000 37880 94183,94313,94209
 4.2000e+000 94457 -9.2688e-001  8.4924e+000  9.3570e+000 37880 94287,94261,94431
 4.2000e+000 94480  2.0630e+001  1.6591e+001  1.3999e+001 37880 94287,94431,94313
 4.2000e+000 94728 -1.9128e+001 -6.6909e+001 -5.1652e-001 37426 94529,94607,94555
 4.2000e+000 94705  6.0599e+000 -1.3174e+002 -1.5069e+001 37426 94529,94633,94607
 4.2000e+000 94682 -7.1476e+000 -1.4087e+002 -1.9047e+001 37426 94503,94633,94529
 4.2000e+000 94659 -1.0906e+001 -3.0603e+001 -1.8258e+001 37426 94555,94607,94581
 4.2000e+000 95257  2.5436e+000 -2.1971e+000  2.5514e-001 36722 95496,95280,94862
 4.2000e+000 95234 -4.1885e+000 -5.0025e+000  9.5867e-001 36722 95496,94862,94836
 4.2000e+000 95211 -1.5601e+000  5.1741e+000 -4.2666e+000 36722 95352,95280,95070
 4.2000e+000 95188  1.8396e+000  1.0981e+001 -5.7802e+000 36722 95352,95070,95044
 4.2000e+000 95165 -7.6903e+000 -6.5245e+000  4.3777e+000 36722 95424,94888,94862
 4.2000e+000 95142 -8.5517e-001  9.5692e+000 -1.9805e+000 36722 94914,94966,94940
 4.2000e+000 95119  7.4571e+000  1.9247e+001 -1.4233e+001 36722 94966,95044,95018
 4.2000e+000 95096  7.2727e-001 -8.9511e+000 -8.7988e+000 36722 94966,95018,94992
 4.2000e+000 95306  4.6169e+000  4.9064e-001 -1.1943e+000 36722 95424,94862,95280
 4.2000e+000 95329  7.5822e+000  8.0510e+000 -9.4359e+000 36722 94914,95280,94966
 4.2000e+000 95378  3.0078e+000  4.5920e+000 -7.9275e+000 36722 94966,95280,95352
 4.2000e+000 95401  3.9306e+000  5.4986e+000 -8.4701e+000 36722 94966,95352,95044
 4.2000e+000 95450  9.2816e+000  3.9149e+000 -3.3404e-001 36722 94914,94888,95424
 4.2000e+000 95473  1.0553e+001  1.0921e+000 -3.1518e+000 36722 94914,95424,95280
 4.2000e+000 95522  3.4694e+000 -2.2985e+000 -1.2309e-001 36722 95070,95280,95496
 4.2000e+000 95545  3.0650e+000 -1.7233e+000  2.7122e-001 36722 95070,95496,94836
 4.2000e+000 96130  3.9884e+000  9.2963e-001 -8.1538e-001 36268 96153,95911,95859
 4.2000e+000 96107  5.2566e+000  4.3829e+000 -2.4067e-001 36268 96153,95859,95807
 4.2000e+000 96084  5.2519e+000  4.2960e+000 -3.3159e-001 36268 95807,95859,95833
 4.2000e+000 96061  4.6840e-001  1.7844e+000 -1.5255e+000 36268 95911,95989,95937
 4.2000e+000 96038  2.5141e+000  2.8667e-001 -8.7996e-001 36268 95859,95911,95885
 4.2000e+000 96015  1.9157e+000  1.7591e+000 -1.3556e+000 36268 95937,95989,95963
 4.2000e+000 96179  1.4563e+000  4.2999e+000 -1.6259e+000 36268 95989,95911,96153
 4.2000e+000 96202  3.4420e+000  8.7991e+000 -8.3490e-001 36268 95989,96153,95807
 4.2000e+000 96531 -4.2507e+000 -4.2005e+001  2.1303e+001 35728 96358,96410,96384
 4.2000e+000 96508  5.8265e+000 -2.9695e+001  1.5509e+001 35728 96332,96410,96358
 4.2000e+000 96485 -3.5833e+000 -4.2128e+001  2.3008e+001 35728 96332,96436,96410
 4.2000e+000 96462 -2.7163e+000 -1.7674e+001 -1.4186e+000 35728 96306,96436,96332
 4.2000e+000 96860  4.9620e+000 -5.6711e+000  1.0366e+000 35324 96687,96765,96713
 4.2000e+000 96837  1.3641e+001  1.1610e+001 -5.9879e+000 35324 96661,96765,96687
 4.2000e+000 96814  2.5837e+000  3.1290e+001 -1.9092e+001 35324 96713,96765,96739
 4.2000e+000 96791 -5.4145e+000  3.3726e+001 -2.5225e+000 35324 96635,96765,96661
 4.2000e+000 97366 -1.9760e+000 -4.7620e+001  5.0597e+000 34920 97389,97069,97043
 4.2000e+000 97343 -2.4811e-001 -4.4140e+001  5.6256e+000 34920 97389,97043,97199
 4.2000e+000 97320  8.2502e+000 -3.0461e+001  1.9464e+000 34920 97043,97225,97199
 4.2000e+000 97297  2.0283e+001 -1.3102e+002  1.5656e+001 34920 97069,97121,97095
 4.2000e+000 97274  1.6471e+001 -4.2881e+001 -8.4563e-001 34920 97121,97199,97173
 4.2000e+000 97251  1.8248e+000 -2.7050e+001 -1.6019e+001 34920 97121,97173,97147
 4.2000e+000 97415 -4.6509e+000 -4.7671e+001  1.5410e-001 34920 97121,97069,97389
 4.2000e+000 97438 -1.2428e+000 -4.0052e+001  8.7712e-001 34920 97121,97389,97199
 4.2000e+000 97708 -2.8395e+001  4.7383e-001  7.0451e+000 34722 97509,97587,97535
 4.2000e+000 97685 -1.5776e+001 -1.6143e+000  4.9629e+000 34722 97509,97613,97587
 4.2000e+000 97662 -1.8532e+001 -4.4694e+000  2.2077e+000 34722 97483,97613,97509
 4.2000e+000 97639 -1.6535e+001  2.9090e+000  2.7549e+000 34722 97535,97587,97561
 4.2000e+000 98216 -9.1683e+000 -4.2452e+001  1.3062e+001 34318 97971,98075,97997
 4.2000e+000 98193 -1.1681e+000 -4.1046e+001  2.3581e+001 34318 97893,98075,97971
 4.2000e+000 98170  2.4918e+001 -4.2904e+001  1.0167e+001 34318 97893,97971,97919
 4.2000e+000 98147 -5.3731e+000 -2.4799e+001  1.4904e+001 34318 97997,98075,98049
 4.2000e+000 98124 -2.5543e+000 -3.8747e+001  6.7408e+000 34318 97919,97971,97945
 4.2000e+000 98101 -2.1771e+001 -6.0095e+001  2.2522e+001 34318 97997,98049,98023
 4.2000e+000 98594  6.9918e+000  8.0611e+000  1.5538e+000 33814 98961,98617,98424
 4.2000e+000 98571  2.3601e+001  5.4712e+000  5.3705e-001 33814 98689,98617,98372
 4.2000e+000 98548  3.0091e+001  2.8993e+001 -3.8545e+000 33814 99033,98689,98372
 4.2000e+000 98525  1.3984e+001  9.2333e+000  7.4201e-001 33814 98761,98476,98450
 4.2000e+000 98502 -1.1593e+000  8.5646e+000 -1.0331e+000 33814 98961,98424,98398
 4.2000e+000 98643  1.8199e+001  1.4471e+001  4.6485e+000 33814 98450,98424,98617
 4.2000e+000 98666  1.7215e+001  1.3601e+001  4.0316e+000 33814 98761,98450,98617
 4.2000e+000 98715  2.3375e+001  3.9910e-001  2.4104e+000 33814 99161,98689,98320
 4.2000e+000 98738 -5.8841e+000 -4.7544e+000  9.7462e+000 33814 98320,98689,98346
 4.2000e+000 98787  2.2258e+001  3.3635e+000  7.8673e+000 33814 98833,98761,98320
 4.2000e+000 98810  2.2729e+001 -9.8502e-001  4.1646e+000 33814 99161,98320,98761
 4.2000e+000 98859  2.1185e+001  2.5190e+001  2.2812e+000 33814 98476,98761,98833
 4.2000e+000 98987  2.1915e+001  1.6584e+000 -1.1025e+000 33814 98372,98617,98961
 4.2000e+000 99010  1.2642e+001  5.3351e-001 -5.6271e+000 33814 98372,98961,98398
 4.2000e+000 99059  2.3750e+001  5.9692e+000  8.4981e+000 33814 98346,98689,99033
 4.2000e+000 99187  2.3942e+001  4.5756e+000 -6.5720e-002 33814 98617,98689,99161
 4.2000e+000 99210  2.1477e+001  2.0661e+000  2.0279e+000 33814 98617,99161,98761
 4.2000e+000 99588  4.9600e+000  7.1193e+000  5.0797e+000 33566 99366,99444,99392
 4.2000e+000 99565  2.2882e+000  1.0197e+001  5.1026e+000 33566 99314,99444,99366
 4.2000e+000 99542  2.4441e+000  1.9278e+000  9.8606e-001 33566 99314,99366,99340
 4.2000e+000 99519  4.0196e+000  1.5462e+001 -1.3433e+000 33566 99314,99470,99444
 4.2000e+000 99496  3.1355e+000  2.8294e+001  1.5260e+001 33566 99392,99444,99418
 4.2000e+000 99787  6.3538e+000  6.6970e+000  7.4298e+000 33105 99637,99689,99663
 4.2000e+000 99764  1.0258e+001  1.1862e+001  1.2247e+000 33105 99611,99689,99637
 4.2000e+000 99741  1.0694e+001  1.8501e+001  2.1970e+000 33105 99611,99715,99689
 4.2000e+000 100167 -1.6280e+001 -5.3184e+001  2.8093e+001 32651 100190,99971,99919
 4.2000e+000 100144  4.5284e+000 -3.4095e+001  2.0055e+001 32651 100262,100190,99919
 4.2000e+000 100121  1.5948e+000 -3.3354e+001  1.7915e+001 32651 100262,99919,100049
 4.2000e+000 100098 -6.6766e+000 -3.6105e+001 -1.0078e+001 32651 99893,100049,99919
 4.2000e+000 100075 -1.9406e+001 -6.0817e+001  2.7202e+001 32651 99919,99971,99945
 4.2000e+000 100216  4.4707e+000 -5.8577e+001  1.1685e+001 32651 99997,99971,100190
 4.2000e+000 100239  1.6986e+001 -4.1107e+001  4.4219e+000 32651 99997,100190,100023
 4.2000e+000 100288  1.6640e+000 -3.8098e+001  1.8731e+001 32651 100023,100190,100262
 4.2000e+000 100311 -3.0923e+000 -3.7927e+001  1.5428e+001 32651 100023,100262,100049
 4.2000e+000 100608  7.9353e-001 -6.8108e+000 -3.4203e-002 32254 100386,100490,100464
 4.2000e+000 100585 -2.8684e+000  1.0429e+000 -5.6828e+000 32254 100360,100490,100386
 4.2000e+000 100562 -5.1533e+000 -1.4416e+001 -3.9445e+000 32254 100386,100464,100412
 4.2000e+000 100539 -1.9207e-001  4.3668e+000 -1.0468e+000 32254 100334,100490,100360
 4.2000e+000 100516  6.5978e+000 -2.7057e+000  2.6169e+000 32254 100412,100464,100438
 4.2000e+000 100758  4.0184e+000  5.6349e+000 -3.0815e+000 31914 100985,100781,100683
 4.2000e+000 100735 -5.4695e+000 -6.7030e-001  5.5331e+000 31914 100853,100781,100657
 4.2000e+000 100807  1.1580e+001  5.9108e+000 -9.1475e+000 31914 100709,100683,100781
 4.2000e+000 100830 -5.1908e-001  2.8544e+000 -2.1879e+000 31914 100709,100781,100631
 4.2000e+000 100879 -3.5102e-001 -5.1089e+000  3.7259e+000 31914 100631,100781,100853
 4.2000e+000 101011  7.1137e+000  8.2918e-001 -1.5227e-001 31914 100657,100781,100985
 4.2000e+000 101191 -2.4327e+001  2.3550e+001 -3.2343e+000 31418 101113,101165,101139
 4.2000e+000 101341 -6.8131e+001 -1.1841e+002 -1.0306e+001 31106 101214,101266,101240
 4.2000e+000 101318 -3.8452e+001 -3.0993e+001  2.5441e+000 31106 101214,101292,101266
 4.2000e+000 101591 -1.1940e+001 -5.6061e+001  2.4761e+001 30552 101614,101470,101444
 4.2000e+000 101568 -6.3717e+000 -4.7130e+001  9.5150e+000 30552 101366,101496,101470
 4.2000e+000 101545 -4.9597e+000 -4.8629e+001  2.0453e+001 30552 101614,101444,101392
 4.2000e+000 101522 -2.1718e+000 -1.4975e+001 -3.9630e+000 30552 101392,101444,101418
 4.2000e+000 101640 -2.6040e+000 -6.0359e+001  1.8051e+001 30552 101366,101470,101614
 4.2000e+000 101663  3.5061e+000 -5.3875e+001  1.3928e+001 30552 101366,101614,101392
 4.2000e+000 102301  4.6787e+000 -6.3851e+001 -1.3466e+001 30042 102396,102324,102059
 4.2000e+000 102278 -1.0245e+001 -5.9788e+001 -3.4585e+001 30042 102324,101981,101955
 4.2000e+000 102255 -9.8665e+000 -4.8872e+001  8.9548e+000 30042 102396,102059,102033
 4.2000e+000 102232 -1.0642e+001 -2.9817e+001  1.1595e+000 30042 101929,102111,101955
 4.2000e+000 102209  1.2809e+000 -6.3803e+001 -2.3951e+000 30042 102059,102111,102085
 4.2000e+000 102186 -1.4600e+001 -3.2115e+001  2.6460e+000 30042 101929,102137,102111
 4.2000e+000 102163  5.6273e-001  2.2482e+000 -1.9739e+000 30042 101981,102033,102007
 4.2000e+000 102350  2.1093e+001 -5.8020e+001 -1.1382e+001 30042 102111,102059,102324
 4.2000e+000 102373  1.6938e+001 -6.0676e+001 -1.4790e+001 30042 102111,102324,101955
 4.2000e+000 102422  2.2382e+001 -1.2739e+001 -1.9240e+001 30042 101981,102324,102396
 4.2000e+000 102445  8.1825e+000  2.4279e+000  3.7901e+000 30042 101981,102396,102033
 4.2000e+000 103000  5.1468e+001 -4.3030e+001 -7.4301e-001 29730 103023,102706,102654
 4.2000e+000 102977  1.3248e+001 -5.1050e+001 -5.1938e+000 29730 103023,102654,102810
 4.2000e+000 102954 -2.6183e+001 -7.7067e+001 -5.4180e+000 29730 102732,102810,102784
 4.2000e+000 102931  1.5992e+001 -5.4882e+001 -5.8904e+000 29730 102628,102810,102654
 4.2000e+000 102908  4.5532e+001 -4.4489e+000  1.2382e+001 29730 102654,102706,102680
 4.2000e+000 102885 -7.6380e+000 -2.0742e+001 -1.5608e+001 29730 102732,102784,102758
 4.2000e+000 102862  1.5047e+001 -6.2074e+001  1.7743e+001 29730 102628,102836,102810
 4.2000e+000 103049  2.9344e+001 -4.7853e+001 -2.0623e+001 29730 102732,102706,103023
 4.2000e+000 103072  5.5369e+000 -4.3809e+001 -2.3815e+001 29730 102732,103023,102810
 4.2000e+000 103222  1.4798e+001 -1.3076e+001  5.6319e-001 29226 103095,103147,103121
 4.2000e+000 103199  1.2795e+001 -2.5382e+000 -3.4329e+000 29226 103095,103173,103147
 4.2000e+000 103730 -4.7971e+000 -6.9043e+001  8.9768e+000 28822 103537,103589,103563
 4.2000e+000 103707  2.7398e+000 -4.7833e+001  6.8750e+000 28822 103433,103589,103537
 4.2000e+000 103684  1.4825e+001 -3.4952e+001 -7.0959e+000 28822 103433,103537,103459
 4.2000e+000 103661  2.0949e+001 -6.3347e+001  1.2354e+001 28822 103407,103589,103433
 4.2000e+000 103638  5.9758e+000 -1.2444e+000  1.6161e+001 28822 103459,103511,103485
 4.2000e+000 103615 -1.8672e+001  1.6206e+000  1.4635e+001 28822 103459,103537,103511
 4.2000e+000 103880  2.4233e+001 -2.7423e+001  1.2232e+001 28368 103975,103903,103779
 4.2000e+000 103857  1.5522e+000 -9.9042e+001  5.8470e+000 28368 103903,103753,103831
 4.2000e+000 103929  1.4547e+000 -7.3868e+000 -2.4709e+000 28368 103805,103779,103903
 4.2000e+000 103952 -3.1590e+000 -4.0272e+001  3.9154e-001 28368 104105,103903,103831
 4.2000e+000 104001  1.4742e+001 -4.1250e+001 -5.2920e+000 28368 103753,103903,103975
 4.2000e+000 104131 -2.8980e+000 -3.6946e+001  5.9498e+000 28368 103805,103903,104105
 4.2000e+000 104539  3.1070e+000  5.5978e+000  6.1257e+000 28028 104562,104340,104314
 4.2000e+000 104516  4.3493e+000  1.1698e+001  6.3555e+000 28028 104634,104562,104314
 4.2000e+000 104493 -3.8810e+000  2.5756e+000 -4.3854e-001 28028 104762,104366,104340
 4.2000e+000 104470 -3.7551e-001  1.3251e+000 -2.8751e+000 28028 104366,104418,104392
 4.2000e+000 104588  4.2629e-001  1.7380e+000  1.6119e+000 28028 104762,104340,104562
 4.2000e+000 104611  7.1558e+000  9.7863e+000  2.5103e+000 28028 104418,104562,104444
 4.2000e+000 104660  4.1816e+000  9.0096e+000  6.0795e+000 28028 104444,104562,104634
 4.2000e+000 104788  5.4893e-001  4.4407e+000  8.4969e-001 28028 104418,104366,104762
 4.2000e+000 104811  5.1322e+000  4.4165e+000  3.2942e+000 28028 104418,104762,104562
 4.2000e+000 105010  3.8171e+000  8.8224e-001 -6.3420e+000 27324 105033,104886,104860
 4.2000e+000 104987 -1.5204e-001  1.6092e+000  1.8235e-001 27324 105033,104860,104834
 4.2000e+000 104964  9.2670e+000  6.9341e+000 -6.5902e+000 27324 105105,104912,104886
 4.2000e+000 105059  5.6762e+000  6.8133e+000 -7.4975e+000 27324 105105,104886,105033
 4.2000e+000 105082  4.6393e+000  4.4495e+000 -3.5140e+000 27324 104938,105033,104834
 4.2000e+000 105131  1.6981e+001  6.8708e+000 -3.7555e+000 27324 104938,104912,105105
 4.2000e+000 105154  1.1590e+001  4.1322e+000 -5.8073e+000 27324 104938,105105,105033
 4.2000e+000 105402 -2.9853e+000 -1.1370e+001 -1.8294e+000 27012 105229,105281,105255
 4.2000e+000 105379  2.9079e+000 -1.0228e+000 -5.6354e+000 27012 105229,105307,105281
 4.2000e+000 105356  1.2847e+001  6.7288e+000 -2.2587e+000 27012 105177,105307,105229
 4.2000e+000 105333 -4.4940e+000 -1.4553e+001 -1.3404e+001 27012 105177,105229,105203
 4.2000e+000 105603 -7.5147e-001  1.2746e+001 -9.7525e+000 26508 105626,105453,105427
 4.2000e+000 105580 -9.2245e-001  1.1689e+001  4.8379e+000 26508 105626,105427,105505
 4.2000e+000 105557  3.0382e+000  1.1186e+001  5.6573e+000 26508 105427,105531,105505
 4.2000e+000 105652 -1.2404e+001  7.6832e+000 -7.6654e+000 26508 105479,105453,105626
 4.2000e+000 105675 -1.4779e+001  7.4685e+000  5.6339e+000 26508 105479,105626,105505
 4.2000e+000 106057 -1.0635e+000 -6.9676e+000  3.8379e+000 25947 106080,105887,105861
 4.2000e+000 106034  2.3391e+000 -8.6277e-001  8.4367e-001 25947 106080,105861,105783
 4.2000e+000 106011  4.3674e+000  4.1492e+000 -2.5263e-001 25947 105783,105835,105809
 4.2000e+000 105988  3.9269e-001 -2.5773e+000  1.5891e+000 25947 105783,105861,105835
 4.2000e+000 105965  3.9899e-001  4.1967e+000 -5.2318e+000 25947 105887,105939,105913
 4.2000e+000 106106 -6.4399e-001 -4.7356e+000 -1.4819e+000 25947 105939,105887,106080
 4.2000e+000 106129  6.3117e+000  6.0868e+000 -5.2012e+000 25947 105939,106080,105783
 4.2000e+000 106714  8.5964e+000 -4.2949e+000 -8.2148e+000 25557 106809,106737,106547
 4.2000e+000 106691  6.3792e+000 -2.0816e+001  2.4398e+000 25557 106737,106417,106391
 4.2000e+000 106668  1.9223e+001 -5.2829e-001 -9.7990e+000 25557 106809,106547,106495
 4.2000e+000 106645  8.9025e+000 -5.2233e+001  1.8560e+001 25557 106417,106495,106469
 4.2000e+000 106622  1.4261e+001  4.5170e+000 -4.7559e-001 25557 106495,106547,106521
 4.2000e+000 106599 -1.1266e+001 -3.1495e+001  1.2918e+001 25557 106417,106469,106443
 4.2000e+000 106763 -1.4508e+000 -1.1723e+001 -2.0217e+000 25557 106573,106547,106737
 4.2000e+000 106786  1.3704e+001 -5.3485e+000 -9.6978e-001 25557 106573,106737,106391
 4.2000e+000 106835  2.1504e+001 -9.6748e+000 -3.5584e+000 25557 106417,106737,106809
 4.2000e+000 106858  2.8133e+001 -8.4520e+000 -6.2017e+000 25557 106417,106809,106495
 4.2000e+000 107364 -9.4253e-001 -4.1172e+000 -5.2462e+000 25153 107459,107387,107171
 4.2000e+000 107341  2.3047e+000 -5.5663e+000 -3.2521e+000 25153 107387,107119,107067
 4.2000e+000 107318 -4.8893e-003  1.3580e+000  4.8635e-002 25153 107459,107171,107145
 4.2000e+000 107295  2.2395e+000 -3.5378e+000 -1.3814e+001 25153 107531,107223,107197
 4.2000e+000 107272  1.3624e+001  1.7021e+001 -8.4129e+000 25153 107067,107119,107093
 4.2000e+000 107249  1.1805e+001 -1.7591e+000 -1.4845e+001 25153 107041,107223,107067
 4.2000e+000 107413 -3.0598e+001 -1.4910e+001 -4.8137e+000 25153 107197,107171,107387
 4.2000e+000 107436 -1.0213e+000 -1.0365e+001 -5.0884e+000 25153 107531,107197,107387
 4.2000e+000 107485  2.4077e+000  5.0888e+000 -1.1945e+000 25153 107119,107387,107459
 4.2000e+000 107508  5.9763e+000  1.0561e+001  4.8674e+000 25153 107119,107459,107145
 4.2000e+000 107557  6.6263e+000  4.1992e+000 -1.6088e+001 25153 107067,107223,107531
 4.2000e+000 107580  6.1666e+000  4.3950e+000 -7.6319e+000 25153 107067,107531,107387
 4.2000e+000 107958  7.2723e+000 -2.9820e+001 -1.7973e+000 24741 107736,107814,107788
 4.2000e+000 107935 -6.0174e+000 -4.9612e+001 -1.8003e+001 24741 107736,107840,107814
 4.2000e+000 107912 -5.1994e+000 -3.9866e+001 -1.8347e+001 24741 107684,107840,107736
 4.2000e+000 107889  2.2983e+000  3.3361e+000 -1.3435e+001 24741 107736,107788,107762
 4.2000e+000 107866 -1.5078e+001 -7.3190e+001 -2.4397e+001 24741 107684,107736,107710
 4.2000e+000 108157 -1.0624e+000 -5.2839e+000 -6.6374e+000 24237 108180,108059,108007
 4.2000e+000 108134  1.1191e+001  3.2390e+000 -2.3647e+000 24237 108180,108007,107981
 4.2000e+000 108111 -5.2871e+000 -5.8422e+000 -5.7671e+000 24237 108007,108059,108033
 4.2000e+000 108206  3.3731e+000  9.9328e-002  4.1812e+000 24237 108085,108059,108180
 4.2000e+000 108229  1.5147e+001  8.4153e+000  8.3925e+000 24237 108085,108180,107981
 4.2000e+000 108658  1.0375e+001 -2.3982e+001  1.3406e+001 23776 108361,108413,108387
 4.2000e+000 108635 -6.8575e+000 -6.6730e+001 -1.1073e+001 23776 108753,108681,108361
 4.2000e+000 108612  7.3241e-001 -3.0978e+001 -6.4186e+000 23776 108681,108465,108439
 4.2000e+000 108589  5.7340e-001 -7.6059e+001 -7.1374e-001 23776 108753,108361,108335
 4.2000e+000 108566 -1.0029e+001 -5.8895e+001  1.1860e+001 23776 108335,108517,108465
 4.2000e+000 108543 -8.5773e+000 -7.3954e+001  1.4466e+001 23776 108465,108517,108491
 4.2000e+000 108707 -1.0054e+001 -3.0157e+001 -1.0210e+001 23776 108413,108361,108681
 4.2000e+000 108730 -4.5132e+000 -4.0372e+000  4.7617e+000 23776 108413,108681,108439
 4.2000e+000 108779 -1.3524e-001 -3.0780e+001 -1.1906e+001 23776 108465,108681,108753
 4.2000e+000 108802 -3.8182e+000 -5.8430e+001 -4.3604e+000 23776 108465,108753,108335
 4.2000e+000 109023  2.3044e+000 -3.7176e+000 -6.2218e+000 23414 108873,108925,108899
 4.2000e+000 109000  1.0920e+001  7.9740e-001 -4.5783e+000 23414 108847,108925,108873
 4.2000e+000 108977  1.7316e+001  2.2548e+001  2.2908e+000 23414 108847,108951,108925
 4.2000e+000 109474 -1.3640e+000  1.4292e+001  1.3693e+000 23024 109151,109307,109177
 4.2000e+000 109451  1.9492e+000  1.2355e+000  1.5406e+000 23024 109151,109333,109307
 4.2000e+000 109428  1.5117e+001 -4.7872e+001  2.5619e-001 23024 109177,109281,109203
 4.2000e+000 109405  3.7008e+000 -1.7660e+001 -1.8067e+001 23024 109177,109307,109281
 4.2000e+000 109382  1.0530e+001 -3.8942e+001  6.4836e+000 23024 109203,109281,109229
 4.2000e+000 109359 -1.9201e+000 -3.2003e+001 -1.7379e+000 23024 109229,109281,109255
 4.2000e+000 109820  1.9163e+000 -3.4041e+001  2.1420e+000 22506 109843,109601,109523
 4.2000e+000 109797  8.5137e+000 -2.2349e+001 -2.7338e+000 22506 109843,109523,109497
 4.2000e+000 109774  7.6154e+000 -4.5442e+001 -2.3331e-001 22506 109915,109653,109627
 4.2000e+000 109751  8.2606e+000 -1.8838e+001 -6.9783e+000 22506 109497,109679,109653
 4.2000e+000 109728 -1.9260e+000 -4.3949e+001 -1.1216e+001 22506 109523,109601,109575
 4.2000e+000 109705 -1.6930e+001 -5.9751e+001 -1.7793e+001 22506 109523,109575,109549
 4.2000e+000 109869  1.2586e+001 -2.8911e+001  4.4636e+000 22506 109627,109601,109843
 4.2000e+000 109892  1.3300e+001 -3.4777e+001  3.1388e+000 22506 109915,109627,109843
 4.2000e+000 109941  2.8728e+000 -3.6794e+001 -6.7290e+000 22506 109497,109653,109915
 4.2000e+000 109964  3.6548e+000 -3.5725e+001 -4.6766e+000 22506 109497,109915,109843
 4.2000e+000 110163  7.9391e+000 -1.8886e+001  2.0734e+000 21936 110186,110039,110013
 4.2000e+000 110140  2.5378e+001 -6.0422e+000  7.8661e+000 21936 110390,110186,110013
 4.2000e+000 110117  4.1695e+001 -1.9866e+001  2.3374e+001 21936 110390,110013,109987
 4.2000e+000 110212  2.1183e+001  5.3858e+000 -1.4868e+001 21936 110065,110039,110186
 4.2000e+000 110235 -3.1241e+000 -9.3335e+000 -6.3338e+000 21936 110258,110186,110091
 4.2000e+000 110284 -1.9906e+001 -1.3533e+001 -9.2343e+000 21936 110065,110186,110258
 4.2000e+000 110416 -1.0445e+001 -1.3520e+001  1.1511e+001 21936 110091,110186,110390
 4.2000e+000 110439  1.3461e+001 -2.2449e+001  2.5417e+001 21936 110091,110390,109987
 4.2000e+000 110709  1.7166e+001 -2.5406e+001  1.1247e+000 21338 110510,110614,110588
 4.2000e+000 110686  1.3454e+001 -3.8521e+001 -1.7147e+000 21338 110484,110614,110510
 4.2000e+000 110663  2.7186e+001  9.8191e+000  1.0975e+000 21338 110510,110562,110536
 4.2000e+000 110640  1.2787e+001 -2.4700e+001 -1.6054e+000 21338 110510,110588,110562
 4.2000e+000 111296  1.0764e+001 -1.3807e+001 -4.2397e+000 20934 111025,111155,111103
 4.2000e+000 111273 -2.9516e+000 -5.9495e+001 -1.8913e+000 20934 110999,111155,111025
 4.2000e+000 111250 -3.2715e-001 -1.9050e+001 -2.0556e+000 20934 111103,111155,111129
 4.2000e+000 111227 -1.8641e+000 -5.5168e+001 -1.3018e+001 20934 111051,111103,111077
 4.2000e+000 111204 -3.1866e+000 -5.0814e+001 -1.0626e+001 20934 111025,111103,111051
 4.2000e+000 111181 -5.9071e+000 -6.7575e+001 -3.1426e+000 20934 110973,111155,110999
 4.2000e+000 111930 -1.1616e+001 -4.1922e+001 -3.4790e+001 20494 111662,111714,111688
 4.2000e+000 111907 -1.1819e+001 -1.3802e+001 -2.6559e+001 20494 111584,111714,111662
 4.2000e+000 111884  7.6622e+000  2.3427e+000 -3.3706e+001 20494 111584,111766,111714
 4.2000e+000 111861  4.0731e+001  1.1333e+001 -2.3741e+001 20494 111584,111636,111610
 4.2000e+000 111838  1.0918e+001 -5.4490e-001 -4.0239e+001 20494 111584,111662,111636
 4.2000e+000 111815 -4.6617e+000  9.8563e+000 -1.5550e+001 20494 111558,111766,111584
 4.2000e+000 111792  3.6063e+000  1.1319e+001 -3.5421e+000 20494 111714,111766,111740
 4.2000e+000 112249 -2.2032e+001 -1.6825e+002  1.5348e+001 19940 111975,112053,112001
 4.2000e+000 112226  2.4708e+001 -7.4491e+001 -5.3191e-001 19940 111975,112131,112053
 4.2000e+000 112203  2.4996e+000 -1.4957e+002  0.0000e+000 19940 112053,112105,112079
 4.2000e+000 112180 -1.2581e+000 -1.4483e+002  2.4984e+000 19940 112053,112131,112105
 4.2000e+000 112157  3.0794e+000 -1.4015e+002 -5.2779e+000 19940 112001,112053,112027
 4.2000e+000 112757  1.4212e+001 -2.9205e+001 -1.1194e+001 19486 112780,112538,112486
 4.2000e+000 112734  1.2913e+001 -3.1092e+001 -4.6585e+000 19486 112780,112486,112460
 4.2000e+000 112711  2.9922e+000 -2.6226e+001 -5.3011e+000 19486 112852,112616,112590
 4.2000e+000 112688  4.3366e+001 -4.4556e+001 -1.4331e+001 19486 112486,112538,112512
 4.2000e+000 112665 -4.4081e+000 -3.5861e+001  2.2737e+000 19486 112434,112616,112460
 4.2000e+000 112642  5.0288e+000 -2.2995e+001 -7.7432e+000 19486 112538,112590,112564
 4.2000e+000 112806  1.0222e+001 -3.1478e+001 -9.6685e+000 19486 112590,112538,112780
 4.2000e+000 112829  1.4177e+001 -2.8422e+001 -7.3536e+000 19486 112852,112590,112780
 4.2000e+000 112878 -4.5308e+000 -2.8446e+001 -2.2065e+000 19486 112460,112616,112852
 4.2000e+000 112901  1.9868e+000 -3.4884e+001 -3.2249e+000 19486 112460,112852,112780
 4.2000e+000 113252 -2.3367e+001 -5.5256e+001 -3.0609e+000 19096 113105,113157,113131
 4.2000e+000 113229 -1.7585e+001 -3.6887e+001 -1.1904e+000 19096 113053,113157,113105
 4.2000e+000 113206 -1.0944e+001 -3.3589e+001 -9.9473e-002 19096 113027,113157,113053
 4.2000e+000 113183 -3.0155e+001 -6.2858e+001  2.9138e+000 19096 113053,113105,113079
 4.2000e+000 113451  1.5608e+001 -6.8971e+001 -2.2610e+001 18642 113327,113379,113353
 4.2000e+000 113428  8.5661e+000 -9.0884e+001 -1.8293e+001 18642 113301,113379,113327
 4.2000e+000 113405  2.1971e+001 -6.0756e+001 -6.2253e+000 18642 113275,113379,113301
 4.2000e+000 113699  1.7450e+001 -5.7827e+001 -5.3488e+000 18138 113474,113552,113526
 4.2000e+000 113676  3.5803e+001 -6.7695e+001 -1.4952e+001 18138 113474,113578,113552
 4.2000e+000 113653  3.6461e+001 -6.6949e+001 -1.5228e+001 18138 113474,113604,113578
 4.2000e+000 113630  2.8950e+001 -3.8471e+001 -5.7116e-001 18138 113474,113526,113500
 4.2000e+000 113851  4.3251e+000 -6.0496e+001 -2.9395e+000 17682 113750,113802,113776
 4.2000e+000 113828  1.0214e+001 -5.3776e+001  1.6331e-002 17682 113724,113802,113750
 4.2000e+000 114383  2.7982e+001 -9.3574e+001 -4.9920e+000 17106 114086,114242,114164
 4.2000e+000 114360  2.0600e+001 -9.6705e+001 -4.6739e+000 17106 114060,114242,114086
 4.2000e+000 114337 -8.4925e+000 -1.8191e+002  1.7145e+001 17106 114086,114164,114138
 4.2000e+000 114314 -4.4153e+001 -2.7144e+002 -4.1049e+000 17106 114190,114242,114216
 4.2000e+000 114291 -1.5368e+001 -1.9283e+002 -1.8993e+001 17106 114164,114242,114190
 4.2000e+000 114268  1.7619e+001 -1.6407e+002  3.5102e+001 17106 114086,114138,114112
 4.2000e+000 114680 -2.0331e+001 -7.4369e+001  4.4203e-001 16766 114703,114432,114406
 4.2000e+000 114657 -2.2686e+001 -7.4595e+001 -1.3188e+000 16766 114703,114406,114510
 4.2000e+000 114634 -2.2320e+001 -5.0456e+001  5.5371e+000 16766 114406,114536,114510
 4.2000e+000 114611 -1.1499e+001 -7.8715e+001 -5.3663e+000 16766 114432,114484,114458
 4.2000e+000 114588 -4.2740e+001 -7.0122e+001  3.3548e+001 16766 114406,114562,114536
 4.2000e+000 114729 -1.1595e+001 -7.3822e+001  2.2778e+000 16766 114484,114432,114703
 4.2000e+000 114752 -1.8870e+001 -7.7684e+001  1.0379e-001 16766 114484,114703,114510
 4.2000e+000 114902  4.6624e+001 -1.6105e+002 -3.2544e+001 16362 114775,114827,114801
 4.2000e+000 114879  2.5036e+001 -1.6376e+002 -2.9101e+001 16362 114775,114853,114827
 4.2000e+000 115054 -1.8476e+002 -2.9283e+002 -1.7208e+001 15908 114953,115005,114979
 4.2000e+000 115031 -1.6922e+002 -3.0779e+002 -1.2579e+001 15908 114927,115005,114953
 4.2000e+000 115326  1.4074e+001 -3.3142e+001  1.9622e+001 15251 115101,115179,115153
 4.2000e+000 115303  9.3415e+000 -3.0204e+001  1.4566e+000 15251 115101,115231,115179
 4.2000e+000 115280  1.0181e+001 -2.8630e+001  1.1362e+000 15251 115179,115231,115205
 4.2000e+000 115257 -3.3553e+001 -1.8532e+002  1.4533e+001 15251 115101,115153,115127
 4.2000e+000 115429 -4.8844e+000 -7.9883e+001  1.8286e+001 421 115351,115403,115377
 4.3000e+000 66230  9.8294e+000 -4.4679e+000 -2.9668e+000 65954 66152,66204,66178
 4.3000e+000 66429  2.9936e+000 -2.3529e+000 -4.1912e+000 65642 66279,66331,66305
 4.3000e+000 66406  3.1816e+000  5.1931e+000 -6.7292e-001 65642 66279,66357,66331
 4.3000e+000 66383 -2.6024e+000 -3.1988e+000  2.3499e+000 65642 66253,66357,66279
 4.3000e+000 66628 -1.1494e+000 -1.9152e+000  6.5337e-001 65444 66452,66530,66478
 4.3000e+000 66605  1.2284e+000 -5.8827e+000 -6.8492e-001 65444 66452,66556,66530
 4.3000e+000 66582  1.3337e+000 -6.6457e+000  6.9712e-001 65444 66478,66530,66504
 4.3000e+000 67006 -2.1285e+000  6.9123e-001  2.5049e+000 65246 66732,66810,66758
 4.3000e+000 66983 -4.9225e+000  1.2102e+000  2.1572e+000 65246 66732,66836,66810
 4.3000e+000 66960  8.5183e-001  5.2476e+000  9.4482e+000 65246 66732,66862,66836
 4.3000e+000 66937  2.6605e+000 -3.3465e+000 -1.9573e+000 65246 66758,66810,66784
 4.3000e+000 66914  7.7633e+000 -1.8200e+001 -4.4110e+000 65246 66732,66888,66862
 4.3000e+000 67107  8.8385e+000 -9.4022e+000 -2.5172e+000 64934 67029,67081,67055
 4.3000e+000 67306 -3.0581e+000  2.5330e+000  2.8738e+000 64736 67156,67208,67182
 4.3000e+000 67283 -4.6173e-002  3.7625e+000  2.1033e+000 64736 67130,67208,67156
 4.3000e+000 67260  2.2963e+000 -3.7210e+000  3.7205e+000 64736 67130,67234,67208
 4.3000e+000 67507 -2.0519e+000 -3.5511e+000 -1.0843e+000 64389 67357,67409,67383
 4.3000e+000 67484 -2.2348e+000  1.4451e+000 -1.2404e+000 64389 67357,67435,67409
 4.3000e+000 67461  2.8109e+000 -2.3144e+000 -5.9945e-001 64389 67331,67435,67357
 4.3000e+000 67708  1.3168e+001 -2.8041e+000  2.6538e+000 63985 67731,67584,67558
 4.3000e+000 67685  7.5292e+000  5.7595e+000  1.6231e+000 63985 67731,67558,67636
 4.3000e+000 67662  6.1008e+000  5.0922e+000  1.4548e+000 63985 67532,67636,67558
 4.3000e+000 67757  9.8705e+000 -6.3644e+000  1.2018e+000 63985 67610,67584,67731
 4.3000e+000 67780  2.8471e+000 -2.1415e-001 -5.6953e-001 63985 67610,67731,67636
 4.3000e+000 67981 -5.9007e-001  1.3500e+000 -4.3769e-001 63787 67857,67909,67883
 4.3000e+000 67958  1.9841e-001  8.8582e-001 -2.0216e-001 63787 67831,67909,67857
 4.3000e+000 67935  3.0880e+000  2.2529e+000  1.8149e+000 63787 67805,67909,67831
 4.3000e+000 68231  1.7477e-001 -7.8544e+000  7.0769e-001 63589 68254,68084,68032
 4.3000e+000 68208 -6.2221e-001 -3.9076e-001  3.3854e-001 63589 68254,68032,68006
 4.3000e+000 68185  8.3212e-001  1.3581e+000  3.5355e-001 63589 68326,68136,68110
 4.3000e+000 68162  2.9663e-002 -7.5028e+000 -5.9984e-001 63589 68032,68084,68058
 4.3000e+000 68280  8.6693e-001 -1.5324e+000  7.4778e-001 63589 68110,68084,68254
 4.3000e+000 68303 -2.1548e-001  9.7117e-001  1.8658e+000 63589 68326,68110,68254
 4.3000e+000 68352  3.1023e+000  4.9149e+000 -2.6978e+000 63589 68006,68136,68326
 4.3000e+000 68375  9.4992e-001  3.3478e+000 -1.0394e+000 63589 68006,68326,68254
 4.3000e+000 68836 -3.8629e+000  2.6797e-002 -2.9420e+000 63128 68859,68588,68562
 4.3000e+000 68813 -8.4688e-002  9.9805e-001 -2.4871e+000 63128 68859,68562,68692
 4.3000e+000 68790  3.0941e-001  2.3576e+000  3.4910e-001 63128 68614,68692,68666
 4.3000e+000 68767  1.9640e+000  2.2100e+000 -1.8338e+000 63128 68562,68718,68692
 4.3000e+000 68744 -2.6933e-001  1.1732e+000  1.2113e+000 63128 68614,68666,68640
 4.3000e+000 68885 -3.8547e+000  3.7979e-001  3.4040e-001 63128 68614,68588,68859
 4.3000e+000 68908 -4.9262e-001  9.4956e-001  7.1014e-001 63128 68614,68859,68692
 4.3000e+000 69237  1.8004e+000 -4.6520e+000  2.5819e+000 62731 69064,69116,69090
 4.3000e+000 69214 -8.4732e-001 -1.4305e+001  3.3157e-001 62731 69064,69142,69116
 4.3000e+000 69191 -2.0781e+000 -1.0526e+001  2.0468e+000 62731 69038,69142,69064
 4.3000e+000 69168  7.2550e-001 -2.1683e+001  2.1524e+000 62731 69012,69142,69038
 4.3000e+000 69539  7.6860e-002 -8.7037e-001 -3.4703e-001 62433 69389,69467,69441
 4.3000e+000 69516 -1.7622e-001  2.1674e+000 -9.4338e-001 62433 69363,69467,69389
 4.3000e+000 69493  3.5361e-001  9.8460e-001 -1.0158e+000 62433 69389,69441,69415
 4.3000e+000 69966  1.7403e+000  8.8983e+000  2.1980e+000 62235 69989,69773,69721
 4.3000e+000 69943  1.3175e+000  7.3140e+000  8.7104e-001 62235 70061,69989,69721
 4.3000e+000 69920  3.8194e-001  8.9002e+000  1.3282e-001 62235 70061,69721,69643
 4.3000e+000 69897  3.0909e+000  3.2305e+000  3.3802e+000 62235 69721,69773,69747
 4.3000e+000 69874  1.0260e+001  3.9247e+001  2.8353e+000 62235 69643,69721,69695
 4.3000e+000 69851 -1.0091e+001 -4.2227e+001  1.0766e+001 62235 69643,69695,69669
 4.3000e+000 70015  1.4035e-001  6.5818e+000  3.4617e+000 62235 69799,69773,69989
 4.3000e+000 70038  4.0847e+000  7.8060e+000  2.0056e+000 62235 69799,69989,69825
 4.3000e+000 70087  3.5916e+000  8.4853e+000  1.9753e-001 62235 69825,69989,70061
 4.3000e+000 70110  1.5614e+000  9.1485e+000 -7.8844e-002 62235 69825,70061,69643
 4.3000e+000 70260  9.8240e-002  4.6599e+000 -6.9645e-001 62037 70133,70185,70159
 4.3000e+000 70237  1.7766e+000  2.2439e-001  1.0979e+000 62037 70133,70211,70185
 4.3000e+000 70640 -3.2041e+000 -1.0451e+000  1.4463e+000 61583 70735,70663,70418
 4.3000e+000 70617 -1.7234e+000 -1.4716e-001  3.3608e+000 61583 70663,70366,70522
 4.3000e+000 70594 -3.4251e+000  1.2574e-001  2.7619e-001 61583 70735,70418,70392
 4.3000e+000 70571 -6.2907e+000 -1.4006e+000  1.3404e+000 61583 70418,70496,70444
 4.3000e+000 70548 -3.2123e+000 -3.9500e+000  1.8019e+000 61583 70444,70496,70470
 4.3000e+000 70689 -3.3753e+000 -1.7196e-001  1.4843e+000 61583 70496,70418,70663
 4.3000e+000 70712 -5.6014e+000  2.4982e-001  2.2431e+000 61583 70496,70663,70522
 4.3000e+000 70761 -5.8113e-001  2.8291e-001  6.8755e-001 61583 70366,70663,70735
 4.3000e+000 70784 -1.8807e+000  9.6136e-001 -3.4432e-001 61583 70366,70735,70392
 4.3000e+000 71054 -9.1906e-002 -1.0737e-001  1.7051e-001 61313 71077,70881,70855
 4.3000e+000 71031 -1.6427e-001  4.4085e-001 -2.2604e-001 61313 71077,70855,70829
 4.3000e+000 71008  5.3481e-001  2.1671e+000  4.2526e-001 61313 70829,70959,70933
 4.3000e+000 70985  4.7483e-002  1.5327e+000  2.9824e-001 61313 70881,70933,70907
 4.3000e+000 71103  2.8968e-001  2.5040e-001 -5.5283e-002 61313 70933,70881,71077
 4.3000e+000 71126  3.3468e-003  5.9901e-001 -4.1834e-001 61313 70933,71077,70829
 4.3000e+000 71604 -1.4827e+000 -6.2319e+000  3.5401e+000 60909 71627,71232,71414
 4.3000e+000 71581  3.8224e+000  2.2767e-001 -1.4812e+000 60909 71232,71440,71414
 4.3000e+000 71558 -3.5732e+000 -2.0947e+000  3.0882e+000 60909 71627,71414,71336
 4.3000e+000 71535 -1.2044e-001 -1.9996e+001  1.3487e+001 60909 71362,71414,71388
 4.3000e+000 71512 -1.1087e+001 -1.4424e+001  8.4427e+000 60909 71336,71414,71362
 4.3000e+000 71489 -8.7079e+000 -2.7672e+000  7.9903e-001 60909 71258,71336,71310
 4.3000e+000 71466 -6.0758e-001  7.3264e-001 -2.2654e-001 60909 71258,71310,71284
 4.3000e+000 71653  1.0412e+000 -3.4969e+000  2.2684e+000 60909 71258,71232,71627
 4.3000e+000 71676 -2.3277e+000 -1.3663e+000  2.6192e+000 60909 71258,71627,71336
 4.3000e+000 71875  1.8364e+000  6.5120e-001 -1.8971e+000 60611 71898,71725,71699
 4.3000e+000 71852  2.3652e+000  8.5206e-001 -1.8457e+000 60611 71898,71699,71803
 4.3000e+000 71829 -6.1412e-001 -2.1025e+000  5.1368e-002 60611 71970,71751,71725
 4.3000e+000 71924  1.2884e-001  1.4379e-001 -6.9394e-001 60611 71970,71725,71898
 4.3000e+000 71947  2.6331e+000  5.2312e+000 -9.9408e-001 60611 71777,71898,71803
 4.3000e+000 71996  1.7138e-001  7.0363e-001 -7.7803e-001 60611 71777,71751,71970
 4.3000e+000 72019  8.0207e-001  1.8616e+000 -1.7258e+000 60611 71777,71970,71898
 4.3000e+000 72576  3.4012e+000  5.4700e+000  1.2263e+000 60142 72599,72256,72230
 4.3000e+000 72553  1.9862e+000  4.2665e-001  9.6995e-001 60142 72671,72599,72230
 4.3000e+000 72530  2.3459e+000  2.6598e+000 -5.2088e-001 60142 72671,72230,72204
 4.3000e+000 72507  4.0499e+000 -6.6934e-002  2.2511e+000 60142 72743,72360,72334
 4.3000e+000 72484 -1.3270e+000  7.6344e-001  5.3332e+000 60142 72815,72282,72256
 4.3000e+000 72461 -1.6048e+000 -3.6525e-001  6.3529e+000 60142 72887,72308,72282
 4.3000e+000 72438  7.3631e-001 -5.6185e-001  3.9373e-001 60142 72204,72412,72386
 4.3000e+000 72625 -4.0035e-001  8.1686e-001  4.3205e+000 60142 72815,72256,72599
 4.3000e+000 72648  4.4078e+000 -4.1763e-001  2.2099e+000 60142 72743,72334,72599
 4.3000e+000 72697  2.1267e+000 -1.7448e+000  1.0263e+000 60142 72386,72599,72671
 4.3000e+000 72720  1.4220e+000 -1.6272e-001  1.0844e-001 60142 72386,72671,72204
 4.3000e+000 72769  3.2123e+000 -6.1330e-001  2.5655e+000 60142 72386,72360,72743
 4.3000e+000 72792  3.9676e+000 -8.2106e-001  2.3888e+000 60142 72386,72743,72599
 4.3000e+000 72841 -3.0348e-001  3.3009e-002  4.8006e+000 60142 72887,72282,72815
 4.3000e+000 72864  5.2842e+000  1.5539e-001  4.0911e+000 60142 72334,72815,72599
 4.3000e+000 72913 -2.0283e-001 -2.8019e+000  6.6381e+000 60142 72334,72308,72887
 4.3000e+000 72936 -9.8961e-002 -2.8210e+000  5.4217e+000 60142 72334,72887,72815
 4.3000e+000 73491  2.1679e+000 -2.7866e+001 -8.2195e+000 59738 73145,73327,73171
 4.3000e+000 73468  7.7699e+000 -2.4014e+001 -6.0036e+000 59738 73119,73327,73145
 4.3000e+000 73445  2.1559e+000 -1.6749e+000  4.3862e+000 59738 73171,73327,73301
 4.3000e+000 73422  2.2142e+000 -4.2031e+000 -4.4319e-001 59738 73514,73275,73249
 4.3000e+000 73399  8.0329e+000  7.8317e+000 -4.5068e+000 59738 73586,73514,73249
 4.3000e+000 73376  9.7401e+000  1.8919e+001 -1.0979e+001 59738 73197,73249,73223
 4.3000e+000 73353  1.3936e+001  1.3550e+001 -1.3109e+001 59738 73586,73249,73197
 4.3000e+000 73540  5.9601e+000 -8.0626e+000 -1.7348e+000 59738 73301,73275,73514
 4.3000e+000 73563 -1.8862e-001 -7.6620e+000  3.5478e+000 59738 73301,73514,73171
 4.3000e+000 73612  5.7559e+000 -6.3925e+000  2.4862e+000 59738 73171,73514,73586
 4.3000e+000 73635  7.3191e+000 -2.8804e-001 -4.9563e+000 59738 73171,73586,73197
 4.3000e+000 73964 -8.1737e-001 -3.1149e+000 -2.0410e+000 59334 73791,73843,73817
 4.3000e+000 73941  1.8172e+000 -4.0298e-001 -8.2096e-001 59334 73791,73869,73843
 4.3000e+000 73918  1.1176e+000 -1.4571e+000 -2.5180e+000 59334 73739,73869,73791
 4.3000e+000 73895  2.5975e+000 -4.7316e+000 -1.9036e+000 59334 73739,73791,73765
 4.3000e+000 74261  1.9081e+000  1.8903e+001 -5.9076e+000 58630 74065,74117,74091
 4.3000e+000 74238  6.8822e+000  8.7034e+000 -4.9868e+000 58630 74356,74284,74065
 4.3000e+000 74215  9.9336e+000  5.3510e+000  9.2077e-003 58630 74284,74013,73987
 4.3000e+000 74192  4.7428e+000  5.5573e+000 -7.8883e+000 58630 74356,74065,74039
 4.3000e+000 74169  5.9118e+000  8.2716e+000  1.1897e-001 58630 73987,74143,74117
 4.3000e+000 74310  8.3829e+000  2.2576e+001 -4.5786e+000 58630 74117,74065,74284
 4.3000e+000 74333  6.7905e+000  1.0431e+001 -2.1916e-001 58630 74117,74284,73987
 4.3000e+000 74382  1.0597e+001  1.3638e+001 -5.3244e-001 58630 74013,74284,74356
 4.3000e+000 74405  8.4389e+000  1.0051e+001 -3.4345e+000 58630 74013,74356,74039
 4.3000e+000 74815  7.8988e-001 -4.2216e+000 -1.0578e+000 58226 74590,74642,74616
 4.3000e+000 74792  5.2119e-001 -9.7470e-001 -2.4767e-001 58226 74590,74694,74642
 4.3000e+000 74769  1.7411e-002  6.2384e-002 -7.5869e-001 58226 74590,74720,74694
 4.3000e+000 74746 -4.0392e+000 -6.8364e+000 -2.2272e+000 58226 74642,74694,74668
 4.3000e+000 75014  8.8157e-001  1.3464e+001  3.8251e+000 57786 75037,74864,74838
 4.3000e+000 74991  1.4410e+000  3.3342e+000  5.7527e-001 57786 75037,74838,74916
 4.3000e+000 74968  1.3193e+000  3.3238e+000  4.8430e-001 57786 74838,74942,74916
 4.3000e+000 75063  2.9180e+000  2.3835e+001  6.9916e+000 57786 74890,74864,75037
 4.3000e+000 75086  2.0869e+000  1.2175e+001  3.4406e+000 57786 74890,75037,74916
 4.3000e+000 75368 -1.0137e+001  1.4041e+001  4.2304e+000 57496 75192,75270,75218
 4.3000e+000 75345  1.7037e+001  2.5200e+001  5.0039e+000 57496 75192,75296,75270
 4.3000e+000 75322  1.1820e+001  1.7227e+001  1.9995e+001 57496 75218,75270,75244
 4.3000e+000 75648 -1.8838e-001  7.0658e+000 -3.2312e+000 57206 75472,75550,75498
 4.3000e+000 75625 -1.0746e+001  1.1628e+001  4.1262e+000 57206 75472,75576,75550
 4.3000e+000 75602 -8.9651e+000  1.2268e+001  1.0666e+001 57206 75671,75550,75524
 4.3000e+000 75697  1.0686e+001  1.0831e+001  1.3788e+001 57206 75498,75550,75671
 4.3000e+000 76154 -1.2609e-001  5.5405e+000  2.6828e+000 56802 75958,76010,75984
 4.3000e+000 76131  1.5940e+000  4.4417e+000  1.4263e+000 56802 75932,76010,75958
 4.3000e+000 76108  9.1108e-001  6.0496e+000 -4.1952e-001 56802 75906,76010,75932
 4.3000e+000 76085  2.3552e+000  5.8443e+000  4.4745e-002 56802 75880,76010,75906
 4.3000e+000 76062  4.2046e+000  5.7801e+000 -2.2824e+000 56802 75880,76036,76010
 4.3000e+000 76505  3.7440e-001  6.4768e-001 -9.2679e-002 56504 76306,76384,76332
 4.3000e+000 76482  1.4023e-001  1.4635e-001  1.1465e-001 56504 76306,76410,76384
 4.3000e+000 76459  7.7828e-001  4.3498e-001 -3.3068e-001 56504 76332,76384,76358
 4.3000e+000 76436  2.1964e-001 -2.3602e-002 -6.8015e-002 56504 76280,76410,76306
 4.3000e+000 77011  1.4382e+001  8.5523e+000 -7.4150e+000 56050 76740,76818,76792
 4.3000e+000 76988  4.9377e+000  4.8122e+000 -8.2537e+000 56050 76714,76818,76740
 4.3000e+000 76965  1.5569e+001  3.0391e+000 -1.0238e+001 56050 76688,76818,76714
 4.3000e+000 76942  3.5380e+001  2.4946e+001  4.1967e+000 56050 76688,76844,76818
 4.3000e+000 76919  1.2067e+001 -1.5247e+000 -5.2473e+000 56050 76740,76792,76766
 4.3000e+000 76896  2.4520e+001  2.2925e+000  7.3367e+000 56050 76688,76870,76844
 4.3000e+000 77517 -1.6769e+001  5.7832e-001  1.1465e+001 55738 77220,77350,77324
 4.3000e+000 77494  6.1051e+000 -9.5690e+000 -2.7330e+000 55738 77220,77376,77350
 4.3000e+000 77471  1.2501e+001  1.2531e+001 -3.5503e+000 55738 77194,77376,77220
 4.3000e+000 77448  6.4932e-001 -7.7406e+000  6.9268e+000 55738 77220,77298,77246
 4.3000e+000 77425 -6.7152e+000 -2.4157e-002  1.4984e+001 55738 77220,77324,77298
 4.3000e+000 77402 -9.5940e+000 -1.0056e+001  2.4520e+001 55738 77246,77298,77272
 4.3000e+000 78064  1.4443e+001 -4.4837e-001 -2.5427e+000 55227 78231,78087,77773
 4.3000e+000 78041 -5.2473e+000 -1.6688e+001 -1.9706e+000 55227 78087,77695,77643
 4.3000e+000 78018  7.7145e-001 -1.2754e+001 -1.3228e+001 55227 78159,77799,77773
 4.3000e+000 77995  9.4086e+000  7.9129e+000  1.3739e-001 55227 78231,77773,77721
 4.3000e+000 77972 -1.6253e+000 -1.0502e+000  2.9228e+000 55227 77643,77695,77669
 4.3000e+000 77949 -5.3253e+000 -5.1985e+000  1.5611e+000 55227 77643,77877,77851
 4.3000e+000 77926 -4.2857e+000  2.1582e+001 -1.6195e+001 55227 77799,77851,77825
 4.3000e+000 77903  9.6937e+000  1.2405e+001 -2.6950e+000 55227 77721,77773,77747
 4.3000e+000 78113  8.9639e+000 -1.1591e+001 -9.5335e+000 55227 78159,77773,78087
 4.3000e+000 78136  4.6439e+000  6.4723e+000 -3.6368e+000 55227 77851,78087,77643
 4.3000e+000 78185 -1.5345e+001 -7.0798e+000 -1.3971e+001 55227 77851,77799,78159
 4.3000e+000 78208 -7.5851e+000 -6.8306e+000 -1.0983e+001 55227 77851,78159,78087
 4.3000e+000 78257  8.6367e+000 -8.5879e+000 -5.7382e+000 55227 77695,78087,78231
 4.3000e+000 78280  1.9691e+000 -6.6004e-001 -3.7717e+000 55227 77695,78231,77721
 4.3000e+000 78737  2.4725e+000  2.5226e+000  1.2472e+000 54773 78463,78541,78515
 4.3000e+000 78714  2.7096e-001  3.7854e+000  1.0801e+000 54773 78463,78619,78541
 4.3000e+000 78691  2.9906e+000  3.9174e+000  1.6564e+000 54773 78463,78515,78489
 4.3000e+000 78668 -8.1106e+000 -2.6840e+000 -4.1679e-001 54773 78541,78593,78567
 4.3000e+000 78645 -8.3837e-001  1.2944e+000  1.2836e+000 54773 78541,78619,78593
 4.3000e+000 78838  1.2863e-001  4.7455e+000  3.2668e-001 54211 78760,78812,78786
 4.3000e+000 79297  1.1419e+001  9.1838e+000  1.6276e+000 53814 79520,79153,79049
 4.3000e+000 79274  8.7516e+000  1.0645e+001 -1.3446e+000 53814 79520,79049,79023
 4.3000e+000 79251  6.7716e+000  2.6275e+001 -1.8561e+000 53814 79320,79101,79049
 4.3000e+000 79228  2.9547e+000  1.6825e+001  2.9832e+000 53814 79320,79049,79153
 4.3000e+000 79205  7.8791e+000  1.6238e+001 -3.7762e+000 53814 79049,79101,79075
 4.3000e+000 79346  3.4599e+000  9.1829e+000  4.3004e+000 53814 79392,79320,79127
 4.3000e+000 79369  4.2338e+000  1.7284e+001  4.4090e+000 53814 79127,79320,79153
 4.3000e+000 79418  1.1004e+000  2.3504e+001  6.0798e+000 53814 79101,79320,79392
 4.3000e+000 79546  1.0818e+001  7.1936e+000 -6.0512e-001 53814 79179,79153,79520
 4.3000e+000 79569  4.7728e+000  7.0352e+000 -3.6986e+000 53814 79179,79520,79023
 4.3000e+000 80075 -1.5777e+001 -4.6039e+000  1.0838e+001 53039 80098,79908,79830
 4.3000e+000 80052 -1.9047e+001 -8.4406e-001 -3.5284e+000 53039 80098,79830,79804
 4.3000e+000 80029  7.2844e-001  6.8646e+000 -1.4695e+000 53039 79752,79934,79804
 4.3000e+000 80006  3.6324e-001 -2.6244e+001  1.4079e+001 53039 79856,79908,79882
 4.3000e+000 79983  9.2334e+000 -3.9036e+001  1.2488e+001 53039 79830,79908,79856
 4.3000e+000 79960 -1.5958e+000  3.5282e+000 -2.7557e+000 53039 79752,79804,79778
 4.3000e+000 80124  6.9519e+000  4.8366e+000  1.1793e+001 53039 79934,79908,80098
 4.3000e+000 80147 -8.7467e+000  3.5605e+000 -3.1868e+000 53039 79934,80098,79804
 4.3000e+000 80555  2.6097e+001  2.0517e+001 -2.2232e+000 52699 80356,80434,80408
 4.3000e+000 80532  6.4155e+000  7.7415e+000  4.2554e+000 52699 80356,80460,80434
 4.3000e+000 80509  1.5182e+000  3.0145e+000  1.4863e+000 52699 80330,80460,80356
 4.3000e+000 80486 -3.4477e+000  1.7873e+000  2.5254e+001 52699 80356,80408,80382
 4.3000e+000 80776  8.7290e+000  2.8607e+001 -1.1855e+001 52295 80600,80678,80626
 4.3000e+000 80753 -1.6831e+001  7.7335e+000 -2.8049e+000 52295 80600,80704,80678
 4.3000e+000 80730 -4.1583e+001  8.1716e+000 -7.9532e+000 52295 80626,80678,80652
 4.3000e+000 81156  7.7766e+000 -9.7971e+000  4.4225e+000 51891 81179,80960,80908
 4.3000e+000 81133  7.0616e+000 -1.3934e+001 -5.1059e+000 51891 81179,80908,81012
 4.3000e+000 81110  1.7171e+000  3.6287e+000 -1.3576e+001 51891 80882,81012,80908
 4.3000e+000 81087  4.6742e-002  3.2585e+000  5.2755e+000 51891 80908,80960,80934
 4.3000e+000 81064  1.5176e+000  3.7563e+000 -1.3069e+001 51891 80882,81038,81012
 4.3000e+000 81205  1.9617e+001 -2.7446e+000  9.4681e+000 51891 80986,80960,81179
 4.3000e+000 81228  1.0639e+001 -1.1497e+001 -8.2498e-001 51891 80986,81179,81012
 4.3000e+000 81606  4.2624e-001 -1.0300e+002 -2.8057e+001 51544 81410,81462,81436
 4.3000e+000 81583  1.1300e+001 -3.1108e+001  1.8285e+000 51544 81384,81462,81410
 4.3000e+000 81560 -1.0354e+001 -4.0747e+001 -5.5289e+000 51544 81358,81462,81384
 4.3000e+000 81537 -5.6770e+000 -3.2973e+001 -1.6934e+001 51544 81358,81488,81462
 4.3000e+000 81514  1.3381e+000 -1.2021e+001 -1.4246e+001 51544 81332,81488,81358
 4.3000e+000 81854 -1.6543e-001 -2.1581e+000  3.5844e-001 51004 81877,81655,81629
 4.3000e+000 81831  1.9569e-001  4.0362e+000 -9.7995e-001 51004 81877,81629,81759
 4.3000e+000 81808  7.7805e+000  4.5541e+000  7.0514e+000 51004 81655,81707,81681
 4.3000e+000 81785 -2.5965e-001  5.4933e+000 -4.8562e-001 51004 81707,81759,81733
 4.3000e+000 81903  8.1903e-001 -5.3319e+000  8.3105e-001 51004 81707,81655,81877
 4.3000e+000 81926 -1.1765e+000 -2.9661e+000 -1.4504e+000 51004 81707,81877,81759
 4.3000e+000 82257 -1.8663e-001 -1.5123e+001 -4.9898e+000 50642 82058,82136,82110
 4.3000e+000 82234 -7.5262e+000  6.4099e+000 -1.0566e+001 50642 82058,82162,82136
 4.3000e+000 82211  1.2255e+001 -2.6836e-001 -2.5210e+001 50642 82058,82110,82084
 4.3000e+000 82188  3.5787e+001  2.3601e+001  8.3998e+000 50642 82032,82162,82058
 4.3000e+000 82684  2.0680e+001 -6.7355e+001  1.4125e+001 49931 82779,82707,82465
 4.3000e+000 82661 -4.4283e+000 -7.6972e+001  1.3116e+001 49931 82707,82413,82361
 4.3000e+000 82638 -1.9669e+000 -6.7759e+001 -9.4748e+000 49931 82779,82465,82439
 4.3000e+000 82615  1.1099e+001 -1.7378e+002  1.5297e+001 49931 82465,82543,82491
 4.3000e+000 82592 -7.8530e+000 -5.7783e+001 -1.7027e+000 49931 82361,82413,82387
 4.3000e+000 82569  5.8007e+000 -1.2952e+002  1.5036e+001 49931 82491,82543,82517
 4.3000e+000 82733  5.1884e+001 -7.8519e+001  1.1195e+001 49931 82543,82465,82707
 4.3000e+000 82756  1.4620e+001 -6.4971e+001  4.1947e+000 49931 82543,82707,82361
 4.3000e+000 82805  3.4180e+000 -1.0182e+002 -3.4427e+000 49931 82413,82707,82779
 4.3000e+000 82828 -8.4839e+000 -9.4789e+001 -2.5822e+001 49931 82413,82779,82439
 4.3000e+000 83255  5.4373e+000 -7.2819e+001 -8.0818e+000 49327 82984,83114,83036
 4.3000e+000 83232 -3.2506e+000 -9.0162e+001 -2.9081e+001 49327 82958,83114,82984
 4.3000e+000 83209 -1.0756e+001 -1.0632e+002  4.3377e+000 49327 83036,83114,83088
 4.3000e+000 83186 -1.8661e+001 -4.3152e+001  1.4167e+001 49327 82984,83036,83010
 4.3000e+000 83163 -1.0828e+001 -7.8207e+001 -2.2320e+001 49327 82932,83114,82958
 4.3000e+000 83140 -2.7410e+001 -1.8756e+002 -6.5517e-001 49327 83036,83088,83062
 4.3000e+000 83938 -7.3045e+000 -1.0578e+002  2.5793e+001 48965 83961,83673,83647
 4.3000e+000 83915  9.1810e+000 -3.6870e+001  3.1545e+001 48965 83961,83647,83543
 4.3000e+000 83892 -9.5701e+000 -4.8337e+001 -7.8038e+000 48965 83517,83725,83543
 4.3000e+000 83869 -1.8260e+001 -7.5019e+001 -1.5629e+001 48965 83673,83725,83699
 4.3000e+000 83846 -8.0311e+000 -1.3720e+001  5.7160e+000 48965 83543,83647,83621
 4.3000e+000 83823 -3.1184e-001 -2.5181e+001  2.3229e+000 48965 83543,83621,83569
 4.3000e+000 83800 -1.0200e+001 -4.8465e+001 -7.2462e+000 48965 83517,83751,83725
 4.3000e+000 83777 -1.7909e+000 -2.4978e+001  5.2098e+000 48965 83569,83621,83595
 4.3000e+000 83987 -9.0369e+000 -9.6438e+001 -1.8459e+001 48965 83725,83673,83961
 4.3000e+000 84010  3.1481e+000 -6.7018e+001 -4.7814e+000 48965 83725,83961,83543
 4.3000e+000 84258 -8.6886e+000 -7.3825e+001  1.4534e+001 48447 84281,84059,84033
 4.3000e+000 84235 -2.3369e+000 -5.5562e+001  1.0355e-001 48447 84281,84033,84163
 4.3000e+000 84212  4.9815e+000 -4.4675e+001 -8.9038e+000 48447 84059,84111,84085
 4.3000e+000 84189  1.3450e+001 -4.1211e+001 -1.4975e+001 48447 84111,84163,84137
 4.3000e+000 84307  3.3356e+000 -6.8970e+001 -1.6711e-001 48447 84111,84059,84281
 4.3000e+000 84330  1.5530e+001 -5.6061e+001 -1.4089e+001 48447 84111,84281,84163
 4.3000e+000 84529  2.0713e+001 -3.2219e+001  1.1279e+000 47993 84552,84405,84379
 4.3000e+000 84506  7.7442e+000 -3.7973e+001 -1.0774e-001 47993 84552,84379,84353
 4.3000e+000 84483  1.2901e+001 -3.8564e+001 -4.8340e+000 47993 84624,84457,84431
 4.3000e+000 84578  2.5041e+001 -3.5669e+001 -5.0071e+000 47993 84431,84405,84552
 4.3000e+000 84601  1.5737e+001 -3.9060e+001 -4.1979e+000 47993 84624,84431,84552
 4.3000e+000 84650  1.5833e+001 -3.9057e+001 -2.7531e+000 47993 84353,84457,84624
 4.3000e+000 84673  1.9925e+001 -3.7392e+001 -1.3341e+000 47993 84353,84624,84552
 4.3000e+000 85104 -9.5701e+000 -8.2375e+001 -7.0832e+000 47588 85199,85127,84885
 4.3000e+000 85081 -8.8994e+000 -9.3993e+001 -1.1206e+001 47588 85127,84781,84963
 4.3000e+000 85058 -2.4067e+001 -7.7969e+001  1.0377e+001 47588 85199,84885,84807
 4.3000e+000 85035  2.9319e+000 -5.4360e+001  2.7573e+001 47588 84885,84937,84911
 4.3000e+000 85012 -5.4340e+000 -4.5285e+001 -1.1435e+000 47588 84807,84885,84833
 4.3000e+000 84989 -8.0850e+000 -4.5409e+001  2.7627e+001 47588 84833,84885,84859
 4.3000e+000 85153 -1.0581e+001 -1.0013e+002 -2.7726e+000 47588 84937,84885,85127
 4.3000e+000 85176  2.0961e+001 -9.2336e+001 -2.6934e+000 47588 84937,85127,84963
 4.3000e+000 85225 -3.8182e+001 -9.4416e+001 -8.3535e+000 47588 84781,85127,85199
 4.3000e+000 85248 -4.6207e+001 -8.7475e+001  1.1274e+001 47588 84781,85199,84807
 4.3000e+000 85518 -2.0158e+001 -1.7199e+002  2.6857e+001 47226 85293,85397,85319
 4.3000e+000 85495 -9.7373e+000 -1.5696e+002  1.5360e+001 47226 85293,85423,85397
 4.3000e+000 85472 -2.2744e+000 -1.7882e+002 -6.4838e+000 47226 85319,85397,85345
 4.3000e+000 85449  2.4148e+001 -2.6937e+001 -1.1734e+001 47226 85345,85397,85371
 4.3000e+000 85849 -1.5281e+001 -8.1006e+001  3.0867e+001 46572 85624,85702,85650
 4.3000e+000 85826 -7.7825e+000 -1.0193e+002  6.0386e+000 46572 85624,85754,85702
 4.3000e+000 85803  2.2767e+001 -4.9407e+001  2.2597e+001 46572 85702,85754,85728
 4.3000e+000 85780 -1.1706e+001 -8.1296e+001  3.5769e+001 46572 85650,85702,85676
 4.3000e+000 86070 -5.8357e+001 -7.7330e+001 -2.0827e+000 46374 85920,85972,85946
 4.3000e+000 86047 -3.6657e+001 -2.6983e+001  8.7822e-001 46374 85920,85998,85972
 4.3000e+000 86024 -2.3214e+001 -1.7733e+001  9.0328e+000 46374 85894,85998,85920
 4.3000e+000 86401  7.2765e+000 -4.2928e+001  7.9750e+000 46034 86424,86280,86228
 4.3000e+000 86378 -1.0980e+001 -4.5692e+001  5.1917e+000 46034 86424,86228,86176
 4.3000e+000 86355 -1.3424e+001 -3.6253e+001 -8.0245e+000 46034 86176,86228,86202
 4.3000e+000 86332  2.3333e+001 -3.5938e+001 -1.9051e+001 46034 86228,86280,86254
 4.3000e+000 86450  4.2894e+001 -5.0809e+001  4.8501e-001 46034 86306,86280,86424
 4.3000e+000 86473  6.5296e+000 -6.5844e+001 -4.8591e+000 46034 86306,86424,86176
 4.3000e+000 87058  6.3731e+000 -3.7710e+001  1.1893e+001 45516 86813,86917,86865
 4.3000e+000 87035 -9.3850e-002 -6.1145e+001  3.7807e+000 45516 86787,86917,86813
 4.3000e+000 87012  4.9120e+000 -5.9252e+001  6.5568e+000 45516 86735,86917,86787
 4.3000e+000 86989  1.5902e+000 -3.1904e+001  9.5553e+000 45516 86865,86917,86891
 4.3000e+000 86966  2.0056e+000 -3.5987e+001  1.1066e+001 45516 86813,86865,86839
 4.3000e+000 86943 -9.3720e+000 -1.2246e+002 -1.8871e+000 45516 86735,86787,86761
 4.3000e+000 87208  3.2281e+001 -2.1755e+001 -1.1834e+001 45226 87231,87133,87107
 4.3000e+000 87185  9.9121e+000 -9.6035e+000 -3.9687e+000 45226 87081,87159,87133
 4.3000e+000 87257  2.4216e+001  1.9782e+001 -1.0297e+001 45226 87081,87133,87231
 4.3000e+000 87537  4.7519e+000 -5.5292e+001  1.1308e+001 44772 87387,87439,87413
 4.3000e+000 87514 -8.2254e+000 -5.9758e+001  1.0056e+001 44772 87361,87439,87387
 4.3000e+000 87491  6.5342e+000 -4.6595e+001  4.3981e+000 44772 87361,87465,87439
 4.3000e+000 87996  2.6028e+000  2.2719e+001  6.0449e+000 44425 87748,87878,87852
 4.3000e+000 87973  3.1485e-001  2.2064e+001  1.5133e-001 44425 87722,87878,87748
 4.3000e+000 87950  2.5726e+000  1.3720e+001  3.0547e+000 44425 87800,87852,87826
 4.3000e+000 87927  2.2659e+001  2.1543e+001  3.9684e+000 44425 87748,87852,87800
 4.3000e+000 87904  2.0673e+000  1.3311e+001 -1.0565e+001 44425 87748,87800,87774
 4.3000e+000 88423 -1.2112e+001 -4.7293e+001  1.5399e+001 44078 88590,88230,88204
 4.3000e+000 88400 -5.3539e+000 -2.4183e+001  1.3487e+001 44078 88518,88446,88204
 4.3000e+000 88377  6.9772e+000 -5.1089e+001 -9.7710e+000 44078 88446,88126,88282
 4.3000e+000 88354 -7.5452e+000 -1.1290e+001  6.3313e+000 44078 88518,88204,88178
 4.3000e+000 88331  4.0783e+000 -6.6615e+001 -1.0205e+001 44078 88100,88282,88126
 4.3000e+000 88308 -4.7863e+000 -4.2582e+001  1.7386e+001 44078 88126,88178,88152
 4.3000e+000 88472 -1.4424e+001 -5.2465e+001  1.4511e+001 44078 88590,88204,88446
 4.3000e+000 88495 -7.7887e+000 -9.5514e+001 -1.3060e+001 44078 88256,88446,88282
 4.3000e+000 88544 -3.6099e+000 -5.3907e+001  1.5397e+001 44078 88126,88446,88518
 4.3000e+000 88567  2.1149e+000 -2.9917e+001  8.7561e+000 44078 88126,88518,88178
 4.3000e+000 88616 -3.2935e+001 -1.3437e+002  4.3882e+000 44078 88256,88230,88590
 4.3000e+000 88639 -7.2509e+000 -4.7231e+001  7.0188e+000 44078 88256,88590,88446
 4.3000e+000 89039  1.0638e+001  2.0025e+001  4.9241e+000 43716 88791,88921,88895
 4.3000e+000 89016  8.1307e+000  2.2813e+001  5.0302e+000 43716 88765,88921,88791
 4.3000e+000 88993  2.4595e+001  8.6095e+000  7.8731e+000 43716 88817,88895,88869
 4.3000e+000 88970  8.9215e+000  1.2968e+001  1.2470e+001 43716 88791,88895,88817
 4.3000e+000 88947  4.4269e+000  1.1006e+001 -8.6756e-001 43716 88817,88869,88843
 4.3000e+000 89496  2.3323e+000 -7.1247e+001 -6.5700e+000 43162 89519,89274,89248
 4.3000e+000 89473  7.5194e+000 -4.1572e+001 -4.8619e-001 43162 89519,89248,89222
 4.3000e+000 89450  3.1864e+000 -3.1448e+001 -1.1700e+001 43162 89326,89378,89352
 4.3000e+000 89427 -5.0178e-001 -4.2593e+001 -2.3947e+000 43162 89274,89378,89326
 4.3000e+000 89404  2.2823e+000 -4.5579e+001 -2.4724e+000 43162 89274,89326,89300
 4.3000e+000 89545 -1.4613e-001 -4.4227e+001  7.5825e-001 43162 89378,89274,89519
 4.3000e+000 89568  6.8681e+000 -1.2335e+001  7.2306e+000 43162 89378,89519,89222
 4.3000e+000 89946 -6.7237e+000 -3.7588e+001 -4.1191e+001 42594 90041,89969,89750
 4.3000e+000 89923 -6.1818e+000 -3.3131e+001 -1.3930e+001 42594 89969,89698,89828
 4.3000e+000 89900  1.5376e+001 -4.7036e+001 -3.7080e+001 42594 90041,89750,89724
 4.3000e+000 89877 -1.1688e+001 -2.0575e+001 -1.4810e+001 42594 89750,89802,89776
 4.3000e+000 89854  1.2351e+001 -1.6101e+001 -4.5962e+000 42594 89672,89828,89698
 4.3000e+000 89995 -2.3863e+001 -2.6983e+001 -2.8959e+001 42594 89802,89750,89969
 4.3000e+000 90018  7.5765e+000  9.3567e+000 -6.0041e+000 42594 89802,89969,89828
 4.3000e+000 90067  1.4024e+001 -2.5654e+001 -3.2806e+001 42594 89698,89969,90041
 4.3000e+000 90090  3.8654e+001 -3.8302e+001 -3.4353e+001 42594 89698,90041,89724
 4.3000e+000 90517  1.2528e+001 -5.1298e+001 -6.0693e+000 42140 90540,90220,90194
 4.3000e+000 90494  1.7580e+001 -5.0757e+001 -8.2216e+000 42140 90540,90194,90376
 4.3000e+000 90471  1.0725e+000 -5.6378e+001  2.6159e+000 42140 90612,90350,90272
 4.3000e+000 90448 -6.1689e+000 -5.0338e+001 -7.1082e-001 42140 90272,90350,90298
 4.3000e+000 90425 -2.9665e+000 -4.0228e+001  8.3744e-001 42140 90298,90350,90324
 4.3000e+000 90402  1.7652e+001 -3.0178e+001  3.0907e+000 42140 90220,90272,90246
 4.3000e+000 90566  1.2295e+001 -3.1347e+001 -4.0291e+000 42140 90272,90220,90540
 4.3000e+000 90589  2.6624e+000 -5.2765e+001 -2.1118e-001 42140 90612,90272,90540
 4.3000e+000 90638  7.7698e+000 -6.3378e+001 -3.8291e+000 42140 90376,90350,90612
 4.3000e+000 90661  1.6584e+001 -5.3380e+001 -7.9988e+000 42140 90376,90612,90540
 4.3000e+000 91167 -2.4372e+000 -2.2318e+001  6.3995e-001 41636 91190,90870,90844
 4.3000e+000 91144 -9.5676e+000 -1.0980e+002  3.8639e+000 41636 91190,90844,91026
 4.3000e+000 91121 -2.0201e+000 -1.3649e+000 -1.0661e+001 41636 90870,90922,90896
 4.3000e+000 91098  1.2462e+001 -8.7529e+001 -5.3474e-001 41636 90922,91026,90948
 4.3000e+000 91075  2.6700e+001 -7.0949e+001 -1.2824e+001 41636 90948,91026,91000
 4.3000e+000 91052 -3.2012e+001 -6.4373e+001  3.7515e+001 41636 90948,91000,90974
 4.3000e+000 91216 -1.3598e+001  2.9896e+000  1.5975e+000 41636 90922,90870,91190
 4.3000e+000 91239  2.0254e+001 -2.8026e+001  1.6110e+001 41636 90922,91190,91026
 4.3000e+000 91696  1.4508e+000 -4.9853e+001 -5.4501e+000 40449 91448,91526,91474
 4.3000e+000 91673 -2.2242e+001 -6.3269e+001  2.5080e+000 40449 91448,91578,91526
 4.3000e+000 91650  5.7385e+000 -8.5346e-002 -5.6188e+000 40449 91474,91526,91500
 4.3000e+000 91627  5.4856e+000 -4.5492e+001  1.0274e+001 40449 91422,91578,91448
 4.3000e+000 91604  1.6024e+001 -4.3736e+001 -8.9640e+000 40449 91526,91578,91552
 4.3000e+000 92123  2.3774e+000 -5.7603e+001 -6.8657e-001 39995 92146,91904,91826
 4.3000e+000 92100 -8.9458e+000 -6.4093e+001 -1.1831e+001 39995 92146,91826,91800
 4.3000e+000 92077 -3.0610e+001 -3.5657e+001 -4.6666e+000 39995 91826,91904,91852
 4.3000e+000 92054 -1.6760e+001 -1.2760e+002 -2.0581e+001 39995 91904,91982,91930
 4.3000e+000 92031 -6.8904e+000 -2.1053e+001  7.7739e+000 39995 91852,91904,91878
 4.3000e+000 92008 -4.6171e+000 -9.3950e+001 -2.3912e+001 39995 91930,91982,91956
 4.3000e+000 92172  1.0114e+001 -7.1561e+001 -1.2444e+001 39995 91982,91904,92146
 4.3000e+000 92195 -2.2808e+000 -8.8678e+001 -2.2363e+001 39995 91982,92146,91800
 4.3000e+000 92652  9.8945e-001  1.7766e+001  7.1432e+000 39633 92404,92534,92456
 4.3000e+000 92629 -5.6121e+000  1.5287e+001  4.7702e+000 39633 92378,92534,92404
 4.3000e+000 92606 -1.2555e+001  1.2412e+001  1.0275e+001 39633 92404,92456,92430
 4.3000e+000 92583  4.2613e-001  9.3189e+000  5.4515e+000 39633 92456,92534,92508
 4.3000e+000 92560  2.4325e+000  6.0197e+000  6.7194e+000 39633 92456,92508,92482
 4.3000e+000 93079 -2.9750e-001 -2.0119e+001 -5.5026e+000 39093 93102,92808,92756
 4.3000e+000 93056  2.5074e+000 -2.2023e+001 -3.2404e+000 39093 93102,92756,92938
 4.3000e+000 93033  1.4451e+000 -1.8917e+001 -1.6952e+000 39093 93174,92912,92834
 4.3000e+000 93010 -4.5479e-002 -8.2967e-001  7.1650e+000 39093 92834,92912,92860
 4.3000e+000 92987  8.7738e-001 -3.3995e+001 -1.0719e+001 39093 92756,92808,92782
 4.3000e+000 92964  1.0681e+001  1.4274e+001 -4.3365e+000 39093 92860,92912,92886
 4.3000e+000 93128  1.6770e+000 -1.5057e+001 -4.4083e+000 39093 92834,92808,93102
 4.3000e+000 93151  4.2005e-001 -2.0365e+001 -3.5106e+000 39093 93174,92834,93102
 4.3000e+000 93200  2.5504e+000 -1.8607e+001 -1.2825e+000 39093 92938,92912,93174
 4.3000e+000 93223  3.9910e+000 -1.8701e+001 -2.8644e+000 39093 92938,93174,93102
 4.3000e+000 93680  1.6841e+000  6.3244e+000  1.6154e+000 38639 93703,93536,93484
 4.3000e+000 93657  2.1017e+000  6.4661e+000  1.4770e+000 38639 93703,93484,93432
 4.3000e+000 93634  1.8587e+000  4.4262e+000  3.7326e+000 38639 93432,93484,93458
 4.3000e+000 93611  2.0718e+000  8.2311e+000  4.4244e+000 38639 93484,93536,93510
 4.3000e+000 93588  9.1043e+000  1.3816e+001  4.2626e+000 38639 93406,93562,93432
 4.3000e+000 93729  2.1348e+000  5.7865e+000  1.6444e+000 38639 93562,93536,93703
 4.3000e+000 93752  3.0627e+000  6.4715e+000  1.2951e+000 38639 93562,93703,93432
 4.3000e+000 94160  6.3133e+000  1.7108e+001  3.5340e+000 38292 93935,94039,93961
 4.3000e+000 94137 -4.3210e-001 -2.7682e-001  5.1425e+000 38292 93935,94065,94039
 4.3000e+000 94114 -5.4897e+000 -1.5804e+001 -4.5539e+000 38292 93961,94013,93987
 4.3000e+000 94091  1.1218e+001 -2.0262e+001  4.5456e+000 38292 93961,94039,94013
 4.3000e+000 94408  1.9428e+001 -1.0146e+001  7.7400e+000 37880 94431,94261,94235
 4.3000e+000 94385  3.0799e+001 -7.1109e+000  1.2828e+001 37880 94431,94235,94313
 4.3000e+000 94362  2.4893e+001 -1.5728e+001  1.6515e+001 37880 94209,94313,94235
 4.3000e+000 94339  3.8428e+001  2.8122e+001 -2.9948e+000 37880 94183,94313,94209
 4.3000e+000 94457 -8.3753e-001 -4.1543e+000  7.9063e+000 37880 94287,94261,94431
 4.3000e+000 94480  1.7573e+001  2.8914e+000  1.1917e+001 37880 94287,94431,94313
 4.3000e+000 94728 -1.7052e+001 -5.8950e+001 -1.0164e+000 37426 94529,94607,94555
 4.3000e+000 94705  7.3012e+000 -1.2015e+002 -1.5022e+001 37426 94529,94633,94607
 4.3000e+000 94682 -5.7536e+000 -1.2846e+002 -1.8643e+001 37426 94503,94633,94529
 4.3000e+000 94659 -9.7448e+000 -2.7505e+001 -1.6390e+001 37426 94555,94607,94581
 4.3000e+000 95257  2.8969e+000 -3.7489e+000  1.9078e+000 36722 95496,95280,94862
 4.3000e+000 95234 -5.2550e+000 -7.3491e+000  1.3813e+000 36722 95496,94862,94836
 4.3000e+000 95211 -4.5272e-001 -2.1401e+000 -1.6066e+000 36722 95352,95280,95070
 4.3000e+000 95188 -4.4040e-001 -4.3199e+000 -2.4648e+000 36722 95352,95070,95044
 4.3000e+000 95165 -6.9412e+000 -8.4614e+000  5.5165e+000 36722 95424,94888,94862
 4.3000e+000 95142 -3.2758e+000  6.7869e+000 -8.4266e-002 36722 94914,94966,94940
 4.3000e+000 95119  9.7445e-002 -2.9246e+000 -2.9450e+000 36722 94966,95044,95018
 4.3000e+000 95096 -1.0549e+000 -3.1167e+000 -4.5219e+000 36722 94966,95018,94992
 4.3000e+000 95306  1.6043e+000 -3.6329e+000  1.6551e+000 36722 95424,94862,95280
 4.3000e+000 95329  5.7985e+000  7.6745e+000 -4.1711e+000 36722 94914,95280,94966
 4.3000e+000 95378  2.6119e-001 -1.2340e+000 -6.3886e-001 36722 94966,95280,95352
 4.3000e+000 95401  1.0179e+000 -2.1430e+000 -1.4704e+000 36722 94966,95352,95044
 4.3000e+000 95450  4.9441e+000 -1.2060e+000  2.2693e+000 36722 94914,94888,95424
 4.3000e+000 95473  5.8255e+000 -3.1578e+000  3.2728e-001 36722 94914,95424,95280
 4.3000e+000 95522  3.9469e+000 -4.5776e+000  1.4923e+000 36722 95070,95280,95496
 4.3000e+000 95545  3.7264e+000 -4.1926e+000  1.7508e+000 36722 95070,95496,94836
 4.3000e+000 96130  4.1986e+000  9.1339e-001 -4.0511e-001 36268 96153,95911,95859
 4.3000e+000 96107  5.1365e+000  5.7036e+000  5.0147e-002 36268 96153,95859,95807
 4.3000e+000 96084  3.8771e+000  4.5114e+000  1.8650e+000 36268 95807,95859,95833
 4.3000e+000 96061  1.1907e-001  9.3868e-001 -1.7013e+000 36268 95911,95989,95937
 4.3000e+000 96038  3.1118e+000  5.2178e-001 -5.6403e-002 36268 95859,95911,95885
 4.3000e+000 96015  2.5226e+000  1.9073e-001 -9.9336e-001 36268 95937,95989,95963
 4.3000e+000 96179  1.5176e+000  5.2887e+000 -1.5100e+000 36268 95989,95911,96153
 4.3000e+000 96202  3.4151e+000  1.1443e+001 -8.3687e-001 36268 95989,96153,95807
 4.3000e+000 96531 -4.5536e+000 -3.5862e+001  1.8034e+001 35728 96358,96410,96384
 4.3000e+000 96508  8.1733e+000 -2.3714e+001  1.2471e+001 35728 96332,96410,96358
 4.3000e+000 96485 -2.1630e+000 -3.5662e+001  2.1810e+001 35728 96332,96436,96410
 4.3000e+000 96462 -8.7772e-001 -1.1924e+001 -1.7698e+000 35728 96306,96436,96332
 4.3000e+000 96860  6.1334e+000 -1.6639e+001  2.3271e+000 35324 96687,96765,96713
 4.3000e+000 96837  1.3246e+001 -2.0836e+000 -2.5902e+000 35324 96661,96765,96687
 4.3000e+000 96814  1.7199e+000  1.3323e+001 -1.4150e+001 35324 96713,96765,96739
 4.3000e+000 96791 -3.6860e+000  3.0344e+000 -3.4209e+000 35324 96635,96765,96661
 4.3000e+000 97366 -1.4805e+000 -3.0360e+001  2.8070e-001 34920 97389,97069,97043
 4.3000e+000 97343 -2.5203e-001 -2.9821e+001  1.4572e+000 34920 97389,97043,97199
 4.3000e+000 97320  5.8879e+000 -1.7463e+001 -6.8223e-001 34920 97043,97225,97199
 4.3000e+000 97297  2.4883e+001 -9.9519e+001  1.0832e+001 34920 97069,97121,97095
 4.3000e+000 97274  1.3416e+001 -3.4052e+001 -1.8610e+000 34920 97121,97199,97173
 4.3000e+000 97251  5.7307e-001 -2.2639e+001 -1.3343e+001 34920 97121,97173,97147
 4.3000e+000 97415 -2.9548e+000 -3.0741e+001 -8.3297e-001 34920 97121,97069,97389
 4.3000e+000 97438 -2.0946e+000 -2.9609e+001  5.4512e-001 34920 97121,97389,97199
 4.3000e+000 97708 -2.4904e+001  2.5131e+000  6.5344e+000 34722 97509,97587,97535
 4.3000e+000 97685 -1.4102e+001  4.9268e+000  3.9050e+000 34722 97509,97613,97587
 4.3000e+000 97662 -1.5448e+001  3.8551e+000  3.0563e+000 34722 97483,97613,97509
 4.3000e+000 97639 -1.5621e+001  4.1298e+000  2.6612e+000 34722 97535,97587,97561
 4.3000e+000 98216 -5.5544e+000 -3.2131e+001  1.2632e+001 34318 97971,98075,97997
 4.3000e+000 98193  1.4018e+000 -2.4746e+001  1.8486e+001 34318 97893,98075,97971
 4.3000e+000 98170  2.3715e+001 -3.2082e+001  6.7370e+000 34318 97893,97971,97919
 4.3000e+000 98147 -2.7724e+000 -1.6731e+001  1.4744e+001 34318 97997,98075,98049
 4.3000e+000 98124 -1.3640e+000 -3.2829e+001  5.8849e+000 34318 97919,97971,97945
 4.3000e+000 98101 -1.7233e+001 -4.7574e+001  2.2129e+001 34318 97997,98049,98023
 4.3000e+000 98594  5.1815e+000  9.7964e+000  1.8957e+000 33814 98961,98617,98424
 4.3000e+000 98571  1.8139e+001  6.8608e+000  8.0736e-001 33814 98689,98617,98372
 4.3000e+000 98548  2.3856e+001  2.3991e+001 -2.6862e+000 33814 99033,98689,98372
 4.3000e+000 98525  1.3807e+001  1.1797e+001  2.4410e+000 33814 98761,98476,98450
 4.3000e+000 98502 -9.4994e-001  9.6299e+000 -9.0756e-002 33814 98961,98424,98398
 4.3000e+000 98643  1.4882e+001  1.5715e+001  5.1234e+000 33814 98450,98424,98617
 4.3000e+000 98666  1.2848e+001  1.3094e+001  4.0613e+000 33814 98761,98450,98617
 4.3000e+000 98715  1.8541e+001  4.7188e+000  2.3588e+000 33814 99161,98689,98320
 4.3000e+000 98738 -2.4179e+000 -1.0385e+000  7.9968e+000 33814 98320,98689,98346
 4.3000e+000 98787  1.7927e+001  6.8190e+000  5.7378e+000 33814 98833,98761,98320
 4.3000e+000 98810  1.8072e+001  3.9231e+000  3.3040e+000 33814 99161,98320,98761
 4.3000e+000 98859  1.7252e+001  2.1013e+001  2.1136e+000 33814 98476,98761,98833
 4.3000e+000 98987  1.6843e+001  3.9080e+000 -5.8884e-002 33814 98372,98617,98961
 4.3000e+000 99010  9.5924e+000  2.1535e+000 -3.5499e+000 33814 98372,98961,98398
 4.3000e+000 99059  1.8533e+001  5.7773e+000  5.9080e+000 33814 98346,98689,99033
 4.3000e+000 99187  1.8817e+001  7.0884e+000  8.6479e-001 33814 98617,98689,99161
 4.3000e+000 99210  1.7264e+001  5.6361e+000  2.0101e+000 33814 98617,99161,98761
 4.3000e+000 99588  4.5409e+000  8.8473e+000  5.2937e+000 33566 99366,99444,99392
 4.3000e+000 99565  2.1676e+000  1.0880e+001  5.1847e+000 33566 99314,99444,99366
 4.3000e+000 99542  2.2788e+000  3.3630e+000  1.4610e+000 33566 99314,99366,99340
 4.3000e+000 99519  3.1609e+000  1.5130e+001 -2.1457e-001 33566 99314,99470,99444
 4.3000e+000 99496  2.7722e+000  3.0368e+001  1.5590e+001 33566 99392,99444,99418
 4.3000e+000 99787  4.4112e+000  1.5395e+001  1.9926e+000 33105 99637,99689,99663
 4.3000e+000 99764  1.1274e+001  1.9194e+001  1.4158e-001 33105 99611,99689,99637
 4.3000e+000 99741  1.0695e+001  2.4219e+001  1.5517e+000 33105 99611,99715,99689
 4.3000e+000 100167 -1.2541e+001 -3.7888e+001  2.2508e+001 32651 100190,99971,99919
 4.3000e+000 100144  7.5336e+000 -2.1112e+001  1.5037e+001 32651 100262,100190,99919
 4.3000e+000 100121  6.1510e+000 -2.0718e+001  1.3972e+001 32651 100262,99919,100049
 4.3000e+000 100098 -4.3937e+000 -2.4770e+001 -4.7053e+000 32651 99893,100049,99919
 4.3000e+000 100075 -1.6596e+001 -4.6555e+001  2.1154e+001 32651 99919,99971,99945
 4.3000e+000 100216  7.7343e+000 -4.2052e+001  7.9103e+000 32651 99997,99971,100190
 4.3000e+000 100239  1.9337e+001 -2.6544e+001  9.0503e-001 32651 99997,100190,100023
 4.3000e+000 100288  6.1344e+000 -2.3210e+001  1.4370e+001 32651 100023,100190,100262
 4.3000e+000 100311  3.9488e+000 -2.3032e+001  1.2683e+001 32651 100023,100262,100049
 4.3000e+000 100608  5.3035e+000  8.0744e+000 -8.7071e-001 32254 100386,100490,100464
 4.3000e+000 100585  7.6063e-002  1.1537e+001 -6.6694e+000 32254 100360,100490,100386
 4.3000e+000 100562 -4.6277e-001  2.9354e+000 -3.3207e+000 32254 100386,100464,100412
 4.3000e+000 100539  1.2162e+000  1.5640e+001  8.6963e-001 32254 100334,100490,100360
 4.3000e+000 100516  7.5890e+000  4.7667e+000  2.4407e+000 32254 100412,100464,100438
 4.3000e+000 100758  7.6311e-001  3.8112e+000 -9.4598e-001 31914 100985,100781,100683
 4.3000e+000 100735 -8.9276e+000 -2.4398e+000  8.0940e+000 31914 100853,100781,100657
 4.3000e+000 100807  7.4578e+000  3.8963e+000 -6.3406e+000 31914 100709,100683,100781
 4.3000e+000 100830 -1.8705e+000  2.4042e+000  1.9312e+000 31914 100709,100781,100631
 4.3000e+000 100879 -3.3550e+000 -7.2609e+000  6.1369e+000 31914 100631,100781,100853
 4.3000e+000 101011  2.5796e+000 -2.0637e+000  1.2841e+000 31914 100657,100781,100985
 4.3000e+000 101191 -3.2280e+001  3.1775e+001 -4.2758e+000 31418 101113,101165,101139
 4.3000e+000 101341 -5.7639e+001 -9.7297e+001 -8.1925e+000 31106 101214,101266,101240
 4.3000e+000 101318 -3.3732e+001 -2.6366e+001  2.6296e+000 31106 101214,101292,101266
 4.3000e+000 101591 -1.0236e+001 -4.2001e+001  2.0152e+001 30552 101614,101470,101444
 4.3000e+000 101568 -8.9258e+000 -3.2979e+001  1.0300e+001 30552 101366,101496,101470
 4.3000e+000 101545 -4.4218e+000 -3.9803e+001  1.5349e+001 30552 101614,101444,101392
 4.3000e+000 101522 -2.8523e+000 -1.3050e+001 -4.1509e+000 30552 101392,101444,101418
 4.3000e+000 101640 -2.0985e+000 -4.2738e+001  1.7066e+001 30552 101366,101470,101614
 4.3000e+000 101663  2.8794e+000 -4.1233e+001  1.2316e+001 30552 101366,101614,101392
 4.3000e+000 102301  3.6953e+000 -5.1763e+001 -1.1397e+001 30042 102396,102324,102059
 4.3000e+000 102278 -7.3791e+000 -4.9347e+001 -2.8721e+001 30042 102324,101981,101955
 4.3000e+000 102255 -8.3349e+000 -3.9466e+001  6.9796e+000 30042 102396,102059,102033
 4.3000e+000 102232 -8.0738e+000 -2.6924e+001  9.7998e-001 30042 101929,102111,101955
 4.3000e+000 102209  1.3720e+000 -5.4889e+001 -1.4788e+000 30042 102059,102111,102085
 4.3000e+000 102186 -7.3259e+000 -2.6625e+001  8.8916e-001 30042 101929,102137,102111
 4.3000e+000 102163 -4.0856e-001  1.3564e+000 -8.9948e-001 30042 101981,102033,102007
 4.3000e+000 102350  1.7792e+001 -4.7066e+001 -8.8589e+000 30042 102111,102059,102324
 4.3000e+000 102373  1.4003e+001 -5.0979e+001 -1.1439e+001 30042 102111,102324,101955
 4.3000e+000 102422  1.8404e+001 -1.0015e+001 -1.6275e+001 30042 101981,102324,102396
 4.3000e+000 102445  6.6433e+000  2.4524e+000  2.6069e+000 30042 101981,102396,102033
 4.3000e+000 103000  4.2586e+001 -3.4724e+001 -4.9453e-002 29730 103023,102706,102654
 4.3000e+000 102977  1.0231e+001 -4.1989e+001 -3.3576e+000 29730 103023,102654,102810
 4.3000e+000 102954 -2.2119e+001 -6.2331e+001 -4.2486e+000 29730 102732,102810,102784
 4.3000e+000 102931  1.2943e+001 -4.6329e+001 -4.1959e+000 29730 102628,102810,102654
 4.3000e+000 102908  3.4372e+001 -1.4168e+000  1.3707e+001 29730 102654,102706,102680
 4.3000e+000 102885 -6.3234e+000 -1.5505e+001 -1.1865e+001 29730 102732,102784,102758
 4.3000e+000 102862  1.4547e+001 -5.3112e+001  2.1848e+001 29730 102628,102836,102810
 4.3000e+000 103049  2.3940e+001 -3.8160e+001 -1.6994e+001 29730 102732,102706,103023
 4.3000e+000 103072  3.7470e+000 -3.5488e+001 -1.9314e+001 29730 102732,103023,102810
 4.3000e+000 103222  8.9828e+000 -1.1073e-001  6.9348e-001 29226 103095,103147,103121
 4.3000e+000 103199  1.0510e+001  9.1733e+000 -2.9454e+000 29226 103095,103173,103147
 4.3000e+000 103730 -5.5876e+000 -6.0003e+001  7.0828e+000 28822 103537,103589,103563
 4.3000e+000 103707  1.3303e+000 -3.9473e+001  5.2631e+000 28822 103433,103589,103537
 4.3000e+000 103684  1.0199e+001 -2.9855e+001 -5.3688e+000 28822 103433,103537,103459
 4.3000e+000 103661  1.5598e+001 -5.5194e+001  9.3908e+000 28822 103407,103589,103433
 4.3000e+000 103638  2.6448e+000 -9.7454e-002  1.1958e+001 28822 103459,103511,103485
 4.3000e+000 103615 -1.5489e+001 -4.2291e-001  1.1920e+001 28822 103459,103537,103511
 4.3000e+000 103880  1.6924e+001 -2.3728e+001  1.0456e+001 28368 103975,103903,103779
 4.3000e+000 103857  1.0954e+000 -8.3876e+001  5.8863e+000 28368 103903,103753,103831
 4.3000e+000 103929  4.9012e-001 -4.6734e+000 -5.8688e-001 28368 103805,103779,103903
 4.3000e+000 103952 -2.4901e+000 -3.5369e+001  1.4997e+000 28368 104105,103903,103831
 4.3000e+000 104001  1.0650e+001 -3.4129e+001 -3.2509e+000 28368 103753,103903,103975
 4.3000e+000 104131  2.0181e-001 -3.1384e+001  6.5255e+000 28368 103805,103903,104105
 4.3000e+000 104539  4.7635e+000  6.7189e+000  7.7848e+000 28028 104562,104340,104314
 4.3000e+000 104516  5.7338e+000  1.5286e+001  8.6720e+000 28028 104634,104562,104314
 4.3000e+000 104493 -4.1466e+000  2.9824e+000  1.8439e-001 28028 104762,104366,104340
 4.3000e+000 104470 -8.9851e-001  1.5578e+000 -1.9014e+000 28028 104366,104418,104392
 4.3000e+000 104588  1.1206e+000  2.0627e+000  2.5909e+000 28028 104762,104340,104562
 4.3000e+000 104611  7.2296e+000  1.0569e+001  4.6713e+000 28028 104418,104562,104444
 4.3000e+000 104660  5.1502e+000  1.0144e+001  8.0559e+000 28028 104444,104562,104634
 4.3000e+000 104788  1.3163e+000  5.0888e+000  1.7358e+000 28028 104418,104366,104762
 4.3000e+000 104811  6.8807e+000  5.1124e+000  4.6235e+000 28028 104418,104762,104562
 4.3000e+000 105010  4.7299e+000 -1.7808e-001 -7.3537e+000 27324 105033,104886,104860
 4.3000e+000 104987 -8.8888e-001  5.0273e-001  8.3520e-001 27324 105033,104860,104834
 4.3000e+000 104964  1.0455e+001  8.0456e+000 -8.1559e+000 27324 105105,104912,104886
 4.3000e+000 105059  6.9849e+000  7.4201e+000 -9.1155e+000 27324 105105,104886,105033
 4.3000e+000 105082  5.2780e+000  4.3936e+000 -3.8278e+000 27324 104938,105033,104834
 4.3000e+000 105131  1.8873e+001  7.5161e+000 -4.5525e+000 27324 104938,104912,105105
 4.3000e+000 105154  1.3150e+001  3.5901e+000 -6.8061e+000 27324 104938,105105,105033
 4.3000e+000 105402  1.4819e-001 -5.6296e-001 -2.2463e+000 27012 105229,105281,105255
 4.3000e+000 105379  4.4214e+000  3.2783e+000 -3.8564e+000 27012 105229,105307,105281
 4.3000e+000 105356  9.7367e+000  9.0392e+000 -1.3662e+000 27012 105177,105307,105229
 4.3000e+000 105333  8.2295e-001 -4.2542e+000 -6.1340e+000 27012 105177,105229,105203
 4.3000e+000 105603 -3.6107e+000  1.0383e+001 -1.1682e+001 26508 105626,105453,105427
 4.3000e+000 105580 -4.4483e+000  7.7490e+000  2.1077e+000 26508 105626,105427,105505
 4.3000e+000 105557  1.7264e+000  6.8544e+000  3.4533e+000 26508 105427,105531,105505
 4.3000e+000 105652 -1.4922e+001  5.4364e+000 -8.8478e+000 26508 105479,105453,105626
 4.3000e+000 105675 -1.7441e+001  4.5362e+000  3.7132e+000 26508 105479,105626,105505
 4.3000e+000 106057  1.0648e+000  2.8047e+000 -3.0121e+000 25947 106080,105887,105861
 4.3000e+000 106034  3.3339e+000  6.4255e+000 -5.7025e+000 25947 106080,105861,105783
 4.3000e+000 106011  6.1365e+000  8.0965e+000 -6.6840e+000 25947 105783,105835,105809
 4.3000e+000 105988  2.7519e+000  4.3136e+000 -5.2415e+000 25947 105783,105861,105835
 4.3000e+000 105965  5.6976e-001  1.1918e+001 -9.4098e+000 25947 105887,105939,105913
 4.3000e+000 106106  1.7940e+000  4.3718e+000 -6.2724e+000 25947 105939,105887,106080
 4.3000e+000 106129  6.8380e+000  1.1119e+001 -9.4710e+000 25947 105939,106080,105783
 4.3000e+000 106714  1.3905e+001  1.5979e+000 -1.0877e+001 25557 106809,106737,106547
 4.3000e+000 106691  1.2518e+001 -1.1447e+001 -1.3134e+000 25557 106737,106417,106391
 4.3000e+000 106668  2.3407e+001  4.3095e+000 -1.1999e+001 25557 106809,106547,106495
 4.3000e+000 106645  1.4357e+001 -3.9544e+001  1.3182e+001 25557 106417,106495,106469
 4.3000e+000 106622  1.6648e+001  9.0503e+000 -2.1586e+000 25557 106495,106547,106521
 4.3000e+000 106599 -8.2656e+000 -1.6964e+001  6.7970e+000 25557 106417,106469,106443
 4.3000e+000 106763  5.5107e+000 -3.3253e+000 -5.4245e+000 25557 106573,106547,106737
 4.3000e+000 106786  1.8857e+001  2.2126e+000 -3.7588e+000 25557 106573,106737,106391
 4.3000e+000 106835  2.5301e+001 -1.6924e+000 -6.7084e+000 25557 106417,106737,106809
 4.3000e+000 106858  3.0977e+001 -1.7240e+000 -8.9381e+000 25557 106417,106809,106495
 4.3000e+000 107364  3.0941e-002 -1.8523e+000 -3.9091e+000 25153 107459,107387,107171
 4.3000e+000 107341  3.1336e+000 -3.6409e+000 -1.7054e+000 25153 107387,107119,107067
 4.3000e+000 107318  1.0430e+000  2.7808e+000  5.0883e-001 25153 107459,107171,107145
 4.3000e+000 107295  2.6274e+000 -1.3487e+000 -1.2120e+001 25153 107531,107223,107197
 4.3000e+000 107272  1.4002e+001  1.7152e+001 -7.6567e+000 25153 107067,107119,107093
 4.3000e+000 107249  1.1770e+001 -6.4680e-001 -1.3131e+001 25153 107041,107223,107067
 4.3000e+000 107413 -2.9181e+001 -1.2461e+001 -3.4953e+000 25153 107197,107171,107387
 4.3000e+000 107436 -4.4692e-001 -7.9219e+000 -3.7072e+000 25153 107531,107197,107387
 4.3000e+000 107485  2.7258e+000  5.7533e+000  1.1397e-002 25153 107119,107387,107459
 4.3000e+000 107508  6.3451e+000  1.0565e+001  5.0871e+000 25153 107119,107459,107145
 4.3000e+000 107557  6.8026e+000  6.0979e+000 -1.4233e+001 25153 107067,107223,107531
 4.3000e+000 107580  6.4396e+000  6.3053e+000 -6.0731e+000 25153 107067,107531,107387
 4.3000e+000 107958  9.5502e+000 -2.1854e+001 -1.5209e+000 24741 107736,107814,107788
 4.3000e+000 107935 -5.3212e+000 -4.0281e+001 -1.5672e+001 24741 107736,107840,107814
 4.3000e+000 107912 -2.5920e+000 -3.3396e+001 -1.4719e+001 24741 107684,107840,107736
 4.3000e+000 107889  5.3650e+000  9.2224e+000 -1.2474e+001 24741 107736,107788,107762
 4.3000e+000 107866 -1.1541e+001 -6.1471e+001 -1.8692e+001 24741 107684,107736,107710
 4.3000e+000 108157  9.4267e-001 -4.9127e+000 -8.7084e+000 24237 108180,108059,108007
 4.3000e+000 108134  9.8772e+000  2.2110e+000 -4.7501e+000 24237 108180,108007,107981
 4.3000e+000 108111 -6.6047e+000 -7.0461e+000 -6.8929e+000 24237 108007,108059,108033
 4.3000e+000 108206  4.6183e+000 -6.8425e-002 -6.0392e-001 24237 108085,108059,108180
 4.3000e+000 108229  1.3196e+001  6.9065e+000  3.3067e+000 24237 108085,108180,107981
 4.3000e+000 108658  1.3802e+001 -1.6922e+001  1.2781e+001 23776 108361,108413,108387
 4.3000e+000 108635 -4.0775e+000 -5.6278e+001 -1.1090e+001 23776 108753,108681,108361
 4.3000e+000 108612  1.2519e+000 -2.3544e+001 -5.4440e+000 23776 108681,108465,108439
 4.3000e+000 108589  1.8634e+000 -6.5103e+001 -1.5872e+000 23776 108753,108361,108335
 4.3000e+000 108566 -6.6336e+000 -4.5840e+001  7.2765e+000 23776 108335,108517,108465
 4.3000e+000 108543 -5.1200e+000 -6.2394e+001  1.0097e+001 23776 108465,108517,108491
 4.3000e+000 108707 -5.9761e+000 -2.1578e+001 -1.0755e+001 23776 108413,108361,108681
 4.3000e+000 108730 -2.1454e+000  4.7226e+000  4.4896e+000 23776 108413,108681,108439
 4.3000e+000 108779  1.2191e+000 -2.2832e+001 -1.2502e+001 23776 108465,108681,108753
 4.3000e+000 108802 -2.9743e+000 -4.8385e+001 -5.4101e+000 23776 108465,108753,108335
 4.3000e+000 109023  7.7572e-001 -6.7115e+000 -2.7090e+000 23414 108873,108925,108899
 4.3000e+000 109000  4.1016e+000 -4.7474e+000 -1.8497e+000 23414 108847,108925,108873
 4.3000e+000 108977  9.0097e+000  9.8316e+000  1.1108e+000 23414 108847,108951,108925
 4.3000e+000 109474 -8.5013e-001  1.3266e+001  8.4881e-001 23024 109151,109307,109177
 4.3000e+000 109451  1.6788e+000  9.0248e-001  1.2018e+000 23024 109151,109333,109307
 4.3000e+000 109428  1.2553e+001 -3.5889e+001  2.5991e-001 23024 109177,109281,109203
 4.3000e+000 109405  4.2970e+000 -1.1614e+001 -1.4395e+001 23024 109177,109307,109281
 4.3000e+000 109382  8.6482e+000 -2.9515e+001  4.7896e+000 23024 109203,109281,109229
 4.3000e+000 109359 -1.3328e+000 -2.4545e+001 -1.7204e+000 23024 109229,109281,109255
 4.3000e+000 109820  1.2315e+000 -2.6282e+001  1.3046e+000 22506 109843,109601,109523
 4.3000e+000 109797  6.9507e+000 -1.7153e+001 -2.5173e+000 22506 109843,109523,109497
 4.3000e+000 109774  6.3243e+000 -3.5330e+001 -5.7223e-001 22506 109915,109653,109627
 4.3000e+000 109751  8.0112e+000 -1.2571e+001 -6.3942e+000 22506 109497,109679,109653
 4.3000e+000 109728 -1.5164e+000 -3.3357e+001 -8.2068e+000 22506 109523,109601,109575
 4.3000e+000 109705 -1.3640e+001 -4.6368e+001 -1.3512e+001 22506 109523,109575,109549
 4.3000e+000 109869  1.0163e+001 -2.1933e+001  3.2708e+000 22506 109627,109601,109843
 4.3000e+000 109892  1.0812e+001 -2.6933e+001  2.1156e+000 22506 109915,109627,109843
 4.3000e+000 109941  2.5714e+000 -2.8571e+001 -5.6579e+000 22506 109497,109653,109915
 4.3000e+000 109964  3.2034e+000 -2.7701e+001 -4.0080e+000 22506 109497,109915,109843
 4.3000e+000 110163  6.6400e+000 -1.3303e+001  1.4755e+000 21936 110186,110039,110013
 4.3000e+000 110140  2.2304e+001 -1.4849e+000  6.8463e+000 21936 110390,110186,110013
 4.3000e+000 110117  3.6732e+001 -1.4351e+001  2.0720e+001 21936 110390,110013,109987
 4.3000e+000 110212  1.9741e+001  1.0937e+001 -1.4638e+001 21936 110065,110039,110186
 4.3000e+000 110235 -2.8823e+000 -5.5641e+000 -6.0693e+000 21936 110258,110186,110091
 4.3000e+000 110284 -1.8079e+001 -7.9053e+000 -8.2392e+000 21936 110065,110186,110258
 4.3000e+000 110416 -9.4053e+000 -8.8397e+000  1.0369e+001 21936 110091,110186,110390
 4.3000e+000 110439  1.1803e+001 -1.7333e+001  2.2780e+001 21936 110091,110390,109987
 4.3000e+000 110709  1.3972e+001 -1.9688e+001  7.5894e-001 21338 110510,110614,110588
 4.3000e+000 110686  1.1193e+001 -2.8837e+001 -1.2714e+000 21338 110484,110614,110510
 4.3000e+000 110663  2.2259e+001  7.8001e+000  1.0038e+000 21338 110510,110562,110536
 4.3000e+000 110640  1.1002e+001 -1.9207e+001 -1.0944e+000 21338 110510,110588,110562
 4.3000e+000 111296  7.6866e+000 -1.0735e+001 -2.7264e+000 20934 111025,111155,111103
 4.3000e+000 111273 -1.9470e+000 -4.3787e+001 -1.2285e+000 20934 110999,111155,111025
 4.3000e+000 111250  8.5782e-002 -1.4221e+001 -1.6563e+000 20934 111103,111155,111129
 4.3000e+000 111227 -1.6062e+000 -4.0269e+001 -9.3735e+000 20934 111051,111103,111077
 4.3000e+000 111204 -2.8365e+000 -3.7593e+001 -7.5283e+000 20934 111025,111103,111051
 4.3000e+000 111181 -3.9567e+000 -4.9709e+001 -2.0736e+000 20934 110973,111155,110999
 4.3000e+000 111930 -1.0093e+001 -4.0763e+001 -3.4927e+001 20494 111662,111714,111688
 4.3000e+000 111907 -1.0991e+001 -9.3439e+000 -2.5775e+001 20494 111584,111714,111662
 4.3000e+000 111884  1.1465e+001  8.1976e+000 -3.3500e+001 20494 111584,111766,111714
 4.3000e+000 111861  4.7680e+001  1.4156e+001 -2.2698e+001 20494 111584,111636,111610
 4.3000e+000 111838  1.4360e+001  3.3141e+000 -4.1390e+001 20494 111584,111662,111636
 4.3000e+000 111815 -3.5483e+000  1.4407e+001 -1.5734e+001 20494 111558,111766,111584
 4.3000e+000 111792  6.3450e+000  1.5191e+001 -2.4035e+000 20494 111714,111766,111740
 4.3000e+000 112249 -2.1406e+001 -1.5200e+002  1.5017e+001 19940 111975,112053,112001
 4.3000e+000 112226  2.0459e+001 -6.6489e+001  1.6595e+000 19940 111975,112131,112053
 4.3000e+000 112203  2.5372e+000 -1.3296e+002  0.0000e+000 19940 112053,112105,112079
 4.3000e+000 112180 -2.9110e+000 -1.2757e+002  2.8931e+000 19940 112053,112131,112105
 4.3000e+000 112157  2.6136e+000 -1.2520e+002 -4.6352e+000 19940 112001,112053,112027
 4.3000e+000 112757  1.0558e+001 -2.0981e+001 -7.9955e+000 19486 112780,112538,112486
 4.3000e+000 112734  9.7718e+000 -2.1992e+001 -3.2678e+000 19486 112780,112486,112460
 4.3000e+000 112711  2.5686e+000 -1.8358e+001 -3.8947e+000 19486 112852,112616,112590
 4.3000e+000 112688  3.2042e+001 -3.1823e+001 -1.0141e+001 19486 112486,112538,112512
 4.3000e+000 112665 -3.0500e+000 -2.6700e+001  1.7273e+000 19486 112434,112616,112460
 4.3000e+000 112642  3.5712e+000 -1.7000e+001 -5.7154e+000 19486 112538,112590,112564
 4.3000e+000 112806  7.5124e+000 -2.2566e+001 -7.1970e+000 19486 112590,112538,112780
 4.3000e+000 112829  1.0602e+001 -2.0019e+001 -5.4191e+000 19486 112852,112590,112780
 4.3000e+000 112878 -2.7812e+000 -2.0103e+001 -1.6874e+000 19486 112460,112616,112852
 4.3000e+000 112901  1.9050e+000 -2.4820e+001 -2.4467e+000 19486 112460,112852,112780
 4.3000e+000 113252 -1.7009e+001 -4.1708e+001 -2.2711e+000 19096 113105,113157,113131
 4.3000e+000 113229 -1.2644e+001 -2.7752e+001 -8.6562e-001 19096 113053,113157,113105
 4.3000e+000 113206 -8.6899e+000 -2.6043e+001 -4.6008e-001 19096 113027,113157,113053
 4.3000e+000 113183 -2.1671e+001 -4.6218e+001  2.1274e+000 19096 113053,113105,113079
 4.3000e+000 113451  1.3181e+001 -5.9109e+001 -2.0297e+001 18642 113327,113379,113353
 4.3000e+000 113428  6.1234e+000 -8.0323e+001 -1.6671e+001 18642 113301,113379,113327
 4.3000e+000 113405  1.9958e+001 -5.3896e+001 -6.0041e+000 18642 113275,113379,113301
 4.3000e+000 113699  1.5032e+001 -4.5290e+001 -4.4836e+000 18138 113474,113552,113526
 4.3000e+000 113676  3.2081e+001 -5.4676e+001 -1.3413e+001 18138 113474,113578,113552
 4.3000e+000 113653  3.3663e+001 -5.4747e+001 -1.3990e+001 18138 113474,113604,113578
 4.3000e+000 113630  2.3230e+001 -2.9657e+001 -1.2823e+000 18138 113474,113526,113500
 4.3000e+000 113851  4.4997e+000 -4.5986e+001 -2.4626e+000 17682 113750,113802,113776
 4.3000e+000 113828  8.3962e+000 -4.0618e+001 -9.6075e-002 17682 113724,113802,113750
 4.3000e+000 114383  2.7622e+001 -8.5240e+001 -3.7812e+000 17106 114086,114242,114164
 4.3000e+000 114360  2.2203e+001 -8.7442e+001 -2.4449e+000 17106 114060,114242,114086
 4.3000e+000 114337 -5.0108e+000 -1.6703e+002  1.6420e+001 17106 114086,114164,114138
 4.3000e+000 114314 -3.9147e+001 -2.4654e+002 -3.0504e+000 17106 114190,114242,114216
 4.3000e+000 114291 -1.2228e+001 -1.7507e+002 -1.6859e+001 17106 114164,114242,114190
 4.3000e+000 114268  1.5380e+001 -1.5338e+002  3.0524e+001 17106 114086,114138,114112
 4.3000e+000 114680 -1.5564e+001 -6.1157e+001 -1.6477e+000 16766 114703,114432,114406
 4.3000e+000 114657 -1.6891e+001 -6.4144e+001 -2.0444e+000 16766 114703,114406,114510
 4.3000e+000 114634 -1.4112e+001 -4.0282e+001  2.4754e+000 16766 114406,114536,114510
 4.3000e+000 114611 -1.1855e+001 -6.8569e+001 -4.0376e+000 16766 114432,114484,114458
 4.3000e+000 114588 -3.8347e+001 -6.1159e+001  2.9591e+001 16766 114406,114562,114536
 4.3000e+000 114729 -1.1166e+001 -6.3298e+001  1.3790e+000 16766 114484,114432,114703
 4.3000e+000 114752 -1.4202e+001 -6.8140e+001 -2.2513e-001 16766 114484,114703,114510
 4.3000e+000 114902  5.4624e+001 -1.4529e+002 -3.1561e+001 16362 114775,114827,114801
 4.3000e+000 114879  2.3663e+001 -1.5038e+002 -2.6283e+001 16362 114775,114853,114827
 4.3000e+000 115054 -1.6951e+002 -2.6279e+002 -1.6986e+001 15908 114953,115005,114979
 4.3000e+000 115031 -1.5441e+002 -2.8254e+002 -1.2808e+001 15908 114927,115005,114953
 4.3000e+000 115326  1.1170e+001 -2.4640e+001  1.5494e+001 15251 115101,115179,115153
 4.3000e+000 115303  7.4340e+000 -2.2484e+001  1.8686e+000 15251 115101,115231,115179
 4.3000e+000 115280  8.7067e+000 -1.9813e+001  1.4992e+000 15251 115179,115231,115205
 4.3000e+000 115257 -2.6780e+001 -1.4500e+002  1.1347e+001 15251 115101,115153,115127
 4.3000e+000 115429 -4.5395e+000 -6.7529e+001  1.6467e+001 421 115351,115403,115377
 4.4000e+000 66230  1.4935e+001 -5.3820e+000 -3.7389e+000 65954 66152,66204,66178
 4.4000e+000 66429  2.8591e+000 -1.7195e+000 -5.5733e+000 65642 66279,66331,66305
 4.4000e+000 66406  3.3459e+000  6.8043e+000 -1.9691e+000 65642 66279,66357,66331
 4.4000e+000 66383 -4.2109e+000 -6.2345e+000  2.5918e+000 65642 66253,66357,66279
 4.4000e+000 66628 -2.2868e-001  4.4031e+000 -2.8829e-001 65444 66452,66530,66478
 4.4000e+000 66605  1.1052e+000  2.0424e+000 -1.0637e+000 65444 66452,66556,66530
 4.4000e+000 66582 -1.0967e-001  2.1810e+000 -1.4742e-003 65444 66478,66530,66504
 4.4000e+000 67006 -2.0794e+000  2.5619e+000  1.6638e+000 65246 66732,66810,66758
 4.4000e+000 66983 -1.6461e+000  8.4315e-001  1.3397e+000 65246 66732,66836,66810
 4.4000e+000 66960  1.1841e+000  2.9249e+000  4.8788e+000 65246 66732,66862,66836
 4.4000e+000 66937  1.2696e+000 -7.4250e-002 -1.3990e+000 65246 66758,66810,66784
 4.4000e+000 66914  5.1462e+000 -5.8081e+000 -1.6071e+000 65246 66732,66888,66862
 4.4000e+000 67107  3.8098e+000 -2.5020e+000 -3.8465e-001 64934 67029,67081,67055
 4.4000e+000 67306 -2.6966e+000  3.2088e+000  6.1733e-001 64736 67156,67208,67182
 4.4000e+000 67283 -7.4277e-001  4.4159e+000  2.0881e-002 64736 67130,67208,67156
 4.4000e+000 67260  1.7500e+000  2.5858e+000  1.4154e+000 64736 67130,67234,67208
 4.4000e+000 67507 -9.2105e-001 -3.5791e-001  6.0031e-001 64389 67357,67409,67383
 4.4000e+000 67484 -1.4396e+000  4.5984e+000  2.9080e-001 64389 67357,67435,67409
 4.4000e+000 67461  2.5594e+000  2.0776e+000  6.5467e-001 64389 67331,67435,67357
 4.4000e+000 67708  5.6578e+000  2.3095e+000 -4.0636e-001 63985 67731,67584,67558
 4.4000e+000 67685  2.6965e+000  5.0084e+000 -5.3613e-001 63985 67731,67558,67636
 4.4000e+000 67662  2.6602e+000  5.3645e+000 -9.9404e-002 63985 67532,67636,67558
 4.4000e+000 67757  3.7883e+000  1.5278e+000 -1.2458e+000 63985 67610,67584,67731
 4.4000e+000 67780  4.8109e-001  3.4818e+000 -1.7495e+000 63985 67610,67731,67636
 4.4000e+000 67981 -1.9658e+000  2.6801e+000 -1.5597e+000 63787 67857,67909,67883
 4.4000e+000 67958  8.2189e-001  1.1675e-001 -2.8033e-001 63787 67831,67909,67857
 4.4000e+000 67935  5.3538e+000  4.0397e+000  2.4627e+000 63787 67805,67909,67831
 4.4000e+000 68231  7.8519e-001  1.0018e+000  2.7160e-001 63589 68254,68084,68032
 4.4000e+000 68208  1.2956e-002  3.3790e+000 -7.9106e-002 63589 68254,68032,68006
 4.4000e+000 68185  2.3147e+000  5.4517e+000  1.5542e+000 63589 68326,68136,68110
 4.4000e+000 68162 -2.9820e-001  5.9345e-001  9.2245e-002 63589 68032,68084,68058
 4.4000e+000 68280 -6.8921e-001  3.2234e+000  1.1878e+000 63589 68110,68084,68254
 4.4000e+000 68303  1.1404e+000  4.9665e+000  1.9500e+000 63589 68326,68110,68254
 4.4000e+000 68352  3.5310e+000  6.5369e+000 -1.4081e+000 63589 68006,68136,68326
 4.4000e+000 68375  1.5304e+000  5.5129e+000 -9.1475e-001 63589 68006,68326,68254
 4.4000e+000 68836 -7.8002e+000  5.8235e-001 -5.3854e+000 63128 68859,68588,68562
 4.4000e+000 68813  8.0927e-003  2.4573e+000 -4.2890e+000 63128 68859,68562,68692
 4.4000e+000 68790  1.0179e+000  5.2755e+000  1.4323e+000 63128 68614,68692,68666
 4.4000e+000 68767  5.3277e+000  5.8542e+000 -2.5921e+000 63128 68562,68718,68692
 4.4000e+000 68744 -4.2027e-002  3.1846e+000  3.3861e+000 63128 68614,68666,68640
 4.4000e+000 68885 -7.6217e+000  1.6911e+000  1.2741e+000 63128 68614,68588,68859
 4.4000e+000 68908 -6.9021e-001  2.6825e+000  2.1876e+000 63128 68614,68859,68692
 4.4000e+000 69237  2.1729e+000 -1.6647e+000  2.0311e+000 62731 69064,69116,69090
 4.4000e+000 69214 -2.9386e-001 -6.8051e+000  5.9049e-001 62731 69064,69142,69116
 4.4000e+000 69191 -1.0689e+000 -5.6580e+000  1.4149e+000 62731 69038,69142,69064
 4.4000e+000 69168  9.1446e-001 -7.1236e+000  1.9938e+000 62731 69012,69142,69038
 4.4000e+000 69539  4.4611e-001 -1.6297e+000  4.5590e-001 62433 69389,69467,69441
 4.4000e+000 69516  1.8436e-002  1.9290e-001  1.5120e-001 62433 69363,69467,69389
 4.4000e+000 69493  1.8790e-001  4.1674e-001 -1.1416e+000 62433 69389,69441,69415
 4.4000e+000 69966  2.6998e+000  1.2473e+001  2.3339e+000 62235 69989,69773,69721
 4.4000e+000 69943  1.5478e+000  1.2360e+001  2.5611e+000 62235 70061,69989,69721
 4.4000e+000 69920 -5.8540e-001  1.7409e+001  7.1079e-001 62235 70061,69721,69643
 4.4000e+000 69897  3.4069e+000  3.7410e+000  4.3793e+000 62235 69721,69773,69747
 4.4000e+000 69874  1.4203e+001  6.1441e+001  3.9356e+000 62235 69643,69721,69695
 4.4000e+000 69851 -1.6047e+001 -5.6752e+001  1.4619e+001 62235 69643,69695,69669
 4.4000e+000 70015  7.4082e-001  1.1783e+001  5.5011e+000 62235 69799,69773,69989
 4.4000e+000 70038  8.7472e+000  1.5114e+001  5.4006e+000 62235 69799,69989,69825
 4.4000e+000 70087  7.2823e+000  1.6516e+001  6.0560e-001 62235 69825,69989,70061
 4.4000e+000 70110  2.0495e+000  1.8798e+001 -1.6049e-004 62235 69825,70061,69643
 4.4000e+000 70260 -6.0769e-001  4.5162e+000 -7.3166e-001 62037 70133,70185,70159
 4.4000e+000 70237  7.3538e-001  2.9882e+000  4.0282e-001 62037 70133,70211,70185
 4.4000e+000 70640 -1.6788e+000  1.2163e+000 -1.0254e+000 61583 70735,70663,70418
 4.4000e+000 70617 -7.1572e-001  3.7919e+000  2.7899e-001 61583 70663,70366,70522
 4.4000e+000 70594 -1.7969e+000  1.0731e+000 -1.1288e+000 61583 70735,70418,70392
 4.4000e+000 70571 -2.5860e+000  9.4229e-001 -7.3868e-001 61583 70418,70496,70444
 4.4000e+000 70548 -1.2152e+000 -1.8899e+000 -7.5903e-001 61583 70444,70496,70470
 4.4000e+000 70689 -1.6189e+000  1.3861e+000 -9.9041e-001 61583 70496,70418,70663
 4.4000e+000 70712 -2.8185e+000  1.6363e+000 -5.8444e-001 61583 70496,70663,70522
 4.4000e+000 70761 -1.4062e+000  1.2441e+000 -7.3327e-001 61583 70366,70663,70735
 4.4000e+000 70784 -1.6045e+000  1.0683e+000 -8.4247e-001 61583 70366,70735,70392
 4.4000e+000 71054  7.1820e-001  2.9030e+000 -1.9399e+000 61313 71077,70881,70855
 4.4000e+000 71031  2.8805e-001  1.3062e+000 -1.6735e+000 61313 71077,70855,70829
 4.4000e+000 71008  1.2715e+000  1.3618e+000 -7.4401e-001 61313 70829,70959,70933
 4.4000e+000 70985 -1.4759e+000  3.1211e+000  3.1044e-001 61313 70881,70933,70907
 4.4000e+000 71103  4.3221e-001  1.9826e+000 -1.1302e+000 61313 70933,70881,71077
 4.4000e+000 71126  4.1399e-001  1.0155e+000 -8.6801e-001 61313 70933,71077,70829
 4.4000e+000 71604 -4.9330e-002  3.2288e+000  3.3072e+000 60909 71627,71232,71414
 4.4000e+000 71581  3.3760e+000  6.6414e+000  8.4533e-001 60909 71232,71440,71414
 4.4000e+000 71558 -2.4428e+000  3.4150e+000  2.4813e+000 60909 71627,71414,71336
 4.4000e+000 71535  9.4208e-001 -1.4255e+000  9.7861e+000 60909 71362,71414,71388
 4.4000e+000 71512 -6.7345e+000 -5.4611e-001  8.1922e+000 60909 71336,71414,71362
 4.4000e+000 71489 -7.2017e+000  5.9632e-001  1.3025e+000 60909 71258,71336,71310
 4.4000e+000 71466  7.6430e-001  2.9244e+000  1.1389e+000 60909 71258,71310,71284
 4.4000e+000 71653  1.5680e+000  2.5997e+000  2.1413e+000 60909 71258,71232,71627
 4.4000e+000 71676 -7.0424e-001  2.7520e+000  1.9697e+000 60909 71258,71627,71336
 4.4000e+000 71875  2.1022e+000  3.7893e+000 -9.3104e-001 60611 71898,71725,71699
 4.4000e+000 71852  2.6053e+000  2.9382e+000 -1.6141e+000 60611 71898,71699,71803
 4.4000e+000 71829  2.9978e-001 -2.6839e-001 -8.0524e-001 60611 71970,71751,71725
 4.4000e+000 71924  1.3566e+000  2.1630e+000 -6.9934e-001 60611 71970,71725,71898
 4.4000e+000 71947  2.0304e+000  4.1977e+000 -8.2750e-001 60611 71777,71898,71803
 4.4000e+000 71996  4.5478e-002  2.5781e+000 -1.4938e+000 60611 71777,71751,71970
 4.4000e+000 72019  4.5298e-001  3.4616e+000 -1.6861e+000 60611 71777,71970,71898
 4.4000e+000 72576  4.8614e+000  1.3475e+001 -2.1430e-001 60142 72599,72256,72230
 4.4000e+000 72553  2.4719e+000  7.1751e+000  8.1938e-002 60142 72671,72599,72230
 4.4000e+000 72530  3.5884e+000  8.2244e+000 -4.6231e-001 60142 72671,72230,72204
 4.4000e+000 72507  6.7328e+000  2.8864e+000  1.0224e+000 60142 72743,72360,72334
 4.4000e+000 72484 -1.0206e-001  4.3059e+000  4.8210e+000 60142 72815,72282,72256
 4.4000e+000 72461 -2.0156e+000  7.9205e-001  3.6354e+000 60142 72887,72308,72282
 4.4000e+000 72438  4.3355e+000  7.6813e+000 -2.3723e-001 60142 72204,72412,72386
 4.4000e+000 72625  1.3655e+000  7.2701e+000  4.3479e+000 60142 72815,72256,72599
 4.4000e+000 72648  6.0852e+000  4.3303e+000  1.2889e+000 60142 72743,72334,72599
 4.4000e+000 72697  3.3388e+000  6.5563e+000  4.5648e-001 60142 72386,72599,72671
 4.4000e+000 72720  3.3377e+000  6.9717e+000  2.2838e-001 60142 72386,72671,72204
 4.4000e+000 72769  4.5556e+000  4.0570e+000 -1.8094e+000 60142 72386,72360,72743
 4.4000e+000 72792  5.1596e+000  7.2732e+000 -1.2774e-001 60142 72386,72743,72599
 4.4000e+000 72841  7.0852e-001  1.9323e+000  3.3452e+000 60142 72887,72282,72815
 4.4000e+000 72864  6.6434e+000  4.2017e+000  3.0954e+000 60142 72334,72815,72599
 4.4000e+000 72913  1.4401e+000  1.9716e-001  4.7531e+000 60142 72334,72308,72887
 4.4000e+000 72936  2.2798e+000  5.5539e-001  4.6711e+000 60142 72334,72887,72815
 4.4000e+000 73491  2.0407e+000 -1.3630e+001 -5.9207e+000 59738 73145,73327,73171
 4.4000e+000 73468  5.9909e+000 -8.2841e+000 -4.1254e+000 59738 73119,73327,73145
 4.4000e+000 73445  3.6490e-001  1.8420e+000  3.6814e+000 59738 73171,73327,73301
 4.4000e+000 73422  2.8815e+000 -5.0101e-001 -1.1180e-001 59738 73514,73275,73249
 4.4000e+000 73399  8.5738e+000  9.4732e+000 -3.5916e+000 59738 73586,73514,73249
 4.4000e+000 73376  1.0011e+001  1.8303e+001 -9.5448e+000 59738 73197,73249,73223
 4.4000e+000 73353  1.3847e+001  1.4491e+001 -1.1046e+001 59738 73586,73249,73197
 4.4000e+000 73540  6.6794e+000 -1.9513e+000 -4.9159e-001 59738 73301,73275,73514
 4.4000e+000 73563  5.8319e-001 -3.7246e+000  4.1996e+000 59738 73301,73514,73171
 4.4000e+000 73612  6.6925e+000 -2.8189e+000  2.6310e+000 59738 73171,73514,73586
 4.4000e+000 73635  8.0849e+000  2.4773e+000 -3.8143e+000 59738 73171,73586,73197
 4.4000e+000 73964 -2.6150e-001  2.6628e+000 -1.1344e+000 59334 73791,73843,73817
 4.4000e+000 73941  5.9431e-001  3.4856e+000 -7.6658e-001 59334 73791,73869,73843
 4.4000e+000 73918  2.0405e+000  7.4503e+000 -2.4388e+000 59334 73739,73869,73791
 4.4000e+000 73895  1.2389e+000  6.6991e+000 -2.1438e+000 59334 73739,73791,73765
 4.4000e+000 74261  7.2796e-001  1.0116e+001 -3.0359e+000 58630 74065,74117,74091
 4.4000e+000 74238  3.7618e+000  3.7562e+000 -2.7269e+000 58630 74356,74284,74065
 4.4000e+000 74215  4.9108e+000 -1.0406e-001 -1.5270e-001 58630 74284,74013,73987
 4.4000e+000 74192  2.7498e+000  2.1758e+000 -3.9615e+000 58630 74356,74065,74039
 4.4000e+000 74169  2.6037e+000  2.2253e+000  3.5742e-001 58630 73987,74143,74117
 4.4000e+000 74310  4.0072e+000  1.1676e+001 -2.7851e+000 58630 74117,74065,74284
 4.4000e+000 74333  3.3259e+000  4.0580e+000 -6.7086e-002 58630 74117,74284,73987
 4.4000e+000 74382  5.2904e+000  6.0944e+000 -5.1619e-001 58630 74013,74284,74356
 4.4000e+000 74405  4.2533e+000  4.2853e+000 -1.7483e+000 58630 74013,74356,74039
 4.4000e+000 74815  1.7892e+000 -6.1826e-001 -4.9952e-001 58226 74590,74642,74616
 4.4000e+000 74792  1.9498e+000  1.6792e+000 -1.8458e-001 58226 74590,74694,74642
 4.4000e+000 74769  1.5274e+000  2.9578e+000 -8.0880e-001 58226 74590,74720,74694
 4.4000e+000 74746  5.1264e-001 -6.2959e-001 -8.2691e-001 58226 74642,74694,74668
 4.4000e+000 75014  2.0516e-001  5.6218e+000  1.7307e+000 57786 75037,74864,74838
 4.4000e+000 74991  5.7143e-001 -3.8295e-001 -2.1967e-001 57786 75037,74838,74916
 4.4000e+000 74968  5.2079e-001 -4.7619e-001 -1.1618e-001 57786 74838,74942,74916
 4.4000e+000 75063  1.4591e+000  1.1787e+001  3.6147e+000 57786 74890,74864,75037
 4.4000e+000 75086  9.8850e-001  4.8614e+000  1.4827e+000 57786 74890,75037,74916
 4.4000e+000 75368 -9.6287e+000  1.2176e+001  4.3040e+000 57496 75192,75270,75218
 4.4000e+000 75345  1.4103e+001  2.3420e+001  7.4910e+000 57496 75192,75296,75270
 4.4000e+000 75322  1.1342e+001  1.6078e+001  1.9209e+001 57496 75218,75270,75244
 4.4000e+000 75648 -1.5270e+000  7.7163e-001 -2.2201e+000 57206 75472,75550,75498
 4.4000e+000 75625 -8.5785e+000  4.5125e+000  2.7853e+000 57206 75472,75576,75550
 4.4000e+000 75602 -6.3505e+000  8.0722e+000  7.8247e+000 57206 75671,75550,75524
 4.4000e+000 75697  7.1597e+000  3.8769e+000  9.2342e+000 57206 75498,75550,75671
 4.4000e+000 76154  8.4057e-001  7.3886e+000  1.6178e+000 56802 75958,76010,75984
 4.4000e+000 76131  1.7088e+000  5.7128e+000  8.3287e-001 56802 75932,76010,75958
 4.4000e+000 76108  1.1293e+000  8.0788e+000 -1.2827e+000 56802 75906,76010,75932
 4.4000e+000 76085  1.9830e+000  6.7116e+000 -1.1061e+000 56802 75880,76010,75906
 4.4000e+000 76062  2.8667e+000  6.6618e+000 -2.2453e+000 56802 75880,76036,76010
 4.4000e+000 76505  3.1078e-001 -1.4260e-001 -4.4774e-001 56504 76306,76384,76332
 4.4000e+000 76482 -4.9337e-001 -3.6115e-001 -3.4265e-001 56504 76306,76410,76384
 4.4000e+000 76459  7.3778e-001  2.2160e-001 -1.5328e-001 56504 76332,76384,76358
 4.4000e+000 76436  4.0240e-002 -6.4686e-002 -2.2533e-001 56504 76280,76410,76306
 4.4000e+000 77011  1.3657e+001  6.4207e+000 -7.6179e+000 56050 76740,76818,76792
 4.4000e+000 76988  3.6464e+000  2.2283e+000 -7.6897e+000 56050 76714,76818,76740
 4.4000e+000 76965  1.4993e+001  1.9352e+000 -1.0104e+001 56050 76688,76818,76714
 4.4000e+000 76942  3.4110e+001  2.3477e+001  3.6378e+000 56050 76688,76844,76818
 4.4000e+000 76919  9.4012e+000 -1.8264e+000 -5.2745e+000 56050 76740,76792,76766
 4.4000e+000 76896  2.3622e+001  2.0513e+000  6.8382e+000 56050 76688,76870,76844
 4.4000e+000 77517 -1.3821e+001 -3.0536e+000  9.2050e+000 55738 77220,77350,77324
 4.4000e+000 77494  4.1955e+000 -1.1238e+001 -2.1438e+000 55738 77220,77376,77350
 4.4000e+000 77471  9.6535e+000  6.0839e+000 -2.3512e+000 55738 77194,77376,77220
 4.4000e+000 77448  3.1576e-001 -6.2372e+000  5.2033e+000 55738 77220,77298,77246
 4.4000e+000 77425 -5.3023e+000 -2.1936e+000  1.0914e+001 55738 77220,77324,77298
 4.4000e+000 77402 -6.6983e+000 -8.0674e+000  1.5682e+001 55738 77246,77298,77272
 4.4000e+000 78064  1.4096e+001  4.1432e+000 -2.5459e+000 55227 78231,78087,77773
 4.4000e+000 78041 -4.4465e+000 -9.5364e+000 -2.2004e+000 55227 78087,77695,77643
 4.4000e+000 78018  1.8306e+000 -6.2386e+000 -1.2990e+001 55227 78159,77799,77773
 4.4000e+000 77995  9.4731e+000  1.1116e+001 -1.0434e-001 55227 78231,77773,77721
 4.4000e+000 77972 -1.6607e-001 -1.8382e-001  9.9233e-001 55227 77643,77695,77669
 4.4000e+000 77949 -2.2424e+000 -2.1860e+000  1.3160e+000 55227 77643,77877,77851
 4.4000e+000 77926 -1.0181e+000  3.0846e+001 -1.6783e+001 55227 77799,77851,77825
 4.4000e+000 77903  9.0872e+000  1.4220e+001 -2.1388e+000 55227 77721,77773,77747
 4.4000e+000 78113  9.2606e+000 -5.4592e+000 -9.6388e+000 55227 78159,77773,78087
 4.4000e+000 78136  4.0457e+000  1.0387e+001 -4.3876e+000 55227 77851,78087,77643
 4.4000e+000 78185 -1.3126e+001 -1.1884e+000 -1.3602e+001 55227 77851,77799,78159
 4.4000e+000 78208 -6.0899e+000 -1.2321e+000 -1.0904e+001 55227 77851,78159,78087
 4.4000e+000 78257  8.5437e+000 -2.3940e+000 -5.1774e+000 55227 77695,78087,78231
 4.4000e+000 78280  2.3496e+000  4.0352e+000 -3.2971e+000 55227 77695,78231,77721
 4.4000e+000 78737  3.4782e+000  5.1985e+000  1.7145e+000 54773 78463,78541,78515
 4.4000e+000 78714  3.4765e+000  7.1426e+000  1.1151e+000 54773 78463,78619,78541
 4.4000e+000 78691  3.2515e+000  4.7380e+000  1.8371e+000 54773 78463,78515,78489
 4.4000e+000 78668  1.7024e-001 -3.2738e-001  8.2200e-001 54773 78541,78593,78567
 4.4000e+000 78645  9.1188e-001  1.2586e+000  1.4665e+000 54773 78541,78619,78593
 4.4000e+000 78838  9.2795e-001  5.5588e+000 -4.9033e-002 54211 78760,78812,78786
 4.4000e+000 79297  1.1840e+001  1.2317e+001  1.7550e+000 53814 79520,79153,79049
 4.4000e+000 79274  9.1686e+000  1.3068e+001 -3.5141e-001 53814 79520,79049,79023
 4.4000e+000 79251  7.8626e+000  2.9882e+001 -2.5463e+000 53814 79320,79101,79049
 4.4000e+000 79228  3.6827e+000  1.9500e+001  3.0844e+000 53814 79320,79049,79153
 4.4000e+000 79205  8.8622e+000  1.9000e+001 -4.6647e+000 53814 79049,79101,79075
 4.4000e+000 79346  4.2718e+000  1.1582e+001  4.5140e+000 53814 79392,79320,79127
 4.4000e+000 79369  4.3902e+000  1.9688e+001  4.9690e+000 53814 79127,79320,79153
 4.4000e+000 79418  1.1989e+000  2.6655e+001  6.2433e+000 53814 79101,79320,79392
 4.4000e+000 79546  1.1853e+001  1.1605e+001 -1.0652e+000 53814 79179,79153,79520
 4.4000e+000 79569  4.9867e+000  1.0380e+001 -3.0750e+000 53814 79179,79520,79023
 4.4000e+000 80075 -1.4539e+001 -3.5620e+000  9.3061e+000 53039 80098,79908,79830
 4.4000e+000 80052 -1.7528e+001 -1.1857e+000 -2.5603e+000 53039 80098,79830,79804
 4.4000e+000 80029  2.4503e-001  5.1167e+000 -1.9732e-001 53039 79752,79934,79804
 4.4000e+000 80006  2.2601e+000 -1.8462e+001  1.1568e+001 53039 79856,79908,79882
 4.4000e+000 79983  8.2754e+000 -3.3262e+001  1.1097e+001 53039 79830,79908,79856
 4.4000e+000 79960 -2.4551e+000  3.3421e+000 -2.5192e+000 53039 79752,79804,79778
 4.4000e+000 80124  4.2364e+000  4.7144e+000  1.0846e+001 53039 79934,79908,80098
 4.4000e+000 80147 -9.1033e+000  2.6682e+000 -1.5978e+000 53039 79934,80098,79804
 4.4000e+000 80555  2.7231e+001  2.1908e+001 -2.4837e+000 52699 80356,80434,80408
 4.4000e+000 80532  6.8943e+000  9.7678e+000  3.9966e+000 52699 80356,80460,80434
 4.4000e+000 80509  2.5895e+000  5.8620e+000  1.7760e+000 52699 80330,80460,80356
 4.4000e+000 80486 -9.0579e-001  4.8041e+000  2.4003e+001 52699 80356,80408,80382
 4.4000e+000 80776  1.0794e+001  2.7127e+001 -1.0394e+001 52295 80600,80678,80626
 4.4000e+000 80753 -1.3071e+001  8.0600e+000 -2.1153e+000 52295 80600,80704,80678
 4.4000e+000 80730 -3.4480e+001  8.7276e+000 -6.9245e+000 52295 80626,80678,80652
 4.4000e+000 81156  7.7148e+000 -7.4424e+000  6.7367e+000 51891 81179,80960,80908
 4.4000e+000 81133  7.4527e+000 -1.0114e+001 -1.1615e+000 51891 81179,80908,81012
 4.4000e+000 81110  2.9187e+000  1.2902e+000 -6.6991e+000 51891 80882,81012,80908
 4.4000e+000 81087 -1.1020e+000  6.1098e-001  6.4074e+000 51891 80908,80960,80934
 4.4000e+000 81064  3.8469e+000  5.7819e+000 -4.8479e+000 51891 80882,81038,81012
 4.4000e+000 81205  1.7525e+001 -1.8750e+000  1.0280e+001 51891 80986,80960,81179
 4.4000e+000 81228  1.0493e+001 -8.1871e+000  1.8012e+000 51891 80986,81179,81012
 4.4000e+000 81606  1.8872e+000 -8.5380e+001 -2.0361e+001 51544 81410,81462,81436
 4.4000e+000 81583  1.1469e+001 -2.4601e+001  4.2589e+000 51544 81384,81462,81410
 4.4000e+000 81560 -7.1760e+000 -3.2165e+001 -1.9916e+000 51544 81358,81462,81384
 4.4000e+000 81537  5.5528e-001 -2.5041e+001 -9.7804e+000 51544 81358,81488,81462
 4.4000e+000 81514  8.6900e+000 -1.3273e+000 -6.6598e+000 51544 81332,81488,81358
 4.4000e+000 81854 -1.2309e+000  7.7971e-001  7.7460e-001 51004 81877,81655,81629
 4.4000e+000 81831 -2.1172e-001  4.5304e+000 -1.9184e-001 51004 81877,81629,81759
 4.4000e+000 81808  7.0772e+000  5.6512e+000  5.6238e+000 51004 81655,81707,81681
 4.4000e+000 81785  1.2875e+000  4.9697e+000  6.0262e-002 51004 81707,81759,81733
 4.4000e+000 81903  1.4233e-001 -1.6416e+000  1.4140e+000 51004 81707,81655,81877
 4.4000e+000 81926  5.8458e-002  8.1158e-002  4.8374e-002 51004 81707,81877,81759
 4.4000e+000 82257 -5.8376e-001 -1.5029e+001 -5.0333e+000 50642 82058,82136,82110
 4.4000e+000 82234 -5.8195e+000  4.3529e+000 -1.0199e+001 50642 82058,82162,82136
 4.4000e+000 82211  1.1381e+001 -1.0119e+000 -2.4898e+001 50642 82058,82110,82084
 4.4000e+000 82188  3.3837e+001  2.0108e+001  6.8423e+000 50642 82032,82162,82058
 4.4000e+000 82684  1.8248e+001 -5.7731e+001  1.2581e+001 49931 82779,82707,82465
 4.4000e+000 82661 -3.7017e+000 -6.5721e+001  1.1258e+001 49931 82707,82413,82361
 4.4000e+000 82638 -1.5750e+000 -5.8381e+001 -7.3007e+000 49931 82779,82465,82439
 4.4000e+000 82615  1.0553e+001 -1.5311e+002  1.2924e+001 49931 82465,82543,82491
 4.4000e+000 82592 -7.5385e+000 -5.0134e+001 -2.1809e+000 49931 82361,82413,82387
 4.4000e+000 82569  5.1667e+000 -1.1222e+002  1.2873e+001 49931 82491,82543,82517
 4.4000e+000 82733  4.7183e+001 -6.7562e+001  9.7352e+000 49931 82543,82465,82707
 4.4000e+000 82756  1.3387e+001 -5.6855e+001  3.1647e+000 49931 82543,82707,82361
 4.4000e+000 82805  3.5796e+000 -8.6802e+001 -2.8976e+000 49931 82413,82707,82779
 4.4000e+000 82828 -6.7950e+000 -8.1004e+001 -2.1753e+001 49931 82413,82779,82439
 4.4000e+000 83255  6.1570e+000 -6.2183e+001 -4.9995e+000 49327 82984,83114,83036
 4.4000e+000 83232 -9.4162e-001 -7.5863e+001 -2.5966e+001 49327 82958,83114,82984
 4.4000e+000 83209 -8.9597e+000 -9.2085e+001  6.1427e+000 49327 83036,83114,83088
 4.4000e+000 83186 -1.2290e+001 -3.6221e+001  1.4116e+001 49327 82984,83036,83010
 4.4000e+000 83163 -8.8030e+000 -6.6071e+001 -2.0331e+001 49327 82932,83114,82958
 4.4000e+000 83140 -2.1964e+001 -1.6631e+002 -1.7081e-001 49327 83036,83088,83062
 4.4000e+000 83938 -6.6688e+000 -9.0120e+001  2.1848e+001 48965 83961,83673,83647
 4.4000e+000 83915  7.4038e+000 -3.1673e+001  2.6685e+001 48965 83961,83647,83543
 4.4000e+000 83892 -9.1978e+000 -4.2012e+001 -6.9656e+000 48965 83517,83725,83543
 4.4000e+000 83869 -1.5510e+001 -6.5165e+001 -1.3324e+001 48965 83673,83725,83699
 4.4000e+000 83846 -6.7482e+000 -1.2821e+001  5.6371e+000 48965 83543,83647,83621
 4.4000e+000 83823  8.4609e-001 -2.1066e+001  2.3012e+000 48965 83543,83621,83569
 4.4000e+000 83800 -9.7643e+000 -4.1915e+001 -5.6617e+000 48965 83517,83751,83725
 4.4000e+000 83777 -1.4836e+000 -2.1170e+001  5.3268e+000 48965 83569,83621,83595
 4.4000e+000 83987 -8.0109e+000 -8.2082e+001 -1.5644e+001 48965 83725,83673,83961
 4.4000e+000 84010  2.2998e+000 -5.7200e+001 -4.1157e+000 48965 83725,83961,83543
 4.4000e+000 84258 -9.4063e+000 -6.4582e+001  1.5269e+001 48447 84281,84059,84033
 4.4000e+000 84235 -3.1231e+000 -4.6799e+001  2.1884e+000 48447 84281,84033,84163
 4.4000e+000 84212  3.2294e+000 -3.5215e+001 -7.8008e+000 48447 84059,84111,84085
 4.4000e+000 84189  1.0946e+001 -3.2868e+001 -1.2406e+001 48447 84111,84163,84137
 4.4000e+000 84307  1.6888e+000 -6.0118e+001  1.1491e+000 48447 84111,84059,84281
 4.4000e+000 84330  1.3051e+001 -4.7706e+001 -1.1508e+001 48447 84111,84281,84163
 4.4000e+000 84529  1.9817e+001 -2.4128e+001  2.3910e+000 47993 84552,84405,84379
 4.4000e+000 84506  9.2443e+000 -2.9428e+001  6.1077e-001 47993 84552,84379,84353
 4.4000e+000 84483  1.2847e+001 -3.0869e+001 -2.5565e+000 47993 84624,84457,84431
 4.4000e+000 84578  2.3729e+001 -2.7429e+001 -3.2201e+000 47993 84431,84405,84552
 4.4000e+000 84601  1.5663e+001 -3.0373e+001 -2.5294e+000 47993 84624,84431,84552
 4.4000e+000 84650  1.5647e+001 -3.1988e+001 -4.6387e-001 47993 84353,84457,84624
 4.4000e+000 84673  1.9095e+001 -3.0548e+001  1.3939e-001 47993 84353,84624,84552
 4.4000e+000 85104 -5.3268e+000 -6.8696e+001 -5.2180e+000 47588 85199,85127,84885
 4.4000e+000 85081 -5.9777e+000 -7.8330e+001 -9.5790e+000 47588 85127,84781,84963
 4.4000e+000 85058 -1.8253e+001 -6.4517e+001  1.0503e+001 47588 85199,84885,84807
 4.4000e+000 85035  5.1818e+000 -4.6223e+001  2.4064e+001 47588 84885,84937,84911
 4.4000e+000 85012 -2.2016e+000 -3.7350e+001  8.6830e-001 47588 84807,84885,84833
 4.4000e+000 84989 -8.1779e+000 -3.8972e+001  2.9046e+001 47588 84833,84885,84859
 4.4000e+000 85153 -6.9390e+000 -8.5305e+001 -1.8257e+000 47588 84937,84885,85127
 4.4000e+000 85176  1.9223e+001 -7.7783e+001 -2.5355e+000 47588 84937,85127,84963
 4.4000e+000 85225 -3.1088e+001 -7.9777e+001 -6.7618e+000 47588 84781,85127,85199
 4.4000e+000 85248 -3.8039e+001 -7.3006e+001  1.0888e+001 47588 84781,85199,84807
 4.4000e+000 85518 -1.8447e+001 -1.5185e+002  2.2779e+001 47226 85293,85397,85319
 4.4000e+000 85495 -7.8498e+000 -1.3835e+002  1.2865e+001 47226 85293,85423,85397
 4.4000e+000 85472 -2.2904e+000 -1.5744e+002 -5.9034e+000 47226 85319,85397,85345
 4.4000e+000 85449  2.1458e+001 -2.5160e+001 -1.0007e+001 47226 85345,85397,85371
 4.4000e+000 85849 -1.4824e+001 -7.1387e+001  2.9686e+001 46572 85624,85702,85650
 4.4000e+000 85826 -6.5552e+000 -8.5576e+001  7.8122e+000 46572 85624,85754,85702
 4.4000e+000 85803  2.2353e+001 -4.0268e+001  2.2618e+001 46572 85702,85754,85728
 4.4000e+000 85780 -1.0334e+001 -7.1567e+001  3.5373e+001 46572 85650,85702,85676
 4.4000e+000 86070 -5.7210e+001 -8.3237e+001 -2.5622e+000 46374 85920,85972,85946
 4.4000e+000 86047 -2.7861e+001 -1.4884e+001  8.2884e-001 46374 85920,85998,85972
 4.4000e+000 86024 -1.7061e+001 -5.4294e+000  6.9905e+000 46374 85894,85998,85920
 4.4000e+000 86401  5.3537e+000 -3.2054e+001  7.1214e+000 46034 86424,86280,86228
 4.4000e+000 86378 -8.8398e+000 -3.6865e+001  4.1538e+000 46034 86424,86228,86176
 4.4000e+000 86355 -9.4652e+000 -2.9924e+001 -3.0915e+000 46034 86176,86228,86202
 4.4000e+000 86332  1.8786e+001 -2.6272e+001 -1.4615e+001 46034 86228,86280,86254
 4.4000e+000 86450  3.4429e+001 -4.1255e+001  1.4623e+000 46034 86306,86280,86424
 4.4000e+000 86473  5.4955e+000 -5.5713e+001 -4.1907e+000 46034 86306,86424,86176
 4.4000e+000 87058  6.6545e+000 -3.0469e+001  1.0976e+001 45516 86813,86917,86865
 4.4000e+000 87035  5.5104e-001 -5.3140e+001  2.7449e+000 45516 86787,86917,86813
 4.4000e+000 87012  5.9556e+000 -4.8017e+001  5.4142e+000 45516 86735,86917,86787
 4.4000e+000 86989  1.6254e+000 -2.3931e+001  8.3383e+000 45516 86865,86917,86891
 4.4000e+000 86966 -1.3688e-001 -3.1035e+001  9.1954e+000 45516 86813,86865,86839
 4.4000e+000 86943 -8.2871e+000 -1.0919e+002 -2.2977e+000 45516 86735,86787,86761
 4.4000e+000 87208  2.7916e+001 -1.8883e+001 -1.0653e+001 45226 87231,87133,87107
 4.4000e+000 87185  9.5132e+000 -9.4422e+000 -4.7053e+000 45226 87081,87159,87133
 4.4000e+000 87257  2.2096e+001  1.6754e+001 -9.7859e+000 45226 87081,87133,87231
 4.4000e+000 87537  2.4254e+000 -4.4409e+001  7.8730e+000 44772 87387,87439,87413
 4.4000e+000 87514 -9.4404e+000 -4.9024e+001  7.6803e+000 44772 87361,87439,87387
 4.4000e+000 87491  3.8707e+000 -4.0915e+001  3.1987e+000 44772 87361,87465,87439
 4.4000e+000 87996  1.8956e+000  2.1221e+001  6.6925e+000 44425 87748,87878,87852
 4.4000e+000 87973  2.4292e-001  2.0895e+001 -1.5947e-001 44425 87722,87878,87748
 4.4000e+000 87950  2.3432e+000  1.3224e+001  3.4438e+000 44425 87800,87852,87826
 4.4000e+000 87927  2.1461e+001  2.0803e+001  4.4563e+000 44425 87748,87852,87800
 4.4000e+000 87904  2.0250e+000  1.4372e+001 -9.5537e+000 44425 87748,87800,87774
 4.4000e+000 88423 -1.2189e+001 -3.8197e+001  1.4516e+001 44078 88590,88230,88204
 4.4000e+000 88400 -5.7480e+000 -1.8946e+001  1.1989e+001 44078 88518,88446,88204
 4.4000e+000 88377  6.7409e+000 -4.1425e+001 -8.5622e+000 44078 88446,88126,88282
 4.4000e+000 88354 -5.8932e+000 -8.2113e+000  6.1540e+000 44078 88518,88204,88178
 4.4000e+000 88331  3.9590e+000 -5.5970e+001 -9.0005e+000 44078 88100,88282,88126
 4.4000e+000 88308 -6.0299e+000 -4.3383e+001  1.7570e+001 44078 88126,88178,88152
 4.4000e+000 88472 -1.4196e+001 -4.2617e+001  1.3504e+001 44078 88590,88204,88446
 4.4000e+000 88495 -6.9616e+000 -8.1385e+001 -1.0900e+001 44078 88256,88446,88282
 4.4000e+000 88544 -2.5707e+000 -4.3837e+001  1.4422e+001 44078 88126,88446,88518
 4.4000e+000 88567  3.7071e+000 -2.4161e+001  8.7155e+000 44078 88126,88518,88178
 4.4000e+000 88616 -2.6789e+001 -1.1026e+002  6.4333e+000 44078 88256,88230,88590
 4.4000e+000 88639 -7.4724e+000 -3.7911e+001  7.1679e+000 44078 88256,88590,88446
 4.4000e+000 89039  1.0038e+001  2.0217e+001  4.6335e+000 43716 88791,88921,88895
 4.4000e+000 89016  8.0965e+000  2.1427e+001  4.5185e+000 43716 88765,88921,88791
 4.4000e+000 88993  2.3332e+001  1.0618e+001  7.1067e+000 43716 88817,88895,88869
 4.4000e+000 88970  9.7130e+000  1.4519e+001  1.1171e+001 43716 88791,88895,88817
 4.4000e+000 88947  4.1211e+000  1.1654e+001 -1.7283e-002 43716 88817,88869,88843
 4.4000e+000 89496  2.3014e+000 -6.0599e+001 -6.0967e+000 43162 89519,89274,89248
 4.4000e+000 89473  7.4939e+000 -3.3808e+001 -4.8525e-001 43162 89519,89248,89222
 4.4000e+000 89450  2.6366e+000 -2.5720e+001 -9.5777e+000 43162 89326,89378,89352
 4.4000e+000 89427 -6.6754e-001 -3.4868e+001 -1.8808e+000 43162 89274,89378,89326
 4.4000e+000 89404  2.0715e+000 -3.7380e+001 -1.8677e+000 43162 89274,89326,89300
 4.4000e+000 89545 -2.3163e-001 -3.5925e+001  7.8960e-001 43162 89378,89274,89519
 4.4000e+000 89568  6.6445e+000 -7.1041e+000  6.7714e+000 43162 89378,89519,89222
 4.4000e+000 89946 -4.6249e+000 -2.9702e+001 -3.2317e+001 42594 90041,89969,89750
 4.4000e+000 89923 -4.9561e+000 -2.4400e+001 -1.0003e+001 42594 89969,89698,89828
 4.4000e+000 89900  1.3362e+001 -3.7784e+001 -2.8835e+001 42594 90041,89750,89724
 4.4000e+000 89877 -7.5653e+000 -1.6001e+001 -1.1703e+001 42594 89750,89802,89776
 4.4000e+000 89854  8.9406e+000 -1.0345e+001 -3.1417e+000 42594 89672,89828,89698
 4.4000e+000 89995 -1.6904e+001 -1.9699e+001 -2.3213e+001 42594 89802,89750,89969
 4.4000e+000 90018  6.2918e+000  9.6890e+000 -4.0450e+000 42594 89802,89969,89828
 4.4000e+000 90067  1.2056e+001 -1.8037e+001 -2.5498e+001 42594 89698,89969,90041
 4.4000e+000 90090  3.0832e+001 -3.0150e+001 -2.6156e+001 42594 89698,90041,89724
 4.4000e+000 90517  1.0845e+001 -4.2212e+001 -4.7281e+000 42140 90540,90220,90194
 4.4000e+000 90494  1.5798e+001 -4.1209e+001 -6.8415e+000 42140 90540,90194,90376
 4.4000e+000 90471  3.0443e+000 -4.6595e+001  1.7941e+000 42140 90612,90350,90272
 4.4000e+000 90448 -3.0628e+000 -4.3184e+001 -9.9314e-001 42140 90272,90350,90298
 4.4000e+000 90425  1.7464e+000 -3.0198e+001 -3.0749e-001 42140 90298,90350,90324
 4.4000e+000 90402  1.4884e+001 -2.5514e+001  1.4793e+000 42140 90220,90272,90246
 4.4000e+000 90566  1.1479e+001 -2.6246e+001 -2.8496e+000 42140 90272,90220,90540
 4.4000e+000 90589  4.4080e+000 -4.3477e+001 -1.2359e-001 42140 90612,90272,90540
 4.4000e+000 90638  8.0487e+000 -5.2384e+001 -3.4293e+000 42140 90376,90350,90612
 4.4000e+000 90661  1.4615e+001 -4.4414e+001 -6.4791e+000 42140 90376,90612,90540
 4.4000e+000 91167 -1.1551e+000 -1.5849e+001  8.9460e-001 41636 91190,90870,90844
 4.4000e+000 91144 -7.7222e+000 -9.2680e+001  3.8028e+000 41636 91190,90844,91026
 4.4000e+000 91121 -1.7078e+000  2.2684e+000 -9.3371e+000 41636 90870,90922,90896
 4.4000e+000 91098  1.4028e+001 -7.0937e+001 -2.7379e+000 41636 90922,91026,90948
 4.4000e+000 91075  2.8630e+001 -5.9476e+001 -9.5270e+000 41636 90948,91026,91000
 4.4000e+000 91052 -3.3369e+001 -6.7130e+001  4.0141e+001 41636 90948,91000,90974
 4.4000e+000 91216 -1.1261e+001  6.4900e+000  1.6965e+000 41636 90922,90870,91190
 4.4000e+000 91239  1.8086e+001 -2.0870e+001  1.4422e+001 41636 90922,91190,91026
 4.4000e+000 91696  8.6942e+000 -3.6390e+001 -3.4195e+000 40449 91448,91526,91474
 4.4000e+000 91673 -1.4997e+001 -4.8734e+001  2.2729e+000 40449 91448,91578,91526
 4.4000e+000 91650  7.0283e+000  3.8229e-002 -5.9290e+000 40449 91474,91526,91500
 4.4000e+000 91627  9.3358e+000 -3.3342e+001  8.9427e+000 40449 91422,91578,91448
 4.4000e+000 91604  1.9868e+001 -3.1664e+001 -8.0461e+000 40449 91526,91578,91552
 4.4000e+000 92123  5.4260e+000 -4.8706e+001  1.2656e+000 39995 92146,91904,91826
 4.4000e+000 92100 -6.4823e+000 -5.5136e+001 -7.8266e+000 39995 92146,91826,91800
 4.4000e+000 92077 -2.2550e+001 -2.8557e+001 -2.5954e+000 39995 91826,91904,91852
 4.4000e+000 92054 -1.2838e+001 -1.1223e+002 -1.8711e+001 39995 91904,91982,91930
 4.4000e+000 92031 -4.7161e+000 -1.6599e+001  9.2952e+000 39995 91852,91904,91878
 4.4000e+000 92008 -3.6685e+000 -8.1289e+001 -2.0506e+001 39995 91930,91982,91956
 4.4000e+000 92172  1.3024e+001 -6.1148e+001 -9.9021e+000 39995 91982,91904,92146
 4.4000e+000 92195  1.0234e+000 -7.5830e+001 -1.8178e+001 39995 91982,92146,91800
 4.4000e+000 92652  7.5369e-001  1.3264e+001  5.1917e+000 39633 92404,92534,92456
 4.4000e+000 92629 -4.3163e+000  1.2879e+001  3.4957e+000 39633 92378,92534,92404
 4.4000e+000 92606 -9.9156e+000  9.1036e+000  8.0767e+000 39633 92404,92456,92430
 4.4000e+000 92583 -4.6203e-001  8.5970e+000  5.0291e+000 39633 92456,92534,92508
 4.4000e+000 92560  2.0385e+000  6.1390e+000  6.5051e+000 39633 92456,92508,92482
 4.4000e+000 93079 -5.1550e+000 -1.9766e+001 -6.4356e+000 39093 93102,92808,92756
 4.4000e+000 93056 -1.0068e-001 -2.0346e+001 -4.7295e+000 39093 93102,92756,92938
 4.4000e+000 93033 -1.0742e+000 -1.8496e+001 -1.5829e+000 39093 93174,92912,92834
 4.4000e+000 93010 -3.4110e+000  3.3025e+000  9.1315e+000 39093 92834,92912,92860
 4.4000e+000 92987 -2.6988e+000 -3.6206e+001 -1.3600e+001 39093 92756,92808,92782
 4.4000e+000 92964  1.0721e+001  2.0290e+001 -9.0093e+000 39093 92860,92912,92886
 4.4000e+000 93128 -1.1983e+000 -1.5832e+001 -4.8112e+000 39093 92834,92808,93102
 4.4000e+000 93151 -2.4603e+000 -2.0476e+001 -3.9763e+000 39093 93174,92834,93102
 4.4000e+000 93200  3.9162e-001 -1.8100e+001 -9.9863e-001 39093 92938,92912,93174
 4.4000e+000 93223  2.2675e+000 -1.8264e+001 -3.0788e+000 39093 92938,93174,93102
 4.4000e+000 93680  5.0638e+000  8.1264e+000  5.3001e-001 38639 93703,93536,93484
 4.4000e+000 93657  4.1323e+000  9.1840e+000  6.8375e-001 38639 93703,93484,93432
 4.4000e+000 93634  1.8934e+000  7.7912e+000  1.3629e+000 38639 93432,93484,93458
 4.4000e+000 93611  5.5669e+000  1.1290e+001  6.2246e+000 38639 93484,93536,93510
 4.4000e+000 93588  7.4759e+000  1.1963e+001  2.3106e+000 38639 93406,93562,93432
 4.4000e+000 93729  4.4631e+000  6.9795e+000  2.0515e-001 38639 93562,93536,93703
 4.4000e+000 93752  3.6861e+000  8.4988e+000  2.6221e-001 38639 93562,93703,93432
 4.4000e+000 94160  6.0895e+000  1.6302e+001  4.2367e+000 38292 93935,94039,93961
 4.4000e+000 94137  4.4110e-001  2.4321e+000  4.6978e+000 38292 93935,94065,94039
 4.4000e+000 94114 -4.4373e+000 -1.2374e+001 -4.2246e+000 38292 93961,94013,93987
 4.4000e+000 94091  1.1848e+001 -1.6958e+001  4.6393e+000 38292 93961,94039,94013
 4.4000e+000 94408  1.7755e+001 -8.4526e+000  8.2683e+000 37880 94431,94261,94235
 4.4000e+000 94385  2.7460e+001 -7.0501e+000  1.2622e+001 37880 94431,94235,94313
 4.4000e+000 94362  2.1613e+001 -1.5396e+001  1.6372e+001 37880 94209,94313,94235
 4.4000e+000 94339  3.6017e+001  2.6464e+001  3.6424e+000 37880 94183,94313,94209
 4.4000e+000 94457  3.2990e-001 -4.4506e+000  8.7641e+000 37880 94287,94261,94431
 4.4000e+000 94480  1.6434e+001  7.9982e-001  1.1992e+001 37880 94287,94431,94313
 4.4000e+000 94728 -1.2848e+001 -4.6975e+001 -1.5560e+000 37426 94529,94607,94555
 4.4000e+000 94705  8.4649e+000 -1.0416e+002 -1.3932e+001 37426 94529,94633,94607
 4.4000e+000 94682 -4.4452e+000 -1.1107e+002 -1.6946e+001 37426 94503,94633,94529
 4.4000e+000 94659 -7.9542e+000 -2.2677e+001 -1.3486e+001 37426 94555,94607,94581
 4.4000e+000 95257  2.0650e+000 -3.0145e+000  1.7770e+000 36722 95496,95280,94862
 4.4000e+000 95234 -4.2174e+000 -5.9067e+000  6.7232e-001 36722 95496,94862,94836
 4.4000e+000 95211 -6.3147e-001 -2.0744e+000 -9.3111e-001 36722 95352,95280,95070
 4.4000e+000 95188 -2.8402e-001 -5.0132e+000 -2.4564e+000 36722 95352,95070,95044
 4.4000e+000 95165 -5.3615e+000 -6.0534e+000  3.8902e+000 36722 95424,94888,94862
 4.4000e+000 95142 -3.1473e+000  6.3810e+000 -1.5975e-001 36722 94914,94966,94940
 4.4000e+000 95119  6.9511e-001 -3.6340e+000 -3.5220e+000 36722 94966,95044,95018
 4.4000e+000 95096 -7.9739e-001 -3.8443e+000 -5.5635e+000 36722 94966,95018,94992
 4.4000e+000 95306  5.3360e-001 -2.4974e+000  1.2322e+000 36722 95424,94862,95280
 4.4000e+000 95329  4.1453e+000  7.4714e+000 -2.8709e+000 36722 94914,95280,94966
 4.4000e+000 95378  9.8665e-001 -6.8121e-001  2.4993e-001 36722 94966,95280,95352
 4.4000e+000 95401  2.2758e+000 -2.0776e+000 -1.1311e+000 36722 94966,95352,95044
 4.4000e+000 95450  2.7573e+000 -9.3055e-001  1.5145e+000 36722 94914,94888,95424
 4.4000e+000 95473  3.3308e+000 -2.2969e+000  2.0756e-001 36722 94914,95424,95280
 4.4000e+000 95522  2.7988e+000 -4.0944e+000  1.4956e+000 36722 95070,95280,95496
 4.4000e+000 95545  2.7808e+000 -3.9141e+000  1.6086e+000 36722 95070,95496,94836
 4.4000e+000 96130  7.4352e-001  1.0639e+000  9.1632e-001 36268 96153,95911,95859
 4.4000e+000 96107  1.1349e+000  8.3306e+000  1.1782e+000 36268 96153,95859,95807
 4.4000e+000 96084  8.7559e-001  8.6866e+000  2.1286e+000 36268 95807,95859,95833
 4.4000e+000 96061 -4.2798e+000  9.2678e-001 -1.1322e+000 36268 95911,95989,95937
 4.4000e+000 96038 -2.6158e+000  2.7981e-001  3.9936e+000 36268 95859,95911,95885
 4.4000e+000 96015  3.3851e-001  2.1319e+000 -1.3557e+000 36268 95937,95989,95963
 4.4000e+000 96179 -2.3054e+000  7.3452e+000 -7.4216e-001 36268 95989,95911,96153
 4.4000e+000 96202 -4.9981e-001  1.6577e+001 -2.5068e-001 36268 95989,96153,95807
 4.4000e+000 96531 -3.1107e+000 -2.5392e+001  1.5964e+001 35728 96358,96410,96384
 4.4000e+000 96508  1.2111e+001 -1.3413e+001  1.0629e+001 35728 96332,96410,96358
 4.4000e+000 96485  1.2410e+000 -2.5354e+001  2.0854e+001 35728 96332,96436,96410
 4.4000e+000 96462 -3.1375e-001 -4.4930e+000 -7.8692e-001 35728 96306,96436,96332
 4.4000e+000 96860  6.7467e+000 -1.4898e+001  2.9543e+000 35324 96687,96765,96713
 4.4000e+000 96837  1.3276e+001 -1.6927e+000 -1.9571e+000 35324 96661,96765,96687
 4.4000e+000 96814  4.7132e+000  1.1788e+001 -1.1567e+001 35324 96713,96765,96739
 4.4000e+000 96791 -3.0624e+000  2.8158e+000 -2.8624e+000 35324 96635,96765,96661
 4.4000e+000 97366  2.4454e-001 -1.7488e+001 -9.0827e-001 34920 97389,97069,97043
 4.4000e+000 97343  1.6607e+000 -1.7976e+001  8.8988e-001 34920 97389,97043,97199
 4.4000e+000 97320  6.0213e+000 -5.4756e+000  1.5366e-001 34920 97043,97225,97199
 4.4000e+000 97297  2.6149e+001 -7.2008e+001  7.3221e+000 34920 97069,97121,97095
 4.4000e+000 97274  1.4645e+001 -2.5028e+001 -1.8022e+000 34920 97121,97199,97173
 4.4000e+000 97251  3.5381e+000 -1.6269e+001 -1.0882e+001 34920 97121,97173,97147
 4.4000e+000 97415 -1.2381e+000 -1.8127e+001 -8.5360e-001 34920 97121,97069,97389
 4.4000e+000 97438 -1.1332e+000 -1.9261e+001  1.2323e+000 34920 97121,97389,97199
 4.4000e+000 97708 -1.9714e+001 -9.8293e-001  4.6147e+000 34722 97509,97587,97535
 4.4000e+000 97685 -1.1262e+001  1.0481e+000  2.5301e+000 34722 97509,97613,97587
 4.4000e+000 97662 -1.3352e+001 -2.0285e-001  1.8496e+000 34722 97483,97613,97509
 4.4000e+000 97639 -1.1739e+001  8.9969e-001  2.2546e+000 34722 97535,97587,97561
 4.4000e+000 98216 -7.2488e-001 -1.5167e+001  1.3350e+001 34318 97971,98075,97997
 4.4000e+000 98193  2.5467e+000 -1.1459e+001  1.5972e+001 34318 97893,98075,97971
 4.4000e+000 98170  2.1344e+001 -2.1867e+001  5.8494e+000 34318 97893,97971,97919
 4.4000e+000 98147  1.8161e+000 -8.5184e+000  1.2980e+001 34318 97997,98075,98049
 4.4000e+000 98124 -1.7017e+000 -2.2661e+001  5.1258e+000 34318 97919,97971,97945
 4.4000e+000 98101 -9.7439e+000 -3.2423e+001  2.0662e+001 34318 97997,98049,98023
 4.4000e+000 98594  4.2617e+000  4.2611e+000  9.8151e-001 33814 98961,98617,98424
 4.4000e+000 98571  1.6859e+001  2.5949e+000  1.1397e+000 33814 98689,98617,98372
 4.4000e+000 98548  2.0829e+001  1.7607e+001 -1.6019e+000 33814 99033,98689,98372
 4.4000e+000 98525  1.3705e+001  8.8513e+000 -1.0670e-001 33814 98761,98476,98450
 4.4000e+000 98502 -1.9141e+000  4.7003e+000 -9.6636e-001 33814 98961,98424,98398
 4.4000e+000 98643  9.6586e+000  5.9667e+000  4.5389e-001 33814 98450,98424,98617
 4.4000e+000 98666  1.1829e+001  9.6805e+000  1.3537e+000 33814 98761,98450,98617
 4.4000e+000 98715  1.7049e+001  2.5262e+000  1.2113e+000 33814 99161,98689,98320
 4.4000e+000 98738  4.9856e-001 -3.4166e+000  5.9151e+000 33814 98320,98689,98346
 4.4000e+000 98787  1.6113e+001  4.7059e+000  2.0684e+000 33814 98833,98761,98320
 4.4000e+000 98810  1.6286e+001  2.7520e+000  4.0593e-001 33814 99161,98320,98761
 4.4000e+000 98859  1.6492e+001  1.7904e+001 -1.4397e+000 33814 98476,98761,98833
 4.4000e+000 98987  1.5443e+001 -5.3084e-001 -1.0245e+000 33814 98372,98617,98961
 4.4000e+000 99010  8.4382e+000 -1.2917e+000 -4.4334e+000 33814 98372,98961,98398
 4.4000e+000 99059  1.5149e+001  7.7514e-001  3.5581e+000 33814 98346,98689,99033
 4.4000e+000 99187  1.6330e+001  1.5266e+000  5.3649e-001 33814 98617,98689,99161
 4.4000e+000 99210  1.5254e+001  1.7358e+000 -2.6139e-001 33814 98617,99161,98761
 4.4000e+000 99588  9.2488e-001 -2.6941e+000  8.1309e-001 33566 99366,99444,99392
 4.4000e+000 99565  9.9685e-001  7.3949e-001  1.4814e+000 33566 99314,99444,99366
 4.4000e+000 99542  7.4348e-001 -4.2057e+000 -5.5110e-001 33566 99314,99366,99340
 4.4000e+000 99519  1.4968e+000  2.9439e+000 -1.3426e+000 33566 99314,99470,99444
 4.4000e+000 99496 -5.9820e-001 -2.6699e+000  2.4817e+000 33566 99392,99444,99418
 4.4000e+000 99787  4.4451e+000  2.6487e+001 -8.2571e-001 33105 99637,99689,99663
 4.4000e+000 99764  1.3515e+001  2.9569e+001  5.1069e-002 33105 99611,99689,99637
 4.4000e+000 99741  1.2224e+001  3.0749e+001  1.2370e+000 33105 99611,99715,99689
 4.4000e+000 100167 -8.3871e+000 -2.6680e+001  1.6982e+001 32651 100190,99971,99919
 4.4000e+000 100144  7.3514e+000 -1.2004e+001  1.0862e+001 32651 100262,100190,99919
 4.4000e+000 100121  5.8250e+000 -1.1595e+001  9.7175e+000 32651 100262,99919,100049
 4.4000e+000 100098 -4.3639e+000 -1.5608e+001 -4.2935e+000 32651 99893,100049,99919
 4.4000e+000 100075 -1.1027e+001 -3.8742e+001  1.7095e+001 32651 99919,99971,99945
 4.4000e+000 100216  7.4832e+000 -3.1130e+001  4.0561e+000 32651 99997,99971,100190
 4.4000e+000 100239  1.7358e+001 -1.6838e+001 -1.4563e+000 32651 99997,100190,100023
 4.4000e+000 100288  5.7322e+000 -1.4070e+001  1.0144e+001 32651 100023,100190,100262
 4.4000e+000 100311  3.0645e+000 -1.4060e+001  8.4248e+000 32651 100023,100262,100049
 4.4000e+000 100608  1.0970e+001  2.2247e+001 -4.8836e-001 32254 100386,100490,100464
 4.4000e+000 100585  6.1052e+000  2.4587e+001 -5.6238e+000 32254 100360,100490,100386
 4.4000e+000 100562  4.1460e+000  1.7674e+001 -2.4816e+000 32254 100386,100464,100412
 4.4000e+000 100539  2.8673e+000  2.7378e+001  2.8839e+000 32254 100334,100490,100360
 4.4000e+000 100516  1.0431e+001  1.3212e+001  3.2152e+000 32254 100412,100464,100438
 4.4000e+000 100758  2.0757e+000  4.5808e+000 -1.8819e+000 31914 100985,100781,100683
 4.4000e+000 100735 -8.2854e+000 -2.4940e+000  7.9068e+000 31914 100853,100781,100657
 4.4000e+000 100807  9.2608e+000  4.7391e+000 -7.6594e+000 31914 100709,100683,100781
 4.4000e+000 100830 -1.4949e+000  2.6647e+000  6.8097e-001 31914 100709,100781,100631
 4.4000e+000 100879 -2.3857e+000 -6.8056e+000  5.8018e+000 31914 100631,100781,100853
 4.4000e+000 101011  4.4949e+000 -1.7676e+000  8.4119e-001 31914 100657,100781,100985
 4.4000e+000 101191 -4.0983e+001  4.0877e+001 -5.5057e+000 31418 101113,101165,101139
 4.4000e+000 101341 -4.5010e+001 -7.3809e+001 -6.8920e+000 31106 101214,101266,101240
 4.4000e+000 101318 -2.5157e+001 -1.4998e+001  2.0268e+000 31106 101214,101292,101266
 4.4000e+000 101591 -8.2029e+000 -3.1847e+001  1.2883e+001 30552 101614,101470,101444
 4.4000e+000 101568 -6.4413e+000 -2.7559e+001  9.1139e+000 30552 101366,101496,101470
 4.4000e+000 101545 -5.0180e+000 -3.1672e+001  9.9195e+000 30552 101614,101444,101392
 4.4000e+000 101522 -2.4309e+000 -1.2563e+001 -3.6530e+000 30552 101392,101444,101418
 4.4000e+000 101640 -3.6058e+000 -3.1465e+001  1.1864e+001 30552 101366,101470,101614
 4.4000e+000 101663 -9.0447e-001 -3.1643e+001  8.9041e+000 30552 101366,101614,101392
 4.4000e+000 102301  2.3507e+000 -3.7764e+001 -9.9170e+000 30042 102396,102324,102059
 4.4000e+000 102278 -3.7043e+000 -3.6348e+001 -2.3756e+001 30042 102324,101981,101955
 4.4000e+000 102255 -7.5876e+000 -2.8152e+001  4.6288e+000 30042 102396,102059,102033
 4.4000e+000 102232 -4.8087e+000 -1.6687e+001  2.0679e+000 30042 101929,102111,101955
 4.4000e+000 102209  1.5457e+000 -3.7222e+001 -1.0798e+000 30042 102059,102111,102085
 4.4000e+000 102186 -5.7303e+000 -1.6584e+001  8.0860e-001 30042 101929,102137,102111
 4.4000e+000 102163 -1.5460e-001  2.5549e+000  4.9927e-001 30042 101981,102033,102007
 4.4000e+000 102350  1.4998e+001 -3.3749e+001 -7.1574e+000 30042 102111,102059,102324
 4.4000e+000 102373  1.1294e+001 -3.8863e+001 -9.2174e+000 30042 102111,102324,101955
 4.4000e+000 102422  1.4933e+001 -5.0880e+000 -1.4334e+001 30042 101981,102324,102396
 4.4000e+000 102445  5.1258e+000  4.6363e+000  6.0329e-001 30042 101981,102396,102033
 4.4000e+000 103000  2.8467e+001 -2.5997e+001 -1.6417e+000 29730 103023,102706,102654
 4.4000e+000 102977  4.2291e+000 -3.0156e+001 -5.3445e+000 29730 103023,102654,102810
 4.4000e+000 102954 -1.8072e+001 -5.2734e+001 -8.7355e+000 29730 102732,102810,102784
 4.4000e+000 102931  3.2368e+000 -3.6644e+001 -7.2585e+000 29730 102628,102810,102654
 4.4000e+000 102908  2.2435e+001  3.9421e+000  9.7115e+000 29730 102654,102706,102680
 4.4000e+000 102885 -6.6219e+000 -1.8657e+001 -1.4328e+001 29730 102732,102784,102758
 4.4000e+000 102862 -8.3730e+000 -4.3853e+001  6.9771e-001 29730 102628,102836,102810
 4.4000e+000 103049  1.4175e+001 -3.0504e+001 -1.3979e+001 29730 102732,102706,103023
 4.4000e+000 103072 -8.0301e-001 -2.6457e+001 -1.6708e+001 29730 102732,103023,102810
 4.4000e+000 103222  5.6234e+000  1.1635e+001  1.7904e+000 29226 103095,103147,103121
 4.4000e+000 103199  9.3146e+000  2.0896e+001 -1.9183e+000 29226 103095,103173,103147
 4.4000e+000 103730 -3.7429e+000 -4.1611e+001  6.4438e+000 28822 103537,103589,103563
 4.4000e+000 103707  1.8471e+000 -2.6510e+001  4.7960e+000 28822 103433,103589,103537
 4.4000e+000 103684  1.1475e+001 -1.7644e+001 -4.0283e+000 28822 103433,103537,103459
 4.4000e+000 103661  1.5858e+001 -3.7230e+001  9.1533e+000 28822 103407,103589,103433
 4.4000e+000 103638  2.5916e+000  2.6844e+000  9.8137e+000 28822 103459,103511,103485
 4.4000e+000 103615 -1.2832e+001  4.0483e+000  9.0421e+000 28822 103459,103537,103511
 4.4000e+000 103880  1.6074e+001 -1.3589e+001  7.8137e+000 28368 103975,103903,103779
 4.4000e+000 103857  2.0256e+000 -5.9020e+001  3.7865e+000 28368 103903,103753,103831
 4.4000e+000 103929  1.9373e+000  2.4029e+000 -1.6396e+000 28368 103805,103779,103903
 4.4000e+000 103952 -2.7281e+000 -2.3146e+001 -5.0375e-001 28368 104105,103903,103831
 4.4000e+000 104001  9.7677e+000 -2.2408e+001 -3.1299e+000 28368 103753,103903,103975
 4.4000e+000 104131 -1.5868e+000 -1.9693e+001  4.6847e+000 28368 103805,103903,104105
 4.4000e+000 104539  3.8669e+000  5.6848e+000  6.7715e+000 28028 104562,104340,104314
 4.4000e+000 104516  5.1818e+000  1.2808e+001  7.1440e+000 28028 104634,104562,104314
 4.4000e+000 104493 -4.6088e+000  2.3392e+000 -8.9274e-001 28028 104762,104366,104340
 4.4000e+000 104470 -5.0347e-002  1.2919e+000 -3.7021e+000 28028 104366,104418,104392
 4.4000e+000 104588  4.7791e-001  1.1913e+000  1.6633e+000 28028 104762,104340,104562
 4.4000e+000 104611  7.9838e+000  1.0121e+001  2.9136e+000 28028 104418,104562,104444
 4.4000e+000 104660  4.4442e+000  9.1079e+000  6.5944e+000 28028 104444,104562,104634
 4.4000e+000 104788  5.3821e-001  4.7262e+000  6.4276e-001 28028 104418,104366,104762
 4.4000e+000 104811  6.0050e+000  4.6063e+000  3.6670e+000 28028 104418,104762,104562
 4.4000e+000 105010  6.0603e+000 -2.6407e+000 -8.6196e+000 27324 105033,104886,104860
 4.4000e+000 104987  1.1654e+000 -1.5136e+000 -1.0961e-001 27324 105033,104860,104834
 4.4000e+000 104964  9.7834e+000  8.6848e+000 -9.6890e+000 27324 105105,104912,104886
 4.4000e+000 105059  9.0845e+000  6.6012e+000 -1.0184e+001 27324 105105,104886,105033
 4.4000e+000 105082  6.6243e+000  2.7116e+000 -3.9870e+000 27324 104938,105033,104834
 4.4000e+000 105131  1.5184e+001  6.7018e+000 -5.6191e+000 27324 104938,104912,105105
 4.4000e+000 105154  1.2024e+001  9.6075e-001 -7.1062e+000 27324 104938,105105,105033
 4.4000e+000 105402  4.3169e+000  4.4186e+000 -1.1099e+000 27012 105229,105281,105255
 4.4000e+000 105379  6.0876e+000  7.5598e+000 -2.2602e+000 27012 105229,105307,105281
 4.4000e+000 105356  9.0712e+000  1.2934e+001  4.4879e-002 27012 105177,105307,105229
 4.4000e+000 105333  5.9111e+000  2.9937e+000  4.6664e-001 27012 105177,105229,105203
 4.4000e+000 105603 -5.3023e+000  7.5717e+000 -1.2286e+001 26508 105626,105453,105427
 4.4000e+000 105580 -6.0440e+000  5.2111e+000  1.3731e-001 26508 105626,105427,105505
 4.4000e+000 105557  1.0234e+000  3.8711e+000  1.8762e+000 26508 105427,105531,105505
 4.4000e+000 105652 -1.5500e+001  3.1102e+000 -9.7370e+000 26508 105479,105453,105626
 4.4000e+000 105675 -1.7758e+001  2.3070e+000  1.5784e+000 26508 105479,105626,105505
 4.4000e+000 106057  4.1679e+000  1.1061e+001 -9.1516e+000 25947 106080,105887,105861
 4.4000e+000 106034  5.0450e+000  1.2221e+001 -1.0558e+001 25947 106080,105861,105783
 4.4000e+000 106011  7.0679e+000  1.0961e+001 -1.0800e+001 25947 105783,105835,105809
 4.4000e+000 105988  7.2974e+000  1.0157e+001 -1.0820e+001 25947 105783,105861,105835
 4.4000e+000 105965  1.2595e+000  1.7466e+001 -1.2629e+001 25947 105887,105939,105913
 4.4000e+000 106106  4.6860e+000  1.1710e+001 -1.0269e+001 25947 105939,105887,106080
 4.4000e+000 106129  6.8521e+000  1.4074e+001 -1.1885e+001 25947 105939,106080,105783
 4.4000e+000 106714  1.6861e+001  5.6956e+000 -1.4286e+001 25557 106809,106737,106547
 4.4000e+000 106691  1.4692e+001 -6.2618e+000 -5.0586e+000 25557 106737,106417,106391
 4.4000e+000 106668  2.5122e+001  7.7760e+000 -1.5139e+001 25557 106809,106547,106495
 4.4000e+000 106645  1.7908e+001 -2.7959e+001  8.9249e+000 25557 106417,106495,106469
 4.4000e+000 106622  1.8172e+001  1.3246e+001 -4.1921e+000 25557 106495,106547,106521
 4.4000e+000 106599 -6.0610e+000 -4.6184e+000  2.1329e+000 25557 106417,106469,106443
 4.4000e+000 106763  1.1604e+001  2.6321e+000 -1.0864e+001 25557 106573,106547,106737
 4.4000e+000 106786  2.0741e+001  6.2794e+000 -8.3219e+000 25557 106573,106737,106391
 4.4000e+000 106835  2.6710e+001  3.4620e+000 -1.0663e+001 25557 106417,106737,106809
 4.4000e+000 106858  3.1538e+001  2.9594e+000 -1.2546e+001 25557 106417,106809,106495
 4.4000e+000 107364 -5.7147e-002 -1.3064e+000 -3.5341e+000 25153 107459,107387,107171
 4.4000e+000 107341  3.0506e+000 -2.3924e+000 -1.3866e+000 25153 107387,107119,107067
 4.4000e+000 107318  8.9077e-001  3.0645e+000  6.4721e-001 25153 107459,107171,107145
 4.4000e+000 107295  1.5975e+000 -1.1031e+000 -1.1776e+001 25153 107531,107223,107197
 4.4000e+000 107272  1.3158e+001  1.6766e+001 -7.1370e+000 25153 107067,107119,107093
 4.4000e+000 107249  9.7480e+000 -2.4295e+000 -1.2355e+001 25153 107041,107223,107067
 4.4000e+000 107413 -2.4954e+001 -1.0337e+001 -3.1842e+000 25153 107197,107171,107387
 4.4000e+000 107436 -7.6410e-001 -7.1623e+000 -3.7532e+000 25153 107531,107197,107387
 4.4000e+000 107485  2.5110e+000  5.8885e+000  9.4913e-002 25153 107119,107387,107459
 4.4000e+000 107508  5.8639e+000  1.0402e+001  4.8933e+000 25153 107119,107459,107145
 4.4000e+000 107557  5.2477e+000  6.1118e+000 -1.3147e+001 25153 107067,107223,107531
 4.4000e+000 107580  5.5596e+000  6.5808e+000 -5.3222e+000 25153 107067,107531,107387
 4.4000e+000 107958  1.1543e+001 -1.4480e+001 -1.2645e+000 24741 107736,107814,107788
 4.4000e+000 107935 -4.9708e+000 -3.2799e+001 -1.4687e+001 24741 107736,107840,107814
 4.4000e+000 107912 -3.2874e+000 -2.9785e+001 -1.3997e+001 24741 107684,107840,107736
 4.4000e+000 107889  7.6594e+000  1.3579e+001 -1.1164e+001 24741 107736,107788,107762
 4.4000e+000 107866 -1.0146e+001 -4.6351e+001 -1.3526e+001 24741 107684,107736,107710
 4.4000e+000 108157  1.6271e+000 -5.8527e+000 -1.0796e+001 24237 108180,108059,108007
 4.4000e+000 108134  9.4958e+000  8.5992e-001 -6.9029e+000 24237 108180,108007,107981
 4.4000e+000 108111 -8.0371e+000 -8.7847e+000 -8.4231e+000 24237 108007,108059,108033
 4.4000e+000 108206  5.0806e+000 -1.1294e+000 -3.5566e+000 24237 108085,108059,108180
 4.4000e+000 108229  1.2632e+001  5.4529e+000  2.9230e-001 24237 108085,108180,107981
 4.4000e+000 108658  1.4997e+001 -3.0441e+000  5.9217e+000 23776 108361,108413,108387
 4.4000e+000 108635 -2.0331e+000 -4.6162e+001 -1.1298e+001 23776 108753,108681,108361
 4.4000e+000 108612  1.9081e+000 -1.6405e+001 -5.7669e+000 23776 108681,108465,108439
 4.4000e+000 108589  1.6998e+000 -5.4393e+001 -2.9352e+000 23776 108753,108361,108335
 4.4000e+000 108566 -4.8238e+000 -3.2655e+001  2.0386e+000 23776 108335,108517,108465
 4.4000e+000 108543 -3.2929e+000 -5.3938e+001  5.4119e+000 23776 108465,108517,108491
 4.4000e+000 108707 -2.4512e+000 -1.4046e+001 -1.1556e+001 23776 108413,108361,108681
 4.4000e+000 108730 -6.1200e-001  1.1169e+001  3.2405e+000 23776 108413,108681,108439
 4.4000e+000 108779  1.1403e+000 -1.5927e+001 -1.3646e+001 23776 108465,108681,108753
 4.4000e+000 108802 -3.9425e+000 -3.8740e+001 -7.1147e+000 23776 108465,108753,108335
 4.4000e+000 109023  1.8498e-001 -9.5678e+000 -8.8506e-001 23414 108873,108925,108899
 4.4000e+000 109000  4.4939e-001 -9.0108e+000 -4.0866e-001 23414 108847,108925,108873
 4.4000e+000 108977  5.2127e+000  3.3150e+000  4.7068e-001 23414 108847,108951,108925
 4.4000e+000 109474 -1.5842e-001  1.3998e+001  3.0835e-001 23024 109151,109307,109177
 4.4000e+000 109451  1.5931e+000  1.4052e+000  9.2845e-001 23024 109151,109333,109307
 4.4000e+000 109428  1.1227e+001 -2.3717e+001  3.4148e-001 23024 109177,109281,109203
 4.4000e+000 109405  5.9483e+000 -4.4178e+000 -1.1202e+001 23024 109177,109307,109281
 4.4000e+000 109382  6.9849e+000 -1.9804e+001  3.3630e+000 23024 109203,109281,109229
 4.4000e+000 109359 -5.3633e-001 -1.6980e+001 -1.4280e+000 23024 109229,109281,109255
 4.4000e+000 109820  2.4947e+000 -1.8210e+001  1.6595e+000 22506 109843,109601,109523
 4.4000e+000 109797  3.6777e+000 -1.2945e+001 -4.9316e-001 22506 109843,109523,109497
 4.4000e+000 109774  3.0923e+000 -2.4418e+001 -6.0746e-001 22506 109915,109653,109627
 4.4000e+000 109751  8.6532e-002 -9.6476e+000 -3.0134e+000 22506 109497,109679,109653
 4.4000e+000 109728  8.6660e-001 -2.2519e+001 -5.8241e+000 22506 109523,109601,109575
 4.4000e+000 109705 -9.3601e+000 -3.4486e+001 -1.0285e+001 22506 109523,109575,109549
 4.4000e+000 109869  6.2960e+000 -1.4659e+001  3.1864e+000 22506 109627,109601,109843
 4.4000e+000 109892  6.8056e+000 -1.8127e+001  2.3464e+000 22506 109915,109627,109843
 4.4000e+000 109941 -1.0348e+000 -1.9708e+001 -4.3817e+000 22506 109497,109653,109915
 4.4000e+000 109964 -5.6191e-001 -1.9357e+001 -2.3314e+000 22506 109497,109915,109843
 4.4000e+000 110163  4.1064e+000 -7.8089e+000  8.8748e-001 21936 110186,110039,110013
 4.4000e+000 110140  1.6430e+001  1.4497e+000  5.0881e+000 21936 110390,110186,110013
 4.4000e+000 110117  2.7413e+001 -9.0738e+000  1.5830e+001 21936 110390,110013,109987
 4.4000e+000 110212  1.6115e+001  1.4439e+001 -1.3729e+001 21936 110065,110039,110186
 4.4000e+000 110235 -2.6450e+000 -2.8254e+000 -5.4262e+000 21936 110258,110186,110091
 4.4000e+000 110284 -1.6841e+001 -3.3951e+000 -6.9481e+000 21936 110065,110186,110258
 4.4000e+000 110416 -7.7936e+000 -4.9516e+000  8.0963e+000 21936 110091,110186,110390
 4.4000e+000 110439  8.4283e+000 -1.2094e+001  1.7674e+001 21936 110091,110390,109987
 4.4000e+000 110709  1.1775e+001 -1.1934e+001  5.8707e-002 21338 110510,110614,110588
 4.4000e+000 110686  1.0537e+001 -1.5174e+001 -7.2600e-001 21338 110484,110614,110510
 4.4000e+000 110663  1.9077e+001  7.7568e+000  6.2505e-001 21338 110510,110562,110536
 4.4000e+000 110640  1.0884e+001 -1.1819e+001 -4.6478e-001 21338 110510,110588,110562
 4.4000e+000 111296  6.6454e+000 -6.1261e+000 -3.3289e+000 20934 111025,111155,111103
 4.4000e+000 111273 -1.5099e+000 -3.0151e+001 -1.4812e+000 20934 110999,111155,111025
 4.4000e+000 111250 -2.7501e-001 -9.6956e+000 -8.1894e-001 20934 111103,111155,111129
 4.4000e+000 111227 -7.0597e-001 -3.1048e+001 -6.5441e+000 20934 111051,111103,111077
 4.4000e+000 111204  2.8589e-001 -2.7034e+001 -6.3116e+000 20934 111025,111103,111051
 4.4000e+000 111181 -2.4906e+000 -3.1882e+001 -1.8909e+000 20934 110973,111155,110999
 4.4000e+000 111930 -1.1231e+001 -4.1456e+001 -3.6219e+001 20494 111662,111714,111688
 4.4000e+000 111907 -1.1629e+001 -6.3508e+000 -2.5896e+001 20494 111584,111714,111662
 4.4000e+000 111884  1.3371e+001  1.2214e+001 -3.4034e+001 20494 111584,111766,111714
 4.4000e+000 111861  5.0684e+001  1.6741e+001 -2.3697e+001 20494 111584,111636,111610
 4.4000e+000 111838  1.5977e+001  5.7413e+000 -4.3194e+001 20494 111584,111662,111636
 4.4000e+000 111815 -3.6681e+000  1.6797e+001 -1.7506e+001 20494 111558,111766,111584
 4.4000e+000 111792  7.1766e+000  1.7060e+001 -2.2162e+000 20494 111714,111766,111740
 4.4000e+000 112249 -1.9579e+001 -1.3756e+002  1.4036e+001 19940 111975,112053,112001
 4.4000e+000 112226  1.7418e+001 -6.0253e+001  3.2144e+000 19940 111975,112131,112053
 4.4000e+000 112203  2.3082e+000 -1.1910e+002  0.0000e+000 19940 112053,112105,112079
 4.4000e+000 112180 -3.8988e+000 -1.1379e+002  2.8780e+000 19940 112053,112131,112105
 4.4000e+000 112157  2.2146e+000 -1.1290e+002 -4.1583e+000 19940 112001,112053,112027
 4.4000e+000 112757  8.2274e+000 -1.4834e+001 -5.8849e+000 19486 112780,112538,112486
 4.4000e+000 112734  8.2806e+000 -1.4111e+001 -2.4429e+000 19486 112780,112486,112460
 4.4000e+000 112711  2.7757e+000 -1.3530e+001 -3.7891e+000 19486 112852,112616,112590
 4.4000e+000 112688  2.3794e+001 -2.2709e+001 -7.4430e+000 19486 112486,112538,112512
 4.4000e+000 112665 -7.2926e-001 -1.7975e+001  1.1979e+000 19486 112434,112616,112460
 4.4000e+000 112642  3.3763e+000 -1.1570e+001 -4.2151e+000 19486 112538,112590,112564
 4.4000e+000 112806  6.9802e+000 -1.5466e+001 -5.5973e+000 19486 112590,112538,112780
 4.4000e+000 112829  8.6653e+000 -1.4193e+001 -4.6059e+000 19486 112852,112590,112780
 4.4000e+000 112878 -1.3381e+000 -1.3824e+001 -2.1140e+000 19486 112460,112616,112852
 4.4000e+000 112901  2.0559e+000 -1.6677e+001 -2.5060e+000 19486 112460,112852,112780
 4.4000e+000 113252 -1.2809e+001 -2.8731e+001 -1.3985e+000 19096 113105,113157,113131
 4.4000e+000 113229 -9.3700e+000 -1.9348e+001 -1.8522e-001 19096 113053,113157,113105
 4.4000e+000 113206 -5.2512e+000 -1.8005e+001 -1.8335e-001 19096 113027,113157,113053
 4.4000e+000 113183 -1.5573e+001 -3.2887e+001  1.6613e+000 19096 113053,113105,113079
 4.4000e+000 113451  1.1464e+001 -4.7913e+001 -1.7117e+001 18642 113327,113379,113353
 4.4000e+000 113428  4.8000e+000 -6.7233e+001 -1.4367e+001 18642 113301,113379,113327
 4.4000e+000 113405  1.6981e+001 -4.4837e+001 -5.3120e+000 18642 113275,113379,113301
 4.4000e+000 113699  1.0208e+001 -3.3356e+001 -3.3859e+000 18138 113474,113552,113526
 4.4000e+000 113676  2.7236e+001 -3.9954e+001 -1.2180e+001 18138 113474,113578,113552
 4.4000e+000 113653  2.9081e+001 -3.9576e+001 -1.2877e+001 18138 113474,113604,113578
 4.4000e+000 113630  1.6201e+001 -2.1306e+001 -1.1155e+000 18138 113474,113526,113500
 4.4000e+000 113851  2.3358e+000 -3.3328e+001 -1.7968e+000 17682 113750,113802,113776
 4.4000e+000 113828  6.2301e+000 -2.8348e+001  3.9615e-001 17682 113724,113802,113750
 4.4000e+000 114383  2.6239e+001 -7.7558e+001 -3.1431e+000 17106 114086,114242,114164
 4.4000e+000 114360  2.2744e+001 -7.8869e+001 -1.0605e+000 17106 114060,114242,114086
 4.4000e+000 114337 -3.0802e+000 -1.5188e+002  1.5127e+001 17106 114086,114164,114138
 4.4000e+000 114314 -3.4884e+001 -2.2295e+002 -2.3090e+000 17106 114190,114242,114216
 4.4000e+000 114291 -9.8379e+000 -1.5847e+002 -1.5042e+001 17106 114164,114242,114190
 4.4000e+000 114268  9.9720e+000 -1.4245e+002  2.3980e+001 17106 114086,114138,114112
 4.4000e+000 114680 -1.0074e+001 -4.5783e+001 -3.4326e+000 16766 114703,114432,114406
 4.4000e+000 114657 -1.0164e+001 -5.0641e+001 -2.4882e+000 16766 114703,114406,114510
 4.4000e+000 114634 -7.4451e+000 -3.1297e+001  7.3644e-001 16766 114406,114536,114510
 4.4000e+000 114611 -1.2081e+001 -5.5148e+001 -3.1631e+000 16766 114432,114484,114458
 4.4000e+000 114588 -1.8374e+001 -4.0689e+001  1.2643e+001 16766 114406,114562,114536
 4.4000e+000 114729 -1.0712e+001 -4.9828e+001 -8.1301e-002 16766 114484,114432,114703
 4.4000e+000 114752 -9.1338e+000 -5.4424e+001 -7.8048e-001 16766 114484,114703,114510
 4.4000e+000 114902  5.9701e+001 -1.2750e+002 -2.9405e+001 16362 114775,114827,114801
 4.4000e+000 114879  2.2061e+001 -1.3459e+002 -2.2738e+001 16362 114775,114853,114827
 4.4000e+000 115054 -1.5172e+002 -2.2927e+002 -1.5596e+001 15908 114953,115005,114979
 4.4000e+000 115031 -1.3787e+002 -2.5275e+002 -1.2089e+001 15908 114927,115005,114953
 4.4000e+000 115326  1.0199e+001 -1.6134e+001  1.1669e+001 15251 115101,115179,115153
 4.4000e+000 115303  6.8955e+000 -1.4717e+001  1.5205e+000 15251 115101,115231,115179
 4.4000e+000 115280  7.9593e+000 -1.2484e+001  1.2120e+000 15251 115179,115231,115205
 4.4000e+000 115257 -1.9207e+001 -1.0725e+002  8.1285e+000 15251 115101,115153,115127
 4.4000e+000 115429 -4.1219e+000 -5.2984e+001  1.4436e+001 421 115351,115403,115377
 4.5000e+000 66230  1.5427e+001 -1.1262e+001 -4.2509e+000 65954 66152,66204,66178
 4.5000e+000 66429  3.4248e+000 -2.7172e+000 -7.0005e+000 65642 66279,66331,66305
 4.5000e+000 66406  2.4932e+000  5.6263e+000 -1.6012e+000 65642 66279,66357,66331
 4.5000e+000 66383 -3.9714e+000 -1.1664e+001  4.0404e+000 65642 66253,66357,66279
 4.5000e+000 66628 -3.0623e-001  8.9307e+000 -1.2212e+000 65444 66452,66530,66478
 4.5000e+000 66605  6.8879e-001  6.1282e+000 -2.1745e+000 65444 66452,66556,66530
 4.5000e+000 66582  9.0442e-001  7.1077e+000 -1.2699e+000 65444 66478,66530,66504
 4.5000e+000 67006 -1.1222e+000  3.7469e+000  1.8159e+000 65246 66732,66810,66758
 4.5000e+000 66983 -1.5406e+000  1.7545e+000  1.2845e+000 65246 66732,66836,66810
 4.5000e+000 66960  1.3665e+000  3.7649e+000  5.0121e+000 65246 66732,66862,66836
 4.5000e+000 66937  1.6596e+000  1.1632e+000 -8.0724e-001 65246 66758,66810,66784
 4.5000e+000 66914  4.5864e+000 -2.8507e+000 -1.2420e-001 65246 66732,66888,66862
 4.5000e+000 67107  2.9308e+000 -1.7263e+000 -5.5708e-001 64934 67029,67081,67055
 4.5000e+000 67306 -6.2375e+000  8.7471e+000  1.4743e+000 64736 67156,67208,67182
 4.5000e+000 67283 -1.1328e+000  1.0063e+001  3.5722e-001 64736 67130,67208,67156
 4.5000e+000 67260  2.5569e+000  6.2427e+000  2.4862e+000 64736 67130,67234,67208
 4.5000e+000 67507 -5.4497e-001  2.9300e-001  1.8490e+000 64389 67357,67409,67383
 4.5000e+000 67484 -2.7776e+000  6.9862e+000  8.0226e-001 64389 67357,67435,67409
 4.5000e+000 67461  2.5714e+000  3.3709e+000  1.3839e+000 64389 67331,67435,67357
 4.5000e+000 67708  9.8028e+000  4.7789e+000 -5.9933e-002 63985 67731,67584,67558
 4.5000e+000 67685  5.8289e+000  7.1132e+000  6.3561e-002 63985 67731,67558,67636
 4.5000e+000 67662  4.6363e+000  7.1950e+000  6.5523e-001 63985 67532,67636,67558
 4.5000e+000 67757  7.0810e+000  4.4595e+000 -1.2933e+000 63985 67610,67584,67731
 4.5000e+000 67780  2.9357e+000  6.1791e+000 -1.6656e+000 63985 67610,67731,67636
 4.5000e+000 67981 -2.3386e+000  1.3444e+000 -1.6492e+000 63787 67857,67909,67883
 4.5000e+000 67958  1.1852e+000  4.0734e-001 -1.1152e+000 63787 67831,67909,67857
 4.5000e+000 67935  6.2185e+000  3.4982e+000  2.1591e+000 63787 67805,67909,67831
 4.5000e+000 68231  1.8952e+000  2.2844e+000 -1.1025e-001 63589 68254,68084,68032
 4.5000e+000 68208  3.5150e-001  4.9386e+000 -8.0450e-001 63589 68254,68032,68006
 4.5000e+000 68185  4.0313e+000  7.6955e+000  1.6259e+000 63589 68326,68136,68110
 4.5000e+000 68162  1.7352e-001  1.4783e+000  1.1866e-001 63589 68032,68084,68058
 4.5000e+000 68280  1.1564e-001  4.7005e+000  9.7734e-001 63589 68110,68084,68254
 4.5000e+000 68303  2.4270e+000  7.0253e+000  1.9945e+000 63589 68326,68110,68254
 4.5000e+000 68352  5.5152e+000  8.7896e+000 -2.3469e+000 63589 68006,68136,68326
 4.5000e+000 68375  2.8395e+000  7.4879e+000 -1.8543e+000 63589 68006,68326,68254
 4.5000e+000 68836 -1.0437e+001  1.4844e+000 -7.4912e+000 63128 68859,68588,68562
 4.5000e+000 68813  5.5377e-002  3.5544e+000 -5.4760e+000 63128 68859,68562,68692
 4.5000e+000 68790  9.5370e-001  7.5651e+000  2.3151e+000 63128 68614,68692,68666
 4.5000e+000 68767  6.1748e+000  7.5375e+000 -3.5089e+000 63128 68562,68718,68692
 4.5000e+000 68744  2.6833e-001  6.4126e+000  4.5323e+000 63128 68614,68666,68640
 4.5000e+000 68885 -9.9008e+000  3.6946e+000  1.2934e+000 63128 68614,68588,68859
 4.5000e+000 68908 -6.5644e-001  4.3897e+000  3.0496e+000 63128 68614,68859,68692
 4.5000e+000 69237  1.5425e+000 -6.9443e-001  1.9387e+000 62731 69064,69116,69090
 4.5000e+000 69214  1.2562e-002 -4.6034e+000  9.2360e-001 62731 69064,69142,69116
 4.5000e+000 69191  1.1508e-001 -2.8584e+000  1.2022e+000 62731 69038,69142,69064
 4.5000e+000 69168  3.9903e-001 -4.5299e+000  1.1928e+000 62731 69012,69142,69038
 4.5000e+000 69539 -4.1878e-001 -1.6745e+000 -2.0573e-002 62433 69389,69467,69441
 4.5000e+000 69516  1.6307e-001  1.4905e+000 -8.0197e-001 62433 69363,69467,69389
 4.5000e+000 69493  1.5080e-001  2.1906e+000 -1.4339e+000 62433 69389,69441,69415
 4.5000e+000 69966  3.7697e+000  1.7169e+001  2.2342e+000 62235 69989,69773,69721
 4.5000e+000 69943  2.2696e+000  1.8144e+001  3.5494e+000 62235 70061,69989,69721
 4.5000e+000 69920 -5.0336e-001  2.3490e+001  1.2702e+000 62235 70061,69721,69643
 4.5000e+000 69897  4.2687e+000  5.8644e+000  4.9594e+000 62235 69721,69773,69747
 4.5000e+000 69874  1.9322e+001  8.1219e+001  4.8159e+000 62235 69643,69721,69695
 4.5000e+000 69851 -1.9927e+001 -7.1806e+001  1.8527e+001 62235 69643,69695,69669
 4.5000e+000 70015  1.5965e+000  1.7278e+001  6.3945e+000 62235 69799,69773,69989
 4.5000e+000 70038  1.2065e+001  2.2111e+001  7.8614e+000 62235 69799,69989,69825
 4.5000e+000 70087  9.3803e+000  2.2292e+001  1.3419e+000 62235 69825,69989,70061
 4.5000e+000 70110  3.0954e+000  2.4612e+001  5.2294e-001 62235 69825,70061,69643
 4.5000e+000 70260 -1.5256e+000  9.6392e+000 -2.4207e+000 62037 70133,70185,70159
 4.5000e+000 70237  8.9251e-001  1.0252e+001 -8.8856e-001 62037 70133,70211,70185
 4.5000e+000 70640 -1.7835e+000  1.8673e+000 -1.7519e+000 61583 70735,70663,70418
 4.5000e+000 70617 -3.8902e-001  8.6652e+000  6.2845e-001 61583 70663,70366,70522
 4.5000e+000 70594 -1.8935e+000  4.3201e-001 -9.6017e-001 61583 70735,70418,70392
 4.5000e+000 70571 -2.0824e+000  1.6329e+000 -2.5635e+000 61583 70418,70496,70444
 4.5000e+000 70548 -6.2588e-001 -1.6518e+000 -2.6238e+000 61583 70444,70496,70470
 4.5000e+000 70689 -1.6163e+000  1.7328e+000 -1.7155e+000 61583 70496,70418,70663
 4.5000e+000 70712 -3.5900e+000  2.0484e+000 -1.0421e+000 61583 70496,70663,70522
 4.5000e+000 70761 -3.3375e+000  7.7696e-001 -2.6999e-001 61583 70366,70663,70735
 4.5000e+000 70784 -2.6807e+000 -2.9910e-001  3.8203e-001 61583 70366,70735,70392
 4.5000e+000 71054 -6.9480e-001  5.6798e+000 -3.4707e+000 61313 71077,70881,70855
 4.5000e+000 71031 -2.2334e+000  2.8733e+000 -4.1372e+000 61313 71077,70855,70829
 4.5000e+000 71008  1.2274e+000  3.2495e+000 -2.1221e+000 61313 70829,70959,70933
 4.5000e+000 70985 -3.5974e+000  5.8420e+000  1.0725e+000 61313 70881,70933,70907
 4.5000e+000 71103  2.9892e-001  4.2581e+000 -1.7538e+000 61313 70933,70881,71077
 4.5000e+000 71126 -7.6711e-001  2.6790e+000 -2.2744e+000 61313 70933,71077,70829
 4.5000e+000 71604  1.1824e+000  5.8757e+000  4.4034e+000 60909 71627,71232,71414
 4.5000e+000 71581  4.6676e+000  9.7131e+000  1.5045e+000 60909 71232,71440,71414
 4.5000e+000 71558 -2.0245e+000  4.3967e+000  3.1831e+000 60909 71627,71414,71336
 4.5000e+000 71535  2.9588e-001  1.1696e+000  9.0034e+000 60909 71362,71414,71388
 4.5000e+000 71512 -5.4035e+000  1.6088e+000  7.9624e+000 60909 71336,71414,71362
 4.5000e+000 71489 -6.5316e+000  6.7292e-001  1.6979e+000 60909 71258,71336,71310
 4.5000e+000 71466  5.1722e-001  2.8976e+000  1.4278e+000 60909 71258,71310,71284
 4.5000e+000 71653  2.8813e+000  3.5985e+000  2.9403e+000 60909 71258,71232,71627
 4.5000e+000 71676  4.4944e-001  2.9385e+000  2.4987e+000 60909 71258,71627,71336
 4.5000e+000 71875  3.6812e+000  1.0843e+001 -1.3914e+000 60611 71898,71725,71699
 4.5000e+000 71852  4.8691e+000  8.8876e+000 -2.9637e+000 60611 71898,71699,71803
 4.5000e+000 71829  1.7735e+000  4.4901e+000 -1.8782e+000 60611 71970,71751,71725
 4.5000e+000 71924  3.1356e+000  7.5689e+000 -1.6529e+000 60611 71970,71725,71898
 4.5000e+000 71947  2.9848e+000  6.6014e+000 -1.9561e+000 60611 71777,71898,71803
 4.5000e+000 71996  1.3707e+000  8.1190e+000 -2.7481e+000 60611 71777,71751,71970
 4.5000e+000 72019  1.8496e+000  9.1807e+000 -2.9055e+000 60611 71777,71970,71898
 4.5000e+000 72576  7.0884e+000  2.0813e+001 -1.6902e+000 60142 72599,72256,72230
 4.5000e+000 72553  4.4063e+000  1.4395e+001 -1.1414e+000 60142 72671,72599,72230
 4.5000e+000 72530  6.7592e+000  1.5029e+001 -1.1908e+000 60142 72671,72230,72204
 4.5000e+000 72507  1.0069e+001  7.3339e+000 -1.8039e-001 60142 72743,72360,72334
 4.5000e+000 72484  1.4357e+000  9.6258e+000  4.3973e+000 60142 72815,72282,72256
 4.5000e+000 72461  2.3504e+000  5.7072e+000  1.6792e+000 60142 72887,72308,72282
 4.5000e+000 72438  7.8398e+000  1.7452e+001 -4.9059e-001 60142 72204,72412,72386
 4.5000e+000 72625  3.9662e+000  1.4183e+001  3.3633e+000 60142 72815,72256,72599
 4.5000e+000 72648  8.4855e+000  1.0107e+001  2.8371e-001 60142 72743,72334,72599
 4.5000e+000 72697  6.3173e+000  1.4741e+001 -3.1113e-001 60142 72386,72599,72671
 4.5000e+000 72720  6.9328e+000  1.4429e+001 -9.5138e-002 60142 72386,72671,72204
 4.5000e+000 72769  7.9760e+000  9.9022e+000 -4.9492e+000 60142 72386,72360,72743
 4.5000e+000 72792  7.6714e+000  1.5132e+001 -2.1189e+000 60142 72386,72743,72599
 4.5000e+000 72841  3.8965e+000  6.4394e+000  2.2806e+000 60142 72887,72282,72815
 4.5000e+000 72864  8.8931e+000  9.9898e+000  1.6372e+000 60142 72334,72815,72599
 4.5000e+000 72913  4.4404e+000  6.4387e+000  2.4396e+000 60142 72334,72308,72887
 4.5000e+000 72936  5.0579e+000  6.7403e+000  3.0403e+000 60142 72334,72887,72815
 4.5000e+000 73491  8.9316e-001 -1.1370e+001 -4.9349e+000 59738 73145,73327,73171
 4.5000e+000 73468  4.2526e+000 -6.0743e+000 -3.3381e+000 59738 73119,73327,73145
 4.5000e+000 73445 -5.8678e-001  1.9232e+000  3.3669e+000 59738 73171,73327,73301
 4.5000e+000 73422  3.2998e+000 -5.9828e-001 -2.1774e-001 59738 73514,73275,73249
 4.5000e+000 73399  8.1947e+000  8.4008e+000 -3.3263e+000 59738 73586,73514,73249
 4.5000e+000 73376  1.0417e+001  1.7940e+001 -7.8694e+000 59738 73197,73249,73223
 4.5000e+000 73353  1.3711e+001  1.3138e+001 -9.7838e+000 59738 73586,73249,73197
 4.5000e+000 73540  6.4959e+000 -1.8028e+000 -5.3123e-001 59738 73301,73275,73514
 4.5000e+000 73563  3.3230e-001 -3.4399e+000  4.2500e+000 59738 73301,73514,73171
 4.5000e+000 73612  6.9603e+000 -2.2170e+000  2.8376e+000 59738 73171,73514,73586
 4.5000e+000 73635  8.5489e+000  2.4997e+000 -2.7284e+000 59738 73171,73586,73197
 4.5000e+000 73964  2.3464e+000  4.5144e+000 -3.0533e+000 59334 73791,73843,73817
 4.5000e+000 73941 -4.7958e-002  4.9382e+000 -2.7790e+000 59334 73791,73869,73843
 4.5000e+000 73918  4.0835e+000  1.4906e+001 -3.6061e+000 59334 73739,73869,73791
 4.5000e+000 73895 -1.9966e+000  1.2236e+001 -2.0543e+000 59334 73739,73791,73765
 4.5000e+000 74261  1.0117e+000  9.2078e+000 -2.9585e+000 58630 74065,74117,74091
 4.5000e+000 74238  4.1239e+000  2.8524e+000 -3.5714e+000 58630 74356,74284,74065
 4.5000e+000 74215  4.7129e+000 -2.8818e+000 -1.5980e+000 58630 74284,74013,73987
 4.5000e+000 74192  3.3902e+000  2.0375e+000 -4.9693e+000 58630 74356,74065,74039
 4.5000e+000 74169  2.8639e+000  1.7499e+000 -3.5563e-001 58630 73987,74143,74117
 4.5000e+000 74310  3.7168e+000  9.4383e+000 -3.9076e+000 58630 74117,74065,74284
 4.5000e+000 74333  2.9631e+000  2.4677e+000 -1.4102e+000 58630 74117,74284,73987
 4.5000e+000 74382  6.1122e+000  4.5214e+000 -2.4018e+000 58630 74013,74284,74356
 4.5000e+000 74405  5.4229e+000  3.6199e+000 -3.8074e+000 58630 74013,74356,74039
 4.5000e+000 74815  1.8204e+000 -6.2708e-001  6.2757e-001 58226 74590,74642,74616
 4.5000e+000 74792  2.8999e+000  2.7310e+000  4.6900e-001 58226 74590,74694,74642
 4.5000e+000 74769  1.3700e+000  4.8511e+000 -5.8460e-001 58226 74590,74720,74694
 4.5000e+000 74746  2.0303e+000 -5.2616e-001  4.8748e-003 58226 74642,74694,74668
 4.5000e+000 75014  1.1236e-001  3.2293e+000  1.1155e+000 57786 75037,74864,74838
 4.5000e+000 74991  2.9727e-001  4.6856e-003  8.1307e-002 57786 75037,74838,74916
 4.5000e+000 74968  1.5017e-001 -5.1479e-002  5.2649e-002 57786 74838,74942,74916
 4.5000e+000 75063  7.6150e-001  6.5526e+000  2.1263e+000 57786 74890,74864,75037
 4.5000e+000 75086  4.9240e-001  2.8246e+000  9.9493e-001 57786 74890,75037,74916
 4.5000e+000 75368 -9.2280e+000  1.0772e+001  4.1635e+000 57496 75192,75270,75218
 4.5000e+000 75345  1.2132e+001  2.1361e+001  7.8150e+000 57496 75192,75296,75270
 4.5000e+000 75322  1.0457e+001  1.4871e+001  1.8071e+001 57496 75218,75270,75244
 4.5000e+000 75648 -1.4938e+000 -7.5789e-001 -1.2355e+000 57206 75472,75550,75498
 4.5000e+000 75625 -7.7748e+000  2.6983e+000  3.2437e+000 57206 75472,75576,75550
 4.5000e+000 75602 -5.6136e+000  6.4336e+000  6.4648e+000 57206 75671,75550,75524
 4.5000e+000 75697  5.8216e+000  1.8987e+000  7.4251e+000 57206 75498,75550,75671
 4.5000e+000 76154  1.2809e+000  1.0614e+001  1.1415e+000 56802 75958,76010,75984
 4.5000e+000 76131  1.5753e+000  6.0798e+000  3.3942e-001 56802 75932,76010,75958
 4.5000e+000 76108  1.3267e+000  1.0005e+001 -2.1630e+000 56802 75906,76010,75932
 4.5000e+000 76085  2.2468e+000  7.7754e+000 -2.0293e+000 56802 75880,76010,75906
 4.5000e+000 76062  2.8421e+000  7.8880e+000 -2.3663e+000 56802 75880,76036,76010
 4.5000e+000 76505  4.1907e-001 -1.3877e-001 -5.3170e-001 56504 76306,76384,76332
 4.5000e+000 76482 -5.1905e-001 -4.4703e-001 -3.8720e-001 56504 76306,76410,76384
 4.5000e+000 76459  1.1734e+000  2.9633e-001 -2.6896e-001 56504 76332,76384,76358
 4.5000e+000 76436  1.4508e-001 -1.1127e-001 -2.7222e-001 56504 76280,76410,76306
 4.5000e+000 77011  1.1784e+001  5.0649e+000 -7.2010e+000 56050 76740,76818,76792
 4.5000e+000 76988  2.2940e+000  9.9256e-001 -6.9176e+000 56050 76714,76818,76740
 4.5000e+000 76965  1.3364e+001  1.2968e+000 -9.3849e+000 56050 76688,76818,76714
 4.5000e+000 76942  3.0908e+001  2.1116e+001  3.1930e+000 56050 76688,76844,76818
 4.5000e+000 76919  7.2045e+000 -2.0310e+000 -4.9636e+000 56050 76740,76792,76766
 4.5000e+000 76896  2.1479e+001  1.7574e+000  6.0228e+000 56050 76688,76870,76844
 4.5000e+000 77517 -1.1861e+001 -4.0544e+000  7.7833e+000 55738 77220,77350,77324
 4.5000e+000 77494  3.9805e+000 -1.0936e+001 -1.9422e+000 55738 77220,77376,77350
 4.5000e+000 77471  8.0033e+000  3.7840e+000 -2.7132e+000 55738 77194,77376,77220
 4.5000e+000 77448  2.6953e-001 -5.0648e+000  4.3113e+000 55738 77220,77298,77246
 4.5000e+000 77425 -4.1210e+000 -2.5161e+000  8.6329e+000 55738 77220,77324,77298
 4.5000e+000 77402 -4.6116e+000 -6.4164e+000  1.1216e+001 55738 77246,77298,77272
 4.5000e+000 78064  1.4867e+001  1.0487e+001 -2.6445e+000 55227 78231,78087,77773
 4.5000e+000 78041 -3.3080e+000 -1.7439e+000 -1.7783e+000 55227 78087,77695,77643
 4.5000e+000 78018  3.9788e+000  2.5493e+000 -1.3430e+001 55227 78159,77799,77773
 4.5000e+000 77995  1.0425e+001  1.6561e+001 -3.1618e-001 55227 78231,77773,77721
 4.5000e+000 77972  1.4532e+000  2.5026e+000  2.1532e-002 55227 77643,77695,77669
 4.5000e+000 77949  4.1802e-001  2.7378e+000  9.8656e-001 55227 77643,77877,77851
 4.5000e+000 77926  5.6967e+000  4.4029e+001 -1.5058e+001 55227 77799,77851,77825
 4.5000e+000 77903  9.4715e+000  1.8421e+001 -1.6316e+000 55227 77721,77773,77747
 4.5000e+000 78113  1.0827e+001  2.8968e+000 -1.0339e+001 55227 78159,77773,78087
 4.5000e+000 78136  4.3533e+000  1.6303e+001 -5.2371e+000 55227 77851,78087,77643
 4.5000e+000 78185 -9.4112e+000  6.4253e+000 -1.3757e+001 55227 77851,77799,78159
 4.5000e+000 78208 -2.8443e+000  6.1226e+000 -1.1250e+001 55227 77851,78159,78087
 4.5000e+000 78257  9.1866e+000  5.2787e+000 -4.8325e+000 55227 77695,78087,78231
 4.5000e+000 78280  3.1223e+000  1.0636e+001 -2.9385e+000 55227 77695,78231,77721
 4.5000e+000 78737  2.7073e+000  6.5882e+000  3.0443e+000 54773 78463,78541,78515
 4.5000e+000 78714  3.8738e+000  9.7498e+000  1.9520e+000 54773 78463,78619,78541
 4.5000e+000 78691  1.8505e+000  3.9498e+000  1.3219e+000 54773 78463,78515,78489
 4.5000e+000 78668  2.5445e+000  1.4561e+000  1.4481e+000 54773 78541,78593,78567
 4.5000e+000 78645  1.3035e+000  4.1048e+000  2.5428e+000 54773 78541,78619,78593
 4.5000e+000 78838 -3.3800e-001  5.0232e+000 -1.0767e-002 54211 78760,78812,78786
 4.5000e+000 79297  1.3083e+001  1.4636e+001  1.6538e+000 53814 79520,79153,79049
 4.5000e+000 79274  1.0718e+001  1.5122e+001  2.3631e-003 53814 79520,79049,79023
 4.5000e+000 79251  9.2534e+000  3.4058e+001 -3.8619e+000 53814 79320,79101,79049
 4.5000e+000 79228  4.1896e+000  2.1477e+001  3.2231e+000 53814 79320,79049,79153
 4.5000e+000 79205  1.0515e+001  1.9727e+001 -6.6562e+000 53814 79049,79101,79075
 4.5000e+000 79346  4.7363e+000  1.1113e+001  4.6200e+000 53814 79392,79320,79127
 4.5000e+000 79369  4.9563e+000  2.1689e+001  5.1742e+000 53814 79127,79320,79153
 4.5000e+000 79418  1.0431e+000  3.0111e+001  6.8273e+000 53814 79101,79320,79392
 4.5000e+000 79546  1.3321e+001  1.4469e+001 -1.0691e+000 53814 79179,79153,79520
 4.5000e+000 79569  6.9215e+000  1.3057e+001 -2.5575e+000 53814 79179,79520,79023
 4.5000e+000 80075 -1.3130e+001 -3.2217e+000  7.7749e+000 53039 80098,79908,79830
 4.5000e+000 80052 -1.5952e+001 -1.6256e+000 -2.6408e+000 53039 80098,79830,79804
 4.5000e+000 80029  4.3804e-001  5.1206e+000  3.2804e-001 53039 79752,79934,79804
 4.5000e+000 80006  2.5267e+000 -1.4181e+001  9.5776e+000 53039 79856,79908,79882
 4.5000e+000 79983  6.9611e+000 -2.8118e+001  9.5524e+000 53039 79830,79908,79856
 4.5000e+000 79960 -2.8862e+000  3.7087e+000 -2.8375e+000 53039 79752,79804,79778
 4.5000e+000 80124  3.3646e+000  4.3737e+000  9.6344e+000 53039 79934,79908,80098
 4.5000e+000 80147 -8.6020e+000  1.9088e+000 -1.3351e+000 53039 79934,80098,79804
 4.5000e+000 80555  2.9239e+001  2.3562e+001 -3.2331e+000 52699 80356,80434,80408
 4.5000e+000 80532  7.5152e+000  1.1386e+001  3.5258e+000 52699 80356,80460,80434
 4.5000e+000 80509  4.3076e+000  8.9135e+000  2.2482e+000 52699 80330,80460,80356
 4.5000e+000 80486  2.3941e-001  5.5632e+000  2.3865e+001 52699 80356,80408,80382
 4.5000e+000 80776  1.0722e+001  2.4478e+001 -9.1798e+000 52295 80600,80678,80626
 4.5000e+000 80753 -9.4714e+000  7.9004e+000 -1.9944e+000 52295 80600,80704,80678
 4.5000e+000 80730 -2.8265e+001  8.6686e+000 -6.0325e+000 52295 80626,80678,80652
 4.5000e+000 81156  7.7814e+000 -3.2781e+000  6.0343e+000 51891 81179,80960,80908
 4.5000e+000 81133  7.5520e+000 -5.5060e+000 -4.4929e-001 51891 81179,80908,81012
 4.5000e+000 81110  5.1586e+000  4.6046e+000 -5.3156e+000 51891 80882,81012,80908
 4.5000e+000 81087 -3.5174e+000  6.0461e+000  5.4187e+000 51891 80908,80960,80934
 4.5000e+000 81064  5.8627e+000  8.2279e+000 -3.7353e+000 51891 80882,81038,81012
 4.5000e+000 81205  1.5842e+001  1.3047e+000  8.9636e+000 51891 80986,80960,81179
 4.5000e+000 81228  1.0050e+001 -3.9203e+000  2.0004e+000 51891 80986,81179,81012
 4.5000e+000 81606  2.4686e+000 -6.8913e+001 -1.3959e+001 51544 81410,81462,81436
 4.5000e+000 81583  1.0938e+001 -1.8792e+001  5.4199e+000 51544 81384,81462,81410
 4.5000e+000 81560 -5.4707e+000 -2.4373e+001  4.6206e-002 51544 81358,81462,81384
 4.5000e+000 81537  2.4783e+000 -1.8068e+001 -5.9867e+000 51544 81358,81488,81462
 4.5000e+000 81514  8.0113e+000  2.4867e+000 -4.0275e+000 51544 81332,81488,81358
 4.5000e+000 81854 -3.0932e+000  6.9036e+000  1.6181e+000 51004 81877,81655,81629
 4.5000e+000 81831 -6.9912e-001  1.0602e+001  3.9338e-001 51004 81877,81629,81759
 4.5000e+000 81808  5.2503e+000  6.6825e+000  3.9713e+000 51004 81655,81707,81681
 4.5000e+000 81785  4.1538e+000  1.2372e+001  7.1014e-001 51004 81707,81759,81733
 4.5000e+000 81903 -4.5779e-001  3.6715e+000  2.8344e+000 51004 81707,81655,81877
 4.5000e+000 81926  1.4172e+000  5.8797e+000  1.5127e+000 51004 81707,81877,81759
 4.5000e+000 82257 -2.0234e-001 -1.3562e+001 -4.8741e+000 50642 82058,82136,82110
 4.5000e+000 82234 -3.7526e+000  3.3062e+000 -9.4768e+000 50642 82058,82162,82136
 4.5000e+000 82211  1.0897e+001 -4.9225e-001 -2.3279e+001 50642 82058,82110,82084
 4.5000e+000 82188  3.0630e+001  1.6947e+001  5.4361e+000 50642 82032,82162,82058
 4.5000e+000 82684  1.6459e+001 -4.8384e+001  1.1348e+001 49931 82779,82707,82465
 4.5000e+000 82661 -2.4298e+000 -5.4369e+001  9.3568e+000 49931 82707,82413,82361
 4.5000e+000 82638 -1.1684e+000 -4.9560e+001 -4.7460e+000 49931 82779,82465,82439
 4.5000e+000 82615  1.1215e+001 -1.3354e+002  1.1271e+001 49931 82465,82543,82491
 4.5000e+000 82592 -5.8731e+000 -4.2627e+001 -1.4753e+000 49931 82361,82413,82387
 4.5000e+000 82569  5.0747e+000 -9.6425e+001  1.1701e+001 49931 82491,82543,82517
 4.5000e+000 82733  4.4127e+001 -5.6666e+001  8.3618e+000 49931 82543,82465,82707
 4.5000e+000 82756  1.2840e+001 -4.8508e+001  2.0274e+000 49931 82543,82707,82361
 4.5000e+000 82805  4.2436e+000 -7.2165e+001 -2.6849e+000 49931 82413,82707,82779
 4.5000e+000 82828 -4.8912e+000 -6.7750e+001 -1.7958e+001 49931 82413,82779,82439
 4.5000e+000 83255  9.1047e+000 -4.8796e+001 -3.2009e+000 49327 82984,83114,83036
 4.5000e+000 83232  2.7432e+000 -6.0989e+001 -2.2867e+001 49327 82958,83114,82984
 4.5000e+000 83209 -8.0708e+000 -7.6199e+001  7.2785e+000 49327 83036,83114,83088
 4.5000e+000 83186 -7.7984e+000 -2.8190e+001  1.2264e+001 49327 82984,83036,83010
 4.5000e+000 83163 -7.8176e+000 -5.3621e+001 -1.8346e+001 49327 82932,83114,82958
 4.5000e+000 83140 -1.7717e+001 -1.4074e+002  4.7045e-001 49327 83036,83088,83062
 4.5000e+000 83938 -4.3178e+000 -7.3533e+001  1.8781e+001 48965 83961,83673,83647
 4.5000e+000 83915  7.4712e+000 -2.4388e+001  2.2919e+001 48965 83961,83647,83543
 4.5000e+000 83892 -6.5327e+000 -3.4702e+001 -5.4351e+000 48965 83517,83725,83543
 4.5000e+000 83869 -1.2054e+001 -5.4327e+001 -1.0588e+001 48965 83673,83725,83699
 4.5000e+000 83846 -3.4425e+000 -8.0368e+000  5.0656e+000 48965 83543,83647,83621
 4.5000e+000 83823  3.5800e+000 -1.7021e+001  1.9796e+000 48965 83543,83621,83569
 4.5000e+000 83800 -4.8737e+000 -3.3756e+001 -4.4645e+000 48965 83517,83751,83725
 4.5000e+000 83777 -2.8766e-001 -1.9032e+001  1.8002e+000 48965 83569,83621,83595
 4.5000e+000 83987 -5.5738e+000 -6.6806e+001 -1.2666e+001 48965 83725,83673,83961
 4.5000e+000 84010  3.1233e+000 -4.5817e+001 -2.9268e+000 48965 83725,83961,83543
 4.5000e+000 84258 -8.5661e+000 -5.3961e+001  1.4535e+001 48447 84281,84059,84033
 4.5000e+000 84235 -2.5408e+000 -3.7152e+001  3.0247e+000 48447 84281,84033,84163
 4.5000e+000 84212 -4.3816e-001 -2.6087e+001 -6.9981e+000 48447 84059,84111,84085
 4.5000e+000 84189  1.0344e+001 -2.4854e+001 -1.0342e+001 48447 84111,84163,84137
 4.5000e+000 84307  1.3676e+000 -4.9980e+001  1.3912e+000 48447 84111,84059,84281
 4.5000e+000 84330  1.1668e+001 -3.8367e+001 -9.7846e+000 48447 84111,84281,84163
 4.5000e+000 84529  1.8151e+001 -1.7743e+001  3.1091e+000 47993 84552,84405,84379
 4.5000e+000 84506  7.8667e+000 -2.2906e+001  1.3677e+000 47993 84552,84379,84353
 4.5000e+000 84483  1.3254e+001 -2.3883e+001 -5.9651e-001 47993 84624,84457,84431
 4.5000e+000 84578  2.1354e+001 -2.0972e+001 -1.6898e+000 47993 84431,84405,84552
 4.5000e+000 84601  1.5263e+001 -2.3052e+001 -8.6908e-001 47993 84624,84431,84552
 4.5000e+000 84650  1.5182e+001 -2.4980e+001  8.9678e-001 47993 84353,84457,84624
 4.5000e+000 84673  1.7347e+001 -2.4055e+001  9.3795e-001 47993 84353,84624,84552
 4.5000e+000 85104 -3.0061e+000 -5.5939e+001 -3.1868e+000 47588 85199,85127,84885
 4.5000e+000 85081 -4.3734e+000 -6.4503e+001 -7.3220e+000 47588 85127,84781,84963
 4.5000e+000 85058 -1.4060e+001 -5.2086e+001  1.0425e+001 47588 85199,84885,84807
 4.5000e+000 85035  6.0351e+000 -3.8554e+001  2.0212e+001 47588 84885,84937,84911
 4.5000e+000 85012 -1.0734e+000 -3.1548e+001  3.0455e+000 47588 84807,84885,84833
 4.5000e+000 84989 -1.0237e+001 -3.4671e+001  2.9181e+001 47588 84833,84885,84859
 4.5000e+000 85153 -4.9461e+000 -7.0381e+001 -7.5540e-001 47588 84937,84885,85127
 4.5000e+000 85176  1.6196e+001 -6.3960e+001 -1.5905e+000 47588 84937,85127,84963
 4.5000e+000 85225 -2.5256e+001 -6.5755e+001 -4.9368e+000 47588 84781,85127,85199
 4.5000e+000 85248 -3.0980e+001 -5.9336e+001  1.0320e+001 47588 84781,85199,84807
 4.5000e+000 85518 -1.6114e+001 -1.3239e+002  1.9078e+001 47226 85293,85397,85319
 4.5000e+000 85495 -6.1231e+000 -1.2102e+002  1.1085e+001 47226 85293,85423,85397
 4.5000e+000 85472 -1.8961e+000 -1.3688e+002 -5.1317e+000 47226 85319,85397,85345
 4.5000e+000 85449  1.8948e+001 -2.1628e+001 -8.6219e+000 47226 85345,85397,85371
 4.5000e+000 85849 -1.3010e+001 -5.9606e+001  2.7384e+001 46572 85624,85702,85650
 4.5000e+000 85826 -4.7781e+000 -6.8229e+001  9.0039e+000 46572 85624,85754,85702
 4.5000e+000 85803  1.9651e+001 -3.0039e+001  2.1501e+001 46572 85702,85754,85728
 4.5000e+000 85780 -9.3634e+000 -5.9517e+001  3.1310e+001 46572 85650,85702,85676
 4.5000e+000 86070 -3.8291e+001 -4.8183e+001 -1.6987e+000 46374 85920,85972,85946
 4.5000e+000 86047 -1.9578e+001 -5.0186e+000  5.7554e-001 46374 85920,85998,85972
 4.5000e+000 86024 -1.2130e+001  1.1238e+000  4.8978e+000 46374 85894,85998,85920
 4.5000e+000 86401  3.5610e+000 -2.4021e+001  6.3222e+000 46034 86424,86280,86228
 4.5000e+000 86378 -8.6091e+000 -2.9480e+001  3.3756e+000 46034 86424,86228,86176
 4.5000e+000 86355 -7.9138e+000 -2.3930e+001  1.0243e-001 46034 86176,86228,86202
 4.5000e+000 86332  1.5164e+001 -1.9062e+001 -1.2124e+001 46034 86228,86280,86254
 4.5000e+000 86450  2.9187e+001 -3.3301e+001  1.5318e+000 46034 86306,86280,86424
 4.5000e+000 86473  4.0810e+000 -4.7051e+001 -4.0493e+000 46034 86306,86424,86176
 4.5000e+000 87058  7.4763e+000 -2.1621e+001  1.0212e+001 45516 86813,86917,86865
 4.5000e+000 87035  2.5664e+000 -4.1865e+001  1.5006e+000 45516 86787,86917,86813
 4.5000e+000 87012  8.2700e+000 -3.3908e+001  4.0456e+000 45516 86735,86917,86787
 4.5000e+000 86989  2.3180e+000 -1.4956e+001  7.5227e+000 45516 86865,86917,86891
 4.5000e+000 86966  3.6138e-001 -2.2502e+001  8.3020e+000 45516 86813,86865,86839
 4.5000e+000 86943 -7.0562e+000 -9.4457e+001 -2.2458e+000 45516 86735,86787,86761
 4.5000e+000 87208  2.6057e+001 -1.2975e+001 -9.6038e+000 45226 87231,87133,87107
 4.5000e+000 87185  1.0060e+001 -5.8576e+000 -5.7569e+000 45226 87081,87159,87133
 4.5000e+000 87257  2.0364e+001  1.6613e+001 -8.5703e+000 45226 87081,87133,87231
 4.5000e+000 87537  1.4235e+000 -3.3970e+001  4.3321e+000 44772 87387,87439,87413
 4.5000e+000 87514 -7.4887e+000 -3.9143e+001  7.2361e+000 44772 87361,87439,87387
 4.5000e+000 87491  3.9143e+000 -3.2791e+001  3.4951e+000 44772 87361,87465,87439
 4.5000e+000 87996  2.5364e+000  2.0288e+001  6.9281e+000 44425 87748,87878,87852
 4.5000e+000 87973  1.5314e-001  1.9645e+001  1.8045e-001 44425 87722,87878,87748
 4.5000e+000 87950  2.6862e+000  1.3825e+001  4.0195e+000 44425 87800,87852,87826
 4.5000e+000 87927  2.0765e+001  2.0667e+001  4.6222e+000 44425 87748,87852,87800
 4.5000e+000 87904  2.6873e+000  1.3880e+001 -8.2153e+000 44425 87748,87800,87774
 4.5000e+000 88423 -1.1901e+001 -3.1050e+001  1.2998e+001 44078 88590,88230,88204
 4.5000e+000 88400 -5.2377e+000 -1.3601e+001  9.7508e+000 44078 88518,88446,88204
 4.5000e+000 88377  5.5909e+000 -3.4073e+001 -6.8214e+000 44078 88446,88126,88282
 4.5000e+000 88354 -4.8292e+000 -3.9897e+000  4.5738e+000 44078 88518,88204,88178
 4.5000e+000 88331  3.3304e+000 -4.6405e+001 -7.1376e+000 44078 88100,88282,88126
 4.5000e+000 88308 -5.7902e+000 -3.8406e+001  1.6157e+001 44078 88126,88178,88152
 4.5000e+000 88472 -1.3596e+001 -3.4666e+001  1.1743e+001 44078 88590,88204,88446
 4.5000e+000 88495 -5.6733e+000 -6.6941e+001 -8.7567e+000 44078 88256,88446,88282
 4.5000e+000 88544 -1.8061e+000 -3.5950e+001  1.2203e+001 44078 88126,88446,88518
 4.5000e+000 88567  4.3022e+000 -1.8430e+001  7.0419e+000 44078 88126,88518,88178
 4.5000e+000 88616 -2.0239e+001 -8.9544e+001  7.7940e+000 44078 88256,88230,88590
 4.5000e+000 88639 -7.1812e+000 -3.0386e+001  6.4385e+000 44078 88256,88590,88446
 4.5000e+000 89039  9.6248e+000  2.0229e+001  4.7750e+000 43716 88791,88921,88895
 4.5000e+000 89016  7.4670e+000  1.9981e+001  4.3142e+000 43716 88765,88921,88791
 4.5000e+000 88993  2.2702e+001  1.2382e+001  7.0662e+000 43716 88817,88895,88869
 4.5000e+000 88970  9.7045e+000  1.5374e+001  1.0494e+001 43716 88791,88895,88817
 4.5000e+000 88947  2.9789e+000  1.1484e+001  1.6539e+000 43716 88817,88869,88843
 4.5000e+000 89496  2.1220e+000 -4.9649e+001 -4.7139e+000 43162 89519,89274,89248
 4.5000e+000 89473  6.7172e+000 -2.5037e+001  3.9680e-001 43162 89519,89248,89222
 4.5000e+000 89450  1.5681e+000 -1.3756e+001 -9.6045e+000 43162 89326,89378,89352
 4.5000e+000 89427  5.8970e-001 -2.4214e+001 -1.3555e-001 43162 89274,89378,89326
 4.5000e+000 89404  2.2527e+000 -2.8357e+001 -6.6647e-001 43162 89274,89326,89300
 4.5000e+000 89545 -7.9816e-002 -2.7088e+001  1.4870e+000 43162 89378,89274,89519
 4.5000e+000 89568  6.0566e+000 -6.1081e-001  6.9308e+000 43162 89378,89519,89222
 4.5000e+000 89946 -3.0936e+000 -2.2351e+001 -2.3674e+001 42594 90041,89969,89750
 4.5000e+000 89923 -4.2581e+000 -1.6715e+001 -6.2055e+000 42594 89969,89698,89828
 4.5000e+000 89900  1.0002e+001 -2.8605e+001 -2.1012e+001 42594 90041,89750,89724
 4.5000e+000 89877 -3.3594e+000 -9.2616e+000 -9.0905e+000 42594 89750,89802,89776
 4.5000e+000 89854  4.7415e+000 -4.1404e+000 -2.1249e+000 42594 89672,89828,89698
 4.5000e+000 89995 -1.0783e+001 -1.3339e+001 -1.7584e+001 42594 89802,89750,89969
 4.5000e+000 90018  4.5663e+000  9.4442e+000 -2.0023e+000 42594 89802,89969,89828
 4.5000e+000 90067  8.8536e+000 -1.1796e+001 -1.8702e+001 42594 89698,89969,90041
 4.5000e+000 90090  2.1204e+001 -2.2477e+001 -1.8564e+001 42594 89698,90041,89724
 4.5000e+000 90517  1.0412e+001 -3.4036e+001 -3.6314e+000 42140 90540,90220,90194
 4.5000e+000 90494  1.4814e+001 -3.1910e+001 -5.5218e+000 42140 90540,90194,90376
 4.5000e+000 90471  5.5840e+000 -3.7555e+001  6.4730e-001 42140 90612,90350,90272
 4.5000e+000 90448  8.6915e-001 -3.6818e+001 -1.4833e+000 42140 90272,90350,90298
 4.5000e+000 90425  6.9206e+000 -2.0930e+001 -9.4113e-001 42140 90298,90350,90324
 4.5000e+000 90402  1.3528e+001 -2.2312e+001  5.2983e-001 42140 90220,90272,90246
 4.5000e+000 90566  1.1425e+001 -2.2726e+001 -2.1311e+000 42140 90272,90220,90540
 4.5000e+000 90589  6.7553e+000 -3.4854e+001 -3.6991e-001 42140 90612,90272,90540
 4.5000e+000 90638  8.9256e+000 -4.1965e+001 -3.2383e+000 42140 90376,90350,90612
 4.5000e+000 90661  1.3251e+001 -3.6019e+001 -5.1732e+000 42140 90376,90612,90540
 4.5000e+000 91167 -4.1018e-002 -1.1114e+001  9.2791e-001 41636 91190,90870,90844
 4.5000e+000 91144 -6.0383e+000 -7.3048e+001  3.5061e+000 41636 91190,90844,91026
 4.5000e+000 91121 -1.8565e+000  2.6399e+000 -8.7767e+000 41636 90870,90922,90896
 4.5000e+000 91098  1.2456e+001 -5.3610e+001 -3.6755e+000 41636 90922,91026,90948
 4.5000e+000 91075  2.6745e+001 -4.8511e+001 -3.9611e+000 41636 90948,91026,91000
 4.5000e+000 91052 -3.1457e+001 -6.3704e+001  4.0849e+001 41636 90948,91000,90974
 4.5000e+000 91216 -8.8418e+000  7.2496e+000  1.4921e+000 41636 90922,90870,91190
 4.5000e+000 91239  1.3944e+001 -1.4997e+001  1.1738e+001 41636 90922,91190,91026
 4.5000e+000 91696  9.3141e+000 -2.4417e+001 -2.3210e+000 40449 91448,91526,91474
 4.5000e+000 91673 -1.0186e+001 -3.4262e+001  1.6893e+000 40449 91448,91578,91526
 4.5000e+000 91650  6.2719e+000 -8.0089e-001 -4.8923e+000 40449 91474,91526,91500
 4.5000e+000 91627  7.0983e+000 -2.2386e+001  7.1102e+000 40449 91422,91578,91448
 4.5000e+000 91604  2.0736e+001 -2.0080e+001 -7.2863e+000 40449 91526,91578,91552
 4.5000e+000 92123  7.8512e+000 -3.8195e+001  4.5506e+000 39995 92146,91904,91826
 4.5000e+000 92100 -4.5147e+000 -4.4699e+001 -3.7859e+000 39995 92146,91826,91800
 4.5000e+000 92077 -1.6902e+001 -2.1241e+001  1.4245e+000 39995 91826,91904,91852
 4.5000e+000 92054 -9.4724e+000 -9.6939e+001 -1.5946e+001 39995 91904,91982,91930
 4.5000e+000 92031 -6.5258e+000 -1.2686e+001  1.2500e+001 39995 91852,91904,91878
 4.5000e+000 92008 -3.8000e+000 -6.9065e+001 -1.5916e+001 39995 91930,91982,91956
 4.5000e+000 92172  1.5514e+001 -5.0164e+001 -6.5540e+000 39995 91982,91904,92146
 4.5000e+000 92195  3.4866e+000 -6.4012e+001 -1.4244e+001 39995 91982,92146,91800
 4.5000e+000 92652  2.2104e-001  9.3047e+000  3.6550e+000 39633 92404,92534,92456
 4.5000e+000 92629 -2.9006e+000  1.1152e+001  2.7846e+000 39633 92378,92534,92404
 4.5000e+000 92606 -6.9978e+000  6.7240e+000  7.3095e+000 39633 92404,92456,92430
 4.5000e+000 92583 -1.1105e+000  8.5267e+000  4.5908e+000 39633 92456,92534,92508
 4.5000e+000 92560  1.8999e+000  5.1340e+000  6.3780e+000 39633 92456,92508,92482
 4.5000e+000 93079 -6.4119e+000 -1.8625e+001 -7.0432e+000 39093 93102,92808,92756
 4.5000e+000 93056 -7.3313e-001 -1.9097e+001 -5.2793e+000 39093 93102,92756,92938
 4.5000e+000 93033 -1.3388e+000 -1.6834e+001 -2.0625e+000 39093 93174,92912,92834
 4.5000e+000 93010 -4.8645e+000  5.8036e+000  9.1247e+000 39093 92834,92912,92860
 4.5000e+000 92987 -3.8837e+000 -3.7156e+001 -1.4908e+001 39093 92756,92808,92782
 4.5000e+000 92964  1.0633e+001  2.4148e+001 -1.1105e+001 39093 92860,92912,92886
 4.5000e+000 93128 -1.9526e+000 -1.5468e+001 -5.3308e+000 39093 92834,92808,93102
 4.5000e+000 93151 -3.0599e+000 -1.9516e+001 -4.6023e+000 39093 93174,92834,93102
 4.5000e+000 93200  2.7305e-001 -1.6559e+001 -9.8493e-001 39093 92938,92912,93174
 4.5000e+000 93223  2.1373e+000 -1.6974e+001 -3.1509e+000 39093 92938,93174,93102
 4.5000e+000 93680  7.3346e+000  9.3145e+000  3.0287e-001 38639 93703,93536,93484
 4.5000e+000 93657  6.3043e+000  1.0678e+001  4.5176e-001 38639 93703,93484,93432
 4.5000e+000 93634  2.8121e+000  9.8257e+000 -8.9010e-003 38639 93432,93484,93458
 4.5000e+000 93611  8.3598e+000  1.4561e+001  8.5533e+000 38639 93484,93536,93510
 4.5000e+000 93588  8.1540e+000  1.1056e+001  1.4868e+000 38639 93406,93562,93432
 4.5000e+000 93729  6.6681e+000  8.1404e+000 -4.2591e-002 38639 93562,93536,93703
 4.5000e+000 93752  5.7653e+000  9.9540e+000  1.9035e-002 38639 93562,93703,93432
 4.5000e+000 94160  3.6006e+000  1.3411e+001  4.4813e+000 38292 93935,94039,93961
 4.5000e+000 94137 -3.5754e-001  3.8244e+000  4.6323e+000 38292 93935,94065,94039
 4.5000e+000 94114 -5.3858e+000 -1.0381e+001 -3.6163e+000 38292 93961,94013,93987
 4.5000e+000 94091  9.4652e+000 -1.3585e+001  4.3778e+000 38292 93961,94039,94013
 4.5000e+000 94408  1.2113e+001 -3.9141e+000  6.6393e+000 37880 94431,94261,94235
 4.5000e+000 94385  1.9135e+001 -4.1581e+000  9.8031e+000 37880 94431,94235,94313
 4.5000e+000 94362  1.5124e+001 -1.1376e+001  1.1580e+001 37880 94209,94313,94235
 4.5000e+000 94339  2.6701e+001  2.0706e+001  3.9131e+000 37880 94183,94313,94209
 4.5000e+000 94457 -6.0814e-001 -2.1738e+000  7.3612e+000 37880 94287,94261,94431
 4.5000e+000 94480  1.1457e+001  8.1589e-001  9.4919e+000 37880 94287,94431,94313
 4.5000e+000 94728 -6.6207e+000 -2.7344e+001 -2.8698e+000 37426 94529,94607,94555
 4.5000e+000 94705  1.0994e+001 -8.5104e+001 -1.3461e+001 37426 94529,94633,94607
 4.5000e+000 94682 -2.3997e+000 -9.0809e+001 -1.5956e+001 37426 94503,94633,94529
 4.5000e+000 94659 -5.4143e+000 -1.5106e+001 -8.9455e+000 37426 94555,94607,94581
 4.5000e+000 95257  1.7644e+000 -2.0901e+000  1.3751e+000 36722 95496,95280,94862
 4.5000e+000 95234 -3.8852e+000 -4.7117e+000  2.5830e-001 36722 95496,94862,94836
 4.5000e+000 95211 -3.7235e-001 -1.0486e+000 -9.0726e-001 36722 95352,95280,95070
 4.5000e+000 95188  5.6648e-003 -3.7837e+000 -2.3958e+000 36722 95352,95070,95044
 4.5000e+000 95165 -4.5490e+000 -4.2096e+000  2.8240e+000 36722 95424,94888,94862
 4.5000e+000 95142 -2.2884e+000  6.9220e+000 -4.7394e-001 36722 94914,94966,94940
 4.5000e+000 95119  1.3969e+000 -1.6366e+000 -3.3095e+000 36722 94966,95044,95018
 4.5000e+000 95096  2.9233e-001 -5.8249e-001 -5.4666e+000 36722 94966,95018,94992
 4.5000e+000 95306  2.2129e-001 -1.3238e+000  6.7081e-001 36722 95424,94862,95280
 4.5000e+000 95329  3.4976e+000  7.7738e+000 -2.6628e+000 36722 94914,95280,94966
 4.5000e+000 95378  1.2398e+000  2.6897e-001  1.6498e-001 36722 94966,95280,95352
 4.5000e+000 95401  2.4832e+000 -1.0652e+000 -1.1701e+000 36722 94966,95352,95044
 4.5000e+000 95450  2.0338e+000 -4.1147e-002  8.8749e-001 36722 94914,94888,95424
 4.5000e+000 95473  2.4868e+000 -1.1648e+000 -1.6904e-001 36722 94914,95424,95280
 4.5000e+000 95522  2.4287e+000 -3.1198e+000  1.1195e+000 36722 95070,95280,95496
 4.5000e+000 95545  2.4567e+000 -2.9791e+000  1.2038e+000 36722 95070,95496,94836
 4.5000e+000 96130  1.2817e+000  4.4847e-001  1.0059e+000 36268 96153,95911,95859
 4.5000e+000 96107  1.9093e+000  9.8067e+000  1.3985e+000 36268 96153,95859,95807
 4.5000e+000 96084  1.8348e+000  1.1012e+001  2.7460e+000 36268 95807,95859,95833
 4.5000e+000 96061 -4.9052e+000  1.0139e+000 -1.7502e+000 36268 95911,95989,95937
 4.5000e+000 96038 -1.8870e+000  4.0400e-002  5.5174e+000 36268 95859,95911,95885
 4.5000e+000 96015  1.4912e-001  1.9153e+000 -1.7463e+000 36268 95937,95989,95963
 4.5000e+000 96179 -2.7142e+000  8.5746e+000 -1.1276e+000 36268 95989,95911,96153
 4.5000e+000 96202 -2.6883e-001  2.0465e+001 -4.2977e-001 36268 95989,96153,95807
 4.5000e+000 96531 -9.0915e-001 -6.6428e+000  1.2556e+001 35728 96358,96410,96384
 4.5000e+000 96508  1.8376e+001  3.4672e+000  8.4186e+000 35728 96332,96410,96358
 4.5000e+000 96485  7.3368e+000 -9.7197e+000  1.8118e+001 35728 96332,96436,96410
 4.5000e+000 96462  8.1144e-001  6.7409e+000 -7.5966e-001 35728 96306,96436,96332
 4.5000e+000 96860  4.2493e+000 -1.0643e+001  2.3861e+000 35324 96687,96765,96713
 4.5000e+000 96837  9.0052e+000 -1.7643e+000 -2.9454e+000 35324 96661,96765,96687
 4.5000e+000 96814  4.4313e+000  9.9351e+000 -8.6678e+000 35324 96713,96765,96739
 4.5000e+000 96791 -4.2622e+000  3.4343e+000 -3.2441e+000 35324 96635,96765,96661
 4.5000e+000 97366  4.0360e-001 -9.1973e+000 -1.6373e+000 34920 97389,97069,97043
 4.5000e+000 97343  1.4001e+000 -1.0244e+001 -9.6176e-002 34920 97389,97043,97199
 4.5000e+000 97320  2.4937e+000 -4.5735e-001  1.1251e+000 34920 97043,97225,97199
 4.5000e+000 97297  1.6571e+001 -4.5232e+001  4.6330e+000 34920 97069,97121,97095
 4.5000e+000 97274  8.0413e+000 -1.5598e+001 -8.8670e-001 34920 97121,97199,97173
 4.5000e+000 97251  1.5357e-001 -1.0438e+001 -6.5358e+000 34920 97121,97173,97147
 4.5000e+000 97415 -5.1727e-001 -9.7677e+000 -8.1355e-001 34920 97121,97069,97389
 4.5000e+000 97438 -9.8062e-001 -1.2059e+001  9.6782e-001 34920 97121,97389,97199
 4.5000e+000 97708 -1.5984e+001 -2.3753e+000  3.7647e+000 34722 97509,97587,97535
 4.5000e+000 97685 -1.0926e+001  1.6395e+000  1.9540e+000 34722 97509,97613,97587
 4.5000e+000 97662 -1.1261e+001  1.9075e+000  2.5674e+000 34722 97483,97613,97509
 4.5000e+000 97639 -1.3764e+001 -2.0489e+000  2.8378e+000 34722 97535,97587,97561
 4.5000e+000 98216 -3.4873e+000 -1.1373e+001  8.1318e+000 34318 97971,98075,97997
 4.5000e+000 98193  9.2135e-001 -6.2832e+000  1.1615e+001 34318 97893,98075,97971
 4.5000e+000 98170  1.4722e+001 -1.4625e+001  4.1332e+000 34318 97893,97971,97919
 4.5000e+000 98147 -5.2665e-001  1.1056e+000  9.1738e+000 34318 97997,98075,98049
 4.5000e+000 98124 -8.9262e-001 -1.8090e+001  5.1277e+000 34318 97919,97971,97945
 4.5000e+000 98101 -9.8482e+000 -2.0016e+001  1.0876e+001 34318 97997,98049,98023
 4.5000e+000 98594  3.8026e+000  3.5110e+000  2.5871e-002 33814 98961,98617,98424
 4.5000e+000 98571  1.6545e+001  2.9504e+000  1.2987e+000 33814 98689,98617,98372
 4.5000e+000 98548  1.9069e+001  1.5457e+001 -7.4318e-001 33814 99033,98689,98372
 4.5000e+000 98525  1.4273e+001  8.1530e+000 -1.8269e+000 33814 98761,98476,98450
 4.5000e+000 98502 -1.2004e+000  2.6028e+000 -1.6621e+000 33814 98961,98424,98398
 4.5000e+000 98643  8.4417e+000  3.9618e+000 -1.9177e+000 33814 98450,98424,98617
 4.5000e+000 98666  1.0673e+001  7.7804e+000 -9.9296e-001 33814 98761,98450,98617
 4.5000e+000 98715  1.6672e+001  3.9769e+000  5.9543e-001 33814 99161,98689,98320
 4.5000e+000 98738  3.4199e+000 -1.2703e+000  4.4519e+000 33814 98320,98689,98346
 4.5000e+000 98787  1.4327e+001  5.2233e+000 -1.2148e+000 33814 98833,98761,98320
 4.5000e+000 98810  1.5292e+001  4.9298e+000 -1.6949e+000 33814 99161,98320,98761
 4.5000e+000 98859  1.5545e+001  1.4245e+001 -3.7459e+000 33814 98476,98761,98833
 4.5000e+000 98987  1.3966e+001 -2.8359e+000 -1.4911e+000 33814 98372,98617,98961
 4.5000e+000 99010  7.6647e+000 -5.5599e+000 -4.4759e+000 33814 98372,98961,98398
 4.5000e+000 99059  1.4288e+001  1.8535e+000  2.7253e+000 33814 98346,98689,99033
 4.5000e+000 99187  1.5027e+001  5.9929e-001  1.4538e-002 33814 98617,98689,99161
 4.5000e+000 99210  1.3599e+001  1.8923e+000 -2.3685e+000 33814 98617,99161,98761
 4.5000e+000 99588  1.0564e+000 -3.8249e+000  3.7276e-001 33566 99366,99444,99392
 4.5000e+000 99565  8.7185e-001 -6.8205e-001  9.3285e-001 33566 99314,99444,99366
 4.5000e+000 99542  1.2703e+000 -4.0883e+000 -1.2095e+000 33566 99314,99366,99340
 4.5000e+000 99519  1.8219e+000  1.6657e+000 -1.8502e+000 33566 99314,99470,99444
 4.5000e+000 99496 -6.6123e-001 -5.0386e+000  1.7797e+000 33566 99392,99444,99418
 4.5000e+000 99787  1.5784e+001  3.5262e+001 -1.8535e-001 33105 99637,99689,99663
 4.5000e+000 99764  1.4787e+001  3.3294e+001  2.5220e+000 33105 99611,99689,99637
 4.5000e+000 99741  1.4318e+001  3.0170e+001  2.2508e+000 33105 99611,99715,99689
 4.5000e+000 100167 -2.3255e+000 -1.4639e+001  8.8061e+000 32651 100190,99971,99919
 4.5000e+000 100144  2.5291e+000 -4.8809e+000  6.0241e+000 32651 100262,100190,99919
 4.5000e+000 100121  1.9024e+000 -4.5604e+000  5.3764e+000 32651 100262,99919,100049
 4.5000e+000 100098 -3.8273e+000 -6.7785e+000 -2.8995e+000 32651 99893,100049,99919
 4.5000e+000 100075 -4.2204e+000 -2.3141e+001  8.8676e+000 32651 99919,99971,99945
 4.5000e+000 100216  3.0827e+000 -1.9374e+001  3.1784e-001 32651 99997,99971,100190
 4.5000e+000 100239  7.6128e+000 -9.0736e+000 -6.7449e-001 32651 99997,100190,100023
 4.5000e+000 100288  2.5204e+000 -7.0880e+000  5.6830e+000 32651 100023,100190,100262
 4.5000e+000 100311  3.1418e+000 -5.8904e+000  4.1388e+000 32651 100023,100262,100049
 4.5000e+000 100608  8.6870e+000  2.0096e+001 -5.9318e+000 32254 100386,100490,100464
 4.5000e+000 100585  4.9950e+000  1.9106e+001 -9.0208e+000 32254 100360,100490,100386
 4.5000e+000 100562  4.4097e+000  2.1090e+001 -4.8560e+000 32254 100386,100464,100412
 4.5000e+000 100539  3.1593e-001  2.0042e+001 -3.0981e+000 32254 100334,100490,100360
 4.5000e+000 100516  8.1663e+000  1.1487e+001 -3.3851e-002 32254 100412,100464,100438
 4.5000e+000 100758  1.8682e+000  6.3102e+000 -2.6502e+000 31914 100985,100781,100683
 4.5000e+000 100735 -5.4972e+000  5.0306e-002  5.0906e+000 31914 100853,100781,100657
 4.5000e+000 100807  6.6270e+000  5.2012e+000 -6.7649e+000 31914 100709,100683,100781
 4.5000e+000 100830 -1.2370e+000  3.7052e+000 -5.4286e-001 31914 100709,100781,100631
 4.5000e+000 100879 -2.1431e+000 -5.0065e+000  3.9866e+000 31914 100631,100781,100853
 4.5000e+000 101011  4.3857e+000  8.4200e-001 -1.0608e-002 31914 100657,100781,100985
 4.5000e+000 101191 -3.9955e+001  3.9460e+001 -5.3458e+000 31418 101113,101165,101139
 4.5000e+000 101341 -3.6166e+001 -5.2188e+001 -5.7664e+000 31106 101214,101266,101240
 4.5000e+000 101318 -2.0441e+001 -4.9571e+000  1.8837e+000 31106 101214,101292,101266
 4.5000e+000 101591 -7.1833e+000 -2.0668e+001  7.1915e+000 30552 101614,101470,101444
 4.5000e+000 101568 -4.6454e+000 -1.6331e+001  7.0002e+000 30552 101366,101496,101470
 4.5000e+000 101545 -5.3537e+000 -2.3354e+001  4.6111e+000 30552 101614,101444,101392
 4.5000e+000 101522 -2.0187e+000 -1.0606e+001 -4.0861e+000 30552 101392,101444,101418
 4.5000e+000 101640 -4.2898e+000 -1.8456e+001  8.3879e+000 30552 101366,101470,101614
 4.5000e+000 101663 -2.8140e+000 -2.1272e+001  5.7420e+000 30552 101366,101614,101392
 4.5000e+000 102301  1.6406e+000 -2.5306e+001 -9.9751e+000 30042 102396,102324,102059
 4.5000e+000 102278 -8.3202e-002 -2.6088e+001 -2.1700e+001 30042 102324,101981,101955
 4.5000e+000 102255 -7.1658e+000 -1.7704e+001  1.8931e+000 30042 102396,102059,102033
 4.5000e+000 102232 -4.4463e+000 -1.0797e+001  2.8470e+000 30042 101929,102111,101955
 4.5000e+000 102209  2.6157e+000 -2.5490e+001 -2.6851e-001 30042 102059,102111,102085
 4.5000e+000 102186 -3.1351e+000 -8.7218e+000 -9.2191e-001 30042 101929,102137,102111
 4.5000e+000 102163 -3.9968e-001  4.9562e+000  1.8962e+000 30042 101981,102033,102007
 4.5000e+000 102350  1.4382e+001 -2.1949e+001 -5.5705e+000 30042 102111,102059,102324
 4.5000e+000 102373  9.8928e+000 -3.0550e+001 -7.1972e+000 30042 102111,102324,101955
 4.5000e+000 102422  1.3104e+001  1.1726e+000 -1.4250e+001 30042 101981,102324,102396
 4.5000e+000 102445  4.3032e+000  8.8281e+000 -2.0753e+000 30042 101981,102396,102033
 4.5000e+000 103000  2.2916e+001 -1.8027e+001 -1.5609e+000 29730 103023,102706,102654
 4.5000e+000 102977  4.0833e+000 -2.1035e+001 -4.6398e+000 29730 103023,102654,102810
 4.5000e+000 102954 -1.2410e+001 -3.8921e+001 -7.9089e+000 29730 102732,102810,102784
 4.5000e+000 102931  3.5985e+000 -2.5785e+001 -6.0128e+000 29730 102628,102810,102654
 4.5000e+000 102908  1.7839e+001  5.1463e+000  7.5697e+000 29730 102654,102706,102680
 4.5000e+000 102885 -5.7652e+000 -1.6904e+001 -1.3175e+001 29730 102732,102784,102758
 4.5000e+000 102862 -6.0965e+000 -3.0887e+001 -2.5451e+000 29730 102628,102836,102810
 4.5000e+000 103049  1.1731e+001 -2.1956e+001 -1.1059e+001 29730 102732,102706,103023
 4.5000e+000 103072  1.0807e-001 -1.8470e+001 -1.3334e+001 29730 102732,103023,102810
 4.5000e+000 103222  1.1480e+001  1.7471e+001  1.5770e+000 29226 103095,103147,103121
 4.5000e+000 103199  7.5052e+000  1.8816e+001  1.2151e+000 29226 103095,103173,103147
 4.5000e+000 103730 -2.9093e+000 -2.8217e+001  5.6300e+000 28822 103537,103589,103563
 4.5000e+000 103707  2.2272e+000 -1.6852e+001  3.8192e+000 28822 103433,103589,103537
 4.5000e+000 103684  1.4676e+001 -8.1222e+000 -2.8373e+000 28822 103433,103537,103459
 4.5000e+000 103661  1.6867e+001 -2.5646e+001  8.5352e+000 28822 103407,103589,103433
 4.5000e+000 103638  3.7993e+000  9.4943e+000  7.0354e+000 28822 103459,103511,103485
 4.5000e+000 103615 -8.1973e+000  8.4446e+000  7.3873e+000 28822 103459,103537,103511
 4.5000e+000 103880  1.2128e+001 -4.9539e+000  5.3433e+000 28368 103975,103903,103779
 4.5000e+000 103857  2.0369e+000 -4.1112e+001  1.9599e+000 28368 103903,103753,103831
 4.5000e+000 103929  1.3240e+000  5.9811e+000 -1.7724e+000 28368 103805,103779,103903
 4.5000e+000 103952 -1.7564e+000 -1.2261e+001 -1.4716e+000 28368 104105,103903,103831
 4.5000e+000 104001  1.0527e+001 -1.1171e+001 -4.2918e+000 28368 103753,103903,103975
 4.5000e+000 104131 -1.0674e+000 -9.5963e+000  2.6692e+000 28368 103805,103903,104105
 4.5000e+000 104539  3.2552e+000  3.2660e+000  4.1787e+000 28028 104562,104340,104314
 4.5000e+000 104516  2.4126e+000  1.1426e+001  6.3418e+000 28028 104634,104562,104314
 4.5000e+000 104493 -4.2091e+000 -3.2754e-001 -1.5746e+000 28028 104762,104366,104340
 4.5000e+000 104470 -2.2101e+000 -5.5578e-001 -1.1030e+000 28028 104366,104418,104392
 4.5000e+000 104588 -1.4770e-001 -6.7795e-001 -6.9213e-002 28028 104762,104340,104562
 4.5000e+000 104611  1.1649e+000  6.5924e+000  3.2146e+000 28028 104418,104562,104444
 4.5000e+000 104660  3.7447e+000  8.1176e+000  6.4958e+000 28028 104444,104562,104634
 4.5000e+000 104788  1.2318e-001  8.0670e-001 -4.5296e-001 28028 104418,104366,104762
 4.5000e+000 104811  4.2961e+000  1.0202e+000  1.4167e+000 28028 104418,104762,104562
 4.5000e+000 105010  7.5078e+000 -5.2269e+000 -7.2551e+000 27324 105033,104886,104860
 4.5000e+000 104987  1.7416e+000 -4.8474e+000  1.6394e-001 27324 105033,104860,104834
 4.5000e+000 104964  5.3873e+000  8.9045e+000 -1.0123e+001 27324 105105,104912,104886
 4.5000e+000 105059  1.0359e+001  4.4262e+000 -9.5594e+000 27324 105105,104886,105033
 4.5000e+000 105082  6.2582e+000 -2.4815e-001 -2.7035e+000 27324 104938,105033,104834
 4.5000e+000 105131  3.5574e+000  4.4653e+000 -6.0642e+000 27324 104938,104912,105105
 4.5000e+000 105154  6.2154e+000 -3.5401e+000 -5.6674e+000 27324 104938,105105,105033
 4.5000e+000 105402  7.0910e+000  7.3312e+000 -1.0354e+000 27012 105229,105281,105255
 4.5000e+000 105379  7.5792e+000  6.8678e+000 -9.3389e-001 27012 105229,105307,105281
 4.5000e+000 105356  9.8351e+000  6.5582e+000 -1.0443e+000 27012 105177,105307,105229
 4.5000e+000 105333  9.6233e+000  3.8475e+000 -1.8278e-001 27012 105177,105229,105203
 4.5000e+000 105603 -5.2427e+000  4.7714e+000 -1.0279e+001 26508 105626,105453,105427
 4.5000e+000 105580 -6.6180e+000  1.1253e+000 -2.6897e+000 26508 105626,105427,105505
 4.5000e+000 105557 -6.7963e-001 -7.6086e-001 -7.5928e-001 26508 105427,105531,105505
 4.5000e+000 105652 -1.1857e+001  1.8295e+000 -7.5568e+000 26508 105479,105453,105626
 4.5000e+000 105675 -1.3611e+001  4.0861e-001 -6.5484e-001 26508 105479,105626,105505
 4.5000e+000 106057  6.2758e+000  1.3907e+001 -1.1911e+001 25947 106080,105887,105861
 4.5000e+000 106034  6.3249e+000  1.3834e+001 -1.2203e+001 25947 106080,105861,105783
 4.5000e+000 106011  6.8604e+000  1.1267e+001 -1.1832e+001 25947 105783,105835,105809
 4.5000e+000 105988  9.6641e+000  1.2924e+001 -1.2918e+001 25947 105783,105861,105835
 4.5000e+000 105965  1.8236e+000  1.9015e+001 -1.3932e+001 25947 105887,105939,105913
 4.5000e+000 106106  6.4369e+000  1.3969e+001 -1.1897e+001 25947 105939,105887,106080
 4.5000e+000 106129  6.6842e+000  1.3965e+001 -1.2209e+001 25947 105939,106080,105783
 4.5000e+000 106714  1.6005e+001 -4.6086e+000 -4.7132e+000 25557 106809,106737,106547
 4.5000e+000 106691  1.5540e+001  8.4608e+000 -5.2418e+000 25557 106737,106417,106391
 4.5000e+000 106668  1.4208e+001 -1.0185e+001 -2.2358e+000 25557 106809,106547,106495
 4.5000e+000 106645  8.5329e+000 -3.5773e+000 -3.5321e+000 25557 106417,106495,106469
 4.5000e+000 106622  5.8580e+001  1.4951e+000 -9.2324e+000 25557 106495,106547,106521
 4.5000e+000 106599 -5.3313e-001 -3.5821e-001 -6.4642e+000 25557 106417,106469,106443
 4.5000e+000 106763  3.0011e+001  1.0398e+001 -1.2407e+001 25557 106573,106547,106737
 4.5000e+000 106786  1.3471e+001  2.7345e+000 -6.8560e+000 25557 106573,106737,106391
 4.5000e+000 106835  1.2673e+001  7.6924e+000 -5.4013e+000 25557 106417,106737,106809
 4.5000e+000 106858  9.6699e+000 -9.3444e-001 -3.9511e+000 25557 106417,106809,106495
 4.5000e+000 107364 -8.3219e-001 -4.0018e+000 -7.4404e+000 25153 107459,107387,107171
 4.5000e+000 107341  5.1509e-001 -2.8869e+000 -4.4063e+000 25153 107387,107119,107067
 4.5000e+000 107318  7.1568e-001  5.3965e+000  1.7607e+000 25153 107459,107171,107145
 4.5000e+000 107295  4.8845e-001 -4.1746e+000 -1.3886e+001 25153 107531,107223,107197
 4.5000e+000 107272  1.3961e+001  3.1092e+001 -2.6246e+000 25153 107067,107119,107093
 4.5000e+000 107249  7.8834e+000 -6.2826e+000 -1.2135e+001 25153 107041,107223,107067
 4.5000e+000 107413 -2.4097e+001 -1.2251e+001 -7.2985e+000 25153 107197,107171,107387
 4.5000e+000 107436  1.3148e-001 -8.4226e+000 -7.5218e+000 25153 107531,107197,107387
 4.5000e+000 107485  5.0733e+000  1.1973e+001 -5.7968e-001 25153 107119,107387,107459
 4.5000e+000 107508  1.1020e+001  2.1269e+001  9.9291e+000 25153 107119,107459,107145
 4.5000e+000 107557  2.4754e+000  1.7795e+000 -1.3244e+001 25153 107067,107223,107531
 4.5000e+000 107580  4.4771e+000  2.8771e+000 -6.9220e+000 25153 107067,107531,107387
 4.5000e+000 107958  1.1965e+001 -7.8131e+000  9.5054e-003 24741 107736,107814,107788
 4.5000e+000 107935 -5.1994e+000 -2.4595e+001 -1.1541e+001 24741 107736,107840,107814
 4.5000e+000 107912 -2.6932e+000 -2.6194e+001 -1.0010e+001 24741 107684,107840,107736
 4.5000e+000 107889  9.5495e+000  1.7400e+001 -8.9500e+000 24741 107736,107788,107762
 4.5000e+000 107866 -7.5251e+000 -3.3785e+001 -6.7774e+000 24741 107684,107736,107710
 4.5000e+000 108157  3.1009e+000 -6.8682e+000 -1.0149e+001 24237 108180,108059,108007
 4.5000e+000 108134  7.4322e+000 -2.0139e+000 -6.9298e+000 24237 108180,108007,107981
 4.5000e+000 108111 -8.1783e+000 -9.2189e+000 -7.6105e+000 24237 108007,108059,108033
 4.5000e+000 108206  5.5723e+000 -3.0708e+000 -5.8825e+000 24237 108085,108059,108180
 4.5000e+000 108229  9.7207e+000  1.7148e+000 -2.6918e+000 24237 108085,108180,107981
 4.5000e+000 108658  1.9157e+001  9.5165e+000 -1.1507e+000 23776 108361,108413,108387
 4.5000e+000 108635  3.1390e-001 -3.3093e+001 -1.1954e+001 23776 108753,108681,108361
 4.5000e+000 108612  6.6474e-001 -9.8201e+000 -6.3447e+000 23776 108681,108465,108439
 4.5000e+000 108589 -4.1726e-001 -4.0119e+001 -5.9111e+000 23776 108753,108361,108335
 4.5000e+000 108566 -4.3081e+000 -1.4993e+001 -6.8407e+000 23776 108335,108517,108465
 4.5000e+000 108543 -5.4144e+000 -1.8658e+001 -7.0739e+000 23776 108465,108517,108491
 4.5000e+000 108707  3.6355e+000 -6.4844e+000 -1.3697e+001 23776 108413,108361,108681
 4.5000e+000 108730  6.4391e-001  1.6403e+001  2.2480e-001 23776 108413,108681,108439
 4.5000e+000 108779 -8.2965e-001 -9.4457e+000 -1.6174e+001 23776 108465,108681,108753
 4.5000e+000 108802 -7.6969e+000 -2.6690e+001 -1.0794e+001 23776 108465,108753,108335
 4.5000e+000 109023 -5.6677e-001 -1.0338e+001  1.1714e+000 23414 108873,108925,108899
 4.5000e+000 109000 -3.2738e+000 -1.1341e+001  1.0778e+000 23414 108847,108925,108873
 4.5000e+000 108977 -7.3994e-001 -6.6262e+000 -4.8378e-001 23414 108847,108951,108925
 4.5000e+000 109474  5.2813e-002  1.7559e+001 -4.5958e-001 23024 109151,109307,109177
 4.5000e+000 109451  9.7938e-001  8.4761e-001  8.1293e-001 23024 109151,109333,109307
 4.5000e+000 109428  1.1312e+001 -1.0853e+001  7.7557e-001 23024 109177,109281,109203
 4.5000e+000 109405  1.0013e+001  5.4050e+000 -8.6634e+000 23024 109177,109307,109281
 4.5000e+000 109382  7.1523e+000 -1.0228e+001  1.7124e+000 23024 109203,109281,109229
 4.5000e+000 109359  2.1134e+000 -5.7143e+000 -1.7689e+000 23024 109229,109281,109255
 4.5000e+000 109820  2.4100e+000 -1.2551e+001  6.1403e-001 22506 109843,109601,109523
 4.5000e+000 109797  2.1257e+000 -8.0400e+000 -1.1985e+000 22506 109843,109523,109497
 4.5000e+000 109774  1.1772e+000 -1.8072e+001 -9.9642e-001 22506 109915,109653,109627
 4.5000e+000 109751 -2.7072e+000 -6.9592e+000 -2.2054e+000 22506 109497,109679,109653
 4.5000e+000 109728  1.3459e+000 -1.5446e+001 -5.4839e+000 22506 109523,109601,109575
 4.5000e+000 109705 -6.2161e+000 -2.6182e+001 -8.7570e+000 22506 109523,109575,109549
 4.5000e+000 109869  4.3051e+000 -1.0218e+001  1.6038e+000 22506 109627,109601,109843
 4.5000e+000 109892  4.3064e+000 -1.2565e+001  1.2618e+000 22506 109915,109627,109843
 4.5000e+000 109941 -1.9883e+000 -1.3816e+001 -4.3203e+000 22506 109497,109653,109915
 4.5000e+000 109964 -1.5801e+000 -1.3417e+001 -2.8115e+000 22506 109497,109915,109843
 4.5000e+000 110163  1.9141e+000 -3.1586e+000  9.8033e-001 21936 110186,110039,110013
 4.5000e+000 110140  1.3191e+001  3.5952e+000  3.7973e+000 21936 110390,110186,110013
 4.5000e+000 110117  2.2570e+001 -6.4958e+000  1.3210e+001 21936 110390,110013,109987
 4.5000e+000 110212  1.2497e+001  1.6201e+001 -1.2477e+001 21936 110065,110039,110186
 4.5000e+000 110235 -2.9972e+000 -1.3607e+000 -4.7222e+000 21936 110258,110186,110091
 4.5000e+000 110284 -1.7356e+001 -5.5026e-001 -5.8260e+000 21936 110065,110186,110258
 4.5000e+000 110416 -7.4744e+000 -3.2668e+000  6.9465e+000 21936 110091,110186,110390
 4.5000e+000 110439  6.5031e+000 -1.0392e+001  1.5288e+001 21936 110091,110390,109987
 4.5000e+000 110709  1.1910e+001 -2.9919e+000  4.5450e-001 21338 110510,110614,110588
 4.5000e+000 110686  1.1663e+001 -6.8646e+000 -1.6395e-001 21338 110484,110614,110510
 4.5000e+000 110663  1.7345e+001  1.1436e+001  9.5247e-001 21338 110510,110562,110536
 4.5000e+000 110640  1.1705e+001 -2.2626e+000 -5.0597e-001 21338 110510,110588,110562
 4.5000e+000 111296  6.6925e+000  4.8586e-001 -4.3509e+000 20934 111025,111155,111103
 4.5000e+000 111273 -2.9425e-001 -1.3000e+001 -1.7165e+000 20934 110999,111155,111025
 4.5000e+000 111250  5.7591e-002 -3.2955e+000 -5.4663e-001 20934 111103,111155,111129
 4.5000e+000 111227  3.1375e+000 -1.8619e+001 -6.1185e+000 20934 111051,111103,111077
 4.5000e+000 111204  3.5450e+000 -1.6689e+001 -5.9427e+000 20934 111025,111103,111051
 4.5000e+000 111181  1.9834e-001 -1.3503e+001 -1.4801e+000 20934 110973,111155,110999
 4.5000e+000 111930 -1.8182e+001 -4.3461e+001 -3.5351e+001 20494 111662,111714,111688
 4.5000e+000 111907 -1.3710e+001  2.8800e+000 -2.1111e+001 20494 111584,111714,111662
 4.5000e+000 111884 -1.6368e+001 -2.2758e+000 -1.8722e+001 20494 111584,111766,111714
 4.5000e+000 111861  3.3609e+001  1.0536e+001 -1.6058e+001 20494 111584,111636,111610
 4.5000e+000 111838  3.3240e+000  2.2296e+000 -3.3188e+001 20494 111584,111662,111636
 4.5000e+000 111815 -3.1621e+000  3.3094e+000 -1.7971e+001 20494 111558,111766,111584
 4.5000e+000 111792  7.3236e+000  5.1225e+001 -2.3022e+001 20494 111714,111766,111740
 4.5000e+000 112249 -1.9081e+001 -1.2140e+002  1.2088e+001 19940 111975,112053,112001
 4.5000e+000 112226  1.2716e+001 -5.5840e+001  2.2844e+000 19940 111975,112131,112053
 4.5000e+000 112203  5.7751e-001 -1.0452e+002  0.0000e+000 19940 112053,112105,112079
 4.5000e+000 112180 -5.6371e+000 -1.0154e+002  1.7257e+000 19940 112053,112131,112105
 4.5000e+000 112157  8.1935e+000 -9.7666e+001 -3.1248e+000 19940 112001,112053,112027
 4.5000e+000 112757  8.1262e+000 -7.4204e+000 -4.5980e+000 19486 112780,112538,112486
 4.5000e+000 112734  7.9440e+000 -7.4172e+000 -2.1239e+000 19486 112780,112486,112460
 4.5000e+000 112711  3.8325e+000 -5.9780e+000 -2.7500e+000 19486 112852,112616,112590
 4.5000e+000 112688  2.0472e+001 -1.2754e+001 -5.5197e+000 19486 112486,112538,112512
 4.5000e+000 112665  7.8406e-001 -8.8212e+000  3.5463e-002 19486 112434,112616,112460
 4.5000e+000 112642  5.6816e+000 -4.3256e+000 -3.6831e+000 19486 112538,112590,112564
 4.5000e+000 112806  7.1959e+000 -7.9600e+000 -4.2202e+000 19486 112590,112538,112780
 4.5000e+000 112829  8.4544e+000 -6.7475e+000 -3.5284e+000 19486 112852,112590,112780
 4.5000e+000 112878  6.4142e-001 -6.6479e+000 -1.4396e+000 19486 112460,112616,112852
 4.5000e+000 112901  3.3085e+000 -9.1691e+000 -1.8267e+000 19486 112460,112852,112780
 4.5000e+000 113252 -7.0618e+000 -1.8840e+001 -9.9747e-001 19096 113105,113157,113131
 4.5000e+000 113229 -4.2328e+000 -1.1648e+001  3.4901e-002 19096 113053,113157,113105
 4.5000e+000 113206 -1.7511e+000 -1.0938e+001 -5.8825e-002 19096 113027,113157,113053
 4.5000e+000 113183 -7.9612e+000 -1.9943e+001  1.1066e+000 19096 113053,113105,113079
 4.5000e+000 113451  8.5912e+000 -4.2479e+001 -1.4717e+001 18642 113327,113379,113353
 4.5000e+000 113428  4.1345e+000 -5.5984e+001 -1.2373e+001 18642 113301,113379,113327
 4.5000e+000 113405  1.7462e+001 -3.8062e+001 -4.9834e+000 18642 113275,113379,113301
 4.5000e+000 113699  7.3036e+000 -2.2610e+001 -2.9136e+000 18138 113474,113552,113526
 4.5000e+000 113676  2.1304e+001 -2.9578e+001 -1.0215e+001 18138 113474,113578,113552
 4.5000e+000 113653  2.3405e+001 -2.7560e+001 -1.1088e+001 18138 113474,113604,113578
 4.5000e+000 113630  1.1253e+001 -1.3229e+001 -1.5785e+000 18138 113474,113526,113500
 4.5000e+000 113851  1.0794e+000 -2.2554e+001 -1.5793e+000 17682 113750,113802,113776
 4.5000e+000 113828  4.6545e+000 -1.8389e+001  2.5260e-001 17682 113724,113802,113750
 4.5000e+000 114383  2.4770e+001 -7.5369e+001 -5.1481e+000 17106 114086,114242,114164
 4.5000e+000 114360  3.5706e+001 -6.9648e+001  6.2405e+000 17106 114060,114242,114086
 4.5000e+000 114337 -8.2251e+000 -1.3584e+002  1.2088e+001 17106 114086,114164,114138
 4.5000e+000 114314 -2.7927e+001 -2.0157e+002  8.5528e-001 17106 114190,114242,114216
 4.5000e+000 114291 -1.2069e+000 -1.4468e+002 -1.2042e+001 17106 114164,114242,114190
 4.5000e+000 114268 -2.1881e+000 -1.2899e+002  1.5534e+001 17106 114086,114138,114112
 4.5000e+000 114680 -5.1243e+000 -3.1859e+001 -5.4920e+000 16766 114703,114432,114406
 4.5000e+000 114657 -4.4948e+000 -3.8515e+001 -3.6196e+000 16766 114703,114406,114510
 4.5000e+000 114634 -8.5865e-001 -2.2592e+001 -2.2694e+000 16766 114406,114536,114510
 4.5000e+000 114611 -9.2768e+000 -3.9322e+001 -2.4399e+000 16766 114432,114484,114458
 4.5000e+000 114588  1.5217e-001 -2.1275e+001 -4.9337e+000 16766 114406,114562,114536
 4.5000e+000 114729 -8.8333e+000 -3.7615e+001 -1.4641e+000 16766 114484,114432,114703
 4.5000e+000 114752 -4.3000e+000 -4.2723e+001 -1.7287e+000 16766 114484,114703,114510
 4.5000e+000 114902  3.9512e+001 -1.0704e+002 -2.3589e+001 16362 114775,114827,114801
 4.5000e+000 114879  1.7707e+001 -1.1146e+002 -1.9657e+001 16362 114775,114853,114827
 4.5000e+000 115054 -1.2726e+002 -1.9243e+002 -1.1014e+001 15908 114953,115005,114979
 4.5000e+000 115031 -1.1616e+002 -2.1164e+002 -8.2017e+000 15908 114927,115005,114953
 4.5000e+000 115326  1.1481e+001 -6.5075e+000  8.6818e+000 15251 115101,115179,115153
 4.5000e+000 115303  7.3460e+000 -6.1457e+000  1.1828e+000 15251 115101,115231,115179
 4.5000e+000 115280  7.5139e+000 -6.0269e+000  1.0396e+000 15251 115179,115231,115205
 4.5000e+000 115257 -1.1934e+001 -7.5116e+001  5.1707e+000 15251 115101,115153,115127
 4.5000e+000 115429 -2.1003e+000 -3.8615e+001  1.2128e+001 421 115351,115403,115377
 4.6000e+000 66230  1.8072e+001 -1.3428e+001 -5.3884e+000 65954 66152,66204,66178
 4.6000e+000 66429  4.8970e+000 -3.3082e+000 -7.8942e+000 65642 66279,66331,66305
 4.6000e+000 66406  5.0585e+000  8.3966e+000 -2.2799e+000 65642 66279,66357,66331
 4.6000e+000 66383 -3.3344e+000 -1.3399e+001  4.8792e+000 65642 66253,66357,66279
 4.6000e+000 66628 -4.8075e-001  1.1564e+001 -1.3153e+000 65444 66452,66530,66478
 4.6000e+000 66605  2.1344e+000  8.7469e+000 -2.1940e+000 65444 66452,66556,66530
 4.6000e+000 66582  1.0652e+000  7.6623e+000 -1.1392e+000 65444 66478,66530,66504
 4.6000e+000 67006 -8.3097e-001  5.4832e+000  2.1678e+000 65246 66732,66810,66758
 4.6000e+000 66983 -1.9275e+000  1.9392e+000  1.1632e+000 65246 66732,66836,66810
 4.6000e+000 66960  1.4154e+000  4.4161e+000  5.3351e+000 65246 66732,66862,66836
 4.6000e+000 66937  2.7109e+000  1.4848e+000 -1.3096e+000 65246 66758,66810,66784
 4.6000e+000 66914  5.2404e+000 -1.2453e+000 -8.0080e-002 65246 66732,66888,66862
 4.6000e+000 67107  1.8589e+000 -1.5247e+000 -5.4905e-001 64934 67029,67081,67055
 4.6000e+000 67306 -8.1396e+000  1.3013e+001  2.0868e+000 64736 67156,67208,67182
 4.6000e+000 67283 -4.6995e-001  1.3458e+001  7.8540e-001 64736 67130,67208,67156
 4.6000e+000 67260  3.7636e+000  7.2817e+000  3.3375e+000 64736 67130,67234,67208
 4.6000e+000 67507 -5.5552e-001  1.7975e+000  1.1286e+000 64389 67357,67409,67383
 4.6000e+000 67484 -1.4353e+000  9.5116e+000  6.6224e-001 64389 67357,67435,67409
 4.6000e+000 67461  3.2552e+000  5.1566e+000  1.5426e+000 64389 67331,67435,67357
 4.6000e+000 67708  1.2348e+001  4.8278e+000  4.4276e-001 63985 67731,67584,67558
 4.6000e+000 67685  7.9323e+000  8.9097e+000  2.2789e-001 63985 67731,67558,67636
 4.6000e+000 67662  7.4001e+000  8.7538e+000  2.8029e-001 63985 67532,67636,67558
 4.6000e+000 67757  9.5273e+000  3.5863e+000 -8.2572e-001 63985 67610,67584,67731
 4.6000e+000 67780  4.5883e+000  6.5402e+000 -1.5986e+000 63985 67610,67731,67636
 4.6000e+000 67981 -2.4203e+000  8.5177e-001 -1.7884e+000 63787 67857,67909,67883
 4.6000e+000 67958  7.8694e-001 -7.1411e-001 -9.6128e-001 63787 67831,67909,67857
 4.6000e+000 67935  6.3507e+000  4.4792e+000  2.3096e+000 63787 67805,67909,67831
 4.6000e+000 68231  3.6743e-001  8.7625e-001 -1.5782e-001 63589 68254,68084,68032
 4.6000e+000 68208 -1.0965e+000  5.0380e+000 -8.2578e-001 63589 68254,68032,68006
 4.6000e+000 68185  2.8917e+000  8.6053e+000  2.0324e+000 63589 68326,68136,68110
 4.6000e+000 68162 -3.3104e-001  5.1172e-001  2.9234e-002 63589 68032,68084,68058
 4.6000e+000 68280 -1.2735e+000  4.7671e+000  9.4650e-001 63589 68110,68084,68254
 4.6000e+000 68303  1.0461e+000  7.8268e+000  2.2878e+000 63589 68326,68110,68254
 4.6000e+000 68352  4.4150e+000  9.4789e+000 -2.4323e+000 63589 68006,68136,68326
 4.6000e+000 68375  1.4011e+000  8.0803e+000 -2.0435e+000 63589 68006,68326,68254
 4.6000e+000 68836 -1.1170e+001  2.2448e+000 -8.3829e+000 63128 68859,68588,68562
 4.6000e+000 68813 -2.1903e-001  3.8381e+000 -5.5978e+000 63128 68859,68562,68692
 4.6000e+000 68790  8.5758e-001  8.3769e+000  2.3599e+000 63128 68614,68692,68666
 4.6000e+000 68767  5.6922e+000  7.0214e+000 -3.8597e+000 63128 68562,68718,68692
 4.6000e+000 68744 -4.9620e-001  5.8785e+000  5.5725e+000 63128 68614,68666,68640
 4.6000e+000 68885 -1.0155e+001  5.6188e+000  5.2084e-001 63128 68614,68588,68859
 4.6000e+000 68908 -5.8567e-001  5.5485e+000  3.0185e+000 63128 68614,68859,68692
 4.6000e+000 69237  1.7507e+000 -2.6965e-001  1.5967e+000 62731 69064,69116,69090
 4.6000e+000 69214  4.5492e-001 -3.6605e+000  7.2377e-001 62731 69064,69142,69116
 4.6000e+000 69191  2.8701e-001 -2.3363e+000  1.1218e+000 62731 69038,69142,69064
 4.6000e+000 69168  5.2404e-001 -2.6873e+000  1.1973e+000 62731 69012,69142,69038
 4.6000e+000 69539  3.1851e-001 -3.5384e+000  3.6712e-001 62433 69389,69467,69441
 4.6000e+000 69516  3.3168e-001  2.2186e-001 -4.3835e-001 62433 69363,69467,69389
 4.6000e+000 69493 -4.0884e-001 -1.0252e+000 -2.2399e+000 62433 69389,69441,69415
 4.6000e+000 69966  3.1722e+000  1.8511e+001  1.9919e+000 62235 69989,69773,69721
 4.6000e+000 69943  8.0914e-001  1.8659e+001  2.7997e+000 62235 70061,69989,69721
 4.6000e+000 69920 -2.3485e+000  2.3360e+001  3.5480e-001 62235 70061,69721,69643
 4.6000e+000 69897  4.6370e+000  5.1441e+000  5.0929e+000 62235 69721,69773,69747
 4.6000e+000 69874  1.8465e+001  8.5271e+001  4.8077e+000 62235 69643,69721,69695
 4.6000e+000 69851 -2.4264e+001 -8.3342e+001  2.0453e+001 62235 69643,69695,69669
 4.6000e+000 70015  1.0170e+000  1.7872e+001  5.5430e+000 62235 69799,69773,69989
 4.6000e+000 70038  1.1171e+001  2.2538e+001  6.8910e+000 62235 69799,69989,69825
 4.6000e+000 70087  8.3453e+000  2.2029e+001  6.8318e-001 62235 69825,69989,70061
 4.6000e+000 70110  1.7589e+000  2.3914e+001 -2.8741e-001 62235 69825,70061,69643
 4.6000e+000 70260 -1.3731e+000  1.2920e+001 -4.0043e+000 62037 70133,70185,70159
 4.6000e+000 70237  2.5634e+000  1.3955e+001 -1.5109e+000 62037 70133,70211,70185
 4.6000e+000 70640 -5.0944e+000 -1.0217e-001 -1.6824e+000 61583 70735,70663,70418
 4.6000e+000 70617 -2.4586e+000  9.2165e+000  1.7216e+000 61583 70663,70366,70522
 4.6000e+000 70594 -5.3757e+000 -1.7111e+000 -1.0642e+000 61583 70735,70418,70392
 4.6000e+000 70571 -4.7220e+000 -1.5525e-001 -2.9155e+000 61583 70418,70496,70444
 4.6000e+000 70548 -3.3143e+000 -3.4163e+000 -2.9819e+000 61583 70444,70496,70470
 4.6000e+000 70689 -4.5064e+000 -2.2442e-001 -1.5158e+000 61583 70496,70418,70663
 4.6000e+000 70712 -7.1313e+000  3.3172e-001 -6.3139e-001 61583 70496,70663,70522
 4.6000e+000 70761 -6.1679e+000 -1.0941e+000  1.6321e-001 61583 70366,70663,70735
 4.6000e+000 70784 -5.8228e+000 -2.4029e+000  6.3734e-001 61583 70366,70735,70392
 4.6000e+000 71054 -1.6791e+000  6.9992e+000 -3.6057e+000 61313 71077,70881,70855
 4.6000e+000 71031 -3.8756e+000  4.0270e+000 -5.1350e+000 61313 71077,70855,70829
 4.6000e+000 71008  1.6319e+000  4.8524e+000 -2.6961e+000 61313 70829,70959,70933
 4.6000e+000 70985 -4.2040e+000  7.3641e+000  1.6540e+000 61313 70881,70933,70907
 4.6000e+000 71103  3.4152e-001  5.6445e+000 -1.6167e+000 61313 70933,70881,71077
 4.6000e+000 71126 -1.5570e+000  4.0242e+000 -2.8919e+000 61313 70933,71077,70829
 4.6000e+000 71604  9.5930e-001  7.2617e+000  4.3564e+000 60909 71627,71232,71414
 4.6000e+000 71581  5.6030e+000  1.1153e+001  1.8295e+000 60909 71232,71440,71414
 4.6000e+000 71558 -2.0893e+000  4.0931e+000  3.0809e+000 60909 71627,71414,71336
 4.6000e+000 71535 -4.0819e-001  2.3357e+000  8.7347e+000 60909 71362,71414,71388
 4.6000e+000 71512 -5.1401e+000  2.3751e+000  8.0827e+000 60909 71336,71414,71362
 4.6000e+000 71489 -6.7512e+000 -1.8200e-002  1.4302e+000 60909 71258,71336,71310
 4.6000e+000 71466 -1.0441e-001  2.0998e+000  1.1604e+000 60909 71258,71310,71284
 4.6000e+000 71653  2.0635e+000  3.6931e+000  3.0986e+000 60909 71258,71232,71627
 4.6000e+000 71676  3.4172e-001  2.1591e+000  2.4519e+000 60909 71258,71627,71336
 4.6000e+000 71875  5.0978e+000  1.6208e+001 -1.9897e-001 60611 71898,71725,71699
 4.6000e+000 71852  6.2064e+000  1.2347e+001 -3.0865e+000 60611 71898,71699,71803
 4.6000e+000 71829  2.5912e+000  4.8567e+000 -2.1750e+000 60611 71970,71751,71725
 4.6000e+000 71924  5.0059e+000  1.0076e+001 -1.3903e+000 60611 71970,71725,71898
 4.6000e+000 71947  3.5385e+000  7.4494e+000 -2.0650e+000 60611 71777,71898,71803
 4.6000e+000 71996  1.4515e+000  1.0817e+001 -3.5421e+000 60611 71777,71751,71970
 4.6000e+000 72019  2.1637e+000  1.2519e+001 -3.4282e+000 60611 71777,71970,71898
 4.6000e+000 72576  5.7677e+000  2.3898e+001 -3.6352e+000 60142 72599,72256,72230
 4.6000e+000 72553  2.9106e+000  1.8942e+001 -2.4348e+000 60142 72671,72599,72230
 4.6000e+000 72530  6.7062e+000  1.8685e+001 -1.6217e+000 60142 72671,72230,72204
 4.6000e+000 72507  9.1455e+000  8.7361e+000 -1.4933e+000 60142 72743,72360,72334
 4.6000e+000 72484  3.8977e+000  1.3768e+001 -5.2612e-001 60142 72815,72282,72256
 4.6000e+000 72461 -2.8381e+000  9.5238e+000 -1.0223e+000 60142 72887,72308,72282
 4.6000e+000 72438  8.2239e+000  2.0781e+001 -4.4842e-001 60142 72204,72412,72386
 4.6000e+000 72625  4.0703e+000  1.8184e+001  1.0046e+000 60142 72815,72256,72599
 4.6000e+000 72648  6.5133e+000  1.2977e+001 -8.1538e-001 60142 72743,72334,72599
 4.6000e+000 72697  6.0701e+000  2.0824e+001 -1.0587e+000 60142 72386,72599,72671
 4.6000e+000 72720  7.5477e+000  1.9347e+001 -1.3757e-001 60142 72386,72671,72204
 4.6000e+000 72769  7.0735e+000  1.2858e+001 -8.4591e+000 60142 72386,72360,72743
 4.6000e+000 72792  5.7898e+000  2.0360e+001 -4.3377e+000 60142 72386,72743,72599
 4.6000e+000 72841  2.2062e+000  1.1621e+001 -1.6110e+000 60142 72887,72282,72815
 4.6000e+000 72864  6.6251e+000  1.3387e+001 -9.9417e-001 60142 72334,72815,72599
 4.6000e+000 72913  3.5804e+000  8.2316e+000  1.0530e+000 60142 72334,72308,72887
 4.6000e+000 72936  5.0824e+000  8.8673e+000  8.7088e-001 60142 72334,72887,72815
 4.6000e+000 73491  9.4976e-001 -1.0166e+001 -4.4892e+000 59738 73145,73327,73171
 4.6000e+000 73468  4.0190e+000 -5.2733e+000 -3.0212e+000 59738 73119,73327,73145
 4.6000e+000 73445 -5.8378e-001  2.7110e+000  3.6797e+000 59738 73171,73327,73301
 4.6000e+000 73422  3.6562e+000 -1.7869e-001 -7.9571e-002 59738 73514,73275,73249
 4.6000e+000 73399  7.7193e+000  7.8209e+000 -2.8056e+000 59738 73586,73514,73249
 4.6000e+000 73376  1.0025e+001  1.6477e+001 -6.8496e+000 59738 73197,73249,73223
 4.6000e+000 73353  1.2773e+001  1.2114e+001 -8.5968e+000 59738 73586,73249,73197
 4.6000e+000 73540  6.1483e+000 -8.3408e-001 -2.1695e-001 59738 73301,73275,73514
 4.6000e+000 73563  5.6634e-002 -2.7914e+000  4.4226e+000 59738 73301,73514,73171
 4.6000e+000 73612  6.7001e+000 -1.6736e+000  2.8780e+000 59738 73171,73514,73586
 4.6000e+000 73635  8.1182e+000  2.5485e+000 -2.1084e+000 59738 73171,73586,73197
 4.6000e+000 73964  4.8900e-001  3.2649e+000 -2.2061e+000 59334 73791,73843,73817
 4.6000e+000 73941 -4.4450e+000  3.9894e+000 -1.7162e+000 59334 73791,73869,73843
 4.6000e+000 73918  1.9616e+000  1.9336e+001 -2.7003e+000 59334 73739,73869,73791
 4.6000e+000 73895 -7.0050e+000  1.8654e+001 -1.2519e+000 59334 73739,73791,73765
 4.6000e+000 74261  6.2710e-001  8.4499e+000 -2.6407e+000 58630 74065,74117,74091
 4.6000e+000 74238  3.7695e+000  1.8644e+000 -4.5115e+000 58630 74356,74284,74065
 4.6000e+000 74215  5.3916e+000 -1.8186e+000 -2.4596e+000 58630 74284,74013,73987
 4.6000e+000 74192  2.8553e+000  6.0645e-001 -5.8949e+000 58630 74356,74065,74039
 4.6000e+000 74169  5.6926e+000  3.1566e+000  4.4343e-001 58630 73987,74143,74117
 4.6000e+000 74310  4.2962e+000  8.2333e+000 -4.4094e+000 58630 74117,74065,74284
 4.6000e+000 74333  4.5867e+000  1.9342e+000 -2.2118e+000 58630 74117,74284,73987
 4.6000e+000 74382  5.5808e+000  3.9578e+000 -2.7387e+000 58630 74013,74284,74356
 4.6000e+000 74405  4.6769e+000  2.5343e+000 -4.1245e+000 58630 74013,74356,74039
 4.6000e+000 74815  1.7275e+000 -6.7377e-001  1.5942e+000 58226 74590,74642,74616
 4.6000e+000 74792  2.2965e+000  2.2297e+000  1.7218e+000 58226 74590,74694,74642
 4.6000e+000 74769  3.5157e-001  1.9920e+000  1.7739e+000 58226 74590,74720,74694
 4.6000e+000 74746  1.7636e+000 -8.8007e-001  1.3937e+000 58226 74642,74694,74668
 4.6000e+000 75014  2.1812e-001  3.0446e+000  1.0095e+000 57786 75037,74864,74838
 4.6000e+000 74991  2.5100e-001  2.4345e+000  8.2037e-001 57786 75037,74838,74916
 4.6000e+000 74968  1.6954e-001  2.5357e+000  5.6109e-001 57786 74838,74942,74916
 4.6000e+000 75063  3.3790e-001  3.6732e+000  1.1980e+000 57786 74890,74864,75037
 4.6000e+000 75086  2.7730e-001  2.9560e+000  9.8944e-001 57786 74890,75037,74916
 4.6000e+000 75368 -8.8278e+000  9.9384e+000  4.0537e+000 57496 75192,75270,75218
 4.6000e+000 75345  1.1486e+001  2.0146e+001  7.7543e+000 57496 75192,75296,75270
 4.6000e+000 75322  9.6748e+000  1.3314e+001  1.7226e+001 57496 75218,75270,75244
 4.6000e+000 75648 -1.8639e+000 -1.4459e+000 -4.9692e-001 57206 75472,75550,75498
 4.6000e+000 75625 -7.0283e+000  3.9577e+000  3.5280e+000 57206 75472,75576,75550
 4.6000e+000 75602 -4.6539e+000  5.7220e+000  5.6942e+000 57206 75671,75550,75524
 4.6000e+000 75697  5.4398e+000  1.2992e+000  6.4440e+000 57206 75498,75550,75671
 4.6000e+000 76154 -9.9129e-001  5.6159e+000  9.0674e-002 56802 75958,76010,75984
 4.6000e+000 76131 -1.2631e+000 -4.3633e+000 -1.0773e+000 56802 75932,76010,75958
 4.6000e+000 76108 -8.2571e-001 -5.0184e+000 -7.5781e-002 56802 75906,76010,75932
 4.6000e+000 76085 -3.0351e+000 -2.3882e+000 -6.2036e-001 56802 75880,76010,75906
 4.6000e+000 76062 -4.9099e+000 -8.8008e-001  5.7968e+000 56802 75880,76036,76010
 4.6000e+000 76505  1.4105e+000 -7.4666e-001 -1.1353e+000 56504 76306,76384,76332
 4.6000e+000 76482 -1.1760e+000 -1.0186e+000 -9.6901e-001 56504 76306,76410,76384
 4.6000e+000 76459  2.4521e+000  1.0436e+000  3.0813e-001 56504 76332,76384,76358
 4.6000e+000 76436  3.3829e-001  6.4429e-002 -4.1006e-001 56504 76280,76410,76306
 4.6000e+000 77011  1.0657e+001  4.6920e+000 -6.2609e+000 56050 76740,76818,76792
 4.6000e+000 76988  2.4875e+000  1.1500e+000 -5.8885e+000 56050 76714,76818,76740
 4.6000e+000 76965  1.2548e+001  2.0216e+000 -8.2421e+000 56050 76688,76818,76714
 4.6000e+000 76942  2.8398e+001  1.9869e+001  3.1390e+000 56050 76688,76844,76818
 4.6000e+000 76919  6.6356e+000 -1.8493e+000 -4.2474e+000 56050 76740,76792,76766
 4.6000e+000 76896  1.9654e+001  1.7272e+000  5.6817e+000 56050 76688,76870,76844
 4.6000e+000 77517 -1.0972e+001 -3.7994e+000  7.5149e+000 55738 77220,77350,77324
 4.6000e+000 77494  4.1558e+000 -9.3574e+000 -9.2455e-001 55738 77220,77376,77350
 4.6000e+000 77471  7.3068e+000  4.6131e+000 -2.3035e+000 55738 77194,77376,77220
 4.6000e+000 77448 -3.0887e-001 -5.1198e+000  4.5042e+000 55738 77220,77298,77246
 4.6000e+000 77425 -3.8590e+000 -2.2798e+000  8.1965e+000 55738 77220,77324,77298
 4.6000e+000 77402 -3.7626e+000 -6.0922e+000  9.4257e+000 55738 77246,77298,77272
 4.6000e+000 78064  1.1010e+001  4.9725e-001  5.5565e-001 55227 78231,78087,77773
 4.6000e+000 78041  7.1784e-001 -4.0701e+000 -3.4463e+000 55227 78087,77695,77643
 4.6000e+000 78018  2.7867e+000 -1.2410e+001 -5.3395e+000 55227 78159,77799,77773
 4.6000e+000 77995  8.8405e+000  4.2135e+000  1.7181e+000 55227 78231,77773,77721
 4.6000e+000 77972  3.1726e+000  2.5302e+000 -1.2504e+000 55227 77643,77695,77669
 4.6000e+000 77949  5.2328e+000  6.7145e+000 -7.1941e+000 55227 77643,77877,77851
 4.6000e+000 77926 -2.1248e+000 -2.1542e+000 -1.4465e+000 55227 77799,77851,77825
 4.6000e+000 77903  5.8696e+000  5.0039e+000  8.1845e-001 55227 77721,77773,77747
 4.6000e+000 78113  6.6429e+000 -8.6820e+000 -3.6426e+000 55227 78159,77773,78087
 4.6000e+000 78136  2.9185e+000  1.1326e+000 -4.5994e+000 55227 77851,78087,77643
 4.6000e+000 78185 -5.3482e+000 -4.7482e+000 -7.3210e+000 55227 77851,77799,78159
 4.6000e+000 78208 -2.1876e+000 -2.1107e+000 -6.0076e+000 55227 77851,78159,78087
 4.6000e+000 78257  8.5320e+000 -3.2471e+000 -9.0027e-001 55227 77695,78087,78231
 4.6000e+000 78280  5.6749e+000  3.1725e-001 -6.5636e-002 55227 77695,78231,77721
 4.6000e+000 78737 -7.9299e-001  1.6182e+000  2.5264e+000 54773 78463,78541,78515
 4.6000e+000 78714  1.5208e+000  3.6116e+000  1.6785e+000 54773 78463,78619,78541
 4.6000e+000 78691 -3.2782e+000 -6.1816e+000 -2.6650e+000 54773 78463,78515,78489
 4.6000e+000 78668  2.8345e+000 -8.5155e-002  1.5466e+000 54773 78541,78593,78567
 4.6000e+000 78645  7.1600e-001  2.7467e+000  2.7139e+000 54773 78541,78619,78593
 4.6000e+000 78838  3.2028e+000  8.6189e-001 -1.1912e+000 54211 78760,78812,78786
 4.6000e+000 79297  5.0011e+000 -1.3700e+000  6.3063e+000 53814 79520,79153,79049
 4.6000e+000 79274  4.2940e+000 -2.2047e+000  7.0123e+000 53814 79520,79049,79023
 4.6000e+000 79251  2.0979e+000  1.1295e+000  1.6717e+000 53814 79320,79101,79049
 4.6000e+000 79228  4.0012e+000  5.1487e+000  5.7392e+000 53814 79320,79049,79153
 4.6000e+000 79205  5.3565e-001 -3.7241e-001  1.0668e+000 53814 79049,79101,79075
 4.6000e+000 79346  1.7857e+000 -1.8011e+000 -4.4860e-001 53814 79392,79320,79127
 4.6000e+000 79369 -3.7806e-001  3.5322e+000  1.0322e+000 53814 79127,79320,79153
 4.6000e+000 79418 -1.0402e+000 -1.2349e-001 -8.4698e-001 53814 79101,79320,79392
 4.6000e+000 79546  5.9602e+000  4.4014e-001  4.6615e+000 53814 79179,79153,79520
 4.6000e+000 79569  2.8943e+000 -1.4668e+000  5.7294e+000 53814 79179,79520,79023
 4.6000e+000 80075 -1.1568e+001 -2.7008e+000  6.5934e+000 53039 80098,79908,79830
 4.6000e+000 80052 -1.4163e+001 -1.8675e+000 -2.2270e+000 53039 80098,79830,79804
 4.6000e+000 80029  3.5975e-001  4.0033e+000  8.2831e-001 53039 79752,79934,79804
 4.6000e+000 80006  1.4493e+000 -1.3633e+001  8.6707e+000 53039 79856,79908,79882
 4.6000e+000 79983  5.8309e+000 -2.3313e+001  8.2938e+000 53039 79830,79908,79856
 4.6000e+000 79960 -2.8375e+000  3.6271e+000 -2.6084e+000 53039 79752,79804,79778
 4.6000e+000 80124  2.4410e+000  4.1085e+000  8.7297e+000 53039 79934,79908,80098
 4.6000e+000 80147 -7.9648e+000  1.3049e+000 -6.1067e-001 53039 79934,80098,79804
 4.6000e+000 80555  1.9538e+001  1.0159e+001 -3.1583e+000 52699 80356,80434,80408
 4.6000e+000 80532  7.0575e+000  3.8109e+000  5.9621e-001 52699 80356,80460,80434
 4.6000e+000 80509  4.6242e+000  8.4392e+000  5.1663e+000 52699 80330,80460,80356
 4.6000e+000 80486 -1.9069e+000 -3.4376e+000  1.6757e+001 52699 80356,80408,80382
 4.6000e+000 80776  1.0169e+001  2.3135e+001 -8.5571e+000 52295 80600,80678,80626
 4.6000e+000 80753 -8.4384e+000  7.5621e+000 -1.8152e+000 52295 80600,80704,80678
 4.6000e+000 80730 -2.5530e+001  8.6975e+000 -5.5000e+000 52295 80626,80678,80652
 4.6000e+000 81156  4.9546e+000 -2.9842e+000  2.3411e+000 51891 81179,80960,80908
 4.6000e+000 81133  4.9566e+000 -4.1438e+000 -2.0853e+000 51891 81179,80908,81012
 4.6000e+000 81110  5.0521e+000  4.0779e+000 -5.9911e+000 51891 80882,81012,80908
 4.6000e+000 81087 -6.7337e+000  3.6202e+000  1.1219e+000 51891 80908,80960,80934
 4.6000e+000 81064  6.9500e+000  1.0976e+001 -4.1348e+000 51891 80882,81038,81012
 4.6000e+000 81205  1.0437e+001  1.2408e-002  4.0558e+000 51891 80986,80960,81179
 4.6000e+000 81228  6.6767e+000 -3.1105e+000 -6.7249e-001 51891 80986,81179,81012
 4.6000e+000 81606  8.7166e-001 -5.6975e+001 -1.0821e+001 51544 81410,81462,81436
 4.6000e+000 81583  8.0759e+000 -1.7264e+001  3.6996e+000 51544 81384,81462,81410
 4.6000e+000 81560 -4.8730e+000 -2.0462e+001 -4.0037e-001 51544 81358,81462,81384
 4.6000e+000 81537  3.7575e+000 -1.4600e+001 -5.0484e+000 51544 81358,81488,81462
 4.6000e+000 81514  8.4530e+000  4.7138e+000 -3.4565e+000 51544 81332,81488,81358
 4.6000e+000 81854 -9.6093e-001  5.9114e+000  4.3698e-001 51004 81877,81655,81629
 4.6000e+000 81831 -1.5804e-001  7.0330e+000  5.0780e-002 51004 81877,81629,81759
 4.6000e+000 81808  8.8009e-001  3.0946e+000 -7.0352e-001 51004 81655,81707,81681
 4.6000e+000 81785  2.2764e+000  9.9442e+000  9.7126e-003 51004 81707,81759,81733
 4.6000e+000 81903 -8.7127e-002  4.8272e+000  8.3810e-001 51004 81707,81655,81877
 4.6000e+000 81926  5.8437e-001  5.5198e+000  4.4000e-001 51004 81707,81877,81759
 4.6000e+000 82257  5.6968e-001 -1.0730e+001 -4.7644e+000 50642 82058,82136,82110
 4.6000e+000 82234 -2.9499e+000  4.1551e+000 -8.7807e+000 50642 82058,82162,82136
 4.6000e+000 82211  1.1504e+001  1.8401e+000 -2.3344e+001 50642 82058,82110,82084
 4.6000e+000 82188  2.9505e+001  1.7053e+001  4.9128e+000 50642 82032,82162,82058
 4.6000e+000 82684  1.4172e+001 -4.0602e+001  1.0270e+001 49931 82779,82707,82465
 4.6000e+000 82661 -2.4080e+000 -4.4718e+001  7.9873e+000 49931 82707,82413,82361
 4.6000e+000 82638 -1.4093e+000 -4.2185e+001 -2.5370e+000 49931 82779,82465,82439
 4.6000e+000 82615  1.0795e+001 -1.1637e+002  9.6087e+000 49931 82465,82543,82491
 4.6000e+000 82592 -5.2838e+000 -3.5662e+001 -6.3689e-001 49931 82361,82413,82387
 4.6000e+000 82569  5.1081e+000 -8.2789e+001  1.0050e+001 49931 82491,82543,82517
 4.6000e+000 82733  4.0330e+001 -4.7385e+001  7.2053e+000 49931 82543,82465,82707
 4.6000e+000 82756  1.1518e+001 -4.0849e+001  1.2324e+000 49931 82543,82707,82361
 4.6000e+000 82805  4.1785e+000 -5.9675e+001 -2.2715e+000 49931 82413,82707,82779
 4.6000e+000 82828 -3.8714e+000 -5.6465e+001 -1.4438e+001 49931 82413,82779,82439
 4.6000e+000 83255  7.4279e+000 -3.2776e+001 -4.7324e+000 49327 82984,83114,83036
 4.6000e+000 83232  2.6785e+000 -4.2213e+001 -1.7803e+001 49327 82958,83114,82984
 4.6000e+000 83209 -4.8829e-001 -4.9546e+001  1.4879e+000 49327 83036,83114,83088
 4.6000e+000 83186 -5.6702e+000 -1.9011e+001  5.7872e+000 49327 82984,83036,83010
 4.6000e+000 83163 -1.0247e+001 -3.7643e+001 -1.4627e+001 49327 82932,83114,82958
 4.6000e+000 83140 -1.2938e+001 -1.0017e+002  4.9328e-002 49327 83036,83088,83062
 4.6000e+000 83938 -1.3807e+000 -5.1096e+001  1.4410e+001 48965 83961,83673,83647
 4.6000e+000 83915  6.2719e+000 -1.5933e+001  1.8137e+001 48965 83961,83647,83543
 4.6000e+000 83892 -5.2506e+000 -2.2082e+001 -2.4991e+000 48965 83517,83725,83543
 4.6000e+000 83869 -8.2652e+000 -3.7569e+001 -6.6615e+000 48965 83673,83725,83699
 4.6000e+000 83846 -2.3539e+000 -3.6531e+000  4.5969e+000 48965 83543,83647,83621
 4.6000e+000 83823  2.8112e+000 -1.0157e+001  2.3321e+000 48965 83543,83621,83569
 4.6000e+000 83800 -1.7090e+000 -2.0448e+001 -1.9258e+000 48965 83517,83751,83725
 4.6000e+000 83777 -4.8472e-001 -1.1563e+001  3.1100e+000 48965 83569,83621,83595
 4.6000e+000 83987 -3.5991e+000 -4.6833e+001 -8.1358e+000 48965 83725,83673,83961
 4.6000e+000 84010  2.7173e+000 -3.1511e+001 -4.3624e-001 48965 83725,83961,83543
 4.6000e+000 84258 -7.2425e+000 -4.0158e+001  1.1284e+001 48447 84281,84059,84033
 4.6000e+000 84235 -2.3376e+000 -2.6365e+001  1.3940e+000 48447 84281,84033,84163
 4.6000e+000 84212 -5.8136e+000 -1.6839e+001 -6.2580e+000 48447 84059,84111,84085
 4.6000e+000 84189  9.9122e+000 -1.7746e+001 -9.1320e+000 48447 84111,84163,84137
 4.6000e+000 84307  1.1751e+000 -3.6791e+001  4.2787e-001 48447 84111,84059,84281
 4.6000e+000 84330  9.8860e+000 -2.7166e+001 -9.1575e+000 48447 84111,84281,84163
 4.6000e+000 84529  1.3269e+001 -1.4523e+001  1.6820e+000 47993 84552,84405,84379
 4.6000e+000 84506  2.3666e+000 -1.9933e+001 -8.4393e-002 47993 84552,84379,84353
 4.6000e+000 84483  1.2198e+001 -1.9622e+001 -9.9245e-001 47993 84624,84457,84431
 4.6000e+000 84578  1.4584e+001 -1.8652e+001 -1.3715e+000 47993 84431,84405,84552
 4.6000e+000 84601  1.2313e+001 -1.9439e+001 -1.0908e+000 47993 84624,84431,84552
 4.6000e+000 84650  1.2319e+001 -1.9744e+001 -8.9039e-001 47993 84353,84457,84624
 4.6000e+000 84673  1.2357e+001 -1.9721e+001 -9.9897e-001 47993 84353,84624,84552
 4.6000e+000 85104 -2.8251e+000 -4.6533e+001 -1.8191e+000 47588 85199,85127,84885
 4.6000e+000 85081 -4.1020e+000 -5.5296e+001 -5.5925e+000 47588 85127,84781,84963
 4.6000e+000 85058 -1.2066e+001 -4.2931e+001  9.7456e+000 47588 85199,84885,84807
 4.6000e+000 85035  5.9834e+000 -3.2570e+001  1.7265e+001 47588 84885,84937,84911
 4.6000e+000 85012 -4.0023e+000 -2.6672e+001  4.1855e+000 47588 84807,84885,84833
 4.6000e+000 84989 -1.2145e+001 -2.9550e+001  2.6138e+001 47588 84833,84885,84859
 4.6000e+000 85153 -4.7917e+000 -5.9103e+001  2.8048e-002 47588 84937,84885,85127
 4.6000e+000 85176  1.3478e+001 -5.3742e+001 -5.7099e-001 47588 84937,85127,84963
 4.6000e+000 85225 -2.1707e+001 -5.5220e+001 -3.9187e+000 47588 84781,85127,85199
 4.6000e+000 85248 -2.6200e+001 -4.8971e+001  9.0148e+000 47588 84781,85199,84807
 4.6000e+000 85518 -1.4684e+001 -1.1550e+002  1.5819e+001 47226 85293,85397,85319
 4.6000e+000 85495 -6.0382e+000 -1.0570e+002  8.9411e+000 47226 85293,85423,85397
 4.6000e+000 85472 -3.2793e+000 -1.1966e+002 -4.8634e+000 47226 85319,85397,85345
 4.6000e+000 85449  1.5010e+001 -2.1337e+001 -7.5181e+000 47226 85345,85397,85371
 4.6000e+000 85849 -9.4821e+000 -4.7484e+001  2.0896e+001 46572 85624,85702,85650
 4.6000e+000 85826 -3.6552e+000 -5.4657e+001  7.2448e+000 46572 85624,85754,85702
 4.6000e+000 85803  1.4727e+001 -2.4015e+001  1.7027e+001 46572 85702,85754,85728
 4.6000e+000 85780 -7.4824e+000 -4.7056e+001  2.1907e+001 46572 85650,85702,85676
 4.6000e+000 86070 -3.9836e+001 -5.4415e+001 -1.7301e+000 46374 85920,85972,85946
 4.6000e+000 86047 -1.5161e+001  2.6682e+000  4.4294e-001 46374 85920,85998,85972
 4.6000e+000 86024 -8.6211e+000  9.4493e+000  3.9699e+000 46374 85894,85998,85920
 4.6000e+000 86401  1.5916e+000 -1.6397e+001  3.8339e+000 46034 86424,86280,86228
 4.6000e+000 86378 -7.5863e+000 -2.2215e+001  1.1006e+000 46034 86424,86228,86176
 4.6000e+000 86355 -7.2876e+000 -2.0752e+001  4.9036e-001 46034 86176,86228,86202
 4.6000e+000 86332  1.0908e+001 -1.2463e+001 -8.8056e+000 46034 86228,86280,86254
 4.6000e+000 86450  2.1814e+001 -2.5358e+001  3.3734e-001 46034 86306,86280,86424
 4.6000e+000 86473  2.4606e+000 -3.7500e+001 -4.8283e+000 46034 86306,86424,86176
 4.6000e+000 87058  5.3356e+000 -1.5283e+001  8.4649e+000 45516 86813,86917,86865
 4.6000e+000 87035  1.2042e+000 -3.1665e+001  1.8421e+000 45516 86787,86917,86813
 4.6000e+000 87012  3.9819e+000 -2.4838e+001  2.7638e+000 45516 86735,86917,86787
 4.6000e+000 86989  2.5546e+000 -1.2774e+001  7.4610e+000 45516 86865,86917,86891
 4.6000e+000 86966  9.3673e-002 -1.6345e+001  6.9926e+000 45516 86813,86865,86839
 4.6000e+000 86943 -6.4616e+000 -6.7331e+001 -1.9994e+000 45516 86735,86787,86761
 4.6000e+000 87208  2.0434e+001 -6.9214e+000 -5.9562e+000 45226 87231,87133,87107
 4.6000e+000 87185  9.5583e+000  8.9413e-001 -5.8409e+000 45226 87081,87159,87133
 4.6000e+000 87257  1.4944e+001  1.4651e+001 -4.7195e+000 45226 87081,87133,87231
 4.6000e+000 87537  7.4961e-001 -2.3289e+001  1.8295e+000 44772 87387,87439,87413
 4.6000e+000 87514 -5.0023e+000 -2.8370e+001  6.8226e+000 44772 87361,87439,87387
 4.6000e+000 87491  2.3597e+000 -2.2945e+001  4.1877e+000 44772 87361,87465,87439
 4.6000e+000 87996  1.6536e+000  1.8793e+001  7.8824e+000 44425 87748,87878,87852
 4.6000e+000 87973  2.2738e-001  1.8623e+001  9.9367e-002 44425 87722,87878,87748
 4.6000e+000 87950  2.5763e+000  1.2626e+001  4.4260e+000 44425 87800,87852,87826
 4.6000e+000 87927  1.9666e+001  1.9552e+001  5.4926e+000 44425 87748,87852,87800
 4.6000e+000 87904  2.4452e+000  1.5470e+001 -7.2656e+000 44425 87748,87800,87774
 4.6000e+000 88423 -9.9432e+000 -2.4029e+001  9.8373e+000 44078 88590,88230,88204
 4.6000e+000 88400 -4.3432e+000 -9.9532e+000  6.7722e+000 44078 88518,88446,88204
 4.6000e+000 88377  3.0222e+000 -2.6545e+001 -4.8707e+000 44078 88446,88126,88282
 4.6000e+000 88354 -3.7906e+000 -2.3814e+000  2.7178e+000 44078 88518,88204,88178
 4.6000e+000 88331  1.5840e+000 -3.5542e+001 -4.9814e+000 44078 88100,88282,88126
 4.6000e+000 88308 -5.4948e+000 -3.1450e+001  1.3527e+001 44078 88126,88178,88152
 4.6000e+000 88472 -1.1339e+001 -2.6936e+001  8.5724e+000 44078 88590,88204,88446
 4.6000e+000 88495 -4.5062e+000 -4.9605e+001 -6.7744e+000 44078 88256,88446,88282
 4.6000e+000 88544 -1.4438e+000 -2.7534e+001  8.7863e+000 44078 88126,88446,88518
 4.6000e+000 88567  3.5557e+000 -1.3795e+001  4.7080e+000 44078 88126,88518,88178
 4.6000e+000 88616 -1.4180e+001 -7.0734e+001  6.6127e+000 44078 88256,88230,88590
 4.6000e+000 88639 -5.5076e+000 -2.3179e+001  4.2233e+000 44078 88256,88590,88446
 4.6000e+000 89039  8.8455e+000  2.0339e+001  4.1762e+000 43716 88791,88921,88895
 4.6000e+000 89016  7.3810e+000  1.9496e+001  3.7236e+000 43716 88765,88921,88791
 4.6000e+000 88993  2.0459e+001  1.3757e+001  5.7653e+000 43716 88817,88895,88869
 4.6000e+000 88970  1.0839e+001  1.6991e+001  8.9330e+000 43716 88791,88895,88817
 4.6000e+000 88947  2.4023e+000  1.1194e+001  2.4925e+000 43716 88817,88869,88843
 4.6000e+000 89496  1.1963e+000 -3.5855e+001 -3.5597e+000 43162 89519,89274,89248
 4.6000e+000 89473  4.7093e+000 -1.5854e+001  5.3825e-001 43162 89519,89248,89222
 4.6000e+000 89450  3.5502e+000 -8.1262e+000 -5.1735e+000 43162 89326,89378,89352
 4.6000e+000 89427  3.9190e-001 -1.4347e+001  6.1481e-002 43162 89274,89378,89326
 4.6000e+000 89404  2.7582e+000 -2.0425e+001 -7.2885e-001 43162 89274,89326,89300
 4.6000e+000 89545 -4.8892e-001 -1.7494e+001  1.3947e+000 43162 89378,89274,89519
 4.6000e+000 89568  4.2836e+000  4.0393e+000  5.7593e+000 43162 89378,89519,89222
 4.6000e+000 89946 -9.3722e-001 -1.3094e+001 -1.6264e+001 42594 90041,89969,89750
 4.6000e+000 89923 -3.3844e+000 -9.1349e+000 -3.0608e+000 42594 89969,89698,89828
 4.6000e+000 89900  8.2994e+000 -1.7643e+001 -1.4344e+001 42594 90041,89750,89724
 4.6000e+000 89877  3.7745e-002 -2.5297e+000 -7.8704e+000 42594 89750,89802,89776
 4.6000e+000 89854  1.9643e+000  3.0326e-001 -8.2247e-001 42594 89672,89828,89698
 4.6000e+000 89995 -4.8689e+000 -6.3561e+000 -1.2861e+001 42594 89802,89750,89969
 4.6000e+000 90018  3.5136e+000  9.7474e+000 -1.1873e+000 42594 89802,89969,89828
 4.6000e+000 90067  7.4188e+000 -5.0203e+000 -1.2760e+001 42594 89698,89969,90041
 4.6000e+000 90090  1.5711e+001 -1.3162e+001 -1.2470e+001 42594 89698,90041,89724
 4.6000e+000 90517  9.2492e+000 -2.5024e+001 -2.7479e+000 42140 90540,90220,90194
 4.6000e+000 90494  1.1623e+001 -2.5774e+001 -3.7514e+000 42140 90540,90194,90376
 4.6000e+000 90471  6.5336e+000 -2.8387e+001 -7.0296e-001 42140 90612,90350,90272
 4.6000e+000 90448  3.4340e+000 -2.8737e+001 -2.0957e+000 42140 90272,90350,90298
 4.6000e+000 90425  9.6389e+000 -1.1979e+001 -1.1811e+000 42140 90298,90350,90324
 4.6000e+000 90402  1.2913e+001 -1.4982e+001  9.8989e-001 42140 90220,90272,90246
 4.6000e+000 90566  1.0127e+001 -1.5710e+001 -1.5014e+000 42140 90272,90220,90540
 4.6000e+000 90589  7.6135e+000 -2.5865e+001 -7.3577e-001 42140 90612,90272,90540
 4.6000e+000 90638  8.4155e+000 -3.1911e+001 -3.6503e+000 42140 90376,90350,90612
 4.6000e+000 90661  1.0605e+001 -2.7562e+001 -4.4888e+000 42140 90376,90612,90540
 4.6000e+000 91167  8.4571e-001 -7.6393e+000  6.2979e-001 41636 91190,90870,90844
 4.6000e+000 91144 -4.4483e+000 -5.3061e+001  2.8522e+000 41636 91190,90844,91026
 4.6000e+000 91121 -2.4535e+000  2.4401e+000 -6.7629e+000 41636 90870,90922,90896
 4.6000e+000 91098  9.1065e+000 -3.6304e+001 -3.2632e+000 41636 90922,91026,90948
 4.6000e+000 91075  2.1222e+001 -3.7118e+001  1.7379e+000 41636 90948,91026,91000
 4.6000e+000 91052 -2.6495e+001 -5.6687e+001  3.6844e+001 41636 90948,91000,90974
 4.6000e+000 91216 -6.4196e+000  6.3538e+000  9.4544e-001 41636 90922,90870,91190
 4.6000e+000 91239  9.1891e+000 -1.0161e+001  8.4659e+000 41636 90922,91190,91026
 4.6000e+000 91696  8.4610e+000 -1.4207e+001 -1.0577e+000 40449 91448,91526,91474
 4.6000e+000 91673 -7.9919e+000 -2.1862e+001  9.7206e-001 40449 91448,91578,91526
 4.6000e+000 91650  5.3498e+000  1.5395e+000 -3.2883e+000 40449 91474,91526,91500
 4.6000e+000 91627  3.7550e+000 -1.3663e+001  4.7537e+000 40449 91422,91578,91448
 4.6000e+000 91604  2.0340e+001 -1.1097e+001 -6.8160e+000 40449 91526,91578,91552
 4.6000e+000 92123  9.8179e+000 -2.8420e+001  7.4638e+000 39995 92146,91904,91826
 4.6000e+000 92100 -6.2614e+000 -3.6011e+001  2.4934e+000 39995 92146,91826,91800
 4.6000e+000 92077 -1.2674e+001 -1.3545e+001  4.7977e+000 39995 91826,91904,91852
 4.6000e+000 92054 -4.7514e+000 -8.0605e+001 -1.3870e+001 39995 91904,91982,91930
 4.6000e+000 92031 -6.7498e+000 -7.4505e+000  1.4276e+001 39995 91852,91904,91878
 4.6000e+000 92008 -2.5640e+000 -5.3089e+001 -1.1667e+001 39995 91930,91982,91956
 4.6000e+000 92172  1.8633e+001 -3.9025e+001 -4.3321e+000 39995 91982,91904,92146
 4.6000e+000 92195  5.3051e+000 -4.9641e+001 -9.5151e+000 39995 91982,92146,91800
 4.6000e+000 92652  9.5771e-002  7.6102e+000  2.4628e+000 39633 92404,92534,92456
 4.6000e+000 92629 -2.0343e+000  9.2163e+000  1.8977e+000 39633 92378,92534,92404
 4.6000e+000 92606 -6.0839e+000  5.3712e+000  5.3726e+000 39633 92404,92456,92430
 4.6000e+000 92583 -1.3560e+000  8.5553e+000  3.9437e+000 39633 92456,92534,92508
 4.6000e+000 92560  2.4349e+000  6.5949e+000  6.0555e+000 39633 92456,92508,92482
 4.6000e+000 93079 -6.8062e+000 -1.6451e+001 -6.9697e+000 39093 93102,92808,92756
 4.6000e+000 93056 -1.2340e+000 -1.7070e+001 -5.1107e+000 39093 93102,92756,92938
 4.6000e+000 93033 -1.0669e+000 -1.3433e+001 -2.1089e+000 39093 93174,92912,92834
 4.6000e+000 93010 -5.5219e+000  8.2914e+000  8.6727e+000 39093 92834,92912,92860
 4.6000e+000 92987 -4.9359e+000 -3.6078e+001 -1.4550e+001 39093 92756,92808,92782
 4.6000e+000 92964  9.4516e+000  2.5293e+001 -1.1658e+001 39093 92860,92912,92886
 4.6000e+000 93128 -2.4129e+000 -1.4546e+001 -5.3936e+000 39093 92834,92808,93102
 4.6000e+000 93151 -3.3223e+000 -1.7264e+001 -4.8519e+000 39093 93174,92834,93102
 4.6000e+000 93200  4.3009e-001 -1.3479e+001 -2.8976e-001 39093 92938,92912,93174
 4.6000e+000 93223  2.2397e+000 -1.4372e+001 -2.5760e+000 39093 92938,93174,93102
 4.6000e+000 93680  9.5044e+000  9.9230e+000 -4.2789e-003 38639 93703,93536,93484
 4.6000e+000 93657  7.4288e+000  1.1908e+001  3.8137e-001 38639 93703,93484,93432
 4.6000e+000 93634  3.4893e+000  1.1577e+001 -8.6565e-001 38639 93432,93484,93458
 4.6000e+000 93611  1.0455e+001  1.5367e+001  9.3222e+000 38639 93484,93536,93510
 4.6000e+000 93588  7.9759e+000  1.0546e+001  1.2386e+000 38639 93406,93562,93432
 4.6000e+000 93729  8.0334e+000  8.2310e+000 -6.2825e-001 38639 93562,93536,93703
 4.6000e+000 93752  5.8360e+000  1.0636e+001 -2.5292e-001 38639 93562,93703,93432
 4.6000e+000 94160  6.9430e-001  9.4936e+000  4.7289e+000 38292 93935,94039,93961
 4.6000e+000 94137 -1.5488e+000  4.4011e+000  4.3845e+000 38292 93935,94065,94039
 4.6000e+000 94114 -7.2438e+000 -8.9579e+000 -2.4137e+000 38292 93961,94013,93987
 4.6000e+000 94091  5.6568e+000 -1.0998e+001  4.4616e+000 38292 93961,94039,94013
 4.6000e+000 94408  8.7655e+000  3.1779e-001  6.5677e+000 37880 94431,94261,94235
 4.6000e+000 94385  1.3209e+001 -1.8066e+000  8.5889e+000 37880 94431,94235,94313
 4.6000e+000 94362  1.0490e+001 -8.1379e+000  9.0318e+000 37880 94209,94313,94235
 4.6000e+000 94339  2.0078e+001  1.8016e+001  3.3742e+000 37880 94183,94313,94209
 4.6000e+000 94457  4.6879e-001 -4.2036e-001  7.6163e+000 37880 94287,94261,94431
 4.6000e+000 94480  8.7590e+000  2.0720e-001  8.6422e+000 37880 94287,94431,94313
 4.6000e+000 94728 -4.0906e+000 -3.1387e+000 -2.8408e+000 37426 94529,94607,94555
 4.6000e+000 94705  1.0616e+001 -6.5159e+001 -1.2180e+001 37426 94529,94633,94607
 4.6000e+000 94682 -1.0193e+000 -6.8322e+001 -1.3571e+001 37426 94503,94633,94529
 4.6000e+000 94659 -1.2682e+000 -3.9013e+000 -2.3342e+000 37426 94555,94607,94581
 4.6000e+000 95257  5.8115e-001  4.1203e-003  5.8104e-001 36722 95496,95280,94862
 4.6000e+000 95234 -1.3493e+000 -1.0056e+000 -3.8517e-001 36722 95496,94862,94836
 4.6000e+000 95211 -1.3792e-001  5.2861e-001 -2.0738e-001 36722 95352,95280,95070
 4.6000e+000 95188 -3.0320e-001 -1.2358e+000 -7.1889e-001 36722 95352,95070,95044
 4.6000e+000 95165 -6.7346e-001 -3.4104e-001 -4.8430e-002 36722 95424,94888,94862
 4.6000e+000 95142 -4.2710e+000  5.0530e+000  4.7243e-001 36722 94914,94966,94940
 4.6000e+000 95119 -8.9814e-002 -4.8194e-001 -4.9320e-001 36722 94966,95044,95018
 4.6000e+000 95096 -2.4775e-001 -7.6143e-001 -6.2948e-001 36722 94966,95018,94992
 4.6000e+000 95306 -5.0850e-001  8.2252e-001 -9.0450e-002 36722 95424,94862,95280
 4.6000e+000 95329  7.2768e-001  5.9831e+000 -1.1329e+000 36722 94914,95280,94966
 4.6000e+000 95378  1.3163e-001  1.1659e+000  6.2352e-001 36722 94966,95280,95352
 4.6000e+000 95401  5.8808e-001  4.9581e-001  8.4878e-002 36722 94966,95352,95044
 4.6000e+000 95450 -6.3571e-001  3.5093e-001 -6.9105e-001 36722 94914,94888,95424
 4.6000e+000 95473 -7.4381e-001  3.7928e-001 -5.4093e-001 36722 94914,95424,95280
 4.6000e+000 95522  7.7743e-001 -6.5761e-001  5.1169e-001 36722 95070,95280,95496
 4.6000e+000 95545  9.1811e-001 -7.3076e-001  4.5366e-001 36722 95070,95496,94836
 4.6000e+000 96130  1.7033e+000 -2.3445e-002  1.5625e+000 36268 96153,95911,95859
 4.6000e+000 96107  2.8739e+000  1.0342e+001  2.1949e+000 36268 96153,95859,95807
 4.6000e+000 96084  3.5568e+000  1.3569e+001  3.7183e+000 36268 95807,95859,95833
 4.6000e+000 96061 -5.9368e+000  1.0405e+000 -1.0624e+000 36268 95911,95989,95937
 4.6000e+000 96038 -1.2954e+000 -2.1651e-001  6.7497e+000 36268 95859,95911,95885
 4.6000e+000 96015 -3.6924e-001  3.1357e+000 -1.7177e+000 36268 95937,95989,95963
 4.6000e+000 96179 -3.2362e+000  9.1553e+000 -8.0632e-001 36268 95989,95911,96153
 4.6000e+000 96202 -2.8173e-002  2.2377e+001  2.1372e-001 36268 95989,96153,95807
 4.6000e+000 96531  2.0369e+000  9.8829e+000  8.8022e+000 35728 96358,96410,96384
 4.6000e+000 96508  2.3538e+001  2.0005e+001  4.7815e+000 35728 96332,96410,96358
 4.6000e+000 96485  1.2132e+001  6.6418e+000  1.4983e+001 35728 96332,96436,96410
 4.6000e+000 96462  1.6858e+000  1.8340e+001 -4.0245e-001 35728 96306,96436,96332
 4.6000e+000 96860  1.8734e+000 -7.0337e+000  1.4691e+000 35324 96687,96765,96713
 4.6000e+000 96837  5.0369e+000 -1.9511e+000 -4.0473e+000 35324 96661,96765,96687
 4.6000e+000 96814  6.5196e+000  8.4612e+000 -6.5290e+000 35324 96713,96765,96739
 4.6000e+000 96791 -4.7870e+000  4.5588e+000 -3.5252e+000 35324 96635,96765,96661
 4.6000e+000 97366  1.4293e+000 -8.5620e-001 -2.8140e+000 34920 97389,97069,97043
 4.6000e+000 97343  3.0263e+000 -2.0846e+000 -5.3166e-001 34920 97389,97043,97199
 4.6000e+000 97320  3.2564e+000  7.1336e+000  1.2480e+000 34920 97043,97225,97199
 4.6000e+000 97297  6.5961e+000 -1.7135e+001  4.5945e-001 34920 97069,97121,97095
 4.6000e+000 97274  4.4191e+000 -7.3593e+000 -8.3275e-001 34920 97121,97199,97173
 4.6000e+000 97251 -3.4896e-004 -5.7682e+000 -3.0173e+000 34920 97121,97173,97147
 4.6000e+000 97415 -1.1605e-001 -1.6943e+000 -1.9838e+000 34920 97121,97069,97389
 4.6000e+000 97438 -5.1282e-001 -4.4192e+000  6.5821e-001 34920 97121,97389,97199
 4.6000e+000 97708 -1.1760e+001  5.2099e-002  3.2555e+000 34722 97509,97587,97535
 4.6000e+000 97685 -7.4485e+000  5.0933e+000  1.3863e+000 34722 97509,97613,97587
 4.6000e+000 97662 -7.6370e+000  5.7236e+000  2.4718e+000 34722 97483,97613,97509
 4.6000e+000 97639 -8.3283e+000  2.0196e-001  1.0745e+000 34722 97535,97587,97561
 4.6000e+000 98216 -3.5723e+000 -1.0137e+000  4.8814e+000 34318 97971,98075,97997
 4.6000e+000 98193 -2.7302e-001  1.6190e+000  8.1103e+000 34318 97893,98075,97971
 4.6000e+000 98170  9.6985e+000 -5.6861e+000  2.6247e+000 34318 97893,97971,97919
 4.6000e+000 98147 -1.4077e+000  1.2522e+001  7.0212e+000 34318 97997,98075,98049
 4.6000e+000 98124 -5.5447e-002 -8.8839e+000  3.7701e+000 34318 97919,97971,97945
 4.6000e+000 98101 -7.2754e+000 -2.5620e+000  3.6892e+000 34318 97997,98049,98023
 4.6000e+000 98594  3.8107e+000  3.5504e+000 -3.1939e-001 33814 98961,98617,98424
 4.6000e+000 98571  1.6858e+001  4.5649e+000  1.7870e+000 33814 98689,98617,98372
 4.6000e+000 98548  1.8440e+001  1.6745e+001  6.7976e-002 33814 99033,98689,98372
 4.6000e+000 98525  1.4224e+001  7.7409e+000 -2.9762e+000 33814 98761,98476,98450
 4.6000e+000 98502 -1.3821e+000  3.0314e+000 -2.0347e+000 33814 98961,98424,98398
 4.6000e+000 98643  7.7167e+000  2.8942e+000 -3.4733e+000 33814 98450,98424,98617
 4.6000e+000 98666  1.0344e+001  7.1051e+000 -2.3128e+000 33814 98761,98450,98617
 4.6000e+000 98715  1.6564e+001  5.6621e+000  7.5437e-001 33814 99161,98689,98320
 4.6000e+000 98738  4.1819e+000  1.0215e+000  4.3107e+000 33814 98320,98689,98346
 4.6000e+000 98787  1.2434e+001  5.7646e+000 -2.7590e+000 33814 98833,98761,98320
 4.6000e+000 98810  1.4724e+001  6.9548e+000 -2.3303e+000 33814 99161,98320,98761
 4.6000e+000 98859  1.4921e+001  1.2241e+001 -4.8049e+000 33814 98476,98761,98833
 4.6000e+000 98987  1.3880e+001 -2.0760e+000 -1.9234e+000 33814 98372,98617,98961
 4.6000e+000 99010  7.5801e+000 -4.1599e+000 -4.9331e+000 33814 98372,98961,98398
 4.6000e+000 99059  1.3855e+001  3.9502e+000  3.0067e+000 33814 98346,98689,99033
 4.6000e+000 99187  1.4322e+001  1.0971e+000 -6.9830e-002 33814 98617,98689,99161
 4.6000e+000 99210  1.2393e+001  2.8368e+000 -3.2782e+000 33814 98617,99161,98761
 4.6000e+000 99588  1.0773e+000 -4.4581e+000  1.2350e-001 33566 99366,99444,99392
 4.6000e+000 99565  6.9009e-001 -1.8693e+000  5.3504e-001 33566 99314,99444,99366
 4.6000e+000 99542  1.4408e+000 -4.1623e+000 -1.5297e+000 33566 99314,99366,99340
 4.6000e+000 99519  1.6422e+000  2.4478e-001 -1.9239e+000 33566 99314,99470,99444
 4.6000e+000 99496 -6.8419e-001 -5.6685e+000  1.5793e+000 33566 99392,99444,99418
 4.6000e+000 99787  2.2279e+001  4.2501e+001 -8.9180e-001 33105 99637,99689,99663
 4.6000e+000 99764  1.3215e+001  3.5981e+001  4.1390e+000 33105 99611,99689,99637
 4.6000e+000 99741  1.2896e+001  2.5309e+001  2.2686e+000 33105 99611,99715,99689
 4.6000e+000 100167  3.3020e+000 -1.7391e+000  2.1362e+000 32651 100190,99971,99919
 4.6000e+000 100144  2.7339e-001  1.9374e+000  2.2215e+000 32651 100262,100190,99919
 4.6000e+000 100121  1.2075e+000  1.9382e+000  2.6110e+000 32651 100262,99919,100049
 4.6000e+000 100098 -4.2100e-001  1.3548e+000 -6.3953e-001 32651 99893,100049,99919
 4.6000e+000 100075  1.0199e+000 -6.8204e+000  1.4177e+000 32651 99919,99971,99945
 4.6000e+000 100216  1.0842e+000 -5.2398e+000 -1.2846e+000 32651 99997,99971,100190
 4.6000e+000 100239  1.3161e+000  1.1178e-001  6.7146e-001 32651 99997,100190,100023
 4.6000e+000 100288  1.9354e+000  1.5230e+000  2.5648e+000 32651 100023,100190,100262
 4.6000e+000 100311  5.4681e+000  2.9331e+000  2.5079e+000 32651 100023,100262,100049
 4.6000e+000 100608  9.2426e+000  2.3584e+001 -9.0259e+000 32254 100386,100490,100464
 4.6000e+000 100585  7.3422e+000  1.8256e+001 -9.2277e+000 32254 100360,100490,100386
 4.6000e+000 100562  6.6889e+000  3.0000e+001 -4.8678e+000 32254 100386,100464,100412
 4.6000e+000 100539  4.9262e-001  1.8435e+001 -2.9974e+000 32254 100334,100490,100360
 4.6000e+000 100516  6.4635e+000  1.3597e+001 -1.6911e+000 32254 100412,100464,100438
 4.6000e+000 100758  4.0775e+000  8.1636e+000 -4.1148e+000 31914 100985,100781,100683
 4.6000e+000 100735 -1.2687e+000  6.8374e-001  1.4208e+000 31914 100853,100781,100657
 4.6000e+000 100807  5.7902e+000  4.9779e+000 -6.2451e+000 31914 100709,100683,100781
 4.6000e+000 100830  1.1263e+000  4.0660e+000 -2.6128e+000 31914 100709,100781,100631
 4.6000e+000 100879  6.6807e-001 -1.9110e+000  7.6766e-001 31914 100631,100781,100853
 4.6000e+000 101011  4.6430e+000  6.4107e-001 -2.4894e+000 31914 100657,100781,100985
 4.6000e+000 101191 -3.3127e+001  3.2972e+001 -4.4157e+000 31418 101113,101165,101139
 4.6000e+000 101341 -3.1399e+001 -4.2279e+001 -4.9230e+000 31106 101214,101266,101240
 4.6000e+000 101318 -1.6921e+001  1.2820e+000  2.1969e+000 31106 101214,101292,101266
 4.6000e+000 101591 -5.2846e+000 -8.4115e+000  8.4871e-001 30552 101614,101470,101444
 4.6000e+000 101568 -4.7230e+000 -6.7379e+000  2.1831e+000 30552 101366,101496,101470
 4.6000e+000 101545 -4.7913e+000 -1.0809e+001 -3.8365e-001 30552 101614,101444,101392
 4.6000e+000 101522 -1.5506e+000 -6.7773e+000 -2.7090e+000 30552 101392,101444,101418
 4.6000e+000 101640 -4.3213e+000 -6.6305e+000  2.2343e+000 30552 101366,101470,101614
 4.6000e+000 101663 -3.9709e+000 -9.0247e+000  9.4540e-001 30552 101366,101614,101392
 4.6000e+000 102301  1.3368e+000 -1.5045e+001 -1.0120e+001 30042 102396,102324,102059
 4.6000e+000 102278  2.9800e+000 -1.7676e+001 -2.0278e+001 30042 102324,101981,101955
 4.6000e+000 102255 -6.4891e+000 -9.0923e+000 -4.6081e-001 30042 102396,102059,102033
 4.6000e+000 102232 -2.0277e+000 -4.3178e+000  3.7478e+000 30042 101929,102111,101955
 4.6000e+000 102209  3.1513e+000 -1.4554e+001  1.0755e+000 30042 102059,102111,102085
 4.6000e+000 102186 -1.1216e+000 -2.3157e+000 -2.4413e-001 30042 101929,102137,102111
 4.6000e+000 102163 -8.6166e-001  5.8704e+000  3.3129e+000 30042 101981,102033,102007
 4.6000e+000 102350  1.4820e+001 -1.2028e+001 -4.1926e+000 30042 102111,102059,102324
 4.6000e+000 102373  9.2468e+000 -2.3512e+001 -5.9197e+000 30042 102111,102324,101955
 4.6000e+000 102422  1.2080e+001  5.8429e+000 -1.4422e+001 30042 101981,102324,102396
 4.6000e+000 102445  4.1193e+000  1.1775e+001 -4.5367e+000 30042 101981,102396,102033
 4.6000e+000 103000  2.1584e+001 -8.0398e+000 -2.6155e+000 29730 103023,102706,102654
 4.6000e+000 102977  6.1351e+000 -1.0557e+001 -5.0781e+000 29730 103023,102654,102810
 4.6000e+000 102954 -5.3015e+000 -2.1525e+001 -8.6530e+000 29730 102732,102810,102784
 4.6000e+000 102931  5.9663e+000 -1.3349e+001 -5.8727e+000 29730 102628,102810,102654
 4.6000e+000 102908  1.9727e+001  1.2519e+001  3.4133e+000 29730 102654,102706,102680
 4.6000e+000 102885 -3.4308e+000 -1.3600e+001 -1.1681e+001 29730 102732,102784,102758
 4.6000e+000 102862 -2.7776e-001 -1.7064e+001 -2.2123e+000 29730 102628,102836,102810
 4.6000e+000 103049  1.2415e+001 -1.1098e+001 -1.0428e+001 29730 102732,102706,103023
 4.6000e+000 103072  2.8936e+000 -8.3079e+000 -1.2246e+001 29730 102732,103023,102810
 4.6000e+000 103222  1.2103e+001  2.6703e+001  2.0378e+000 29226 103095,103147,103121
 4.6000e+000 103199  3.0406e+000  2.1074e+001  4.5598e+000 29226 103095,103173,103147
 4.6000e+000 103730 -1.0487e+000 -1.7058e+001  5.1473e+000 28822 103537,103589,103563
 4.6000e+000 103707  2.7620e+000 -7.8011e+000  3.9006e+000 28822 103433,103589,103537
 4.6000e+000 103684  1.7088e+001  1.0609e+000 -1.6869e+000 28822 103433,103537,103459
 4.6000e+000 103661  1.8887e+001 -1.3338e+001  9.3473e+000 28822 103407,103589,103433
 4.6000e+000 103638  5.4298e+000  1.1528e+001  6.1482e+000 28822 103459,103511,103485
 4.6000e+000 103615 -6.0566e+000  1.2250e+001  5.7058e+000 28822 103459,103537,103511
 4.6000e+000 103880  1.2243e+001  2.1502e+000  3.2000e+000 28368 103975,103903,103779
 4.6000e+000 103857  2.1790e+000 -2.6130e+001  5.4147e-001 28368 103903,103753,103831
 4.6000e+000 103929  2.0909e+000  9.9790e+000 -3.2624e+000 28368 103805,103779,103903
 4.6000e+000 103952 -1.2728e+000 -2.6302e+000 -2.4270e+000 28368 104105,103903,103831
 4.6000e+000 104001  9.8322e+000 -3.2932e+000 -4.5467e+000 28368 103753,103903,103975
 4.6000e+000 104131 -1.8738e+000 -1.3171e+000  2.6367e-001 28368 103805,103903,104105
 4.6000e+000 104539  2.6103e+000  2.7450e+000  3.4113e+000 28028 104562,104340,104314
 4.6000e+000 104516  1.9327e+000  9.7349e+000  5.2608e+000 28028 104634,104562,104314
 4.6000e+000 104493 -3.1699e+000 -1.1668e-001 -1.0033e+000 28028 104762,104366,104340
 4.6000e+000 104470 -1.9020e+000 -5.9001e-001 -6.1864e-001 28028 104366,104418,104392
 4.6000e+000 104588  3.8348e-002 -2.8822e-001  7.4673e-002 28028 104762,104340,104562
 4.6000e+000 104611  3.2774e-001  4.9624e+000  3.0578e+000 28028 104418,104562,104444
 4.6000e+000 104660  3.3601e+000  6.5488e+000  5.4443e+000 28028 104444,104562,104634
 4.6000e+000 104788  3.4473e-001  6.1543e-001 -1.3643e-001 28028 104418,104366,104762
 4.6000e+000 104811  3.5973e+000  8.3407e-001  1.2299e+000 28028 104418,104762,104562
 4.6000e+000 105010  8.2423e+000 -4.8918e+000 -6.2738e+000 27324 105033,104886,104860
 4.6000e+000 104987  4.1751e+000 -5.4046e+000 -3.1197e+000 27324 105033,104860,104834
 4.6000e+000 104964  8.3615e-001  8.6931e+000 -1.0259e+001 27324 105105,104912,104886
 4.6000e+000 105059  1.0102e+001  2.6519e+000 -8.8576e+000 27324 105105,104886,105033
 4.6000e+000 105082  5.7123e+000 -4.2693e+000 -4.2320e+000 27324 104938,105033,104834
 4.6000e+000 105131 -6.9347e+000  2.6314e+000 -6.6509e+000 27324 104938,104912,105105
 4.6000e+000 105154  3.9537e-001 -6.4424e+000 -4.6974e+000 27324 104938,105105,105033
 4.6000e+000 105402  1.1829e+001  1.3384e+001 -1.7049e-001 27012 105229,105281,105255
 4.6000e+000 105379  9.2819e+000  8.8805e+000  1.4867e+000 27012 105229,105307,105281
 4.6000e+000 105356  8.8821e+000  3.4490e+000 -8.2219e-001 27012 105177,105307,105229
 4.6000e+000 105333  1.4934e+001  9.4921e+000  3.6213e+000 27012 105177,105229,105203
 4.6000e+000 105603 -5.5502e+000  3.4436e+000 -9.0922e+000 26508 105626,105453,105427
 4.6000e+000 105580 -8.1336e+000 -2.7807e+000 -6.1552e+000 26508 105626,105427,105505
 4.6000e+000 105557 -1.4618e+000 -6.1687e+000 -3.2030e+000 26508 105427,105531,105505
 4.6000e+000 105652 -9.0467e+000  1.7861e+000 -5.4725e+000 26508 105479,105453,105626
 4.6000e+000 105675 -1.0564e+001 -7.6594e-001 -2.8311e+000 26508 105479,105626,105505
 4.6000e+000 106057  1.0389e+001  1.8591e+001 -1.6730e+001 25947 106080,105887,105861
 4.6000e+000 106034  8.3028e+000  1.5687e+001 -1.3501e+001 25947 106080,105861,105783
 4.6000e+000 106011  5.6794e+000  1.0178e+001 -1.1896e+001 25947 105783,105835,105809
 4.6000e+000 105988  1.3399e+001  1.7580e+001 -1.5085e+001 25947 105783,105861,105835
 4.6000e+000 105965  8.8706e-001  1.8647e+001 -1.4536e+001 25947 105887,105939,105913
 4.6000e+000 106106  9.2562e+000  1.7044e+001 -1.4004e+001 25947 105939,105887,106080
 4.6000e+000 106129  4.1536e+000  1.1242e+001 -1.0276e+001 25947 105939,106080,105783
 4.6000e+000 106714  1.7449e+001 -4.6600e+000 -5.3264e+000 25557 106809,106737,106547
 4.6000e+000 106691  1.4734e+001  8.6765e+000 -5.4237e+000 25557 106737,106417,106391
 4.6000e+000 106668  1.5776e+001 -1.0809e+001 -2.6091e+000 25557 106809,106547,106495
 4.6000e+000 106645  1.0106e+001 -2.5912e+000 -2.7317e+000 25557 106417,106495,106469
 4.6000e+000 106622  6.8553e+001  3.2922e+000 -1.0818e+001 25557 106495,106547,106521
 4.6000e+000 106599  5.4721e-001  7.4459e-001 -5.7927e+000 25557 106417,106469,106443
 4.6000e+000 106763  3.5949e+001  1.2321e+001 -1.6155e+001 25557 106573,106547,106737
 4.6000e+000 106786  1.2773e+001  1.7242e+000 -1.0013e+001 25557 106573,106737,106391
 4.6000e+000 106835  1.4105e+001  8.9894e+000 -5.9160e+000 25557 106417,106737,106809
 4.6000e+000 106858  1.0953e+001 -6.4947e-001 -4.3883e+000 25557 106417,106809,106495
 4.6000e+000 107364 -6.3861e-001 -2.7612e+000 -1.0433e+001 25153 107459,107387,107171
 4.6000e+000 107341 -2.7711e-001 -2.2095e+000 -5.2475e+000 25153 107387,107119,107067
 4.6000e+000 107318  2.0655e+000  7.8059e+000 -3.7250e-001 25153 107459,107171,107145
 4.6000e+000 107295 -1.7900e+000 -5.2383e+000 -1.6724e+001 25153 107531,107223,107197
 4.6000e+000 107272  1.5081e+001  3.7626e+001 -1.9586e+000 25153 107067,107119,107093
 4.6000e+000 107249  5.2211e+000 -1.1688e+001 -1.3159e+001 25153 107041,107223,107067
 4.6000e+000 107413 -2.5917e+001 -1.2274e+001 -9.6542e+000 25153 107197,107171,107387
 4.6000e+000 107436 -3.6521e-001 -8.8696e+000 -1.0298e+001 25153 107531,107197,107387
 4.6000e+000 107485  5.4436e+000  1.4368e+001 -8.2780e-001 25153 107119,107387,107459
 4.6000e+000 107508  1.4535e+001  2.5506e+001  1.0717e+001 25153 107119,107459,107145
 4.6000e+000 107557 -8.1893e-001  1.0700e+000 -1.4044e+001 25153 107067,107223,107531
 4.6000e+000 107580  3.2686e+000  3.0338e+000 -7.5290e+000 25153 107067,107531,107387
 4.6000e+000 107958  1.1518e+001 -2.5057e+000  1.8704e+000 24741 107736,107814,107788
 4.6000e+000 107935 -3.5230e+000 -1.8339e+001 -9.4656e+000 24741 107736,107840,107814
 4.6000e+000 107912 -1.1654e+000 -1.9208e+001 -8.0800e+000 24741 107684,107840,107736
 4.6000e+000 107889  1.1912e+001  1.8938e+001 -5.8834e+000 24741 107736,107788,107762
 4.6000e+000 107866 -5.0358e+000 -2.1132e+001 -2.5133e+000 24741 107684,107736,107710
 4.6000e+000 108157  3.5157e+000 -3.1357e+000 -8.6271e+000 24237 108180,108059,108007
 4.6000e+000 108134  5.1391e+000 -1.9328e+000 -7.9916e+000 24237 108180,108007,107981
 4.6000e+000 108111 -6.0621e+000 -6.4417e+000 -6.1814e+000 24237 108007,108059,108033
 4.6000e+000 108206  4.1433e+000 -2.3510e+000 -7.1737e+000 24237 108085,108059,108180
 4.6000e+000 108229  5.7050e+000 -1.1716e+000 -6.5454e+000 24237 108085,108180,107981
 4.6000e+000 108658  1.5180e+001  1.3636e+001  1.4283e+000 23776 108361,108413,108387
 4.6000e+000 108635  1.5669e+000 -2.8138e+001 -7.9279e+000 23776 108753,108681,108361
 4.6000e+000 108612  4.4849e+000 -5.2181e+000 -3.2843e+000 23776 108681,108465,108439
 4.6000e+000 108589 -1.2488e+000 -3.4837e+001 -2.7606e+000 23776 108753,108361,108335
 4.6000e+000 108566 -6.1473e+000 -1.4717e+001 -9.0235e+000 23776 108335,108517,108465
 4.6000e+000 108543 -6.6316e+000 -1.6988e+001 -9.0381e+000 23776 108465,108517,108491
 4.6000e+000 108707  1.9324e+000 -1.7620e+000 -8.4131e+000 23776 108413,108361,108681
 4.6000e+000 108730  1.8620e+000  2.2011e+001  5.7612e+000 23776 108413,108681,108439
 4.6000e+000 108779 -1.6038e+000 -6.7908e+000 -1.3130e+001 23776 108465,108681,108753
 4.6000e+000 108802 -9.5109e+000 -2.2017e+001 -8.1098e+000 23776 108465,108753,108335
 4.6000e+000 109023 -9.1703e-001 -7.7098e+000  2.3747e+000 23414 108873,108925,108899
 4.6000e+000 109000 -4.5577e+000 -9.4665e+000  1.8332e+000 23414 108847,108925,108873
 4.6000e+000 108977 -5.6577e+000 -1.4525e+001 -8.2896e-001 23414 108847,108951,108925
 4.6000e+000 109474  2.3601e-001  2.0325e+001 -1.0043e+000 23024 109151,109307,109177
 4.6000e+000 109451  8.4538e-001  6.1925e-001  6.5443e-001 23024 109151,109333,109307
 4.6000e+000 109428  1.1692e+001 -1.5095e+000  1.0161e+000 23024 109177,109281,109203
 4.6000e+000 109405  1.2853e+001  1.2512e+001 -6.9162e+000 23024 109177,109307,109281
 4.6000e+000 109382  7.0561e+000 -3.1792e+000  5.6516e-001 23024 109203,109281,109229
 4.6000e+000 109359  3.2291e+000  3.3427e-001 -2.0780e+000 23024 109229,109281,109255
 4.6000e+000 109820  4.6890e+000 -7.2458e+000 -1.2426e-001 22506 109843,109601,109523
 4.6000e+000 109797  2.5302e+000 -4.0177e+000 -1.3725e+000 22506 109843,109523,109497
 4.6000e+000 109774  1.1637e+000 -1.2216e+001 -1.3786e+000 22506 109915,109653,109627
 4.6000e+000 109751 -2.6189e+000 -2.9141e+000 -2.4025e+000 22506 109497,109679,109653
 4.6000e+000 109728  4.2518e+000 -8.6070e+000 -5.2909e+000 22506 109523,109601,109575
 4.6000e+000 109705 -1.3288e+000 -1.6769e+001 -7.6975e+000 22506 109523,109575,109549
 4.6000e+000 109869  4.3813e+000 -5.3198e+000  6.5109e-001 22506 109627,109601,109843
 4.6000e+000 109892  4.0074e+000 -7.1717e+000  6.2823e-001 22506 109915,109627,109843
 4.6000e+000 109941 -1.6469e+000 -8.3361e+000 -4.3958e+000 22506 109497,109653,109915
 4.6000e+000 109964 -1.2564e+000 -7.9131e+000 -3.0645e+000 22506 109497,109915,109843
 4.6000e+000 110163  1.9261e+000  1.1221e+000  1.1106e+000 21936 110186,110039,110013
 4.6000e+000 110140  1.3170e+001  6.3172e+000  2.9999e+000 21936 110390,110186,110013
 4.6000e+000 110117  2.1764e+001 -2.0663e+000  1.1441e+001 21936 110390,110013,109987
 4.6000e+000 110212  1.0888e+001  1.7358e+001 -1.0681e+001 21936 110065,110039,110186
 4.6000e+000 110235 -2.5583e+000  1.1110e+000 -4.6974e+000 21936 110258,110186,110091
 4.6000e+000 110284 -1.6280e+001  3.0113e+000 -5.3939e+000 21936 110065,110186,110258
 4.6000e+000 110416 -5.7619e+000  1.0846e+000  5.4460e+000 21936 110091,110186,110390
 4.6000e+000 110439  6.9371e+000 -4.6493e+000  1.2964e+001 21936 110091,110390,109987
 4.6000e+000 110709  1.1871e+001  1.1294e+000  1.9229e-001 21338 110510,110614,110588
 4.6000e+000 110686  1.2456e+001 -1.5065e+000 -3.3109e-002 21338 110484,110614,110510
 4.6000e+000 110663  1.5730e+001  1.1302e+001  6.1539e-001 21338 110510,110562,110536
 4.6000e+000 110640  1.1828e+001  1.7435e+000 -5.6136e-001 21338 110510,110588,110562
 4.6000e+000 111296  6.4885e+000  4.7736e+000 -5.2882e+000 20934 111025,111155,111103
 4.6000e+000 111273  7.2602e-001 -2.1070e+000 -2.4846e+000 20934 110999,111155,111025
 4.6000e+000 111250  3.7042e-001  9.4386e-001 -4.5125e-001 20934 111103,111155,111129
 4.6000e+000 111227  4.1967e+000 -1.2336e+001 -4.4173e+000 20934 111051,111103,111077
 4.6000e+000 111204  6.4893e+000 -8.9476e+000 -5.5220e+000 20934 111025,111103,111051
 4.6000e+000 111181  2.4098e+000  3.1347e-001 -1.7334e+000 20934 110973,111155,110999
 4.6000e+000 111930 -1.5367e+001 -3.9898e+001 -3.7379e+001 20494 111662,111714,111688
 4.6000e+000 111907 -1.3366e+001  1.2449e+001 -2.1587e+001 20494 111584,111714,111662
 4.6000e+000 111884 -1.7219e+001  3.9515e+000 -1.7633e+001 20494 111584,111766,111714
 4.6000e+000 111861  4.0913e+001  1.9317e+001 -1.2444e+001 20494 111584,111636,111610
 4.6000e+000 111838  3.6983e+000  1.1527e+001 -3.3730e+001 20494 111584,111662,111636
 4.6000e+000 111815 -5.0103e+000  7.7378e+000 -1.8993e+001 20494 111558,111766,111584
 4.6000e+000 111792  9.4353e+000  6.2955e+001 -2.4352e+001 20494 111714,111766,111740
 4.6000e+000 112249 -2.0747e+001 -9.9356e+001  1.0312e+001 19940 111975,112053,112001
 4.6000e+000 112226  6.7016e+000 -4.6718e+001 -4.0078e-001 19940 111975,112131,112053
 4.6000e+000 112203 -4.6127e-001 -8.5627e+001  0.0000e+000 19940 112053,112105,112079
 4.6000e+000 112180 -7.2131e+000 -8.4126e+001  1.0182e+000 19940 112053,112131,112105
 4.6000e+000 112157  8.3918e+000 -7.7652e+001 -2.0751e+000 19940 112001,112053,112027
 4.6000e+000 112757  7.1041e+000 -2.4722e+000 -2.6334e+000 19486 112780,112538,112486
 4.6000e+000 112734  7.5257e+000 -1.2298e+000 -1.1485e+000 19486 112780,112486,112460
 4.6000e+000 112711  4.3398e+000 -1.2023e+000 -2.2381e+000 19486 112852,112616,112590
 4.6000e+000 112688  1.5976e+001 -5.9914e+000 -3.1855e+000 19486 112486,112538,112512
 4.6000e+000 112665  1.9276e+000 -2.5698e+000 -4.7439e-001 19486 112434,112616,112460
 4.6000e+000 112642  6.1578e+000  1.4033e+000 -2.3497e+000 19486 112538,112590,112564
 4.6000e+000 112806  7.4279e+000 -2.2750e+000 -2.7868e+000 19486 112590,112538,112780
 4.6000e+000 112829  7.7926e+000 -1.4944e+000 -2.6655e+000 19486 112852,112590,112780
 4.6000e+000 112878  1.9095e+000 -1.2874e+000 -1.2489e+000 19486 112460,112616,112852
 4.6000e+000 112901  3.9024e+000 -2.8425e+000 -1.4453e+000 19486 112460,112852,112780
 4.6000e+000 113252 -2.2224e+000 -1.1173e+001 -1.2442e+000 19096 113105,113157,113131
 4.6000e+000 113229  7.0195e-001 -4.7356e+000 -1.1174e-001 19096 113053,113157,113105
 4.6000e+000 113206  2.3560e+000 -4.9706e+000 -8.5492e-001 19096 113027,113157,113053
 4.6000e+000 113183 -2.3555e+000 -1.2136e+001  6.1886e-001 19096 113053,113105,113079
 4.6000e+000 113451  7.0915e+000 -2.9520e+001 -1.2100e+001 18642 113327,113379,113353
 4.6000e+000 113428  3.0314e+000 -4.1647e+001 -1.0142e+001 18642 113301,113379,113327
 4.6000e+000 113405  1.1634e+001 -2.7849e+001 -4.5218e+000 18642 113275,113379,113301
 4.6000e+000 113699  6.5500e+000 -1.4639e+001 -2.9885e+000 18138 113474,113552,113526
 4.6000e+000 113676  1.7572e+001 -2.0715e+001 -8.7667e+000 18138 113474,113578,113552
 4.6000e+000 113653  1.9839e+001 -1.9416e+001 -9.6653e+000 18138 113474,113604,113578
 4.6000e+000 113630  9.9870e+000 -5.9128e+000 -1.8893e+000 18138 113474,113526,113500
 4.6000e+000 113851  1.7898e+000 -1.3656e+001 -1.7048e+000 17682 113750,113802,113776
 4.6000e+000 113828  5.8725e+000 -1.0077e+001 -1.3801e-001 17682 113724,113802,113750
 4.6000e+000 114383  2.4925e+001 -6.4157e+001 -3.5495e+000 17106 114086,114242,114164
 4.6000e+000 114360  4.3278e+001 -5.5170e+001  8.7564e+000 17106 114060,114242,114086
 4.6000e+000 114337 -5.5084e+000 -1.1672e+002  1.1890e+001 17106 114086,114164,114138
 4.6000e+000 114314 -2.0117e+001 -1.6650e+002  3.0616e+000 17106 114190,114242,114216
 4.6000e+000 114291  4.6681e+000 -1.2116e+002 -8.4707e+000 17106 114164,114242,114190
 4.6000e+000 114268 -7.4660e+000 -1.1624e+002  1.0073e+001 17106 114086,114138,114112
 4.6000e+000 114680 -3.6871e+000 -2.3300e+001 -4.6674e+000 16766 114703,114432,114406
 4.6000e+000 114657 -2.9686e+000 -2.8507e+001 -3.0286e+000 16766 114703,114406,114510
 4.6000e+000 114634  4.1431e-002 -1.4940e+001 -1.7983e+000 16766 114406,114536,114510
 4.6000e+000 114611 -7.5778e+000 -2.8571e+001 -2.0199e+000 16766 114432,114484,114458
 4.6000e+000 114588 -1.4931e-002 -1.5178e+001 -1.6735e+000 16766 114406,114562,114536
 4.6000e+000 114729 -7.4243e+000 -2.7940e+001 -1.6192e+000 16766 114484,114432,114703
 4.6000e+000 114752 -3.1927e+000 -3.1623e+001 -1.6323e+000 16766 114484,114703,114510
 4.6000e+000 114902  4.7665e+001 -8.7701e+001 -2.1838e+001 16362 114775,114827,114801
 4.6000e+000 114879  1.6099e+001 -9.5056e+001 -1.5875e+001 16362 114775,114853,114827
 4.6000e+000 115054 -1.0858e+002 -1.5449e+002 -9.5500e+000 15908 114953,115005,114979
 4.6000e+000 115031 -9.8740e+001 -1.7907e+002 -7.5091e+000 15908 114927,115005,114953
 4.6000e+000 115326  1.0027e+001 -1.3049e+000  6.2272e+000 15251 115101,115179,115153
 4.6000e+000 115303  6.8711e+000 -1.3276e+000  1.7085e+000 15251 115101,115231,115179
 4.6000e+000 115280  8.0912e+000  1.3199e+000  1.3900e+000 15251 115179,115231,115205
 4.6000e+000 115257 -7.9116e+000 -5.1209e+001  3.1145e+000 15251 115101,115153,115127
 4.6000e+000 115429 -6.1448e-001 -2.7342e+001  9.2241e+000 421 115351,115403,115377
 4.7000e+000 66230  1.7728e+001 -1.7014e+001 -5.3758e+000 65954 66152,66204,66178
 4.7000e+000 66429  4.3214e+000 -5.1536e+000 -8.6249e+000 65642 66279,66331,66305
 4.7000e+000 66406  3.6331e+000  6.0467e+000 -2.1326e+000 65642 66279,66357,66331
 4.7000e+000 66383 -3.3484e+000 -1.6426e+001  5.0504e+000 65642 66253,66357,66279
 4.7000e+000 66628 -1.5369e+000  1.2157e+001 -1.1625e+000 65444 66452,66530,66478
 4.7000e+000 66605 -8.2577e-001  8.0724e+000 -2.6015e+000 65444 66452,66556,66530
 4.7000e+000 66582  3.8910e-001  6.5990e+000 -8.3455e-001 65444 66478,66530,66504
 4.7000e+000 67006 -7.0638e-001  5.9094e+000  2.0367e+000 65246 66732,66810,66758
 4.7000e+000 66983 -1.7195e+000  2.4684e+000  1.0705e+000 65246 66732,66836,66810
 4.7000e+000 66960  1.5080e+000  4.6807e+000  5.2284e+000 65246 66732,66862,66836
 4.7000e+000 66937  2.8233e+000  1.9932e+000 -1.4125e+000 65246 66758,66810,66784
 4.7000e+000 66914  5.3715e+000  5.7071e-001  2.5311e-001 65246 66732,66888,66862
 4.7000e+000 67107  1.2140e+000 -9.4714e-001 -5.7525e-001 64934 67029,67081,67055
 4.7000e+000 67306 -8.6330e+000  1.3582e+001  3.2304e+000 64736 67156,67208,67182
 4.7000e+000 67283 -1.3637e+000  1.5679e+001  1.5890e+000 64736 67130,67208,67156
 4.7000e+000 67260  4.8425e+000  8.6976e+000  5.2166e+000 64736 67130,67234,67208
 4.7000e+000 67507 -2.5883e+000  1.1090e+000  1.0283e+000 64389 67357,67409,67383
 4.7000e+000 67484 -2.5297e+000  9.8880e+000  9.6458e-001 64389 67357,67435,67409
 4.7000e+000 67461  9.3126e-001  4.3881e+000  2.3232e+000 64389 67331,67435,67357
 4.7000e+000 67708  1.3272e+001  5.1293e+000  1.8290e+000 63985 67731,67584,67558
 4.7000e+000 67685  9.2230e+000  1.1001e+001  1.1317e+000 63985 67731,67558,67636
 4.7000e+000 67662  9.0722e+000  1.0708e+001  8.7461e-001 63985 67532,67636,67558
 4.7000e+000 67757  1.0910e+001  2.7076e+000  7.8537e-001 63985 67610,67584,67731
 4.7000e+000 67780  5.9181e+000  6.9154e+000 -4.3699e-001 63985 67610,67731,67636
 4.7000e+000 67981 -2.6652e+000  1.8281e-001 -1.7698e+000 63787 67857,67909,67883
 4.7000e+000 67958  7.9686e-001 -1.8171e+000 -7.2878e-001 63787 67831,67909,67857
 4.7000e+000 67935  5.3840e+000  3.5031e+000  1.8012e+000 63787 67805,67909,67831
 4.7000e+000 68231  7.6609e-001  2.7471e-001 -7.2196e-002 63589 68254,68084,68032
 4.7000e+000 68208 -1.2995e+000  5.1591e+000 -1.0117e+000 63589 68254,68032,68006
 4.7000e+000 68185  3.0237e+000  8.9629e+000  2.3911e+000 63589 68326,68136,68110
 4.7000e+000 68162 -9.5196e-002 -7.8224e-002 -1.3644e-001 63589 68032,68084,68058
 4.7000e+000 68280 -6.5954e-001  4.7185e+000  9.5180e-001 63589 68110,68084,68254
 4.7000e+000 68303  1.4638e+000  8.3012e+000  2.5242e+000 63589 68326,68110,68254
 4.7000e+000 68352  4.6306e+000  9.6984e+000 -2.6062e+000 63589 68006,68136,68326
 4.7000e+000 68375  1.8003e+000  8.4299e+000 -2.3522e+000 63589 68006,68326,68254
 4.7000e+000 68836 -1.3832e+001  2.8129e+000 -9.0332e+000 63128 68859,68588,68562
 4.7000e+000 68813 -1.3618e+000  5.2240e+000 -6.5628e+000 63128 68859,68562,68692
 4.7000e+000 68790 -7.5993e-002  7.9308e+000  2.6643e+000 63128 68614,68692,68666
 4.7000e+000 68767  6.7905e+000  7.2862e+000 -4.7579e+000 63128 68562,68718,68692
 4.7000e+000 68744 -1.2414e+000  5.9461e+000  6.1980e+000 63128 68614,68666,68640
 4.7000e+000 68885 -1.3106e+001  5.7034e+000  1.3626e+000 63128 68614,68588,68859
 4.7000e+000 68908 -2.1274e+000  6.4570e+000  3.5209e+000 63128 68614,68859,68692
 4.7000e+000 69237  1.3531e+000 -4.9209e-002  1.2888e+000 62731 69064,69116,69090
 4.7000e+000 69214  3.2296e-001 -2.3057e+000  6.6997e-001 62731 69064,69142,69116
 4.7000e+000 69191  4.1222e-001 -1.3839e+000  7.8950e-001 62731 69038,69142,69064
 4.7000e+000 69168  9.8922e-001 -8.7342e-001  1.0453e+000 62731 69012,69142,69038
 4.7000e+000 69539 -2.8798e-002 -2.7624e+000  8.8862e-001 62433 69389,69467,69441
 4.7000e+000 69516  5.4938e-001  3.7050e-001  1.1254e-001 62433 69363,69467,69389
 4.7000e+000 69493 -1.0707e+000 -5.9637e-001 -1.9988e+000 62433 69389,69441,69415
 4.7000e+000 69966  2.6002e+000  1.9741e+001  1.1234e+000 62235 69989,69773,69721
 4.7000e+000 69943  1.0123e+000  2.1421e+001  3.1000e+000 62235 70061,69989,69721
 4.7000e+000 69920 -1.9090e+000  2.4801e+001  9.4530e-001 62235 70061,69721,69643
 4.7000e+000 69897  4.4155e+000  4.4764e+000  4.6492e+000 62235 69721,69773,69747
 4.7000e+000 69874  2.1379e+001  9.1777e+001  4.5987e+000 62235 69643,69721,69695
 4.7000e+000 69851 -2.3817e+001 -8.7193e+001  2.1374e+001 62235 69643,69695,69669
 4.7000e+000 70015  8.1495e-001  2.0474e+001  5.0077e+000 62235 69799,69773,69989
 4.7000e+000 70038  1.1521e+001  2.5880e+001  8.0381e+000 62235 69799,69989,69825
 4.7000e+000 70087  7.7377e+000  2.3439e+001  1.4261e+000 62235 69825,69989,70061
 4.7000e+000 70110  2.0684e+000  2.4680e+001  5.1380e-001 62235 69825,70061,69643
 4.7000e+000 70260 -1.7658e+000  1.5583e+001 -4.6072e+000 62037 70133,70185,70159
 4.7000e+000 70237  2.3820e+000  1.7169e+001 -2.0521e+000 62037 70133,70211,70185
 4.7000e+000 70640 -6.5807e+000 -2.6832e-001 -2.1736e+000 61583 70735,70663,70418
 4.7000e+000 70617 -3.0894e+000  1.1166e+001  2.2881e+000 61583 70663,70366,70522
 4.7000e+000 70594 -7.0286e+000 -2.4965e+000 -1.4169e+000 61583 70735,70418,70392
 4.7000e+000 70571 -6.9509e+000  2.3070e-001 -3.9924e+000 61583 70418,70496,70444
 4.7000e+000 70548 -7.7473e+000  7.2800e-001 -4.1104e+000 61583 70444,70496,70470
 4.7000e+000 70689 -5.6697e+000  5.2952e-001 -1.8140e+000 61583 70496,70418,70663
 4.7000e+000 70712 -9.0016e+000  3.8557e-001 -6.3786e-001 61583 70496,70663,70522
 4.7000e+000 70761 -7.6823e+000 -1.5046e+000  4.7863e-001 61583 70366,70663,70735
 4.7000e+000 70784 -7.3500e+000 -3.3562e+000  1.0404e+000 61583 70366,70735,70392
 4.7000e+000 71054 -1.6960e+000  9.4312e+000 -4.3267e+000 61313 71077,70881,70855
 4.7000e+000 71031 -4.2205e+000  5.5031e+000 -5.8037e+000 61313 71077,70855,70829
 4.7000e+000 71008  1.7362e+000  5.9194e+000 -3.0282e+000 61313 70829,70959,70933
 4.7000e+000 70985 -5.1280e+000  8.7728e+000  1.9511e+000 61313 70881,70933,70907
 4.7000e+000 71103  3.2006e-001  7.5697e+000 -1.8363e+000 61313 70933,70881,71077
 4.7000e+000 71126 -1.6909e+000  5.3709e+000 -3.0474e+000 61313 70933,71077,70829
 4.7000e+000 71604  1.1420e+000  8.0105e+000  4.2587e+000 60909 71627,71232,71414
 4.7000e+000 71581  4.4471e+000  1.1178e+001  2.0115e+000 60909 71232,71440,71414
 4.7000e+000 71558 -2.4251e+000  4.1662e+000  2.7572e+000 60909 71627,71414,71336
 4.7000e+000 71535 -1.0236e+000  3.4703e+000  8.1308e+000 60909 71362,71414,71388
 4.7000e+000 71512 -5.2292e+000  3.1142e+000  7.8051e+000 60909 71336,71414,71362
 4.7000e+000 71489 -6.5146e+000 -3.4876e-001  1.1476e+000 60909 71258,71336,71310
 4.7000e+000 71466 -1.2718e-001  1.9692e+000  6.7490e-001 60909 71258,71310,71284
 4.7000e+000 71653  2.3893e+000  3.7190e+000  2.8011e+000 60909 71258,71232,71627
 4.7000e+000 71676  4.1851e-001  1.8531e+000  2.0266e+000 60909 71258,71627,71336
 4.7000e+000 71875  6.7892e+000  2.1629e+001  6.5061e-001 60611 71898,71725,71699
 4.7000e+000 71852  7.6194e+000  1.5768e+001 -3.5804e+000 60611 71898,71699,71803
 4.7000e+000 71829  3.7263e+000  5.1297e+000 -3.1259e+000 60611 71970,71751,71725
 4.7000e+000 71924  7.2750e+000  1.2557e+001 -1.5747e+000 60611 71970,71725,71898
 4.7000e+000 71947  4.2553e+000  8.5170e+000 -2.5528e+000 60611 71777,71898,71803
 4.7000e+000 71996  1.5607e+000  1.3538e+001 -4.9830e+000 60611 71777,71751,71970
 4.7000e+000 72019  2.4303e+000  1.5766e+001 -4.4250e+000 60611 71777,71970,71898
 4.7000e+000 72576  5.4345e+000  2.7418e+001 -4.1627e+000 60142 72599,72256,72230
 4.7000e+000 72553  2.8107e+000  2.3623e+001 -2.8140e+000 60142 72671,72599,72230
 4.7000e+000 72530  7.9652e+000  2.1919e+001 -7.6343e-001 60142 72671,72230,72204
 4.7000e+000 72507  1.0822e+001  1.0674e+001 -2.7545e+000 60142 72743,72360,72334
 4.7000e+000 72484  4.4074e+000  1.7189e+001 -2.5038e+000 60142 72815,72282,72256
 4.7000e+000 72461 -6.3638e+000  1.1654e+001 -2.9629e+000 60142 72887,72308,72282
 4.7000e+000 72438  1.0609e+001  2.5848e+001  5.2973e-001 60142 72204,72412,72386
 4.7000e+000 72625  3.9185e+000  2.2274e+001  1.9936e-002 60142 72815,72256,72599
 4.7000e+000 72648  6.6391e+000  1.6749e+001 -1.8419e+000 60142 72743,72334,72599
 4.7000e+000 72697  7.1756e+000  2.7562e+001 -9.1114e-001 60142 72386,72599,72671
 4.7000e+000 72720  9.6956e+000  2.4519e+001  9.4940e-001 60142 72386,72671,72204
 4.7000e+000 72769  1.0141e+001  1.7000e+001 -1.2081e+001 60142 72386,72360,72743
 4.7000e+000 72792  6.6765e+000  2.6755e+001 -6.5872e+000 60142 72386,72743,72599
 4.7000e+000 72841  9.4566e-001  1.4712e+001 -3.6044e+000 60142 72887,72282,72815
 4.7000e+000 72864  6.4467e+000  1.6670e+001 -2.3189e+000 60142 72334,72815,72599
 4.7000e+000 72913  2.8769e+000  1.0149e+001  5.4422e-002 60142 72334,72308,72887
 4.7000e+000 72936  5.1561e+000  1.1123e+001 -4.3010e-002 60142 72334,72887,72815
 4.7000e+000 73491  1.1493e+000 -8.4516e+000 -4.4875e+000 59738 73145,73327,73171
 4.7000e+000 73468  3.9574e+000 -3.6717e+000 -3.1149e+000 59738 73119,73327,73145
 4.7000e+000 73445 -4.3173e-001  3.4600e+000  3.2757e+000 59738 73171,73327,73301
 4.7000e+000 73422  3.5158e+000  8.7336e-001 -6.0020e-002 59738 73514,73275,73249
 4.7000e+000 73399  7.5050e+000  7.8280e+000 -2.4888e+000 59738 73586,73514,73249
 4.7000e+000 73376  9.5321e+000  1.5565e+001 -6.1114e+000 59738 73197,73249,73223
 4.7000e+000 73353  1.2038e+001  1.1673e+001 -7.6714e+000 59738 73586,73249,73197
 4.7000e+000 73540  6.0859e+000  9.7255e-001  9.0813e-002 59738 73301,73275,73514
 4.7000e+000 73563  5.1547e-001 -1.5467e+000  4.1498e+000 59738 73301,73514,73171
 4.7000e+000 73612  6.5766e+000 -6.7062e-001  2.5692e+000 59738 73171,73514,73586
 4.7000e+000 73635  7.8745e+000  3.1179e+000 -1.8951e+000 59738 73171,73586,73197
 4.7000e+000 73964  9.9516e-001  7.2658e+000 -1.2397e+000 59334 73791,73843,73817
 4.7000e+000 73941 -4.5876e+000  7.1215e+000 -1.1493e+000 59334 73791,73869,73843
 4.7000e+000 73918  3.4302e+000  2.6241e+001 -2.1413e+000 59334 73739,73869,73791
 4.7000e+000 73895 -8.5567e+000  2.7331e+001 -7.2521e-001 59334 73739,73791,73765
 4.7000e+000 74261  2.8796e-001  9.4889e+000 -2.8458e+000 58630 74065,74117,74091
 4.7000e+000 74238  4.0404e+000  2.4873e+000 -4.9732e+000 58630 74356,74284,74065
 4.7000e+000 74215  6.2174e+000 -4.7556e-002 -2.3858e+000 58630 74284,74013,73987
 4.7000e+000 74192  2.8594e+000  9.6014e-001 -6.9204e+000 58630 74356,74065,74039
 4.7000e+000 74169  6.1829e+000  5.2281e+000 -7.8065e-001 58630 73987,74143,74117
 4.7000e+000 74310  5.1238e+000  9.6569e+000 -4.6297e+000 58630 74117,74065,74284
 4.7000e+000 74333  4.9831e+000  3.1470e+000 -2.3287e+000 58630 74117,74284,73987
 4.7000e+000 74382  6.6743e+000  5.2442e+000 -2.7529e+000 58630 74013,74284,74356
 4.7000e+000 74405  5.5221e+000  3.5195e+000 -4.7064e+000 58630 74013,74356,74039
 4.7000e+000 74815  5.4705e+000  2.3982e+000  4.0164e+000 58226 74590,74642,74616
 4.7000e+000 74792  5.8664e+000  5.3370e+000  4.2760e+000 58226 74590,74694,74642
 4.7000e+000 74769  2.3366e+000  5.3396e+000  4.1690e+000 58226 74590,74720,74694
 4.7000e+000 74746  6.9357e+000  3.5925e+000  4.6168e+000 58226 74642,74694,74668
 4.7000e+000 75014  5.5562e-001  4.3678e+000  1.3776e+000 57786 75037,74864,74838
 4.7000e+000 74991  5.7051e-001  4.2940e+000  1.3497e+000 57786 75037,74838,74916
 4.7000e+000 74968  2.8600e-001  4.4506e+000  8.5135e-001 57786 74838,74942,74916
 4.7000e+000 75063  6.0285e-001  4.4465e+000  1.4028e+000 57786 74890,74864,75037
 4.7000e+000 75086  5.9686e-001  4.3469e+000  1.3703e+000 57786 74890,75037,74916
 4.7000e+000 75368 -8.0733e+000  9.8975e+000  3.5316e+000 57496 75192,75270,75218
 4.7000e+000 75345  1.1036e+001  1.9468e+001  6.9594e+000 57496 75192,75296,75270
 4.7000e+000 75322  9.2672e+000  1.2625e+001  1.5970e+001 57496 75218,75270,75244
 4.7000e+000 75648 -9.7700e-001 -9.3220e-002 -8.0434e-001 57206 75472,75550,75498
 4.7000e+000 75625 -6.1758e+000  6.0572e+000  3.3407e+000 57206 75472,75576,75550
 4.7000e+000 75602 -4.1223e+000  5.1772e+000  5.0861e+000 57206 75671,75550,75524
 4.7000e+000 75697  4.9498e+000  2.0743e+000  5.9581e+000 57206 75498,75550,75671
 4.7000e+000 76154 -1.5446e+000  9.7197e+000  2.5584e-001 56802 75958,76010,75984
 4.7000e+000 76131 -1.5825e+000 -3.2743e+000 -1.4586e+000 56802 75932,76010,75958
 4.7000e+000 76108 -3.9054e-001 -2.2894e+000 -2.6795e-001 56802 75906,76010,75932
 4.7000e+000 76085 -2.3680e+000 -2.7321e+000 -9.7139e-001 56802 75880,76010,75906
 4.7000e+000 76062 -6.1402e+000 -1.0094e+000  8.1872e+000 56802 75880,76036,76010
 4.7000e+000 76505  2.9024e-002 -2.1803e-001 -7.8516e-002 56504 76306,76384,76332
 4.7000e+000 76482 -1.2917e-001 -1.8966e-001 -8.8070e-002 56504 76306,76410,76384
 4.7000e+000 76459 -4.9064e-001 -1.6852e+000 -1.2114e+000 56504 76332,76384,76358
 4.7000e+000 76436  1.5151e-001 -1.7020e-002 -1.0760e-002 56504 76280,76410,76306
 4.7000e+000 77011  8.8557e+000  4.4558e+000 -5.4033e+000 56050 76740,76818,76792
 4.7000e+000 76988  2.1487e+000  1.5553e+000 -5.1237e+000 56050 76714,76818,76740
 4.7000e+000 76965  1.1681e+001  2.8814e+000 -7.4462e+000 56050 76688,76818,76714
 4.7000e+000 76942  2.6179e+001  1.9274e+001  2.9319e+000 56050 76688,76844,76818
 4.7000e+000 76919  5.9000e+000 -1.8076e+000 -3.6932e+000 56050 76740,76792,76766
 4.7000e+000 76896  1.7811e+001  1.7866e+000  5.3102e+000 56050 76688,76870,76844
 4.7000e+000 77517 -1.0315e+001 -2.6531e+000  7.1360e+000 55738 77220,77350,77324
 4.7000e+000 77494  3.8712e+000 -7.5184e+000 -4.8849e-001 55738 77220,77376,77350
 4.7000e+000 77471  6.9961e+000  6.8013e+000 -2.0045e+000 55738 77194,77376,77220
 4.7000e+000 77448 -4.5557e-001 -5.1311e+000  4.3480e+000 55738 77220,77298,77246
 4.7000e+000 77425 -3.9288e+000 -1.6978e+000  8.1244e+000 55738 77220,77324,77298
 4.7000e+000 77402 -3.0588e+000 -5.9181e+000  7.6952e+000 55738 77246,77298,77272
 4.7000e+000 78064  9.5918e+000  4.8198e+000  2.4112e-001 55227 78231,78087,77773
 4.7000e+000 78041  4.2287e+000  4.9040e+000 -4.1789e+000 55227 78087,77695,77643
 4.7000e+000 78018  4.4705e+000 -3.8689e+000 -3.2567e+000 55227 78159,77799,77773
 4.7000e+000 77995  7.8483e+000  7.1173e+000  1.1538e+000 55227 78231,77773,77721
 4.7000e+000 77972  2.5744e+000  7.8879e+000 -3.5071e+000 55227 77643,77695,77669
 4.7000e+000 77949  9.5710e+000  1.3821e+001 -8.8777e+000 55227 77643,77877,77851
 4.7000e+000 77926  2.6041e-002 -6.8539e-001 -3.9206e-001 55227 77799,77851,77825
 4.7000e+000 77903  4.3153e+000  6.2507e+000  1.2368e+000 55227 77721,77773,77747
 4.7000e+000 78113  6.8116e+000 -1.0669e+000 -2.2335e+000 55227 78159,77773,78087
 4.7000e+000 78136  3.7651e+000  3.8307e+000 -4.3054e+000 55227 77851,78087,77643
 4.7000e+000 78185 -5.8817e-001  1.6473e+000 -4.7401e+000 55227 77851,77799,78159
 4.7000e+000 78208  1.2437e+000  3.6719e+000 -3.9596e+000 55227 77851,78159,78087
 4.7000e+000 78257  7.2735e+000  3.0830e+000 -5.1713e-001 55227 77695,78087,78231
 4.7000e+000 78280  4.8510e+000  5.0339e+000  2.4958e-001 55227 77695,78231,77721
 4.7000e+000 78737  5.7725e-001  2.4174e+000  3.8163e+000 54773 78463,78541,78515
 4.7000e+000 78714  5.0882e+000  5.1784e+000  2.5120e+000 54773 78463,78619,78541
 4.7000e+000 78691 -2.8685e+000 -8.3171e+000 -3.1116e+000 54773 78463,78515,78489
 4.7000e+000 78668  7.1683e+000  2.0657e+000  3.3992e+000 54773 78541,78593,78567
 4.7000e+000 78645  3.9076e+000  4.1192e+000  4.2254e+000 54773 78541,78619,78593
 4.7000e+000 78838  1.9513e+000  1.1282e+001  7.1536e-001 54211 78760,78812,78786
 4.7000e+000 79297  4.1487e+000 -1.2112e-001  6.0659e+000 53814 79520,79153,79049
 4.7000e+000 79274  4.1172e+000 -2.9383e+000  9.5042e+000 53814 79520,79049,79023
 4.7000e+000 79251  3.6050e-001 -2.2158e-001  9.2117e-002 53814 79320,79101,79049
 4.7000e+000 79228  2.9543e+000  5.2470e+000  5.7023e+000 53814 79320,79049,79153
 4.7000e+000 79205 -1.4918e+000 -1.0711e+000 -4.2987e-001 53814 79049,79101,79075
 4.7000e+000 79346 -7.5886e-001 -6.8082e+000 -3.4888e+000 53814 79392,79320,79127
 4.7000e+000 79369 -3.0810e+000  3.0754e+000 -1.6298e+000 53814 79127,79320,79153
 4.7000e+000 79418 -2.6468e+000 -1.3929e+000 -3.0533e+000 53814 79101,79320,79392
 4.7000e+000 79546  6.6997e+000  5.2095e+000  3.6533e+000 53814 79179,79153,79520
 4.7000e+000 79569  3.3138e+000  9.2171e-001  7.9908e+000 53814 79179,79520,79023
 4.7000e+000 80075 -8.8728e+000 -2.1245e+000  5.0677e+000 53039 80098,79908,79830
 4.7000e+000 80052 -1.1283e+001 -1.8822e+000 -2.4835e+000 53039 80098,79830,79804
 4.7000e+000 80029  4.0968e-003  3.8088e+000  7.2908e-001 53039 79752,79934,79804
 4.7000e+000 80006  6.8368e-001 -1.2381e+001  7.7877e+000 53039 79856,79908,79882
 4.7000e+000 79983  5.1205e+000 -1.5926e+001  6.8453e+000 53039 79830,79908,79856
 4.7000e+000 79960 -3.0589e+000  3.2571e+000 -2.4937e+000 53039 79752,79804,79778
 4.7000e+000 80124  3.1324e+000  4.0428e+000  7.4124e+000 53039 79934,79908,80098
 4.7000e+000 80147 -6.0255e+000  9.8902e-001 -6.2931e-001 53039 79934,80098,79804
 4.7000e+000 80555  1.7365e+001  1.3151e+001 -3.7039e+000 52699 80356,80434,80408
 4.7000e+000 80532  7.5029e+000  5.6945e+000 -2.4246e-001 52699 80356,80460,80434
 4.7000e+000 80509  6.7995e+000  1.2232e+001  5.5196e+000 52699 80330,80460,80356
 4.7000e+000 80486  9.6485e-001  4.8003e+000  1.2448e+001 52699 80356,80408,80382
 4.7000e+000 80776  1.0296e+001  2.2588e+001 -8.4200e+000 52295 80600,80678,80626
 4.7000e+000 80753 -7.1725e+000  7.6122e+000 -1.9460e+000 52295 80600,80704,80678
 4.7000e+000 80730 -2.3833e+001  8.8105e+000 -5.3830e+000 52295 80626,80678,80652
 4.7000e+000 81156  8.3602e+000  3.8608e+000  8.4771e-001 51891 81179,80960,80908
 4.7000e+000 81133  8.1954e+000  2.6604e+000 -2.2471e+000 51891 81179,80908,81012
 4.7000e+000 81110  9.6873e+000  8.4147e+000 -4.9420e+000 51891 80882,81012,80908
 4.7000e+000 81087 -5.3347e+000  8.5709e+000 -1.1546e+000 51891 80908,80960,80934
 4.7000e+000 81064  1.1555e+001  1.4846e+001 -3.4209e+000 51891 80882,81038,81012
 4.7000e+000 81205  1.2236e+001  6.0998e+000  2.3345e+000 51891 80986,80960,81179
 4.7000e+000 81228  9.4002e+000  3.4392e+000 -1.0004e+000 51891 80986,81179,81012
 4.7000e+000 81606  1.9990e+000 -4.2046e+001 -7.4788e+000 51544 81410,81462,81436
 4.7000e+000 81583  7.0514e+000 -1.2877e+001  3.6168e+000 51544 81384,81462,81410
 4.7000e+000 81560 -4.0008e+000 -1.4055e+001  3.0027e-001 51544 81358,81462,81384
 4.7000e+000 81537  4.7120e+000 -9.3172e+000 -2.0995e+000 51544 81358,81488,81462
 4.7000e+000 81514  8.0237e+000  7.8229e+000 -1.1062e+000 51544 81332,81488,81358
 4.7000e+000 81854 -6.3852e-001  9.8319e+000 -6.2537e-002 51004 81877,81655,81629
 4.7000e+000 81831 -1.6343e-001  8.1942e+000  1.7873e-001 51004 81877,81629,81759
 4.7000e+000 81808  7.5824e-001  6.9269e+000 -2.8208e+000 51004 81655,81707,81681
 4.7000e+000 81785  2.5958e+000  1.3947e+001  2.0325e-001 51004 81707,81759,81733
 4.7000e+000 81903 -3.6581e-001  1.0318e+001  5.3041e-002 51004 81707,81655,81877
 4.7000e+000 81926  9.5867e-001  9.8947e+000  6.6652e-001 51004 81707,81877,81759
 4.7000e+000 82257  7.2258e-001 -8.0210e+000 -4.7308e+000 50642 82058,82136,82110
 4.7000e+000 82234 -2.4560e+000  5.3627e+000 -8.3385e+000 50642 82058,82162,82136
 4.7000e+000 82211  1.1935e+001  4.4663e+000 -2.4352e+001 50642 82058,82110,82084
 4.7000e+000 82188  2.9093e+001  1.7928e+001  4.5528e+000 50642 82032,82162,82058
 4.7000e+000 82684  1.3432e+001 -3.1709e+001  9.0890e+000 49931 82779,82707,82465
 4.7000e+000 82661 -1.0892e+000 -3.3922e+001  6.4066e+000 49931 82707,82413,82361
 4.7000e+000 82638 -5.7690e-003 -3.3732e+001 -2.3683e-001 49931 82779,82465,82439
 4.7000e+000 82615  1.1976e+001 -9.9834e+001  7.6433e+000 49931 82465,82543,82491
 4.7000e+000 82592 -4.0644e+000 -2.8286e+001 -5.6253e-001 49931 82361,82413,82387
 4.7000e+000 82569  5.2291e+000 -6.9663e+001  8.6461e+000 49931 82491,82543,82517
 4.7000e+000 82733  3.8822e+001 -3.7147e+001  5.8539e+000 49931 82543,82465,82707
 4.7000e+000 82756  1.1868e+001 -3.2687e+001  1.3263e-002 49931 82543,82707,82361
 4.7000e+000 82805  5.7779e+000 -4.5805e+001 -1.9628e+000 49931 82413,82707,82779
 4.7000e+000 82828 -1.1014e+000 -4.3865e+001 -1.0843e+001 49931 82413,82779,82439
 4.7000e+000 83255  7.6851e+000 -1.9642e+001 -4.0193e+000 49327 82984,83114,83036
 4.7000e+000 83232  3.7232e+000 -2.7553e+001 -1.4959e+001 49327 82958,83114,82984
 4.7000e+000 83209  1.0838e+000 -3.3008e+001  9.6308e-001 49327 83036,83114,83088
 4.7000e+000 83186 -3.8069e+000 -1.2088e+001  2.3177e+000 49327 82984,83036,83010
 4.7000e+000 83163 -9.5537e+000 -2.5884e+001 -1.3286e+001 49327 82932,83114,82958
 4.7000e+000 83140 -7.9520e+000 -7.0082e+001 -1.6214e-001 49327 83036,83088,83062
 4.7000e+000 83938 -4.4942e-001 -3.2750e+001  1.1179e+001 48965 83961,83673,83647
 4.7000e+000 83915  5.2947e+000 -6.8725e+000  1.3824e+001 48965 83961,83647,83543
 4.7000e+000 83892 -2.7244e+000 -1.1664e+001 -1.1309e+000 48965 83517,83725,83543
 4.7000e+000 83869 -6.1111e+000 -1.8612e+001 -4.0536e+000 48965 83673,83725,83699
 4.7000e+000 83846 -6.5105e-001  1.0882e+000  4.9429e+000 48965 83543,83647,83621
 4.7000e+000 83823  3.7785e+000 -3.0598e+000  3.0053e+000 48965 83543,83621,83569
 4.7000e+000 83800 -1.5517e-001 -1.0122e+001  6.2889e-001 48965 83517,83751,83725
 4.7000e+000 83777 -9.9374e-001 -5.9917e+000  1.4769e+000 48965 83569,83621,83595
 4.7000e+000 83987 -1.9299e+000 -2.9570e+001 -5.2759e+000 48965 83725,83673,83961
 4.7000e+000 84010  2.7508e+000 -1.8216e+001  2.8268e-001 48965 83725,83961,83543
 4.7000e+000 84258 -6.6175e+000 -2.8292e+001  9.1315e+000 48447 84281,84059,84033
 4.7000e+000 84235 -3.1492e+000 -1.7938e+001 -3.7580e-001 48447 84281,84033,84163
 4.7000e+000 84212 -7.7375e+000 -7.0950e+000 -5.3801e+000 48447 84059,84111,84085
 4.7000e+000 84189  9.2203e+000 -9.9743e+000 -8.3063e+000 48447 84111,84163,84137
 4.7000e+000 84307  9.7544e-001 -2.5228e+001  5.5682e-001 48447 84111,84059,84281
 4.7000e+000 84330  8.6359e+000 -1.7645e+001 -8.5741e+000 48447 84111,84281,84163
 4.7000e+000 84529  1.4821e+001 -7.2783e+000  1.5310e+000 47993 84552,84405,84379
 4.7000e+000 84506  3.1789e+000 -1.2574e+001  2.5509e-001 47993 84552,84379,84353
 4.7000e+000 84483  1.5504e+001 -1.1503e+001  3.7231e-001 47993 84624,84457,84431
 4.7000e+000 84578  1.5854e+001 -1.1012e+001 -1.0582e+000 47993 84431,84405,84552
 4.7000e+000 84601  1.4916e+001 -1.0914e+001 -5.7054e-002 47993 84624,84431,84552
 4.7000e+000 84650  1.4796e+001 -1.1684e+001 -8.2852e-002 47993 84353,84457,84624
 4.7000e+000 84673  1.3650e+001 -1.2133e+001 -7.7479e-001 47993 84353,84624,84552
 4.7000e+000 85104 -5.7395e-001 -3.6446e+001 -6.7777e-002 47588 85199,85127,84885
 4.7000e+000 85081 -2.2175e+000 -4.4929e+001 -3.2054e+000 47588 85127,84781,84963
 4.7000e+000 85058 -8.6387e+000 -3.3258e+001  1.0082e+001 47588 85199,84885,84807
 4.7000e+000 85035  7.6521e+000 -2.5053e+001  1.4144e+001 47588 84885,84937,84911
 4.7000e+000 85012 -5.9304e+000 -2.2721e+001  6.8000e+000 47588 84807,84885,84833
 4.7000e+000 84989 -1.3070e+001 -2.5291e+001  2.6394e+001 47588 84833,84885,84859
 4.7000e+000 85153 -2.6885e+000 -4.6072e+001  7.8017e-001 47588 84937,84885,85127
 4.7000e+000 85176  1.1549e+001 -4.2664e+001  8.5001e-001 47588 84937,85127,84963
 4.7000e+000 85225 -1.7125e+001 -4.4116e+001 -2.0050e+000 47588 84781,85127,85199
 4.7000e+000 85248 -2.0986e+001 -3.8530e+001  9.3368e+000 47588 84781,85199,84807
 4.7000e+000 85518 -1.3809e+001 -9.9584e+001  1.2696e+001 47226 85293,85397,85319
 4.7000e+000 85495 -6.5238e+000 -9.1143e+001  6.7099e+000 47226 85293,85423,85397
 4.7000e+000 85472 -5.4556e+000 -1.0349e+002 -4.4081e+000 47226 85319,85397,85345
 4.7000e+000 85449  1.1380e+001 -2.3446e+001 -5.2770e+000 47226 85345,85397,85371
 4.7000e+000 85849 -7.4326e+000 -3.5230e+001  1.8496e+001 46572 85624,85702,85650
 4.7000e+000 85826 -2.1113e+000 -3.8986e+001  7.7523e+000 46572 85624,85754,85702
 4.7000e+000 85803  1.5364e+001 -1.4008e+001  1.6232e+001 46572 85702,85754,85728
 4.7000e+000 85780 -6.3840e+000 -3.5360e+001  1.9969e+001 46572 85650,85702,85676
 4.7000e+000 86070 -1.7883e+001 -1.6110e+001 -2.4255e-001 46374 85920,85972,85946
 4.7000e+000 86047 -6.3813e+000  9.7853e+000  5.9982e-001 46374 85920,85998,85972
 4.7000e+000 86024 -3.9598e+000  1.2475e+001  1.8687e+000 46374 85894,85998,85920
 4.7000e+000 86401  5.2192e-001 -7.7752e+000  2.6008e+000 46034 86424,86280,86228
 4.7000e+000 86378 -7.7482e+000 -1.2324e+001  3.4419e-001 46034 86424,86228,86176
 4.7000e+000 86355 -8.5445e+000 -1.3233e+001 -5.4415e-001 46034 86176,86228,86202
 4.7000e+000 86332  8.2952e+000 -4.4964e+000 -6.1190e+000 46034 86228,86280,86254
 4.7000e+000 86450  1.8304e+001 -1.5033e+001 -5.7041e-001 46034 86306,86280,86424
 4.7000e+000 86473  1.0641e+000 -2.5233e+001 -4.8274e+000 46034 86306,86424,86176
 4.7000e+000 87058  3.8232e+000 -4.9592e+000  5.9030e+000 45516 86813,86917,86865
 4.7000e+000 87035  2.6183e+000 -1.3179e+001  4.1716e-001 45516 86787,86917,86813
 4.7000e+000 87012  4.3538e+000 -5.1248e+000  5.8273e-001 45516 86735,86917,86787
 4.7000e+000 86989  2.3203e+000 -1.5970e+000  4.5215e+000 45516 86865,86917,86891
 4.7000e+000 86966 -3.2000e+000 -5.9199e+000  3.9965e+000 45516 86813,86865,86839
 4.7000e+000 86943 -4.3540e+000 -3.5035e+001 -1.3074e+000 45516 86735,86787,86761
 4.7000e+000 87208  1.8791e+001  2.6979e-001 -6.8070e+000 45226 87231,87133,87107
 4.7000e+000 87185  7.1552e+000  5.5568e+000 -4.0279e+000 45226 87081,87159,87133
 4.7000e+000 87257  1.1418e+001  1.5301e+001 -4.6109e+000 45226 87081,87133,87231
 4.7000e+000 87537  4.2140e-001 -9.2159e+000 -1.3361e+000 44772 87387,87439,87413
 4.7000e+000 87514 -1.3661e+000 -1.3035e+001  4.2277e+000 44772 87361,87439,87387
 4.7000e+000 87491  1.6213e+000 -9.7204e+000  2.9714e+000 44772 87361,87465,87439
 4.7000e+000 87996 -4.1991e-001  1.7375e+001  1.0651e+001 44425 87748,87878,87852
 4.7000e+000 87973 -5.3036e-002  1.8119e+001  4.3942e-001 44425 87722,87878,87748
 4.7000e+000 87950  2.4340e+000  1.0162e+001  5.5300e+000 44425 87800,87852,87826
 4.7000e+000 87927  1.9274e+001  1.8297e+001  8.0090e+000 44425 87748,87852,87800
 4.7000e+000 87904  1.6800e+000  1.8426e+001 -5.9881e+000 44425 87748,87800,87774
 4.7000e+000 88423 -5.7782e+000 -1.3890e+001  6.6644e+000 44078 88590,88230,88204
 4.7000e+000 88400 -1.9631e+000 -3.3683e+000  4.7423e+000 44078 88518,88446,88204
 4.7000e+000 88377  3.6597e+000 -1.5465e+001 -3.8616e+000 44078 88446,88126,88282
 4.7000e+000 88354 -1.0103e+000  2.1565e+000  1.8311e+000 44078 88518,88204,88178
 4.7000e+000 88331  2.5470e+000 -2.2610e+001 -3.9325e+000 44078 88100,88282,88126
 4.7000e+000 88308 -3.4129e+000 -2.2755e+001  9.8624e+000 44078 88126,88178,88152
 4.7000e+000 88472 -6.5545e+000 -1.5434e+001  5.7203e+000 44078 88590,88204,88446
 4.7000e+000 88495 -2.3052e+000 -3.4109e+001 -5.5863e+000 44078 88256,88446,88282
 4.7000e+000 88544  6.7805e-001 -1.6061e+001  6.4477e+000 44078 88126,88446,88518
 4.7000e+000 88567  4.7880e+000 -6.1671e+000  3.4315e+000 44078 88126,88518,88178
 4.7000e+000 88616 -6.1558e+000 -4.0097e+001  5.6406e+000 44078 88256,88230,88590
 4.7000e+000 88639 -2.7133e+000 -1.3057e+001  3.1985e+000 44078 88256,88590,88446
 4.7000e+000 89039  8.6416e+000  2.1467e+001  3.7606e+000 43716 88791,88921,88895
 4.7000e+000 89016  7.9570e+000  2.0575e+001  3.4469e+000 43716 88765,88921,88791
 4.7000e+000 88993  1.9473e+001  1.5875e+001  4.7684e+000 43716 88817,88895,88869
 4.7000e+000 88970  1.2523e+001  1.9411e+001  7.7978e+000 43716 88791,88895,88817
 4.7000e+000 88947  7.3684e-001  1.0100e+001  4.3983e+000 43716 88817,88869,88843
 4.7000e+000 89496  7.3896e-001 -1.8290e+001 -2.1829e+000 43162 89519,89274,89248
 4.7000e+000 89473  3.3077e+000 -7.1054e+000  2.4824e-001 43162 89519,89248,89222
 4.7000e+000 89450 -1.5903e+000 -3.1584e+000 -4.2268e+000 43162 89326,89378,89352
 4.7000e+000 89427 -4.8190e-001 -6.8456e+000 -3.2232e-002 43162 89274,89378,89326
 4.7000e+000 89404  1.2510e+000 -1.1422e+001 -6.2877e-001 43162 89274,89326,89300
 4.7000e+000 89545 -5.6613e-001 -7.7641e+000  8.9636e-001 43162 89378,89274,89519
 4.7000e+000 89568  2.7454e+000  4.3098e+000  3.4989e+000 43162 89378,89519,89222
 4.7000e+000 89946  1.4979e+000 -3.0218e-001 -9.7302e+000 42594 90041,89969,89750
 4.7000e+000 89923 -1.9819e+000 -1.7108e+000 -6.6685e-001 42594 89969,89698,89828
 4.7000e+000 89900  7.0842e+000 -2.5279e+000 -8.7996e+000 42594 90041,89750,89724
 4.7000e+000 89877  1.6484e+000  6.3968e-001 -4.1469e+000 42594 89750,89802,89776
 4.7000e+000 89854  4.2648e-001  1.8886e+000  4.4377e-001 42594 89672,89828,89698
 4.7000e+000 89995 -7.5248e-001  1.4355e+000 -8.0683e+000 42594 89802,89750,89969
 4.7000e+000 90018  3.3128e+000  1.0640e+001 -1.2061e+000 42594 89802,89969,89828
 4.7000e+000 90067  6.8864e+000  1.7330e+000 -7.6168e+000 42594 89698,89969,90041
 4.7000e+000 90090  1.3760e+001 -5.6496e-001 -8.3609e+000 42594 89698,90041,89724
 4.7000e+000 90517  4.5415e+000 -1.3224e+001 -2.4035e+000 42140 90540,90220,90194
 4.7000e+000 90494  1.1134e+001 -1.0206e+001 -5.2199e+000 42140 90540,90194,90376
 4.7000e+000 90471  8.9917e+000 -1.5178e+001 -1.3705e+000 42140 90612,90350,90272
 4.7000e+000 90448  5.3253e+000 -2.2088e+001 -2.9491e+000 42140 90272,90350,90298
 4.7000e+000 90425  1.1173e+001 -5.7498e+000 -1.6796e+000 42140 90298,90350,90324
 4.7000e+000 90402  8.7871e+000 -1.1904e+001  6.1124e-001 42140 90220,90272,90246
 4.7000e+000 90566  8.4995e+000 -1.1689e+001 -1.0428e+000 42140 90272,90220,90540
 4.7000e+000 90589  9.2292e+000 -1.4628e+001 -1.5610e+000 42140 90612,90272,90540
 4.7000e+000 90638  9.5564e+000 -1.5857e+001 -1.9689e+000 42140 90376,90350,90612
 4.7000e+000 90661  1.0341e+001 -1.4787e+001 -2.3177e+000 42140 90376,90612,90540
 4.7000e+000 91167 -1.9195e-001 -2.6515e+000  9.1332e-001 41636 91190,90870,90844
 4.7000e+000 91144 -4.0843e+000 -3.5073e+001  2.5029e+000 41636 91190,90844,91026
 4.7000e+000 91121 -1.7642e+000  5.1916e+000 -4.1017e+000 41636 90870,90922,90896
 4.7000e+000 91098  7.9546e+000 -1.9910e+001 -3.6807e+000 41636 90922,91026,90948
 4.7000e+000 91075  1.9350e+001 -2.8627e+001  9.0540e+000 41636 90948,91026,91000
 4.7000e+000 91052 -2.4363e+001 -5.6404e+001  3.8832e+001 41636 90948,91000,90974
 4.7000e+000 91216 -5.4913e+000  7.4409e+000  1.1481e+000 41636 90922,90870,91190
 4.7000e+000 91239  5.5140e+000 -4.3984e+000  6.4825e+000 41636 90922,91190,91026
 4.7000e+000 91696  1.0549e+001 -1.7111e+000  1.4300e+000 40449 91448,91526,91474
 4.7000e+000 91673 -4.2731e+000 -7.4584e+000  8.9649e-001 40449 91448,91578,91526
 4.7000e+000 91650  5.7829e+000  8.2013e+000 -1.3543e+000 40449 91474,91526,91500
 4.7000e+000 91627  3.9062e+000 -3.3385e+000  2.3823e+000 40449 91422,91578,91448
 4.7000e+000 91604  2.1086e+001 -3.7195e+000 -4.9052e+000 40449 91526,91578,91552
 4.7000e+000 92123  1.2004e+001 -1.8995e+001  9.8933e+000 39995 92146,91904,91826
 4.7000e+000 92100 -6.9464e+000 -2.7349e+001  8.0654e+000 39995 92146,91826,91800
 4.7000e+000 92077 -1.0674e+001 -7.2249e+000  8.2268e+000 39995 91826,91904,91852
 4.7000e+000 92054 -1.0963e-001 -6.6321e+001 -1.1150e+001 39995 91904,91982,91930
 4.7000e+000 92031 -6.4866e+000 -2.5196e+000  1.5952e+001 39995 91852,91904,91878
 4.7000e+000 92008 -2.6682e+000 -3.9393e+001 -6.0043e+000 39995 91930,91982,91956
 4.7000e+000 92172  2.1601e+001 -2.8075e+001 -2.1734e+000 39995 91982,91904,92146
 4.7000e+000 92195  7.4815e+000 -3.5513e+001 -4.9761e+000 39995 91982,92146,91800
 4.7000e+000 92652  3.0299e-002  5.3520e+000  1.7633e+000 39633 92404,92534,92456
 4.7000e+000 92629 -1.8299e+000  7.5495e+000  1.3358e+000 39633 92378,92534,92404
 4.7000e+000 92606 -7.4893e+000  2.1789e+000  2.0567e+000 39633 92404,92456,92430
 4.7000e+000 92583 -1.1361e+000  7.1781e+000  3.2262e+000 39633 92456,92534,92508
 4.7000e+000 92560  1.7886e+000  5.1287e+000  4.8985e+000 39633 92456,92508,92482
 4.7000e+000 93079 -7.5277e+000 -1.3616e+001 -5.9927e+000 39093 93102,92808,92756
 4.7000e+000 93056 -3.9072e+000 -1.6522e+001 -2.7129e+000 39093 93102,92756,92938
 4.7000e+000 93033 -2.0752e+000 -7.9593e+000 -2.5179e+000 39093 93174,92912,92834
 4.7000e+000 93010 -4.2741e+000  1.1440e+001  7.0462e+000 39093 92834,92912,92860
 4.7000e+000 92987 -5.5014e+000 -3.5281e+001 -1.4320e+001 39093 92756,92808,92782
 4.7000e+000 92964  9.9671e+000  2.7118e+001 -1.2843e+001 39093 92860,92912,92886
 4.7000e+000 93128 -4.8904e+000 -1.1633e+001 -4.9679e+000 39093 92834,92808,93102
 4.7000e+000 93151 -4.9902e+000 -1.3629e+001 -4.7499e+000 39093 93174,92834,93102
 4.7000e+000 93200 -1.1066e+000 -8.7389e+000  7.0849e-001 39093 92938,92912,93174
 4.7000e+000 93223 -2.2489e-001 -1.0718e+001 -9.8046e-001 39093 92938,93174,93102
 4.7000e+000 93680  9.7250e+000  9.9564e+000 -6.7142e-001 38639 93703,93536,93484
 4.7000e+000 93657  8.2589e+000  1.1490e+001 -4.1469e-001 38639 93703,93484,93432
 4.7000e+000 93634  3.9745e+000  1.1239e+001 -1.8978e+000 38639 93432,93484,93458
 4.7000e+000 93611  1.1398e+001  1.7750e+001  1.0535e+001 38639 93484,93536,93510
 4.7000e+000 93588  7.3198e+000  8.0925e+000 -5.1257e-001 38639 93406,93562,93432
 4.7000e+000 93729  8.7109e+000  8.5343e+000 -1.1409e+000 38639 93562,93536,93703
 4.7000e+000 93752  7.2750e+000  1.0520e+001 -9.4308e-001 38639 93562,93703,93432
 4.7000e+000 94160 -2.3930e+000  6.6360e+000  5.6173e+000 38292 93935,94039,93961
 4.7000e+000 94137 -2.5762e+000  7.4946e+000  3.9840e+000 38292 93935,94065,94039
 4.7000e+000 94114 -7.4300e+000 -5.1513e+000 -1.2124e+000 38292 93961,94013,93987
 4.7000e+000 94091  3.4068e+000 -4.9796e+000  4.4234e+000 38292 93961,94039,94013
 4.7000e+000 94408  6.4886e+000  6.7367e+000  6.6667e+000 37880 94431,94261,94235
 4.7000e+000 94385  8.9189e+000 -9.2190e-001  7.8357e+000 37880 94431,94235,94313
 4.7000e+000 94362  7.8915e+000 -5.4308e+000  6.8796e+000 37880 94209,94313,94235
 4.7000e+000 94339  1.5173e+001  1.4475e+001  2.5235e+000 37880 94183,94313,94209
 4.7000e+000 94457  1.2041e+000  3.4605e-001  9.1667e+000 37880 94287,94261,94431
 4.7000e+000 94480  7.8989e+000 -3.4848e+000  8.6650e+000 37880 94287,94431,94313
 4.7000e+000 94728  1.3087e+000  1.4467e+001 -3.8355e+000 37426 94529,94607,94555
 4.7000e+000 94705  1.2956e+001 -4.6624e+001 -1.1648e+001 37426 94529,94633,94607
 4.7000e+000 94682  8.0708e-001 -4.6395e+001 -1.1575e+001 37426 94503,94633,94529
 4.7000e+000 94659  1.0953e+000  3.1226e+000  1.8458e+000 37426 94555,94607,94581
 4.7000e+000 95257  8.8808e-001  1.0769e+000  3.7401e-001 36722 95496,95280,94862
 4.7000e+000 95234 -2.7319e-003  4.7827e-001 -8.3575e-001 36722 95496,94862,94836
 4.7000e+000 95211  3.7579e-001  1.7813e+000 -1.1506e-001 36722 95352,95280,95070
 4.7000e+000 95188 -2.6036e-001 -6.8397e-001 -3.7857e-001 36722 95352,95070,95044
 4.7000e+000 95165  1.2630e+000  1.9525e+000 -1.7304e+000 36722 95424,94888,94862
 4.7000e+000 95142 -6.9559e+000  7.2365e+000  9.0084e-001 36722 94914,94966,94940
 4.7000e+000 95119 -2.4865e-001  7.1306e-001  5.7980e-001 36722 94966,95044,95018
 4.7000e+000 95096  1.6523e-001  1.1653e+000  8.5019e-001 36722 94966,95018,94992
 4.7000e+000 95306 -8.0959e-001  2.4581e+000 -7.3637e-001 36722 95424,94862,95280
 4.7000e+000 95329  2.0469e-001  8.7611e+000 -1.1106e+000 36722 94914,95280,94966
 4.7000e+000 95378 -2.6088e-002  2.4328e+000  1.1559e+000 36722 94966,95280,95352
 4.7000e+000 95401  2.5485e-001  1.6549e+000  7.3374e-001 36722 94966,95352,95044
 4.7000e+000 95450 -1.8805e+000  1.0965e+000 -1.8785e+000 36722 94914,94888,95424
 4.7000e+000 95473 -2.3148e+000  1.6199e+000 -1.0982e+000 36722 94914,95424,95280
 4.7000e+000 95522  8.9599e-001  3.5809e-001  3.8305e-001 36722 95070,95280,95496
 4.7000e+000 95545  1.0506e+000  1.2729e-001  2.2705e-001 36722 95070,95496,94836
 4.7000e+000 96130  1.4811e+000 -3.9729e-001  1.4723e+000 36268 96153,95911,95859
 4.7000e+000 96107  2.4910e+000  9.9657e+000  2.0381e+000 36268 96153,95859,95807
 4.7000e+000 96084  2.1926e+000  1.0627e+001  3.3855e+000 36268 95807,95859,95833
 4.7000e+000 96061 -5.9098e+000  7.0149e-001 -1.2297e+000 36268 95911,95989,95937
 4.7000e+000 96038 -2.1898e+000 -9.8217e-001  6.1547e+000 36268 95859,95911,95885
 4.7000e+000 96015  1.1206e-001  2.3377e+000 -1.5609e+000 36268 95937,95989,95963
 4.7000e+000 96179 -3.2885e+000  8.7570e+000 -9.0479e-001 36268 95989,95911,96153
 4.7000e+000 96202 -2.4573e-001  2.1965e+001  3.3801e-002 36268 95989,96153,95807
 4.7000e+000 96531  5.8395e+000  2.5294e+001  5.3301e+000 35728 96358,96410,96384
 4.7000e+000 96508  2.8753e+001  3.4843e+001  1.6852e+000 35728 96332,96410,96358
 4.7000e+000 96485  1.6778e+001  2.0803e+001  1.2386e+001 35728 96332,96436,96410
 4.7000e+000 96462  2.6024e+000  2.9000e+001 -7.2834e-001 35728 96306,96436,96332
 4.7000e+000 96860  3.6753e-001 -3.6293e+000  6.4162e-001 35324 96687,96765,96713
 4.7000e+000 96837  1.9050e+000 -2.1646e+000 -4.4752e+000 35324 96661,96765,96687
 4.7000e+000 96814  9.2342e+000  6.8088e+000 -4.3434e+000 35324 96713,96765,96739
 4.7000e+000 96791 -4.7170e+000  4.3610e+000 -3.5201e+000 35324 96635,96765,96661
 4.7000e+000 97366  2.3120e+000  5.8595e+000 -2.8245e+000 34920 97389,97069,97043
 4.7000e+000 97343  4.4215e+000  4.7104e+000 -9.1033e-003 34920 97389,97043,97199
 4.7000e+000 97320  3.7772e+000  1.0405e+001  1.7066e+000 34920 97043,97225,97199
 4.7000e+000 97297 -1.4089e+000  5.0537e+000 -2.0773e+000 34920 97069,97121,97095
 4.7000e+000 97274  3.7217e+000 -6.2006e-001 -4.4421e-001 34920 97121,97199,97173
 4.7000e+000 97251  2.5501e+000  8.9311e-001 -1.8896e+000 34920 97121,97173,97147
 4.7000e+000 97415  1.7614e-001  4.8314e+000 -2.2708e+000 34920 97121,97069,97389
 4.7000e+000 97438  2.8656e-002  2.2544e+000  9.9548e-001 34920 97121,97389,97199
 4.7000e+000 97708 -7.3002e+000  3.5020e+000  3.0432e+000 34722 97509,97587,97535
 4.7000e+000 97685 -5.9654e+000  7.7967e+000  1.9155e+000 34722 97509,97613,97587
 4.7000e+000 97662 -9.5270e-001  1.0774e+001  3.5126e+000 34722 97483,97613,97509
 4.7000e+000 97639 -6.3363e+000  2.7325e+000  1.0006e+000 34722 97535,97587,97561
 4.7000e+000 98216 -3.3671e+000  9.5908e+000  1.1582e+000 34318 97971,98075,97997
 4.7000e+000 98193 -1.3998e+000  6.6889e+000  5.4587e+000 34318 97893,98075,97971
 4.7000e+000 98170  5.0603e+000  1.4863e+000  1.8710e+000 34318 97893,97971,97919
 4.7000e+000 98147 -2.3447e+000  2.2796e+001  4.2939e+000 34318 97997,98075,98049
 4.7000e+000 98124  9.6060e-001  1.3809e+000  1.7285e+000 34318 97919,97971,97945
 4.7000e+000 98101 -4.2553e+000  1.4656e+001 -4.7451e+000 34318 97997,98049,98023
 4.7000e+000 98594  4.4115e+000  4.6333e+000 -1.2328e+000 33814 98961,98617,98424
 4.7000e+000 98571  1.5980e+001  5.4282e+000  1.7107e+000 33814 98689,98617,98372
 4.7000e+000 98548  1.5260e+001  1.4628e+001  1.0016e+000 33814 99033,98689,98372
 4.7000e+000 98525  1.2476e+001  7.5004e+000 -2.8323e+000 33814 98761,98476,98450
 4.7000e+000 98502  3.2560e-001  3.5133e+000 -2.6447e+000 33814 98961,98424,98398
 4.7000e+000 98643  7.3598e+000  4.2896e+000 -3.3899e+000 33814 98450,98424,98617
 4.7000e+000 98666  9.1322e+000  6.7132e+000 -2.5020e+000 33814 98761,98450,98617
 4.7000e+000 98715  1.4029e+001  6.8516e+000  6.3220e-001 33814 99161,98689,98320
 4.7000e+000 98738  3.3117e+000  3.0892e+000  3.6642e+000 33814 98320,98689,98346
 4.7000e+000 98787  1.0587e+001  6.6895e+000 -3.2490e+000 33814 98833,98761,98320
 4.7000e+000 98810  1.2352e+001  8.1937e+000 -2.4317e+000 33814 99161,98320,98761
 4.7000e+000 98859  1.2538e+001  9.9804e+000 -4.3878e+000 33814 98476,98761,98833
 4.7000e+000 98987  1.2992e+001 -1.1986e+000 -2.4390e+000 33814 98372,98617,98961
 4.7000e+000 99010  7.6745e+000 -4.0329e+000 -4.9361e+000 33814 98372,98961,98398
 4.7000e+000 99059  1.1856e+001  5.6207e+000  2.4266e+000 33814 98346,98689,99033
 4.7000e+000 99187  1.1877e+001  2.1162e+000  1.5122e-001 33814 98617,98689,99161
 4.7000e+000 99210  1.0329e+001  4.0054e+000 -3.0672e+000 33814 98617,99161,98761
 4.7000e+000 99588  1.0278e+000 -4.2762e+000 -6.7343e-002 33566 99366,99444,99392
 4.7000e+000 99565  7.8650e-001 -1.6439e+000  3.8346e-001 33566 99314,99444,99366
 4.7000e+000 99542  9.5369e-001 -4.8512e+000 -1.3679e+000 33566 99314,99366,99340
 4.7000e+000 99519  1.4561e+000  1.7329e-001 -1.8098e+000 33566 99314,99470,99444
 4.7000e+000 99496 -8.1818e-001 -5.6854e+000  1.4055e+000 33566 99392,99444,99418
 4.7000e+000 99787  2.7781e+001  4.9824e+001 -9.8474e-001 33105 99637,99689,99663
 4.7000e+000 99764  1.4027e+001  4.0628e+001  5.4437e+000 33105 99611,99689,99637
 4.7000e+000 99741  1.3838e+001  2.5962e+001  2.6873e+000 33105 99611,99715,99689
 4.7000e+000 100167  7.1693e+000  4.6524e+000 -2.9988e-001 32651 100190,99971,99919
 4.7000e+000 100144  1.5199e+000  9.4184e+000  2.2204e-001 32651 100262,100190,99919
 4.7000e+000 100121  8.9637e-001  1.0039e+001 -7.6287e-001 32651 100262,99919,100049
 4.7000e+000 100098  5.1763e-001  9.8167e+000  8.9785e-001 32651 99893,100049,99919
 4.7000e+000 100075  4.2391e+000  3.8809e-001 -1.5680e+000 32651 99919,99971,99945
 4.7000e+000 100216  2.2360e+000  3.6868e-001 -3.4526e+000 32651 99997,99971,100190
 4.7000e+000 100239  7.2436e-001  4.7268e+000  1.3642e-001 32651 99997,100190,100023
 4.7000e+000 100288  2.4300e+000  5.1717e+000 -2.2508e-001 32651 100023,100190,100262
 4.7000e+000 100311  5.5414e+000  8.1991e+000 -3.0995e+000 32651 100023,100262,100049
 4.7000e+000 100608  1.0244e+001  2.7118e+001 -1.1310e+001 32254 100386,100490,100464
 4.7000e+000 100585  9.0557e+000  1.9401e+001 -1.0181e+001 32254 100360,100490,100386
 4.7000e+000 100562  8.2847e+000  3.6644e+001 -5.3386e+000 32254 100386,100464,100412
 4.7000e+000 100539  5.0544e-001  1.9253e+001 -3.1628e+000 32254 100334,100490,100360
 4.7000e+000 100516  6.2837e+000  1.5981e+001 -2.6460e+000 32254 100412,100464,100438
 4.7000e+000 100758  6.0643e+000  8.7117e+000 -5.1561e+000 31914 100985,100781,100683
 4.7000e+000 100735  1.5425e+000  2.3677e+000 -9.0060e-001 31914 100853,100781,100657
 4.7000e+000 100807  8.8409e+000  6.6230e+000 -7.9041e+000 31914 100709,100683,100781
 4.7000e+000 100830  2.0009e+000  4.6352e+000 -4.7998e+000 31914 100709,100781,100631
 4.7000e+000 100879  2.4105e+000  4.5709e-001 -1.1685e+000 31914 100631,100781,100853
 4.7000e+000 101011  5.1485e+000  1.5456e+000 -4.6176e+000 31914 100657,100781,100985
 4.7000e+000 101191 -3.3538e+001  3.3466e+001 -4.4870e+000 31418 101113,101165,101139
 4.7000e+000 101341 -2.3686e+001 -2.6181e+001 -3.6781e+000 31106 101214,101266,101240
 4.7000e+000 101318 -1.1231e+001  1.1312e+001  2.4799e+000 31106 101214,101292,101266
 4.7000e+000 101591 -3.5418e+000 -7.3969e+000 -1.6125e+000 30552 101614,101470,101444
 4.7000e+000 101568 -7.1224e+000 -7.9360e+000 -1.7128e+000 30552 101366,101496,101470
 4.7000e+000 101545 -5.4272e+000 -6.7737e+000  4.0899e-001 30552 101614,101444,101392
 4.7000e+000 101522 -6.6724e-001 -3.6873e+000 -9.4802e-001 30552 101392,101444,101418
 4.7000e+000 101640 -6.4058e+000 -8.1391e+000 -1.4429e+000 30552 101366,101470,101614
 4.7000e+000 101663 -7.9788e+000 -7.3349e+000  5.9851e-001 30552 101366,101614,101392
 4.7000e+000 102301  7.2674e-001 -3.9461e+000 -9.2484e+000 30042 102396,102324,102059
 4.7000e+000 102278  6.3650e+000 -7.4646e+000 -1.6878e+001 30042 102324,101981,101955
 4.7000e+000 102255 -5.7263e+000  6.6755e-002 -2.2875e+000 30042 102396,102059,102033
 4.7000e+000 102232 -9.5539e-001  1.7873e+000  3.9343e+000 30042 101929,102111,101955
 4.7000e+000 102209  3.7129e+000 -2.1703e+000  1.4710e+000 30042 102059,102111,102085
 4.7000e+000 102186  2.7386e-001  3.5768e+000  7.5813e-001 30042 101929,102137,102111
 4.7000e+000 102163 -2.1549e-001  7.8273e+000  4.3227e+000 30042 101981,102033,102007
 4.7000e+000 102350  1.3350e+001 -1.4551e+000 -2.8900e+000 30042 102111,102059,102324
 4.7000e+000 102373  7.7863e+000 -1.4268e+001 -4.1215e+000 30042 102111,102324,101955
 4.7000e+000 102422  1.0014e+001  1.0499e+001 -1.3237e+001 30042 101981,102324,102396
 4.7000e+000 102445  3.3117e+000  1.4424e+001 -6.1383e+000 30042 101981,102396,102033
 4.7000e+000 103000  1.9023e+001  7.0266e-002 -9.6804e-001 29730 103023,102706,102654
 4.7000e+000 102977  7.6742e+000 -5.2676e-001 -3.9749e+000 29730 103023,102654,102810
 4.7000e+000 102954 -1.3936e+000 -1.1524e+001 -6.0020e+000 29730 102732,102810,102784
 4.7000e+000 102931  7.5431e+000 -4.0040e+000 -4.9571e+000 29730 102628,102810,102654
 4.7000e+000 102908  1.9688e+001  1.4895e+001  1.7993e+000 29730 102654,102706,102680
 4.7000e+000 102885 -1.4778e+000 -8.5214e+000 -8.8807e+000 29730 102732,102784,102758
 4.7000e+000 102862  2.4012e+000 -6.9375e+000 -2.3957e+000 29730 102628,102836,102810
 4.7000e+000 103049  1.1979e+001 -4.2585e+000 -6.3373e+000 29730 102732,102706,103023
 4.7000e+000 103072  5.0851e+000 -2.5095e-001 -8.6309e+000 29730 102732,103023,102810
 4.7000e+000 103222  1.4041e+001  3.3110e+001  2.3650e+000 29226 103095,103147,103121
 4.7000e+000 103199  1.6107e+000  2.3869e+001  6.4072e+000 29226 103095,103173,103147
 4.7000e+000 103730  1.2344e+000 -4.1908e+000  3.7031e+000 28822 103537,103589,103563
 4.7000e+000 103707  3.0930e+000  1.4969e+000  3.2322e+000 28822 103433,103589,103537
 4.7000e+000 103684  1.8089e+001  9.1138e+000  2.9365e-001 28822 103433,103537,103459
 4.7000e+000 103661  1.8881e+001 -7.2736e-001  8.7674e+000 28822 103407,103589,103433
 4.7000e+000 103638  7.5204e+000  1.4858e+001  5.0580e+000 28822 103459,103511,103485
 4.7000e+000 103615 -2.9428e+000  1.5159e+001  4.8150e+000 28822 103459,103537,103511
 4.7000e+000 103880  9.5089e+000  8.1258e+000  2.3425e+000 28368 103975,103903,103779
 4.7000e+000 103857  1.1065e+000 -9.4653e+000 -1.1774e+000 28368 103903,103753,103831
 4.7000e+000 103929  1.0648e+000  1.1602e+001 -2.7615e+000 28368 103805,103779,103903
 4.7000e+000 103952 -2.4973e+000  3.7387e+000 -3.6829e+000 28368 104105,103903,103831
 4.7000e+000 104001  7.3308e+000  3.2663e+000 -4.5466e+000 28368 103753,103903,103975
 4.7000e+000 104131 -5.1030e+000  4.7622e+000 -1.0323e-001 28368 103805,103903,104105
 4.7000e+000 104539 -1.0784e+000  1.9495e+000  2.6385e+000 28028 104562,104340,104314
 4.7000e+000 104516 -4.9106e-001  7.5603e+000  3.2938e+000 28028 104634,104562,104314
 4.7000e+000 104493 -3.6201e+000 -1.7364e-001 -1.3785e+000 28028 104762,104366,104340
 4.7000e+000 104470 -2.6629e+000 -8.4149e-001 -1.2815e+000 28028 104366,104418,104392
 4.7000e+000 104588 -1.2845e+000 -1.5875e-001 -7.2499e-001 28028 104762,104340,104562
 4.7000e+000 104611 -4.2474e-001  4.7953e+000  1.1716e+000 28028 104418,104562,104444
 4.7000e+000 104660  3.1006e+000  6.6823e+000  4.3742e+000 28028 104444,104562,104634
 4.7000e+000 104788 -9.9711e-001  1.6090e-001 -7.7551e-001 28028 104418,104366,104762
 4.7000e+000 104811  1.3224e+000  3.9596e-001  8.6482e-002 28028 104418,104762,104562
 4.7000e+000 105010  9.7582e+000 -5.7329e-001 -4.4278e+000 27324 105033,104886,104860
 4.7000e+000 104987  3.0952e+000 -4.1851e+000 -6.7217e+000 27324 105033,104860,104834
 4.7000e+000 104964 -2.1995e+000  7.9306e+000 -1.1076e+001 27324 105105,104912,104886
 4.7000e+000 105059  8.4005e+000  1.7847e+000 -9.3594e+000 27324 105105,104886,105033
 4.7000e+000 105082  3.8304e+000 -7.7065e+000 -8.5047e+000 27324 104938,105033,104834
 4.7000e+000 105131 -1.2532e+001  1.7037e+000 -8.2331e+000 27324 104938,104912,105105
 4.7000e+000 105154 -3.3647e+000 -6.7528e+000 -5.6031e+000 27324 104938,105105,105033
 4.7000e+000 105402  1.4486e+001  1.6491e+001  2.9347e-001 27012 105229,105281,105255
 4.7000e+000 105379  1.0525e+001  1.0536e+001  2.5404e+000 27012 105229,105307,105281
 4.7000e+000 105356  9.3549e+000  2.6600e+000 -8.1485e-001 27012 105177,105307,105229
 4.7000e+000 105333  1.8494e+001  1.2792e+001  5.4808e+000 27012 105177,105229,105203
 4.7000e+000 105603 -6.0807e+000  2.0930e+000 -8.3508e+000 26508 105626,105453,105427
 4.7000e+000 105580 -8.9148e+000 -4.4902e+000 -8.8324e+000 26508 105626,105427,105505
 4.7000e+000 105557 -2.2125e+000 -9.5910e+000 -4.8095e+000 26508 105427,105531,105505
 4.7000e+000 105652 -6.9562e+000  1.5581e+000 -4.8900e+000 26508 105479,105453,105626
 4.7000e+000 105675 -8.0466e+000 -1.1816e+000 -5.3666e+000 26508 105479,105626,105505
 4.7000e+000 106057  1.2990e+001  2.2546e+001 -2.0402e+001 25947 106080,105887,105861
 4.7000e+000 106034  9.6843e+000  1.7856e+001 -1.5379e+001 25947 106080,105861,105783
 4.7000e+000 106011  5.3644e+000  1.0255e+001 -1.3022e+001 25947 105783,105835,105809
 4.7000e+000 105988  1.6465e+001  2.1474e+001 -1.7650e+001 25947 105783,105861,105835
 4.7000e+000 105965  8.1315e-001  2.0013e+001 -1.5825e+001 25947 105887,105939,105913
 4.7000e+000 106106  1.1263e+001  2.0094e+001 -1.6030e+001 25947 105939,105887,106080
 4.7000e+000 106129  3.2229e+000  1.0791e+001 -1.0216e+001 25947 105939,106080,105783
 4.7000e+000 106714  1.8142e+001 -5.8568e+000 -7.1055e+000 25557 106809,106737,106547
 4.7000e+000 106691  1.4059e+001  8.2911e+000 -6.0613e+000 25557 106737,106417,106391
 4.7000e+000 106668  1.6515e+001 -1.3026e+001 -3.9470e+000 25557 106809,106547,106495
 4.7000e+000 106645  1.0021e+001 -3.7059e+000 -3.6978e+000 25557 106417,106495,106469
 4.7000e+000 106622  7.5597e+001  2.7202e+000 -1.3303e+001 25557 106495,106547,106521
 4.7000e+000 106599 -2.8975e-001 -2.4216e-001 -6.9911e+000 25557 106417,106469,106443
 4.7000e+000 106763  4.0855e+001  1.4468e+001 -2.0551e+001 25557 106573,106547,106737
 4.7000e+000 106786  1.2507e+001  1.4223e+000 -1.2485e+001 25557 106573,106737,106391
 4.7000e+000 106835  1.4593e+001  1.0119e+001 -7.6338e+000 25557 106417,106737,106809
 4.7000e+000 106858  1.1082e+001 -1.2595e+000 -5.9218e+000 25557 106417,106809,106495
 4.7000e+000 107364 -2.4407e+000 -2.3104e+000 -1.2314e+001 25153 107459,107387,107171
 4.7000e+000 107341 -2.0102e+000 -1.7390e+000 -7.2325e+000 25153 107387,107119,107067
 4.7000e+000 107318  2.4535e-001  7.9691e+000 -2.5093e+000 25153 107459,107171,107145
 4.7000e+000 107295 -3.8748e+000 -5.3719e+000 -1.8777e+001 25153 107531,107223,107197
 4.7000e+000 107272  1.5166e+001  4.1534e+001 -4.9749e+000 25153 107067,107119,107093
 4.7000e+000 107249  4.2467e+000 -1.5859e+001 -1.4931e+001 25153 107041,107223,107067
 4.7000e+000 107413 -2.5646e+001 -1.1319e+001 -1.1287e+001 25153 107197,107171,107387
 4.7000e+000 107436 -2.2251e+000 -8.9440e+000 -1.2341e+001 25153 107531,107197,107387
 4.7000e+000 107485  3.5077e+000  1.4369e+001 -2.9355e+000 25153 107119,107387,107459
 4.7000e+000 107508  1.2430e+001  2.5209e+001  8.3106e+000 25153 107119,107459,107145
 4.7000e+000 107557 -3.0282e+000  9.5949e-001 -1.5843e+001 25153 107067,107223,107531
 4.7000e+000 107580  1.3242e+000  3.0189e+000 -9.2998e+000 25153 107067,107531,107387
 4.7000e+000 107958  1.2141e+001  4.2180e+000  3.6967e+000 24741 107736,107814,107788
 4.7000e+000 107935 -8.3499e-001 -1.0503e+001 -7.2298e+000 24741 107736,107840,107814
 4.7000e+000 107912  1.8019e+000 -1.0563e+001 -5.7576e+000 24741 107684,107840,107736
 4.7000e+000 107889  1.3326e+001  2.3474e+001 -3.3049e+000 24741 107736,107788,107762
 4.7000e+000 107866 -1.3763e+000 -7.6348e+000  2.0661e+000 24741 107684,107736,107710
 4.7000e+000 108157  3.4868e+000 -2.7037e+000 -8.1754e+000 24237 108180,108059,108007
 4.7000e+000 108134  3.4910e+000 -2.9042e+000 -8.3637e+000 24237 108180,108007,107981
 4.7000e+000 108111 -5.5896e+000 -6.0315e+000 -5.8140e+000 24237 108007,108059,108033
 4.7000e+000 108206  3.3908e+000 -2.9101e+000 -8.2215e+000 24237 108085,108059,108180
 4.7000e+000 108229  3.3969e+000 -3.1095e+000 -8.4084e+000 24237 108085,108180,107981
 4.7000e+000 108658  1.1924e+001  1.9445e+001  3.8496e+000 23776 108361,108413,108387
 4.7000e+000 108635  2.7117e+000 -2.4151e+001 -4.4033e+000 23776 108753,108681,108361
 4.7000e+000 108612  8.0498e+000 -1.0009e+000 -2.8525e-001 23776 108681,108465,108439
 4.7000e+000 108589 -1.9521e+000 -3.0680e+001  9.9042e-002 23776 108753,108361,108335
 4.7000e+000 108566 -8.3526e+000 -1.5456e+001 -1.0731e+001 23776 108335,108517,108465
 4.7000e+000 108543 -8.2019e+000 -1.6385e+001 -1.0513e+001 23776 108465,108517,108491
 4.7000e+000 108707  2.1183e-002  2.7537e+000 -3.5937e+000 23776 108413,108361,108681
 4.7000e+000 108730  3.0000e+000  2.8352e+001  1.1376e+001 23776 108413,108681,108439
 4.7000e+000 108779 -2.3099e+000 -4.3389e+000 -1.0584e+001 23776 108465,108681,108753
 4.7000e+000 108802 -1.1264e+001 -1.8094e+001 -5.7803e+000 23776 108465,108753,108335
 4.7000e+000 109023 -1.2803e+000 -7.2860e+000  3.1469e+000 23414 108873,108925,108899
 4.7000e+000 109000 -5.8318e+000 -9.6191e+000  2.3303e+000 23414 108847,108925,108873
 4.7000e+000 108977 -8.7078e+000 -1.9772e+001 -1.2184e+000 23414 108847,108951,108925
 4.7000e+000 109474  4.9191e-001  2.2161e+001 -1.6470e+000 23024 109151,109307,109177
 4.7000e+000 109451  4.4352e-001  4.1586e-001  4.1435e-001 23024 109151,109333,109307
 4.7000e+000 109428  1.1264e+001  9.0124e+000  1.1376e+000 23024 109177,109281,109203
 4.7000e+000 109405  1.5237e+001  1.9693e+001 -4.6211e+000 23024 109177,109307,109281
 4.7000e+000 109382  7.1523e+000  5.8776e+000 -3.0667e-001 23024 109203,109281,109229
 4.7000e+000 109359  4.4503e+000  7.6506e+000 -2.0853e+000 23024 109229,109281,109255
 4.7000e+000 109820  6.5011e+000 -1.1069e+000 -1.0942e+000 22506 109843,109601,109523
 4.7000e+000 109797  2.6421e+000  2.3455e+000 -2.3899e+000 22506 109843,109523,109497
 4.7000e+000 109774  3.7693e-001 -6.8961e+000 -1.6848e+000 22506 109915,109653,109627
 4.7000e+000 109751 -5.6794e+000  2.8281e-003 -1.7300e+000 22506 109497,109679,109653
 4.7000e+000 109728  6.6867e+000 -8.9327e-001 -4.4947e+000 22506 109523,109601,109575
 4.7000e+000 109705  3.4604e+000 -6.5556e+000 -5.8669e+000 22506 109523,109575,109549
 4.7000e+000 109869  4.4650e+000  4.3661e-001 -5.1261e-001 22506 109627,109601,109843
 4.7000e+000 109892  3.4097e+000 -1.0740e+000 -3.6466e-002 22506 109915,109627,109843
 4.7000e+000 109941 -1.9321e+000 -2.1494e+000 -5.2037e+000 22506 109497,109653,109915
 4.7000e+000 109964 -1.4871e+000 -1.4609e+000 -4.2467e+000 22506 109497,109915,109843
 4.7000e+000 110163  1.7907e+000  6.0468e+000  9.1500e-001 21936 110186,110039,110013
 4.7000e+000 110140  1.2570e+001  8.9025e+000  1.4567e+000 21936 110390,110186,110013
 4.7000e+000 110117  2.0300e+001  2.0899e+000  8.8934e+000 21936 110390,110013,109987
 4.7000e+000 110212  8.5036e+000  1.7686e+001 -9.2000e+000 21936 110065,110039,110186
 4.7000e+000 110235 -2.2379e+000  3.7384e+000 -5.1816e+000 21936 110258,110186,110091
 4.7000e+000 110284 -1.5736e+001  6.2632e+000 -5.6560e+000 21936 110065,110186,110258
 4.7000e+000 110416 -4.3585e+000  5.0400e+000  3.3043e+000 21936 110091,110186,110390
 4.7000e+000 110439  6.9674e+000  5.4780e-001  9.9579e+000 21936 110091,110390,109987
 4.7000e+000 110709  1.0717e+001  6.9575e+000 -2.4693e-001 21338 110510,110614,110588
 4.7000e+000 110686  1.2510e+001  8.2030e+000  3.9717e-001 21338 110484,110614,110510
 4.7000e+000 110663  1.5090e+001  1.3787e+001  8.7125e-001 21338 110510,110562,110536
 4.7000e+000 110640  1.2607e+001  7.5802e+000 -1.8090e-001 21338 110510,110588,110562
 4.7000e+000 111296  5.9322e+000  8.9268e+000 -5.6237e+000 20934 111025,111155,111103
 4.7000e+000 111273  1.0726e+000  9.3738e+000 -2.3269e+000 20934 110999,111155,111025
 4.7000e+000 111250 -2.4478e-003  4.8571e+000  4.4312e-001 20934 111103,111155,111129
 4.7000e+000 111227  5.9772e+000 -2.7865e+000 -2.8762e+000 20934 111051,111103,111077
 4.7000e+000 111204  8.7129e+000 -3.1765e-001 -4.6339e+000 20934 111025,111103,111051
 4.7000e+000 111181  4.0637e+000  1.4792e+001 -1.0088e+000 20934 110973,111155,110999
 4.7000e+000 111930 -1.4307e+001 -3.7250e+001 -3.9598e+001 20494 111662,111714,111688
 4.7000e+000 111907 -1.3611e+001  2.1382e+001 -2.2051e+001 20494 111584,111714,111662
 4.7000e+000 111884 -1.8528e+001  9.7161e+000 -1.6610e+001 20494 111584,111766,111714
 4.7000e+000 111861  4.9512e+001  2.9309e+001 -9.0590e+000 20494 111584,111636,111610
 4.7000e+000 111838  4.5481e+000  2.0933e+001 -3.4875e+001 20494 111584,111662,111636
 4.7000e+000 111815 -6.7048e+000  1.1834e+001 -2.0233e+001 20494 111558,111766,111584
 4.7000e+000 111792  1.0485e+001  7.3657e+001 -2.4355e+001 20494 111714,111766,111740
 4.7000e+000 112249 -2.1063e+001 -8.0472e+001  8.4100e+000 19940 111975,112053,112001
 4.7000e+000 112226  1.7211e+000 -3.9231e+001 -1.8803e+000 19940 111975,112131,112053
 4.7000e+000 112203 -1.3835e+000 -6.9539e+001  0.0000e+000 19940 112053,112105,112079
 4.7000e+000 112180 -8.6896e+000 -6.9167e+001  4.8157e-001 19940 112053,112131,112105
 4.7000e+000 112157  4.8939e+000 -6.2104e+001 -1.6018e+000 19940 112001,112053,112027
 4.7000e+000 112757  5.8782e+000  3.5813e+000 -1.4046e+000 19486 112780,112538,112486
 4.7000e+000 112734  6.4636e+000  5.0162e+000 -1.0129e+000 19486 112780,112486,112460
 4.7000e+000 112711  4.8292e+000  4.3798e+000 -1.9046e+000 19486 112852,112616,112590
 4.7000e+000 112688  1.0116e+001  3.1586e+000 -1.2351e+000 19486 112486,112538,112512
 4.7000e+000 112665  3.6243e+000  4.4339e+000 -1.0742e+000 19486 112434,112616,112460
 4.7000e+000 112642  6.6029e+000  5.1201e+000 -1.5490e+000 19486 112538,112590,112564
 4.7000e+000 112806  7.0028e+000  4.1631e+000 -1.6903e+000 19486 112590,112538,112780
 4.7000e+000 112829  6.5924e+000  4.3998e+000 -2.0318e+000 19486 112852,112590,112780
 4.7000e+000 112878  3.5111e+000  4.6457e+000 -1.3737e+000 19486 112460,112616,112852
 4.7000e+000 112901  4.5080e+000  4.0297e+000 -1.4261e+000 19486 112460,112852,112780
 4.7000e+000 113252  3.6031e+000 -4.3537e-001 -8.9967e-001 19096 113105,113157,113131
 4.7000e+000 113229  4.8420e+000  2.0883e+000 -4.0655e-001 19096 113053,113157,113105
 4.7000e+000 113206  8.1500e+000  2.4754e+000 -1.0701e+000 19096 113027,113157,113053
 4.7000e+000 113183  4.1461e+000  2.1043e-001 -2.8717e-001 19096 113053,113105,113079
 4.7000e+000 113451  6.2794e+000 -1.5866e+001 -8.0085e+000 18642 113327,113379,113353
 4.7000e+000 113428  1.5291e+000 -2.8483e+001 -7.1797e+000 18642 113301,113379,113327
 4.7000e+000 113405  4.5723e+000 -1.7427e+001 -2.8368e+000 18642 113275,113379,113301
 4.7000e+000 113699  5.1895e+000 -6.2941e+000 -2.6435e+000 18138 113474,113552,113526
 4.7000e+000 113676  1.3310e+001 -1.1110e+001 -6.9183e+000 18138 113474,113578,113552
 4.7000e+000 113653  1.5464e+001 -1.1809e+001 -7.6764e+000 18138 113474,113604,113578
 4.7000e+000 113630  7.7059e+000  1.5368e+000 -1.9999e+000 18138 113474,113526,113500
 4.7000e+000 113851  2.1637e+000 -3.9165e+000 -1.4190e+000 17682 113750,113802,113776
 4.7000e+000 113828  6.0749e+000 -8.6340e-001 -8.5416e-002 17682 113724,113802,113750
 4.7000e+000 114383  2.5425e+001 -5.2794e+001 -2.1644e+000 17106 114086,114242,114164
 4.7000e+000 114360  5.2380e+001 -4.0142e+001  9.9071e+000 17106 114060,114242,114086
 4.7000e+000 114337 -3.0587e+000 -9.8550e+001  1.1793e+001 17106 114086,114164,114138
 4.7000e+000 114314 -1.2764e+001 -1.3190e+002  4.9420e+000 17106 114190,114242,114216
 4.7000e+000 114291  1.0335e+001 -9.8953e+001 -5.2642e+000 17106 114164,114242,114190
 4.7000e+000 114268 -1.3740e+001 -1.0477e+002  4.1661e+000 17106 114086,114138,114112
 4.7000e+000 114680 -2.8382e+000 -1.5069e+001 -2.6861e+000 16766 114703,114432,114406
 4.7000e+000 114657 -2.0703e+000 -1.8402e+001 -1.3997e+000 16766 114703,114406,114510
 4.7000e+000 114634 -8.9503e-002 -1.0808e+001 -9.8988e-001 16766 114406,114536,114510
 4.7000e+000 114611 -6.7546e+000 -1.8836e+001 -1.1566e+000 16766 114432,114484,114458
 4.7000e+000 114588  3.2249e-001 -9.8860e+000 -3.3130e+000 16766 114406,114562,114536
 4.7000e+000 114729 -6.4498e+000 -1.8045e+001 -1.0536e+000 16766 114484,114432,114703
 4.7000e+000 114752 -2.7285e+000 -1.9851e+001 -7.5590e-001 16766 114484,114703,114510
 4.7000e+000 114902  5.7371e+001 -6.6896e+001 -1.9323e+001 16362 114775,114827,114801
 4.7000e+000 114879  1.5256e+001 -7.6383e+001 -1.1458e+001 16362 114775,114853,114827
 4.7000e+000 115054 -8.9887e+001 -1.1604e+002 -7.9890e+000 15908 114953,115005,114979
 4.7000e+000 115031 -8.1171e+001 -1.4720e+002 -6.7446e+000 15908 114927,115005,114953
 4.7000e+000 115326  1.1105e+001  5.2269e+000  4.6383e+000 15251 115101,115179,115153
 4.7000e+000 115303  7.0189e+000  4.4126e+000  1.6113e+000 15251 115101,115231,115179
 4.7000e+000 115280  8.1551e+000  6.8265e+000  1.2937e+000 15251 115179,115231,115205
 4.7000e+000 115257 -3.4661e+000 -3.2658e+001  1.6678e+000 15251 115101,115153,115127
 4.7000e+000 115429 -2.7274e-001 -1.6235e+001  6.4885e+000 421 115351,115403,115377
 4.8000e+000 66230  8.6739e+000 -1.7156e+001 -2.5293e+000 65954 66152,66204,66178
 4.8000e+000 66429  3.9701e+000 -4.7219e+000 -6.4572e+000 65642 66279,66331,66305
 4.8000e+000 66406  2.7566e+000  2.6299e+000 -1.1727e+000 65642 66279,66357,66331
 4.8000e+000 66383 -5.1940e-001 -1.3337e+001  3.7067e+000 65642 66253,66357,66279
 4.8000e+000 66628 -9.1866e-001  6.7448e+000 -2.5728e-001 65444 66452,66530,66478
 4.8000e+000 66605  1.7797e+000  3.9036e+000 -1.1413e+000 65444 66452,66556,66530
 4.8000e+000 66582  1.0862e+000  3.6604e+000 -3.2103e-001 65444 66478,66530,66504
 4.8000e+000 67006 -8.4755e-001  3.5375e+000  1.5012e+000 65246 66732,66810,66758
 4.8000e+000 66983 -1.6022e+000  1.1550e+000  8.2343e-001 65246 66732,66836,66810
 4.8000e+000 66960  7.7233e-001  2.5711e+000  4.0365e+000 65246 66732,66862,66836
 4.8000e+000 66937  1.9399e+000  6.6363e-001 -1.1795e+000 65246 66758,66810,66784
 4.8000e+000 66914  3.5585e+000 -1.0833e+000  2.2043e-001 65246 66732,66888,66862
 4.8000e+000 67107  1.5670e+000 -1.4681e+000 -3.1237e-001 64934 67029,67081,67055
 4.8000e+000 67306 -1.3695e+001  1.7488e+001  5.0809e+000 64736 67156,67208,67182
 4.8000e+000 67283 -6.0840e-001  1.5130e+001  3.6135e+000 64736 67130,67208,67156
 4.8000e+000 67260  4.9173e+000  3.8455e+000  7.1180e+000 64736 67130,67234,67208
 4.8000e+000 67507 -6.8843e-001  4.6833e-001  6.8727e-001 64389 67357,67409,67383
 4.8000e+000 67484 -1.2793e+000  5.8969e+000  3.3309e-001 64389 67357,67435,67409
 4.8000e+000 67461  2.2101e+000  2.8027e+000  9.2767e-001 64389 67331,67435,67357
 4.8000e+000 67708  1.9504e+001  1.5927e+000  4.5243e+000 63985 67731,67584,67558
 4.8000e+000 67685  1.2204e+001  7.5104e+000  4.3685e+000 63985 67731,67558,67636
 4.8000e+000 67662  8.6902e+000  5.5617e+000  3.5823e+000 63985 67532,67636,67558
 4.8000e+000 67757  1.4724e+001  5.0373e-002  2.3691e+000 63985 67610,67584,67731
 4.8000e+000 67780  6.7453e+000  4.3545e+000  1.2929e+000 63985 67610,67731,67636
 4.8000e+000 67981 -4.0709e-001 -1.2736e+000 -1.3456e+000 63787 67857,67909,67883
 4.8000e+000 67958  9.2479e-001 -1.8284e+000 -1.0517e+000 63787 67831,67909,67857
 4.8000e+000 67935  4.2372e+000  1.4237e+000  9.3027e-001 63787 67805,67909,67831
 4.8000e+000 68231  3.7020e-001 -1.0009e+000  1.7791e-002 63589 68254,68084,68032
 4.8000e+000 68208 -5.0803e-002  2.7264e+000 -1.8563e-001 63589 68254,68032,68006
 4.8000e+000 68185  1.9143e+000  5.2669e+000  1.5523e+000 63589 68326,68136,68110
 4.8000e+000 68162 -2.0152e-001 -1.2518e+000  1.3496e-002 63589 68032,68084,68058
 4.8000e+000 68280 -7.0251e-001  2.5646e+000  8.0341e-001 63589 68110,68084,68254
 4.8000e+000 68303  7.2779e-001  4.7690e+000  1.7705e+000 63589 68326,68110,68254
 4.8000e+000 68352  2.9489e+000  5.9478e+000 -1.3467e+000 63589 68006,68136,68326
 4.8000e+000 68375  9.9255e-001  5.0182e+000 -1.0398e+000 63589 68006,68326,68254
 4.8000e+000 68836 -8.1150e+000 -2.3744e-001 -5.9416e+000 63128 68859,68588,68562
 4.8000e+000 68813 -5.1647e-001  1.6474e+000 -4.9385e+000 63128 68859,68562,68692
 4.8000e+000 68790  2.1725e+000  3.8904e+000 -2.7751e-002 63128 68614,68692,68666
 4.8000e+000 68767  3.2894e+000  2.8160e+000 -4.0253e+000 63128 68562,68718,68692
 4.8000e+000 68744  7.8108e-001  1.2177e+000  2.8116e+000 63128 68614,68666,68640
 4.8000e+000 68885 -7.9889e+000  7.6782e-001  5.5743e-001 63128 68614,68588,68859
 4.8000e+000 68908 -1.2339e+000  1.8169e+000  1.3839e+000 63128 68614,68859,68692
 4.8000e+000 69237  6.6496e-001 -9.7342e-001  9.0284e-001 62731 69064,69116,69090
 4.8000e+000 69214 -4.4943e-001 -2.5020e+000  3.8817e-001 62731 69064,69142,69116
 4.8000e+000 69191 -4.3495e-001 -2.6712e+000  3.4096e-001 62731 69038,69142,69064
 4.8000e+000 69168  1.0216e+000 -2.3293e+000  8.8109e-001 62731 69012,69142,69038
 4.8000e+000 69539 -5.3834e-002 -9.9755e-001 -2.7231e+000 62433 69389,69467,69441
 4.8000e+000 69516 -3.4907e+000  2.7592e+000 -2.8896e+000 62433 69363,69467,69389
 4.8000e+000 69493  1.8924e+000 -2.8958e-001 -1.5625e-001 62433 69389,69441,69415
 4.8000e+000 69966  1.9531e+000  1.2684e+001  1.3197e+000 62235 69989,69773,69721
 4.8000e+000 69943  1.1401e-001  1.2552e+001  1.7262e+000 62235 70061,69989,69721
 4.8000e+000 69920 -2.0315e+000  1.3453e+001  3.3035e-001 62235 70061,69721,69643
 4.8000e+000 69897  3.3584e+000  3.6720e+000  3.3309e+000 62235 69721,69773,69747
 4.8000e+000 69874  1.3116e+001  5.7809e+001  3.1935e+000 62235 69643,69721,69695
 4.8000e+000 69851 -1.7118e+001 -6.5863e+001  1.5860e+001 62235 69643,69695,69669
 4.8000e+000 70015  6.2400e-001  1.1756e+001  3.1157e+000 62235 69799,69773,69989
 4.8000e+000 70038  7.1196e+000  1.4962e+001  4.7197e+000 62235 69799,69989,69825
 4.8000e+000 70087  4.4657e+000  1.2384e+001  9.5602e-001 62235 69825,69989,70061
 4.8000e+000 70110  9.7475e-001  1.2448e+001  2.6208e-001 62235 69825,70061,69643
 4.8000e+000 70260 -2.3934e+000  1.6686e+001 -4.9541e+000 62037 70133,70185,70159
 4.8000e+000 70237  2.2937e+000  1.8787e+001 -2.1212e+000 62037 70133,70211,70185
 4.8000e+000 70640 -1.1408e+001 -8.3515e+000  1.0485e+000 61583 70735,70663,70418
 4.8000e+000 70617 -8.3780e+000  4.2308e+000  6.4960e+000 61583 70663,70366,70522
 4.8000e+000 70594 -1.1993e+001 -1.2112e+001  2.6105e+000 61583 70735,70418,70392
 4.8000e+000 70571 -1.0263e+001 -4.3392e+000 -1.7932e+000 61583 70418,70496,70444
 4.8000e+000 70548 -9.8703e+000 -3.2807e+000 -1.5191e+000 61583 70444,70496,70470
 4.8000e+000 70689 -1.1106e+001 -5.0817e+000  1.4755e+000 61583 70496,70418,70663
 4.8000e+000 70712 -1.5377e+001 -7.5413e+000  3.1344e+000 61583 70496,70663,70522
 4.8000e+000 70761 -1.4144e+001 -1.0741e+001  5.2625e+000 61583 70366,70663,70735
 4.8000e+000 70784 -1.3165e+001 -1.3759e+001  6.4827e+000 61583 70366,70735,70392
 4.8000e+000 71054  1.9638e+000  1.6689e+001 -9.7771e+000 61313 71077,70881,70855
 4.8000e+000 71031 -5.5406e-001  6.7174e+000 -7.9036e+000 61313 71077,70855,70829
 4.8000e+000 71008  1.5451e+000  6.7624e+000 -1.8593e+000 61313 70829,70959,70933
 4.8000e+000 70985 -8.3013e+000  1.2288e+001  1.3042e+000 61313 70881,70933,70907
 4.8000e+000 71103  3.6473e-001  1.0944e+001 -4.6493e+000 61313 70933,70881,71077
 4.8000e+000 71126  4.8840e-001  4.9518e+000 -2.7911e+000 61313 70933,71077,70829
 4.8000e+000 71604  7.6632e-001  4.8730e+000  2.9115e+000 60909 71627,71232,71414
 4.8000e+000 71581  4.2684e+000  7.6689e+000  1.1404e+000 60909 71232,71440,71414
 4.8000e+000 71558 -2.2452e+000  2.4519e+000  1.6976e+000 60909 71627,71414,71336
 4.8000e+000 71535 -8.5429e-001  2.0185e+000  6.2159e+000 60909 71362,71414,71388
 4.8000e+000 71512 -4.6058e+000  1.6110e+000  5.9856e+000 60909 71336,71414,71362
 4.8000e+000 71489 -4.1760e+000 -5.4955e-001  4.3785e-001 60909 71258,71336,71310
 4.8000e+000 71466  3.9337e-001  1.2687e+000 -2.4957e-002 60909 71258,71310,71284
 4.8000e+000 71653  2.0532e+000  1.9116e+000  1.6229e+000 60909 71258,71232,71627
 4.8000e+000 71676  1.0948e-001  7.5829e-001  1.0736e+000 60909 71258,71627,71336
 4.8000e+000 71875  9.2354e+000  2.5800e+001  4.3124e+000 60611 71898,71725,71699
 4.8000e+000 71852  7.1173e+000  1.8013e+001 -7.8222e-001 60611 71898,71699,71803
 4.8000e+000 71829  7.5256e+000  5.8144e+000 -3.4411e+000 60611 71970,71751,71725
 4.8000e+000 71924  1.1982e+001  1.4280e+001 -1.5390e-001 60611 71970,71725,71898
 4.8000e+000 71947  5.4029e+000  9.5209e+000 -1.4313e+000 60611 71777,71898,71803
 4.8000e+000 71996  3.2679e+000  1.5142e+001 -5.2234e+000 60611 71777,71751,71970
 4.8000e+000 72019  3.7880e+000  1.7052e+001 -3.1975e+000 60611 71777,71970,71898
 4.8000e+000 72576  5.7707e+000  1.6513e+001 -3.8596e+000 60142 72599,72256,72230
 4.8000e+000 72553  4.0190e+000  9.8761e+000 -4.3011e+000 60142 72671,72599,72230
 4.8000e+000 72530  6.1681e+000  1.2093e+001 -5.4859e+000 60142 72671,72230,72204
 4.8000e+000 72507  7.4276e+000  5.9919e+000 -4.9007e-001 60142 72743,72360,72334
 4.8000e+000 72484  5.8297e+000  1.2247e+001 -2.6281e+000 60142 72815,72282,72256
 4.8000e+000 72461 -3.9042e+000  9.8012e+000 -1.5709e+000 60142 72887,72308,72282
 4.8000e+000 72438  1.2963e+001  1.1993e+001 -7.4545e+000 60142 72204,72412,72386
 4.8000e+000 72625  3.9461e+000  1.2226e+001 -5.3727e-001 60142 72815,72256,72599
 4.8000e+000 72648  4.0470e+000  8.4965e+000 -3.6214e-001 60142 72743,72334,72599
 4.8000e+000 72697  5.6558e+000  8.4841e+000 -3.5918e+000 60142 72386,72599,72671
 4.8000e+000 72720  5.5948e+000  9.4449e+000 -4.1235e+000 60142 72386,72671,72204
 4.8000e+000 72769  1.6601e+001  1.0114e+001 -1.4007e+000 60142 72386,72360,72743
 4.8000e+000 72792  8.4308e+000  9.9454e+000 -9.3209e-001 60142 72386,72743,72599
 4.8000e+000 72841  1.3957e+000  1.1989e+001 -2.3321e+000 60142 72887,72282,72815
 4.8000e+000 72864  5.1848e+000  1.1574e+001 -8.0129e-001 60142 72334,72815,72599
 4.8000e+000 72913  2.7666e+000  8.3512e+000  5.7516e-001 60142 72334,72308,72887
 4.8000e+000 72936  4.3672e+000  9.0211e+000  2.4966e-001 60142 72334,72887,72815
 4.8000e+000 73491  1.4799e+000 -6.5608e+000 -4.4453e+000 59738 73145,73327,73171
 4.8000e+000 73468  4.5370e+000 -2.9709e+000 -3.0886e+000 59738 73119,73327,73145
 4.8000e+000 73445  1.7064e-001  3.6508e+000  2.1502e+000 59738 73171,73327,73301
 4.8000e+000 73422  1.0669e+000  2.0604e+000  8.7893e-002 59738 73514,73275,73249
 4.8000e+000 73399  5.2027e+000  7.1124e+000 -1.8356e+000 59738 73586,73514,73249
 4.8000e+000 73376  6.1925e+000  1.1174e+001 -5.2660e+000 59738 73197,73249,73223
 4.8000e+000 73353  8.2806e+000  9.8808e+000 -5.7757e+000 59738 73586,73249,73197
 4.8000e+000 73540  4.2165e+000  2.4989e+000  3.9233e-001 59738 73301,73275,73514
 4.8000e+000 73563  7.6556e-001  2.0374e-001  2.7219e+000 59738 73301,73514,73171
 4.8000e+000 73612  4.3321e+000  6.3689e-001  1.6938e+000 59738 73171,73514,73586
 4.8000e+000 73635  5.1780e+000  3.4659e+000 -1.7076e+000 59738 73171,73586,73197
 4.8000e+000 73964 -5.5465e-001 -7.8144e+000 -3.5095e+000 59334 73791,73843,73817
 4.8000e+000 73941 -7.8331e+000 -1.0520e+001 -4.5877e+000 59334 73791,73869,73843
 4.8000e+000 73918 -3.6271e+000 -8.7595e-001 -3.9272e+000 59334 73739,73869,73791
 4.8000e+000 73895 -9.0253e+000 -3.9786e+000 -2.3630e+000 59334 73739,73791,73765
 4.8000e+000 74261  1.5721e+000  1.4413e+001 -4.4665e+000 58630 74065,74117,74091
 4.8000e+000 74238  6.1076e+000  5.1247e+000 -6.6136e+000 58630 74356,74284,74065
 4.8000e+000 74215  8.6157e+000 -6.8383e-001 -3.4670e+000 58630 74284,74013,73987
 4.8000e+000 74192  4.6568e+000  3.3737e+000 -9.1825e+000 58630 74356,74065,74039
 4.8000e+000 74169  8.7897e+000  7.0748e+000  1.4504e+000 58630 73987,74143,74117
 4.8000e+000 74310  6.9132e+000  1.4577e+001 -6.4465e+000 58630 74117,74065,74284
 4.8000e+000 74333  6.9582e+000  5.2733e+000 -3.1787e+000 58630 74117,74284,73987
 4.8000e+000 74382  9.7092e+000  8.3782e+000 -4.2105e+000 58630 74013,74284,74356
 4.8000e+000 74405  8.3248e+000  6.4353e+000 -6.7916e+000 58630 74013,74356,74039
 4.8000e+000 74815  4.3783e+000 -7.7176e+000  2.2978e+000 58226 74590,74642,74616
 4.8000e+000 74792  1.0580e+000 -2.9843e+000  5.6189e+000 58226 74590,74694,74642
 4.8000e+000 74769 -3.5028e+000 -1.0596e+001  9.0978e+000 58226 74590,74720,74694
 4.8000e+000 74746 -1.1502e+000 -1.6397e+000  4.8321e+000 58226 74642,74694,74668
 4.8000e+000 75014  6.7690e-001  7.2387e+000  2.1231e+000 57786 75037,74864,74838
 4.8000e+000 74991  9.0530e-001  5.7142e+000  1.5125e+000 57786 75037,74838,74916
 4.8000e+000 74968  3.7348e-001  5.7167e+000  1.1135e+000 57786 74838,74942,74916
 4.8000e+000 75063  1.1932e+000  8.7577e+000  2.6109e+000 57786 74890,74864,75037
 4.8000e+000 75086  1.1830e+000  6.9840e+000  1.9424e+000 57786 74890,75037,74916
 4.8000e+000 75368 -6.2222e+000  8.8712e+000  1.9532e+000 57496 75192,75270,75218
 4.8000e+000 75345  1.0547e+001  1.6671e+001  3.9609e+000 57496 75192,75296,75270
 4.8000e+000 75322  6.4587e+000  9.4717e+000  1.1337e+001 57496 75218,75270,75244
 4.8000e+000 75648  7.8584e-001  4.4391e+000 -1.4026e+000 57206 75472,75550,75498
 4.8000e+000 75625 -4.3763e+000  9.4050e+000  2.5643e+000 57206 75472,75576,75550
 4.8000e+000 75602 -3.5427e+000  4.8993e+000  4.1889e+000 57206 75671,75550,75524
 4.8000e+000 75697  3.8725e+000  5.3731e+000  5.5810e+000 57206 75498,75550,75671
 4.8000e+000 76154 -2.9030e+000  1.0585e+000 -2.4850e+000 56802 75958,76010,75984
 4.8000e+000 76131 -3.9930e+000 -7.9098e+000 -2.9999e+000 56802 75932,76010,75958
 4.8000e+000 76108 -1.9298e+000 -8.2441e+000  1.5556e-001 56802 75906,76010,75932
 4.8000e+000 76085 -4.4773e+000 -1.8691e+000 -2.0583e-001 56802 75880,76010,75906
 4.8000e+000 76062 -6.5303e+000 -2.2331e+000  1.2184e+000 56802 75880,76036,76010
 4.8000e+000 76505 -1.2709e-001 -8.3573e-002  3.1547e-002 56504 76306,76384,76332
 4.8000e+000 76482 -8.5003e-002  6.7257e-002 -3.2203e-002 56504 76306,76410,76384
 4.8000e+000 76459 -5.5396e-001 -1.3921e+000 -9.8005e-001 56504 76332,76384,76358
 4.8000e+000 76436 -1.1894e-001  1.2393e-001  3.0915e-002 56504 76280,76410,76306
 4.8000e+000 77011  4.9414e+000  5.4489e+000 -3.6057e+000 56050 76740,76818,76792
 4.8000e+000 76988  1.5207e+000  3.9611e+000 -3.4334e+000 56050 76714,76818,76740
 4.8000e+000 76965  8.0996e+000  4.3470e+000 -4.9438e+000 56050 76688,76818,76714
 4.8000e+000 76942  1.9588e+001  1.5710e+001  3.9807e+000 56050 76688,76844,76818
 4.8000e+000 76919  5.7863e+000  6.0153e-001 -3.0467e+000 56050 76740,76792,76766
 4.8000e+000 76896  1.4072e+001  1.0281e+000  4.2874e+000 56050 76688,76870,76844
 4.8000e+000 77517 -7.1812e+000  8.3674e-001  5.0399e+000 55738 77220,77350,77324
 4.8000e+000 77494  3.4437e+000 -3.0805e+000 -9.0936e-001 55738 77220,77376,77350
 4.8000e+000 77471  6.6093e+000  9.5136e+000 -1.8335e+000 55738 77194,77376,77220
 4.8000e+000 77448  9.1524e-001 -2.2722e+000  3.6045e+000 55738 77220,77298,77246
 4.8000e+000 77425 -1.7723e+000  8.1365e-001  6.6400e+000 55738 77220,77324,77298
 4.8000e+000 77402 -2.0278e+000 -3.4910e+000  4.4042e+000 55738 77246,77298,77272
 4.8000e+000 78064  5.6571e+000  4.2908e+000  2.0208e-001 55227 78231,78087,77773
 4.8000e+000 78041  3.6452e+000  4.7889e+000 -2.2878e+000 55227 78087,77695,77643
 4.8000e+000 78018  3.5415e+000  1.5420e+000 -1.7181e+000 55227 78159,77799,77773
 4.8000e+000 77995  4.6809e+000  5.4516e+000  7.0819e-001 55227 78231,77773,77721
 4.8000e+000 77972  2.1452e+000  5.0673e+000 -2.3708e+000 55227 77643,77695,77669
 4.8000e+000 77949  7.2505e+000  1.1002e+001 -6.9173e+000 55227 77643,77877,77851
 4.8000e+000 77926  5.7798e-001 -2.9082e-001 -4.4039e-001 55227 77799,77851,77825
 4.8000e+000 77903  3.0971e+000  5.0926e+000  7.2637e-001 55227 77721,77773,77747
 4.8000e+000 78113  4.6043e+000  2.1922e+000 -1.2493e+000 55227 78159,77773,78087
 4.8000e+000 78136  2.4617e+000  2.0587e+000 -2.8093e+000 55227 77851,78087,77643
 4.8000e+000 78185  1.4134e+000  3.1130e+000 -2.0905e+000 55227 77851,77799,78159
 4.8000e+000 78208  2.3379e+000  3.5351e+000 -1.7215e+000 55227 77851,78159,78087
 4.8000e+000 78257  4.3894e+000  3.3843e+000 -1.9628e-001 55227 77695,78087,78231
 4.8000e+000 78280  3.0405e+000  4.3526e+000  2.3501e-001 55227 77695,78231,77721
 4.8000e+000 78737 -4.7629e+000 -3.7255e+000  1.6060e+000 54773 78463,78541,78515
 4.8000e+000 78714 -1.5636e+000 -2.9957e+000  1.0573e+000 54773 78463,78619,78541
 4.8000e+000 78691 -6.8026e+000 -1.1193e+001 -5.5570e+000 54773 78463,78515,78489
 4.8000e+000 78668 -3.1002e+000 -4.9106e+000  3.5268e+000 54773 78541,78593,78567
 4.8000e+000 78645 -3.5765e+000 -5.7120e+000  3.1363e+000 54773 78541,78619,78593
 4.8000e+000 78838  1.4964e+000  8.2576e+000  6.1621e-001 54211 78760,78812,78786
 4.8000e+000 79297  7.8792e+000  5.2490e-001  5.5790e+000 53814 79520,79153,79049
 4.8000e+000 79274  9.0885e+000  8.3638e-001  5.7349e+000 53814 79520,79049,79023
 4.8000e+000 79251  6.7215e-001  9.8052e-001  2.1560e-001 53814 79320,79101,79049
 4.8000e+000 79228  3.2423e+000  6.3496e+000  6.1067e+000 53814 79320,79049,79153
 4.8000e+000 79205 -1.1645e+000  3.0949e-001 -2.6529e-001 53814 79049,79101,79075
 4.8000e+000 79346 -7.7956e-001 -6.8404e+000 -3.4348e+000 53814 79392,79320,79127
 4.8000e+000 79369 -3.1058e+000  4.0690e+000 -1.5017e+000 53814 79127,79320,79153
 4.8000e+000 79418 -2.1265e+000 -1.0962e-001 -2.6530e+000 53814 79101,79320,79392
 4.8000e+000 79546  7.2173e+000 -5.1162e-001  7.4513e+000 53814 79179,79153,79520
 4.8000e+000 79569  1.1164e+001  1.0762e+000  7.3367e+000 53814 79179,79520,79023
 4.8000e+000 80075 -6.2973e+000 -8.4442e-001  3.7594e+000 53039 80098,79908,79830
 4.8000e+000 80052 -7.9918e+000  3.0301e-001 -2.7996e+000 53039 80098,79830,79804
 4.8000e+000 80029  6.2395e-001  4.7182e+000 -1.0940e+000 53039 79752,79934,79804
 4.8000e+000 80006  1.5038e+000 -7.5227e+000  5.5725e+000 53039 79856,79908,79882
 4.8000e+000 79983  3.7467e+000 -9.6516e+000  5.2024e+000 53039 79830,79908,79856
 4.8000e+000 79960 -1.0357e+000  1.9044e+000 -1.8455e+000 53039 79752,79804,79778
 4.8000e+000 80124  4.0953e+000  3.8391e+000  4.7751e+000 53039 79934,79908,80098
 4.8000e+000 80147 -3.3341e+000  2.4888e+000 -2.1238e+000 53039 79934,80098,79804
 4.8000e+000 80555  2.1752e+001  1.3202e+001 -4.5445e+000 52699 80356,80434,80408
 4.8000e+000 80532  9.0834e+000  6.4868e+000 -6.7325e-001 52699 80356,80460,80434
 4.8000e+000 80509  7.8260e+000  1.6359e+001  8.0814e+000 52699 80330,80460,80356
 4.8000e+000 80486  8.2342e-001  1.9082e+000  1.5826e+001 52699 80356,80408,80382
 4.8000e+000 80776  7.5836e+000  1.8943e+001 -7.5384e+000 52295 80600,80678,80626
 4.8000e+000 80753 -7.4396e+000  5.8108e+000 -1.8677e+000 52295 80600,80704,80678
 4.8000e+000 80730 -2.3249e+001  6.4878e+000 -4.8305e+000 52295 80626,80678,80652
 4.8000e+000 81156  2.8754e+000  6.5521e+000 -2.5743e+000 51891 81179,80960,80908
 4.8000e+000 81133  2.0657e+000  3.9769e+000 -5.2174e+000 51891 81179,80908,81012
 4.8000e+000 81110  5.8759e+000  1.1735e+001 -8.7942e+000 51891 80882,81012,80908
 4.8000e+000 81087 -9.9838e+000  1.7403e+001 -3.2246e+000 51891 80908,80960,80934
 4.8000e+000 81064  6.0338e+000  1.1311e+001 -9.5041e+000 51891 80882,81038,81012
 4.8000e+000 81205  6.2304e+000  9.0609e+000  2.4951e-002 51891 80986,80960,81179
 4.8000e+000 81228  2.9634e+000  4.8433e+000 -2.9360e+000 51891 80986,81179,81012
 4.8000e+000 81606  1.1315e+000 -3.3198e+001 -8.7460e+000 51544 81410,81462,81436
 4.8000e+000 81583  5.9440e+000 -6.6404e+000  1.0043e+000 51544 81384,81462,81410
 4.8000e+000 81560 -2.6066e+000 -1.1805e+001 -2.0624e+000 51544 81358,81462,81384
 4.8000e+000 81537 -3.1199e-001 -9.2042e+000 -5.3214e+000 51544 81358,81488,81462
 4.8000e+000 81514  2.5726e+000 -3.2375e+000 -4.0564e+000 51544 81332,81488,81358
 4.8000e+000 81854 -9.2852e-001  1.4627e+001  1.5022e-001 51004 81877,81655,81629
 4.8000e+000 81831 -2.4889e-001  1.3399e+001  2.6674e-001 51004 81877,81629,81759
 4.8000e+000 81808 -5.5005e-001  8.4455e+000 -4.5238e+000 51004 81655,81707,81681
 4.8000e+000 81785  4.0444e+000  2.1957e+001  1.4147e-002 51004 81707,81759,81733
 4.8000e+000 81903 -4.1587e-001  1.4764e+001  3.7649e-001 51004 81707,81655,81877
 4.8000e+000 81926  1.0312e+000  1.4562e+001  8.4185e-001 51004 81707,81877,81759
 4.8000e+000 82257  7.6635e-001 -2.8781e+000 -3.7142e+000 50642 82058,82136,82110
 4.8000e+000 82234 -2.4645e+000  7.5227e+000 -6.4293e+000 50642 82058,82162,82136
 4.8000e+000 82211  9.3279e+000  6.1781e+000 -1.9445e+001 50642 82058,82110,82084
 4.8000e+000 82188  2.3659e+001  1.7910e+001  4.3459e+000 50642 82032,82162,82058
 4.8000e+000 82684  1.0421e+001 -2.3927e+001  6.5300e+000 49931 82779,82707,82465
 4.8000e+000 82661 -3.7675e-001 -2.4503e+001  4.5798e+000 49931 82707,82413,82361
 4.8000e+000 82638  8.2223e-002 -2.5727e+001 -2.6500e-002 49931 82779,82465,82439
 4.8000e+000 82615  8.5538e+000 -7.4505e+001  5.5945e+000 49931 82465,82543,82491
 4.8000e+000 82592 -2.3969e+000 -1.9132e+001 -9.3233e-001 49931 82361,82413,82387
 4.8000e+000 82569  3.9274e+000 -4.8960e+001  6.0392e+000 49931 82491,82543,82517
 4.8000e+000 82733  2.8953e+001 -2.6861e+001  3.9372e+000 49931 82543,82465,82707
 4.8000e+000 82756  9.1547e+000 -2.1735e+001 -4.7607e-002 49931 82543,82707,82361
 4.8000e+000 82805  4.8742e+000 -3.3947e+001 -2.0494e+000 49931 82413,82707,82779
 4.8000e+000 82828 -3.9217e-001 -3.2756e+001 -8.2990e+000 49931 82413,82779,82439
 4.8000e+000 83255  1.2440e+001 -4.8620e+000 -2.4812e+000 49327 82984,83114,83036
 4.8000e+000 83232  8.3565e+000 -1.3055e+001 -1.4063e+001 49327 82958,83114,82984
 4.8000e+000 83209  2.8423e+000 -1.3827e+001  1.2549e+000 49327 83036,83114,83088
 4.8000e+000 83186  2.5508e-002 -5.3205e+000 -1.1325e+000 49327 82984,83036,83010
 4.8000e+000 83163 -1.3819e+001 -9.6197e+000 -1.0972e+001 49327 82932,83114,82958
 4.8000e+000 83140 -1.9611e+000 -3.6135e+001  5.8585e-002 49327 83036,83088,83062
 4.8000e+000 83938 -2.7375e+000 -1.6958e+001  5.5018e+000 48965 83961,83673,83647
 4.8000e+000 83915  1.0557e+000 -6.2100e+000  5.2419e+000 48965 83961,83647,83543
 4.8000e+000 83892  9.5694e-001 -4.4788e+000  2.6490e-001 48965 83517,83725,83543
 4.8000e+000 83869 -2.6480e+000 -9.7921e+000 -7.3198e-001 48965 83673,83725,83699
 4.8000e+000 83846  7.0932e+000 -3.6895e+000  4.6871e+000 48965 83543,83647,83621
 4.8000e+000 83823  8.4668e+000  5.0738e+000  4.0755e+000 48965 83543,83621,83569
 4.8000e+000 83800 -2.8668e-002 -5.2554e+000 -1.0307e+000 48965 83517,83751,83725
 4.8000e+000 83777 -1.0075e+000 -5.4750e-001  6.9158e-001 48965 83569,83621,83595
 4.8000e+000 83987 -9.4478e-001 -1.4650e+001 -1.2043e+000 48965 83725,83673,83961
 4.8000e+000 84010  7.9369e-001 -1.0512e+001 -2.1747e-001 48965 83725,83961,83543
 4.8000e+000 84258 -5.7483e+000 -1.5138e+001  7.5605e+000 48447 84281,84059,84033
 4.8000e+000 84235 -2.7934e+000 -6.6742e+000  1.0653e+000 48447 84281,84033,84163
 4.8000e+000 84212 -9.2658e+000  3.8183e-001 -3.4472e+000 48447 84059,84111,84085
 4.8000e+000 84189  5.7199e+000 -2.6438e+000 -5.2819e+000 48447 84111,84163,84137
 4.8000e+000 84307 -3.3956e-001 -1.2967e+001  7.7243e-001 48447 84111,84059,84281
 4.8000e+000 84330  5.2294e+000 -6.9977e+000 -5.5094e+000 48447 84111,84281,84163
 4.8000e+000 84529  9.0419e+000 -1.4598e+000  4.7544e-001 47993 84552,84405,84379
 4.8000e+000 84506  2.0686e+000 -5.7054e+000 -1.6468e+000 47993 84552,84379,84353
 4.8000e+000 84483  9.1462e+000 -5.4885e+000 -3.1730e+000 47993 84624,84457,84431
 4.8000e+000 84578  8.3101e+000 -6.2328e+000 -5.6290e-001 47993 84431,84405,84552
 4.8000e+000 84601  8.5266e+000 -6.9852e+000 -2.3295e+000 47993 84624,84431,84552
 4.8000e+000 84650  8.7051e+000 -4.3448e+000 -3.6569e+000 47993 84353,84457,84624
 4.8000e+000 84673  8.8111e+000 -4.3604e+000 -2.6581e+000 47993 84353,84624,84552
 4.8000e+000 85104 -1.3862e+000 -2.6197e+001 -2.1893e+000 47588 85199,85127,84885
 4.8000e+000 85081 -2.5258e+000 -3.4977e+001 -4.3557e+000 47588 85127,84781,84963
 4.8000e+000 85058 -7.5486e+000 -2.3515e+001  5.6757e+000 47588 85199,84885,84807
 4.8000e+000 85035  2.1500e+000 -1.6360e+001  8.6898e+000 47588 84885,84937,84911
 4.8000e+000 85012 -2.0499e+000 -1.3018e+001  2.0563e+000 47588 84807,84885,84833
 4.8000e+000 84989 -8.7644e+000 -1.5557e+001  1.6560e+001 47588 84833,84885,84859
 4.8000e+000 85153 -3.2394e+000 -3.2501e+001 -2.0636e+000 47588 84937,84885,85127
 4.8000e+000 85176  7.7422e+000 -3.1216e+001 -1.0634e+000 47588 84937,85127,84963
 4.8000e+000 85225 -1.4157e+001 -3.2319e+001 -4.0402e+000 47588 84781,85127,85199
 4.8000e+000 85248 -1.6936e+001 -2.7513e+001  4.7303e+000 47588 84781,85199,84807
 4.8000e+000 85518 -1.0282e+001 -7.3960e+001  9.9364e+000 47226 85293,85397,85319
 4.8000e+000 85495 -5.1831e+000 -6.7179e+001  4.8765e+000 47226 85293,85423,85397
 4.8000e+000 85472 -4.7898e+000 -7.7382e+001 -3.2607e+000 47226 85319,85397,85345
 4.8000e+000 85449  7.7914e+000 -1.9091e+001 -3.6853e+000 47226 85345,85397,85371
 4.8000e+000 85849 -3.8439e+000 -2.2420e+001  1.1792e+001 46572 85624,85702,85650
 4.8000e+000 85826 -1.8852e+000 -2.9136e+001  4.5473e+000 46572 85624,85754,85702
 4.8000e+000 85803  9.6237e+000 -8.5096e+000  1.0962e+001 46572 85702,85754,85728
 4.8000e+000 85780 -5.4798e+000 -2.3765e+001  1.3541e+001 46572 85650,85702,85676
 4.8000e+000 86070  5.9941e-002  5.8059e+000  2.5165e-001 46374 85920,85972,85946
 4.8000e+000 86047  7.6426e-001  6.1713e+000  1.2451e-001 46374 85920,85998,85972
 4.8000e+000 86024  5.1516e-002  5.6084e+000 -2.9906e-001 46374 85894,85998,85920
 4.8000e+000 86401 -1.4749e+000 -1.6234e+000  4.6050e+000 46034 86424,86280,86228
 4.8000e+000 86378 -8.6594e+000 -5.7973e+000  2.5778e+000 46034 86424,86228,86176
 4.8000e+000 86355 -1.1045e+001 -9.7617e+000  9.5175e-001 46034 86176,86228,86202
 4.8000e+000 86332  6.1360e+000  1.5735e+000 -4.7590e+000 46034 86228,86280,86254
 4.8000e+000 86450  1.4197e+001 -8.3014e+000  1.8616e+000 46034 86306,86280,86424
 4.8000e+000 86473 -9.0028e-001 -1.7445e+001 -1.9840e+000 46034 86306,86424,86176
 4.8000e+000 87058  9.8886e-001  5.6279e-001  4.4006e+000 45516 86813,86917,86865
 4.8000e+000 87035  2.6697e+000  1.3674e+000  1.0400e+000 45516 86787,86917,86813
 4.8000e+000 87012  2.2535e+000  1.5634e+000  7.6754e-001 45516 86735,86917,86787
 4.8000e+000 86989  2.3162e+000  1.4874e+000  3.9963e+000 45516 86865,86917,86891
 4.8000e+000 86966 -3.7075e+000  4.1972e+000  3.7631e+000 45516 86813,86865,86839
 4.8000e+000 86943  3.3326e-001 -3.9692e+000  7.0294e-001 45516 86735,86787,86761
 4.8000e+000 87208  8.0698e+000  1.5682e+001 -6.6849e+000 45226 87231,87133,87107
 4.8000e+000 87185  7.6019e+000  5.6067e+000 -7.8252e+000 45226 87081,87159,87133
 4.8000e+000 87257  8.0641e+000  7.8812e+000 -6.3634e+000 45226 87081,87133,87231
 4.8000e+000 87537  1.0224e-001  1.6539e+000 -3.7075e+000 44772 87387,87439,87413
 4.8000e+000 87514  8.9961e-001 -1.2865e+000  2.1334e+000 44772 87361,87439,87387
 4.8000e+000 87491  3.1362e+000 -6.5494e+000  2.4800e+000 44772 87361,87465,87439
 4.8000e+000 87996 -1.9058e+000  1.3959e+001  8.8402e+000 44425 87748,87878,87852
 4.8000e+000 87973 -1.3370e-001  1.5192e+001  4.0460e-001 44425 87722,87878,87748
 4.8000e+000 87950  1.1658e+000  4.1606e+000  3.3383e+000 44425 87800,87852,87826
 4.8000e+000 87927  1.3357e+001  1.2220e+001  7.4960e+000 44425 87748,87852,87800
 4.8000e+000 87904 -9.5204e-001  2.0525e+001 -5.7364e+000 44425 87748,87800,87774
 4.8000e+000 88423 -2.6969e+000 -6.8595e+000  4.3021e+000 44078 88590,88230,88204
 4.8000e+000 88400  4.7813e-001  2.7675e+000  3.2955e+000 44078 88518,88446,88204
 4.8000e+000 88377  3.1698e+000 -9.4416e+000 -2.7483e+000 44078 88446,88126,88282
 4.8000e+000 88354  5.1785e-001  8.0873e+000  4.3193e-001 44078 88518,88204,88178
 4.8000e+000 88331  1.8361e+000 -1.5055e+001 -3.0488e+000 44078 88100,88282,88126
 4.8000e+000 88308 -2.3960e+000 -1.5717e+001  6.7429e+000 44078 88126,88178,88152
 4.8000e+000 88472 -3.5048e+000 -8.6521e+000  3.9375e+000 44078 88590,88204,88446
 4.8000e+000 88495 -3.4499e-001 -2.2402e+001 -4.8691e+000 44078 88256,88446,88282
 4.8000e+000 88544  2.1597e+000 -9.3920e+000  4.5165e+000 44078 88126,88446,88518
 4.8000e+000 88567  5.3306e+000  2.8639e-001  1.7063e+000 44078 88126,88518,88178
 4.8000e+000 88616 -8.4385e+000 -3.3590e+001  1.1751e+000 44078 88256,88230,88590
 4.8000e+000 88639 -1.1064e+000 -6.9290e+000  1.5809e+000 44078 88256,88590,88446
 4.8000e+000 89039  6.2498e+000  1.5778e+001  2.4660e+000 43716 88791,88921,88895
 4.8000e+000 89016  6.7553e+000  1.7966e+001  3.0228e+000 43716 88765,88921,88791
 4.8000e+000 88993  1.3637e+001  1.0243e+001  3.0575e+000 43716 88817,88895,88869
 4.8000e+000 88970  9.5721e+000  1.4040e+001  5.8976e+000 43716 88791,88895,88817
 4.8000e+000 88947 -2.1647e+000  3.6570e+000  4.4124e+000 43716 88817,88869,88843
 4.8000e+000 89496 -8.7989e-001 -2.6637e+000 -2.6667e-001 43162 89519,89274,89248
 4.8000e+000 89473  1.1250e-001  1.4314e+000  6.3401e-001 43162 89519,89248,89222
 4.8000e+000 89450  9.6223e-001  5.3527e+000 -1.5687e+000 43162 89326,89378,89352
 4.8000e+000 89427 -5.0163e-001  4.0656e+000 -1.4542e-001 43162 89274,89378,89326
 4.8000e+000 89404  2.9019e-001 -2.8401e+000 -1.3944e+000 43162 89274,89326,89300
 4.8000e+000 89545 -1.4211e+000  1.0837e+000  8.8147e-001 43162 89378,89274,89519
 4.8000e+000 89568 -1.5520e-001  5.5056e+000  1.8457e+000 43162 89378,89519,89222
 4.8000e+000 89946  4.0662e-001  4.6803e+000 -1.1249e+001 42594 90041,89969,89750
 4.8000e+000 89923 -2.9098e+000 -1.9498e+000 -2.5736e+000 42594 89969,89698,89828
 4.8000e+000 89900  5.9252e+000  3.3912e+000 -1.0715e+001 42594 90041,89750,89724
 4.8000e+000 89877 -1.5949e+000 -2.3091e+000 -2.5498e+000 42594 89750,89802,89776
 4.8000e+000 89854  1.5245e-001 -1.6819e+000 -7.1922e-001 42594 89672,89828,89698
 4.8000e+000 89995 -4.0587e+000  2.3682e+000 -8.7172e+000 42594 89802,89750,89969
 4.8000e+000 90018  2.5688e+000  1.0257e+001 -3.6637e+000 42594 89802,89969,89828
 4.8000e+000 90067  6.3480e+000  1.6712e+000 -9.1516e+000 42594 89698,89969,90041
 4.8000e+000 90090  1.6442e+001  4.0286e+000 -1.1495e+001 42594 89698,90041,89724
 4.8000e+000 90517  5.4392e+000 -2.7988e+000 -9.7258e-001 42140 90540,90220,90194
 4.8000e+000 90494  1.2928e+001  5.6452e+000 -4.2265e+000 42140 90540,90194,90376
 4.8000e+000 90471  1.1814e+001 -3.1277e+000 -9.2609e-001 42140 90612,90350,90272
 4.8000e+000 90448  7.0374e+000 -1.3189e+001 -2.9712e+000 42140 90272,90350,90298
 4.8000e+000 90425  1.2528e+001  1.6644e+000 -2.1603e+000 42140 90298,90350,90324
 4.8000e+000 90402  6.3442e+000 -9.5789e+000  2.2600e+000 42140 90220,90272,90246
 4.8000e+000 90566  9.7614e+000 -7.6744e+000 -1.6474e-001 42140 90272,90220,90540
 4.8000e+000 90589  1.1590e+001 -3.6465e+000 -8.9622e-001 42140 90612,90272,90540
 4.8000e+000 90638  1.1385e+001 -2.2444e+000 -1.8883e-001 42140 90376,90350,90612
 4.8000e+000 90661  1.0859e+001 -3.2338e+000  2.3490e-002 42140 90376,90612,90540
 4.8000e+000 91167 -2.4502e+000  1.0993e+000 -3.1773e-001 41636 91190,90870,90844
 4.8000e+000 91144 -3.7483e+000 -2.1491e+001  1.5563e-001 41636 91190,90844,91026
 4.8000e+000 91121 -6.6711e-001  7.5390e+000 -2.0423e+000 41636 90870,90922,90896
 4.8000e+000 91098  7.6576e+000 -1.0116e+001 -4.6093e+000 41636 90922,91026,90948
 4.8000e+000 91075  1.5501e+001 -1.4369e+001  2.3236e+000 41636 90948,91026,91000
 4.8000e+000 91052 -1.3925e+001 -3.5472e+001  2.1769e+001 41636 90948,91000,90974
 4.8000e+000 91216 -4.8639e+000  7.4055e+000  5.3689e-002 41636 90922,90870,91190
 4.8000e+000 91239  4.5458e+000 -6.2962e-001  3.6692e+000 41636 90922,91190,91026
 4.8000e+000 91696  3.1054e+000 -1.8040e+000  1.5127e+000 40449 91448,91526,91474
 4.8000e+000 91673 -5.7247e+000 -5.4151e+000  1.5767e+000 40449 91448,91578,91526
 4.8000e+000 91650  4.9987e+000  1.4512e+001  1.7673e+000 40449 91474,91526,91500
 4.8000e+000 91627  6.2528e-001 -3.8716e+000  1.5329e+000 40449 91422,91578,91448
 4.8000e+000 91604  1.1716e+001 -6.4932e+000 -1.6772e+000 40449 91526,91578,91552
 4.8000e+000 92123  3.6537e+000 -1.5066e+001  2.5838e+000 39995 92146,91904,91826
 4.8000e+000 92100 -8.5699e+000 -1.9868e+001  5.3321e+000 39995 92146,91826,91800
 4.8000e+000 92077 -1.3543e+001 -9.2930e+000  2.3037e+000 39995 91826,91904,91852
 4.8000e+000 92054 -6.2009e-001 -4.3548e+001 -4.4623e+000 39995 91904,91982,91930
 4.8000e+000 92031 -8.5099e+000 -5.5741e+000  6.5268e+000 39995 91852,91904,91878
 4.8000e+000 92008 -4.1251e+000 -2.2502e+001  5.4006e-001 39995 91930,91982,91956
 4.8000e+000 92172  9.1090e+000 -1.7604e+001 -3.4507e+000 39995 91982,91904,92146
 4.8000e+000 92195  1.5440e+000 -1.7459e+001 -2.0354e+000 39995 91982,92146,91800
 4.8000e+000 92652  1.8991e-002  4.6667e+000  1.5604e+000 39633 92404,92534,92456
 4.8000e+000 92629 -1.5333e+000  6.4440e+000  1.1993e+000 39633 92378,92534,92404
 4.8000e+000 92606 -7.3430e+000  1.5175e+000  1.5409e+000 39633 92404,92456,92430
 4.8000e+000 92583 -1.1197e+000  6.9810e+000  3.1247e+000 39633 92456,92534,92508
 4.8000e+000 92560  1.7503e+000  5.0372e+000  4.7636e+000 39633 92456,92508,92482
 4.8000e+000 93079 -8.5730e+000 -1.0510e+001 -5.3693e+000 39093 93102,92808,92756
 4.8000e+000 93056 -6.7761e+000 -1.4783e+001 -1.3971e+000 39093 93102,92756,92938
 4.8000e+000 93033 -3.7626e+000 -3.5591e+000 -3.4783e+000 39093 93174,92912,92834
 4.8000e+000 93010 -2.2145e+000  1.5882e+001  5.9628e+000 39093 92834,92912,92860
 4.8000e+000 92987 -7.1200e+000 -3.1787e+001 -1.3047e+001 39093 92756,92808,92782
 4.8000e+000 92964  1.0750e+001  2.8574e+001 -1.3801e+001 39093 92860,92912,92886
 4.8000e+000 93128 -7.4907e+000 -8.9202e+000 -4.8753e+000 39093 92834,92808,93102
 4.8000e+000 93151 -6.8323e+000 -9.9935e+000 -4.9829e+000 39093 93174,92834,93102
 4.8000e+000 93200 -3.3794e+000 -4.8632e+000  5.2690e-001 39093 92938,92912,93174
 4.8000e+000 93223 -3.3764e+000 -7.4486e+000 -4.3942e-001 39093 92938,93174,93102
 4.8000e+000 93680  1.0104e+001  1.0884e+001 -7.6004e-001 38639 93703,93536,93484
 4.8000e+000 93657  9.4532e+000  1.1865e+001 -6.8004e-001 38639 93703,93484,93432
 4.8000e+000 93634  4.1096e+000  1.1221e+001 -2.1469e+000 38639 93432,93484,93458
 4.8000e+000 93611  1.2019e+001  1.9762e+001  1.1952e+001 38639 93484,93536,93510
 4.8000e+000 93588  7.5627e+000  7.0730e+000 -1.5694e+000 38639 93406,93562,93432
 4.8000e+000 93729  9.7341e+000  9.8555e+000 -1.0097e+000 38639 93562,93536,93703
 4.8000e+000 93752  9.3218e+000  1.1325e+001 -1.0545e+000 38639 93562,93703,93432
 4.8000e+000 94160 -2.9804e+000  4.7335e+000  4.3649e+000 38292 93935,94039,93961
 4.8000e+000 94137 -2.4451e+000  7.6030e+000  2.3536e+000 38292 93935,94065,94039
 4.8000e+000 94114 -3.5696e+000 -2.0586e+000  9.1748e-002 38292 93961,94013,93987
 4.8000e+000 94091  2.1531e+000 -1.0061e+000  2.9958e+000 38292 93961,94039,94013
 4.8000e+000 94408  5.1182e+000  7.5302e-001  4.5857e+000 37880 94431,94261,94235
 4.8000e+000 94385  7.1506e+000 -3.8136e+000  5.5528e+000 37880 94431,94235,94313
 4.8000e+000 94362  6.6028e+000 -7.2747e+000  4.4890e+000 37880 94209,94313,94235
 4.8000e+000 94339  1.0041e+001  7.1995e+000 -6.1206e+000 37880 94183,94313,94209
 4.8000e+000 94457  9.1772e-001 -2.9004e+000  6.1306e+000 37880 94287,94261,94431
 4.8000e+000 94480  5.9111e+000 -4.9214e+000  6.0188e+000 37880 94287,94431,94313
 4.8000e+000 94728  5.1191e-001  9.8151e+000 -2.9689e+000 37426 94529,94607,94555
 4.8000e+000 94705  9.1250e+000 -2.5221e+001 -8.3663e+000 37426 94529,94633,94607
 4.8000e+000 94682  1.0893e+000 -2.2958e+001 -7.3975e+000 37426 94503,94633,94529
 4.8000e+000 94659  5.8831e-001  1.8574e+000  1.0386e+000 37426 94555,94607,94581
 4.8000e+000 95257  4.5509e-001  3.6853e-001  5.3602e-001 36722 95496,95280,94862
 4.8000e+000 95234 -1.3852e+000 -6.1273e-001 -5.2583e-001 36722 95496,94862,94836
 4.8000e+000 95211  1.7263e-002  1.0329e+000 -5.8360e-002 36722 95352,95280,95070
 4.8000e+000 95188 -3.8995e-002 -7.0020e-001 -6.8509e-001 36722 95352,95070,95044
 4.8000e+000 95165 -5.6629e-001  3.1445e-001 -5.8006e-001 36722 95424,94888,94862
 4.8000e+000 95142 -5.1370e+000  6.0493e+000  1.0652e+000 36722 94914,94966,94940
 4.8000e+000 95119  4.0851e-001  2.8644e-001 -5.6497e-001 36722 94966,95044,95018
 4.8000e+000 95096  2.8476e-001  3.4593e-001 -8.2867e-001 36722 94966,95018,94992
 4.8000e+000 95306 -9.4448e-001  1.4880e+000 -3.6495e-001 36722 95424,94862,95280
 4.8000e+000 95329  4.1347e-001  6.8561e+000 -1.0961e+000 36722 94914,95280,94966
 4.8000e+000 95378  4.7648e-001  1.7119e+000  7.2786e-001 36722 94966,95280,95352
 4.8000e+000 95401  1.0204e+000  1.0127e+000  1.0639e-001 36722 94966,95352,95044
 4.8000e+000 95450 -1.2774e+000  7.6039e-001 -1.2159e+000 36722 94914,94888,95424
 4.8000e+000 95473 -1.5057e+000  8.8145e-001 -8.7301e-001 36722 94914,95424,95280
 4.8000e+000 95522  6.1500e-001 -3.4318e-001  4.8115e-001 36722 95070,95280,95496
 4.8000e+000 95545  7.4664e-001 -4.5793e-001  3.9837e-001 36722 95070,95496,94836
 4.8000e+000 96130  1.4892e+000  2.1494e-001  1.0188e+000 36268 96153,95911,95859
 4.8000e+000 96107  1.9138e+000  1.1228e+001  1.3488e+000 36268 96153,95859,95807
 4.8000e+000 96084  6.1500e-001  1.0667e+001  3.8852e+000 36268 95807,95859,95833
 4.8000e+000 96061 -5.2561e+000  1.2885e+000 -2.2964e+000 36268 95911,95989,95937
 4.8000e+000 96038 -1.8678e+000 -1.8948e-001  5.9250e+000 36268 95859,95911,95885
 4.8000e+000 96015  1.0417e+000  2.5612e+000 -2.3796e+000 36268 95937,95989,95963
 4.8000e+000 96179 -2.9024e+000  9.7084e+000 -1.5012e+000 36268 95989,95911,96153
 4.8000e+000 96202 -3.4906e-001  2.3675e+001 -8.4103e-001 36268 95989,96153,95807
 4.8000e+000 96531  1.7298e+000  9.8180e+000 -2.9284e-001 35728 96358,96410,96384
 4.8000e+000 96508  1.3458e+001  1.9671e+001 -4.7262e+000 35728 96332,96410,96358
 4.8000e+000 96485  5.1930e+000  1.1035e+001  3.3033e+000 35728 96332,96436,96410
 4.8000e+000 96462  4.4466e-001  1.8896e+001 -6.3272e+000 35728 96306,96436,96332
 4.8000e+000 96860  3.6771e-001 -3.3409e+000  4.5120e-001 35324 96687,96765,96713
 4.8000e+000 96837  1.8646e+000 -1.0308e+000 -2.3959e+000 35324 96661,96765,96687
 4.8000e+000 96814  6.5294e+000  4.3075e+000 -3.2289e+000 35324 96713,96765,96739
 4.8000e+000 96791 -2.2158e+000  2.8009e+000 -1.8616e+000 35324 96635,96765,96661
 4.8000e+000 97366  1.3368e+000  1.0561e+000 -1.4426e+000 34920 97389,97069,97043
 4.8000e+000 97343  2.4555e+000  8.8453e-001 -1.1724e-001 34920 97389,97043,97199
 4.8000e+000 97320  2.3532e+000  5.4639e+000  9.3185e-001 34920 97043,97225,97199
 4.8000e+000 97297  8.1862e-001 -1.8052e-001 -1.6453e+000 34920 97069,97121,97095
 4.8000e+000 97274  1.1431e+000 -1.0654e+000 -7.2200e-001 34920 97121,97199,97173
 4.8000e+000 97251  7.1303e-001 -7.2657e-001 -1.1186e+000 34920 97121,97173,97147
 4.8000e+000 97415  7.9227e-002  5.7582e-001 -1.6714e+000 34920 97121,97069,97389
 4.8000e+000 97438  3.4642e-001  1.6600e-001 -1.2593e-001 34920 97121,97389,97199
 4.8000e+000 97708 -6.7521e+000  2.5712e+000  3.2702e+000 34722 97509,97587,97535
 4.8000e+000 97685 -6.1747e+000  8.9129e+000  1.8812e+000 34722 97509,97613,97587
 4.8000e+000 97662 -1.2641e+000  1.2373e+001  4.2865e+000 34722 97483,97613,97509
 4.8000e+000 97639 -9.4401e+000 -2.8742e+000 -4.8716e+000 34722 97535,97587,97561
 4.8000e+000 98216 -2.5586e+000  5.9231e+000  6.5396e-001 34318 97971,98075,97997
 4.8000e+000 98193 -8.6537e-001  4.2761e+000  3.9186e+000 34318 97893,98075,97971
 4.8000e+000 98170  4.4461e+000  9.7642e-001  1.0323e+000 34318 97893,97971,97919
 4.8000e+000 98147 -1.2247e+000  1.4796e+001  2.1265e+000 34318 97997,98075,98049
 4.8000e+000 98124  1.0600e+000  1.8724e-001  1.2652e+000 34318 97919,97971,97945
 4.8000e+000 98101 -2.8610e+000  8.8685e+000 -3.0261e+000 34318 97997,98049,98023
 4.8000e+000 98594  3.9941e+000  5.7584e+000 -1.5283e+000 33814 98961,98617,98424
 4.8000e+000 98571  1.2993e+001  6.5315e+000  9.9238e-002 33814 98689,98617,98372
 4.8000e+000 98548  1.3748e+001  1.3238e+001 -8.1371e-001 33814 99033,98689,98372
 4.8000e+000 98525  1.2152e+001  8.2070e+000 -3.5789e+000 33814 98761,98476,98450
 4.8000e+000 98502  1.6124e+000  3.7578e+000 -2.4697e+000 33814 98961,98424,98398
 4.8000e+000 98643  7.1816e+000  5.4211e+000 -3.8094e+000 33814 98450,98424,98617
 4.8000e+000 98666  8.3303e+000  7.2182e+000 -3.2912e+000 33814 98761,98450,98617
 4.8000e+000 98715  1.3564e+001  7.5756e+000 -9.9817e-001 33814 99161,98689,98320
 4.8000e+000 98738  4.5653e+000  5.4080e+000  1.3680e+000 33814 98320,98689,98346
 4.8000e+000 98787  1.1161e+001  7.4261e+000 -4.3443e+000 33814 98833,98761,98320
 4.8000e+000 98810  1.2097e+001  8.6632e+000 -3.5471e+000 33814 99161,98320,98761
 4.8000e+000 98859  1.1889e+001  9.7497e+000 -5.0574e+000 33814 98476,98761,98833
 4.8000e+000 98987  1.0052e+001 -1.4994e-001 -2.1011e+000 33814 98372,98617,98961
 4.8000e+000 99010  6.3144e+000 -4.0142e+000 -3.7816e+000 33814 98372,98961,98398
 4.8000e+000 99059  1.2680e+001  8.9232e+000  1.9362e+000 33814 98346,98689,99033
 4.8000e+000 99187  1.1735e+001  3.6877e+000 -1.5276e+000 33814 98617,98689,99161
 4.8000e+000 99210  1.0293e+001  5.1926e+000 -4.1940e+000 33814 98617,99161,98761
 4.8000e+000 99588  7.6042e-001 -3.9307e+000  3.1563e-001 33566 99366,99444,99392
 4.8000e+000 99565  4.5426e-001 -1.1929e+000  7.7288e-001 33566 99314,99444,99366
 4.8000e+000 99542  9.3583e-001 -2.8034e+000 -6.2467e-001 33566 99314,99366,99340
 4.8000e+000 99519  1.3539e+000  6.3393e-001 -1.3130e+000 33566 99314,99470,99444
 4.8000e+000 99496 -6.6476e-001 -4.9677e+000  1.4677e+000 33566 99392,99444,99418
 4.8000e+000 99787  6.5689e+000  8.6411e+000  4.5519e+000 33105 99637,99689,99663
 4.8000e+000 99764  2.5044e+000  8.7314e+000  1.6695e+000 33105 99611,99689,99637
 4.8000e+000 99741  2.5592e+000  3.9925e+000  6.8576e-001 33105 99611,99715,99689
 4.8000e+000 100167  3.3117e+000  1.2848e+000  2.5645e+000 32651 100190,99971,99919
 4.8000e+000 100144  2.2317e+000  2.3544e+000  2.6396e+000 32651 100262,100190,99919
 4.8000e+000 100121  8.2419e-001  2.6828e+000  1.6685e+000 32651 100262,99919,100049
 4.8000e+000 100098 -8.4271e-001  2.0940e+000 -1.5108e+000 32651 99893,100049,99919
 4.8000e+000 100075 -5.2502e-001 -7.2695e-001  3.6741e-001 32651 99919,99971,99945
 4.8000e+000 100216  1.9472e+000  1.7219e-001  1.7796e+000 32651 99997,99971,100190
 4.8000e+000 100239  2.1163e+000  1.3665e+000  2.0819e+000 32651 99997,100190,100023
 4.8000e+000 100288  6.8165e-001  7.6011e-001  2.0113e+000 32651 100023,100190,100262
 4.8000e+000 100311 -2.0374e+000  5.6075e-001  6.4552e-001 32651 100023,100262,100049
 4.8000e+000 100608  5.6406e-001 -5.3970e-001 -2.5062e-002 32254 100386,100490,100464
 4.8000e+000 100585 -3.8456e-001  2.6607e+000 -1.8123e+000 32254 100360,100490,100386
 4.8000e+000 100562 -3.3566e-001 -1.5001e+000 -5.0032e-001 32254 100386,100464,100412
 4.8000e+000 100539 -8.3585e-001  3.0087e+000 -6.7394e-001 32254 100334,100490,100360
 4.8000e+000 100516  3.9029e+000  1.5872e+000  2.1121e+000 32254 100412,100464,100438
 4.8000e+000 100758  4.4808e+000  7.4632e+000 -4.1829e+000 31914 100985,100781,100683
 4.8000e+000 100735  2.9948e-001  1.8295e+000 -2.2246e-001 31914 100853,100781,100657
 4.8000e+000 100807  6.9847e+000  5.6913e+000 -6.6394e+000 31914 100709,100683,100781
 4.8000e+000 100830  1.2067e+000  4.1876e+000 -3.3818e+000 31914 100709,100781,100631
 4.8000e+000 100879  1.2272e+000  1.2237e-001 -5.2237e-001 31914 100631,100781,100853
 4.8000e+000 101011  3.1015e+000  6.4715e-001 -4.0238e+000 31914 100657,100781,100985
 4.8000e+000 101191 -8.9315e+000  5.1874e+000 -9.7350e-001 31418 101113,101165,101139
 4.8000e+000 101341 -1.9692e+001 -2.2146e+001 -3.4219e+000 31106 101214,101266,101240
 4.8000e+000 101318 -9.4787e+000  1.0120e+001  2.9789e+000 31106 101214,101292,101266
 4.8000e+000 101591 -4.9463e+000 -4.6442e+000 -1.5418e-001 30552 101614,101470,101444
 4.8000e+000 101568 -5.9887e+000 -5.8708e+000 -1.4047e-001 30552 101366,101496,101470
 4.8000e+000 101545 -5.1787e+000 -4.0413e+000  2.6023e-001 30552 101614,101444,101392
 4.8000e+000 101522 -1.7541e-001 -1.7720e+000 -4.6263e-001 30552 101392,101444,101418
 4.8000e+000 101640 -5.3617e+000 -5.0938e+000 -4.6119e-001 30552 101366,101470,101614
 4.8000e+000 101663 -5.5379e+000 -4.4871e+000 -2.9165e-002 30552 101366,101614,101392
 4.8000e+000 102301  8.8474e-001 -5.1994e+000 -8.2046e+000 30042 102396,102324,102059
 4.8000e+000 102278  4.6789e+000 -7.5401e+000 -1.5572e+001 30042 102324,101981,101955
 4.8000e+000 102255 -5.1513e+000 -1.4675e+000 -1.7278e+000 30042 102396,102059,102033
 4.8000e+000 102232 -1.7121e+000  1.8917e+000  2.4147e+000 30042 101929,102111,101955
 4.8000e+000 102209  3.1003e+000 -2.4762e+000  1.3311e+000 30042 102059,102111,102085
 4.8000e+000 102186  2.6368e+000  4.7503e+000 -2.6169e-001 30042 101929,102137,102111
 4.8000e+000 102163 -6.4371e-001  5.7209e+000  3.4945e+000 30042 101981,102033,102007
 4.8000e+000 102350  1.2672e+001 -2.5541e+000 -3.0070e+000 30042 102111,102059,102324
 4.8000e+000 102373  7.4491e+000 -1.2597e+001 -4.8867e+000 30042 102111,102324,101955
 4.8000e+000 102422  9.6085e+000  8.0600e+000 -1.1974e+001 30042 101981,102324,102396
 4.8000e+000 102445  3.3267e+000  1.1703e+001 -5.3727e+000 30042 101981,102396,102033
 4.8000e+000 103000  1.5703e+001 -9.7056e-001 -1.2034e+000 29730 103023,102706,102654
 4.8000e+000 102977  5.7183e+000 -1.8898e+000 -3.4584e+000 29730 103023,102654,102810
 4.8000e+000 102954 -1.5670e+000 -9.2884e+000 -5.4724e+000 29730 102732,102810,102784
 4.8000e+000 102931  6.6544e+000 -2.1176e+000 -3.4048e+000 29730 102628,102810,102654
 4.8000e+000 102908  1.9624e+001  1.0265e+001 -1.8173e+000 29730 102654,102706,102680
 4.8000e+000 102885 -2.6959e+000 -9.3939e+000 -7.8446e+000 29730 102732,102784,102758
 4.8000e+000 102862  2.6816e+000 -4.3554e+000 -1.5397e+000 29730 102628,102836,102810
 4.8000e+000 103049  9.6016e+000 -4.1432e+000 -6.0204e+000 29730 102732,102706,103023
 4.8000e+000 103072  3.4954e+000 -1.2442e+000 -7.7204e+000 29730 102732,103023,102810
 4.8000e+000 103222  7.6947e+000 -6.1385e-001  1.0322e+000 29226 103095,103147,103121
 4.8000e+000 103199  3.7554e+000  1.6315e+000  3.2068e-001 29226 103095,103173,103147
 4.8000e+000 103730  2.6990e+000 -3.9104e+000  1.6436e+000 28822 103537,103589,103563
 4.8000e+000 103707  2.7324e+000  5.3347e-001  2.1408e+000 28822 103433,103589,103537
 4.8000e+000 103684  1.5144e+001  7.1045e+000 -7.6458e-001 28822 103433,103537,103459
 4.8000e+000 103661  1.4111e+001 -2.1860e+000  6.0715e+000 28822 103407,103589,103433
 4.8000e+000 103638  5.1345e+000  9.9220e+000  4.3612e+000 28822 103459,103511,103485
 4.8000e+000 103615 -2.9011e+000  1.2392e+001  3.1646e+000 28822 103459,103537,103511
 4.8000e+000 103880  8.3034e+000  6.0890e+000  1.2971e+000 28368 103975,103903,103779
 4.8000e+000 103857 -5.8499e-001 -7.2262e+000 -1.9155e+000 28368 103903,103753,103831
 4.8000e+000 103929 -2.4477e-001  6.1214e+000 -3.5560e+000 28368 103805,103779,103903
 4.8000e+000 103952 -2.2896e+000  4.0030e+000 -3.3482e+000 28368 104105,103903,103831
 4.8000e+000 104001  4.5404e+000  1.2778e+000 -4.4288e+000 28368 103753,103903,103975
 4.8000e+000 104131 -7.4836e+000  2.8924e+000 -1.6973e+000 28368 103805,103903,104105
 4.8000e+000 104539  2.3630e+000  1.7138e+000 -6.7461e-001 28028 104562,104340,104314
 4.8000e+000 104516  8.6755e-001 -2.5712e-001  5.3703e-002 28028 104634,104562,104314
 4.8000e+000 104493  4.1464e+000  1.9279e+000  2.4775e+000 28028 104762,104366,104340
 4.8000e+000 104470  2.1925e+000  8.0542e-001  2.4232e+000 28028 104366,104418,104392
 4.8000e+000 104588  2.2437e+000  2.7793e+000  1.1596e+000 28028 104762,104340,104562
 4.8000e+000 104611 -5.6950e-001  5.6286e-001  7.3715e-001 28028 104418,104562,104444
 4.8000e+000 104660 -1.2880e-001  6.3789e-001 -1.9036e-001 28028 104444,104562,104634
 4.8000e+000 104788  2.4298e+000  4.7965e-001  1.8410e+000 28028 104418,104366,104762
 4.8000e+000 104811  2.3631e-001  7.6154e-001  3.4284e-001 28028 104418,104762,104562
 4.8000e+000 105010  5.5875e+000 -1.3409e+000 -1.8011e+000 27324 105033,104886,104860
 4.8000e+000 104987 -2.3721e+000 -4.3620e+000 -1.0331e+000 27324 105033,104860,104834
 4.8000e+000 104964 -7.9654e-001  4.2164e+000 -6.8535e+000 27324 105105,104912,104886
 4.8000e+000 105059  4.4224e+000  7.7628e-001 -6.0842e+000 27324 105105,104886,105033
 4.8000e+000 105082  8.8769e-001 -4.2508e+000 -4.1041e+000 27324 104938,105033,104834
 4.8000e+000 105131 -5.1910e+000  7.5063e-001 -4.7818e+000 27324 104938,104912,105105
 4.8000e+000 105154 -1.0749e+000 -4.4220e+000 -3.7059e+000 27324 104938,105105,105033
 4.8000e+000 105402  3.6950e-001 -1.8305e-001 -5.7605e-001 27012 105229,105281,105255
 4.8000e+000 105379  2.0710e+000  1.7583e+000 -1.3431e+000 27012 105229,105307,105281
 4.8000e+000 105356  6.0707e+000  3.9735e+000 -3.6701e-001 27012 105177,105307,105229
 4.8000e+000 105333  1.0127e+000 -2.8932e+000 -3.3342e+000 27012 105177,105229,105203
 4.8000e+000 105603 -5.2058e-001  4.5474e+000 -3.5413e+000 26508 105626,105453,105427
 4.8000e+000 105580 -8.1011e-001  3.6055e+000  6.8822e-001 26508 105626,105427,105505
 4.8000e+000 105557  1.0394e+000  3.0675e+000  1.2516e+000 26508 105427,105531,105505
 4.8000e+000 105652 -4.0300e+000  3.0047e+000 -2.6053e+000 26508 105479,105453,105626
 4.8000e+000 105675 -4.8044e+000  2.6664e+000  1.2448e+000 26508 105479,105626,105505
 4.8000e+000 106057 -4.5501e-001 -1.0164e+000  6.9049e-001 25947 106080,105887,105861
 4.8000e+000 106034  5.1364e-001  5.8517e-001 -3.9739e-001 25947 106080,105861,105783
 4.8000e+000 106011  1.5680e+000  1.8559e+000 -9.6693e-001 25947 105783,105835,105809
 4.8000e+000 105988 -1.3314e+000 -3.3440e-001  2.0558e-001 25947 105783,105861,105835
 4.8000e+000 105965  7.7263e-002  2.1060e+000 -1.7576e+000 25947 105887,105939,105913
 4.8000e+000 106106 -1.7423e-001 -3.3567e-001 -7.3853e-001 25947 105939,105887,106080
 4.8000e+000 106129  1.9483e+000  2.6144e+000 -2.0434e+000 25947 105939,106080,105783
 4.8000e+000 106714 -3.2641e-001 -7.5245e-001  4.7067e-001 25557 106809,106737,106547
 4.8000e+000 106691  9.0437e-001  2.5520e+000 -1.4347e+000 25557 106737,106417,106391
 4.8000e+000 106668  1.2373e+000 -8.7704e-001  5.3715e-001 25557 106809,106547,106495
 4.8000e+000 106645  3.2914e+000  1.6894e+000  1.7975e+000 25557 106417,106495,106469
 4.8000e+000 106622  1.8964e+000  2.5127e+000  4.8652e+000 25557 106495,106547,106521
 4.8000e+000 106599  1.9466e+000  1.9481e+000  1.3685e+000 25557 106417,106469,106443
 4.8000e+000 106763 -2.4904e+000 -1.6938e+000  1.9578e+000 25557 106573,106547,106737
 4.8000e+000 106786 -5.5351e-001 -5.6110e-001 -7.9944e-001 25557 106573,106737,106391
 4.8000e+000 106835  1.4496e+000  1.5296e-002  1.1707e+000 25557 106417,106737,106809
 4.8000e+000 106858  2.1638e+000 -9.6437e-001  9.1631e-001 25557 106417,106809,106495
 4.8000e+000 107364  1.5439e+000 -1.1469e+000 -5.6570e-001 25153 107459,107387,107171
 4.8000e+000 107341  2.3713e+000 -2.3551e-001 -3.6121e-001 25153 107387,107119,107067
 4.8000e+000 107318  1.6177e+000  1.2455e+000  1.9224e+000 25153 107459,107171,107145
 4.8000e+000 107295  2.7718e+000  5.5404e-001 -4.6417e+000 25153 107531,107223,107197
 4.8000e+000 107272  7.7823e+000  9.7498e+000 -3.8232e+000 25153 107067,107119,107093
 4.8000e+000 107249  6.5076e+000  3.0088e+000 -5.1463e+000 25153 107041,107223,107067
 4.8000e+000 107413 -6.6856e+000 -3.6708e+000 -9.3031e-001 25153 107197,107171,107387
 4.8000e+000 107436  1.3546e+000 -2.3660e+000 -1.0012e+000 25153 107531,107197,107387
 4.8000e+000 107485  3.2713e+000  3.2120e+000  4.9968e-001 25153 107119,107387,107459
 4.8000e+000 107508  3.9424e+000  5.3209e+000  3.3110e+000 25153 107119,107459,107145
 4.8000e+000 107557  4.6785e+000  3.8653e+000 -5.6796e+000 25153 107067,107223,107531
 4.8000e+000 107580  4.4169e+000  3.8719e+000 -2.1477e+000 25153 107067,107531,107387
 4.8000e+000 107958  2.4069e+000 -3.3058e+000 -1.1631e+000 24741 107736,107814,107788
 4.8000e+000 107935 -4.2680e+000 -1.0110e+001 -5.9818e+000 24741 107736,107840,107814
 4.8000e+000 107912 -9.9427e-001 -1.0640e+001 -4.1234e+000 24741 107684,107840,107736
 4.8000e+000 107889  2.0814e+000  2.1789e+000 -3.1168e+000 24741 107736,107788,107762
 4.8000e+000 107866 -1.9598e+000 -7.7805e+000 -3.1843e-001 24741 107684,107736,107710
 4.8000e+000 108157  1.0363e-001 -9.0660e-001 -2.8377e+000 24237 108180,108059,108007
 4.8000e+000 108134  4.1873e+000  1.6637e+000 -1.6616e+000 24237 108180,108007,107981
 4.8000e+000 108111 -1.0602e+000 -1.6059e+000 -2.4820e+000 24237 108007,108059,108033
 4.8000e+000 108206  1.4819e+000  6.5759e-001  7.0883e-001 24237 108085,108059,108180
 4.8000e+000 108229  5.4124e+000  3.1648e+000  1.8676e+000 24237 108085,108180,107981
 4.8000e+000 108658  9.4245e+000  1.8115e+000 -3.2124e+000 23776 108361,108413,108387
 4.8000e+000 108635 -5.3234e-001 -1.4880e+001 -4.6717e+000 23776 108753,108681,108361
 4.8000e+000 108612 -1.0318e+000 -5.1141e+000 -3.5862e+000 23776 108681,108465,108439
 4.8000e+000 108589 -2.7936e+000 -1.8000e+001 -2.5523e+000 23776 108753,108361,108335
 4.8000e+000 108566 -6.0243e+000 -8.7303e+000 -5.0319e+000 23776 108335,108517,108465
 4.8000e+000 108543 -4.8177e+000 -1.0714e+001 -4.0763e+000 23776 108465,108517,108491
 4.8000e+000 108707  4.2523e+000 -4.6892e+000 -6.7942e+000 23776 108413,108361,108681
 4.8000e+000 108730 -8.6622e-001  2.8951e+000 -1.6546e+000 23776 108413,108681,108439
 4.8000e+000 108779 -2.9989e+000 -5.4727e+000 -7.5949e+000 23776 108465,108681,108753
 4.8000e+000 108802 -7.2806e+000 -1.2004e+001 -5.3222e+000 23776 108465,108753,108335
 4.8000e+000 109023  6.1957e-001 -1.5309e+000 -1.4805e+000 23414 108873,108925,108899
 4.8000e+000 109000  2.7876e+000 -3.6108e-001 -1.0332e+000 23414 108847,108925,108873
 4.8000e+000 108977  4.8052e+000  6.0720e+000  6.4831e-001 23414 108847,108951,108925
 4.8000e+000 109474  7.3560e-001  1.8838e+001 -1.2727e+000 23024 109151,109307,109177
 4.8000e+000 109451  6.2907e-001  8.6246e-001  4.4632e-001 23024 109151,109333,109307
 4.8000e+000 109428  9.7328e+000  6.3180e+000  9.7317e-001 23024 109177,109281,109203
 4.8000e+000 109405  1.2797e+001  1.5906e+001 -4.2438e+000 23024 109177,109307,109281
 4.8000e+000 109382  5.6237e+000  3.2578e+000 -4.2424e-001 23024 109203,109281,109229
 4.8000e+000 109359  3.5612e+000  4.3235e+000 -1.7434e+000 23024 109229,109281,109255
 4.8000e+000 109820  4.4711e+000 -3.2633e+000 -9.1824e-001 22506 109843,109601,109523
 4.8000e+000 109797  1.1256e+000  4.6830e-001 -2.3389e+000 22506 109843,109523,109497
 4.8000e+000 109774 -2.1267e+000 -1.0442e+001 -7.9348e-002 22506 109915,109653,109627
 4.8000e+000 109751 -5.8340e+000 -1.9132e+000 -1.4984e+000 22506 109497,109679,109653
 4.8000e+000 109728  5.1335e+000 -1.9083e+000 -3.9010e+000 22506 109523,109601,109575
 4.8000e+000 109705  1.6054e+000 -8.2574e+000 -5.4022e+000 22506 109523,109575,109549
 4.8000e+000 109869  2.6710e+000 -1.1001e+000 -7.9571e-002 22506 109627,109601,109843
 4.8000e+000 109892  9.1730e-001 -3.7938e+000  6.8446e-001 22506 109915,109627,109843
 4.8000e+000 109941 -3.2125e+000 -4.5427e+000 -4.1814e+000 22506 109497,109653,109915
 4.8000e+000 109964 -2.7302e+000 -3.4547e+000 -4.0627e+000 22506 109497,109915,109843
 4.8000e+000 110163  2.9416e+000  2.8627e+000  1.6384e+000 21936 110186,110039,110013
 4.8000e+000 110140  1.1095e+001  3.0204e+000  8.5080e-001 21936 110390,110186,110013
 4.8000e+000 110117  1.7255e+001 -1.1853e+000  6.5162e+000 21936 110390,110013,109987
 4.8000e+000 110212  5.0124e+000  5.9999e+000 -2.6132e+000 21936 110065,110039,110186
 4.8000e+000 110235 -2.3781e+000 -3.0349e+000 -3.9681e+000 21936 110258,110186,110091
 4.8000e+000 110284 -5.5022e+000  2.6710e+000 -2.4571e+000 21936 110065,110186,110258
 4.8000e+000 110416 -2.3470e+000  1.3162e+000  1.7504e+000 21936 110091,110186,110390
 4.8000e+000 110439  6.5167e+000 -1.1464e+000  6.8724e+000 21936 110091,110390,109987
 4.8000e+000 110709  8.8258e+000  4.8660e+000 -3.5880e-001 21338 110510,110614,110588
 4.8000e+000 110686  1.0578e+001  7.0272e+000  4.0623e-001 21338 110484,110614,110510
 4.8000e+000 110663  1.2713e+001  1.0724e+001  6.3108e-001 21338 110510,110562,110536
 4.8000e+000 110640  1.0452e+001  5.1457e+000  2.4501e-003 21338 110510,110588,110562
 4.8000e+000 111296  4.9838e+000  7.3538e+000 -5.0461e+000 20934 111025,111155,111103
 4.8000e+000 111273  6.1288e-001  7.2699e+000 -2.1529e+000 20934 110999,111155,111025
 4.8000e+000 111250  2.8488e-002  3.7528e+000  7.9961e-001 20934 111103,111155,111129
 4.8000e+000 111227  4.5182e+000 -3.7373e+000 -1.7125e+000 20934 111051,111103,111077
 4.8000e+000 111204  7.8113e+000 -1.4880e+000 -4.0309e+000 20934 111025,111103,111051
 4.8000e+000 111181  3.1693e+000  1.1919e+001 -1.0238e+000 20934 110973,111155,110999
 4.8000e+000 111930 -8.0355e+000 -1.4324e+001 -1.0125e+001 20494 111662,111714,111688
 4.8000e+000 111907 -5.2842e+000 -6.7574e+000 -7.7041e+000 20494 111584,111714,111662
 4.8000e+000 111884 -7.5524e+000 -5.8419e+000 -8.1864e+000 20494 111584,111766,111714
 4.8000e+000 111861  6.9466e+000 -3.8112e+000 -4.5733e+000 20494 111584,111636,111610
 4.8000e+000 111838 -2.0290e+000 -4.9259e+000 -9.7086e+000 20494 111584,111662,111636
 4.8000e+000 111815 -2.8271e+000 -4.3282e+000 -8.6756e+000 20494 111558,111766,111584
 4.8000e+000 111792 -6.8298e+000 -8.8575e-001 -2.5855e+000 20494 111714,111766,111740
 4.8000e+000 112249 -5.1557e+000 -5.4691e+001  5.1160e+000 19940 111975,112053,112001
 4.8000e+000 112226  9.4106e+000 -2.3429e+001  1.3241e+000 19940 111975,112131,112053
 4.8000e+000 112203  1.0034e+000 -4.7740e+001  0.0000e+000 19940 112053,112105,112079
 4.8000e+000 112180  1.9697e-001 -4.6090e+001  8.4600e-001 19940 112053,112131,112105
 4.8000e+000 112157  4.2788e+000 -4.5236e+001 -1.4637e+000 19940 112001,112053,112027
 4.8000e+000 112757  5.2724e+000  2.3849e+000 -1.4351e+000 19486 112780,112538,112486
 4.8000e+000 112734  5.7950e+000  3.6783e+000 -1.0135e+000 19486 112780,112486,112460
 4.8000e+000 112711  4.2305e+000  2.8115e+000 -1.8747e+000 19486 112852,112616,112590
 4.8000e+000 112688  8.6684e+000  1.0146e+000 -1.6506e+000 19486 112486,112538,112512
 4.8000e+000 112665  2.9000e+000  1.4978e+000 -4.9134e-001 19486 112434,112616,112460
 4.8000e+000 112642  5.0418e+000  4.4127e+000 -1.1221e+000 19486 112538,112590,112564
 4.8000e+000 112806  6.3195e+000  2.8883e+000 -1.6091e+000 19486 112590,112538,112780
 4.8000e+000 112829  5.8827e+000  2.9377e+000 -1.9350e+000 19486 112852,112590,112780
 4.8000e+000 112878  2.9693e+000  3.1884e+000 -1.3691e+000 19486 112460,112616,112852
 4.8000e+000 112901  3.9059e+000  2.7398e+000 -1.3816e+000 19486 112460,112852,112780
 4.8000e+000 113252  1.2443e+000 -1.5961e+000 -9.9741e-001 19096 113105,113157,113131
 4.8000e+000 113229  3.0883e+000  4.4540e-001 -1.5142e-001 19096 113053,113157,113105
 4.8000e+000 113206  5.1233e+000  8.5154e-002 -1.1350e+000 19096 113027,113157,113053
 4.8000e+000 113183  3.1363e+000 -9.9786e-001 -5.4815e-001 19096 113053,113105,113079
 4.8000e+000 113451  2.2053e+000 -1.8912e+001 -5.7210e+000 18642 113327,113379,113353
 4.8000e+000 113428  2.9510e-001 -2.4759e+001 -4.7448e+000 18642 113301,113379,113327
 4.8000e+000 113405  1.0014e+001 -1.8882e+001 -2.1067e+000 18642 113275,113379,113301
 4.8000e+000 113699  3.7300e+000 -5.5901e+000 -2.2139e+000 18138 113474,113552,113526
 4.8000e+000 113676  5.0600e+000 -9.8990e+000 -3.0752e+000 18138 113474,113578,113552
 4.8000e+000 113653  6.2942e+000 -1.2343e+001 -3.4075e+000 18138 113474,113604,113578
 4.8000e+000 113630  6.7892e+000  1.9681e+000 -1.2124e+000 18138 113474,113526,113500
 4.8000e+000 113851 -1.2449e+000 -4.7110e+000 -1.1562e+000 17682 113750,113802,113776
 4.8000e+000 113828  4.3409e+000 -1.5671e+000  2.0626e-001 17682 113724,113802,113750
 4.8000e+000 114383  5.9996e+000 -3.0491e+001 -3.0974e+000 17106 114086,114242,114164
 4.8000e+000 114360  6.0419e+000 -3.0846e+001 -7.2867e+000 17106 114060,114242,114086
 4.8000e+000 114337 -7.7153e+000 -5.6614e+001  4.2065e+000 17106 114086,114164,114138
 4.8000e+000 114314 -1.5555e+001 -9.1354e+001 -1.9210e+000 17106 114190,114242,114216
 4.8000e+000 114291 -6.8139e+000 -6.3496e+001 -6.6723e+000 17106 114164,114242,114190
 4.8000e+000 114268 -9.3665e-001 -5.0960e+001  8.6008e+000 17106 114086,114138,114112
 4.8000e+000 114680 -1.2218e+000 -1.2318e+001 -1.6655e+000 16766 114703,114432,114406
 4.8000e+000 114657 -2.2534e+000 -1.4088e+001 -2.0890e+000 16766 114703,114406,114510
 4.8000e+000 114634 -1.0976e+000 -7.3282e+000 -1.1581e+000 16766 114406,114536,114510
 4.8000e+000 114611  3.1553e+000 -1.2179e+001 -1.1224e+000 16766 114432,114484,114458
 4.8000e+000 114588  1.7126e+000 -5.7547e+000 -2.6475e+000 16766 114406,114562,114536
 4.8000e+000 114729  2.2513e+000 -1.3431e+001  2.2251e-001 16766 114484,114432,114703
 4.8000e+000 114752 -2.7804e-001 -1.6625e+001 -9.3231e-001 16766 114484,114703,114510
 4.8000e+000 114902  9.2115e+000 -4.6528e+001 -8.7122e+000 16362 114775,114827,114801
 4.8000e+000 114879  6.9130e+000 -4.7071e+001 -8.2875e+000 16362 114775,114853,114827
 4.8000e+000 115054 -5.3561e+001 -8.5656e+001 -3.9495e+000 15908 114953,115005,114979
 4.8000e+000 115031 -4.9494e+001 -8.8765e+001 -2.6675e+000 15908 114927,115005,114953
 4.8000e+000 115326  8.8078e+000  3.5146e+000  3.8431e+000 15251 115101,115179,115153
 4.8000e+000 115303  6.0630e+000  3.1218e+000  1.3532e+000 15251 115101,115231,115179
 4.8000e+000 115280  6.5287e+000  4.0460e+000  1.1972e+000 15251 115179,115231,115205
 4.8000e+000 115257 -3.2266e+000 -2.7994e+001  1.5098e+000 15251 115101,115153,115127
 4.8000e+000 115429  2.7995e+000 -1.0718e+001  5.6521e-001 421 115351,115403,115377
 4.9000e+000 66230  8.5553e+000 -1.7715e+001 -2.8366e+000 65954 66152,66204,66178
 4.9000e+000 66429  3.2301e+000 -4.5264e+000 -5.9158e+000 65642 66279,66331,66305
 4.9000e+000 66406  2.3651e+000  2.2981e+000 -1.3562e+000 65642 66279,66357,66331
 4.9000e+000 66383 -1.1126e+000 -1.4136e+001  3.6811e+000 65642 66253,66357,66279
 4.9000e+000 66628 -8.6858e-001  1.0372e+001 -1.1708e+000 65444 66452,66530,66478
 4.9000e+000 66605  1.8894e-001  7.5603e+000 -2.1222e+000 65444 66452,66556,66530
 4.9000e+000 66582  7.4564e-001  6.5141e+000 -1.0220e+000 65444 66478,66530,66504
 4.9000e+000 67006 -5.4910e-001  4.2111e+000  1.3728e+000 65246 66732,66810,66758
 4.9000e+000 66983 -1.7449e+000  2.2540e+000  7.1798e-001 65246 66732,66836,66810
 4.9000e+000 66960  8.7613e-001  4.3267e+000  3.9035e+000 65246 66732,66862,66836
 4.9000e+000 66937  1.6075e+000  2.0632e+000 -6.8914e-001 65246 66758,66810,66784
 4.9000e+000 66914  2.9722e+000 -6.9669e-001  3.2000e-001 65246 66732,66888,66862
 4.9000e+000 67107  1.9161e+000 -1.1632e+000 -1.0330e-001 64934 67029,67081,67055
 4.9000e+000 67306 -1.8420e+001  2.6176e+001  6.8708e+000 64736 67156,67208,67182
 4.9000e+000 67283 -8.5079e-001  2.1456e+001  5.2692e+000 64736 67130,67208,67156
 4.9000e+000 67260  5.4567e+000  7.6602e+000  9.3112e+000 64736 67130,67234,67208
 4.9000e+000 67507  3.4289e-001  1.4151e+000  1.5487e+000 64389 67357,67409,67383
 4.9000e+000 67484 -1.0707e+000  7.5360e+000  8.4128e-001 64389 67357,67435,67409
 4.9000e+000 67461  1.5809e+000  4.2478e+000  1.5739e+000 64389 67331,67435,67357
 4.9000e+000 67708  2.6555e+001  4.6072e+000  6.0702e+000 63985 67731,67584,67558
 4.9000e+000 67685  1.7090e+001  1.0345e+001  6.3288e+000 63985 67731,67558,67636
 4.9000e+000 67662  1.1750e+001  7.1676e+000  4.8774e+000 63985 67532,67636,67558
 4.9000e+000 67757  2.0123e+001  3.7812e+000  3.1578e+000 63985 67610,67584,67731
 4.9000e+000 67780  1.0202e+001  8.0029e+000  2.2323e+000 63985 67610,67731,67636
 4.9000e+000 67981 -1.8131e+000 -8.9186e-001 -1.9721e+000 63787 67857,67909,67883
 4.9000e+000 67958  9.0876e-001 -1.9472e+000 -1.4053e+000 63787 67831,67909,67857
 4.9000e+000 67935  4.0263e+000  1.7842e+000  3.4385e-001 63787 67805,67909,67831
 4.9000e+000 68231  1.0306e+000  1.7592e+000 -3.6492e-001 63589 68254,68084,68032
 4.9000e+000 68208 -4.5235e-001  4.1332e+000 -1.0306e+000 63589 68254,68032,68006
 4.9000e+000 68185  2.8281e+000  6.5481e+000  1.1380e+000 63589 68326,68136,68110
 4.9000e+000 68162  6.9753e-003  1.0942e+000  3.3508e-001 63589 68032,68084,68058
 4.9000e+000 68280 -2.4652e-001  3.9086e+000  4.4160e-001 63589 68110,68084,68254
 4.9000e+000 68303  1.4980e+000  5.9883e+000  1.3528e+000 63589 68326,68110,68254
 4.9000e+000 68352  3.9807e+000  7.2402e+000 -2.2117e+000 63589 68006,68136,68326
 4.9000e+000 68375  1.7698e+000  6.2029e+000 -1.8981e+000 63589 68006,68326,68254
 4.9000e+000 68836 -1.0058e+001  1.1034e+000 -8.4279e+000 63128 68859,68588,68562
 4.9000e+000 68813 -4.0808e-001  3.0905e+000 -6.6762e+000 63128 68859,68562,68692
 4.9000e+000 68790  6.8933e+000  1.0275e+001 -2.1817e+000 63128 68614,68692,68666
 4.9000e+000 68767  5.7836e+000  7.0016e+000 -4.7152e+000 63128 68562,68718,68692
 4.9000e+000 68744  2.5573e+000  1.9652e+000  6.8676e+000 63128 68614,68666,68640
 4.9000e+000 68885 -9.5764e+000  3.0973e+000 -3.5568e-001 63128 68614,68588,68859
 4.9000e+000 68908 -1.0567e+000  3.8587e+000  1.1592e+000 63128 68614,68859,68692
 4.9000e+000 69237 -2.7175e-001  1.0083e-001 -2.0402e-001 62731 69064,69116,69090
 4.9000e+000 69214  1.6154e-001 -4.7791e-001 -1.9986e-001 62731 69064,69142,69116
 4.9000e+000 69191  1.4499e-001  4.2251e-001 -4.3828e-003 62731 69038,69142,69064
 4.9000e+000 69168  1.4293e+000 -1.1899e+000  3.2937e-001 62731 69012,69142,69038
 4.9000e+000 69539  1.5917e-001  2.4693e+000 -9.6522e+000 62433 69389,69467,69441
 4.9000e+000 69516 -1.1367e+001  8.3105e+000 -8.7985e+000 62433 69363,69467,69389
 4.9000e+000 69493  7.5044e+000 -1.2535e+000  3.9185e+000 62433 69389,69441,69415
 4.9000e+000 69966  2.0437e+000  1.4172e+001  8.0892e-001 62235 69989,69773,69721
 4.9000e+000 69943  4.8850e-001  1.5186e+001  2.1777e+000 62235 70061,69989,69721
 4.9000e+000 69920 -1.9042e+000  1.8606e+001  3.4953e-001 62235 70061,69721,69643
 4.9000e+000 69897  2.8603e+000  3.5605e+000  3.3073e+000 62235 69721,69773,69747
 4.9000e+000 69874  1.4666e+001  6.6523e+001  3.1283e+000 62235 69643,69721,69695
 4.9000e+000 69851 -1.8645e+001 -6.3788e+001  1.4960e+001 62235 69643,69695,69669
 4.9000e+000 70015  6.5780e-001  1.4640e+001  3.7662e+000 62235 69799,69773,69989
 4.9000e+000 70038  8.7766e+000  1.8632e+001  5.7209e+000 62235 69799,69989,69825
 4.9000e+000 70087  6.1614e+000  1.7527e+001  6.2373e-001 62235 69825,69989,70061
 4.9000e+000 70110  1.2416e+000  1.8888e+001 -1.0404e-001 62235 69825,70061,69643
 4.9000e+000 70260 -3.5266e+000  2.4715e+001 -7.1789e+000 62037 70133,70185,70159
 4.9000e+000 70237  3.7042e+000  2.8484e+001 -2.8929e+000 62037 70133,70211,70185
 4.9000e+000 70640 -1.4836e+001 -8.9857e+000  1.2015e+000 61583 70735,70663,70418
 4.9000e+000 70617 -1.1259e+001  7.6983e+000  8.4430e+000 61583 70663,70366,70522
 4.9000e+000 70594 -1.5535e+001 -1.4070e+001  3.4598e+000 61583 70735,70418,70392
 4.9000e+000 70571 -1.4726e+001 -4.2332e+000 -2.1058e+000 61583 70418,70496,70444
 4.9000e+000 70548 -1.3828e+001 -2.7583e+000 -1.6399e+000 61583 70444,70496,70470
 4.9000e+000 70689 -1.4855e+001 -4.7306e+000  1.6334e+000 61583 70496,70418,70663
 4.9000e+000 70712 -2.0761e+001 -7.9181e+000  3.9162e+000 61583 70496,70663,70522
 4.9000e+000 70761 -1.8989e+001 -1.2377e+001  6.7718e+000 61583 70366,70663,70735
 4.9000e+000 70784 -1.7449e+001 -1.6402e+001  8.5614e+000 61583 70366,70735,70392
 4.9000e+000 71054  3.4654e+000  2.3363e+001 -1.3246e+001 61313 71077,70881,70855
 4.9000e+000 71031 -3.1266e-001  8.8986e+000 -1.0719e+001 61313 71077,70855,70829
 4.9000e+000 71008  2.2261e+000  1.3782e+001  8.8033e-001 61313 70829,70959,70933
 4.9000e+000 70985 -1.1407e+001  1.7734e+001  3.1459e+000 61313 70881,70933,70907
 4.9000e+000 71103  1.3881e+000  1.5050e+001 -5.7520e+000 61313 70933,70881,71077
 4.9000e+000 71126  1.3937e+000  6.3744e+000 -3.2202e+000 61313 70933,71077,70829
 4.9000e+000 71604  1.2492e+000  5.1368e+000  2.6207e+000 60909 71627,71232,71414
 4.9000e+000 71581  3.3076e+000  7.2632e+000  1.0337e+000 60909 71232,71440,71414
 4.9000e+000 71558 -9.2024e-001  3.3515e+000  1.7440e+000 60909 71627,71414,71336
 4.9000e+000 71535 -1.2358e+000  2.1603e+000  4.9867e+000 60909 71362,71414,71388
 4.9000e+000 71512 -2.5987e+000  2.5169e+000  4.5915e+000 60909 71336,71414,71362
 4.9000e+000 71489 -2.6251e+000  1.3776e+000  2.7883e-001 60909 71258,71336,71310
 4.9000e+000 71466  9.3919e-001  2.5430e+000  1.0565e-001 60909 71258,71310,71284
 4.9000e+000 71653  2.1820e+000  2.9708e+000  1.6821e+000 60909 71258,71232,71627
 4.9000e+000 71676  8.0651e-001  2.1253e+000  1.2842e+000 60909 71258,71627,71336
 4.9000e+000 71875  1.2815e+001  3.6331e+001  5.0952e+000 60611 71898,71725,71699
 4.9000e+000 71852  1.0329e+001  2.5533e+001 -2.0514e+000 60611 71898,71699,71803
 4.9000e+000 71829  1.0283e+001  8.5437e+000 -5.4534e+000 60611 71970,71751,71725
 4.9000e+000 71924  1.6451e+001  2.0316e+001 -9.7159e-001 60611 71970,71725,71898
 4.9000e+000 71947  7.5404e+000  1.3367e+001 -2.7073e+000 60611 71777,71898,71803
 4.9000e+000 71996  4.5017e+000  2.1610e+001 -7.9817e+000 60611 71777,71751,71970
 4.9000e+000 72019  5.2339e+000  2.4265e+001 -5.2428e+000 60611 71777,71970,71898
 4.9000e+000 72576  9.0359e+000  2.2153e+001 -5.6360e+000 60142 72599,72256,72230
 4.9000e+000 72553  5.6256e+000  1.4137e+001 -4.8914e+000 60142 72671,72599,72230
 4.9000e+000 72530  4.9156e+000  1.6524e+001 -6.6688e+000 60142 72671,72230,72204
 4.9000e+000 72507  9.3753e+000  7.8353e+000 -1.3190e+000 60142 72743,72360,72334
 4.9000e+000 72484  8.3255e+000  1.5506e+001 -4.2584e+000 60142 72815,72282,72256
 4.9000e+000 72461 -5.9336e+000  1.2243e+001 -2.2255e+000 60142 72887,72308,72282
 4.9000e+000 72438  1.6063e+001  1.6582e+001 -1.2002e+001 60142 72204,72412,72386
 4.9000e+000 72625  5.4207e+000  1.5749e+001 -9.2423e-001 60142 72815,72256,72599
 4.9000e+000 72648  5.3285e+000  1.1180e+001 -1.0742e+000 60142 72743,72334,72599
 4.9000e+000 72697  4.9036e+000  1.1357e+001 -5.2096e+000 60142 72386,72599,72671
 4.9000e+000 72720  3.7226e+000  1.3405e+001 -6.4188e+000 60142 72386,72671,72204
 4.9000e+000 72769  1.8999e+001  1.2904e+001 -3.3284e+000 60142 72386,72360,72743
 4.9000e+000 72792  9.9635e+000  1.3827e+001 -2.2066e+000 60142 72386,72743,72599
 4.9000e+000 72841  1.7680e+000  1.5383e+001 -3.6695e+000 60142 72887,72282,72815
 4.9000e+000 72864  6.5287e+000  1.4389e+001 -1.4897e+000 60142 72334,72815,72599
 4.9000e+000 72913  3.7219e+000  9.5970e+000  8.3840e-001 60142 72334,72308,72887
 4.9000e+000 72936  5.9633e+000  1.0517e+001  8.7809e-002 60142 72334,72887,72815
 4.9000e+000 73491  2.0500e+000 -2.6387e+000 -3.3609e+000 59738 73145,73327,73171
 4.9000e+000 73468  4.0863e+000 -1.7172e+000 -2.5610e+000 59738 73119,73327,73145
 4.9000e+000 73445  9.8403e-001  4.8925e+000  1.6343e+000 59738 73171,73327,73301
 4.9000e+000 73422 -1.1191e+000  5.4918e+000 -3.7113e-001 59738 73514,73275,73249
 4.9000e+000 73399  3.7784e+000  9.0494e+000 -1.9807e+000 59738 73586,73514,73249
 4.9000e+000 73376  3.4091e+000  8.7334e+000 -6.1515e+000 59738 73197,73249,73223
 4.9000e+000 73353  5.9967e+000  1.1162e+001 -5.1351e+000 59738 73586,73249,73197
 4.9000e+000 73540  2.9901e+000  7.2363e+000  4.6870e-001 59738 73301,73275,73514
 4.9000e+000 73563  6.9132e-001  3.8388e+000  1.5528e+000 59738 73301,73514,73171
 4.9000e+000 73612  2.9316e+000  3.8320e+000  5.7334e-001 59738 73171,73514,73586
 4.9000e+000 73635  3.5582e+000  6.0807e+000 -2.1574e+000 59738 73171,73586,73197
 4.9000e+000 73964  1.2252e-001 -9.0843e+000 -5.7578e+000 59334 73791,73843,73817
 4.9000e+000 73941 -9.7206e+000 -1.0879e+001 -6.3227e+000 59334 73791,73869,73843
 4.9000e+000 73918 -4.8815e+000  1.2087e-001 -5.2815e+000 59334 73739,73869,73791
 4.9000e+000 73895 -1.4332e+001 -4.9425e+000 -2.6262e+000 59334 73739,73791,73765
 4.9000e+000 74261  1.1026e+000  1.9198e+001 -5.9105e+000 58630 74065,74117,74091
 4.9000e+000 74238  7.5284e+000  8.0231e+000 -8.4786e+000 58630 74356,74284,74065
 4.9000e+000 74215  1.1169e+001  2.1355e-001 -4.5004e+000 58630 74284,74013,73987
 4.9000e+000 74192  5.5963e+000  5.9340e+000 -1.2250e+001 58630 74356,74065,74039
 4.9000e+000 74169  1.1104e+001  1.0343e+001  5.9531e-001 58630 73987,74143,74117
 4.9000e+000 74310  8.7582e+000  1.9910e+001 -8.1600e+000 58630 74117,74065,74284
 4.9000e+000 74333  9.1064e+000  8.1828e+000 -4.0671e+000 58630 74117,74284,73987
 4.9000e+000 74382  1.2933e+001  1.2311e+001 -5.6046e+000 58630 74013,74284,74356
 4.9000e+000 74405  1.1134e+001  1.0025e+001 -9.3994e+000 58630 74013,74356,74039
 4.9000e+000 74815  4.8999e+000 -8.4260e+000  2.2015e+000 58226 74590,74642,74616
 4.9000e+000 74792  1.0872e-002 -1.6555e+000  7.0664e+000 58226 74590,74694,74642
 4.9000e+000 74769 -6.0970e+000 -9.8583e+000  1.0780e+001 58226 74590,74720,74694
 4.9000e+000 74746 -2.7247e+000  1.3254e+000  6.1496e+000 58226 74642,74694,74668
 4.9000e+000 75014  7.6330e-001  1.1034e+001  3.2888e+000 57786 75037,74864,74838
 4.9000e+000 74991  1.2319e+000  8.1236e+000  2.0862e+000 57786 75037,74838,74916
 4.9000e+000 74968  2.5099e-001  7.9901e+000  1.6149e+000 57786 74838,74942,74916
 4.9000e+000 75063  1.7918e+000  1.3903e+001  4.2204e+000 57786 74890,74864,75037
 4.9000e+000 75086  1.8099e+000  1.0531e+001  2.9058e+000 57786 74890,75037,74916
 4.9000e+000 75368 -2.5337e+000  9.7170e+000  6.4303e-001 57496 75192,75270,75218
 4.9000e+000 75345  7.7920e+000  1.3979e+001  9.7773e-001 57496 75192,75296,75270
 4.9000e+000 75322  5.1369e+000  9.1590e+000  6.5074e+000 57496 75218,75270,75244
 4.9000e+000 75648  3.0320e+000  1.0647e+001 -2.4469e+000 57206 75472,75550,75498
 4.9000e+000 75625 -2.4913e+000  1.3650e+001  1.4907e+000 57206 75472,75576,75550
 4.9000e+000 75602 -2.7858e+000  5.1762e+000  3.4101e+000 57206 75671,75550,75524
 4.9000e+000 75697  3.5796e+000  1.0425e+001  5.7042e+000 57206 75498,75550,75671
 4.9000e+000 76154 -3.3410e+000 -1.4154e-001 -3.7611e+000 56802 75958,76010,75984
 4.9000e+000 76131 -5.0683e+000 -1.0139e+001 -4.0084e+000 56802 75932,76010,75958
 4.9000e+000 76108 -2.3898e+000 -1.0475e+001  2.5835e-002 56802 75906,76010,75932
 4.9000e+000 76085 -6.2888e+000 -2.6602e+000 -6.7345e-001 56802 75880,76010,75906
 4.9000e+000 76062 -1.0028e+001 -3.4292e+000  1.5891e+000 56802 75880,76036,76010
 4.9000e+000 76505 -7.6028e-001  6.0362e-001  6.6376e-001 56504 76306,76384,76332
 4.9000e+000 76482  6.7419e-001  6.0522e-001  6.2966e-001 56504 76306,76410,76384
 4.9000e+000 76459 -2.0774e+000 -3.0310e+000 -2.2571e+000 56504 76332,76384,76358
 4.9000e+000 76436  1.8608e-001  8.2651e-002  2.8727e-001 56504 76280,76410,76306
 4.9000e+000 77011  2.6349e+000  6.9554e+000 -1.3858e+000 56050 76740,76818,76792
 4.9000e+000 76988  2.2177e+000  6.7613e+000 -1.3215e+000 56050 76714,76818,76740
 4.9000e+000 76965  6.4176e+000  6.5136e+000 -2.1994e+000 56050 76688,76818,76714
 4.9000e+000 76942  1.3705e+001  1.2971e+001  3.7867e+000 56050 76688,76844,76818
 4.9000e+000 76919  6.4489e+000  3.0155e+000 -1.6987e+000 56050 76740,76792,76766
 4.9000e+000 76896  1.0051e+001  1.0480e+000  3.0960e+000 56050 76688,76870,76844
 4.9000e+000 77517 -3.6360e+000  5.7858e+000  4.0605e+000 55738 77220,77350,77324
 4.9000e+000 77494  5.1454e+000  3.5209e+000 -4.6803e-002 55738 77220,77376,77350
 4.9000e+000 77471  7.1636e+000  1.3639e+001 -1.2933e+000 55738 77194,77376,77220
 4.9000e+000 77448  2.2195e+000 -1.9706e-001  3.1458e+000 55738 77220,77298,77246
 4.9000e+000 77425 -5.5975e-001  4.0455e+000  6.5542e+000 55738 77220,77324,77298
 4.9000e+000 77402 -1.2612e+000 -1.8060e+000  2.4802e+000 55738 77246,77298,77272
 4.9000e+000 78064  5.7943e+000  6.6847e+000 -1.8287e-002 55227 78231,78087,77773
 4.9000e+000 78041  5.9259e+000  1.0213e+001 -3.3817e+000 55227 78087,77695,77643
 4.9000e+000 78018  4.7733e+000  4.8860e+000 -9.5533e-001 55227 78159,77799,77773
 4.9000e+000 77995  4.9170e+000  7.1173e+000  4.1681e-001 55227 78231,77773,77721
 4.9000e+000 77972  1.5828e+000  9.3337e+000 -4.1353e+000 55227 77643,77695,77669
 4.9000e+000 77949  1.0571e+001  1.5701e+001 -8.7181e+000 55227 77643,77877,77851
 4.9000e+000 77926  2.1127e+000  1.4639e+000 -3.2566e-001 55227 77799,77851,77825
 4.9000e+000 77903  2.9404e+000  5.6903e+000  1.0640e+000 55227 77721,77773,77747
 4.9000e+000 78113  5.2778e+000  5.6589e+000 -7.3885e-001 55227 78159,77773,78087
 4.9000e+000 78136  3.1191e+000  3.6552e+000 -3.2238e+000 55227 77851,78087,77643
 4.9000e+000 78185  3.7400e+000  6.1914e+000 -1.3201e+000 55227 77851,77799,78159
 4.9000e+000 78208  4.1192e+000  6.7766e+000 -1.1531e+000 55227 77851,78159,78087
 4.9000e+000 78257  4.3426e+000  6.9449e+000 -3.0568e-002 55227 77695,78087,78231
 4.9000e+000 78280  3.0226e+000  7.0145e+000  4.3996e-001 55227 77695,78231,77721
 4.9000e+000 78737 -6.1903e+000 -6.0163e+000  1.6807e+000 54773 78463,78541,78515
 4.9000e+000 78714 -2.6177e+000 -4.5613e+000  8.7053e-001 54773 78463,78619,78541
 4.9000e+000 78691 -8.7838e+000 -1.5262e+001 -6.8091e+000 54773 78463,78515,78489
 4.9000e+000 78668 -5.5370e+000 -9.9383e+000  4.3679e+000 54773 78541,78593,78567
 4.9000e+000 78645 -6.5494e+000 -1.1005e+001  3.8606e+000 54773 78541,78619,78593
 4.9000e+000 78838  5.3471e-001  1.5597e+001  1.9072e+000 54211 78760,78812,78786
 4.9000e+000 79297  7.0599e+000 -1.9184e-001  6.1484e+000 53814 79520,79153,79049
 4.9000e+000 79274  9.0224e+000 -2.7465e-001  7.1208e+000 53814 79520,79049,79023
 4.9000e+000 79251  1.2663e+000  4.3223e-001  1.9001e-001 53814 79320,79101,79049
 4.9000e+000 79228  3.8491e+000  5.7984e+000  6.2654e+000 53814 79320,79049,79153
 4.9000e+000 79205 -1.2756e+000 -4.6206e-001 -4.7061e-001 53814 79049,79101,79075
 4.9000e+000 79346  1.7191e-001 -5.7323e+000 -2.9194e+000 53814 79392,79320,79127
 4.9000e+000 79369 -3.1152e+000  3.2163e+000 -5.9971e-001 53814 79127,79320,79153
 4.9000e+000 79418 -2.3140e+000 -9.8804e-001 -2.7309e+000 53814 79101,79320,79392
 4.9000e+000 79546  6.5494e+000 -7.0574e-001  8.6782e+000 53814 79179,79153,79520
 4.9000e+000 79569  1.2239e+001  9.6118e-001  9.4058e+000 53814 79179,79520,79023
 4.9000e+000 80075 -3.4032e+000  1.9277e-001  2.2607e+000 53039 80098,79908,79830
 4.9000e+000 80052 -4.3523e+000  2.3813e+000 -3.3785e+000 53039 80098,79830,79804
 4.9000e+000 80029  8.6220e-001  6.9414e+000 -2.7802e+000 53039 79752,79934,79804
 4.9000e+000 80006  1.3645e+000 -4.3827e+000  3.7352e+000 53039 79856,79908,79882
 4.9000e+000 79983  2.1899e+000 -2.2334e+000  3.4146e+000 53039 79830,79908,79856
 4.9000e+000 79960 -1.2705e-001  1.8483e+000 -1.8740e+000 53039 79752,79804,79778
 4.9000e+000 80124  5.4747e+000  3.3741e+000  1.8645e+000 53039 79934,79908,80098
 4.9000e+000 80147 -2.4676e-001  3.8714e+000 -3.9564e+000 53039 79934,80098,79804
 4.9000e+000 80555  2.1603e+001  1.0536e+001 -4.8373e+000 52699 80356,80434,80408
 4.9000e+000 80532  9.4293e+000  6.9746e+000 -1.6941e+000 52699 80356,80460,80434
 4.9000e+000 80509  9.0707e+000  1.9016e+001  8.6994e+000 52699 80330,80460,80356
 4.9000e+000 80486  2.4126e+000  3.2120e-001  1.3930e+001 52699 80356,80408,80382
 4.9000e+000 80776  3.4364e+000  1.4351e+001 -6.5276e+000 52295 80600,80678,80626
 4.9000e+000 80753 -9.1145e+000  3.2379e+000 -1.7319e+000 52295 80600,80704,80678
 4.9000e+000 80730 -2.2443e+001  3.9104e+000 -4.1948e+000 52295 80626,80678,80652
 4.9000e+000 81156  1.9262e+000  9.0538e+000 -5.5736e+000 51891 81179,80960,80908
 4.9000e+000 81133  8.0818e-001  5.9407e+000 -7.5305e+000 51891 81179,80908,81012
 4.9000e+000 81110  7.5375e+000  1.6708e+001 -1.2451e+001 51891 80882,81012,80908
 4.9000e+000 81087 -1.0740e+001  2.1646e+001 -5.8423e+000 51891 80908,80960,80934
 4.9000e+000 81064  6.7342e+000  1.2637e+001 -1.4254e+001 51891 80882,81038,81012
 4.9000e+000 81205  4.4029e+000  1.1323e+001 -2.6907e+000 51891 80986,80960,81179
 4.9000e+000 81228  1.3368e+000  6.7062e+000 -4.9695e+000 51891 80986,81179,81012
 4.9000e+000 81606 -2.1630e-001 -2.3041e+001 -9.2640e+000 51544 81410,81462,81436
 4.9000e+000 81583  3.6226e+000 -2.3341e+000 -1.7957e+000 51544 81384,81462,81410
 4.9000e+000 81560 -2.6487e+000 -7.6264e+000 -4.2224e+000 51544 81358,81462,81384
 4.9000e+000 81537 -2.8917e+000 -5.6415e+000 -8.2622e+000 51544 81358,81488,81462
 4.9000e+000 81514  6.0995e-002 -9.6855e+000 -6.5446e+000 51544 81332,81488,81358
 4.9000e+000 81854 -1.1542e+000  1.6924e+001 -8.7754e-002 51004 81877,81655,81629
 4.9000e+000 81831 -3.7017e-001  1.5194e+001  1.0876e-001 51004 81877,81629,81759
 4.9000e+000 81808 -1.5727e+000  7.7402e+000 -7.0915e+000 51004 81655,81707,81681
 4.9000e+000 81785  4.6714e+000  2.5088e+001 -2.1019e-001 51004 81707,81759,81733
 4.9000e+000 81903 -5.9850e-001  1.7265e+001  1.5577e-001 51004 81707,81655,81877
 4.9000e+000 81926  1.1995e+000  1.6919e+001  8.0614e-001 51004 81707,81877,81759
 4.9000e+000 82257  2.4314e+000  3.5135e+000 -2.2868e+000 50642 82058,82136,82110
 4.9000e+000 82234 -2.2221e+000  1.0159e+001 -3.7296e+000 50642 82058,82162,82136
 4.9000e+000 82211  8.6865e+000  1.0083e+001 -1.3919e+001 50642 82058,82110,82084
 4.9000e+000 82188  1.8863e+001  1.8524e+001  5.0805e+000 50642 82032,82162,82058
 4.9000e+000 82684  7.8772e+000 -1.5236e+001  4.7660e+000 49931 82779,82707,82465
 4.9000e+000 82661  1.4299e+000 -1.3994e+001  2.8512e+000 49931 82707,82413,82361
 4.9000e+000 82638 -4.8072e-002 -1.7126e+001  1.0863e+000 49931 82779,82465,82439
 4.9000e+000 82615  6.0618e+000 -4.9972e+001  3.4094e+000 49931 82465,82543,82491
 4.9000e+000 82592  7.2502e-002 -9.1914e+000 -1.4469e+000 49931 82361,82413,82387
 4.9000e+000 82569  2.8039e+000 -3.0771e+001  3.6611e+000 49931 82491,82543,82517
 4.9000e+000 82733  2.0771e+001 -1.5634e+001  2.5914e+000 49931 82543,82465,82707
 4.9000e+000 82756  7.2300e+000 -1.0729e+001  1.0182e-001 49931 82543,82707,82361
 4.9000e+000 82805  4.3988e+000 -2.1037e+001 -1.9780e+000 49931 82413,82707,82779
 4.9000e+000 82828  4.0069e-001 -2.0773e+001 -5.5095e+000 49931 82413,82779,82439
 4.9000e+000 83255  1.4398e+001  1.0040e+001 -8.9016e-001 49327 82984,83114,83036
 4.9000e+000 83232  1.0533e+001  2.2634e+000 -1.1988e+001 49327 82958,83114,82984
 4.9000e+000 83209  6.1680e+000  6.4789e+000  9.1940e-001 49327 83036,83114,83088
 4.9000e+000 83186  3.2230e+000  5.1488e+000 -2.5214e+000 49327 82984,83036,83010
 4.9000e+000 83163 -1.4556e+001  8.1962e+000 -7.4498e+000 49327 82932,83114,82958
 4.9000e+000 83140  3.2479e+000 -5.9985e+000  4.0667e-001 49327 83036,83088,83062
 4.9000e+000 83938  1.5087e+000  2.6705e+000  6.4939e-001 48965 83961,83673,83647
 4.9000e+000 83915  8.8947e-001  2.9110e+000  1.3334e+000 48965 83961,83647,83543
 4.9000e+000 83892  2.2052e+000  1.7440e+000  1.6923e+000 48965 83517,83725,83543
 4.9000e+000 83869  9.5314e-001 -3.7700e-001  3.2161e-001 48965 83673,83725,83699
 4.9000e+000 83846  1.0147e+001  2.2485e+000  4.5965e+000 48965 83543,83647,83621
 4.9000e+000 83823  9.4492e+000  1.3576e+001  4.8770e+000 48965 83543,83621,83569
 4.9000e+000 83800  3.2274e-001  4.2461e-001 -2.1157e-001 48965 83517,83751,83725
 4.9000e+000 83777 -3.4288e+000  6.8727e+000  2.3211e+000 48965 83569,83621,83595
 4.9000e+000 83987  3.3610e-001  2.2279e+000  4.6538e-001 48965 83725,83673,83961
 4.9000e+000 84010  4.8450e-001  2.6317e+000  1.1506e+000 48965 83725,83961,83543
 4.9000e+000 84258 -4.1378e+000 -3.6672e+000  5.2571e+000 48447 84281,84059,84033
 4.9000e+000 84235 -2.4931e+000  1.4557e+000 -3.6674e-003 48447 84281,84033,84163
 4.9000e+000 84212 -1.0132e+001  7.9349e+000 -2.0806e+000 48447 84059,84111,84085
 4.9000e+000 84189  5.6849e+000  3.6388e+000 -3.4501e+000 48447 84111,84163,84137
 4.9000e+000 84307 -5.3625e-002 -2.0081e+000  8.5362e-001 48447 84111,84059,84281
 4.9000e+000 84330  4.0233e+000  1.8221e+000 -4.1845e+000 48447 84111,84281,84163
 4.9000e+000 84529  7.9101e+000  2.6876e+000 -1.0506e+000 47993 84552,84405,84379
 4.9000e+000 84506 -5.3075e-001 -1.1898e+000 -2.0226e+000 47993 84552,84379,84353
 4.9000e+000 84483  9.0727e+000  4.4682e-001 -3.7988e+000 47993 84624,84457,84431
 4.9000e+000 84578  7.1937e+000 -1.2685e+000 -1.7917e+000 47993 84431,84405,84552
 4.9000e+000 84601  7.7670e+000 -1.4960e+000 -2.7635e+000 47993 84624,84431,84552
 4.9000e+000 84650  8.0074e+000  2.0540e+000 -4.7814e+000 47993 84353,84457,84624
 4.9000e+000 84673  7.4721e+000  1.7556e+000 -3.6648e+000 47993 84353,84624,84552
 4.9000e+000 85104 -1.2937e+000 -1.5503e+001 -2.8028e+000 47588 85199,85127,84885
 4.9000e+000 85081 -2.0771e+000 -2.3649e+001 -4.2429e+000 47588 85127,84781,84963
 4.9000e+000 85058 -5.7519e+000 -1.3381e+001  2.9746e+000 47588 85199,84885,84807
 4.9000e+000 85035  6.9738e-001 -8.2791e+000  4.2401e+000 47588 84885,84937,84911
 4.9000e+000 85012 -1.8596e+000 -5.1756e+000  1.9959e-001 47588 84807,84885,84833
 4.9000e+000 84989 -2.9207e+000 -5.4806e+000  7.9501e+000 47588 84833,84885,84859
 4.9000e+000 85153 -2.8569e+000 -1.9286e+001 -3.1387e+000 47588 84937,84885,85127
 4.9000e+000 85176  5.1352e+000 -1.9348e+001 -1.7150e+000 47588 84937,85127,84963
 4.9000e+000 85225 -1.0690e+001 -2.0177e+001 -4.4654e+000 47588 84781,85127,85199
 4.9000e+000 85248 -1.2557e+001 -1.6269e+001  1.9645e+000 47588 84781,85199,84807
 4.9000e+000 85518 -5.8867e+000 -4.9379e+001  7.6229e+000 47226 85293,85397,85319
 4.9000e+000 85495 -3.5969e+000 -4.4917e+001  3.9418e+000 47226 85293,85423,85397
 4.9000e+000 85472 -1.9414e+000 -5.1949e+001 -2.1007e+000 47226 85319,85397,85345
 4.9000e+000 85449  6.0614e+000 -1.0125e+001 -3.0944e+000 47226 85345,85397,85371
 4.9000e+000 85849 -1.3561e+000 -8.5753e+000  6.5007e+000 46572 85624,85702,85650
 4.9000e+000 85826 -1.1586e+000 -1.5942e+001  1.6395e+000 46572 85624,85754,85702
 4.9000e+000 85803  6.2752e+000  8.3899e-001  6.4718e+000 46572 85702,85754,85728
 4.9000e+000 85780 -2.5985e+000 -9.2191e+000  6.7073e+000 46572 85650,85702,85676
 4.9000e+000 86070  9.6210e+000  1.8492e+001  1.0861e-001 46374 85920,85972,85946
 4.9000e+000 86047  9.5594e+000  1.6962e+001 -3.8993e-001 46374 85920,85998,85972
 4.9000e+000 86024  7.0161e+000  1.5465e+001 -1.9897e+000 46374 85894,85998,85920
 4.9000e+000 86401 -1.3399e+000  3.3208e+000  4.2747e+000 46034 86424,86280,86228
 4.9000e+000 86378 -8.4141e+000  2.3959e+000  3.2267e+000 46034 86424,86228,86176
 4.9000e+000 86355 -1.1266e+001 -2.6763e+000  1.5657e+000 46034 86176,86228,86202
 4.9000e+000 86332  4.3035e+000  5.6853e+000 -3.4607e+000 46034 86228,86280,86254
 4.9000e+000 86450  1.2517e+001  3.5831e-001  1.3782e+000 46034 86306,86280,86424
 4.9000e+000 86473 -1.6258e+000 -5.3781e+000 -6.4078e-001 46034 86306,86424,86176
 4.9000e+000 87058  3.5703e-001  5.9112e+000  3.7435e+000 45516 86813,86917,86865
 4.9000e+000 87035  3.5136e+000  1.0762e+001  8.7016e-001 45516 86787,86917,86813
 4.9000e+000 87012  2.2546e+000  1.1147e+001  7.2124e-002 45516 86735,86917,86787
 4.9000e+000 86989  2.3560e+000  6.7265e+000  3.3767e+000 45516 86865,86917,86891
 4.9000e+000 86966 -2.6988e+000  1.1651e+001  3.8327e+000 45516 86813,86865,86839
 4.9000e+000 86943  3.6891e+000  1.5987e+001  2.7520e-001 45516 86735,86787,86761
 4.9000e+000 87208  5.4181e+000  2.1844e+001 -5.2692e+000 45226 87231,87133,87107
 4.9000e+000 87185  8.5072e+000  1.3674e+001 -9.7877e+000 45226 87081,87159,87133
 4.9000e+000 87257  4.1133e+000  7.6486e+000 -4.1832e+000 45226 87081,87133,87231
 4.9000e+000 87537 -9.5021e-001  8.1526e+000 -6.2649e+000 44772 87387,87439,87413
 4.9000e+000 87514  1.1860e+000  4.6581e+000  1.5324e+000 44772 87361,87439,87387
 4.9000e+000 87491  2.9907e+000  1.9428e-001  1.8488e+000 44772 87361,87465,87439
 4.9000e+000 87996 -3.6234e-001  1.3153e+001  6.1538e+000 44425 87748,87878,87852
 4.9000e+000 87973 -3.3687e-003  1.3635e+001  2.0478e-001 44425 87722,87878,87748
 4.9000e+000 87950  8.9953e-001  3.8602e+000  1.6810e+000 44425 87800,87852,87826
 4.9000e+000 87927  1.0195e+001  1.0681e+001  5.5869e+000 44425 87748,87852,87800
 4.9000e+000 87904 -1.1677e+000  2.0769e+001 -5.6982e+000 44425 87748,87800,87774
 4.9000e+000 88423  2.8642e-001  1.3480e+000  1.9460e+000 44078 88590,88230,88204
 4.9000e+000 88400  2.0394e+000  7.5126e+000  1.3434e+000 44078 88518,88446,88204
 4.9000e+000 88377  2.9738e+000 -3.3649e-001 -1.6667e+000 44078 88446,88126,88282
 4.9000e+000 88354  2.4039e+000  1.0725e+001 -3.5534e-001 44078 88518,88204,88178
 4.9000e+000 88331  1.1000e+000 -5.5317e+000 -2.2922e+000 44078 88100,88282,88126
 4.9000e+000 88308 -1.5295e+000 -9.6389e+000  3.4363e+000 44078 88126,88178,88152
 4.9000e+000 88472 -9.4759e-002  5.8149e-001  1.5051e+000 44078 88590,88204,88446
 4.9000e+000 88495  1.3372e+000 -7.9499e+000 -3.5487e+000 44078 88256,88446,88282
 4.9000e+000 88544  3.4260e+000  1.0879e-001  2.2512e+000 44078 88126,88446,88518
 4.9000e+000 88567  5.6496e+000  5.8928e+000  5.2153e-001 44078 88126,88518,88178
 4.9000e+000 88616  2.8531e-001 -9.4537e+000  1.6020e+000 44078 88256,88230,88590
 4.9000e+000 88639  1.5117e+000  1.5812e+000  4.4546e-001 44078 88256,88590,88446
 4.9000e+000 89039  5.1469e+000  1.3158e+001  1.2924e+000 43716 88791,88921,88895
 4.9000e+000 89016  6.2498e+000  1.5496e+001  1.9948e+000 43716 88765,88921,88791
 4.9000e+000 88993  1.0131e+001  9.2331e+000  1.3316e+000 43716 88817,88895,88869
 4.9000e+000 88970  9.0103e+000  1.2611e+001  3.5560e+000 43716 88791,88895,88817
 4.9000e+000 88947 -2.6519e+000  2.8267e+000  3.4769e+000 43716 88817,88869,88843
 4.9000e+000 89496 -1.6320e+000  9.1926e+000  1.0366e+000 43162 89519,89274,89248
 4.9000e+000 89473 -1.3275e+000  1.0651e+001  1.3452e+000 43162 89519,89248,89222
 4.9000e+000 89450  5.5201e+000  1.4931e+001  1.9301e+000 43162 89326,89378,89352
 4.9000e+000 89427 -4.4954e-002  1.5049e+001  1.0207e+000 43162 89274,89378,89326
 4.9000e+000 89404  1.2118e+000  7.0621e+000 -3.5511e-001 43162 89274,89326,89300
 4.9000e+000 89545 -1.8084e+000  1.0522e+001  1.4318e+000 43162 89378,89274,89519
 4.9000e+000 89568 -1.4074e+000  1.2097e+001  1.7622e+000 43162 89378,89519,89222
 4.9000e+000 89946  1.0661e+000  8.4201e+000 -8.7357e+000 42594 90041,89969,89750
 4.9000e+000 89923 -1.9529e+000  7.0277e-001 -2.3566e+000 42594 89969,89698,89828
 4.9000e+000 89900  4.4844e+000  8.2146e+000 -8.6618e+000 42594 90041,89750,89724
 4.9000e+000 89877 -1.3182e+000 -2.0194e+000 -1.0119e+000 42594 89750,89802,89776
 4.9000e+000 89854 -4.6995e-001 -2.1544e+000 -1.1126e+000 42594 89672,89828,89698
 4.9000e+000 89995 -2.7533e+000  4.6878e+000 -6.8041e+000 42594 89802,89750,89969
 4.9000e+000 90018  2.3864e+000  9.8176e+000 -3.7338e+000 42594 89802,89969,89828
 4.9000e+000 90067  5.1173e+000  3.4713e+000 -7.4413e+000 42594 89698,89969,90041
 4.9000e+000 90090  1.3397e+001  7.8162e+000 -9.8946e+000 42594 89698,90041,89724
 4.9000e+000 90517  5.7280e+000  3.9628e+000 -3.8530e-001 42140 90540,90220,90194
 4.9000e+000 90494  1.3403e+001  1.3529e+001 -3.7310e+000 42140 90540,90194,90376
 4.9000e+000 90471  1.3725e+001  3.9481e+000 -1.3924e+000 42140 90612,90350,90272
 4.9000e+000 90448  1.0039e+001 -7.5441e+000 -2.9283e+000 42140 90272,90350,90298
 4.9000e+000 90425  1.7017e+001  1.1773e+001 -1.5365e+000 42140 90298,90350,90324
 4.9000e+000 90402  7.1396e+000 -4.6094e+000  1.7931e-001 42140 90220,90272,90246
 4.9000e+000 90566  1.0445e+001 -3.1103e+000  3.1606e-001 42140 90272,90220,90540
 4.9000e+000 90589  1.3411e+001  3.2415e+000 -8.7790e-001 42140 90612,90272,90540
 4.9000e+000 90638  1.2530e+001  5.3578e+000 -1.2426e-001 42140 90376,90350,90612
 4.9000e+000 90661  1.0882e+001  3.4431e+000  6.5308e-001 42140 90376,90612,90540
 4.9000e+000 91167 -5.6017e-002  3.0669e+000 -3.7539e-001 41636 91190,90870,90844
 4.9000e+000 91144 -1.5947e+000 -9.3376e+000  2.2378e-001 41636 91190,90844,91026
 4.9000e+000 91121  1.6419e+000  9.0653e+000  7.1346e-001 41636 90870,90922,90896
 4.9000e+000 91098  5.5793e+000 -1.0328e+000 -4.3852e+000 41636 90922,91026,90948
 4.9000e+000 91075  9.1029e+000 -7.1103e+000  2.8490e+000 41636 90948,91026,91000
 4.9000e+000 91052  5.6175e-002 -1.7128e+001  7.8110e+000 41636 90948,91000,90974
 4.9000e+000 91216 -2.1405e+000  6.9343e+000 -2.8774e-001 41636 90922,90870,91190
 4.9000e+000 91239  2.0054e+000  2.3679e+000  1.7341e+000 41636 90922,91190,91026
 4.9000e+000 91696  8.4557e-001  1.3102e+000  1.4659e+000 40449 91448,91526,91474
 4.9000e+000 91673 -5.4164e+000 -1.2077e+000  1.4237e+000 40449 91448,91578,91526
 4.9000e+000 91650  1.4005e+000  1.6545e+001  1.1076e+000 40449 91474,91526,91500
 4.9000e+000 91627 -5.2583e-001 -1.1828e+000  5.4519e-001 40449 91422,91578,91448
 4.9000e+000 91604  6.7374e+000 -5.2301e+000 -1.9506e-001 40449 91526,91578,91552
 4.9000e+000 92123  3.5791e+000 -8.9027e+000  8.7126e-001 39995 92146,91904,91826
 4.9000e+000 92100 -5.1461e+000 -1.2228e+001  3.5213e+000 39995 92146,91826,91800
 4.9000e+000 92077 -1.0350e+001 -6.5965e+000  1.3975e+000 39995 91826,91904,91852
 4.9000e+000 92054  6.8823e-001 -3.0998e+001 -2.7752e+000 39995 91904,91982,91930
 4.9000e+000 92031 -5.6966e+000 -4.0441e+000  3.0159e+000 39995 91852,91904,91878
 4.9000e+000 92008 -3.3308e+000 -1.3142e+001  2.1380e+000 39995 91930,91982,91956
 4.9000e+000 92172  7.3612e+000 -1.0104e+001 -3.1387e+000 39995 91982,91904,92146
 4.9000e+000 92195  2.2289e+000 -9.1384e+000 -1.5640e+000 39995 91982,92146,91800
 4.9000e+000 92652 -1.1815e-001  4.6330e+000  1.4235e+000 39633 92404,92534,92456
 4.9000e+000 92629 -1.2784e+000  7.3610e+000  1.2702e+000 39633 92378,92534,92404
 4.9000e+000 92606 -8.5905e+000  8.6633e-001  3.6414e-001 39633 92404,92456,92430
 4.9000e+000 92583 -1.6909e+000  6.9785e+000  3.3673e+000 39633 92456,92534,92508
 4.9000e+000 92560  1.6227e+000  4.6700e+000  5.2530e+000 39633 92456,92508,92482
 4.9000e+000 93079 -1.0898e+001 -8.7185e+000 -5.8630e+000 39093 93102,92808,92756
 4.9000e+000 93056 -8.8716e+000 -1.5194e+001 -1.0689e-002 39093 93102,92756,92938
 4.9000e+000 93033 -3.4493e+000  1.6436e+000 -4.5448e+000 39093 93174,92912,92834
 4.9000e+000 93010  8.6336e-001  1.9222e+001  3.8912e+000 39093 92834,92912,92860
 4.9000e+000 92987 -8.6690e+000 -2.9933e+001 -1.4248e+001 39093 92756,92808,92782
 4.9000e+000 92964  1.2525e+001  3.1095e+001 -1.3487e+001 39093 92860,92912,92886
 4.9000e+000 93128 -9.6075e+000 -6.8202e+000 -5.2742e+000 39093 92834,92808,93102
 4.9000e+000 93151 -7.6380e+000 -7.5535e+000 -5.8288e+000 39093 93174,92834,93102
 4.9000e+000 93200 -3.5549e+000 -6.2431e-001  1.5439e+000 39093 92938,92912,93174
 4.9000e+000 93223 -4.3682e+000 -4.5519e+000  9.5724e-001 39093 92938,93174,93102
 4.9000e+000 93680  1.1793e+001  1.2203e+001 -1.1055e+000 38639 93703,93536,93484
 4.9000e+000 93657  1.1123e+001  1.3280e+001 -1.0308e+000 38639 93703,93484,93432
 4.9000e+000 93634  5.1972e+000  1.2668e+001 -2.7729e+000 38639 93432,93484,93458
 4.9000e+000 93611  1.4157e+001  2.2722e+001  1.3380e+001 38639 93484,93536,93510
 4.9000e+000 93588  8.5258e+000  7.5533e+000 -2.3622e+000 38639 93406,93562,93432
 4.9000e+000 93729  1.1413e+001  1.1014e+001 -1.3825e+000 38639 93562,93536,93703
 4.9000e+000 93752  1.1048e+001  1.2678e+001 -1.4630e+000 38639 93562,93703,93432
 4.9000e+000 94160 -3.9992e+000  1.6473e+000  4.0117e+000 38292 93935,94039,93961
 4.9000e+000 94137 -2.6569e+000  7.6527e+000  4.7935e-001 38292 93935,94065,94039
 4.9000e+000 94114  5.6357e-001  1.5479e+000  2.4258e+000 38292 93961,94013,93987
 4.9000e+000 94091  5.6854e-001  5.4841e+000  2.1663e+000 38292 93961,94039,94013
 4.9000e+000 94408  3.0784e+000 -9.8873e-002  2.6041e+000 37880 94431,94261,94235
 4.9000e+000 94385  3.2049e+000 -3.6902e+000  2.7013e+000 37880 94431,94235,94313
 4.9000e+000 94362  3.3394e+000 -5.2072e+000  1.7141e+000 37880 94209,94313,94235
 4.9000e+000 94339  4.3456e+000  2.5697e+000 -7.3730e+000 37880 94183,94313,94209
 4.9000e+000 94457  2.4429e+000 -3.3879e+000  3.6877e+000 37880 94287,94261,94431
 4.9000e+000 94480  3.8630e+000 -5.6338e+000  3.1440e+000 37880 94287,94431,94313
 4.9000e+000 94728  1.5851e-001  6.3844e+000 -2.0547e+000 37426 94529,94607,94555
 4.9000e+000 94705  6.8052e+000 -1.6774e+001 -6.0788e+000 37426 94529,94633,94607
 4.9000e+000 94682  7.9984e-001 -1.3020e+001 -4.4562e+000 37426 94503,94633,94529
 4.9000e+000 94659  3.9583e-001  1.1016e+000  6.1657e-001 37426 94555,94607,94581
 4.9000e+000 95257  4.3615e-001  1.3095e+000  6.6220e-001 36722 95496,95280,94862
 4.9000e+000 95234 -9.0641e-001  4.7074e-001 -9.0445e-001 36722 95496,94862,94836
 4.9000e+000 95211  4.2775e-001  1.8499e+000  4.1055e-001 36722 95352,95280,95070
 4.9000e+000 95188  6.4449e-002 -1.2259e+000 -4.0651e-001 36722 95352,95070,95044
 4.9000e+000 95165  8.5384e-001  2.4803e+000 -2.0569e+000 36722 95424,94888,94862
 4.9000e+000 95142 -7.3236e+000  7.9656e+000  5.0277e-001 36722 94914,94966,94940
 4.9000e+000 95119  4.7031e-001  4.4151e-001 -5.2661e-002 36722 94966,95044,95018
 4.9000e+000 95096  5.4568e-001  7.5764e-001 -1.7574e-001 36722 94966,95018,94992
 4.9000e+000 95306 -1.8345e+000  3.0780e+000 -7.6694e-001 36722 95424,94862,95280
 4.9000e+000 95329 -3.6003e-001  1.0016e+001 -5.6326e-001 36722 94914,95280,94966
 4.9000e+000 95378  7.4752e-001  2.9092e+000  1.8892e+000 36722 94966,95280,95352
 4.9000e+000 95401  1.4853e+000  1.7842e+000  1.0029e+000 36722 94966,95352,95044
 4.9000e+000 95450 -3.1910e+000  1.3221e+000 -2.1922e+000 36722 94914,94888,95424
 4.9000e+000 95473 -3.7274e+000  2.0519e+000 -1.1866e+000 36722 94914,95424,95280
 4.9000e+000 95522  5.1649e-001  3.7839e-001  6.4303e-001 36722 95070,95280,95496
 4.9000e+000 95545  7.8829e-001  1.2918e-001  4.6160e-001 36722 95070,95496,94836
 4.9000e+000 96130  1.5357e+000  4.0053e-001  8.6985e-001 36268 96153,95911,95859
 4.9000e+000 96107  1.7194e+000  1.2032e+001  1.1099e+000 36268 96153,95859,95807
 4.9000e+000 96084 -7.7789e-003  1.1427e+001  4.6342e+000 36268 95807,95859,95833
 4.9000e+000 96061 -5.2880e+000  1.3335e+000 -2.7226e+000 36268 95911,95989,95937
 4.9000e+000 96038 -2.0607e+000 -9.0882e-002  5.8606e+000 36268 95859,95911,95885
 4.9000e+000 96015  1.5635e+000  2.2783e+000 -2.5504e+000 36268 95937,95989,95963
 4.9000e+000 96179 -2.8350e+000  1.0348e+001 -1.7900e+000 36268 95989,95911,96153
 4.9000e+000 96202 -4.1378e-001  2.5073e+001 -1.2268e+000 36268 95989,96153,95807
 4.9000e+000 96531  7.5249e-001  5.5122e+000 -1.2958e+000 35728 96358,96410,96384
 4.9000e+000 96508  1.0132e+001  1.3420e+001 -4.8551e+000 35728 96332,96410,96358
 4.9000e+000 96485  3.1308e+000  7.7983e+000  3.0319e+000 35728 96332,96436,96410
 4.9000e+000 96462  8.9828e-001  1.4808e+001 -4.8788e+000 35728 96306,96436,96332
 4.9000e+000 96860  2.9048e-001 -1.5400e+000 -2.3528e-001 35324 96687,96765,96713
 4.9000e+000 96837  8.4217e-001 -1.6989e-001 -5.5784e-002 35324 96661,96765,96687
 4.9000e+000 96814  5.6507e+000  5.4722e-001 -9.8417e-001 35324 96713,96765,96739
 4.9000e+000 96791  6.2806e-001  3.4478e-001  6.1319e-002 35324 96635,96765,96661
 4.9000e+000 97366  1.6269e+000  1.1742e+000 -2.4971e-001 34920 97389,97069,97043
 4.9000e+000 97343  2.5851e+000  1.2704e+000  7.8868e-001 34920 97389,97043,97199
 4.9000e+000 97320  2.5221e+000  3.5519e+000  1.3178e+000 34920 97043,97225,97199
 4.9000e+000 97297  1.2031e+000  3.1375e-001 -7.4944e-001 34920 97069,97121,97095
 4.9000e+000 97274  2.7450e+000 -2.9067e-002 -3.5192e-002 34920 97121,97199,97173
 4.9000e+000 97251  2.2363e+000  1.0409e+000 -1.0079e+000 34920 97121,97173,97147
 4.9000e+000 97415  5.2804e-001  8.1725e-001 -7.2746e-001 34920 97121,97069,97389
 4.9000e+000 97438  9.4674e-001  9.9059e-001  4.8567e-001 34920 97121,97389,97199
 4.9000e+000 97708 -5.6926e+000  4.6680e+000  3.2406e+000 34722 97509,97587,97535
 4.9000e+000 97685 -6.7597e+000  9.3974e+000  2.5029e+000 34722 97509,97613,97587
 4.9000e+000 97662  1.8262e-001  1.3526e+001  4.7249e+000 34722 97483,97613,97509
 4.9000e+000 97639 -1.1565e+001 -3.5105e+000 -7.6692e+000 34722 97535,97587,97561
 4.9000e+000 98216 -9.7344e-001  4.9605e+000 -2.2813e-001 34318 97971,98075,97997
 4.9000e+000 98193 -6.9118e-001  2.2894e+000  1.5979e+000 34318 97893,98075,97971
 4.9000e+000 98170  9.9766e-001  1.1661e+000  6.7621e-001 34318 97893,97971,97919
 4.9000e+000 98147  5.5132e-001  1.0945e+001  1.6457e-001 34318 97997,98075,98049
 4.9000e+000 98124  1.4133e-001  2.6838e+000 -1.3424e-001 34318 97919,97971,97945
 4.9000e+000 98101 -9.2400e-001  6.6871e+000 -1.9037e+000 34318 97997,98049,98023
 4.9000e+000 98594  4.4399e+000  6.2622e+000 -1.8879e+000 33814 98961,98617,98424
 4.9000e+000 98571  1.4852e+001  7.0408e+000  2.9002e-001 33814 98689,98617,98372
 4.9000e+000 98548  1.4256e+001  1.3538e+001 -1.8574e-001 33814 99033,98689,98372
 4.9000e+000 98525  1.3525e+001  9.2841e+000 -4.3359e+000 33814 98761,98476,98450
 4.9000e+000 98502  1.3662e+000  4.3899e+000 -3.0406e+000 33814 98961,98424,98398
 4.9000e+000 98643  8.0434e+000  5.9042e+000 -4.4347e+000 33814 98450,98424,98617
 4.9000e+000 98666  9.2322e+000  8.1813e+000 -4.0038e+000 33814 98761,98450,98617
 4.9000e+000 98715  1.4267e+001  9.3007e+000 -1.3075e+000 33814 99161,98689,98320
 4.9000e+000 98738  5.0551e+000  6.1967e+000  1.2745e+000 33814 98320,98689,98346
 4.9000e+000 98787  1.2615e+001  9.2726e+000 -5.9085e+000 33814 98833,98761,98320
 4.9000e+000 98810  1.2769e+001  1.0873e+001 -4.6192e+000 33814 99161,98320,98761
 4.9000e+000 98859  1.2838e+001  1.0372e+001 -6.2303e+000 33814 98476,98761,98833
 4.9000e+000 98987  1.1679e+001 -1.1513e-001 -2.6797e+000 33814 98372,98617,98961
 4.9000e+000 99010  7.1864e+000 -3.9484e+000 -4.7326e+000 33814 98372,98961,98398
 4.9000e+000 99059  1.2722e+001  9.0627e+000  1.0984e+000 33814 98346,98689,99033
 4.9000e+000 99187  1.2075e+001  3.9279e+000 -1.3130e+000 33814 98617,98689,99161
 4.9000e+000 99210  1.1043e+001  6.2439e+000 -4.8382e+000 33814 98617,99161,98761
 4.9000e+000 99588  9.1956e-001 -3.9939e+000  7.5341e-002 33566 99366,99444,99392
 4.9000e+000 99565  7.7794e-001 -1.0954e+000  5.9822e-001 33566 99314,99444,99366
 4.9000e+000 99542  9.4913e-001 -4.0553e+000 -1.0425e+000 33566 99314,99366,99340
 4.9000e+000 99519  1.2384e+000  5.9615e-001 -1.5288e+000 33566 99314,99470,99444
 4.9000e+000 99496 -4.0407e-001 -4.9916e+000  1.1310e+000 33566 99392,99444,99418
 4.9000e+000 99787  3.8534e+000  3.5066e+000  3.8225e+000 33105 99637,99689,99663
 4.9000e+000 99764  2.3872e+000  4.2748e+000  1.5349e+000 33105 99611,99689,99637
 4.9000e+000 99741  2.5791e+000  2.6777e+000  1.0683e+000 33105 99611,99715,99689
 4.9000e+000 100167  5.4905e+000  2.9865e+000  3.9539e+000 32651 100190,99971,99919
 4.9000e+000 100144  3.2543e+000  4.4061e+000  4.2418e+000 32651 100262,100190,99919
 4.9000e+000 100121  1.9555e+000  4.7258e+000  3.3280e+000 32651 100262,99919,100049
 4.9000e+000 100098  1.5654e-001  4.0957e+000 -1.4896e-001 32651 99893,100049,99919
 4.9000e+000 100075 -1.0485e+000  1.5193e-001  9.4416e-002 32651 99919,99971,99945
 4.9000e+000 100216  3.0636e+000  1.0227e+000  2.5802e+000 32651 99997,99971,100190
 4.9000e+000 100239  3.2908e+000  3.4072e+000  3.3142e+000 32651 99997,100190,100023
 4.9000e+000 100288  1.7321e+000  3.0015e+000  3.6503e+000 32651 100023,100190,100262
 4.9000e+000 100311 -9.4374e-001  2.7386e+000  2.4146e+000 32651 100023,100262,100049
 4.9000e+000 100608  8.9931e-002 -2.3713e+000  3.8340e-001 32254 100386,100490,100464
 4.9000e+000 100585  6.1196e-002  4.3057e-001 -4.4802e-001 32254 100360,100490,100386
 4.9000e+000 100562 -6.0036e-001 -3.5012e+000 -2.1759e-001 32254 100386,100464,100412
 4.9000e+000 100539 -2.7953e-002  5.4835e-001 -9.6582e-002 32254 100334,100490,100360
 4.9000e+000 100516  2.1116e+000 -4.9644e-002  1.1664e+000 32254 100412,100464,100438
 4.9000e+000 100758  5.5888e+000  6.9031e+000 -4.8920e+000 31914 100985,100781,100683
 4.9000e+000 100735  2.2111e+000  4.0210e+000 -1.8179e+000 31914 100853,100781,100657
 4.9000e+000 100807  1.0232e+001  7.4277e+000 -8.5606e+000 31914 100709,100683,100781
 4.9000e+000 100830  1.8529e+000  5.0245e+000 -4.5988e+000 31914 100709,100781,100631
 4.9000e+000 100879  1.9636e+000  9.9749e-001 -1.6154e+000 31914 100631,100781,100853
 4.9000e+000 101011  3.2487e+000  2.0895e+000 -5.7191e+000 31914 100657,100781,100985
 4.9000e+000 101191 -5.1087e+000  2.9288e+000 -6.0973e-001 31418 101113,101165,101139
 4.9000e+000 101341 -1.6621e+001 -1.4687e+001 -2.9412e+000 31106 101214,101266,101240
 4.9000e+000 101318 -4.7890e+000  2.1206e+001  3.1596e+000 31106 101214,101292,101266
 4.9000e+000 101591 -9.8344e+000 -5.0404e+000  2.2151e-001 30552 101614,101470,101444
 4.9000e+000 101568 -9.7870e+000 -7.8401e+000 -5.2308e-001 30552 101366,101496,101470
 4.9000e+000 101545 -9.6484e+000 -2.8259e+000  7.4436e-001 30552 101614,101444,101392
 4.9000e+000 101522 -3.1783e+000 -4.7002e-001  2.2479e-001 30552 101392,101444,101418
 4.9000e+000 101640 -9.8347e+000 -6.5426e+000 -1.2204e+000 30552 101366,101470,101614
 4.9000e+000 101663 -9.6080e+000 -4.4072e+000 -6.4121e-001 30552 101366,101614,101392
 4.9000e+000 102301  6.3270e-001  1.8195e+000 -8.0585e+000 30042 102396,102324,102059
 4.9000e+000 102278  7.2124e+000 -1.1435e+000 -1.4631e+001 30042 102324,101981,101955
 4.9000e+000 102255 -5.1094e+000  4.5785e+000 -2.7702e+000 30042 102396,102059,102033
 4.9000e+000 102232 -1.8488e+000  6.2122e+000  2.4757e+000 30042 101929,102111,101955
 4.9000e+000 102209  3.0932e+000  4.7559e+000  2.3685e+000 30042 102059,102111,102085
 4.9000e+000 102186  4.6306e+000  9.9854e+000 -2.9318e-001 30042 101929,102137,102111
 4.9000e+000 102163 -4.9069e-001  7.7592e+000  4.1638e+000 30042 101981,102033,102007
 4.9000e+000 102350  1.3240e+001  4.5354e+000 -2.2324e+000 30042 102111,102059,102324
 4.9000e+000 102373  7.3558e+000 -7.0673e+000 -4.2449e+000 30042 102111,102324,101955
 4.9000e+000 102422  9.4130e+000  1.2060e+001 -1.2081e+001 30042 101981,102324,102396
 4.9000e+000 102445  3.3091e+000  1.4666e+001 -6.7188e+000 30042 101981,102396,102033
 4.9000e+000 103000  1.0077e+001  4.5328e+000 -9.3968e-001 29730 103023,102706,102654
 4.9000e+000 102977  6.1702e+000  5.0921e+000 -2.7028e+000 29730 103023,102654,102810
 4.9000e+000 102954  2.6461e+000 -2.4844e+000 -3.5456e+000 29730 102732,102810,102784
 4.9000e+000 102931  6.4478e+000  5.1962e+000 -2.6406e+000 29730 102628,102810,102654
 4.9000e+000 102908  1.5845e+001  1.3202e+001 -3.5966e+000 29730 102654,102706,102680
 4.9000e+000 102885  2.8632e+000 -2.6475e+000 -2.9119e+000 29730 102732,102784,102758
 4.9000e+000 102862  4.6204e+000  4.4442e+000 -2.7301e+000 29730 102628,102836,102810
 4.9000e+000 103049  7.4288e+000  1.6198e+000 -2.5524e+000 29730 102732,102706,103023
 4.9000e+000 103072  5.1007e+000  4.1762e+000 -3.9161e+000 29730 102732,103023,102810
 4.9000e+000 103222  4.9175e+000 -2.5432e+000  6.5565e-001 29226 103095,103147,103121
 4.9000e+000 103199  2.3752e+000 -6.0079e-001  8.8831e-003 29226 103095,103173,103147
 4.9000e+000 103730  4.7677e+000  3.6911e+000  1.8325e+000 28822 103537,103589,103563
 4.9000e+000 103707  4.2090e+000  8.0152e+000  2.6769e+000 28822 103433,103589,103537
 4.9000e+000 103684  1.8846e+001  1.5229e+001  1.9725e-001 28822 103433,103537,103459
 4.9000e+000 103661  1.8276e+001  6.8166e+000  7.6610e+000 28822 103407,103589,103433
 4.9000e+000 103638  6.7706e+000  1.3016e+001  4.2495e+000 28822 103459,103511,103485
 4.9000e+000 103615 -1.0460e+000  1.6983e+001  2.3797e+000 28822 103459,103537,103511
 4.9000e+000 103880  8.9883e+000  1.1601e+001  1.1080e-001 28368 103975,103903,103779
 4.9000e+000 103857  3.4824e-002  2.3334e+000 -2.6274e+000 28368 103903,103753,103831
 4.9000e+000 103929  9.5711e-001  1.0082e+001 -4.3084e+000 28368 103805,103779,103903
 4.9000e+000 103952 -1.7065e+000  1.0634e+001 -3.9267e+000 28368 104105,103903,103831
 4.9000e+000 104001  4.4758e+000  7.1586e+000 -4.4697e+000 28368 103753,103903,103975
 4.9000e+000 104131 -6.2237e+000  9.3170e+000 -3.1037e+000 28368 103805,103903,104105
 4.9000e+000 104539  3.0306e+000  3.8209e+000  7.8861e-001 28028 104562,104340,104314
 4.9000e+000 104516  1.9066e+000  2.2835e+000  1.3259e+000 28028 104634,104562,104314
 4.9000e+000 104493  4.9689e+000  3.6493e+000  3.5608e+000 28028 104762,104366,104340
 4.9000e+000 104470  2.8853e+000  1.9422e+000  3.0357e+000 28028 104366,104418,104392
 4.9000e+000 104588  3.0738e+000  4.6429e+000  2.1184e+000 28028 104762,104340,104562
 4.9000e+000 104611  1.3330e+000  3.4854e+000  1.2052e+000 28028 104418,104562,104444
 4.9000e+000 104660  7.3232e-001  3.2076e+000  1.0277e+000 28028 104444,104562,104634
 4.9000e+000 104788  3.3208e+000  2.0184e+000  2.9033e+000 28028 104418,104366,104762
 4.9000e+000 104811  1.0868e+000  2.3811e+000  1.2787e+000 28028 104418,104762,104562
 4.9000e+000 105010  5.3522e+000  2.2968e+000 -2.0698e+000 27324 105033,104886,104860
 4.9000e+000 104987 -1.1120e-001 -6.7695e-001 -3.9995e+000 27324 105033,104860,104834
 4.9000e+000 104964 -1.4315e+000  5.9800e+000 -6.6565e+000 27324 105105,104912,104886
 4.9000e+000 105059  3.7322e+000  2.7405e+000 -5.8726e+000 27324 105105,104886,105033
 4.9000e+000 105082  1.0601e+000 -3.7441e+000 -6.0680e+000 27324 104938,105033,104834
 4.9000e+000 105131 -6.0591e+000  2.6806e+000 -4.8468e+000 27324 104938,104912,105105
 4.9000e+000 105154 -1.8371e+000 -2.0532e+000 -3.7071e+000 27324 104938,105105,105033
 4.9000e+000 105402 -4.6354e-001 -1.8808e+000 -2.1800e-001 27012 105229,105281,105255
 4.9000e+000 105379  1.0321e+000  3.8178e-001 -1.0657e+000 27012 105229,105307,105281
 4.9000e+000 105356  4.1609e+000  2.6960e+000 -5.5510e-002 27012 105177,105307,105229
 4.9000e+000 105333 -1.5284e-001 -2.6430e+000 -2.7916e+000 27012 105177,105229,105203
 4.9000e+000 105603  8.1920e-001  3.4924e+000 -1.3426e+000 26508 105626,105453,105427
 4.9000e+000 105580  8.2176e-001  3.3175e+000  1.3854e+000 26508 105626,105427,105505
 4.9000e+000 105557  1.0947e+000  3.1151e+000  1.5399e+000 26508 105427,105531,105505
 4.9000e+000 105652 -1.3470e+000  2.5489e+000 -9.6742e-001 26508 105479,105453,105626
 4.9000e+000 105675 -1.7662e+000  2.5120e+000  1.5196e+000 26508 105479,105626,105505
 4.9000e+000 106057 -8.2992e-001 -1.7081e+000  1.6660e+000 25947 106080,105887,105861
 4.9000e+000 106034 -7.6011e-002 -4.5093e-001  8.3218e-001 25947 106080,105861,105783
 4.9000e+000 106011  5.4044e-001  7.9468e-001  2.6765e-001 25947 105783,105835,105809
 4.9000e+000 105988 -2.5435e+000 -3.1170e-001  1.4391e+000 25947 105783,105861,105835
 4.9000e+000 105965  3.5053e-001  1.1100e-001 -1.9574e-003 25947 105887,105939,105913
 4.9000e+000 106106 -6.2976e-001 -1.1834e+000  5.5166e-001 25947 105939,105887,106080
 4.9000e+000 106129  1.0133e+000  1.1221e+000 -4.5009e-001 25947 105939,106080,105783
 4.9000e+000 106714  8.9676e-001  1.4814e+000  2.1930e+000 25557 106809,106737,106547
 4.9000e+000 106691  2.0534e+000  3.3162e+000  1.0573e+000 25557 106737,106417,106391
 4.9000e+000 106668  2.2337e+000  1.5893e+000  2.1534e+000 25557 106809,106547,106495
 4.9000e+000 106645  3.4954e+000  1.9536e+000  1.9764e+000 25557 106417,106495,106469
 4.9000e+000 106622  1.9041e+000  2.7232e+000  3.8968e+000 25557 106495,106547,106521
 4.9000e+000 106599  2.2995e+000  2.1618e+000  1.5965e+000 25557 106417,106469,106443
 4.9000e+000 106763 -1.5724e+000  2.9831e-001  3.8694e+000 25557 106573,106547,106737
 4.9000e+000 106786  1.1976e+000  1.7076e+000  1.8628e+000 25557 106573,106737,106391
 4.9000e+000 106835  2.4598e+000  1.6460e+000  2.7842e+000 25557 106417,106737,106809
 4.9000e+000 106858  3.1525e+000  1.1750e+000  2.5224e+000 25557 106417,106809,106495
 4.9000e+000 107364  2.5756e+000  6.7067e-001  1.6060e+000 25153 107459,107387,107171
 4.9000e+000 107341  2.8080e+000  1.2392e+000  2.0258e+000 25153 107387,107119,107067
 4.9000e+000 107318  2.7937e+000  2.0114e+000  2.9456e+000 25153 107459,107171,107145
 4.9000e+000 107295  2.6868e+000  1.2177e+000 -7.5155e-001 25153 107531,107223,107197
 4.9000e+000 107272  4.0473e+000  3.8889e+000  1.6430e+000 25153 107067,107119,107093
 4.9000e+000 107249  3.9531e+000  3.6992e+000 -7.2890e-001 25153 107041,107223,107067
 4.9000e+000 107413 -1.2685e+000 -5.8794e-001  1.5254e+000 25153 107197,107171,107387
 4.9000e+000 107436  2.2533e+000 -3.0440e-001  1.3189e+000 25153 107531,107197,107387
 4.9000e+000 107485  3.4618e+000  3.0031e+000  2.5073e+000 25153 107119,107387,107459
 4.9000e+000 107508  4.2545e+000  4.3061e+000  4.0326e+000 25153 107119,107459,107145
 4.9000e+000 107557  3.5453e+000  3.1434e+000 -9.1722e-001 25153 107067,107223,107531
 4.9000e+000 107580  3.8286e+000  3.3279e+000  1.1193e+000 25153 107067,107531,107387
 4.9000e+000 107958  1.8870e+000  6.6822e-001 -7.1457e-001 24741 107736,107814,107788
 4.9000e+000 107935 -6.2952e+000 -5.8730e+000 -4.6980e+000 24741 107736,107840,107814
 4.9000e+000 107912 -2.8119e-001 -2.4786e+000 -1.6390e+000 24741 107684,107840,107736
 4.9000e+000 107889  1.7319e+000  3.3762e+000 -1.6830e+000 24741 107736,107788,107762
 4.9000e+000 107866 -1.5091e+000  1.7267e+000  3.6272e+000 24741 107684,107736,107710
 4.9000e+000 108157  1.8739e-001 -1.0375e-001 -5.9379e-001 24237 108180,108059,108007
 4.9000e+000 108134  2.5879e+000  1.3134e+000  1.0482e-002 24237 108180,108007,107981
 4.9000e+000 108111 -6.4243e-001 -4.2693e-001 -3.8104e-001 24237 108007,108059,108033
 4.9000e+000 108206  9.4265e-001  6.9447e-001  1.4673e+000 24237 108085,108059,108180
 4.9000e+000 108229  3.2546e+000  2.0757e+000  2.0623e+000 24237 108085,108180,107981
 4.9000e+000 108658  6.8974e+000  3.3164e+000 -3.4039e+000 23776 108361,108413,108387
 4.9000e+000 108635 -5.8683e-001 -1.0396e+001 -3.0917e+000 23776 108753,108681,108361
 4.9000e+000 108612 -9.1344e-001 -2.1483e+000 -2.4475e+000 23776 108681,108465,108439
 4.9000e+000 108589 -2.6448e+000 -1.3037e+001 -1.3395e+000 23776 108753,108361,108335
 4.9000e+000 108566 -5.5156e+000 -6.2394e+000 -4.5637e+000 23776 108335,108517,108465
 4.9000e+000 108543 -4.0759e+000 -7.2921e+000 -3.5717e+000 23776 108465,108517,108491
 4.9000e+000 108707  3.7082e+000 -2.0065e+000 -4.9888e+000 23776 108413,108361,108681
 4.9000e+000 108730 -9.0574e-001  3.9747e+000 -8.5969e-001 23776 108413,108681,108439
 4.9000e+000 108779 -2.8349e+000 -2.5769e+000 -5.6400e+000 23776 108465,108681,108753
 4.9000e+000 108802 -6.5462e+000 -8.0173e+000 -3.7263e+000 23776 108465,108753,108335
 4.9000e+000 109023  6.5774e-001  7.6406e-001 -1.8991e+000 23414 108873,108925,108899
 4.9000e+000 109000  3.4952e+000  2.1369e+000 -1.4747e+000 23414 108847,108925,108873
 4.9000e+000 108977  4.4172e+000  6.1511e+000  4.5240e-001 23414 108847,108951,108925
 4.9000e+000 109474  6.5524e-001  2.2256e+001 -1.6703e+000 23024 109151,109307,109177
 4.9000e+000 109451  6.8417e-001  3.8586e-001  3.7877e-001 23024 109151,109333,109307
 4.9000e+000 109428  1.0573e+001  1.2606e+001  1.2205e+000 23024 109177,109281,109203
 4.9000e+000 109405  1.5299e+001  2.1654e+001 -3.5325e+000 23024 109177,109307,109281
 4.9000e+000 109382  6.1189e+000  7.9053e+000 -1.1692e+000 23024 109203,109281,109229
 4.9000e+000 109359  5.2470e+000  9.6409e+000 -1.8481e+000 23024 109229,109281,109255
 4.9000e+000 109820  6.3802e+000  2.7460e-001 -7.7113e-001 22506 109843,109601,109523
 4.9000e+000 109797  1.0446e+000  2.9792e+000 -1.7279e+000 22506 109843,109523,109497
 4.9000e+000 109774 -2.6227e+000 -6.5834e+000  2.9903e-001 22506 109915,109653,109627
 4.9000e+000 109751 -7.1419e+000 -4.1715e-001 -7.2679e-001 22506 109497,109679,109653
 4.9000e+000 109728  7.2599e+000  2.1342e+000 -3.8131e+000 22506 109523,109601,109575
 4.9000e+000 109705  4.0248e+000 -3.7888e+000 -5.1865e+000 22506 109523,109575,109549
 4.9000e+000 109869  2.4165e+000  2.0966e+000 -1.1914e-001 22506 109627,109601,109843
 4.9000e+000 109892  3.0350e-001 -1.1919e-001  9.5155e-001 22506 109915,109627,109843
 4.9000e+000 109941 -3.5904e+000 -8.7033e-001 -3.6606e+000 22506 109497,109653,109915
 4.9000e+000 109964 -3.1067e+000  2.5187e-001 -3.6243e+000 22506 109497,109915,109843
 4.9000e+000 110163  2.4650e+000  4.1192e+000  1.6558e+000 21936 110186,110039,110013
 4.9000e+000 110140  8.4084e+000  2.6577e+000  1.4000e-001 21936 110390,110186,110013
 4.9000e+000 110117  1.2931e+001 -8.6943e-001  4.3953e+000 21936 110390,110013,109987
 4.9000e+000 110212  2.7179e+000  3.5943e+000 -1.0962e+000 21936 110065,110039,110186
 4.9000e+000 110235 -1.4865e+000 -2.0413e+000 -2.8744e+000 21936 110258,110186,110091
 4.9000e+000 110284 -4.0990e+000  2.3152e+000 -1.7420e+000 21936 110065,110186,110258
 4.9000e+000 110416 -1.4900e+000  8.6781e-001  1.0241e+000 21936 110091,110186,110390
 4.9000e+000 110439  5.0686e+000 -1.3469e+000  4.8503e+000 21936 110091,110390,109987
 4.9000e+000 110709  9.5144e+000  8.8021e+000 -2.7876e-001 21338 110510,110614,110588
 4.9000e+000 110686  1.1676e+001  1.1654e+001  6.9150e-001 21338 110484,110614,110510
 4.9000e+000 110663  1.3005e+001  1.2702e+001  7.7344e-001 21338 110510,110562,110536
 4.9000e+000 110640  1.1616e+001  9.1737e+000  1.7699e-001 21338 110510,110588,110562
 4.9000e+000 111296  5.9171e+000  1.0618e+001 -5.8161e+000 20934 111025,111155,111103
 4.9000e+000 111273  1.3311e+000  1.4123e+001 -2.2431e+000 20934 110999,111155,111025
 4.9000e+000 111250  1.0107e-001  6.5525e+000  4.2463e-001 20934 111103,111155,111129
 4.9000e+000 111227  6.9990e+000  2.8859e-001 -2.2148e+000 20934 111051,111103,111077
 4.9000e+000 111204  9.9685e+000  2.3879e+000 -4.2854e+000 20934 111025,111103,111051
 4.9000e+000 111181  4.6628e+000  1.9531e+001 -7.7435e-001 20934 110973,111155,110999
 4.9000e+000 111930 -7.4236e+000 -9.6721e+000 -7.8184e+000 20494 111662,111714,111688
 4.9000e+000 111907 -4.4580e+000 -2.7315e+000 -5.5638e+000 20494 111584,111714,111662
 4.9000e+000 111884 -5.3567e+000 -2.7950e+000 -5.5540e+000 20494 111584,111766,111714
 4.9000e+000 111861  2.7000e+000  3.5427e+000 -4.7886e+000 20494 111584,111636,111610
 4.9000e+000 111838 -1.8982e+000 -8.2664e-001 -7.0586e+000 20494 111584,111662,111636
 4.9000e+000 111815 -2.2770e+000 -2.5195e+000 -6.9758e+000 20494 111558,111766,111584
 4.9000e+000 111792 -5.2584e+000 -5.2450e-001 -2.0238e+000 20494 111714,111766,111740
 4.9000e+000 112249 -1.8190e-001 -2.8391e+001  2.9444e+000 19940 111975,112053,112001
 4.9000e+000 112226  7.9631e+000 -9.8611e+000  1.4234e+000 19940 111975,112131,112053
 4.9000e+000 112203  1.2440e+000 -2.4139e+001  0.0000e+000 19940 112053,112105,112079
 4.9000e+000 112180  2.4145e+000 -2.2756e+001  6.3096e-001 19940 112053,112131,112105
 4.9000e+000 112157  6.2675e+000 -2.3179e+001 -2.3131e-001 19940 112001,112053,112027
 4.9000e+000 112757  5.6664e+000  5.5503e+000 -7.2451e-001 19486 112780,112538,112486
 4.9000e+000 112734  6.3965e+000  7.2691e+000 -6.4586e-001 19486 112780,112486,112460
 4.9000e+000 112711  5.3899e+000  5.7886e+000 -1.6597e+000 19486 112852,112616,112590
 4.9000e+000 112688  7.3781e+000  5.1414e+000 -7.3354e-001 19486 112486,112538,112512
 4.9000e+000 112665  5.2109e+000  7.8544e+000 -1.0956e+000 19486 112434,112616,112460
 4.9000e+000 112642  6.3375e+000  7.0580e+000 -8.0736e-001 19486 112538,112590,112564
 4.9000e+000 112806  7.0833e+000  6.2871e+000 -1.0936e+000 19486 112590,112538,112780
 4.9000e+000 112829  6.3854e+000  6.1033e+000 -1.5662e+000 19486 112852,112590,112780
 4.9000e+000 112878  4.5285e+000  6.4613e+000 -1.3228e+000 19486 112460,112616,112852
 4.9000e+000 112901  5.0661e+000  6.4444e+000 -1.2616e+000 19486 112460,112852,112780
 4.9000e+000 113252  4.8398e+000  4.4979e+000 -5.6284e-001 19096 113105,113157,113131
 4.9000e+000 113229  5.7507e+000  4.3925e+000 -7.2056e-002 19096 113053,113157,113105
 4.9000e+000 113206  8.4592e+000  4.2563e+000 -1.0513e+000 19096 113027,113157,113053
 4.9000e+000 113183  6.4611e+000  4.5153e+000 -6.3592e-001 19096 113053,113105,113079
 4.9000e+000 113451  1.1680e+000 -1.2290e+001 -3.6779e+000 18642 113327,113379,113353
 4.9000e+000 113428  1.6998e+000 -1.1798e+001 -3.0701e+000 18642 113301,113379,113327
 4.9000e+000 113405  5.8181e+000 -9.2724e+000 -1.9398e+000 18642 113275,113379,113301
 4.9000e+000 113699  2.0197e+000 -1.7157e+000 -2.1976e+000 18138 113474,113552,113526
 4.9000e+000 113676  1.7022e+000 -4.7133e+000 -2.1773e+000 18138 113474,113578,113552
 4.9000e+000 113653  2.6002e+000 -6.3296e+000 -2.4255e+000 18138 113474,113604,113578
 4.9000e+000 113630  4.9984e+000  4.3899e+000 -1.0822e+000 18138 113474,113526,113500
 4.9000e+000 113851 -1.3606e+000 -7.5601e-001 -1.3883e+000 17682 113750,113802,113776
 4.9000e+000 113828  5.1950e+000  3.7682e+000  5.8313e-001 17682 113724,113802,113750
 4.9000e+000 114383  2.3512e+000 -1.6814e+001 -1.7014e+000 17106 114086,114242,114164
 4.9000e+000 114360 -8.8430e-001 -1.8196e+001 -1.6631e+000 17106 114060,114242,114086
 4.9000e+000 114337 -8.4453e+000 -3.3896e+001  3.5509e+000 17106 114086,114164,114138
 4.9000e+000 114314 -8.3466e+000 -5.1350e+001 -7.8074e-001 17106 114190,114242,114216
 4.9000e+000 114291 -4.2172e+000 -3.6443e+001 -3.1207e+000 17106 114164,114242,114190
 4.9000e+000 114268 -7.3040e+000 -3.3515e+001  4.4516e+000 17106 114086,114138,114112
 4.9000e+000 114680  9.1959e-001 -5.9420e+000 -1.2995e+000 16766 114703,114432,114406
 4.9000e+000 114657  2.3806e-001 -6.3693e+000 -1.7347e+000 16766 114703,114406,114510
 4.9000e+000 114634  8.3260e-001 -2.7282e+000 -1.2091e+000 16766 114406,114536,114510
 4.9000e+000 114611  4.1831e+000 -4.5174e+000 -1.1762e+000 16766 114432,114484,114458
 4.9000e+000 114588  5.1980e+000  5.9219e-001 -5.4989e+000 16766 114406,114562,114536
 4.9000e+000 114729  3.3635e+000 -6.0537e+000 -5.5545e-001 16766 114484,114432,114703
 4.9000e+000 114752  1.4059e+000 -7.4841e+000 -1.2243e+000 16766 114484,114703,114510
 4.9000e+000 114902  3.7730e+000 -2.5996e+001 -5.0616e+000 16362 114775,114827,114801
 4.9000e+000 114879  4.0366e+000 -2.6913e+001 -4.8424e+000 16362 114775,114853,114827
 4.9000e+000 115054 -3.1497e+001 -4.6919e+001 -8.2833e-001 15908 114953,115005,114979
 4.9000e+000 115031 -2.9705e+001 -5.1307e+001 -4.3479e-001 15908 114927,115005,114953
 4.9000e+000 115326  1.0582e+001  7.8797e+000  2.9422e+000 15251 115101,115179,115153
 4.9000e+000 115303  7.1957e+000  7.0278e+000  1.1562e+000 15251 115101,115231,115179
 4.9000e+000 115280  7.7455e+000  8.1197e+000  9.7214e-001 15251 115179,115231,115205
 4.9000e+000 115257 -2.2463e-001 -1.7114e+001  2.3967e-001 15251 115101,115153,115127
 4.9000e+000 115429  3.7784e+000 -3.5520e+000 -1.6259e+000 421 115351,115403,115377
 5.0000e+000 66230  8.4144e+000 -1.9085e+001 -2.6999e+000 65954 66152,66204,66178
 5.0000e+000 66429  2.7436e+000 -5.3594e+000 -6.5604e+000 65642 66279,66331,66305
 5.0000e+000 66406  1.1396e+000  1.8868e+000 -8.0862e-001 65642 66279,66357,66331
 5.0000e+000 66383 -1.0861e+000 -1.4870e+001  4.1694e+000 65642 66253,66357,66279
 5.0000e+000 66628 -3.4430e-001  9.1535e+000 -7.7153e-001 65444 66452,66530,66478
 5.0000e+000 66605  5.9969e-001  6.9555e+000 -1.4991e+000 65444 66452,66556,66530
 5.0000e+000 66582  1.1119e+000  4.7592e+000 -5.0420e-001 65444 66478,66530,66504
 5.0000e+000 67006 -4.7920e-001  4.0205e+000  1.4628e+000 65246 66732,66810,66758
 5.0000e+000 66983 -2.1975e+000  2.5666e+000  8.3533e-001 65246 66732,66836,66810
 5.0000e+000 66960  5.5307e-001  4.8109e+000  4.1311e+000 65246 66732,66862,66836
 5.0000e+000 66937  1.7179e+000  1.9559e+000 -6.1252e-001 65246 66758,66810,66784
 5.0000e+000 66914  3.3179e+000 -7.2817e-001 -2.3895e-001 65246 66732,66888,66862
 5.0000e+000 67107  2.1974e+000 -1.9091e+000 -1.0134e-001 64934 67029,67081,67055
 5.0000e+000 67306 -2.2755e+001  3.1450e+001  8.2653e+000 64736 67156,67208,67182
 5.0000e+000 67283 -1.3083e+000  2.4153e+001  6.6796e+000 64736 67130,67208,67156
 5.0000e+000 67260  6.1365e+000  6.2000e+000  1.1539e+001 64736 67130,67234,67208
 5.0000e+000 67507 -7.9120e-001  2.2798e+000  6.2790e-001 64389 67357,67409,67383
 5.0000e+000 67484 -6.3795e-001  7.4406e+000  5.9168e-001 64389 67357,67435,67409
 5.0000e+000 67461  2.2823e+000  4.9107e+000  1.0601e+000 64389 67331,67435,67357
 5.0000e+000 67708  3.0584e+001  4.4547e+000  8.1968e+000 63985 67731,67584,67558
 5.0000e+000 67685  1.9836e+001  1.1172e+001  8.4468e+000 63985 67731,67558,67636
 5.0000e+000 67662  1.4405e+001  7.0079e+000  5.9001e+000 63985 67532,67636,67558
 5.0000e+000 67757  2.3385e+001  3.3951e+000  4.9398e+000 63985 67610,67584,67731
 5.0000e+000 67780  1.2053e+001  8.3195e+000  3.8484e+000 63985 67610,67731,67636
 5.0000e+000 67981 -2.4982e+000 -1.7933e+000 -2.2211e+000 63787 67857,67909,67883
 5.0000e+000 67958  1.4118e+000 -2.3635e+000 -1.8525e+000 63787 67831,67909,67857
 5.0000e+000 67935  4.9030e+000  1.2665e+000  1.9015e-001 63787 67805,67909,67831
 5.0000e+000 68231  1.0750e+000  2.7417e+000 -3.7533e-001 63589 68254,68084,68032
 5.0000e+000 68208 -1.5297e-001  4.6968e+000 -9.2639e-001 63589 68254,68032,68006
 5.0000e+000 68185  2.4721e+000  6.7060e+000  1.0562e+000 63589 68326,68136,68110
 5.0000e+000 68162 -3.8888e-001  1.9091e+000  2.7184e-001 63589 68032,68084,68058
 5.0000e+000 68280  2.3426e-001  4.4945e+000  1.7645e-001 63589 68110,68084,68254
 5.0000e+000 68303  1.3954e+000  6.2397e+000  9.4220e-001 63589 68326,68110,68254
 5.0000e+000 68352  3.1400e+000  6.7523e+000 -1.4698e+000 63589 68006,68136,68326
 5.0000e+000 68375  1.4632e+000  6.0816e+000 -1.5167e+000 63589 68006,68326,68254
 5.0000e+000 68836 -1.1014e+001  1.1382e+000 -8.3040e+000 63128 68859,68588,68562
 5.0000e+000 68813 -6.4989e-001  3.7620e+000 -6.9988e+000 63128 68859,68562,68692
 5.0000e+000 68790  7.9365e+000  9.8561e+000 -2.3163e+000 63128 68614,68692,68666
 5.0000e+000 68767  6.3823e+000  5.7925e+000 -5.3783e+000 63128 68562,68718,68692
 5.0000e+000 68744  2.8208e+000  1.1819e-001  8.6536e+000 63128 68614,68666,68640
 5.0000e+000 68885 -1.0865e+001  2.4551e+000  5.9087e-001 63128 68614,68588,68859
 5.0000e+000 68908 -1.6482e+000  3.9571e+000  1.6550e+000 63128 68614,68859,68692
 5.0000e+000 69237 -1.3546e+000 -2.7014e-001 -1.8046e+000 62731 69064,69116,69090
 5.0000e+000 69214  5.4701e-001  1.4642e+000 -1.0687e+000 62731 69064,69142,69116
 5.0000e+000 69191  3.5606e-001  7.3307e-001 -1.0746e+000 62731 69038,69142,69064
 5.0000e+000 69168  3.5440e+000 -6.2205e-001 -7.7424e-002 62731 69012,69142,69038
 5.0000e+000 69539  2.3091e-001  4.1107e+000 -1.1498e+001 62433 69389,69467,69441
 5.0000e+000 69516 -1.2969e+001  9.2748e+000 -1.0203e+001 62433 69363,69467,69389
 5.0000e+000 69493  7.9267e+000 -3.6674e+000  5.0877e+000 62433 69389,69441,69415
 5.0000e+000 69966  2.0131e+000  1.4461e+001  4.8815e-001 62235 69989,69773,69721
 5.0000e+000 69943  5.5936e-001  1.6975e+001  3.1934e+000 62235 70061,69989,69721
 5.0000e+000 69920 -1.9832e+000  2.0816e+001  1.2254e+000 62235 70061,69721,69643
 5.0000e+000 69897  3.1703e+000  2.8698e+000  3.1789e+000 62235 69721,69773,69747
 5.0000e+000 69874  1.6690e+001  7.3849e+001  3.7963e+000 62235 69643,69721,69695
 5.0000e+000 69851 -2.0795e+001 -6.8755e+001  1.5656e+001 62235 69643,69695,69669
 5.0000e+000 70015  9.7301e-001  1.6573e+001  4.0347e+000 62235 69799,69773,69989
 5.0000e+000 70038  9.8947e+000  2.1343e+001  7.4684e+000 62235 69799,69989,69825
 5.0000e+000 70087  6.6680e+000  1.9658e+001  1.4859e+000 62235 69825,69989,70061
 5.0000e+000 70110  1.3533e+000  2.1217e+001  7.1581e-001 62235 69825,70061,69643
 5.0000e+000 70260 -5.5922e+000  2.9265e+001 -7.7993e+000 62037 70133,70185,70159
 5.0000e+000 70237  4.1109e+000  3.3312e+001 -1.8934e+000 62037 70133,70211,70185
 5.0000e+000 70640 -1.7767e+001 -1.0441e+001  2.3362e+000 61583 70735,70663,70418
 5.0000e+000 70617 -1.4406e+001  7.2895e+000  1.0518e+001 61583 70663,70366,70522
 5.0000e+000 70594 -1.8583e+001 -1.6830e+001  5.2742e+000 61583 70735,70418,70392
 5.0000e+000 70571 -1.7756e+001 -3.3219e+000 -1.3871e+000 61583 70418,70496,70444
 5.0000e+000 70548 -1.6566e+001 -2.1374e+000 -8.8587e-001 61583 70444,70496,70470
 5.0000e+000 70689 -1.8152e+001 -3.9986e+000  2.8834e+000 61583 70496,70418,70663
 5.0000e+000 70712 -2.4901e+001 -9.2388e+000  5.5951e+000 61583 70496,70663,70522
 5.0000e+000 70761 -2.3096e+001 -1.4731e+001  9.2624e+000 61583 70366,70663,70735
 5.0000e+000 70784 -2.1013e+001 -1.9753e+001  1.1607e+001 61583 70366,70735,70392
 5.0000e+000 71054  3.4391e+000  2.9142e+001 -1.6773e+001 61313 71077,70881,70855
 5.0000e+000 71031 -1.9783e+000  1.0254e+001 -1.4171e+001 61313 71077,70855,70829
 5.0000e+000 71008  2.1543e+000  1.6733e+001  1.1359e+000 61313 70829,70959,70933
 5.0000e+000 70985 -1.3583e+001  2.2450e+001  3.7908e+000 61313 70881,70933,70907
 5.0000e+000 71103  1.5525e+000  1.8430e+001 -6.8488e+000 61313 70933,70881,71077
 5.0000e+000 71126  8.9526e-001  7.1320e+000 -4.1551e+000 61313 70933,71077,70829
 5.0000e+000 71604  2.1323e+000  5.5169e+000  2.3771e+000 60909 71627,71232,71414
 5.0000e+000 71581  4.5081e+000  7.6291e+000  9.2366e-001 60909 71232,71440,71414
 5.0000e+000 71558  6.0788e-001  4.4671e+000  1.7745e+000 60909 71627,71414,71336
 5.0000e+000 71535 -3.5956e+000  2.7458e+000  4.0631e+000 60909 71362,71414,71388
 5.0000e+000 71512 -6.8706e-001  3.7027e+000  3.8655e+000 60909 71336,71414,71362
 5.0000e+000 71489 -1.9485e+000  3.1684e+000 -1.5219e-001 60909 71258,71336,71310
 5.0000e+000 71466  2.1015e+000  4.4444e+000 -3.1114e-001 60909 71258,71310,71284
 5.0000e+000 71653  2.8354e+000  4.1670e+000  1.7113e+000 60909 71258,71232,71627
 5.0000e+000 71676  1.7923e+000  3.6733e+000  1.4555e+000 60909 71258,71627,71336
 5.0000e+000 71875  1.5743e+001  4.2948e+001  6.0479e+000 60611 71898,71725,71699
 5.0000e+000 71852  1.2605e+001  3.0703e+001 -1.9999e+000 60611 71898,71699,71803
 5.0000e+000 71829  1.3084e+001  1.1659e+001 -6.7264e+000 60611 71970,71751,71725
 5.0000e+000 71924  2.0239e+001  2.5031e+001 -1.0566e+000 60611 71970,71725,71898
 5.0000e+000 71947  9.5854e+000  1.7519e+001 -2.7117e+000 60611 71777,71898,71803
 5.0000e+000 71996  5.8002e+000  2.6312e+001 -9.4541e+000 60611 71777,71751,71970
 5.0000e+000 72019  6.4657e+000  2.9128e+001 -5.8097e+000 60611 71777,71970,71898
 5.0000e+000 72576  1.0867e+001  2.4890e+001 -6.4300e+000 60142 72599,72256,72230
 5.0000e+000 72553  7.4211e+000  1.6507e+001 -5.7706e+000 60142 72671,72599,72230
 5.0000e+000 72530  5.5888e+000  1.8417e+001 -7.4034e+000 60142 72671,72230,72204
 5.0000e+000 72507  1.1534e+001  1.0702e+001 -2.5750e+000 60142 72743,72360,72334
 5.0000e+000 72484  1.0353e+001  1.8658e+001 -6.0618e+000 60142 72815,72282,72256
 5.0000e+000 72461 -6.8378e+000  1.5375e+001 -2.7801e+000 60142 72887,72308,72282
 5.0000e+000 72438  2.0888e+001  2.0376e+001 -1.5161e+001 60142 72204,72412,72386
 5.0000e+000 72625  6.5852e+000  1.8508e+001 -1.9214e+000 60142 72815,72256,72599
 5.0000e+000 72648  6.5398e+000  1.4517e+001 -2.3509e+000 60142 72743,72334,72599
 5.0000e+000 72697  5.8006e+000  1.3737e+001 -6.4783e+000 60142 72386,72599,72671
 5.0000e+000 72720  4.3873e+000  1.5796e+001 -7.7115e+000 60142 72386,72671,72204
 5.0000e+000 72769  2.4509e+001  1.6839e+001 -4.2943e+000 60142 72386,72360,72743
 5.0000e+000 72792  1.2759e+001  1.7030e+001 -3.3770e+000 60142 72386,72743,72599
 5.0000e+000 72841  2.3021e+000  1.9039e+001 -5.0289e+000 60142 72887,72282,72815
 5.0000e+000 72864  7.5867e+000  1.7138e+001 -2.4920e+000 60142 72334,72815,72599
 5.0000e+000 72913  4.4939e+000  1.1421e+001  7.5482e-001 60142 72334,72308,72887
 5.0000e+000 72936  7.0592e+000  1.2446e+001 -5.8385e-001 60142 72334,72887,72815
 5.0000e+000 73491  4.3800e+000  2.8873e+000 -1.7582e+000 59738 73145,73327,73171
 5.0000e+000 73468  3.5014e+000 -7.5161e-001 -2.2949e+000 59738 73119,73327,73145
 5.0000e+000 73445  3.7475e+000  7.9479e+000  1.4859e+000 59738 73171,73327,73301
 5.0000e+000 73422 -2.8182e+000  8.6878e+000 -6.9752e-001 59738 73514,73275,73249
 5.0000e+000 73399  3.1352e+000  9.8898e+000 -1.7928e+000 59738 73586,73514,73249
 5.0000e+000 73376  9.7163e-001  5.2457e+000 -6.5928e+000 59738 73197,73249,73223
 5.0000e+000 73353  3.1984e+000  1.0858e+001 -4.2891e+000 59738 73586,73249,73197
 5.0000e+000 73540  2.4274e+000  1.3500e+001  1.3498e+000 59738 73301,73275,73514
 5.0000e+000 73563  1.6339e+000  7.0411e+000  4.0616e-001 59738 73301,73514,73171
 5.0000e+000 73612  1.6751e+000  5.6493e+000 -1.2772e+000 59738 73171,73514,73586
 5.0000e+000 73635  1.5718e+000  7.2264e+000 -3.4737e+000 59738 73171,73586,73197
 5.0000e+000 73964  3.5463e-001 -1.0327e+001 -7.2158e+000 59334 73791,73843,73817
 5.0000e+000 73941 -1.1387e+001 -1.1256e+001 -7.3094e+000 59334 73791,73869,73843
 5.0000e+000 73918 -6.3910e+000  3.4828e-001 -6.9709e+000 59334 73739,73869,73791
 5.0000e+000 73895 -2.0381e+001 -5.6574e+000 -3.4179e+000 59334 73739,73791,73765
 5.0000e+000 74261  2.4850e+000  2.4243e+001 -8.0050e+000 58630 74065,74117,74091
 5.0000e+000 74238  9.7776e+000  1.1933e+001 -9.8681e+000 58630 74356,74284,74065
 5.0000e+000 74215  1.4674e+001  3.0308e+000 -4.9284e+000 58630 74284,74013,73987
 5.0000e+000 74192  7.3218e+000  9.2261e+000 -1.4572e+001 58630 74356,74065,74039
 5.0000e+000 74169  1.5310e+001  1.4858e+001  2.6028e+000 58630 73987,74143,74117
 5.0000e+000 74310  1.1702e+001  2.6420e+001 -9.2765e+000 58630 74117,74065,74284
 5.0000e+000 74333  1.2549e+001  1.2229e+001 -4.3553e+000 58630 74117,74284,73987
 5.0000e+000 74382  1.6446e+001  1.7390e+001 -6.1101e+000 58630 74013,74284,74356
 5.0000e+000 74405  1.4147e+001  1.4416e+001 -1.0841e+001 58630 74013,74356,74039
 5.0000e+000 74815  5.2041e+000 -8.6980e+000  2.9246e+000 58226 74590,74642,74616
 5.0000e+000 74792 -1.2099e+000 -7.1447e-001  9.1462e+000 58226 74590,74694,74642
 5.0000e+000 74769 -8.5381e+000 -8.6840e+000  1.2716e+001 58226 74590,74720,74694
 5.0000e+000 74746 -3.5523e+000  5.2662e+000  8.5075e+000 58226 74642,74694,74668
 5.0000e+000 75014  1.0064e+000  1.6209e+001  4.7060e+000 57786 75037,74864,74838
 5.0000e+000 74991  1.8693e+000  1.1361e+001  2.6252e+000 57786 75037,74838,74916
 5.0000e+000 74968  4.6783e-001  1.1071e+001  2.1371e+000 57786 74838,74942,74916
 5.0000e+000 75063  2.8488e+000  2.0941e+001  6.2628e+000 57786 74890,74864,75037
 5.0000e+000 75086  2.9587e+000  1.5335e+001  3.9896e+000 57786 74890,75037,74916
 5.0000e+000 75368  5.2469e-002  1.0259e+001 -3.7135e-001 57496 75192,75270,75218
 5.0000e+000 75345  6.0654e+000  1.1475e+001 -2.2821e+000 57496 75192,75296,75270
 5.0000e+000 75322  4.5640e+000  8.0513e+000  3.4592e+000 57496 75218,75270,75244
 5.0000e+000 75648  3.9257e+000  1.6878e+001 -2.3527e+000 57206 75472,75550,75498
 5.0000e+000 75625 -2.3908e+000  1.8034e+001  1.8422e+000 57206 75472,75576,75550
 5.0000e+000 75602 -2.3552e+000  5.6381e+000  3.0609e+000 57206 75671,75550,75524
 5.0000e+000 75697  3.1973e+000  1.6081e+001  6.3947e+000 57206 75498,75550,75671
 5.0000e+000 76154 -3.8012e+000 -4.7897e-001 -5.3179e+000 56802 75958,76010,75984
 5.0000e+000 76131 -6.4151e+000 -1.2314e+001 -5.2463e+000 56802 75932,76010,75958
 5.0000e+000 76108 -3.0852e+000 -1.2376e+001 -4.3145e-001 56802 75906,76010,75932
 5.0000e+000 76085 -8.5495e+000 -3.0846e+000 -1.5378e+000 56802 75880,76010,75906
 5.0000e+000 76062 -1.5329e+001 -4.7062e+000  1.8855e+000 56802 75880,76036,76010
 5.0000e+000 76505 -8.8471e-001  1.3753e+000  1.6671e+000 56504 76306,76384,76332
 5.0000e+000 76482  2.2590e+000  1.8344e+000  1.4089e+000 56504 76306,76410,76384
 5.0000e+000 76459 -3.4105e+000 -4.4751e+000 -2.9668e+000 56504 76332,76384,76358
 5.0000e+000 76436 -3.3277e-002  3.9680e-001  7.5141e-001 56504 76280,76410,76306
 5.0000e+000 77011  1.2813e+000  9.3902e+000  1.5547e+000 56050 76740,76818,76792
 5.0000e+000 76988  3.5969e+000  1.0312e+001  1.7338e+000 56050 76714,76818,76740
 5.0000e+000 76965  5.7818e+000  1.0722e+001  1.1796e+000 56050 76688,76818,76714
 5.0000e+000 76942  9.4021e+000  1.2057e+001  4.9777e+000 56050 76688,76844,76818
 5.0000e+000 76919  6.9219e+000  6.1478e+000  6.8239e-001 56050 76740,76792,76766
 5.0000e+000 76896  7.6705e+000  6.1273e-001  2.3345e+000 56050 76688,76870,76844
 5.0000e+000 77517 -1.5090e-001  1.1192e+001  3.4268e+000 55738 77220,77350,77324
 5.0000e+000 77494  7.5222e+000  1.1119e+001  1.4439e+000 55738 77220,77376,77350
 5.0000e+000 77471  7.3097e+000  1.7748e+001 -8.5899e-001 55738 77194,77376,77220
 5.0000e+000 77448  3.6257e+000  2.0156e+000  2.4921e+000 55738 77220,77298,77246
 5.0000e+000 77425  1.1763e+000  8.5835e+000  6.2070e+000 55738 77220,77324,77298
 5.0000e+000 77402 -5.5942e-002  2.4254e-001  1.1014e+000 55738 77246,77298,77272
 5.0000e+000 78064  5.0307e+000  1.0781e+001  3.4837e-002 55227 78231,78087,77773
 5.0000e+000 78041  8.7528e+000  1.7186e+001 -3.4366e+000 55227 78087,77695,77643
 5.0000e+000 78018  6.5041e+000  1.3092e+001  6.4860e-001 55227 78159,77799,77773
 5.0000e+000 77995  4.3788e+000  1.0347e+001  3.3300e-001 55227 78231,77773,77721
 5.0000e+000 77972  2.2466e+000  1.3072e+001 -5.3733e+000 55227 77643,77695,77669
 5.0000e+000 77949  1.4422e+001  2.1448e+001 -1.0020e+001 55227 77643,77877,77851
 5.0000e+000 77926  4.8130e+000  4.4919e+000  1.1537e+000 55227 77799,77851,77825
 5.0000e+000 77903  1.7371e+000  7.7905e+000  1.6120e+000 55227 77721,77773,77747
 5.0000e+000 78113  5.8543e+000  1.2627e+001  3.5794e-001 55227 78159,77773,78087
 5.0000e+000 78136  3.8990e+000  5.8295e+000 -2.9287e+000 55227 77851,78087,77643
 5.0000e+000 78185  7.8753e+000  1.2008e+001  9.0767e-001 55227 77851,77799,78159
 5.0000e+000 78208  7.3196e+000  1.1695e+001  6.8100e-001 55227 77851,78159,78087
 5.0000e+000 78257  3.5956e+000  1.2201e+001  4.2120e-001 55227 77695,78087,78231
 5.0000e+000 78280  2.4980e+000  1.1286e+001  8.6532e-001 55227 77695,78231,77721
 5.0000e+000 78737 -9.0474e+000 -8.3994e+000  1.6943e+000 54773 78463,78541,78515
 5.0000e+000 78714 -5.2791e+000 -6.2946e+000  6.6426e-001 54773 78463,78619,78541
 5.0000e+000 78691 -1.1743e+001 -1.8482e+001 -8.4313e+000 54773 78463,78515,78489
 5.0000e+000 78668 -8.7720e+000 -1.3248e+001  6.2130e+000 54773 78541,78593,78567
 5.0000e+000 78645 -1.1395e+001 -1.7258e+001  4.4271e+000 54773 78541,78619,78593
 5.0000e+000 78838  7.6896e-001  2.3366e+001  3.4599e+000 54211 78760,78812,78786
 5.0000e+000 79297  7.2646e+000 -7.7662e-001  6.5437e+000 53814 79520,79153,79049
 5.0000e+000 79274  1.0291e+001 -7.3227e-001  7.8337e+000 53814 79520,79049,79023
 5.0000e+000 79251  1.8041e+000  2.9631e-001 -5.1557e-002 53814 79320,79101,79049
 5.0000e+000 79228  4.3807e+000  5.5932e+000  6.5221e+000 53814 79320,79049,79153
 5.0000e+000 79205 -1.3808e+000  2.9836e-001 -6.4359e-001 53814 79049,79101,79075
 5.0000e+000 79346  6.5766e-001 -5.7122e+000 -2.7948e+000 53814 79392,79320,79127
 5.0000e+000 79369 -3.5911e+000  2.5604e+000 -9.2354e-003 53814 79127,79320,79153
 5.0000e+000 79418 -2.2172e+000 -1.3222e+000 -2.7568e+000 53814 79101,79320,79392
 5.0000e+000 79546  6.3171e+000 -1.9114e+000  1.0605e+001 53814 79179,79153,79520
 5.0000e+000 79569  1.5310e+001  9.2703e-001  1.1458e+001 53814 79179,79520,79023
 5.0000e+000 80075  2.2517e-001  1.3353e+000  1.2086e+000 53039 80098,79908,79830
 5.0000e+000 80052  4.3739e-001  4.5731e+000 -2.2509e+000 53039 80098,79830,79804
 5.0000e+000 80029  1.2283e+000  7.4621e+000 -3.5857e+000 53039 79752,79934,79804
 5.0000e+000 80006  1.3221e+000 -5.0480e-001  1.1732e+000 53039 79856,79908,79882
 5.0000e+000 79983  9.1554e-001  7.8867e-001  1.3208e+000 53039 79830,79908,79856
 5.0000e+000 79960  1.0671e+000  1.4630e+000 -1.3875e+000 53039 79752,79804,79778
 5.0000e+000 80124  5.5847e+000  1.9619e+000 -1.0203e+000 53039 79934,79908,80098
 5.0000e+000 80147  3.1210e+000  4.8808e+000 -4.4167e+000 53039 79934,80098,79804
 5.0000e+000 80555  2.1037e+001  9.1957e+000 -5.0354e+000 52699 80356,80434,80408
 5.0000e+000 80532  1.0382e+001  8.4200e+000 -2.7517e+000 52699 80356,80460,80434
 5.0000e+000 80509  1.1385e+001  2.3497e+001  9.8930e+000 52699 80330,80460,80356
 5.0000e+000 80486  4.7061e+000  1.4805e+000  1.1370e+001 52699 80356,80408,80382
 5.0000e+000 80776  2.0707e-001  1.1815e+001 -6.8464e+000 52295 80600,80678,80626
 5.0000e+000 80753 -1.0337e+001  1.3971e+000 -2.3774e+000 52295 80600,80704,80678
 5.0000e+000 80730 -2.4689e+001  1.8143e+000 -4.4083e+000 52295 80626,80678,80652
 5.0000e+000 81156  3.3190e-002  1.2241e+001 -8.3455e+000 51891 81179,80960,80908
 5.0000e+000 81133 -1.2635e+000  8.9673e+000 -9.3001e+000 51891 81179,80908,81012
 5.0000e+000 81110  8.0520e+000  2.0772e+001 -1.4640e+001 51891 80882,81012,80908
 5.0000e+000 81087 -1.3630e+001  2.7685e+001 -8.2740e+000 51891 80908,80960,80934
 5.0000e+000 81064  7.0784e+000  1.4594e+001 -1.7888e+001 51891 80882,81038,81012
 5.0000e+000 81205  1.3102e+000  1.4013e+001 -5.4673e+000 51891 80986,80960,81179
 5.0000e+000 81228 -1.1342e+000  9.5665e+000 -6.7074e+000 51891 80986,81179,81012
 5.0000e+000 81606 -1.4936e+000 -1.2950e+001 -9.2368e+000 51544 81410,81462,81436
 5.0000e+000 81583  1.5925e+000  2.9177e+000 -3.7438e+000 51544 81384,81462,81410
 5.0000e+000 81560 -2.6773e+000 -3.4993e+000 -5.7294e+000 51544 81358,81462,81384
 5.0000e+000 81537 -4.3191e+000 -2.6155e+000 -8.7198e+000 51544 81358,81488,81462
 5.0000e+000 81514 -3.2627e+000 -1.3839e+001 -7.6484e+000 51544 81332,81488,81358
 5.0000e+000 81854 -1.7422e+000  2.0974e+001  3.5340e-001 51004 81877,81655,81629
 5.0000e+000 81831 -5.0723e-001  1.8847e+001  5.4006e-001 51004 81877,81629,81759
 5.0000e+000 81808 -2.6048e+000  8.0552e+000 -9.1579e+000 51004 81655,81707,81681
 5.0000e+000 81785  6.0790e+000  3.0606e+001  2.3783e-001 51004 81707,81759,81733
 5.0000e+000 81903 -8.2055e-001  2.1183e+001  7.6126e-001 51004 81707,81655,81877
 5.0000e+000 81926  1.7734e+000  2.0858e+001  1.5640e+000 51004 81707,81877,81759
 5.0000e+000 82257  3.7104e+000  8.1866e+000  2.1690e-001 50642 82058,82136,82110
 5.0000e+000 82234 -8.2365e-001  1.4654e+001 -1.1832e+000 50642 82058,82162,82136
 5.0000e+000 82211  9.4392e+000  1.4739e+001 -9.7280e+000 50642 82058,82110,82084
 5.0000e+000 82188  1.6564e+001  2.1462e+001  7.1840e+000 50642 82032,82162,82058
 5.0000e+000 82684  5.4982e+000 -5.9356e+000  3.1610e+000 49931 82779,82707,82465
 5.0000e+000 82661  2.8564e+000 -3.5440e+000  7.6614e-001 49931 82707,82413,82361
 5.0000e+000 82638 -3.1546e-001 -8.0021e+000  2.2597e+000 49931 82779,82465,82439
 5.0000e+000 82615  5.5613e+000 -2.7845e+001  1.2746e+000 49931 82465,82543,82491
 5.0000e+000 82592  1.9953e+000 -2.1493e+000 -1.0974e+000 49931 82361,82413,82387
 5.0000e+000 82569  2.4229e+000 -1.5980e+001  1.8417e+000 49931 82491,82543,82517
 5.0000e+000 82733  1.5335e+001 -5.0539e+000  1.2347e+000 49931 82543,82465,82707
 5.0000e+000 82756  5.8114e+000 -2.5963e+000 -6.6692e-001 49931 82543,82707,82361
 5.0000e+000 82805  3.9594e+000 -7.7248e+000 -2.0198e+000 49931 82413,82707,82779
 5.0000e+000 82828  1.0777e+000 -8.4001e+000 -2.9289e+000 49931 82413,82779,82439
 5.0000e+000 83255  1.6382e+001  2.3638e+001  7.2791e-002 49327 82984,83114,83036
 5.0000e+000 83232  1.3119e+001  1.7008e+001 -8.9219e+000 49327 82958,83114,82984
 5.0000e+000 83209  7.4197e+000  2.3704e+001  7.1145e-001 49327 83036,83114,83088
 5.0000e+000 83186  4.7975e+000  1.5718e+001 -3.4265e+000 49327 82984,83036,83010
 5.0000e+000 83163 -1.3146e+001  2.3150e+001 -4.2176e+000 49327 82932,83114,82958
 5.0000e+000 83140  7.4464e+000  2.3248e+001  5.2433e-001 49327 83036,83088,83062
 5.0000e+000 83938  4.5424e+000  1.9592e+001 -3.0292e+000 48965 83961,83673,83647
 5.0000e+000 83915  1.0973e+000  1.0723e+001 -2.4949e+000 48965 83961,83647,83543
 5.0000e+000 83892  4.9759e+000  9.6170e+000  3.0938e+000 48965 83517,83725,83543
 5.0000e+000 83869  3.3394e+000  1.1648e+001  2.4573e+000 48965 83673,83725,83699
 5.0000e+000 83846  1.1076e+001  7.1007e+000  3.6680e+000 48965 83543,83647,83621
 5.0000e+000 83823  9.0270e+000  1.6891e+001  4.5351e+000 48965 83543,83621,83569
 5.0000e+000 83800  2.1602e+000  8.2956e+000  2.6370e+000 48965 83517,83751,83725
 5.0000e+000 83777  1.4377e-001  1.1189e+001  3.6731e-001 48965 83569,83621,83595
 5.0000e+000 83987  2.4448e+000  1.7430e+001  2.5851e+000 48965 83725,83673,83961
 5.0000e+000 84010  1.1144e+000  1.4273e+001  2.0695e+000 48965 83725,83961,83543
 5.0000e+000 84258 -2.5471e+000  8.5798e+000  3.7319e+000 48447 84281,84059,84033
 5.0000e+000 84235 -1.3095e+000  1.2348e+001  1.6665e-001 48447 84281,84033,84163
 5.0000e+000 84212 -1.2291e+001  1.7166e+001 -1.3198e+000 48447 84059,84111,84085
 5.0000e+000 84189  5.2502e+000  1.1828e+001 -1.9141e+000 48447 84111,84163,84137
 5.0000e+000 84307  2.6565e-001  9.7215e+000  5.7110e-001 48447 84111,84059,84281
 5.0000e+000 84330  3.1056e+000  1.2499e+001 -2.8537e+000 48447 84111,84281,84163
 5.0000e+000 84529  6.6021e+000  7.6324e+000 -2.3705e+000 47993 84552,84405,84379
 5.0000e+000 84506 -3.8673e+000  3.6327e+000 -2.5487e+000 47993 84552,84379,84353
 5.0000e+000 84483  9.9052e+000  6.9905e+000 -4.6450e+000 47993 84624,84457,84431
 5.0000e+000 84578  5.0048e+000  3.4531e+000 -2.2225e+000 47993 84431,84405,84552
 5.0000e+000 84601  7.2599e+000  3.9555e+000 -3.0996e+000 47993 84624,84431,84552
 5.0000e+000 84650  7.6248e+000  9.6743e+000 -6.6240e+000 47993 84353,84457,84624
 5.0000e+000 84673  5.9790e+000  8.8737e+000 -5.0978e+000 47993 84353,84624,84552
 5.0000e+000 85104 -8.7752e-001 -4.5340e+000 -2.7949e+000 47588 85199,85127,84885
 5.0000e+000 85081 -1.2374e+000 -1.1213e+001 -3.1837e+000 47588 85127,84781,84963
 5.0000e+000 85058 -3.1118e+000 -3.2489e+000  1.9876e-001 47588 85199,84885,84807
 5.0000e+000 85035  1.0905e+000  6.4075e-001 -2.0986e-001 47588 84885,84937,84911
 5.0000e+000 85012  1.1308e-001  3.8051e+000 -2.1678e+000 47588 84807,84885,84833
 5.0000e+000 84989  4.0552e+000  5.4366e+000 -4.0021e+000 47588 84833,84885,84859
 5.0000e+000 85153 -1.9644e+000 -4.8693e+000 -3.6816e+000 47588 84937,84885,85127
 5.0000e+000 85176  1.7294e+000 -6.6815e+000 -1.7764e+000 47588 84937,85127,84963
 5.0000e+000 85225 -5.7252e+000 -7.1357e+000 -3.9906e+000 47588 84781,85127,85199
 5.0000e+000 85248 -6.5012e+000 -4.6745e+000 -6.7381e-001 47588 84781,85199,84807
 5.0000e+000 85518 -1.7551e+000 -2.6324e+001  5.6021e+000 47226 85293,85397,85319
 5.0000e+000 85495 -8.5984e-002 -2.2928e+001  2.7773e+000 47226 85293,85423,85397
 5.0000e+000 85472  2.0546e+000 -2.7703e+001 -1.2164e+000 47226 85319,85397,85345
 5.0000e+000 85449  5.9836e+000 -3.0647e-001 -2.7479e+000 47226 85345,85397,85371
 5.0000e+000 85849  1.8066e+000  4.5867e+000  8.8840e-001 46572 85624,85702,85650
 5.0000e+000 85826 -4.5042e-002 -2.6351e+000 -6.3955e-001 46572 85624,85754,85702
 5.0000e+000 85803  2.3057e+000  7.3895e+000  1.8307e+000 46572 85702,85754,85728
 5.0000e+000 85780  2.2851e-001  5.1700e+000 -2.8145e+000 46572 85650,85702,85676
 5.0000e+000 86070  1.9396e+001  3.0086e+001  9.1961e-001 46374 85920,85972,85946
 5.0000e+000 86047  1.7695e+001  2.4513e+001 -3.4366e-001 46374 85920,85998,85972
 5.0000e+000 86024  7.0211e+000  1.9214e+001 -7.2396e+000 46374 85894,85998,85920
 5.0000e+000 86401 -1.0364e+000  1.0374e+001  5.0253e+000 46034 86424,86280,86228
 5.0000e+000 86378 -7.7484e+000  1.2058e+001  4.7925e+000 46034 86424,86228,86176
 5.0000e+000 86355 -1.0697e+001  6.5140e+000  3.3338e+000 46034 86176,86228,86202
 5.0000e+000 86332  3.7579e+000  1.2373e+001 -2.9429e+000 46034 86228,86280,86254
 5.0000e+000 86450  1.0871e+001  1.0429e+001  2.1234e+000 46034 86306,86280,86424
 5.0000e+000 86473 -1.9866e+000  7.5929e+000  1.6208e+000 46034 86306,86424,86176
 5.0000e+000 87058  3.2368e-001  1.4373e+001  2.2297e+000 45516 86813,86917,86865
 5.0000e+000 87035  5.2659e+000  2.4153e+001 -2.5648e-002 45516 86787,86917,86813
 5.0000e+000 87012  3.7143e+000  2.4741e+001 -1.0218e+000 45516 86735,86917,86787
 5.0000e+000 86989  2.4927e+000  1.4975e+001  1.9506e+000 45516 86865,86917,86891
 5.0000e+000 86966 -1.2890e+000  2.0418e+001  2.7265e+000 45516 86813,86865,86839
 5.0000e+000 86943  2.0766e+000  3.2725e+001  3.7015e+000 45516 86735,86787,86761
 5.0000e+000 87208  3.4996e+000  2.2958e+001 -5.2783e+000 45226 87231,87133,87107
 5.0000e+000 87185  8.7329e+000  2.1120e+001 -1.0469e+001 45226 87081,87159,87133
 5.0000e+000 87257  1.0973e+000  8.2466e+000 -3.7476e+000 45226 87081,87133,87231
 5.0000e+000 87537 -4.3071e+000  1.5299e+001 -1.0847e+001 44772 87387,87439,87413
 5.0000e+000 87514  2.1193e+000  1.1227e+001  1.0681e+000 44772 87361,87439,87387
 5.0000e+000 87491  1.8206e+000  6.9028e+000  1.8555e+000 44772 87361,87465,87439
 5.0000e+000 87996  1.9000e+000  1.3133e+001  3.2346e+000 44425 87748,87878,87852
 5.0000e+000 87973  1.6682e-002  1.2493e+001  1.7939e-001 44425 87722,87878,87748
 5.0000e+000 87950  9.2511e-001  6.2978e+000  7.5979e-001 44425 87800,87852,87826
 5.0000e+000 87927  8.5692e+000  1.1041e+001  3.0276e+000 44425 87748,87852,87800
 5.0000e+000 87904  2.7634e-001  1.7912e+001 -5.0852e+000 44425 87748,87800,87774
 5.0000e+000 88423  2.8958e+000  7.9687e+000 -2.6859e-001 44078 88590,88230,88204
 5.0000e+000 88400  4.1966e+000  1.2911e+001 -7.5171e-001 44078 88518,88446,88204
 5.0000e+000 88377  2.0104e+000  6.4685e+000 -2.0666e-003 44078 88446,88126,88282
 5.0000e+000 88354  3.9097e+000  1.5290e+001 -2.0432e+000 44078 88518,88204,88178
 5.0000e+000 88331  1.6857e+000  6.5694e+000 -1.7093e-001 44078 88100,88282,88126
 5.0000e+000 88308  3.8770e-002 -6.9526e-001 -2.2596e-001 44078 88126,88178,88152
 5.0000e+000 88472  2.7541e+000  7.7783e+000 -7.4528e-001 44078 88590,88204,88446
 5.0000e+000 88495  3.4693e+000  6.4758e+000 -2.1465e+000 44078 88256,88446,88282
 5.0000e+000 88544  4.6015e+000  7.5551e+000 -3.9039e-001 44078 88126,88446,88518
 5.0000e+000 88567  5.7241e+000  1.1912e+001 -1.5984e+000 44078 88126,88518,88178
 5.0000e+000 88616  5.9918e+000  4.0930e+000  8.3097e-001 44078 88256,88230,88590
 5.0000e+000 88639  4.2668e+000  8.5711e+000 -1.2561e+000 44078 88256,88590,88446
 5.0000e+000 89039  4.3943e+000  1.1810e+001  1.0145e+000 43716 88791,88921,88895
 5.0000e+000 89016  5.4723e+000  1.3284e+001  1.5317e+000 43716 88765,88921,88791
 5.0000e+000 88993  8.1103e+000  8.9648e+000  7.2122e-001 43716 88817,88895,88869
 5.0000e+000 88970  8.6885e+000  1.2038e+001  2.5518e+000 43716 88791,88895,88817
 5.0000e+000 88947 -1.5670e+000  4.2002e+000  2.2611e+000 43716 88817,88869,88843
 5.0000e+000 89496 -1.8596e+000  2.1330e+001  2.4290e+000 43162 89519,89274,89248
 5.0000e+000 89473 -2.7551e+000  1.9119e+001  1.8564e+000 43162 89519,89248,89222
 5.0000e+000 89450  4.8976e+000  2.0334e+001  4.6727e+000 43162 89326,89378,89352
 5.0000e+000 89427  3.1870e-001  2.2864e+001  1.9149e+000 43162 89274,89378,89326
 5.0000e+000 89404  1.4207e+000  1.3170e+001  1.6556e-001 43162 89274,89326,89300
 5.0000e+000 89545 -1.3243e+000  1.9174e+001  1.6037e+000 43162 89378,89274,89519
 5.0000e+000 89568 -2.3882e+000  1.6773e+001  9.8415e-001 43162 89378,89519,89222
 5.0000e+000 89946  2.2401e+000  9.9180e+000 -5.3224e+000 42594 90041,89969,89750
 5.0000e+000 89923 -1.1810e+000  2.3532e+000 -1.0434e+000 42594 89969,89698,89828
 5.0000e+000 89900  3.0994e+000  1.0675e+001 -5.6500e+000 42594 90041,89750,89724
 5.0000e+000 89877  3.7592e-001  1.9269e+000 -2.5465e+000 42594 89750,89802,89776
 5.0000e+000 89854 -5.9736e-001 -9.7006e-001 -2.9059e-001 42594 89672,89828,89698
 5.0000e+000 89995  3.6823e-001  5.7759e+000 -4.6909e+000 42594 89802,89750,89969
 5.0000e+000 90018  2.0974e+000  8.2558e+000 -3.0096e+000 42594 89802,89969,89828
 5.0000e+000 90067  3.7554e+000  4.2779e+000 -5.0214e+000 42594 89698,89969,90041
 5.0000e+000 90090  8.6908e+000  9.4205e+000 -7.0421e+000 42594 89698,90041,89724
 5.0000e+000 90517  6.6545e+000  1.2787e+001  5.4576e-001 42140 90540,90220,90194
 5.0000e+000 90494  1.3094e+001  2.2752e+001 -2.2866e+000 42140 90540,90194,90376
 5.0000e+000 90471  1.7065e+001  1.3626e+001 -2.6520e+000 42140 90612,90350,90272
 5.0000e+000 90448  1.5292e+001 -5.1429e-002 -3.2984e+000 42140 90272,90350,90298
 5.0000e+000 90425  2.1099e+001  1.8279e+001 -4.2345e-001 42140 90298,90350,90324
 5.0000e+000 90402  7.9612e+000 -9.8739e-002  1.7625e+000 42140 90220,90272,90246
 5.0000e+000 90566  1.1445e+001  1.6270e+000  8.4934e-001 42140 90272,90220,90540
 5.0000e+000 90589  1.6586e+001  1.2576e+001 -1.2210e+000 42140 90612,90272,90540
 5.0000e+000 90638  1.4180e+001  1.6236e+001 -1.8596e-001 42140 90376,90350,90612
 5.0000e+000 90661  1.0320e+001  1.2428e+001  1.6979e+000 42140 90376,90612,90540
 5.0000e+000 91167  1.9405e+000  5.5210e+000  3.5361e-001 41636 91190,90870,90844
 5.0000e+000 91144  1.0139e+000  1.6074e+000  7.2535e-001 41636 91190,90844,91026
 5.0000e+000 91121  4.2258e+000  1.0798e+001  4.1031e+000 41636 90870,90922,90896
 5.0000e+000 91098  4.4718e+000  4.6751e+000 -2.9176e+000 41636 90922,91026,90948
 5.0000e+000 91075  4.3879e+000  2.5578e+000 -8.7381e-001 41636 90948,91026,91000
 5.0000e+000 91052  1.1110e+001  9.4291e+000 -5.0861e+000 41636 90948,91000,90974
 5.0000e+000 91216  9.4567e-001  6.9634e+000  3.3562e-001 41636 90922,90870,91190
 5.0000e+000 91239  1.6874e+000  5.4310e+000  9.9954e-001 41636 90922,91190,91026
 5.0000e+000 91696 -1.2900e+000  1.2408e+000 -9.4593e-001 40449 91448,91526,91474
 5.0000e+000 91673 -4.4856e+000 -1.1499e+000  1.2864e+000 40449 91448,91578,91526
 5.0000e+000 91650 -4.7431e+000  1.4733e+001 -3.2052e+000 40449 91474,91526,91500
 5.0000e+000 91627  5.8282e-001 -8.7900e-001  5.4942e-001 40449 91422,91578,91448
 5.0000e+000 91604  3.4597e+000 -2.9312e+000  4.9012e-002 40449 91526,91578,91552
 5.0000e+000 92123  3.3486e+000 -4.3751e+000  5.8863e-001 39995 92146,91904,91826
 5.0000e+000 92100 -3.5324e+000 -7.0792e+000  2.1548e+000 39995 92146,91826,91800
 5.0000e+000 92077 -4.8465e+000 -3.5880e+000  1.0832e+000 39995 91826,91904,91852
 5.0000e+000 92054  1.3775e+000 -2.1386e+001 -2.5841e+000 39995 91904,91982,91930
 5.0000e+000 92031 -3.1209e+000 -2.7938e+000  1.2945e+000 39995 91852,91904,91878
 5.0000e+000 92008 -1.8898e+000 -7.9605e+000  1.2671e+000 39995 91930,91982,91956
 5.0000e+000 92172  6.4159e+000 -5.7725e+000 -2.8025e+000 39995 91982,91904,92146
 5.0000e+000 92195  2.1607e+000 -5.6740e+000 -1.9893e+000 39995 91982,92146,91800
 5.0000e+000 92652 -2.0264e-001  4.0737e+000  1.2422e+000 39633 92404,92534,92456
 5.0000e+000 92629 -1.5025e+000  7.3982e+000  1.0925e+000 39633 92378,92534,92404
 5.0000e+000 92606 -9.6670e+000 -1.6809e-001 -1.9259e-001 39633 92404,92456,92430
 5.0000e+000 92583 -1.6608e+000  7.4232e+000  3.3462e+000 39633 92456,92534,92508
 5.0000e+000 92560  1.9649e+000  5.2249e+000  5.3858e+000 39633 92456,92508,92482
 5.0000e+000 93079 -1.3994e+001 -5.2039e+000 -6.3989e+000 39093 93102,92808,92756
 5.0000e+000 93056 -1.1428e+001 -1.2666e+001  4.0087e-001 39093 93102,92756,92938
 5.0000e+000 93033 -3.6679e+000  7.8617e+000 -5.9267e+000 39093 93174,92912,92834
 5.0000e+000 93010  2.9636e+000  2.2884e+001  1.1793e+000 39093 92834,92912,92860
 5.0000e+000 92987 -1.2802e+001 -2.8658e+001 -1.4487e+001 39093 92756,92808,92782
 5.0000e+000 92964  1.0475e+001  2.7512e+001 -1.3312e+001 39093 92860,92912,92886
 5.0000e+000 93128 -1.2097e+001 -4.5366e+000 -5.7307e+000 39093 92834,92808,93102
 5.0000e+000 93151 -8.7690e+000 -3.6795e+000 -6.8641e+000 39093 93174,92834,93102
 5.0000e+000 93200 -4.2450e+000  4.7485e+000  1.9381e+000 39093 92938,92912,93174
 5.0000e+000 93223 -5.9239e+000 -4.0419e-001  1.8270e+000 39093 92938,93174,93102
 5.0000e+000 93680  1.3754e+001  1.4574e+001 -1.2802e+000 38639 93703,93536,93484
 5.0000e+000 93657  1.3088e+001  1.5609e+001 -1.2016e+000 38639 93703,93484,93432
 5.0000e+000 93634  5.7124e+000  1.4984e+001 -3.5239e+000 38639 93432,93484,93458
 5.0000e+000 93611  1.6227e+001  2.5874e+001  1.4803e+001 38639 93484,93536,93510
 5.0000e+000 93588  9.4677e+000  8.4270e+000 -3.3154e+000 38639 93406,93562,93432
 5.0000e+000 93729  1.3425e+001  1.3021e+001 -1.6013e+000 38639 93562,93536,93703
 5.0000e+000 93752  1.3256e+001  1.4897e+001 -1.7631e+000 38639 93562,93703,93432
 5.0000e+000 94160 -1.0193e+000  2.3236e+000  2.3445e+000 38292 93935,94039,93961
 5.0000e+000 94137  1.1231e+000  9.5286e+000 -2.5929e-001 38292 93935,94065,94039
 5.0000e+000 94114  5.8466e+000  7.2553e+000  3.1550e+000 38292 93961,94013,93987
 5.0000e+000 94091  1.7726e+000  1.0103e+001  8.4288e-001 38292 93961,94039,94013
 5.0000e+000 94408  7.3878e-001 -3.1246e-001  6.1997e-001 37880 94431,94261,94235
 5.0000e+000 94385 -8.7125e-001 -3.3305e+000 -7.5361e-002 37880 94431,94235,94313
 5.0000e+000 94362 -2.7910e-001 -2.5127e+000 -4.7450e-001 37880 94209,94313,94235
 5.0000e+000 94339 -8.8254e-001 -1.0560e+000 -5.3087e+000 37880 94183,94313,94209
 5.0000e+000 94457  3.2944e+000 -3.5507e+000  1.3766e+000 37880 94287,94261,94431
 5.0000e+000 94480  1.5659e+000 -6.2012e+000  3.8538e-001 37880 94287,94431,94313
 5.0000e+000 94728  2.7972e-001  4.8573e+000 -1.5064e+000 37426 94529,94607,94555
 5.0000e+000 94705  4.9862e+000 -1.1625e+001 -4.3552e+000 37426 94529,94633,94607
 5.0000e+000 94682  6.5232e-001 -8.7480e+000 -3.1064e+000 37426 94503,94633,94529
 5.0000e+000 94659  3.6156e-001  8.4602e-001  5.1786e-001 37426 94555,94607,94581
 5.0000e+000 95257 -3.4756e-002  3.2483e+000  4.5723e-001 36722 95496,95280,94862
 5.0000e+000 95234 -7.2158e-001  2.5757e+000 -1.9367e+000 36722 95496,94862,94836
 5.0000e+000 95211  4.7364e-001  3.6182e+000  6.8884e-001 36722 95352,95280,95070
 5.0000e+000 95188 -1.0247e-001 -9.2225e-001 -4.7471e-001 36722 95352,95070,95044
 5.0000e+000 95165  2.4840e+000  5.9633e+000 -4.2856e+000 36722 95424,94888,94862
 5.0000e+000 95142 -9.8231e+000  1.1229e+001 -2.3635e-001 36722 94914,94966,94940
 5.0000e+000 95119  4.5291e-001  1.1578e+000  3.6397e-001 36722 94966,95044,95018
 5.0000e+000 95096  6.3228e-001  1.1186e+000  5.6562e-001 36722 94966,95018,94992
 5.0000e+000 95306 -3.1935e+000  5.8256e+000 -1.6022e+000 36722 95424,94862,95280
 5.0000e+000 95329 -1.6757e+000  1.4413e+001 -2.3371e-001 36722 94914,95280,94966
 5.0000e+000 95378  9.1548e-001  5.1696e+000  2.8783e+000 36722 94966,95280,95352
 5.0000e+000 95401  1.9611e+000  3.5154e+000  1.6072e+000 36722 94966,95352,95044
 5.0000e+000 95450 -5.8137e+000  2.8219e+000 -3.8428e+000 36722 94914,94888,95424
 5.0000e+000 95473 -6.8076e+000  4.2137e+000 -1.9608e+000 36722 94914,95424,95280
 5.0000e+000 95522 -1.3669e-001  1.8673e+000  5.1971e-001 36722 95070,95280,95496
 5.0000e+000 95545  2.9533e-001  1.4075e+000  1.9032e-001 36722 95070,95496,94836
 5.0000e+000 96130  1.7027e+000  6.6531e-001  7.4423e-001 36268 96153,95911,95859
 5.0000e+000 96107  1.7919e+000  1.3328e+001  9.6097e-001 36268 96153,95859,95807
 5.0000e+000 96084 -3.9881e-002  1.3262e+001  5.2717e+000 36268 95807,95859,95833
 5.0000e+000 96061 -5.6102e+000  1.6215e+000 -3.1504e+000 36268 95911,95989,95937
 5.0000e+000 96038 -1.4734e+000  4.8632e-001  6.3895e+000 36268 95859,95911,95885
 5.0000e+000 96015  1.7952e+000  2.4869e+000 -2.8719e+000 36268 95937,95989,95963
 5.0000e+000 96179 -2.9339e+000  1.1433e+001 -2.1410e+000 36268 95989,95911,96153
 5.0000e+000 96202 -4.1872e-001  2.7443e+001 -1.5848e+000 36268 95989,96153,95807
 5.0000e+000 96531  5.2128e-001  4.7035e+000 -1.9311e+000 35728 96358,96410,96384
 5.0000e+000 96508  7.7887e+000  9.3705e+000 -3.9285e+000 35728 96332,96410,96358
 5.0000e+000 96485  2.6151e+000  6.0312e+000  2.4275e+000 35728 96332,96436,96410
 5.0000e+000 96462  7.2176e-001  1.1288e+001 -3.5823e+000 35728 96306,96436,96332
 5.0000e+000 96860  1.7747e+000  3.3873e-001  4.6539e-001 35324 96687,96765,96713
 5.0000e+000 96837  1.7363e+000  9.9022e-001  2.2529e+000 35324 96661,96765,96687
 5.0000e+000 96814  3.4413e+000 -1.2299e+000  1.4215e+000 35324 96713,96765,96739
 5.0000e+000 96791  2.8130e+000 -4.4883e-001  1.9923e+000 35324 96635,96765,96661
 5.0000e+000 97366  1.5108e+000  2.3671e+000  2.8186e-001 34920 97389,97069,97043
 5.0000e+000 97343  2.1399e+000  2.3606e+000  9.9029e-001 34920 97389,97043,97199
 5.0000e+000 97320  2.3238e+000  2.8352e+000  9.4189e-001 34920 97043,97225,97199
 5.0000e+000 97297  3.6820e+000  1.7228e+000 -3.7554e-001 34920 97069,97121,97095
 5.0000e+000 97274  3.9596e+000  1.1396e+000  3.6175e-001 34920 97121,97199,97173
 5.0000e+000 97251  3.8842e+000  3.0016e+000 -1.1250e+000 34920 97121,97173,97147
 5.0000e+000 97415  7.9400e-001  2.1177e+000  4.7750e-002 34920 97121,97069,97389
 5.0000e+000 97438  1.0157e+000  2.0818e+000  8.7525e-001 34920 97121,97389,97199
 5.0000e+000 97708 -4.7419e+000  4.1476e+000  3.1823e+000 34722 97509,97587,97535
 5.0000e+000 97685 -6.2066e+000  1.1196e+001  2.0574e+000 34722 97509,97613,97587
 5.0000e+000 97662  2.7053e+000  1.6721e+001  5.2589e+000 34722 97483,97613,97509
 5.0000e+000 97639 -1.3430e+001 -7.1865e+000 -1.1590e+001 34722 97535,97587,97561
 5.0000e+000 98216  2.2347e-001  5.0436e+000 -1.3302e+000 34318 97971,98075,97997
 5.0000e+000 98193 -2.0705e-001  2.4322e+000 -5.4303e-001 34318 97893,98075,97971
 5.0000e+000 98170 -1.3653e+000  2.3110e+000  4.1593e-002 34318 97893,97971,97919
 5.0000e+000 98147  1.2251e+000  7.9679e+000 -1.3858e+000 34318 97997,98075,98049
 5.0000e+000 98124 -9.0318e-001  4.8466e+000 -1.2184e+000 34318 97919,97971,97945
 5.0000e+000 98101  7.5295e-001  6.7108e+000 -1.9298e+000 34318 97997,98049,98023
 5.0000e+000 98594  3.9747e+000  6.7719e+000 -2.0083e+000 33814 98961,98617,98424
 5.0000e+000 98571  1.3352e+001  7.6314e+000 -8.6903e-001 33814 98689,98617,98372
 5.0000e+000 98548  1.3754e+001  1.2793e+001 -1.5174e+000 33814 99033,98689,98372
 5.0000e+000 98525  1.4114e+001  9.9772e+000 -5.1227e+000 33814 98761,98476,98450
 5.0000e+000 98502  1.6864e+000  4.4589e+000 -2.9473e+000 33814 98961,98424,98398
 5.0000e+000 98643  8.5007e+000  6.6593e+000 -4.7152e+000 33814 98450,98424,98617
 5.0000e+000 98666  9.0445e+000  8.6474e+000 -4.7572e+000 33814 98761,98450,98617
 5.0000e+000 98715  1.4383e+001  9.9052e+000 -2.6161e+000 33814 99161,98689,98320
 5.0000e+000 98738  6.2066e+000  7.4235e+000 -3.7359e-001 33814 98320,98689,98346
 5.0000e+000 98787  1.3320e+001  9.8767e+000 -7.0597e+000 33814 98833,98761,98320
 5.0000e+000 98810  1.3033e+001  1.1403e+001 -5.7244e+000 33814 99161,98320,98761
 5.0000e+000 98859  1.3169e+001  1.0815e+001 -7.2863e+000 33814 98476,98761,98833
 5.0000e+000 98987  1.0127e+001  2.4544e-001 -2.5107e+000 33814 98372,98617,98961
 5.0000e+000 99010  6.3338e+000 -4.1343e+000 -4.1988e+000 33814 98372,98961,98398
 5.0000e+000 99059  1.3395e+001  1.0704e+001  3.9159e-001 33814 98346,98689,99033
 5.0000e+000 99187  1.2321e+001  4.7603e+000 -2.5425e+000 33814 98617,98689,99161
 5.0000e+000 99210  1.1460e+001  6.9830e+000 -5.8616e+000 33814 98617,99161,98761
 5.0000e+000 99588  1.1414e+000 -2.8002e+000  1.8504e-001 33566 99366,99444,99392
 5.0000e+000 99565  8.1194e-001 -9.3280e-002  6.3244e-001 33566 99314,99444,99366
 5.0000e+000 99542  9.4509e-001 -3.0667e+000 -9.6694e-001 33566 99314,99366,99340
 5.0000e+000 99519  1.3508e+000  1.7318e+000 -1.6379e+000 33566 99314,99470,99444
 5.0000e+000 99496 -5.2057e-001 -4.2274e+000  1.4490e+000 33566 99392,99444,99418
 5.0000e+000 99787  3.4612e+000  1.4785e+000  3.5016e+000 33105 99637,99689,99663
 5.0000e+000 99764  1.9134e+000  2.0218e+000  1.5433e+000 33105 99611,99689,99637
 5.0000e+000 99741  2.6862e+000  1.6411e+000  8.8239e-001 33105 99611,99715,99689
 5.0000e+000 100167  8.1459e+000  4.3401e+000  5.1716e+000 32651 100190,99971,99919
 5.0000e+000 100144  4.1061e+000  6.6241e+000  5.7389e+000 32651 100262,100190,99919
 5.0000e+000 100121  3.0339e+000  6.8430e+000  5.0374e+000 32651 100262,99919,100049
 5.0000e+000 100098  7.2582e-001  6.0196e+000  1.0258e+000 32651 99893,100049,99919
 5.0000e+000 100075 -2.6978e-001 -6.0923e-001  3.8454e-001 32651 99919,99971,99945
 5.0000e+000 100216  4.1346e+000  9.5825e-001  2.7291e+000 32651 99997,99971,100190
 5.0000e+000 100239  4.4428e+000  5.4426e+000  4.2515e+000 32651 99997,100190,100023
 5.0000e+000 100288  2.8872e+000  5.4475e+000  5.2573e+000 32651 100023,100190,100262
 5.0000e+000 100311  7.4280e-001  5.2276e+000  4.2821e+000 32651 100023,100262,100049
 5.0000e+000 100608 -3.2252e-001 -2.8335e+000  2.9827e-001 32254 100386,100490,100464
 5.0000e+000 100585 -5.9541e-002 -1.0687e+000  3.1766e-002 32254 100360,100490,100386
 5.0000e+000 100562 -8.8294e-001 -3.6328e+000 -1.1787e-001 32254 100386,100464,100412
 5.0000e+000 100539 -1.3941e-001 -1.0837e+000  9.7584e-002 32254 100334,100490,100360
 5.0000e+000 100516  1.5973e+000 -5.5430e-001  1.1664e+000 32254 100412,100464,100438
 5.0000e+000 100758  5.6948e+000 -8.7622e-001 -7.6476e+000 31914 100985,100781,100683
 5.0000e+000 100735  5.2493e+000  4.2428e+000 -4.5426e+000 31914 100853,100781,100657
 5.0000e+000 100807  1.2015e+001  7.0572e+000 -1.0933e+001 31914 100709,100683,100781
 5.0000e+000 100830  2.9297e+000  4.3538e+000 -6.9791e+000 31914 100709,100781,100631
 5.0000e+000 100879  4.3176e+000  3.7928e+000 -4.1655e+000 31914 100631,100781,100853
 5.0000e+000 101011  7.4087e+000  3.5057e+000 -7.1813e+000 31914 100657,100781,100985
 5.0000e+000 101191 -3.4199e+000  1.8633e+000 -3.4433e-001 31418 101113,101165,101139
 5.0000e+000 101341 -1.1160e+001 -2.5432e+000 -1.7220e+000 31106 101214,101266,101240
 5.0000e+000 101318 -2.3211e-001  3.0500e+001  3.8293e+000 31106 101214,101292,101266
 5.0000e+000 101591 -1.6383e+001 -6.5182e+000  2.6899e-001 30552 101614,101470,101444
 5.0000e+000 101568 -1.4653e+001 -9.1111e+000 -2.4396e+000 30552 101366,101496,101470
 5.0000e+000 101545 -1.5803e+001 -2.5275e+000  9.7762e-001 30552 101614,101444,101392
 5.0000e+000 101522 -1.1968e+001  5.3208e-001 -5.2669e-001 30552 101392,101444,101418
 5.0000e+000 101640 -1.6005e+001 -9.2182e+000 -2.4406e+000 30552 101366,101470,101614
 5.0000e+000 101663 -1.5391e+001 -5.3936e+000 -1.6321e+000 30552 101366,101614,101392
 5.0000e+000 102301  2.5644e+000  9.9831e+000 -7.8074e+000 30042 102396,102324,102059
 5.0000e+000 102278  5.5663e+000  4.0767e+000 -1.2889e+001 30042 102324,101981,101955
 5.0000e+000 102255 -9.7947e-001  1.0847e+001 -5.4688e+000 30042 102396,102059,102033
 5.0000e+000 102232 -3.0608e+000  1.0317e+001  2.8180e+000 30042 101929,102111,101955
 5.0000e+000 102209  5.4207e+000  9.4529e+000  3.8997e+000 30042 102059,102111,102085
 5.0000e+000 102186  5.8749e+000  1.5027e+001  2.2086e-001 30042 101929,102137,102111
 5.0000e+000 102163  3.0986e-001  8.0851e+000  8.9420e-001 30042 101981,102033,102007
 5.0000e+000 102350  1.4216e+001  1.1492e+001 -5.9616e-002 30042 102111,102059,102324
 5.0000e+000 102373  7.1748e+000 -9.8779e-001 -2.9815e+000 30042 102111,102324,101955
 5.0000e+000 102422  8.4174e+000  1.3686e+001 -1.0721e+001 30042 101981,102324,102396
 5.0000e+000 102445  4.5120e+000  1.4378e+001 -8.3838e+000 30042 101981,102396,102033
 5.0000e+000 103000  7.0338e+000  1.1509e+001 -9.4331e-001 29730 103023,102706,102654
 5.0000e+000 102977  8.7425e+000  1.2702e+001 -1.5557e+000 29730 103023,102654,102810
 5.0000e+000 102954  8.0559e+000  8.6096e+000 -2.7250e-001 29730 102732,102810,102784
 5.0000e+000 102931  7.2794e+000  9.3620e+000 -2.6713e+000 29730 102628,102810,102654
 5.0000e+000 102908  1.0315e+001  1.5852e+001 -2.5922e+000 29730 102654,102706,102680
 5.0000e+000 102885  1.1035e+001  9.4244e+000  5.5086e+000 29730 102732,102784,102758
 5.0000e+000 102862  6.6904e+000  9.1000e+000 -2.6635e+000 29730 102628,102836,102810
 5.0000e+000 103049  7.8384e+000  1.0279e+001  1.9887e-001 29730 102732,102706,103023
 5.0000e+000 103072  8.9544e+000  1.1396e+001 -3.0893e-001 29730 102732,103023,102810
 5.0000e+000 103222  4.5962e+000 -2.9426e+000  7.5438e-001 29226 103095,103147,103121
 5.0000e+000 103199  3.1547e+000 -1.4573e+000  2.4317e-001 29226 103095,103173,103147
 5.0000e+000 103730  3.6524e+000  8.8371e+000  1.2039e+000 28822 103537,103589,103563
 5.0000e+000 103707  3.2536e+000  1.4184e+001  2.0648e+000 28822 103433,103589,103537
 5.0000e+000 103684  1.5358e+001  1.8212e+001  3.4455e+000 28822 103433,103537,103459
 5.0000e+000 103661  1.6122e+001  9.9543e+000  6.4521e+000 28822 103407,103589,103433
 5.0000e+000 103638  7.5958e+000  1.3948e+001  2.4706e+000 28822 103459,103511,103485
 5.0000e+000 103615  8.9137e-001  1.4256e+001  2.2668e+000 28822 103459,103537,103511
 5.0000e+000 103880  9.9835e+000  1.5378e+001 -9.1107e-001 28368 103975,103903,103779
 5.0000e+000 103857  1.0447e+000  1.1848e+001 -3.3106e+000 28368 103903,103753,103831
 5.0000e+000 103929  2.6055e+000  1.3426e+001 -4.9244e+000 28368 103805,103779,103903
 5.0000e+000 103952 -1.4062e+000  1.4953e+001 -4.7084e+000 28368 104105,103903,103831
 5.0000e+000 104001  3.8652e+000  1.1172e+001 -3.9857e+000 28368 103753,103903,103975
 5.0000e+000 104131 -5.8820e+000  1.3696e+001 -3.8097e+000 28368 103805,103903,104105
 5.0000e+000 104539  5.2351e+000  5.5127e+000  1.6856e+000 28028 104562,104340,104314
 5.0000e+000 104516  3.5587e+000  4.1145e+000  2.6606e+000 28028 104634,104562,104314
 5.0000e+000 104493  5.5931e+000  4.7284e+000  4.4637e+000 28028 104762,104366,104340
 5.0000e+000 104470  3.5825e+000  2.5675e+000  3.7181e+000 28028 104366,104418,104392
 5.0000e+000 104588  4.0369e+000  5.8426e+000  3.0113e+000 28028 104762,104340,104562
 5.0000e+000 104611  3.1307e+000  5.4310e+000  2.0156e+000 28028 104418,104562,104444
 5.0000e+000 104660  1.1987e+000  4.5973e+000  1.9422e+000 28028 104444,104562,104634
 5.0000e+000 104788  4.3825e+000  2.9916e+000  3.8760e+000 28028 104418,104366,104762
 5.0000e+000 104811  2.4441e+000  3.4548e+000  2.2696e+000 28028 104418,104762,104562
 5.0000e+000 105010  8.3432e-001  4.0267e+000 -2.4115e+000 27324 105033,104886,104860
 5.0000e+000 104987 -6.1834e-001  2.0954e+000 -6.0521e+000 27324 105033,104860,104834
 5.0000e+000 104964 -2.9861e+000  5.6230e+000 -5.1609e+000 27324 105105,104912,104886
 5.0000e+000 105059 -5.4219e-001  3.5182e+000 -4.8813e+000 27324 105105,104886,105033
 5.0000e+000 105082 -1.4653e+000 -4.3939e+000 -7.2587e+000 27324 104938,105033,104834
 5.0000e+000 105131 -4.0768e+000  3.5045e+000 -3.3200e+000 27324 104938,104912,105105
 5.0000e+000 105154 -2.6732e+000 -1.8952e-001 -3.0887e+000 27324 104938,105105,105033
 5.0000e+000 105402 -3.6533e-001 -1.5496e+000  4.0469e-002 27012 105229,105281,105255
 5.0000e+000 105379  1.4695e-001 -2.1123e-001 -4.2316e-001 27012 105229,105307,105281
 5.0000e+000 105356  2.7935e+000  1.6574e+000  3.9374e-001 27012 105177,105307,105229
 5.0000e+000 105333 -1.0730e+000 -2.5076e+000 -2.3056e+000 27012 105177,105229,105203
 5.0000e+000 105603  1.7153e+000  2.8254e+000 -1.6423e-002 26508 105626,105453,105427
 5.0000e+000 105580  1.6368e+000  2.5485e+000  1.3259e+000 26508 105626,105427,105505
 5.0000e+000 105557  7.6640e-001  2.5489e+000  1.2106e+000 26508 105427,105531,105505
 5.0000e+000 105652  6.1930e-001  2.3441e+000  2.6762e-001 26508 105479,105453,105626
 5.0000e+000 105675  3.7916e-001  2.2431e+000  1.4907e+000 26508 105479,105626,105505
 5.0000e+000 106057 -9.6809e-001 -1.6149e+000  1.8537e+000 25947 106080,105887,105861
 5.0000e+000 106034 -5.4198e-001 -9.3099e-001  1.3387e+000 25947 106080,105861,105783
 5.0000e+000 106011 -1.9125e-001  4.8101e-002  7.5409e-001 25947 105783,105835,105809
 5.0000e+000 105988 -3.7544e+000 -1.2139e-001  2.0394e+000 25947 105783,105861,105835
 5.0000e+000 105965  4.4078e-001 -1.1673e+000  1.1588e+000 25947 105887,105939,105913
 5.0000e+000 106106 -8.2932e-001 -1.3133e+000  1.2411e+000 25947 105939,105887,106080
 5.0000e+000 106129  1.2422e-001 -3.7558e-002  6.2944e-001 25947 105939,106080,105783
 5.0000e+000 106714  1.5390e+000  3.0848e+000  3.6573e+000 25557 106809,106737,106547
 5.0000e+000 106691  2.6614e+000  3.8282e+000  3.1605e+000 25557 106737,106417,106391
 5.0000e+000 106668  2.8837e+000  3.3699e+000  3.5382e+000 25557 106809,106547,106495
 5.0000e+000 106645  3.9083e+000  2.6115e+000  2.4857e+000 25557 106417,106495,106469
 5.0000e+000 106622  1.8918e+000  3.4690e+000  4.2000e+000 25557 106495,106547,106521
 5.0000e+000 106599  2.8832e+000  3.0451e+000  2.1812e+000 25557 106417,106469,106443
 5.0000e+000 106763 -1.3431e+000  1.7048e+000  5.6175e+000 25557 106573,106547,106737
 5.0000e+000 106786  2.2826e+000  3.4239e+000  4.1284e+000 25557 106573,106737,106391
 5.0000e+000 106835  3.1553e+000  2.8517e+000  4.2485e+000 25557 106417,106737,106809
 5.0000e+000 106858  3.9194e+000  2.6797e+000  3.9490e+000 25557 106417,106809,106495
 5.0000e+000 107364  3.3030e+000  3.1682e+000  3.3457e+000 25153 107459,107387,107171
 5.0000e+000 107341  2.9749e+000  3.2154e+000  3.3514e+000 25153 107387,107119,107067
 5.0000e+000 107318  3.3433e+000  3.2432e+000  3.4156e+000 25153 107459,107171,107145
 5.0000e+000 107295  3.2074e+000  2.6430e+000  1.5277e+000 25153 107531,107223,107197
 5.0000e+000 107272  3.0151e+000  3.0223e+000  3.0148e+000 25153 107067,107119,107093
 5.0000e+000 107249  3.5467e+000  5.0466e+000  1.3701e+000 25153 107041,107223,107067
 5.0000e+000 107413  3.7512e+000  2.8774e+000  3.8263e+000 25153 107197,107171,107387
 5.0000e+000 107436  2.8573e+000  1.4829e+000  3.0890e+000 25153 107531,107197,107387
 5.0000e+000 107485  3.3461e+000  3.2950e+000  3.4428e+000 25153 107119,107387,107459
 5.0000e+000 107508  3.4604e+000  3.3910e+000  3.5254e+000 25153 107119,107459,107145
 5.0000e+000 107557  3.8632e+000  4.0873e+000  1.3827e+000 25153 107067,107223,107531
 5.0000e+000 107580  4.0510e+000  4.2125e+000  2.9172e+000 25153 107067,107531,107387
 5.0000e+000 107958 -9.8616e-001  4.2223e+000  5.6988e-001 24741 107736,107814,107788
 5.0000e+000 107935 -8.7604e+000 -8.4650e-001 -1.9869e+000 24741 107736,107840,107814
 5.0000e+000 107912 -3.9624e-001  6.8175e+000  2.0293e+000 24741 107684,107840,107736
 5.0000e+000 107889  6.4293e-001  3.4019e+000  7.5580e-001 24741 107736,107788,107762
 5.0000e+000 107866 -3.5424e+000  7.8566e+000  8.4996e+000 24741 107684,107736,107710
 5.0000e+000 108157  5.9563e-001  8.5566e-001  5.7617e-001 24237 108180,108059,108007
 5.0000e+000 108134  1.9113e+000  1.4376e+000  7.2623e-001 24237 108180,108007,107981
 5.0000e+000 108111  6.0395e-001  8.3517e-001  5.7145e-001 24237 108007,108059,108033
 5.0000e+000 108206  9.1133e-001  1.0857e+000  1.6512e+000 24237 108085,108059,108180
 5.0000e+000 108229  2.1808e+000  1.6488e+000  1.7974e+000 24237 108085,108180,107981
 5.0000e+000 108658 -3.0267e-001  3.7766e+000  8.2359e-001 23776 108361,108413,108387
 5.0000e+000 108635 -1.5800e+000 -5.4190e+000 -1.2023e+000 23776 108753,108681,108361
 5.0000e+000 108612  1.7450e+000  1.4699e+000 -2.0027e+000 23776 108681,108465,108439
 5.0000e+000 108589 -2.4932e+000 -7.0708e+000 -9.4411e-003 23776 108753,108361,108335
 5.0000e+000 108566 -3.9109e+000 -3.3857e+000 -2.8525e+000 23776 108335,108517,108465
 5.0000e+000 108543 -2.7683e+000 -3.5186e+000 -2.1371e+000 23776 108465,108517,108491
 5.0000e+000 108707 -2.6485e+000  8.1503e-001 -7.9761e-001 23776 108413,108361,108681
 5.0000e+000 108730 -1.3380e+000  4.9908e+000  1.5828e+000 23776 108413,108681,108439
 5.0000e+000 108779 -2.5761e+000 -3.0282e-001 -2.5583e+000 23776 108465,108681,108753
 5.0000e+000 108802 -4.6511e+000 -3.9129e+000 -1.3506e+000 23776 108465,108753,108335
 5.0000e+000 109023  5.8780e-001  2.0434e+000 -1.7099e+000 23414 108873,108925,108899
 5.0000e+000 109000  3.3121e+000  3.2996e+000 -1.3657e+000 23414 108847,108925,108873
 5.0000e+000 108977  3.4695e+000  5.4038e+000  4.9093e-001 23414 108847,108951,108925
 5.0000e+000 109474  4.1977e-001  2.1306e+001 -1.4692e+000 23024 109151,109307,109177
 5.0000e+000 109451  6.9550e-001  2.0697e-001  4.2816e-001 23024 109151,109333,109307
 5.0000e+000 109428  1.2432e+001  7.3161e-001  2.9342e-001 23024 109177,109281,109203
 5.0000e+000 109405  1.2455e+001  1.3747e+001 -7.1692e+000 23024 109177,109307,109281
 5.0000e+000 109382  6.8926e+000 -9.1907e-001 -2.8721e-002 23024 109203,109281,109229
 5.0000e+000 109359  3.9214e+000  1.1176e+000 -1.9983e+000 23024 109229,109281,109255
 5.0000e+000 109820  6.5705e+000 -9.0054e-001 -1.5137e+000 22506 109843,109601,109523
 5.0000e+000 109797 -1.0433e+000 -1.8734e-001 -1.6140e+000 22506 109843,109523,109497
 5.0000e+000 109774 -4.6140e+000 -5.1888e+000  9.6452e-002 22506 109915,109653,109627
 5.0000e+000 109751 -7.7351e+000 -1.6254e+000  2.3360e-001 22506 109497,109679,109653
 5.0000e+000 109728  5.2165e+000 -4.4432e+000 -7.2649e+000 22506 109523,109601,109575
 5.0000e+000 109705  2.2878e+000 -1.2091e+001 -8.4836e+000 22506 109523,109575,109549
 5.0000e+000 109869 -5.1707e-001 -1.3364e+000 -1.8498e+000 22506 109627,109601,109843
 5.0000e+000 109892 -3.0288e+000 -1.1330e+000 -1.6436e-001 22506 109915,109627,109843
 5.0000e+000 109941 -4.2758e+000 -1.3014e+000 -2.4482e+000 22506 109497,109653,109915
 5.0000e+000 109964 -3.9914e+000 -4.2564e-001 -3.0080e+000 22506 109497,109915,109843
 5.0000e+000 110163  4.3792e-001  3.5323e+000  2.0747e+000 21936 110186,110039,110013
 5.0000e+000 110140  6.4480e+000  2.5433e+000  8.3536e-001 21936 110390,110186,110013
 5.0000e+000 110117  1.0201e+001 -3.0833e-001  4.3534e+000 21936 110390,110013,109987
 5.0000e+000 110212 -1.0634e-001  2.1261e+000  1.7646e+000 21936 110065,110039,110186
 5.0000e+000 110235 -2.2135e+000 -1.4447e+000 -5.8358e-001 21936 110258,110186,110091
 5.0000e+000 110284 -2.9757e+000  2.6079e+000  6.2584e-001 21936 110065,110186,110258
 5.0000e+000 110416 -1.7639e+000  1.1953e+000  1.5101e+000 21936 110091,110186,110390
 5.0000e+000 110439  3.6692e+000 -5.7228e-001  4.6774e+000 21936 110091,110390,109987
 5.0000e+000 110709  1.0191e+001  1.5222e+001 -6.9683e-001 21338 110510,110614,110588
 5.0000e+000 110686  1.3483e+001  1.9335e+001  7.4738e-001 21338 110484,110614,110510
 5.0000e+000 110663  1.3742e+001  1.5977e+001  6.0241e-001 21338 110510,110562,110536
 5.0000e+000 110640  1.3953e+001  1.6143e+001 -1.8178e-001 21338 110510,110588,110562
 5.0000e+000 111296  6.1673e+000  5.1322e+000 -5.1781e+000 20934 111025,111155,111103
 5.0000e+000 111273  4.3232e-001 -2.1187e-001 -2.1635e+000 20934 110999,111155,111025
 5.0000e+000 111250  7.5902e-001  1.5414e+000 -1.1142e-001 20934 111103,111155,111129
 5.0000e+000 111227  6.9788e+000 -6.7673e+000 -5.3316e+000 20934 111051,111103,111077
 5.0000e+000 111204  6.8266e+000 -6.4542e+000 -5.1043e+000 20934 111025,111103,111051
 5.0000e+000 111181  1.9863e+000  1.3964e+000 -1.4656e+000 20934 110973,111155,110999
 5.0000e+000 111930 -5.4090e+000 -4.8308e+000 -4.9265e+000 20494 111662,111714,111688
 5.0000e+000 111907 -3.0328e+000  6.7122e-001 -3.1703e+000 20494 111584,111714,111662
 5.0000e+000 111884 -3.0047e+000 -6.3542e-001 -2.5592e+000 20494 111584,111766,111714
 5.0000e+000 111861 -3.3835e-001  5.4189e+000 -2.2021e+000 20494 111584,111636,111610
 5.0000e+000 111838 -2.8586e+000  8.9651e-001 -3.2521e+000 20494 111584,111662,111636
 5.0000e+000 111815 -1.8388e+000 -8.3272e-001 -3.5683e+000 20494 111558,111766,111584
 5.0000e+000 111792 -3.3664e+000 -1.0760e-001 -1.5285e-001 20494 111714,111766,111740
 5.0000e+000 112249  3.7730e+000 -5.3473e+000  1.4612e+000 19940 111975,112053,112001
 5.0000e+000 112226  6.4919e+000  2.7946e+000  2.0713e+000 19940 111975,112131,112053
 5.0000e+000 112203  1.7135e+000 -3.0850e+000  0.0000e+000 19940 112053,112105,112079
 5.0000e+000 112180  4.1604e+000 -1.2340e+000  8.0981e-001 19940 112053,112131,112105
 5.0000e+000 112157  6.3802e+000 -3.7622e+000  7.2749e-001 19940 112001,112053,112027
 5.0000e+000 112757  3.5269e+000  1.0190e+001  4.0632e-001 19486 112780,112538,112486
 5.0000e+000 112734  4.7767e+000  1.2957e+001 -4.8044e-001 19486 112780,112486,112460
 5.0000e+000 112711  4.0569e+000  8.9695e+000 -1.9689e+000 19486 112852,112616,112590
 5.0000e+000 112688  4.9135e+000  1.4164e+001  1.8704e+000 19486 112486,112538,112512
 5.0000e+000 112665  3.4827e+000  1.0627e+001 -7.5217e-001 19486 112434,112616,112460
 5.0000e+000 112642  8.3117e+000  1.2554e+001  4.8051e-002 19486 112538,112590,112564
 5.0000e+000 112806  7.6310e+000  1.1906e+001  3.4056e-001 19486 112590,112538,112780
 5.0000e+000 112829  4.8407e+000  1.0179e+001 -1.3679e+000 19486 112852,112590,112780
 5.0000e+000 112878  3.0543e+000  1.0981e+001 -1.6050e+000 19486 112460,112616,112852
 5.0000e+000 112901  3.4408e+000  1.2058e+001 -1.2525e+000 19486 112460,112852,112780
 5.0000e+000 113252  1.0972e+001  1.1927e+001 -8.8992e-002 19096 113105,113157,113131
 5.0000e+000 113229  1.0743e+001  1.0954e+001 -1.4649e-001 19096 113053,113157,113105
 5.0000e+000 113206  1.2417e+001  1.0643e+001 -9.6852e-001 19096 113027,113157,113053
 5.0000e+000 113183  1.1937e+001  1.3435e+001 -5.3125e-001 19096 113053,113105,113079
 5.0000e+000 113451  2.1317e+000 -2.6965e+000 -1.3785e+000 18642 113327,113379,113353
 5.0000e+000 113428  2.3946e+000 -1.7996e+000 -1.7825e+000 18642 113301,113379,113327
 5.0000e+000 113405  2.6074e-001  4.9077e-001 -9.9950e-001 18642 113275,113379,113301
 5.0000e+000 113699 -5.8945e-001  3.1157e+000 -1.4559e+000 18138 113474,113552,113526
 5.0000e+000 113676 -4.3030e+000  7.9262e-001  2.9308e-001 18138 113474,113578,113552
 5.0000e+000 113653 -3.5354e+000 -1.9320e+000  1.4675e-001 18138 113474,113604,113578
 5.0000e+000 113630 -1.0317e+000  6.7355e+000 -2.1280e+000 18138 113474,113526,113500
 5.0000e+000 113851 -2.4656e+000  6.0110e+000 -7.8268e-001 17682 113750,113802,113776
 5.0000e+000 113828  2.7548e-001  7.5992e+000 -9.4355e-002 17682 113724,113802,113750
 5.0000e+000 114383  2.2696e-001 -4.6847e+000 -2.7288e-001 17106 114086,114242,114164
 5.0000e+000 114360 -9.3338e-001 -5.1072e+000  5.6084e-001 17106 114060,114242,114086
 5.0000e+000 114337 -5.6394e+000 -1.1347e+001  2.2078e+000 17106 114086,114164,114138
 5.0000e+000 114314 -1.6880e+000 -1.4829e+001  4.1677e-001 17106 114190,114242,114216
 5.0000e+000 114291 -9.1357e-001 -1.1078e+001 -6.5090e-002 17106 114164,114242,114190
 5.0000e+000 114268 -8.6469e+000 -1.4798e+001  5.2354e-001 17106 114086,114138,114112
 5.0000e+000 114680  3.3723e-001  1.5638e-002  8.6182e-001 16766 114703,114432,114406
 5.0000e+000 114657 -4.6179e-001  1.5749e+000 -7.9004e-002 16766 114703,114406,114510
 5.0000e+000 114634 -1.5625e+000  3.2668e-001  5.7097e-001 16766 114406,114536,114510
 5.0000e+000 114611  4.3822e+000  2.8347e+000 -2.5620e-001 16766 114432,114484,114458
 5.0000e+000 114588 -3.7914e+000  1.3029e-001 -1.7362e+000 16766 114406,114562,114536
 5.0000e+000 114729  3.6597e+000  1.5547e+000  4.0294e-001 16766 114484,114432,114703
 5.0000e+000 114752  5.4215e-001  1.7187e+000 -1.3559e-001 16766 114484,114703,114510
 5.0000e+000 114902  3.7882e-001 -8.0774e+000 -2.2898e+000 16362 114775,114827,114801
 5.0000e+000 114879  1.3376e+000 -9.5035e+000 -2.0096e+000 16362 114775,114853,114827
 5.0000e+000 115054 -1.1479e+001 -1.3082e+001  9.8774e-001 15908 114953,115005,114979
 5.0000e+000 115031 -1.1754e+001 -1.7858e+001  6.1760e-001 15908 114927,115005,114953
 5.0000e+000 115326  1.0040e+001  1.3642e+001  1.7876e+000 15251 115101,115179,115153
 5.0000e+000 115303  5.5261e+000  1.1724e+001  2.1995e+000 15251 115101,115231,115179
 5.0000e+000 115280  7.3297e+000  1.5698e+001  1.7527e+000 15251 115179,115231,115205
 5.0000e+000 115257  1.8658e+000 -2.5521e+000 -6.8496e-001 15251 115101,115153,115127
 5.0000e+000 115429  2.3000e+000  3.9665e+000 -3.7562e+000 421 115351,115403,115377
