time zIndex S11 S22 S12 block gridPoints
f i f f f i l
 1.0000e-001 69066  5.7795e-001  2.7592e+001 -3.1674e+000 68738 68965,69017,68991
 1.0000e-001 69043  9.4186e-002  2.8096e+001 -1.0070e+000 68738 68939,69017,68965
 1.0000e-001 69371 -7.4386e-002  3.9938e+000 -1.3697e-001 68426 69172,69250,69198
 1.0000e-001 69348  9.8950e-001  6.3592e+000 -1.3526e+000 68426 69146,69250,69172
 1.0000e-001 69325  8.7453e-001  3.7896e+000 -4.8431e-001 68426 69198,69250,69224
 1.0000e-001 69302 -1.4519e+000  1.0490e+001 -8.7722e-001 68426 69146,69276,69250
 1.0000e-001 69521  1.5815e+000  1.3958e+001 -3.7512e+000 68228 69420,69472,69446
 1.0000e-001 69498 -1.4451e-001  1.1391e+001 -1.9840e+000 68228 69394,69472,69420
 1.0000e-001 69781 -1.1118e-001  8.6600e-001 -1.5970e-001 68030 69631,69683,69657
 1.0000e-001 69758 -6.3279e-001  1.0582e+000 -9.6010e-002 68030 69631,69709,69683
 1.0000e-001 69735  1.3368e-001  3.0638e+000 -1.0343e-001 68030 69605,69709,69631
 1.0000e-001 70078  1.9760e+000  5.2757e+000  1.8826e+000 67832 69882,69934,69908
 1.0000e-001 70055 -3.3954e-001  3.4014e+000  2.7479e+000 67832 69856,69934,69882
 1.0000e-001 70032  1.1647e+000  8.8094e+000  3.3072e+000 67832 69830,69934,69856
 1.0000e-001 70009  2.0003e+000  1.0786e+001  3.6906e+000 67832 69804,69934,69830
 1.0000e-001 69986 -3.0705e+000  9.5315e+000  3.2344e+000 67832 69804,69960,69934
 1.0000e-001 70586  6.3698e-001  6.3840e+000 -1.1435e+000 67634 70609,70419,70341
 1.0000e-001 70563 -4.6350e-001  6.3600e+000 -1.0883e+000 67634 70681,70609,70341
 1.0000e-001 70540 -1.5978e+000  6.1344e+000 -2.2023e+000 67634 70681,70341,70315
 1.0000e-001 70517  1.1584e+000  6.8710e+000 -1.5791e+000 67634 70341,70419,70367
 1.0000e-001 70494  2.1379e+000  3.4842e+000 -1.9640e+000 67634 70263,70445,70289
 1.0000e-001 70471  1.4037e+000  4.1013e+000 -1.0239e+000 67634 70367,70419,70393
 1.0000e-001 70635 -4.4740e-001  4.4629e+000 -1.5784e+000 67634 70445,70419,70609
 1.0000e-001 70658  2.4800e+000  6.5850e+000 -2.7473e+000 67634 70445,70609,70289
 1.0000e-001 70707 -1.2731e+000  5.3222e+000 -3.0802e+000 67634 70289,70609,70681
 1.0000e-001 70730 -3.6050e+000  4.9140e+000 -4.1083e+000 67634 70289,70681,70315
 1.0000e-001 71108 -2.8612e-001  6.5406e+000 -9.2916e-001 67344 71131,70912,70886
 1.0000e-001 71085 -4.6638e-001  6.3969e+000 -2.0905e+000 67344 71131,70886,70860
 1.0000e-001 71062  1.8525e+000  6.5618e+000 -1.3100e+000 67344 71203,70938,70912
 1.0000e-001 71039  1.1888e+000  4.7453e+000 -2.0292e+000 67344 70834,70990,70860
 1.0000e-001 71016  8.3676e-001  6.7454e+000 -8.9255e-001 67344 70938,70990,70964
 1.0000e-001 71157  1.4741e+000  6.7435e+000 -1.0304e+000 67344 71203,70912,71131
 1.0000e-001 71180 -3.7953e-002  6.3569e+000 -1.4618e+000 67344 70990,71131,70860
 1.0000e-001 71229  9.4671e-001  7.0519e+000 -1.3444e+000 67344 70990,70938,71203
 1.0000e-001 71252  1.1336e-001  6.8397e+000 -1.0117e+000 67344 70990,71203,71131
 1.0000e-001 71603  2.9919e-001  8.1115e+000 -3.8651e-001 67032 71378,71482,71404
 1.0000e-001 71580 -7.5021e-001  5.4414e+000 -1.1396e+000 67032 71378,71508,71482
 1.0000e-001 71557 -1.1505e+000  6.3146e+000 -5.4791e-001 67032 71404,71456,71430
 1.0000e-001 71534 -4.1425e-001  6.2647e+000 -4.9919e-001 67032 71404,71482,71456
 1.0000e-001 72003  3.4501e-002  5.8311e+000 -5.2661e-002 66834 71755,71859,71781
 1.0000e-001 71980  1.5674e-001  6.3701e+000  3.9444e-002 66834 71755,71885,71859
 1.0000e-001 71957  1.5703e+000  6.2624e+000  8.2598e-001 66834 71781,71833,71807
 1.0000e-001 71934 -7.0116e-002  5.8553e+000  2.2816e-001 66834 71781,71859,71833
 1.0000e-001 71911 -4.0913e-001  4.3070e+000 -1.2235e+000 66834 71729,71885,71755
 1.0000e-001 72430 -5.1283e-001  1.9295e+000  2.0632e-001 66266 72237,72289,72263
 1.0000e-001 72407 -3.9879e-001  2.3194e+000 -4.2237e-001 66266 72133,72289,72237
 1.0000e-001 72384  7.5601e-001  1.9059e+000 -4.4898e-001 66266 72133,72237,72211
 1.0000e-001 72361 -5.2312e-001  3.0692e+000  1.9439e-001 66266 72107,72289,72133
 1.0000e-001 72338  1.0959e+000  2.7579e+000 -7.6724e-001 66266 72133,72211,72185
 1.0000e-001 72315  2.7771e+000  2.0397e+000 -6.5244e-001 66266 72133,72185,72159
 1.0000e-001 72580  3.7195e+000  1.9330e+001 -1.8898e+000 65968 72479,72531,72505
 1.0000e-001 72557  2.1761e+000  1.8468e+001 -1.1291e+000 65968 72453,72531,72479
 1.0000e-001 72960 -2.3763e-001  7.4367e+000 -2.6064e-002 65621 72983,72738,72712
 1.0000e-001 72937 -2.7587e-001  6.3439e+000 -2.0671e-001 65621 72983,72712,72686
 1.0000e-001 72914 -1.1625e+000  4.2552e+000  1.4986e+000 65621 72738,72842,72764
 1.0000e-001 72891  2.1211e+000  5.3144e+000  1.8819e+000 65621 72764,72842,72816
 1.0000e-001 72868  9.3564e-001  1.1929e+000  2.8498e+000 65621 72764,72816,72790
 1.0000e-001 73009  6.6063e-001  6.2575e+000  1.2855e-001 65621 72842,72738,72983
 1.0000e-001 73032 -9.4274e-002  4.1572e+000 -1.3320e-001 65621 72842,72983,72686
 1.0000e-001 73361  6.6372e+000  1.3537e+001  1.0822e+000 65281 73456,73384,73188
 1.0000e-001 73338  1.3039e+001  1.3887e+001 -4.8531e-001 65281 73384,73162,73136
 1.0000e-001 73315  6.0290e+000  1.7327e+001  3.0665e+000 65281 73188,73240,73214
 1.0000e-001 73292  6.4837e+000  9.5049e+000  1.4353e+000 65281 73136,73266,73240
 1.0000e-001 73410  7.1903e+000  1.4716e+001  6.0499e-001 65281 73240,73188,73384
 1.0000e-001 73433  8.8855e+000  1.0656e+001  1.0414e+000 65281 73240,73384,73136
 1.0000e-001 73482  7.7761e+000  1.5302e+001  2.9388e-001 65281 73162,73384,73456
 1.0000e-001 73711 -4.7121e+000  4.2388e+000 -1.2252e+000 64820 73734,73610,73584
 1.0000e-001 73688 -3.6516e+000  5.2815e+000  3.1054e+000 64820 73734,73584,73662
 1.0000e-001 73760 -8.8950e+000  2.6121e+000  5.0107e-001 64820 73636,73610,73734
 1.0000e-001 73783 -3.4407e+000  4.0144e+000  1.6138e+000 64820 73806,73734,73662
 1.0000e-001 73832 -8.1024e+000 -3.9180e+000  4.6499e+000 64820 73636,73734,73806
 1.0000e-001 74112 -7.0456e-001  1.3923e+001 -5.4680e-001 64622 74278,74135,73988
 1.0000e-001 74089 -2.2094e-001  1.2975e+001 -2.1398e+000 64622 74135,73936,74040
 1.0000e-001 74066 -1.4091e+000  1.3637e+001 -1.4621e+000 64622 74278,73988,73962
 1.0000e-001 74161  1.8729e-001  1.3933e+001 -4.9719e-001 64622 74014,73988,74135
 1.0000e-001 74184 -5.7478e-001  1.1637e+001 -1.3937e+000 64622 74207,74135,74040
 1.0000e-001 74233  4.4984e-001  1.4554e+001 -1.8320e-001 64622 74014,74135,74207
 1.0000e-001 74304 -1.2005e+000  1.2843e+001 -2.1253e+000 64622 73936,74135,74278
 1.0000e-001 74327 -2.7094e+000  1.2451e+001 -3.0357e+000 64622 73936,74278,73962
 1.0000e-001 74526  6.7206e-001  1.0403e+001 -7.2702e-001 64424 74621,74549,74402
 1.0000e-001 74503  2.7021e-001  1.2569e+001 -9.4984e-001 64424 74549,74350,74454
 1.0000e-001 74480  8.0699e-001  9.5771e+000  8.9063e-001 64424 74621,74402,74376
 1.0000e-001 74575  1.7568e+000  1.1998e+001 -1.3358e+000 64424 74428,74402,74549
 1.0000e-001 74598  3.7664e-001  1.2214e+001 -8.2695e-001 64424 74693,74549,74454
 1.0000e-001 74647  1.7669e+000  1.2972e+001 -7.7934e-001 64424 74350,74549,74621
 1.0000e-001 74670  2.1257e+000  1.2661e+001  9.0258e-001 64424 74350,74621,74376
 1.0000e-001 74719  9.7978e-001  1.3461e+001 -1.0728e+000 64424 74428,74549,74693
 1.0000e-001 75123  3.5535e+000  1.9987e+001 -2.8796e+000 64126 74875,74953,74927
 1.0000e-001 75100 -7.1502e-001  1.0468e+001 -1.9618e+000 64126 74875,74979,74953
 1.0000e-001 75077 -4.2356e+000  1.1262e+001 -1.9074e+000 64126 74875,75005,74979
 1.0000e-001 75054 -4.2298e+000  2.5034e+001 -9.4390e+000 64126 74875,74927,74901
 1.0000e-001 75031  9.1719e+000  9.5203e+000 -2.6421e+000 64126 74849,75005,74875
 1.0000e-001 75224  6.5062e-001  8.7160e+000 -1.7252e+000 63836 75146,75198,75172
 1.0000e-001 75472  5.2655e+000  9.2057e+000 -1.4108e-001 63375 75273,75351,75325
 1.0000e-001 75449  4.7136e+000  8.5463e+000  4.9162e-001 63375 75273,75377,75351
 1.0000e-001 75426  5.5825e+000  7.8178e+000 -2.4164e-001 63375 75247,75377,75273
 1.0000e-001 75403  7.1882e+000  6.7367e+000 -2.0044e+000 63375 75273,75325,75299
 1.0000e-001 75673  9.7766e-001  6.6118e+000 -6.5956e-001 63063 75523,75575,75549
 1.0000e-001 75650 -2.2308e-001  8.0679e+000  1.1123e-001 63063 75497,75575,75523
 1.0000e-001 75627  1.2431e+000  9.1941e+000 -1.0454e+000 63063 75497,75601,75575
 1.0000e-001 75874  3.5594e+000  1.9637e+001 -1.4780e-001 62716 75897,75750,75724
 1.0000e-001 75851  4.3403e+000  1.9826e+001 -1.5067e-002 62716 75897,75724,75698
 1.0000e-001 75828  4.6662e+000  1.7964e+001  3.6200e+000 62716 75698,75802,75776
 1.0000e-001 75923  1.7851e+000  1.9631e+001 -1.2929e-001 62716 75776,75750,75897
 1.0000e-001 75946  3.4020e+000  2.0336e+001  6.4944e-002 62716 75776,75897,75698
 1.0000e-001 76328  1.1052e-001  1.8853e+001 -2.6892e-001 62198 76495,76351,76158
 1.0000e-001 76305  1.1481e+000  1.7867e+001 -9.2413e-001 62198 76351,76080,76054
 1.0000e-001 76282 -2.7380e-002  1.9705e+001  4.6899e-001 62198 76423,76184,76158
 1.0000e-001 76259 -5.6827e-002  1.9382e+001 -2.1335e-001 62198 76495,76158,76106
 1.0000e-001 76236 -2.8840e+000  2.1719e+001 -1.4622e+000 62198 76106,76158,76132
 1.0000e-001 76377 -1.8919e-002  1.8533e+001  4.1113e-001 62198 76423,76158,76351
 1.0000e-001 76400  9.3723e-001  1.6777e+001 -2.5012e-001 62198 76210,76351,76054
 1.0000e-001 76449 -3.0156e-001  1.8333e+001  5.1581e-001 62198 76210,76184,76423
 1.0000e-001 76472 -3.5882e-002  1.7585e+001  6.2842e-001 62198 76210,76423,76351
 1.0000e-001 76521  2.5060e-001  1.7671e+001 -1.0328e+000 62198 76080,76351,76495
 1.0000e-001 76544  5.7129e-001  1.9124e+001 -1.2718e+000 62198 76080,76495,76106
 1.0000e-001 76841  4.0645e+000  1.7965e+001 -1.4897e-001 61751 76936,76864,76645
 1.0000e-001 76818  5.3214e+000  1.6070e+001  1.4323e+000 61751 76864,76567,76723
 1.0000e-001 76795  3.8538e+000  1.7143e+001 -1.0553e-001 61751 76936,76645,76593
 1.0000e-001 76772  7.9582e-001  1.7501e+001  3.2758e+000 61751 77008,76697,76671
 1.0000e-001 76749  2.8984e+000  1.6543e+001  1.6799e-001 61751 76593,76645,76619
 1.0000e-001 76890  5.4842e+000  2.1430e+001 -7.0270e-001 61751 76671,76645,76864
 1.0000e-001 76913  4.6933e+000  1.8984e+001  2.3350e+000 61751 77008,76671,76864
 1.0000e-001 76962  3.5768e+000  1.9092e+001  2.6203e-001 61751 76567,76864,76936
 1.0000e-001 76985  3.4438e+000  1.8426e+001  2.1192e-001 61751 76567,76936,76593
 1.0000e-001 77034  5.9962e+000  1.9943e+001  2.3990e+000 61751 76723,76697,77008
 1.0000e-001 77057  6.5792e+000  1.9021e+001  2.1206e+000 61751 76723,77008,76864
 1.0000e-001 77207 -2.5812e+000  6.5568e+000 -1.3686e+000 61418 77106,77158,77132
 1.0000e-001 77184 -1.2862e+000  7.6715e+000 -8.5529e-001 61418 77080,77158,77106
 1.0000e-001 77638  8.0654e-001  1.1243e+001 -1.2476e+000 60814 77733,77661,77471
 1.0000e-001 77615  4.8051e+000  1.1518e+001 -7.2275e-001 60814 77661,77393,77315
 1.0000e-001 77592  1.9554e-002  1.0242e+001 -1.6894e+000 60814 77733,77471,77445
 1.0000e-001 77569  1.6063e+000  1.1583e+001  1.9033e+000 60814 77315,77367,77341
 1.0000e-001 77546  1.3353e+000  1.1718e+001  1.3740e+000 60814 77315,77393,77367
 1.0000e-001 77523 -4.1065e+000  7.6411e+000 -4.5317e+000 60814 77393,77445,77419
 1.0000e-001 77687  2.1834e+000  1.1852e+001 -1.6580e+000 60814 77497,77471,77661
 1.0000e-001 77710  2.1708e+000  1.1831e+001 -1.5939e+000 60814 77497,77661,77315
 1.0000e-001 77759  2.6582e+000  9.4082e+000 -1.8615e+000 60814 77393,77661,77733
 1.0000e-001 77782  1.3636e+000  8.1987e+000 -2.4773e+000 60814 77393,77733,77445
 1.0000e-001 78337  5.4822e+000  1.3539e+001 -2.5086e+000 60210 78360,78017,77965
 1.0000e-001 78314  4.2605e+000  1.0002e+001 -2.1463e+000 60210 78360,77965,78173
 1.0000e-001 78291  2.9135e+000  1.4532e+001 -4.8119e-001 60210 78432,78043,78017
 1.0000e-001 78268  6.9630e+000  2.0753e+001 -3.9651e+000 60210 77965,78017,77991
 1.0000e-001 78245  7.7194e-001  1.3452e+001  1.2181e+000 60210 78043,78095,78069
 1.0000e-001 78222  7.9781e+000  1.4384e+001 -1.1570e+000 60210 78095,78173,78121
 1.0000e-001 78199  5.4571e+000  1.2991e+001 -5.5394e-001 60210 78121,78173,78147
 1.0000e-001 78386  4.4871e+000  1.4750e+001 -2.1353e+000 60210 78432,78017,78360
 1.0000e-001 78409  7.2217e+000  1.3181e+001 -8.1646e-001 60210 78095,78360,78173
 1.0000e-001 78458  2.5205e+000  1.2290e+001  1.0622e+000 60210 78095,78043,78432
 1.0000e-001 78481  3.3941e+000  1.1831e+001 -5.1472e-001 60210 78095,78432,78360
 1.0000e-001 78680  1.3541e+000  1.2244e+001  5.2050e-002 59848 78703,78556,78530
 1.0000e-001 78657  1.4434e+000  1.1303e+001 -9.2775e-001 59848 78703,78530,78504
 1.0000e-001 78634  1.9612e+000  9.7700e+000 -9.1535e-001 59848 78504,78608,78582
 1.0000e-001 78729  1.4193e+000  1.0293e+001  2.4985e-001 59848 78582,78556,78703
 1.0000e-001 78752  1.6153e+000  1.0038e+001 -1.0801e+000 59848 78582,78703,78504
 1.0000e-001 78951 -4.8013e-001  1.3344e+001  1.9105e+000 59344 78974,78801,78775
 1.0000e-001 78928  1.4390e+000  1.6731e+001 -8.4160e-001 59344 79046,78974,78775
 1.0000e-001 78905  1.3557e+000  1.8454e+001 -9.5219e-001 59344 79046,78775,78879
 1.0000e-001 79000  4.0570e+000  1.4926e+001  5.6464e-001 59344 78827,78801,78974
 1.0000e-001 79023  2.1558e+000  1.4878e+001 -1.8138e+000 59344 78827,78974,78853
 1.0000e-001 79072  1.9464e+000  1.4623e+001 -1.5502e+000 59344 78853,78974,79046
 1.0000e-001 79095  1.3531e+000  1.5736e+001 -1.7382e+000 59344 78853,79046,78879
 1.0000e-001 79296  7.4600e+000  2.7149e+001  1.2810e+000 58711 79319,79172,79146
 1.0000e-001 79273  4.6430e+000  2.6277e+001  7.3399e-001 58711 79319,79146,79120
 1.0000e-001 79250  8.1351e+000  2.2936e+001 -1.5507e+000 58711 79172,79224,79198
 1.0000e-001 79345  9.4375e+000  2.5453e+001  9.6752e-001 58711 79224,79172,79319
 1.0000e-001 79368  7.6765e+000  2.5424e+001  5.9271e-001 58711 79224,79319,79120
 1.0000e-001 79667  2.7914e+000  7.5746e+000  8.7384e-001 58285 79690,79471,79393
 1.0000e-001 79644  2.7956e+000  9.2272e+000  1.3862e+000 58285 79690,79393,79549
 1.0000e-001 79621  2.6639e+000  5.9295e+000  1.1063e+000 58285 79393,79471,79419
 1.0000e-001 79598  2.2435e+000  7.7863e+000 -1.8155e-001 58285 79497,79549,79523
 1.0000e-001 79575  1.9795e+000  8.4061e+000  1.2614e+000 58285 79419,79471,79445
 1.0000e-001 79716  2.7684e+000  5.9463e+000 -9.5236e-002 58285 79497,79471,79690
 1.0000e-001 79739  3.0229e+000  8.4872e+000  1.4556e-001 58285 79497,79690,79549
 1.0000e-001 80249  2.5165e+000  1.4072e+001  1.8177e+000 57831 80272,79978,79952
 1.0000e-001 80226  1.0827e+000  1.4304e+001  6.8130e-001 57831 80272,79952,80108
 1.0000e-001 80203 -3.1169e+000  1.6808e+001  2.1220e+000 57831 79926,80108,79952
 1.0000e-001 80180  3.3389e+000  1.7814e+001 -7.6411e-001 57831 80004,80082,80030
 1.0000e-001 80157  2.2757e+000  1.5981e+001 -1.2045e+000 57831 80004,80108,80082
 1.0000e-001 80134  4.1951e+000  1.6805e+001 -2.4828e+000 57831 80030,80082,80056
 1.0000e-001 80298  1.4312e+000  1.1945e+001  1.0308e+000 57831 80004,79978,80272
 1.0000e-001 80321  3.4260e-001  1.3639e+001  1.5873e-001 57831 80004,80272,80108
 1.0000e-001 80618  9.6235e-001  8.8423e+000 -4.2399e-001 57077 80344,80448,80422
 1.0000e-001 80595  2.5356e+000  1.0094e+001 -1.4922e+000 57077 80344,80500,80448
 1.0000e-001 80572  8.5770e-001  8.0011e+000 -8.9972e-001 57077 80344,80422,80370
 1.0000e-001 80549 -3.0630e-001  1.0043e+001 -8.4471e-001 57077 80370,80422,80396
 1.0000e-001 80526  1.4950e+000  7.7439e+000 -9.5426e-001 57077 80448,80500,80474
 1.0000e-001 80768  3.1000e+000  8.8241e+000  2.1606e-002 56787 80791,80693,80667
 1.0000e-001 80745  3.2548e+000  8.5324e+000 -3.7529e-001 56787 80791,80667,80641
 1.0000e-001 80817  3.2294e+000  8.6295e+000 -1.5951e-001 56787 80719,80693,80791
 1.0000e-001 80840  2.2567e+000  6.6182e+000 -7.6995e-001 56787 80719,80791,80641
 1.0000e-001 81429  9.4025e+000  1.2155e+001 -1.5600e+000 56497 81452,81158,81132
 1.0000e-001 81406  7.6022e+000  1.2326e+001 -1.0576e+000 56497 81452,81132,81288
 1.0000e-001 81383  8.7839e+000  1.2612e+001 -1.6841e+000 56497 81524,81184,81158
 1.0000e-001 81360  8.9151e+000  2.0950e+001 -2.7636e+000 56497 81210,81288,81236
 1.0000e-001 81337  3.6838e+000  1.1477e+001 -1.6592e-001 56497 81106,81288,81132
 1.0000e-001 81314  3.1696e+000  1.6311e+001 -6.8451e-001 56497 81236,81288,81262
 1.0000e-001 81478  8.2994e+000  1.1994e+001 -1.2626e+000 56497 81524,81158,81452
 1.0000e-001 81501  5.5836e+000  1.2646e+001 -1.5186e+000 56497 81210,81452,81288
 1.0000e-001 81550  8.8754e+000  1.3259e+001 -2.4288e+000 56497 81210,81184,81524
 1.0000e-001 81573  8.3097e+000  1.2906e+001 -1.9860e+000 56497 81210,81524,81452
 1.0000e-001 81870  4.7058e+000  1.3686e+001 -4.9480e-001 55979 81893,81674,81648
 1.0000e-001 81847  3.9376e+000  1.3333e+001 -5.9233e-001 55979 81893,81648,81752
 1.0000e-001 81824  3.0003e+000  1.3875e+001 -9.4990e-001 55979 81596,81752,81648
 1.0000e-001 81801  5.4280e+000  1.6314e+001 -1.5573e+000 55979 81674,81726,81700
 1.0000e-001 81778  5.1232e-001  7.2127e+000  2.7030e+000 55979 81596,81648,81622
 1.0000e-001 81919  5.1524e+000  1.3479e+001 -1.1437e+000 55979 81726,81674,81893
 1.0000e-001 81942  4.0817e+000  1.2971e+001 -1.2912e+000 55979 81726,81893,81752
 1.0000e-001 82371  2.7300e+000  9.1120e+000 -1.9309e-001 55631 82100,82204,82152
 1.0000e-001 82348  1.6333e+000  8.7937e+000 -3.3862e-001 55631 82100,82230,82204
 1.0000e-001 82325  1.7334e+000  8.9355e+000 -7.2263e-001 55631 82100,82152,82126
 1.0000e-001 82302  4.4965e+000  1.7108e+001  2.6857e+000 55631 82074,82230,82100
 1.0000e-001 82279  3.9206e+000  1.2113e+001  2.7226e-002 55631 82152,82204,82178
 1.0000e-001 82256 -9.6824e+000  1.1927e+001 -3.3625e+000 55631 82048,82230,82074
 1.0000e-001 82521  1.9094e+000  7.2143e+000  2.5437e-001 55227 82544,82420,82394
 1.0000e-001 82498  1.9686e+000  8.1291e+000  1.3158e-001 55227 82544,82394,82472
 1.0000e-001 82570  2.2492e+000  6.5058e+000  2.3465e-001 55227 82446,82420,82544
 1.0000e-001 82593  2.1979e+000  7.1945e+000 -1.2907e-001 55227 82446,82544,82472
 1.0000e-001 82875  9.7154e-001  1.3232e+001  3.0674e+000 54979 82699,82777,82725
 1.0000e-001 82852  6.1527e+000  1.0914e+001  1.5690e+000 54979 82699,82803,82777
 1.0000e-001 82829 -4.0812e+000  1.6829e+001  5.2145e+000 54979 82725,82777,82751
 1.0000e-001 83204  1.6137e+000  1.0891e+001 -2.3368e-001 54475 83005,83083,83057
 1.0000e-001 83181  3.5222e+000  1.2053e+001 -7.4084e-001 54475 82979,83083,83005
 1.0000e-001 83158  2.5520e+000  1.3418e+001 -5.0670e-001 54475 83005,83057,83031
 1.0000e-001 83135  5.6443e+000  1.7115e+001 -2.7263e+000 54475 82979,83109,83083
 1.0000e-001 83582  6.4459e+000  1.1214e+001 -1.2839e+000 54071 83605,83438,83412
 1.0000e-001 83559  5.7864e+000  1.1028e+001 -2.5790e-001 54071 83749,83605,83412
 1.0000e-001 83536  5.4280e+000  1.2416e+001 -2.8320e+000 54071 83677,83360,83334
 1.0000e-001 83513  4.9107e+000  1.1803e+001 -2.7259e-002 54071 83749,83412,83677
 1.0000e-001 83490 -5.3724e-001  1.3313e+001  3.1900e+000 54071 83308,83464,83334
 1.0000e-001 83631  5.0106e+000  1.0344e+001 -6.3444e-001 54071 83464,83438,83605
 1.0000e-001 83654  4.9609e+000  9.5922e+000 -1.6419e-001 54071 83464,83605,83334
 1.0000e-001 83703  1.1171e+000  1.0895e+001 -2.7931e+000 54071 83386,83360,83677
 1.0000e-001 83726  2.6473e+000  1.1677e+001 -1.4350e-001 54071 83386,83677,83412
 1.0000e-001 83775  4.1744e+000  1.0116e+001 -6.6725e-001 54071 83334,83605,83749
 1.0000e-001 83798  3.1502e+000  1.0818e+001 -4.4622e-001 54071 83334,83749,83677
 1.0000e-001 84068  2.8780e+000  6.0530e+000  1.0041e-001 53524 83869,83921,83895
 1.0000e-001 84045  2.8604e+000  6.9262e+000 -1.4909e-001 53524 83869,83947,83921
 1.0000e-001 84022  3.7448e+000  7.5614e+000  1.5977e-001 53524 83843,83947,83869
 1.0000e-001 83999  2.4687e+000  7.1521e+000  2.8847e-001 53524 83843,83973,83947
 1.0000e-001 84497  4.3609e+000  1.7492e+001 -1.9356e+000 53184 84200,84330,84252
 1.0000e-001 84474  3.3703e+000  1.5654e+001 -1.4022e+000 53184 84200,84356,84330
 1.0000e-001 84451  4.2784e+000  2.4510e+001 -2.1556e+000 53184 84200,84252,84226
 1.0000e-001 84428  6.4035e+000  1.5280e+001  1.2465e+000 53184 84252,84330,84278
 1.0000e-001 84405  3.6842e+000  1.5850e+001 -1.5469e+000 53184 84174,84356,84200
 1.0000e-001 84382  8.7270e+000  1.6793e+001 -1.2352e+000 53184 84278,84330,84304
 1.0000e-001 84954  8.8912e+000  1.8375e+001 -3.6876e-001 52680 84706,84836,84784
 1.0000e-001 84931  8.0875e+000  1.6499e+001  4.0111e+000 52680 84680,84836,84706
 1.0000e-001 84908  7.2558e+000  2.2473e+001  2.9149e-001 52680 84784,84836,84810
 1.0000e-001 84885  1.0569e+001  1.8815e+001 -1.6773e+000 52680 84706,84784,84732
 1.0000e-001 84862  9.2763e+000  2.9531e+001 -1.4354e+001 52680 84732,84784,84758
 1.0000e-001 85202  3.1221e+000  8.6350e+000 -3.0285e-001 52226 85029,85081,85055
 1.0000e-001 85179  2.2982e+000  7.9854e+000 -5.8973e-001 52226 85225,85081,85029
 1.0000e-001 85156  2.3781e+000  8.2089e+000 -2.3840e-001 52226 85225,85029,85003
 1.0000e-001 85133  8.6890e-001  1.1598e+001  2.8911e-001 52226 84977,85107,85003
 1.0000e-001 85251  2.1236e+000  7.9103e+000 -7.4953e-001 52226 85107,85081,85225
 1.0000e-001 85274  1.6764e+000  8.1108e+000 -3.8217e-001 52226 85107,85225,85003
 1.0000e-001 85522  3.0989e+000  7.2672e+000 -5.5899e-001 51764 85297,85349,85323
 1.0000e-001 85499  2.7677e+000  8.4018e+000 -3.1611e-001 51764 85545,85297,85427
 1.0000e-001 85476  3.3890e+000  7.8792e+000 -3.3189e-003 51764 85545,85427,85375
 1.0000e-001 85453  3.4624e+000  8.2876e+000  8.4433e-002 51764 85375,85427,85401
 1.0000e-001 85571  2.4532e+000  8.1085e+000 -1.4473e-001 51764 85349,85297,85545
 1.0000e-001 85594  2.8256e+000  7.3914e+000  2.3272e-001 51764 85349,85545,85375
 1.0000e-001 85746  2.9562e+000  8.5216e+000  3.6537e-001 51374 85645,85697,85671
 1.0000e-001 85723  2.9160e+000  9.8432e+000 -2.1904e-001 51374 85619,85697,85645
 1.0000e-001 86256  4.5220e+000  7.0265e+000  2.2584e-002 50970 86279,86011,85959
 1.0000e-001 86233  2.6583e+000  7.5627e+000  2.2607e-001 50970 86279,85959,86115
 1.0000e-001 86210  4.3637e+000  6.7334e+000  2.6926e-001 50970 85959,86011,85985
 1.0000e-001 86187  1.9395e+000  1.0064e+001 -3.0558e-001 50970 86037,86115,86089
 1.0000e-001 86164 -3.9072e+000  4.8986e+000  1.4816e+000 50970 85933,86115,85959
 1.0000e-001 86141 -2.1812e-001  9.2770e+000 -1.2111e+000 50970 86037,86089,86063
 1.0000e-001 86305  2.8074e+000  7.1291e+000 -4.2832e-001 50970 86037,86011,86279
 1.0000e-001 86328  9.0206e-001  7.6439e+000 -1.7583e-001 50970 86037,86279,86115
 1.0000e-001 86478 -1.5380e+001  1.3915e+001  1.3402e+000 50451 86351,86403,86377
 1.0000e-001 86455 -1.2118e+001 -8.1983e-001 -3.8375e+000 50451 86351,86429,86403
 1.0000e-001 86907  6.0215e+000  1.3556e+001 -7.6458e-001 50047 86930,86714,86662
 1.0000e-001 86884  4.6364e+000  1.4057e+001 -9.7091e-001 50047 86930,86662,86610
 1.0000e-001 86861  2.7195e+000  1.6110e+001  1.0932e+000 50047 87002,86740,86714
 1.0000e-001 86838  1.2102e+000  1.1784e+001 -3.1832e+000 50047 86662,86714,86688
 1.0000e-001 86815  5.7763e+000  1.7079e+001 -7.0510e-001 50047 86610,86662,86636
 1.0000e-001 86792  4.0192e+000  1.2726e+001 -8.3447e-001 50047 86584,86766,86610
 1.0000e-001 86956  4.9823e+000  1.3618e+001 -6.2626e-001 50047 87002,86714,86930
 1.0000e-001 86979  6.6711e+000  1.3809e+001 -1.1514e+000 50047 86766,86930,86610
 1.0000e-001 87028  6.7030e+000  1.4672e+001  1.4458e+000 50047 86766,86740,87002
 1.0000e-001 87051  7.8413e+000  1.4247e+001  2.1100e-001 50047 86766,87002,86930
 1.0000e-001 87250  4.6032e+000  1.5753e+001 -2.1726e+000 49543 87273,87126,87100
 1.0000e-001 87227  5.5141e+000  1.5358e+001 -2.6275e+000 49543 87273,87100,87074
 1.0000e-001 87204  4.2937e+000  1.6073e+001 -9.2091e-001 49543 87126,87178,87152
 1.0000e-001 87299  3.4280e+000  1.4894e+001 -1.2996e+000 49543 87178,87126,87273
 1.0000e-001 87322  4.9238e+000  1.5274e+001 -1.9169e+000 49543 87178,87273,87074
 1.0000e-001 87570  2.5302e+000  9.3551e+000 -3.1987e-001 49146 87593,87449,87397
 1.0000e-001 87547  2.8208e+000  9.7284e+000 -9.3215e-001 49146 87593,87397,87371
 1.0000e-001 87524  4.1696e+000  9.3946e+000 -1.1190e+000 49146 87345,87475,87371
 1.0000e-001 87501  1.3367e+000  9.7557e+000 -2.8705e-001 49146 87397,87449,87423
 1.0000e-001 87619  3.3022e+000  9.7714e+000 -5.0251e-001 49146 87475,87449,87593
 1.0000e-001 87642  3.1819e+000  9.8966e+000 -1.0602e+000 49146 87475,87593,87371
 1.0000e-001 88073  4.5290e+000  2.0059e+001  1.1734e+000 48706 87854,87932,87880
 1.0000e-001 88050  7.2587e+000  2.4567e+001 -2.2227e-002 48706 87828,87932,87854
 1.0000e-001 88027  7.1400e+000  2.1081e+001  2.5181e-001 48706 87750,87932,87828
 1.0000e-001 88004  1.9549e+000  4.1875e+001 -7.2277e+000 48706 87750,87802,87776
 1.0000e-001 87981  1.2949e+001  3.7669e+001  7.9696e-001 48706 87750,87828,87802
 1.0000e-001 87958  8.8241e+000  2.1522e+001  1.5452e+000 48706 87880,87932,87906
 1.0000e-001 88402  3.4175e+000  1.1439e+001 -9.1007e-001 48145 88203,88281,88255
 1.0000e-001 88379  1.6141e+000  1.0610e+001 -1.1647e+000 48145 88203,88307,88281
 1.0000e-001 88356  1.4376e+000  1.3483e+001 -7.7024e-001 48145 88203,88255,88229
 1.0000e-001 88333  6.8682e-001  1.1022e+001 -2.5462e+000 48145 88177,88307,88203
 1.0000e-001 88601  5.7449e+000  1.2683e+001 -3.6568e-001 47805 88696,88624,88477
 1.0000e-001 88578  8.6429e+000  1.3919e+001  1.4318e+000 47805 88826,88624,88451
 1.0000e-001 88555  8.1339e+000  1.3433e+001  8.6544e-001 47805 88826,88451,88425
 1.0000e-001 88650  6.3284e+000  1.3679e+001  1.2497e+000 47805 88503,88477,88624
 1.0000e-001 88673  8.8468e+000  1.4633e+001  1.0352e+000 47805 88503,88624,88529
 1.0000e-001 88722  1.2824e+001  1.5315e+001  9.8245e-001 47805 88451,88624,88696
 1.0000e-001 88852  8.5896e+000  1.3014e+001  6.9102e-001 47805 88529,88624,88826
 1.0000e-001 88875  8.0670e+000  1.2589e+001  1.1913e-001 47805 88529,88826,88425
 1.0000e-001 89172  3.1885e+000  8.5462e+000 -1.3117e-001 47401 89195,88976,88898
 1.0000e-001 89149  3.3897e+000  8.6008e+000  7.9121e-002 47401 89195,88898,89054
 1.0000e-001 89126  3.0594e+000  8.4398e+000 -8.5371e-002 47401 88898,88976,88950
 1.0000e-001 89103  3.3589e+000  8.1546e+000  2.1213e-001 47401 88976,89028,89002
 1.0000e-001 89080  3.8624e+000  9.9374e+000 -8.7510e-001 47401 88898,88950,88924
 1.0000e-001 89221  3.1167e+000  8.6854e+000  1.6036e-001 47401 89028,88976,89195
 1.0000e-001 89244  3.5851e+000  8.8095e+000  3.7155e-001 47401 89028,89195,89054
 1.0000e-001 89575  2.2813e+000  1.2816e+001 -3.1349e-001 47111 89350,89454,89376
 1.0000e-001 89552  5.1320e+000  1.5896e+001 -1.7561e+000 47111 89350,89480,89454
 1.0000e-001 89529  4.2325e+000  1.1487e+001 -2.0687e+000 47111 89376,89454,89402
 1.0000e-001 89506  6.1612e+000  1.5701e+001 -1.5863e+000 47111 89402,89454,89428
 1.0000e-001 89904  1.4116e+001  1.9404e+001  4.8928e-002 46707 89705,89757,89731
 1.0000e-001 89881  1.2317e+001  2.2206e+001 -1.8506e+000 46707 89705,89783,89757
 1.0000e-001 89858  1.1603e+001  2.2531e+001 -1.6019e-001 46707 89679,89783,89705
 1.0000e-001 89835  1.3421e+001  2.0951e+001 -1.2392e+000 46707 89679,89809,89783
 1.0000e-001 90233  7.6692e+000  1.8648e+001 -1.3330e+000 46360 90034,90112,90086
 1.0000e-001 90210  4.6701e+000  1.7713e+001 -1.3513e+000 46360 90034,90138,90112
 1.0000e-001 90187  3.6960e+000  2.1043e+001 -1.3628e+000 46360 90034,90086,90060
 1.0000e-001 90164  4.6831e+000  2.0319e+001 -2.6434e+000 46360 90008,90138,90034
 1.0000e-001 90530  3.3996e+000  8.4118e+000  8.3267e-002 45662 90256,90360,90308
 1.0000e-001 90507  3.2108e+000  8.7714e+000 -1.6967e-001 45662 90256,90412,90360
 1.0000e-001 90484  3.3893e+000  8.6324e+000  1.1371e-001 45662 90256,90308,90282
 1.0000e-001 90461  2.7869e+000  7.4781e+000 -3.0796e-001 45662 90360,90412,90386
 1.0000e-001 90438  3.3578e+000  7.4128e+000 -4.5012e-001 45662 90308,90360,90334
 1.0000e-001 90910  6.8589e+000  1.6491e+001  7.9796e-001 45108 90688,90766,90714
 1.0000e-001 90887  6.4877e+000  1.6598e+001  4.8769e-001 45108 90662,90766,90688
 1.0000e-001 90864  2.6142e+000  1.4727e+001 -2.8771e-001 45108 90636,90766,90662
 1.0000e-001 90841  4.7175e+000  1.9376e+001  2.5726e+000 45108 90714,90766,90740
 1.0000e-001 90818  5.6685e+000  1.7981e+001 -1.7603e+000 45108 90636,90792,90766
 1.0000e-001 91158  2.4411e+000  1.0817e+001  1.8068e-001 44604 91181,91011,90959
 1.0000e-001 91135  1.4091e+000  1.0571e+001  2.6354e-001 44604 91181,90959,90933
 1.0000e-001 91112  3.5093e+000  1.1506e+001 -1.1545e-001 44604 90959,91011,90985
 1.0000e-001 91089  2.8120e+000  1.0868e+001 -1.1740e+000 44604 90933,91063,91037
 1.0000e-001 91207  3.1118e+000  1.0375e+001 -3.1002e-001 44604 91037,91011,91181
 1.0000e-001 91230  2.1532e+000  1.0340e+001 -4.7562e-001 44604 91037,91181,90933
 1.0000e-001 91429  3.1556e+000  9.4068e+000 -1.5938e-001 44264 91452,91279,91253
 1.0000e-001 91406  3.3367e+000  9.6092e+000 -2.3785e-001 44264 91452,91253,91357
 1.0000e-001 91383  3.7923e+000  9.6444e+000  3.5345e-001 44264 91279,91331,91305
 1.0000e-001 91478  3.3515e+000  9.1015e+000 -1.1233e-001 44264 91331,91279,91452
 1.0000e-001 91501  3.5976e+000  9.3174e+000 -2.0363e-001 44264 91331,91452,91357
 1.0000e-001 92060  8.9752e+000  1.4899e+001  6.0281e-002 43860 92083,91740,91688
 1.0000e-001 92037  4.1788e+000  1.5203e+001 -1.5054e+000 43860 92083,91688,91896
 1.0000e-001 92014  5.9052e+000  1.6261e+001 -1.2241e+000 43860 91766,91870,91844
 1.0000e-001 91991  4.1810e+000  1.4672e+001 -2.0467e+000 43860 91740,91870,91766
 1.0000e-001 91968  4.1355e+000  1.4830e+001 -2.0507e+000 43860 91766,91844,91792
 1.0000e-001 91945  6.3326e+000  1.8659e+001  4.2995e+000 43860 91688,91740,91714
 1.0000e-001 91922  2.6326e+000  1.9515e+001 -1.1642e+000 43860 91792,91844,91818
 1.0000e-001 92109  4.8275e+000  1.4606e+001 -2.2107e+000 43860 91870,91740,92083
 1.0000e-001 92132 -2.1602e-001  1.4211e+001 -4.0991e+000 43860 91870,92083,91896
 1.0000e-001 92353  7.0617e+000  1.7050e+001  2.1478e+000 43662 92203,92255,92229
 1.0000e-001 92330  1.0963e+001  1.9803e+001  3.9440e-001 43662 92376,92203,92281
 1.0000e-001 92307  4.3682e+000  1.6736e+001 -2.4471e+000 43662 92177,92281,92203
 1.0000e-001 92402  1.3598e+001  2.0921e+001 -8.9950e-003 43662 92255,92203,92376
 1.0000e-001 92682  3.3699e+000  9.2366e+000 -1.4338e-003 43464 92532,92584,92558
 1.0000e-001 92659  3.6102e+000  8.8734e+000 -1.1643e-001 43464 92506,92584,92532
 1.0000e-001 92636  3.4667e+000  8.8126e+000 -1.0575e-001 43464 92506,92610,92584
 1.0000e-001 93013  7.1824e+000  1.5389e+001 -4.8832e+000 42960 92866,92918,92892
 1.0000e-001 92990  4.0715e+000  1.6310e+001 -1.8995e+000 42960 93036,92918,92866
 1.0000e-001 92967  4.3358e+000  1.5596e+001 -1.4900e+000 42960 93036,92866,92840
 1.0000e-001 92944  5.1485e+000  1.9787e+001 -1.0110e+000 42960 92788,92918,92814
 1.0000e-001 93062  4.1895e+000  1.7240e+001 -2.0494e+000 42960 92814,92918,93036
 1.0000e-001 93085  4.3053e+000  1.6623e+001 -1.3812e+000 42960 92814,93036,92840
 1.0000e-001 93186  3.2941e+000  9.2591e+000  1.2049e+000 42556 93108,93160,93134
 1.0000e-001 93554  3.0784e+000  9.6236e+000 -4.3277e-001 42052 93231,93387,93361
 1.0000e-001 93531  3.4114e+000  9.1579e+000 -1.4838e+000 42052 93231,93413,93387
 1.0000e-001 93508  4.0519e+000  9.4456e+000 -6.2308e-001 42052 93231,93361,93257
 1.0000e-001 93485  2.9162e+000  7.8156e+000  1.6479e-001 42052 93283,93361,93335
 1.0000e-001 93462  1.1994e+000  8.2393e+000 -8.7629e-001 42052 93257,93361,93283
 1.0000e-001 93439  7.2625e-001  6.5741e+000  1.7127e+000 42052 93283,93335,93309
 1.0000e-001 94162 -3.8439e-001  1.0032e+001  4.2957e-001 41498 93767,93975,93793
 1.0000e-001 94139  2.5111e+000  1.1027e+001 -1.0466e+000 41498 93741,93975,93767
 1.0000e-001 94116  2.9083e+000  9.9760e+000  7.6386e-001 41498 93793,93975,93923
 1.0000e-001 94093  3.1308e+000  1.0606e+001 -1.5204e+000 41498 93923,93975,93949
 1.0000e-001 94070  1.5407e+000  8.6756e+000  1.8253e+000 41498 93871,93923,93897
 1.0000e-001 94047  2.4891e+000  8.5423e+000  2.0810e+000 41498 93793,93923,93871
 1.0000e-001 94024  3.7620e+000  9.1914e+000  8.5525e-001 41498 93819,93871,93845
 1.0000e-001 94001  2.7625e+000  8.1214e+000  1.8479e+000 41498 93793,93871,93819
 1.0000e-001 94619  9.2984e+000  1.4373e+001  1.8060e+000 40930 94642,94423,94371
 1.0000e-001 94596  7.9113e+000  1.4283e+001  5.3365e-001 40930 94642,94371,94345
 1.0000e-001 94573  9.5677e+000  1.7335e+001 -7.4566e-001 40930 94345,94501,94475
 1.0000e-001 94550  7.0517e+000  1.6131e+001  2.3915e+000 40930 94371,94423,94397
 1.0000e-001 94527  9.7802e+000  1.1721e+001  2.7861e-001 40930 94423,94475,94449
 1.0000e-001 94668  8.1239e+000  1.2274e+001  1.1813e+000 40930 94475,94423,94642
 1.0000e-001 94691  7.4826e+000  1.3525e+001  1.0744e-001 40930 94475,94642,94345
 1.0000e-001 95148  5.1839e+000  1.5731e+001 -2.7203e+000 40362 95171,94952,94926
 1.0000e-001 95125  5.5320e+000  1.6199e+001 -1.4057e+000 40362 95171,94926,95004
 1.0000e-001 95102  6.9144e+000  1.4461e+001 -1.8400e+000 40362 94874,95004,94926
 1.0000e-001 95079  1.0337e+000  1.3437e+001 -3.8466e+000 40362 94874,95030,95004
 1.0000e-001 95056  6.2693e+000  1.8501e+001  3.4392e+000 40362 94874,94926,94900
 1.0000e-001 95197  5.7456e+000  1.6958e+001 -2.5210e+000 40362 94978,94952,95171
 1.0000e-001 95220  6.0522e+000  1.7347e+001 -1.2470e+000 40362 94978,95171,95004
 1.0000e-001 95549  5.5384e+000  9.9320e+000 -1.0433e+000 39586 95350,95402,95376
 1.0000e-001 95526  3.9421e+000  9.1435e+000 -7.3251e-001 39586 95324,95402,95350
 1.0000e-001 95503  4.2582e+000  9.6415e+000 -9.2057e-001 39586 95324,95454,95402
 1.0000e-001 95480  5.7057e+000  1.3470e+001 -3.2487e-001 39586 95402,95454,95428
 1.0000e-001 96055  2.9846e+000  8.0143e+000 -3.0591e-001 38968 96078,95862,95810
 1.0000e-001 96032  4.5309e+000  8.5048e+000  2.9119e-001 38968 96078,95810,95758
 1.0000e-001 96009  2.3940e+000  8.3722e+000  4.8776e-002 38968 96150,95732,95888
 1.0000e-001 95986  2.7754e+000  7.8166e+000 -4.6573e-001 38968 95810,95862,95836
 1.0000e-001 95963  2.3483e+000  7.8606e+000  7.4359e-001 38968 95732,95914,95888
 1.0000e-001 95940  6.0524e+000  1.0183e+001 -6.4379e-001 38968 95758,95810,95784
 1.0000e-001 96104  3.4544e+000  8.3876e+000 -4.9201e-001 38968 95888,95862,96078
 1.0000e-001 96127  3.2457e+000  8.2345e+000 -5.6223e-001 38968 96150,95888,96078
 1.0000e-001 96176  9.9140e-001  7.6926e+000  8.6346e-001 38968 95758,95732,96150
 1.0000e-001 96199  2.0588e+000  7.4904e+000  3.2516e-001 38968 95758,96150,96078
 1.0000e-001 96545  4.3151e+000  1.3348e+001  4.0806e-001 38507 96640,96568,96352
 1.0000e-001 96522  8.4470e+000  1.4357e+001 -1.7173e+000 38507 96568,96300,96222
 1.0000e-001 96499  2.2708e+000  1.2318e+001  8.4786e-001 38507 96640,96352,96326
 1.0000e-001 96476  3.7897e+000  1.5038e+001  6.2935e-001 38507 96352,96404,96378
 1.0000e-001 96453  8.2286e+000  1.3626e+001 -1.7412e+000 38507 96222,96300,96248
 1.0000e-001 96430  1.5210e+001  1.9102e+001 -6.7874e+000 38507 96248,96300,96274
 1.0000e-001 96594  4.1669e+000  1.4601e+001  5.5639e-003 38507 96404,96352,96568
 1.0000e-001 96617  4.8124e+000  1.3609e+001  4.9853e-001 38507 96404,96568,96222
 1.0000e-001 96666  4.6586e+000  1.3585e+001 -1.5703e+000 38507 96300,96568,96640
 1.0000e-001 96689  3.9829e+000  1.3145e+001 -1.1960e+000 38507 96300,96640,96326
 1.0000e-001 97069  5.1667e+000  1.2341e+001 -1.3127e-001 37760 97092,96873,96821
 1.0000e-001 97046  5.2066e+000  1.2363e+001 -1.7800e-001 37760 97092,96821,96795
 1.0000e-001 97023  5.2674e+000  1.5636e+001 -1.0598e+000 37760 96821,96873,96847
 1.0000e-001 97000  3.7551e+000  1.3103e+001 -7.0094e-001 37760 96873,96925,96899
 1.0000e-001 96977  8.4723e+000  1.2598e+001 -2.4281e+000 37760 96795,96951,96925
 1.0000e-001 97118  5.1193e+000  1.2273e+001 -7.0214e-002 37760 96925,96873,97092
 1.0000e-001 97141  5.2383e+000  1.2331e+001 -1.2420e-001 37760 96925,97092,96795
 1.0000e-001 97647  7.5970e+000  1.6137e+001 -7.0814e-001 37356 97324,97480,97376
 1.0000e-001 97624  3.3330e+000  1.5184e+001 -1.9325e+000 37356 97324,97506,97480
 1.0000e-001 97601  7.5918e+000  1.6471e+001 -6.4734e-001 37356 97376,97480,97454
 1.0000e-001 97578  1.0015e+001  1.9458e+001 -1.9408e+000 37356 97324,97376,97350
 1.0000e-001 97555  3.9095e+000  1.3505e+001 -3.5713e+000 37356 97376,97454,97402
 1.0000e-001 97532  9.4473e+000  2.1536e+001 -1.0184e+000 37356 97402,97454,97428
 1.0000e-001 98232  6.3436e+000  1.0751e+001  1.7001e-001 36902 97935,98065,98013
 1.0000e-001 98209  2.4030e+000  9.1660e+000 -1.0905e-001 36902 97935,98091,98065
 1.0000e-001 98186  2.6066e+000  8.9757e+000  7.8673e-001 36902 97935,98013,97987
 1.0000e-001 98163 -3.7046e-001  9.6817e+000 -1.1644e+000 36902 97909,98091,97935
 1.0000e-001 98140  4.0842e+000  1.2164e+001  3.6100e-001 36902 97935,97987,97961
 1.0000e-001 98117  6.3479e+000  1.0738e+001  1.9326e-001 36902 98013,98065,98039
 1.0000e-001 98659  9.5534e+000  2.3502e+001 -1.4912e-001 36604 98682,98414,98388
 1.0000e-001 98636  9.2061e+000  2.2997e+001 -1.7187e+000 36604 98682,98388,98336
 1.0000e-001 98613  1.3629e+001  2.2144e+001 -1.6458e+000 36604 98754,98518,98466
 1.0000e-001 98590  6.9860e+000  1.8192e+001  2.2237e-001 36604 98414,98466,98440
 1.0000e-001 98567  7.0652e+000  2.8350e+001 -2.0008e+000 36604 98336,98388,98362
 1.0000e-001 98544  1.1426e+001  2.0688e+001 -5.3267e+000 36604 98466,98518,98492
 1.0000e-001 98708  8.5972e+000  2.0241e+001  9.5868e-001 36604 98466,98414,98682
 1.0000e-001 98731  1.1819e+001  2.2342e+001 -1.1114e+000 36604 98754,98466,98682
 1.0000e-001 98780  1.1549e+001  2.3039e+001 -1.7669e+000 36604 98336,98518,98754
 1.0000e-001 98803  9.0489e+000  2.2747e+001 -1.6327e+000 36604 98336,98754,98682
 1.0000e-001 99309  2.3642e+000  7.6032e+000 -3.4230e-001 36200 99332,99116,99012
 1.0000e-001 99286  2.5477e+000  5.7248e+000  5.5170e-001 36200 99332,99012,98986
 1.0000e-001 99263  3.3661e+000  6.8067e+000 -1.4201e+000 36200 99012,99116,99064
 1.0000e-001 99240  4.0397e+000  1.0448e+001  2.5826e-001 36200 98986,99168,99142
 1.0000e-001 99217 -3.2296e+000  8.8678e+000 -2.6987e+000 36200 99064,99116,99090
 1.0000e-001 99194  4.1003e+000  7.0316e+000 -9.2769e-001 36200 99012,99064,99038
 1.0000e-001 99358  2.6403e+000  8.7827e+000 -6.6668e-001 36200 99142,99116,99332
 1.0000e-001 99381  3.1131e+000  7.6734e+000  4.2253e-001 36200 99142,99332,98986
 1.0000e-001 99887  8.4236e+000  1.2241e+001 -3.9261e-001 35488 99564,99720,99590
 1.0000e-001 99864  8.8197e+000  1.3107e+001 -2.3318e-001 35488 99564,99746,99720
 1.0000e-001 99841  7.3887e+000  1.3668e+001  1.4722e-001 35488 99642,99694,99668
 1.0000e-001 99818  8.4079e+000  1.5061e+001 -1.4554e+000 35488 99590,99694,99642
 1.0000e-001 99795  6.4083e+000  1.2047e+001 -5.9033e-001 35488 99590,99720,99694
 1.0000e-001 99772  7.4172e+000  1.7881e+001 -1.4132e+000 35488 99590,99642,99616
 1.0000e-001 99988  3.5773e+000  1.1156e+001 -1.0939e+000 35198 99910,99962,99936
 1.0000e-001 100138  7.9249e+000  1.9829e+001  1.5165e-001 34794 100233,100161,100063
 1.0000e-001 100115  1.3228e+001  2.2755e+001  5.9128e-001 34794 100365,100161,100037
 1.0000e-001 100187  5.7724e+000  1.9704e+001  5.4466e-001 34794 100089,100063,100161
 1.0000e-001 100210  6.8991e+000  1.9599e+001  3.2898e-001 34794 100089,100161,100011
 1.0000e-001 100259  1.0515e+001  2.4563e+001  2.3910e+000 34794 100037,100161,100233
 1.0000e-001 100391  4.3589e+000  1.6197e+001  3.4722e+000 34794 100011,100161,100365
 1.0000e-001 100927  3.6117e+000  1.0455e+001  8.7683e-002 34404 100679,100809,100783
 1.0000e-001 100904  4.4734e+000  1.0211e+001  1.0887e-001 34404 100653,100809,100679
 1.0000e-001 100881  5.7711e+000  1.3463e+001  1.2174e-002 34404 100705,100783,100731
 1.0000e-001 100858  5.8826e+000  1.1856e+001 -8.7494e-001 34404 100679,100783,100705
 1.0000e-001 100835  6.1438e+000  1.4554e+001 -2.9872e-002 34404 100731,100783,100757
 1.0000e-001 101354  6.6191e+000  1.6468e+001 -1.0355e+000 34000 101377,101109,101057
 1.0000e-001 101331  7.2545e+000  1.7075e+001 -6.3817e-001 34000 101449,101377,101057
 1.0000e-001 101308  7.0663e+000  1.7910e+001 -5.9584e-001 34000 101449,101057,101031
 1.0000e-001 101285  8.5329e+000  1.8972e+001 -6.1261e+000 34000 101031,101213,101187
 1.0000e-001 101262  7.5000e+000  2.2762e+001  1.5235e+000 34000 101135,101187,101161
 1.0000e-001 101239  3.1837e+000  1.6673e+001 -5.5880e-001 34000 101057,101109,101083
 1.0000e-001 101403  7.3800e+000  1.6548e+001  5.9930e-002 34000 101135,101109,101377
 1.0000e-001 101426  8.8972e+000  1.7231e+001 -1.1439e-001 34000 101135,101377,101187
 1.0000e-001 101475  7.7563e+000  1.8157e+001 -9.1345e-001 34000 101187,101377,101449
 1.0000e-001 101498  7.2056e+000  1.8537e+001 -7.6291e-001 34000 101187,101449,101031
 1.0000e-001 102083  3.3559e+000  1.1395e+001 -8.8519e-001 33472 102106,101812,101786
 1.0000e-001 102060  4.6726e+000  1.1607e+001 -3.8944e-001 33472 102106,101786,101916
 1.0000e-001 102037  4.0981e+000  1.1940e+001 -2.8035e-001 33472 101812,101864,101838
 1.0000e-001 102014  3.2955e+000  1.3602e+001  3.6221e-001 33472 101864,101916,101890
 1.0000e-001 101991  6.1725e+000  1.0538e+001 -2.6393e-001 33472 101786,101942,101916
 1.0000e-001 101968  6.2532e+000  1.1127e+001  1.1370e-001 33472 101760,101942,101786
 1.0000e-001 102132  4.2759e+000  1.1860e+001 -3.7655e-001 33472 101864,101812,102106
 1.0000e-001 102155  4.8540e+000  1.1765e+001  1.5353e-001 33472 101864,102106,101916
 1.0000e-001 102612  6.5261e+000  1.4804e+001  1.5065e+000 33038 102635,102468,102390
 1.0000e-001 102589  1.0338e+001  1.9900e+001  4.3564e+000 33038 102635,102390,102364
 1.0000e-001 102566  8.6650e+000  1.2004e+001  6.7753e-001 33038 102390,102468,102442
 1.0000e-001 102543  2.9509e+000  1.3814e+001 -3.6188e-001 33038 102338,102494,102364
 1.0000e-001 102520  8.1937e+000  1.2248e+001  1.4788e+000 33038 102390,102442,102416
 1.0000e-001 102661  5.9747e+000  1.3448e+001 -1.2309e+000 33038 102494,102468,102635
 1.0000e-001 102684  6.4474e+000  1.6093e+001  1.0760e+000 33038 102494,102635,102364
 1.0000e-001 103318  5.7310e+000  1.0321e+001 -2.3003e-001 32402 102972,103128,103076
 1.0000e-001 103295  5.3813e+000  1.0396e+001 -2.2420e-001 32402 102946,103128,102972
 1.0000e-001 103272  7.4722e+000  1.3904e+001  7.3708e-001 32402 103076,103128,103102
 1.0000e-001 103249  6.4488e+000  1.0794e+001 -1.0568e+000 32402 102946,103154,103128
 1.0000e-001 103226  4.9731e+000  9.6515e+000  1.6210e-001 32402 102972,103076,102998
 1.0000e-001 103203 -7.5853e-001  1.0037e+001  1.4096e+000 32402 102998,103076,103050
 1.0000e-001 103180  2.4935e+000  1.8768e+001 -1.6267e+000 32402 102998,103050,103024
 1.0000e-001 103696  3.3490e+000  1.2015e+001  6.7682e-001 31924 103448,103526,103500
 1.0000e-001 103673  2.5334e+000  1.1865e+001  1.4667e+000 31924 103448,103578,103526
 1.0000e-001 103650  5.3273e+000  1.0216e+001  2.9390e-001 31924 103448,103500,103474
 1.0000e-001 103627  2.8816e-002  1.4924e+001  9.1472e-001 31924 103422,103578,103448
 1.0000e-001 103604  6.9419e-001  1.5181e+001  1.0905e+000 31924 103526,103578,103552
 1.0000e-001 104281  3.5469e+000  8.5398e+000 -6.1578e-001 31520 104304,104062,104036
 1.0000e-001 104258  5.4294e+000  9.6329e+000 -7.6766e-002 31520 104304,104036,103984
 1.0000e-001 104235  3.9662e+000  9.6579e+000  8.0095e-001 31520 104062,104114,104088
 1.0000e-001 104212  5.0121e-001  8.4922e+000  8.6202e-001 31520 103958,104114,103984
 1.0000e-001 104189  6.9217e+000  1.3099e+001 -5.1706e-001 31520 103984,104036,104010
 1.0000e-001 104166  1.8196e+000  1.2342e+001  2.0605e-001 31520 103958,104140,104114
 1.0000e-001 104330  3.3421e+000  9.8682e+000  2.7000e-001 31520 104114,104062,104304
 1.0000e-001 104353  4.0225e+000  1.0094e+001  3.8425e-001 31520 104114,104304,103984
 1.0000e-001 104704  5.1957e+000  1.0345e+001  1.3713e-001 31066 104479,104583,104505
 1.0000e-001 104681  3.0491e+000  9.5476e+000  3.3990e-001 31066 104479,104609,104583
 1.0000e-001 104658  2.0176e+000  1.1553e+001 -6.3652e-001 31066 104505,104557,104531
 1.0000e-001 104635  2.4278e+000  9.0108e+000 -3.8560e-001 31066 104505,104583,104557
 1.0000e-001 104925  9.5354e+000  2.1706e+001 -4.5027e-001 30754 104775,104827,104801
 1.0000e-001 104902  9.9233e+000  2.0565e+001 -6.1594e-001 30754 104775,104853,104827
 1.0000e-001 104879  7.3144e+000  1.9425e+001 -9.3566e-001 30754 104749,104853,104775
 1.0000e-001 105482  9.5409e+000  2.0166e+001 -1.6898e-001 30164 105505,105136,105110
 1.0000e-001 105459  9.3588e+000  2.2862e+001 -1.1631e+000 30164 105649,105505,105110
 1.0000e-001 105436  7.4147e+000  1.8690e+001  1.0094e+000 30164 105577,105188,105136
 1.0000e-001 105413  1.0900e+001  2.4030e+001 -4.4515e+000 30164 105649,105110,105318
 1.0000e-001 105390  1.1679e+001  2.3640e+001 -2.4591e+000 30164 105214,105292,105240
 1.0000e-001 105367  9.4161e+000  2.1596e+001 -1.4139e+000 30164 105240,105292,105266
 1.0000e-001 105344  6.5809e+000  1.9715e+001  7.9358e-001 30164 105136,105188,105162
 1.0000e-001 105531  8.8181e+000  1.9057e+001 -6.0870e-001 30164 105577,105136,105505
 1.0000e-001 105554  9.2417e+000  1.8687e+001 -2.4592e-001 30164 105214,105505,105292
 1.0000e-001 105603  7.2044e+000  1.6511e+001  2.3203e+000 30164 105214,105188,105577
 1.0000e-001 105626  7.9252e+000  1.6465e+001  7.8845e-001 30164 105214,105577,105505
 1.0000e-001 105675  7.2443e+000  1.8042e+001 -6.5456e-001 30164 105292,105505,105649
 1.0000e-001 105698  7.3462e+000  1.6722e+001 -3.3562e+000 30164 105292,105649,105318
 1.0000e-001 106027  4.6682e+000  1.5937e+001  6.8358e-001 29868 106322,106050,105880
 1.0000e-001 106004  5.0825e+000  1.2294e+001  2.0710e+000 29868 106250,106050,105828
 1.0000e-001 105981  4.2781e+000  1.2903e+001  3.8930e+000 29868 106250,105828,105802
 1.0000e-001 105958  6.4951e+000  1.5829e+001 -7.0896e-001 29868 106322,105880,106122
 1.0000e-001 106076  5.5677e+000  1.9638e+001 -3.2004e-001 29868 105906,105880,106050
 1.0000e-001 106099  3.6759e+000  1.6115e+001  7.8591e-001 29868 105906,106050,105932
 1.0000e-001 106148  1.2757e+001  2.3562e+001 -7.7341e-001 29868 105854,105828,106122
 1.0000e-001 106276  5.9737e+000  1.4966e+001  1.1117e+000 29868 105932,106050,106250
 1.0000e-001 106299  4.6804e+000  1.6193e+001  3.0811e+000 29868 105932,106250,105802
 1.0000e-001 106348  7.9817e+000  1.5836e+001  4.2880e-001 29868 105828,106050,106322
 1.0000e-001 106371  9.4265e+000  1.5371e+001 -9.0481e-001 29868 105828,106322,106122
 1.0000e-001 106828  3.3849e+000  8.7490e+000 -2.8970e+000 29521 106580,106710,106684
 1.0000e-001 106805  6.2009e+000  1.0892e+001 -6.6677e-001 29521 106554,106710,106580
 1.0000e-001 106782  2.6271e+000  8.6607e+000 -2.9636e+000 29521 106580,106684,106606
 1.0000e-001 106759  5.3519e+000  1.1632e+001 -1.9667e-001 29521 106606,106684,106658
 1.0000e-001 106736  3.9927e+000  1.3100e+001  3.0047e-001 29521 106606,106658,106632
 1.0000e-001 107027  4.8606e+000  1.2805e+001 -9.8167e-001 29117 106877,106929,106903
 1.0000e-001 107004  6.7231e+000  1.3589e+001 -1.9175e+000 29117 106851,106929,106877
 1.0000e-001 106981  6.3508e+000  1.1374e+001 -1.5339e+000 29117 106851,106955,106929
 1.0000e-001 107456  7.0024e+000  1.4236e+001 -3.0063e-001 28656 107237,107315,107263
 1.0000e-001 107433  5.7603e+000  1.3375e+001 -7.2930e-001 28656 107133,107315,107237
 1.0000e-001 107410  4.2299e+000  1.1367e+001  1.8942e-001 28656 107133,107237,107159
 1.0000e-001 107387  4.6745e+000  1.0376e+001  2.9539e-001 28656 107159,107237,107185
 1.0000e-001 107364  2.5446e+000  9.5824e+000  6.6263e-001 28656 107185,107237,107211
 1.0000e-001 107341  7.2888e+000  1.7132e+001 -3.9452e+000 28656 107263,107315,107289
 1.0000e-001 107704  7.0784e+000  1.5071e+001 -1.7539e-001 27902 107727,107557,107531
 1.0000e-001 107681  7.3420e+000  1.5777e+001 -1.0382e-001 27902 107727,107531,107505
 1.0000e-001 107658  6.4061e+000  1.4835e+001 -3.7840e-001 27902 107557,107609,107583
 1.0000e-001 107635  8.5298e+000  1.7009e+001 -2.0061e-001 27902 107479,107609,107505
 1.0000e-001 107753  6.7939e+000  1.5671e+001 -4.8532e-001 27902 107609,107557,107727
 1.0000e-001 107776  6.9826e+000  1.6253e+001 -4.3618e-001 27902 107609,107727,107505
 1.0000e-001 108333  4.6415e+000  1.1556e+001 -3.5932e-001 27341 108356,108065,108013
 1.0000e-001 108310  4.7172e+000  1.1369e+001  6.0818e-001 27341 108356,108013,108143
 1.0000e-001 108287  4.8358e+000  1.2156e+001  3.5216e-001 27341 108428,108117,108091
 1.0000e-001 108264  4.6013e+000  1.1553e+001 -3.4739e-001 27341 108013,108065,108039
 1.0000e-001 108241  4.0388e+000  1.0266e+001  2.3166e-001 27341 107987,108143,108013
 1.0000e-001 108218 -1.7004e-001  8.4349e+000  7.4972e-001 27341 107987,108169,108143
 1.0000e-001 108195 -2.7936e+000  1.1577e+001  8.5899e-001 27341 107961,108169,107987
 1.0000e-001 108382  5.0676e+000  1.2564e+001 -3.5024e-001 27341 108091,108065,108356
 1.0000e-001 108405  5.0503e+000  1.1606e+001  1.9741e-001 27341 108428,108091,108356
 1.0000e-001 108454  5.1549e+000  1.3323e+001  5.7947e-001 27341 108143,108117,108428
 1.0000e-001 108477  5.1992e+000  1.2501e+001  4.4663e-001 27341 108143,108428,108356
 1.0000e-001 108725  9.4068e+000  2.3118e+001  9.0975e-001 27029 108748,108526,108500
 1.0000e-001 108702  1.0060e+001  1.8650e+001  4.1684e-001 27029 108748,108500,108630
 1.0000e-001 108679  1.2086e+001  2.3496e+001  1.5039e+000 27029 108578,108630,108604
 1.0000e-001 108656  1.1377e+001  2.1921e+001 -5.1637e+000 27029 108526,108578,108552
 1.0000e-001 108774  1.0126e+001  2.5535e+001  1.1078e+000 27029 108578,108526,108748
 1.0000e-001 108797  1.1745e+001  2.2332e+001  1.0539e+000 27029 108578,108748,108630
 1.0000e-001 109045  5.7089e+000  1.3469e+001 -1.0074e-001 26610 108872,108924,108898
 1.0000e-001 109022  6.2055e+000  1.2617e+001 -5.0131e-001 26610 108872,108950,108924
 1.0000e-001 108999  6.7505e+000  1.3318e+001 -7.5221e-002 26610 108846,108950,108872
 1.0000e-001 108976  6.8891e+000  1.1528e+001 -3.6032e-001 26610 108820,108950,108846
 1.0000e-001 109366  3.4404e+000  1.2067e+001  2.3497e-001 26006 109144,109222,109196
 1.0000e-001 109343  2.9158e+000  1.1562e+001  2.4732e-002 26006 109118,109222,109144
 1.0000e-001 109320  4.0095e+000  1.2225e+001 -3.1383e-001 26006 109092,109222,109118
 1.0000e-001 109297  4.3059e+000  1.2413e+001  4.7956e-001 26006 109144,109196,109170
 1.0000e-001 109274  2.4116e+000  9.3643e+000  3.3136e-001 26006 109092,109248,109222
 1.0000e-001 109567  5.6385e+000  1.3817e+001 -9.4197e-001 25659 109391,109469,109443
 1.0000e-001 109544  5.7727e+000  1.4077e+001 -1.4427e+000 25659 109391,109495,109469
 1.0000e-001 109521  4.9911e+000  1.3789e+001 -3.8799e-001 25659 109391,109443,109417
 1.0000e-001 109900  9.0264e+000  1.9991e+001  1.5260e+000 25255 109923,109779,109753
 1.0000e-001 109877  8.4840e+000  1.7954e+001  2.8112e-001 25255 109923,109753,109701
 1.0000e-001 109854  1.1203e+001  1.6363e+001  2.3585e+000 25255 109675,109805,109701
 1.0000e-001 109831  9.2072e+000  1.6267e+001  9.0816e-001 25255 109701,109753,109727
 1.0000e-001 109949  1.0241e+001  2.3022e+001  3.5308e+000 25255 109805,109779,109923
 1.0000e-001 109972  8.5864e+000  1.9332e+001  2.1817e+000 25255 109805,109923,109701
 1.0000e-001 110220  5.7310e+000  1.6568e+001  3.9636e-001 24701 110243,110021,109995
 1.0000e-001 110197  5.7210e+000  1.6200e+001 -2.9540e-001 24701 110243,109995,110099
 1.0000e-001 110174  5.7467e+000  1.5955e+001  2.7603e-001 24701 110315,110073,110047
 1.0000e-001 110151  6.1696e+000  1.8792e+001 -9.8186e-001 24701 109995,110125,110099
 1.0000e-001 110269  8.9723e+000  1.8994e+001  1.7500e+000 24701 110047,110021,110243
 1.0000e-001 110292  5.4701e+000  1.6010e+001  4.1242e-001 24701 110315,110047,110243
 1.0000e-001 110341  6.2905e+000  1.6258e+001  1.5558e-001 24701 110099,110073,110315
 1.0000e-001 110364  5.8990e+000  1.6278e+001  2.9241e-001 24701 110099,110315,110243
 1.0000e-001 110661  5.8095e+000  1.4231e+001 -5.2301e-001 24197 110684,110413,110387
 1.0000e-001 110638  5.7023e+000  1.4035e+001 -4.5889e-001 24197 110684,110387,110543
 1.0000e-001 110615  5.7156e+000  1.5085e+001 -7.6962e-001 24197 110756,110491,110465
 1.0000e-001 110592  2.5688e+000  1.3847e+001 -5.8581e-001 24197 110413,110465,110439
 1.0000e-001 110569  6.0323e+000  1.7733e+001  1.7548e+000 24197 110491,110543,110517
 1.0000e-001 110710  5.4413e+000  1.3962e+001 -9.0911e-001 24197 110465,110413,110684
 1.0000e-001 110733  5.8185e+000  1.4758e+001 -7.5934e-001 24197 110756,110465,110684
 1.0000e-001 110782  5.8763e+000  1.4694e+001 -3.9623e-001 24197 110543,110491,110756
 1.0000e-001 110805  5.8321e+000  1.4164e+001 -3.9712e-001 24197 110543,110756,110684
 1.0000e-001 111315  1.1318e+001  2.1948e+001  2.3202e+000 23593 111044,111148,111070
 1.0000e-001 111292  8.2982e+000  1.7739e+001  4.4852e-001 23593 111044,111174,111148
 1.0000e-001 111269  9.3555e+000  1.5821e+001  8.3942e-001 23593 111070,111122,111096
 1.0000e-001 111246  1.0282e+001  1.9675e+001  2.0807e+000 23593 111070,111148,111122
 1.0000e-001 111223  1.3992e+001  2.3973e+001  4.2472e+000 23593 111018,111174,111044
 1.0000e-001 111200  5.7449e+000  2.5531e+001  2.5117e+000 23593 110992,111174,111018
 1.0000e-001 111821  3.9116e+000  1.2383e+001  1.1463e-001 23089 111916,111844,111628
 1.0000e-001 111798  5.5532e+000  1.3452e+001  5.7456e-002 23089 111844,111550,111524
 1.0000e-001 111775  3.4756e+000  1.2017e+001 -5.6234e-002 23089 111916,111628,111602
 1.0000e-001 111752  5.2457e+000  1.5488e+001 -1.0323e+000 23089 111498,111680,111524
 1.0000e-001 111729  4.1766e+000  1.1026e+001  5.6257e-002 23089 111550,111602,111576
 1.0000e-001 111706  4.6772e+000  9.7535e+000  7.9530e-001 23089 111628,111680,111654
 1.0000e-001 111870  5.4397e+000  1.2268e+001 -3.7237e-001 23089 111680,111628,111844
 1.0000e-001 111893  5.8283e+000  1.3073e+001 -1.3492e+000 23089 111680,111844,111524
 1.0000e-001 111942  5.0589e+000  1.1607e+001  2.6763e-001 23089 111550,111844,111916
 1.0000e-001 111965  4.4869e+000  1.1159e+001  6.9279e-002 23089 111550,111916,111602
 1.0000e-001 112164  5.4556e+000  1.5661e+001  1.0666e+000 22626 112187,112014,111988
 1.0000e-001 112141  6.6121e+000  1.7626e+001  4.9229e-001 22626 112259,112187,111988
 1.0000e-001 112118  6.2024e+000  1.8235e+001 -7.6479e-001 22626 112259,111988,112092
 1.0000e-001 112213  6.2142e+000  1.2788e+001  6.1324e-001 22626 112040,112014,112187
 1.0000e-001 112236  7.9634e+000  1.5831e+001 -1.3652e-001 22626 112040,112187,112066
 1.0000e-001 112285  5.8293e+000  1.5677e+001  3.6278e-001 22626 112066,112187,112259
 1.0000e-001 112308  5.3357e+000  1.6145e+001 -8.2503e-001 22626 112066,112259,112092
 1.0000e-001 112605  5.5435e+000  1.4580e+001 -4.7273e-001 22286 112628,112383,112357
 1.0000e-001 112582  6.8398e+000  1.5075e+001 -4.8445e-001 22286 112772,112628,112357
 1.0000e-001 112559  8.7062e+000  1.5981e+001 -9.9039e-001 22286 112700,112435,112409
 1.0000e-001 112536  8.2071e+000  1.5314e+001 -6.7301e-001 22286 112772,112357,112331
 1.0000e-001 112513  9.1254e+000  1.5156e+001 -7.4723e-001 22286 112435,112487,112461
 1.0000e-001 112654  6.0772e+000  1.2713e+001  5.3875e-001 22286 112409,112383,112628
 1.0000e-001 112677  7.8609e+000  1.4859e+001 -2.6944e-001 22286 112700,112409,112628
 1.0000e-001 112726  7.5154e+000  1.4916e+001 -1.2376e-001 22286 112487,112435,112700
 1.0000e-001 112749  7.1791e+000  1.4781e+001  4.6151e-001 22286 112487,112700,112628
 1.0000e-001 112798  6.2584e+000  1.4990e+001 -2.4361e-001 22286 112487,112628,112772
 1.0000e-001 112821  6.6110e+000  1.4606e+001 -4.1549e-001 22286 112487,112772,112331
 1.0000e-001 112924  8.4669e+000  2.6819e+001  1.1168e+000 21974 112846,112898,112872
 1.0000e-001 113223  8.5278e+000  1.7632e+001 -3.1515e-001 21420 112949,113053,112975
 1.0000e-001 113200  7.8731e+000  1.6417e+001 -5.8792e-002 21420 112949,113079,113053
 1.0000e-001 113177  6.7628e+000  1.7199e+001 -8.6658e-001 21420 112975,113053,113001
 1.0000e-001 113154  9.3520e+000  1.8543e+001 -3.6004e-001 21420 113001,113053,113027
 1.0000e-001 113131  7.5553e+000  1.7485e+001 -8.4340e-001 21420 112949,113105,113079
 1.0000e-001 113605  9.7569e+000  2.3836e+001 -1.4899e+000 20716 113331,113435,113357
 1.0000e-001 113582  9.8927e+000  2.0945e+001 -1.6217e+000 20716 113331,113461,113435
 1.0000e-001 113559  9.1036e+000  2.4153e+001  7.1707e-001 20716 113383,113435,113409
 1.0000e-001 113536  9.6917e+000  2.2800e+001  2.1834e-001 20716 113357,113435,113383
 1.0000e-001 113513 -1.1330e+000  1.5934e+001 -1.3293e-001 20716 113331,113487,113461
 1.0000e-001 113853  7.0710e+000  1.5326e+001 -7.5128e-002 20290 113876,113680,113654
 1.0000e-001 113830  7.1776e+000  1.5732e+001  1.2971e-001 20290 113876,113654,113628
 1.0000e-001 113807  7.0255e+000  1.5723e+001  2.7179e-001 20290 113948,113732,113680
 1.0000e-001 113784  4.3093e+000  1.5343e+001  8.6692e-001 20290 113680,113732,113706
 1.0000e-001 113902  6.9125e+000  1.5673e+001  8.0733e-002 20290 113948,113680,113876
 1.0000e-001 113925  7.1024e+000  1.6035e+001  6.4821e-002 20290 113758,113876,113628
 1.0000e-001 113974  7.2344e+000  1.5668e+001  2.8258e-001 20290 113758,113732,113948
 1.0000e-001 113997  7.2599e+000  1.5753e+001  1.1327e-001 20290 113758,113948,113876
 1.0000e-001 114365  3.6671e+000  1.1974e+001 -3.7306e-002 19900 114146,114198,114172
 1.0000e-001 114342  3.8586e+000  1.2059e+001 -1.5973e-002 19900 114042,114198,114146
 1.0000e-001 114319  3.5319e+000  1.1810e+001  1.5741e-001 19900 114042,114224,114198
 1.0000e-001 114296  5.0747e+000  1.1949e+001 -9.4600e-003 19900 114094,114146,114120
 1.0000e-001 114273  3.8546e+000  1.1553e+001  2.6148e-001 19900 114042,114146,114094
 1.0000e-001 114250  3.0961e+000  1.1387e+001  4.1300e-001 19900 114042,114094,114068
 1.0000e-001 114566  5.3961e+000  1.3751e+001 -3.0005e-001 19496 114442,114494,114468
 1.0000e-001 114543  7.2455e+000  1.3774e+001  5.8245e-001 19496 114416,114494,114442
 1.0000e-001 114520  3.1979e+000  1.3189e+001  8.9586e-001 19496 114390,114494,114416
 1.0000e-001 114767  4.2350e+000  1.2616e+001 -8.0546e-002 19042 114790,114669,114643
 1.0000e-001 114744  4.7379e+000  1.2533e+001 -1.1771e-001 19042 114790,114643,114591
 1.0000e-001 114721  4.9126e+000  1.4092e+001 -6.2902e-001 19042 114591,114643,114617
 1.0000e-001 114816  3.6211e+000  1.2603e+001 -5.8302e-002 19042 114695,114669,114790
 1.0000e-001 114839  4.2674e+000  1.2610e+001  6.5536e-003 19042 114695,114790,114591
 1.0000e-001 114991  4.9303e+000  1.2960e+001  3.8426e-001 18488 114864,114916,114890
 1.0000e-001 114968  5.0909e+000  1.4751e+001  1.4123e-001 18488 114864,114942,114916
 1.0000e-001 115192  5.8456e+000  1.2933e+001  1.0443e-001 18098 115215,115042,115016
 1.0000e-001 115169  5.3505e+000  1.2448e+001  3.3262e-001 18098 115215,115016,115120
 1.0000e-001 115146  5.7077e+000  1.3035e+001 -3.3346e-001 18098 115287,115094,115068
 1.0000e-001 115241  5.5303e+000  1.3275e+001 -9.4813e-003 18098 115068,115042,115215
 1.0000e-001 115264  5.6714e+000  1.3091e+001 -4.9947e-002 18098 115287,115068,115215
 1.0000e-001 115313  5.3094e+000  1.2895e+001 -2.9739e-001 18098 115120,115094,115287
 1.0000e-001 115336  5.1429e+000  1.2896e+001 -2.7814e-002 18098 115120,115287,115215
 1.0000e-001 115846  7.6425e+000  1.9438e+001  2.4714e+000 17644 115653,115705,115679
 1.0000e-001 115823  9.4871e+000  1.8378e+001  1.3086e+000 17644 115627,115705,115653
 1.0000e-001 115800  7.1438e+000  1.7236e+001 -4.7371e-001 17644 115549,115705,115627
 1.0000e-001 115777  7.0758e+000  2.0330e+001  5.8533e-002 17644 115549,115627,115575
 1.0000e-001 115754  4.2818e+000  1.4341e+001 -2.9898e+000 17644 115523,115705,115549
 1.0000e-001 115731  7.3226e+000  1.6960e+001  2.6830e+000 17644 115575,115627,115601
 1.0000e-001 116067  9.7444e+000  1.9705e+001  3.7131e-001 17116 115891,115943,115917
 1.0000e-001 116044  9.6219e+000  2.1811e+001 -8.2123e-002 17116 115891,115995,115943
 1.0000e-001 116021  8.1364e+000  1.9602e+001 -7.2740e-001 17116 115943,115995,115969
 1.0000e-001 116288  5.1247e+000  1.3855e+001 -1.4799e+000 16704 116164,116216,116190
 1.0000e-001 116265  6.7656e+000  1.7188e+001 -8.0011e-001 16704 116112,116216,116164
 1.0000e-001 116242  7.5638e+000  1.6471e+001  2.4590e-001 16704 116112,116164,116138
 1.0000e-001 116489  1.0136e+001  2.3905e+001  6.4653e-001 16434 116339,116417,116365
 1.0000e-001 116466  8.8268e+000  2.3027e+001 -5.6031e-002 16434 116313,116417,116339
 1.0000e-001 116443  1.6546e+001  2.3837e+001 -4.8173e+000 16434 116365,116417,116391
 1.0000e-001 116592  7.0545e+000  1.6267e+001 -3.2335e-001 15967 116514,116566,116540
 1.0000e-001 116695  1.1491e+000  1.9840e+001  3.4232e+000 15552 116617,116669,116643
 1.0000e-001 116798  3.3336e+000  1.1233e+001  0.0000e+000 421 116720,116772,116746
 2.0000e-001 69066  1.1964e+000  2.6139e-001  5.7612e-002 68738 68965,69017,68991
 2.0000e-001 69043  5.3077e-001 -2.3101e-001 -6.0394e-001 68738 68939,69017,68965
 2.0000e-001 69371 -3.4093e+000  2.0801e+000  2.1554e+000 68426 69172,69250,69198
 2.0000e-001 69348 -5.0986e-001  4.7145e+000  9.3312e-001 68426 69146,69250,69172
 2.0000e-001 69325 -1.5010e+000  5.7679e+000  4.5620e+000 68426 69198,69250,69224
 2.0000e-001 69302  9.3309e-001  1.3554e+000  4.4970e-001 68426 69146,69276,69250
 2.0000e-001 69521 -3.7546e+000  2.1741e+001 -2.1821e-001 68228 69420,69472,69446
 2.0000e-001 69498  7.9448e-001  2.4980e+001 -1.8263e+000 68228 69394,69472,69420
 2.0000e-001 69781 -1.9875e+000  4.8779e+000  9.9178e-001 68030 69631,69683,69657
 2.0000e-001 69758  3.0695e-001  5.6206e+000  1.3487e+000 68030 69631,69709,69683
 2.0000e-001 69735  2.0649e-001  2.1822e+000 -3.5435e-001 68030 69605,69709,69631
 2.0000e-001 70078  3.9940e+000  1.5952e+001  4.1022e+000 67832 69882,69934,69908
 2.0000e-001 70055 -3.6879e+000  1.0423e+001  6.5680e+000 67832 69856,69934,69882
 2.0000e-001 70032  8.5234e-001  2.1887e+001  6.1145e+000 67832 69830,69934,69856
 2.0000e-001 70009 -7.2837e-001  1.7800e+001  5.4401e-002 67832 69804,69934,69830
 2.0000e-001 69986 -3.2803e+000  2.1500e+001  1.8826e+000 67832 69804,69960,69934
 2.0000e-001 70586  2.4344e+000  1.0404e+001 -1.6616e-001 67634 70609,70419,70341
 2.0000e-001 70563 -5.3181e-001  8.0794e+000  8.4229e-001 67634 70681,70609,70341
 2.0000e-001 70540 -9.7934e-001  7.3962e+000  3.0035e+000 67634 70681,70341,70315
 2.0000e-001 70517  4.0377e+000  9.8165e+000 -2.4863e+000 67634 70341,70419,70367
 2.0000e-001 70494  9.5840e+000  8.9611e+000  1.1752e+000 67634 70263,70445,70289
 2.0000e-001 70471  1.0353e+000  4.6291e+000 -8.1127e-001 67634 70367,70419,70393
 2.0000e-001 70635  6.9845e-001  6.0192e+000 -6.7356e-001 67634 70445,70419,70609
 2.0000e-001 70658  6.6821e+000  1.2346e+001 -3.1879e+000 67634 70445,70609,70289
 2.0000e-001 70707  1.0971e+000  1.3162e+001 -2.0310e+000 67634 70289,70609,70681
 2.0000e-001 70730 -1.8398e+000  1.0678e+001  4.9702e-001 67634 70289,70681,70315
 2.0000e-001 71108 -4.0113e-001  1.5526e+001 -3.9932e+000 67344 71131,70912,70886
 2.0000e-001 71085 -3.2567e+000  9.5233e+000 -6.8162e+000 67344 71131,70886,70860
 2.0000e-001 71062  1.1656e+000  1.1973e+001 -2.2267e+000 67344 71203,70938,70912
 2.0000e-001 71039  2.8345e+000  7.6650e+000 -4.8375e+000 67344 70834,70990,70860
 2.0000e-001 71016  2.0956e+000  1.2930e+001 -1.6551e+000 67344 70938,70990,70964
 2.0000e-001 71157  1.1899e+000  1.1530e+001 -2.3094e+000 67344 71203,70912,71131
 2.0000e-001 71180  2.9077e-001  1.0036e+001 -4.0340e+000 67344 70990,71131,70860
 2.0000e-001 71229  9.7903e-001  1.2735e+001 -2.0781e+000 67344 70990,70938,71203
 2.0000e-001 71252  9.5659e-001  1.2165e+001 -2.0498e+000 67344 70990,71203,71131
 2.0000e-001 71603 -3.9550e-002  1.2101e+001 -1.7022e+000 67032 71378,71482,71404
 2.0000e-001 71580  1.1934e-001  6.5389e+000 -2.8138e+000 67032 71378,71508,71482
 2.0000e-001 71557 -1.1972e+000  9.8822e+000 -9.5578e-001 67032 71404,71456,71430
 2.0000e-001 71534 -9.7539e-001  1.0947e+001 -5.9290e-001 67032 71404,71482,71456
 2.0000e-001 72003 -3.1440e-001  1.0142e+001 -1.8137e-001 66834 71755,71859,71781
 2.0000e-001 71980  5.1635e-001  1.0788e+001  1.3922e-001 66834 71755,71885,71859
 2.0000e-001 71957  2.7586e+000  1.1065e+001  2.7823e+000 66834 71781,71833,71807
 2.0000e-001 71934 -1.1477e+000  9.6140e+000  1.3263e+000 66834 71781,71859,71833
 2.0000e-001 71911 -7.0307e-002  8.2044e+000 -1.9441e+000 66834 71729,71885,71755
 2.0000e-001 72430  1.9974e+000  6.6658e+000 -1.7213e-001 66266 72237,72289,72263
 2.0000e-001 72407  1.6902e+000  6.0699e+000 -8.1249e-001 66266 72133,72289,72237
 2.0000e-001 72384  3.0202e+000  6.7598e+000 -1.1710e+000 66266 72133,72237,72211
 2.0000e-001 72361  2.2856e+000  5.4252e+000 -1.4499e+000 66266 72107,72289,72133
 2.0000e-001 72338  3.5335e+000  8.0495e+000 -1.6691e+000 66266 72133,72211,72185
 2.0000e-001 72315  8.2015e+000  6.8384e+000 -1.1688e+000 66266 72133,72185,72159
 2.0000e-001 72580  5.9549e+000  2.7020e+001 -2.9097e+000 65968 72479,72531,72505
 2.0000e-001 72557  2.2416e+000  2.1711e+001 -1.2855e+000 65968 72453,72531,72479
 2.0000e-001 72960 -2.4949e+000  1.7104e+001  3.6644e-001 65621 72983,72738,72712
 2.0000e-001 72937 -1.4517e+000  1.3110e+001 -3.6780e-003 65621 72983,72712,72686
 2.0000e-001 72914 -6.9421e+000  6.4669e+000  5.9532e+000 65621 72738,72842,72764
 2.0000e-001 72891  1.6187e+000  8.7502e+000  7.7496e+000 65621 72764,72842,72816
 2.0000e-001 72868 -3.6544e+000 -1.1846e+000  1.0647e+001 65621 72764,72816,72790
 2.0000e-001 73009 -4.3310e-001  1.3406e+001  9.6925e-001 65621 72842,72738,72983
 2.0000e-001 73032 -1.9940e+000  5.8982e+000  6.4299e-001 65621 72842,72983,72686
 2.0000e-001 73361  8.8576e+000  2.6182e+001  5.3314e+000 65281 73456,73384,73188
 2.0000e-001 73338  3.4948e+001  2.4802e+001  2.3455e-001 65281 73384,73162,73136
 2.0000e-001 73315  4.4323e+000  2.5352e+001  8.3787e+000 65281 73188,73240,73214
 2.0000e-001 73292  6.2093e+000  1.5242e+001  2.1168e+000 65281 73136,73266,73240
 2.0000e-001 73410  9.6367e+000  2.9496e+001  4.0164e+000 65281 73240,73188,73384
 2.0000e-001 73433  1.6302e+001  1.7820e+001  5.9343e+000 65281 73240,73384,73136
 2.0000e-001 73482  1.0649e+001  2.3447e+001  1.3296e-001 65281 73162,73384,73456
 2.0000e-001 73711 -2.4219e+000  1.1613e+001 -2.1754e+000 64820 73734,73610,73584
 2.0000e-001 73688  4.8607e+000  2.7445e+001  1.5324e+000 64820 73734,73584,73662
 2.0000e-001 73760  4.5402e+000  1.4715e+001 -8.4217e-001 64820 73636,73610,73734
 2.0000e-001 73783 -2.1542e+000  1.7632e+001 -6.6559e+000 64820 73806,73734,73662
 2.0000e-001 73832 -7.7965e-001  8.6877e-001 -1.0888e+000 64820 73636,73734,73806
 2.0000e-001 74112  3.2353e-001  2.3972e+001 -3.2752e+000 64622 74278,74135,73988
 2.0000e-001 74089  4.4740e-001  1.9023e+001 -3.2314e+000 64622 74135,73936,74040
 2.0000e-001 74066 -2.7145e-001  2.3770e+001 -6.4152e+000 64622 74278,73988,73962
 2.0000e-001 74161 -1.0611e+000  2.1155e+001 -1.8789e+000 64622 74014,73988,74135
 2.0000e-001 74184 -8.8048e-001  1.6736e+001 -2.0279e+000 64622 74207,74135,74040
 2.0000e-001 74233  9.5179e-001  2.1019e+001 -2.0858e+000 64622 74014,74135,74207
 2.0000e-001 74304 -2.0571e+000  1.8421e+001 -3.3463e+000 64622 73936,74135,74278
 2.0000e-001 74327 -2.2362e+000  1.9239e+001 -6.6927e+000 64622 73936,74278,73962
 2.0000e-001 74526  1.3928e+000  2.4288e+001 -1.7544e+000 64424 74621,74549,74402
 2.0000e-001 74503  3.7261e-001  2.2821e+001 -1.6242e+000 64424 74549,74350,74454
 2.0000e-001 74480  1.5818e+000  2.4793e+001 -2.5450e+000 64424 74621,74402,74376
 2.0000e-001 74575  3.9185e+000  2.3159e+001 -1.6175e+000 64424 74428,74402,74549
 2.0000e-001 74598 -1.0454e-001  2.0181e+001 -6.3933e-001 64424 74693,74549,74454
 2.0000e-001 74647  8.2049e-001  2.3098e+001 -1.5037e+000 64424 74350,74549,74621
 2.0000e-001 74670  9.5908e-001  2.3380e+001 -2.3186e+000 64424 74350,74621,74376
 2.0000e-001 74719  1.3171e+000  2.2313e+001 -2.2145e+000 64424 74428,74549,74693
 2.0000e-001 75123 -9.3817e+000  5.0247e-001 -2.1734e+000 64126 74875,74953,74927
 2.0000e-001 75100 -7.0591e+000  5.7008e+000 -2.6629e+000 64126 74875,74979,74953
 2.0000e-001 75077 -3.6073e+001  7.5997e-001  1.4924e+000 64126 74875,75005,74979
 2.0000e-001 75054 -2.3145e+000 -1.8573e-001  3.0632e+000 64126 74875,74927,74901
 2.0000e-001 75031 -1.3973e+001  1.6555e+001  8.3866e+000 64126 74849,75005,74875
 2.0000e-001 75224  2.1580e-001  1.7195e+001 -4.4133e+000 63836 75146,75198,75172
 2.0000e-001 75472  1.4858e+001  2.1280e+001  3.9279e-002 63375 75273,75351,75325
 2.0000e-001 75449  1.1715e+001  1.9477e+001  8.9826e-001 63375 75273,75377,75351
 2.0000e-001 75426  1.2998e+001  1.7506e+001 -8.6538e-001 63375 75247,75377,75273
 2.0000e-001 75403  1.9434e+001  1.1864e+001 -5.0452e+000 63375 75273,75325,75299
 2.0000e-001 75673  2.3690e+000  1.6225e+001 -1.1022e+000 63063 75523,75575,75549
 2.0000e-001 75650  7.1184e-001  1.8658e+001  1.7093e-001 63063 75497,75575,75523
 2.0000e-001 75627  1.6353e+000  1.9882e+001 -1.6848e+000 63063 75497,75601,75575
 2.0000e-001 75874  8.0519e+000  2.7179e+001 -1.5774e+000 62716 75897,75750,75724
 2.0000e-001 75851  8.8450e+000  2.7814e+001 -1.3025e+000 62716 75897,75724,75698
 2.0000e-001 75828  7.3773e+000  2.5862e+001  2.6438e+000 62716 75698,75802,75776
 2.0000e-001 75923  5.7690e+000  2.7887e+001 -1.8576e+000 62716 75776,75750,75897
 2.0000e-001 75946  7.5533e+000  2.9077e+001 -1.3073e+000 62716 75776,75897,75698
 2.0000e-001 76328 -2.0508e+000  2.6111e+001 -8.4333e-001 62198 76495,76351,76158
 2.0000e-001 76305  1.4202e+000  2.4073e+001 -1.5243e+000 62198 76351,76080,76054
 2.0000e-001 76282  4.3007e+000  2.7698e+001  2.8065e+000 62198 76423,76184,76158
 2.0000e-001 76259 -2.4692e+000  2.7253e+001 -7.0063e-001 62198 76495,76158,76106
 2.0000e-001 76236 -8.6171e+000  2.9623e+001 -2.0901e+000 62198 76106,76158,76132
 2.0000e-001 76377 -2.2490e+000  2.5620e+001  2.9185e-001 62198 76423,76158,76351
 2.0000e-001 76400 -1.5192e+000  1.8919e+001 -3.7465e+000 62198 76210,76351,76054
 2.0000e-001 76449  8.1759e+000  2.3146e+001  3.5120e-001 62198 76210,76184,76423
 2.0000e-001 76472  5.4793e+000  2.4554e+001 -8.1269e-001 62198 76210,76423,76351
 2.0000e-001 76521 -1.9593e+000  2.3743e+001 -2.3489e+000 62198 76080,76351,76495
 2.0000e-001 76544 -1.5013e+000  2.6643e+001 -2.7691e+000 62198 76080,76495,76106
 2.0000e-001 76841 -2.6068e+000  1.4840e+001  4.1039e+000 61751 76936,76864,76645
 2.0000e-001 76818  8.4191e-001  1.3770e+001  1.7261e+000 61751 76864,76567,76723
 2.0000e-001 76795 -3.8161e+000  1.7423e+001  5.0453e+000 61751 76936,76645,76593
 2.0000e-001 76772  1.8537e+001  1.2132e+001  7.5231e+000 61751 77008,76697,76671
 2.0000e-001 76749 -2.7752e+000  1.7863e+001  4.9445e+000 61751 76593,76645,76619
 2.0000e-001 76890 -3.7036e+000  1.1021e+001  8.9686e+000 61751 76671,76645,76864
 2.0000e-001 76913  6.3126e+000  1.5180e+001  8.4681e+000 61751 77008,76671,76864
 2.0000e-001 76962 -4.5856e+000  1.1535e+001  2.7619e+000 61751 76567,76864,76936
 2.0000e-001 76985 -5.2606e+000  1.4278e+001  3.9739e+000 61751 76567,76936,76593
 2.0000e-001 77034  2.8626e+000  6.3958e+000  4.6391e+000 61751 76723,76697,77008
 2.0000e-001 77057 -6.7894e-001  1.0328e+001  6.3082e+000 61751 76723,77008,76864
 2.0000e-001 77207 -1.2345e+001  8.3870e+000 -3.0452e+000 61418 77106,77158,77132
 2.0000e-001 77184 -7.8335e+000  1.3825e+001 -1.1099e+000 61418 77080,77158,77106
 2.0000e-001 77638  7.3937e+000  2.4145e+001 -1.3768e+000 60814 77733,77661,77471
 2.0000e-001 77615  1.2935e+001  2.2831e+001  5.2492e-001 60814 77661,77393,77315
 2.0000e-001 77592  7.7150e+000  1.9941e+001 -3.2627e+000 60814 77733,77471,77445
 2.0000e-001 77569  1.2181e+001  2.7348e+001  6.5880e+000 60814 77315,77367,77341
 2.0000e-001 77546  7.5470e+000  2.0374e+001  3.4794e+000 60814 77315,77393,77367
 2.0000e-001 77523  9.9727e+000  1.5742e+001 -5.8407e+000 60814 77393,77445,77419
 2.0000e-001 77687  8.9654e+000  2.4781e+001 -5.7859e-001 60814 77497,77471,77661
 2.0000e-001 77710  7.8997e+000  2.2339e+001 -2.5480e-001 60814 77497,77661,77315
 2.0000e-001 77759  8.6920e+000  1.7761e+001 -1.5763e+000 60814 77393,77661,77733
 2.0000e-001 77782  8.7892e+000  1.4031e+001 -4.1106e+000 60814 77393,77733,77445
 2.0000e-001 78337 -8.9777e-001  1.2685e+001 -7.2600e+000 60210 78360,78017,77965
 2.0000e-001 78314 -3.2794e+000 -1.5101e+000 -7.2733e+000 60210 78360,77965,78173
 2.0000e-001 78291 -6.2313e+000  1.5526e+001 -2.1651e+000 60210 78432,78043,78017
 2.0000e-001 78268 -2.5270e+000  2.8671e+001 -1.6657e+001 60210 77965,78017,77991
 2.0000e-001 78245 -9.6820e+000  1.4894e+001  2.4499e+000 60210 78043,78095,78069
 2.0000e-001 78222  4.1843e+000  6.5883e+000  1.6426e-001 60210 78095,78173,78121
 2.0000e-001 78199  4.4912e+000  6.0752e+000  1.0100e+000 60210 78121,78173,78147
 2.0000e-001 78386 -2.4510e+000  1.6044e+001 -6.1531e+000 60210 78432,78017,78360
 2.0000e-001 78409  8.3308e+000  1.1757e+001 -2.0876e+000 60210 78095,78360,78173
 2.0000e-001 78458 -7.2266e+000  1.0211e+001  1.3227e+000 60210 78095,78043,78432
 2.0000e-001 78481 -5.0563e+000  9.1283e+000 -2.4805e+000 60210 78095,78432,78360
 2.0000e-001 78680 -4.2620e+000  2.3679e+001  2.9311e+000 59848 78703,78556,78530
 2.0000e-001 78657 -4.6657e+000  2.1023e+001  3.8890e-001 59848 78703,78530,78504
 2.0000e-001 78634  1.5418e-001  1.8303e+001 -7.5655e-001 59848 78504,78608,78582
 2.0000e-001 78729 -2.7215e+000  1.8413e+001  3.0635e+000 59848 78582,78556,78703
 2.0000e-001 78752 -3.4734e+000  1.7211e+001 -4.1342e-001 59848 78582,78703,78504
 2.0000e-001 78951  1.3959e+001  3.4058e+001 -2.4542e-001 59344 78974,78801,78775
 2.0000e-001 78928  1.4115e+001  3.4211e+001 -7.6970e-001 59344 79046,78974,78775
 2.0000e-001 78905  1.3274e+001  3.4367e+001 -5.0282e-001 59344 79046,78775,78879
 2.0000e-001 79000  1.4375e+001  3.4189e+001 -4.2495e-001 59344 78827,78801,78974
 2.0000e-001 79023  1.4043e+001  3.5284e+001 -1.3550e+000 59344 78827,78974,78853
 2.0000e-001 79072  1.2559e+001  3.4358e+001 -8.1865e-001 59344 78853,78974,79046
 2.0000e-001 79095  1.1568e+001  3.4426e+001 -6.8520e-001 59344 78853,79046,78879
 2.0000e-001 79296  1.2825e+001  4.3854e+001  1.6261e+000 58711 79319,79172,79146
 2.0000e-001 79273  7.8958e+000  4.1134e+001  2.9726e-001 58711 79319,79146,79120
 2.0000e-001 79250  1.4650e+001  3.6016e+001 -1.9544e+000 58711 79172,79224,79198
 2.0000e-001 79345  1.6586e+001  3.9902e+001  1.1270e+000 58711 79224,79172,79319
 2.0000e-001 79368  1.3580e+001  3.8700e+001  2.6735e-001 58711 79224,79319,79120
 2.0000e-001 79667  6.0162e+000  1.5890e+001  1.6072e+000 58285 79690,79471,79393
 2.0000e-001 79644  5.8778e+000  1.9643e+001  2.9109e+000 58285 79690,79393,79549
 2.0000e-001 79621  5.6582e+000  9.5786e+000  2.5992e+000 58285 79393,79471,79419
 2.0000e-001 79598  3.9401e+000  1.5902e+001 -6.9230e-001 58285 79497,79549,79523
 2.0000e-001 79575  8.2303e+000  1.5095e+001  1.3882e+000 58285 79419,79471,79445
 2.0000e-001 79716  5.7718e+000  1.2288e+001 -5.1392e-001 58285 79497,79471,79690
 2.0000e-001 79739  6.0660e+000  1.7909e+001  2.0354e-001 58285 79497,79690,79549
 2.0000e-001 80249  1.7141e+000  1.8920e+001  7.0548e+000 57831 80272,79978,79952
 2.0000e-001 80226 -1.3704e+000  2.0483e+001  3.0531e+000 57831 80272,79952,80108
 2.0000e-001 80203 -9.3289e+000  2.3044e+001  4.6870e+000 57831 79926,80108,79952
 2.0000e-001 80180  5.7353e-001  2.5492e+001  2.6365e+000 57831 80004,80082,80030
 2.0000e-001 80157 -1.6688e+000  1.7947e+001  2.7099e+000 57831 80004,80108,80082
 2.0000e-001 80134  1.0383e+000  3.2697e+001  5.7753e+000 57831 80030,80082,80056
 2.0000e-001 80298 -2.1492e+000  9.8711e+000  6.9090e+000 57831 80004,79978,80272
 2.0000e-001 80321 -2.2517e+000  1.7414e+001  3.2024e+000 57831 80004,80272,80108
 2.0000e-001 80618 -1.6024e+000  1.4964e+001  2.5889e-001 57077 80344,80448,80422
 2.0000e-001 80595  2.2747e+000  1.9643e+001 -5.0746e+000 57077 80344,80500,80448
 2.0000e-001 80572 -3.9667e+000  1.0598e+001  1.4668e+000 57077 80344,80422,80370
 2.0000e-001 80549  3.1949e+000  1.5827e+001 -1.1762e+000 57077 80370,80422,80396
 2.0000e-001 80526  4.5710e+000  7.2459e+000 -4.7876e+000 57077 80448,80500,80474
 2.0000e-001 80768  8.5071e+000  1.7352e+001 -8.5852e-001 56787 80791,80693,80667
 2.0000e-001 80745  8.5721e+000  1.6478e+001 -1.8851e+000 56787 80791,80667,80641
 2.0000e-001 80817  9.2048e+000  1.6778e+001 -1.6901e+000 56787 80719,80693,80791
 2.0000e-001 80840  5.2323e+000  1.0885e+001 -3.6882e+000 56787 80719,80791,80641
 2.0000e-001 81429  1.5023e+001  1.8926e+001 -5.2731e+000 56497 81452,81158,81132
 2.0000e-001 81406  1.1035e+001  1.2020e+001 -3.3152e+000 56497 81452,81132,81288
 2.0000e-001 81383  9.0759e+000  1.6527e+001 -1.9002e+000 56497 81524,81184,81158
 2.0000e-001 81360  1.2506e+001  1.4022e+001 -2.0668e+000 56497 81210,81288,81236
 2.0000e-001 81337  9.1672e+000  1.1363e+001 -3.2448e+000 56497 81106,81288,81132
 2.0000e-001 81314  1.8956e+001  1.0837e+001 -2.7367e+000 56497 81236,81288,81262
 2.0000e-001 81478  1.0298e+001  1.8659e+001 -3.4828e+000 56497 81524,81158,81452
 2.0000e-001 81501  1.3217e+001  1.5744e+001 -2.2073e+000 56497 81210,81452,81288
 2.0000e-001 81550  8.6170e+000  1.4285e+001  1.1490e-001 56497 81210,81184,81524
 2.0000e-001 81573  9.8559e+000  1.5247e+001 -1.5866e+000 56497 81210,81524,81452
 2.0000e-001 81870  5.6376e+000  2.3706e+001 -1.5952e-001 55979 81893,81674,81648
 2.0000e-001 81847  3.8357e-001  2.1086e+001 -1.4642e+000 55979 81893,81648,81752
 2.0000e-001 81824  5.3483e+000  3.1132e+001  7.9768e-001 55979 81596,81752,81648
 2.0000e-001 81801  1.2655e+001  2.5743e+001 -2.6181e+000 55979 81674,81726,81700
 2.0000e-001 81778  5.6311e-001  1.8709e+001  6.1120e+000 55979 81596,81648,81622
 2.0000e-001 81919  8.6908e+000  2.1694e+001 -4.8616e+000 55979 81726,81674,81893
 2.0000e-001 81942  1.1413e+000  1.7751e+001 -6.5337e+000 55979 81726,81893,81752
 2.0000e-001 82371 -5.8493e+000  7.0744e+000 -2.2711e+000 55631 82100,82204,82152
 2.0000e-001 82348 -4.6457e+000  2.6197e+000 -4.1412e+000 55631 82100,82230,82204
 2.0000e-001 82325 -1.2532e+001  5.5121e+000 -4.9604e+000 55631 82100,82152,82126
 2.0000e-001 82302 -2.9126e+000  5.7972e+000 -5.9067e+000 55631 82074,82230,82100
 2.0000e-001 82279 -2.1493e+000  1.4775e+001 -3.8075e+000 55631 82152,82204,82178
 2.0000e-001 82256  8.1167e-002 -9.5612e-001 -4.7062e+000 55631 82048,82230,82074
 2.0000e-001 82521  3.4132e+000  1.2947e+001 -4.5069e-001 55227 82544,82420,82394
 2.0000e-001 82498  3.7550e+000  1.3571e+001 -6.2208e-001 55227 82544,82394,82472
 2.0000e-001 82570  3.9897e+000  1.2171e+001 -4.2053e-001 55227 82446,82420,82544
 2.0000e-001 82593  4.5852e+000  1.2868e+001 -7.4972e-001 55227 82446,82544,82472
 2.0000e-001 82875  4.3601e+000  1.9734e+001  3.5701e+000 54979 82699,82777,82725
 2.0000e-001 82852  1.1866e+001  1.4601e+001  1.5508e+000 54979 82699,82803,82777
 2.0000e-001 82829  1.1216e+001  4.1753e+001  1.4572e+001 54979 82725,82777,82751
 2.0000e-001 83204  5.2907e+000  1.9081e+001  1.4228e+000 54475 83005,83083,83057
 2.0000e-001 83181  4.4978e+000  1.5450e+001  4.4196e+000 54475 82979,83083,83005
 2.0000e-001 83158  9.4559e+000  2.2021e+001 -8.0350e-001 54475 83005,83057,83031
 2.0000e-001 83135  1.2706e+001  3.4845e+001 -1.4425e-001 54475 82979,83109,83083
 2.0000e-001 83582  8.1479e+000  2.1901e+001 -1.2673e-001 54071 83605,83438,83412
 2.0000e-001 83559  5.5882e+000  1.8961e+001  2.3168e+000 54071 83749,83605,83412
 2.0000e-001 83536  5.2423e+000  2.0574e+001 -2.2707e+000 54071 83677,83360,83334
 2.0000e-001 83513  4.2779e+000  1.9883e+001  2.6813e+000 54071 83749,83412,83677
 2.0000e-001 83490 -1.0025e+001  2.3164e+001  1.2668e+001 54071 83308,83464,83334
 2.0000e-001 83631  5.8162e+000  1.9278e+001  3.7104e+000 54071 83464,83438,83605
 2.0000e-001 83654  4.4459e+000  1.4575e+001  4.6728e+000 54071 83464,83605,83334
 2.0000e-001 83703 -3.0448e+000  1.8238e+001 -2.8229e+000 54071 83386,83360,83677
 2.0000e-001 83726 -9.1378e-003  1.9922e+001  2.3079e+000 54071 83386,83677,83412
 2.0000e-001 83775  2.9849e+000  1.8143e+001  1.9152e+000 54071 83334,83605,83749
 2.0000e-001 83798  1.4104e+000  1.8893e+001  2.2926e+000 54071 83334,83749,83677
 2.0000e-001 84068  5.4504e+000  1.0031e+001  5.0727e-001 53524 83869,83921,83895
 2.0000e-001 84045  5.7916e+000  1.1792e+001 -4.0024e-002 53524 83869,83947,83921
 2.0000e-001 84022  7.5287e+000  1.3831e+001  7.1003e-001 53524 83843,83947,83869
 2.0000e-001 83999  3.9341e+000  1.2986e+001  9.0529e-001 53524 83843,83973,83947
 2.0000e-001 84497  2.6145e+000  2.3079e+001 -2.6573e+000 53184 84200,84330,84252
 2.0000e-001 84474  2.4177e+000  2.4693e+001 -7.5470e-001 53184 84200,84356,84330
 2.0000e-001 84451  5.3225e+000  3.8791e+001 -1.7877e+000 53184 84200,84252,84226
 2.0000e-001 84428  5.5929e+000  2.2044e+001 -4.0139e-001 53184 84252,84330,84278
 2.0000e-001 84405 -7.6823e-001  2.3661e+001 -1.3154e+000 53184 84174,84356,84200
 2.0000e-001 84382  1.1709e+001  2.5525e+001 -4.5809e+000 53184 84278,84330,84304
 2.0000e-001 84954  1.0094e+001  2.5310e+001  3.4775e+000 52680 84706,84836,84784
 2.0000e-001 84931  6.3685e+000  2.1891e+001  8.8070e+000 52680 84680,84836,84706
 2.0000e-001 84908  5.9830e+000  2.5268e+001  2.7626e+000 52680 84784,84836,84810
 2.0000e-001 84885  1.0043e+001  1.9647e+001  2.0971e+000 52680 84706,84784,84732
 2.0000e-001 84862  2.1279e+001  1.9352e+001  6.9822e+000 52680 84732,84784,84758
 2.0000e-001 85202  7.5548e+000  7.0418e+000  3.8888e-001 52226 85029,85081,85055
 2.0000e-001 85179 -2.8074e+000  6.8404e+000 -1.1738e+000 52226 85225,85081,85029
 2.0000e-001 85156 -2.3016e+000  7.7826e+000 -3.3888e+000 52226 85225,85029,85003
 2.0000e-001 85133  6.6369e+000  1.5020e+001 -5.1739e+000 52226 84977,85107,85003
 2.0000e-001 85251 -2.1379e+000  7.1241e+000 -3.1876e+000 52226 85107,85081,85225
 2.0000e-001 85274  3.4730e+000  1.2544e+001 -6.2828e+000 52226 85107,85225,85003
 2.0000e-001 85522  5.9871e+000  1.0392e+001 -4.5825e+000 51764 85297,85349,85323
 2.0000e-001 85499  3.6963e+000  1.0845e+001 -1.2187e+000 51764 85545,85297,85427
 2.0000e-001 85476  5.3648e+000  1.1702e+001 -4.4594e-001 51764 85545,85427,85375
 2.0000e-001 85453  5.4519e+000  1.2714e+001 -1.1574e-001 51764 85375,85427,85401
 2.0000e-001 85571  1.8137e+000  1.1442e+001 -2.2305e+000 51764 85349,85297,85545
 2.0000e-001 85594  3.4519e+000  1.2638e+001 -1.2932e+000 51764 85349,85545,85375
 2.0000e-001 85746  5.0863e+000  1.5770e+001 -9.4628e-001 51374 85645,85697,85671
 2.0000e-001 85723  5.3699e+000  1.4928e+001 -2.7816e-001 51374 85619,85697,85645
 2.0000e-001 86256  1.2711e+001  1.6156e+001 -4.6880e-001 50970 86279,86011,85959
 2.0000e-001 86233  1.1154e+001  1.3667e+001  3.6579e-001 50970 86279,85959,86115
 2.0000e-001 86210  1.3940e+001  1.8511e+001 -2.1342e+000 50970 85959,86011,85985
 2.0000e-001 86187  1.3026e+001  2.7420e+001  7.6887e+000 50970 86037,86115,86089
 2.0000e-001 86164  1.5963e+001  1.5901e+001  1.9474e+000 50970 85933,86115,85959
 2.0000e-001 86141 -4.1708e+000  1.9871e+001  4.4994e-001 50970 86037,86089,86063
 2.0000e-001 86305  1.0341e+001  1.9653e+001 -6.4766e-001 50970 86037,86011,86279
 2.0000e-001 86328  8.5373e+000  1.6893e+001  2.7566e-001 50970 86037,86279,86115
 2.0000e-001 86478 -5.2450e+001 -2.6566e+000  6.2107e-001 50451 86351,86403,86377
 2.0000e-001 86455 -3.3803e+001 -5.3606e+000 -1.3539e+001 50451 86351,86429,86403
 2.0000e-001 86907  8.4644e+000  2.3233e+001  5.8458e-002 50047 86930,86714,86662
 2.0000e-001 86884  5.8792e+000  2.3663e+001 -4.1997e-001 50047 86930,86662,86610
 2.0000e-001 86861 -2.1808e-002  3.0717e+001  5.2173e+000 50047 87002,86740,86714
 2.0000e-001 86838 -3.2252e+000  1.8999e+001 -6.3866e+000 50047 86662,86714,86688
 2.0000e-001 86815  7.9740e+000  2.8028e+001 -1.1501e+000 50047 86610,86662,86636
 2.0000e-001 86792  1.1871e+001  2.1068e+001 -1.4937e+000 50047 86584,86766,86610
 2.0000e-001 86956  6.0691e+000  2.3044e+001  4.6153e-001 50047 87002,86714,86930
 2.0000e-001 86979  1.0398e+001  2.0648e+001 -1.2446e-001 50047 86766,86930,86610
 2.0000e-001 87028  1.1116e+001  2.6003e+001  6.4562e+000 50047 86766,86740,87002
 2.0000e-001 87051  1.4260e+001  2.4751e+001  3.0218e+000 50047 86766,87002,86930
 2.0000e-001 87250  6.3945e+000  2.4315e+001 -4.8011e+000 49543 87273,87126,87100
 2.0000e-001 87227  8.8698e+000  2.3952e+001 -5.5209e+000 49543 87273,87100,87074
 2.0000e-001 87204  6.8406e+000  2.6133e+001 -1.0339e+000 49543 87126,87178,87152
 2.0000e-001 87299  3.5897e+000  2.3250e+001 -2.4018e+000 49543 87178,87126,87273
 2.0000e-001 87322  7.4202e+000  2.4425e+001 -3.4585e+000 49543 87178,87273,87074
 2.0000e-001 87570 -1.5209e+000  1.7927e+001 -2.2763e-001 49146 87593,87449,87397
 2.0000e-001 87547 -3.0740e-001  1.9560e+001 -2.6344e+000 49146 87593,87397,87371
 2.0000e-001 87524 -2.5996e+000  2.6989e+001 -1.5432e+000 49146 87345,87475,87371
 2.0000e-001 87501 -7.3441e+000  1.8404e+001 -5.5439e-001 49146 87397,87449,87423
 2.0000e-001 87619  1.4872e+000  1.9649e+001 -1.0959e+000 49146 87475,87449,87593
 2.0000e-001 87642  1.0438e+000  2.0208e+001 -3.2860e+000 49146 87475,87593,87371
 2.0000e-001 88073  6.7415e+000  3.4699e+001  2.1821e+000 48706 87854,87932,87880
 2.0000e-001 88050  1.1394e+001  4.0774e+001 -3.2228e-001 48706 87828,87932,87854
 2.0000e-001 88027  8.3789e+000  3.5715e+001 -1.5797e+000 48706 87750,87932,87828
 2.0000e-001 88004 -1.1914e+001  6.4041e+001 -2.0834e+001 48706 87750,87802,87776
 2.0000e-001 87981  1.9253e+001  6.7203e+001 -3.4598e-001 48706 87750,87828,87802
 2.0000e-001 87958  1.3639e+001  3.7991e+001  1.2144e+000 48706 87880,87932,87906
 2.0000e-001 88402  3.9791e+000  2.4307e+001 -9.1443e-001 48145 88203,88281,88255
 2.0000e-001 88379  1.1899e+000  2.3538e+001  5.5441e-001 48145 88203,88307,88281
 2.0000e-001 88356 -1.5519e+000  2.7471e+001 -1.0971e-001 48145 88203,88255,88229
 2.0000e-001 88333 -4.9407e-001  2.1333e+001 -5.5903e-001 48145 88177,88307,88203
 2.0000e-001 88601  1.3440e+001  2.6500e+001 -9.3574e-001 47805 88696,88624,88477
 2.0000e-001 88578  1.7536e+001  2.9415e+001  2.9491e+000 47805 88826,88624,88451
 2.0000e-001 88555  1.4968e+001  2.7351e+001  8.7526e-001 47805 88826,88451,88425
 2.0000e-001 88650  1.4425e+001  2.8313e+001  1.2272e+000 47805 88503,88477,88624
 2.0000e-001 88673  2.1354e+001  3.0449e+001  1.0058e+000 47805 88503,88624,88529
 2.0000e-001 88722  2.6872e+001  3.2473e+001  1.9782e+000 47805 88451,88624,88696
 2.0000e-001 88852  1.7618e+001  2.5850e+001 -6.4253e-001 47805 88529,88624,88826
 2.0000e-001 88875  1.4938e+001  2.3976e+001 -2.7323e+000 47805 88529,88826,88425
 2.0000e-001 89172  7.8778e+000  2.0207e+001 -2.7578e+000 47401 89195,88976,88898
 2.0000e-001 89149  1.0319e+001  2.1500e+001 -4.4678e+000 47401 89195,88898,89054
 2.0000e-001 89126  4.8209e+000  1.9088e+001 -2.0832e+000 47401 88898,88976,88950
 2.0000e-001 89103  4.0612e+000  1.6645e+001  8.7129e-001 47401 88976,89028,89002
 2.0000e-001 89080  6.7656e+000  2.2608e+001 -4.2001e+000 47401 88898,88950,88924
 2.0000e-001 89221  4.9083e+000  1.7239e+001  1.2079e+000 47401 89028,88976,89195
 2.0000e-001 89244  1.1298e+001  2.0592e+001 -8.2351e-001 47401 89028,89195,89054
 2.0000e-001 89575  5.1577e+000  2.4945e+001 -2.5150e-001 47111 89350,89454,89376
 2.0000e-001 89552  1.0931e+001  2.7555e+001 -1.2662e+000 47111 89350,89480,89454
 2.0000e-001 89529  9.9954e+000  2.3366e+001 -3.0499e+000 47111 89376,89454,89402
 2.0000e-001 89506  1.4401e+001  3.1011e+001  2.1868e-001 47111 89402,89454,89428
 2.0000e-001 89904  2.3116e+001  3.3007e+001  8.1260e-001 46707 89705,89757,89731
 2.0000e-001 89881  2.1930e+001  3.7943e+001 -2.3090e+000 46707 89705,89783,89757
 2.0000e-001 89858  1.7948e+001  3.7181e+001  1.1847e-001 46707 89679,89783,89705
 2.0000e-001 89835  2.4033e+001  3.7232e+001 -3.1304e+000 46707 89679,89809,89783
 2.0000e-001 90233  1.1905e+001  3.6037e+001 -3.0563e+000 46360 90034,90112,90086
 2.0000e-001 90210  5.5290e+000  3.3684e+001 -3.4135e+000 46360 90034,90138,90112
 2.0000e-001 90187  2.2923e+000  3.7922e+001 -2.1275e+000 46360 90034,90086,90060
 2.0000e-001 90164  4.5236e+000  3.7388e+001 -6.6263e+000 46360 90008,90138,90034
 2.0000e-001 90530  4.0831e+000  1.7879e+001  1.4642e-001 45662 90256,90360,90308
 2.0000e-001 90507  5.0481e+000  1.9614e+001 -8.2791e-001 45662 90256,90412,90360
 2.0000e-001 90484  4.8758e+000  1.8011e+001 -3.1511e-001 45662 90256,90308,90282
 2.0000e-001 90461  2.6597e+000  1.4294e+001 -3.3279e-001 45662 90360,90412,90386
 2.0000e-001 90438  5.8086e+000  1.5929e+001 -1.0201e+000 45662 90308,90360,90334
 2.0000e-001 90910  1.0950e+001  3.1521e+001  1.8650e+000 45108 90688,90766,90714
 2.0000e-001 90887  8.8003e+000  2.9448e+001  6.4005e-001 45108 90662,90766,90688
 2.0000e-001 90864  7.1530e-001  2.5664e+001 -9.1979e-001 45108 90636,90766,90662
 2.0000e-001 90841  5.1119e+000  3.5805e+001  6.2197e+000 45108 90714,90766,90740
 2.0000e-001 90818  6.7218e+000  3.0345e+001 -2.9845e+000 45108 90636,90792,90766
 2.0000e-001 91158  1.1208e+000  2.3132e+001  1.0167e+000 44604 91181,91011,90959
 2.0000e-001 91135 -2.3718e+000  2.2790e+001  1.7615e+000 44604 91181,90959,90933
 2.0000e-001 91112  3.0609e+000  2.5294e+001 -7.1075e-002 44604 90959,91011,90985
 2.0000e-001 91089 -2.5000e+000  2.4107e+001 -4.7060e+000 44604 90933,91063,91037
 2.0000e-001 91207  3.0808e+000  2.2465e+001 -3.3182e-001 44604 91037,91011,91181
 2.0000e-001 91230  3.9666e-001  2.3769e+001 -4.6473e-001 44604 91037,91181,90933
 2.0000e-001 91429  2.9200e+000  2.0887e+001 -7.9108e-001 44264 91452,91279,91253
 2.0000e-001 91406  4.4390e+000  2.0971e+001 -1.4280e+000 44264 91452,91253,91357
 2.0000e-001 91383  5.3204e+000  2.0703e+001  7.6461e-001 44264 91279,91331,91305
 2.0000e-001 91478  4.4407e+000  1.9458e+001 -3.6081e-001 44264 91331,91279,91452
 2.0000e-001 91501  6.9344e+000  2.0216e+001 -8.3737e-001 44264 91331,91452,91357
 2.0000e-001 92060  1.6868e+001  3.1262e+001  5.8828e-001 43860 92083,91740,91688
 2.0000e-001 92037  5.4500e+000  3.2956e+001 -3.9853e+000 43860 92083,91688,91896
 2.0000e-001 92014  9.5635e+000  3.0017e+001 -3.5480e+000 43860 91766,91870,91844
 2.0000e-001 91991  6.7569e+000  2.9049e+001 -5.0100e+000 43860 91740,91870,91766
 2.0000e-001 91968  5.8201e+000  2.8015e+001 -4.3001e+000 43860 91766,91844,91792
 2.0000e-001 91945  1.0320e+001  3.9261e+001  1.0620e+001 43860 91688,91740,91714
 2.0000e-001 91922  3.8815e+000  3.8122e+001 -2.1826e+000 43860 91792,91844,91818
 2.0000e-001 92109  7.1241e+000  2.9612e+001 -4.6721e+000 43860 91870,91740,92083
 2.0000e-001 92132 -5.1112e+000  2.9276e+001 -1.0056e+001 43860 91870,92083,91896
 2.0000e-001 92353  5.3402e+000  2.7129e+001  5.5781e+000 43662 92203,92255,92229
 2.0000e-001 92330  1.6253e+001  3.2970e+001  2.7081e-001 43662 92376,92203,92281
 2.0000e-001 92307 -3.8528e-001  2.7729e+001 -6.8858e+000 43662 92177,92281,92203
 2.0000e-001 92402  2.2025e+001  3.5445e+001  3.4170e-001 43662 92255,92203,92376
 2.0000e-001 92682  4.7742e+000  2.0445e+001 -1.5206e-001 43464 92532,92584,92558
 2.0000e-001 92659  5.7834e+000  2.0320e+001 -1.3559e-001 43464 92506,92584,92532
 2.0000e-001 92636  5.8105e+000  2.0537e+001 -3.8434e-001 43464 92506,92610,92584
 2.0000e-001 93013  9.8388e+000  2.4147e+001 -7.6481e+000 42960 92866,92918,92892
 2.0000e-001 92990  4.4292e+000  2.5553e+001 -2.5132e+000 42960 93036,92918,92866
 2.0000e-001 92967  3.7132e+000  2.4605e+001 -2.0495e+000 42960 93036,92866,92840
 2.0000e-001 92944  2.7924e+000  2.8877e+001 -3.1316e+000 42960 92788,92918,92814
 2.0000e-001 93062  3.8904e+000  2.7680e+001 -3.5736e+000 42960 92814,92918,93036
 2.0000e-001 93085  1.3244e+000  2.5863e+001 -2.6022e+000 42960 92814,93036,92840
 2.0000e-001 93186  5.6214e+000  2.1479e+001  2.7138e+000 42556 93108,93160,93134
 2.0000e-001 93554  3.4216e+000  2.2664e+001 -1.2881e+000 42052 93231,93387,93361
 2.0000e-001 93531  5.1183e+000  2.1660e+001 -4.2373e+000 42052 93231,93413,93387
 2.0000e-001 93508  6.4846e+000  2.1869e+001 -1.8457e+000 42052 93231,93361,93257
 2.0000e-001 93485  2.6470e+000  1.6377e+001  3.6956e-001 42052 93283,93361,93335
 2.0000e-001 93462 -2.2524e+000  1.8140e+001 -2.6572e+000 42052 93257,93361,93283
 2.0000e-001 93439 -3.3874e+000  1.2946e+001  4.6956e+000 42052 93283,93335,93309
 2.0000e-001 94162 -2.1255e+000  2.2666e+001  3.0412e+000 41498 93767,93975,93793
 2.0000e-001 94139  2.8816e+000  2.4322e+001  8.0728e-002 41498 93741,93975,93767
 2.0000e-001 94116  3.3958e+000  1.9581e+001  2.7011e+000 41498 93793,93975,93923
 2.0000e-001 94093  5.0233e+000  2.3667e+001 -3.2519e+000 41498 93923,93975,93949
 2.0000e-001 94070  1.5557e+000  1.7460e+001  4.7212e+000 41498 93871,93923,93897
 2.0000e-001 94047  2.4200e+000  1.7071e+001  4.9220e+000 41498 93793,93923,93871
 2.0000e-001 94024  8.9464e+000  1.9624e+001  2.5994e+000 41498 93819,93871,93845
 2.0000e-001 94001  3.6281e+000  1.6572e+001  4.0768e+000 41498 93793,93871,93819
 2.0000e-001 94619  1.7692e+001  2.8363e+001  3.7548e+000 40930 94642,94423,94371
 2.0000e-001 94596  1.5644e+001  2.8327e+001  1.6216e+000 40930 94642,94371,94345
 2.0000e-001 94573  1.7772e+001  3.3726e+001  4.0584e-002 40930 94345,94501,94475
 2.0000e-001 94550  1.3456e+001  3.1554e+001  4.8683e+000 40930 94371,94423,94397
 2.0000e-001 94527  1.8749e+001  2.2657e+001  2.3614e-001 40930 94423,94475,94449
 2.0000e-001 94668  1.5834e+001  2.4875e+001  2.8916e+000 40930 94475,94423,94642
 2.0000e-001 94691  1.4964e+001  2.7045e+001  1.0759e+000 40930 94475,94642,94345
 2.0000e-001 95148  8.6630e+000  2.9481e+001 -5.2040e+000 40362 95171,94952,94926
 2.0000e-001 95125  8.6019e+000  3.0026e+001 -2.8686e+000 40362 95171,94926,95004
 2.0000e-001 95102  1.0574e+001  2.7918e+001 -3.3684e+000 40362 94874,95004,94926
 2.0000e-001 95079 -2.8195e+000  2.5608e+001 -7.9679e+000 40362 94874,95030,95004
 2.0000e-001 95056  8.7377e+000  3.6354e+001  8.8064e+000 40362 94874,94926,94900
 2.0000e-001 95197  9.0919e+000  3.1851e+001 -5.2234e+000 40362 94978,94952,95171
 2.0000e-001 95220  9.1037e+000  3.2315e+001 -2.9685e+000 40362 94978,95171,95004
 2.0000e-001 95549  9.5466e+000  2.1794e+001 -2.3339e+000 39586 95350,95402,95376
 2.0000e-001 95526  6.4257e+000  2.0738e+001 -1.9907e+000 39586 95324,95402,95350
 2.0000e-001 95503  6.9806e+000  2.1918e+001 -2.1411e+000 39586 95324,95454,95402
 2.0000e-001 95480  1.0392e+001  3.2022e+001 -7.5960e-001 39586 95402,95454,95428
 2.0000e-001 96055  3.0853e+000  1.6736e+001 -8.7829e-002 38968 96078,95862,95810
 2.0000e-001 96032  6.3644e+000  1.7341e+001  1.1564e+000 38968 96078,95810,95758
 2.0000e-001 96009  1.7144e+000  1.7622e+001  1.1773e+000 38968 96150,95732,95888
 2.0000e-001 95986  3.2003e+000  1.6361e+001 -6.4778e-001 38968 95810,95862,95836
 2.0000e-001 95963  1.0655e+000  1.6475e+001  2.4443e+000 38968 95732,95914,95888
 2.0000e-001 95940  9.8435e+000  2.1484e+001 -8.8630e-001 38968 95758,95810,95784
 2.0000e-001 96104  4.3658e+000  1.7405e+001 -3.3494e-001 38968 95888,95862,96078
 2.0000e-001 96127  3.8699e+000  1.7204e+001 -4.6191e-001 38968 96150,95888,96078
 2.0000e-001 96176 -1.7801e+000  1.5506e+001  3.1478e+000 38968 95758,95732,96150
 2.0000e-001 96199  8.3522e-001  1.4849e+001  1.6721e+000 38968 95758,96150,96078
 2.0000e-001 96545  6.2397e+000  2.4342e+001  2.5650e-001 38507 96640,96568,96352
 2.0000e-001 96522  1.2482e+001  2.4180e+001 -2.5886e+000 38507 96568,96300,96222
 2.0000e-001 96499  3.1735e+000  2.3458e+001 -5.9290e-001 38507 96640,96352,96326
 2.0000e-001 96476  4.2464e+000  2.7236e+001  1.8516e+000 38507 96352,96404,96378
 2.0000e-001 96453  1.3198e+001  2.4903e+001 -2.2038e+000 38507 96222,96300,96248
 2.0000e-001 96430  2.2338e+001  2.8147e+001 -1.0059e+001 38507 96248,96300,96274
 2.0000e-001 96594  5.0811e+000  2.5258e+001  4.7529e-002 38507 96404,96352,96568
 2.0000e-001 96617  6.5040e+000  2.3328e+001  1.1063e+000 38507 96404,96568,96222
 2.0000e-001 96666  5.7386e+000  2.2326e+001 -2.6781e+000 38507 96300,96568,96640
 2.0000e-001 96689  4.6905e+000  2.2252e+001 -3.4921e+000 38507 96300,96640,96326
 2.0000e-001 97069  8.6519e+000  2.2936e+001 -1.6997e-002 37760 97092,96873,96821
 2.0000e-001 97046  8.5661e+000  2.2941e+001 -4.3904e-001 37760 97092,96821,96795
 2.0000e-001 97023  8.7996e+000  2.8334e+001 -1.5355e+000 37760 96821,96873,96847
 2.0000e-001 97000  6.4132e+000  2.4884e+001 -1.0189e+000 37760 96873,96925,96899
 2.0000e-001 96977  1.5017e+001  2.3360e+001 -5.1715e+000 37760 96795,96951,96925
 2.0000e-001 97118  8.5082e+000  2.2578e+001 -3.6490e-002 37760 96925,96873,97092
 2.0000e-001 97141  8.3921e+000  2.2589e+001 -4.9538e-001 37760 96925,97092,96795
 2.0000e-001 97647  1.0027e+001  2.9918e+001 -6.8428e-001 37356 97324,97480,97376
 2.0000e-001 97624  4.8826e-001  2.8215e+001 -4.1423e+000 37356 97324,97506,97480
 2.0000e-001 97601  1.0334e+001  2.7911e+001 -9.9088e-001 37356 97376,97480,97454
 2.0000e-001 97578  1.4398e+001  3.7717e+001 -2.4234e+000 37356 97324,97376,97350
 2.0000e-001 97555  4.3998e+000  2.3351e+001 -5.2731e+000 37356 97376,97454,97402
 2.0000e-001 97532  1.3416e+001  3.6410e+001 -1.1182e+000 37356 97402,97454,97428
 2.0000e-001 98232  1.1388e+001  1.9570e+001  3.1266e-002 36902 97935,98065,98013
 2.0000e-001 98209  2.8371e+000  1.6446e+001 -2.6323e-001 36902 97935,98091,98065
 2.0000e-001 98186  3.3521e+000  1.4929e+001  1.9164e+000 36902 97935,98013,97987
 2.0000e-001 98163 -2.3509e+000  1.7231e+001 -2.2451e+000 36902 97909,98091,97935
 2.0000e-001 98140  6.7446e+000  2.1673e+001  7.6495e-001 36902 97935,97987,97961
 2.0000e-001 98117  1.1649e+001  1.9686e+001  5.3079e-001 36902 98013,98065,98039
 2.0000e-001 98659  1.2095e+001  4.2764e+001 -6.0729e-002 36604 98682,98414,98388
 2.0000e-001 98636  1.2396e+001  4.2328e+001 -2.5436e+000 36604 98682,98388,98336
 2.0000e-001 98613  2.2150e+001  3.8891e+001 -1.3758e+000 36604 98754,98518,98466
 2.0000e-001 98590  2.2039e+000  3.0921e+001 -9.2495e-001 36604 98414,98466,98440
 2.0000e-001 98567  5.2088e+000  5.3244e+001 -4.0546e+000 36604 98336,98388,98362
 2.0000e-001 98544  1.8635e+001  3.6428e+001 -7.1152e+000 36604 98466,98518,98492
 2.0000e-001 98708  1.1005e+001  3.8124e+001  2.2593e+000 36604 98466,98414,98682
 2.0000e-001 98731  1.8034e+001  4.2038e+001 -4.3196e-001 36604 98754,98466,98682
 2.0000e-001 98780  1.8024e+001  3.9280e+001 -1.9477e+000 36604 98336,98518,98754
 2.0000e-001 98803  1.1314e+001  4.0029e+001 -2.2477e+000 36604 98336,98754,98682
 2.0000e-001 99309  1.6177e+000  1.5548e+001 -1.0119e+000 36200 99332,99116,99012
 2.0000e-001 99286  1.9741e+000  1.0398e+001  1.4345e+000 36200 99332,99012,98986
 2.0000e-001 99263  4.0995e+000  1.2953e+001 -3.8460e+000 36200 99012,99116,99064
 2.0000e-001 99240  5.9104e+000  2.4133e+001  7.1435e-001 36200 98986,99168,99142
 2.0000e-001 99217 -1.3862e+001  1.9058e+001 -7.5607e+000 36200 99064,99116,99090
 2.0000e-001 99194  5.9637e+000  1.3329e+001 -2.5593e+000 36200 99012,99064,99038
 2.0000e-001 99358  2.3411e+000  1.8838e+001 -1.9957e+000 36200 99142,99116,99332
 2.0000e-001 99381  3.4355e+000  1.5750e+001  9.7792e-001 36200 99142,99332,98986
 2.0000e-001 99887  1.4209e+001  2.2839e+001 -2.5059e-001 35488 99564,99720,99590
 2.0000e-001 99864  1.4315e+001  2.2713e+001  6.7182e-001 35488 99564,99746,99720
 2.0000e-001 99841  1.2388e+001  2.5423e+001 -2.7211e-001 35488 99642,99694,99668
 2.0000e-001 99818  1.4531e+001  2.7310e+001 -1.9614e+000 35488 99590,99694,99642
 2.0000e-001 99795  1.1033e+001  2.2337e+001 -4.2660e-001 35488 99590,99720,99694
 2.0000e-001 99772  1.2602e+001  3.1783e+001 -1.9980e+000 35488 99590,99642,99616
 2.0000e-001 99988  4.8051e+000  2.6436e+001 -3.3129e+000 35198 99910,99962,99936
 2.0000e-001 100138  1.4639e+001  4.5391e+001  5.8216e+000 34794 100233,100161,100063
 2.0000e-001 100115  2.4006e+001  4.8725e+001  2.0939e+000 34794 100365,100161,100037
 2.0000e-001 100187  2.0302e+001  4.2858e+001  5.4494e+000 34794 100089,100063,100161
 2.0000e-001 100210  1.3666e+001  3.8349e+001  3.4554e+000 34794 100089,100161,100011
 2.0000e-001 100259  1.7199e+001  5.1682e+001  5.4755e+000 34794 100037,100161,100233
 2.0000e-001 100391  9.6965e+000  3.3573e+001  8.9990e+000 34794 100011,100161,100365
 2.0000e-001 100927  4.2316e+000  2.1291e+001  7.2786e-001 34404 100679,100809,100783
 2.0000e-001 100904  8.7002e+000  2.2045e+001  1.4391e+000 34404 100653,100809,100679
 2.0000e-001 100881  9.8157e+000  2.6286e+001  2.6438e-001 34404 100705,100783,100731
 2.0000e-001 100858  9.9016e+000  2.4350e+001 -8.0112e-001 34404 100679,100783,100705
 2.0000e-001 100835  1.1407e+001  2.9331e+001  8.6319e-001 34404 100731,100783,100757
 2.0000e-001 101354  1.0509e+001  2.9692e+001  2.3927e+000 34000 101377,101109,101057
 2.0000e-001 101331  6.0910e+000  2.6945e+001  1.1138e+000 34000 101449,101377,101057
 2.0000e-001 101308  3.8000e+000  3.0213e+001  8.2736e-001 34000 101449,101057,101031
 2.0000e-001 101285  9.4098e+000  3.2664e+001 -1.2095e+001 34000 101031,101213,101187
 2.0000e-001 101262  8.4646e+000  3.8467e+001  3.5619e+000 34000 101135,101187,101161
 2.0000e-001 101239  4.7186e+000  7.9190e+000  8.6938e+000 34000 101057,101109,101083
 2.0000e-001 101403  8.8386e+000  2.6054e+001  1.9895e+000 34000 101135,101109,101377
 2.0000e-001 101426  1.1383e+001  2.7539e+001  2.2492e-001 34000 101135,101377,101187
 2.0000e-001 101475  1.0598e+001  3.0422e+001 -5.8244e-001 34000 101187,101377,101449
 2.0000e-001 101498  6.7566e+000  3.1834e+001 -5.1939e-002 34000 101187,101449,101031
 2.0000e-001 102083  3.8789e+000  2.2568e+001 -1.6058e+000 33472 102106,101812,101786
 2.0000e-001 102060  6.7635e+000  2.2936e+001 -3.5880e-001 33472 102106,101786,101916
 2.0000e-001 102037  6.4670e+000  2.4178e+001 -3.1578e-001 33472 101812,101864,101838
 2.0000e-001 102014  3.6360e+000  2.9725e+001  1.0555e+000 33472 101864,101916,101890
 2.0000e-001 101991  1.1703e+001  2.2858e+001  6.9123e-001 33472 101786,101942,101916
 2.0000e-001 101968  1.2240e+001  2.5317e+001  1.7990e+000 33472 101760,101942,101786
 2.0000e-001 102132  5.9483e+000  2.3815e+001 -4.8499e-001 33472 101864,101812,102106
 2.0000e-001 102155  7.2693e+000  2.3552e+001  8.0360e-001 33472 101864,102106,101916
 2.0000e-001 102612  1.0838e+001  2.6827e+001  2.6231e+000 33038 102635,102468,102390
 2.0000e-001 102589  1.7703e+001  3.5954e+001  7.7867e+000 33038 102635,102390,102364
 2.0000e-001 102566  1.5409e+001  2.1456e+001  1.0655e+000 33038 102390,102468,102442
 2.0000e-001 102543  5.0901e+000  2.4397e+001 -4.0420e-001 33038 102338,102494,102364
 2.0000e-001 102520  1.4497e+001  2.2040e+001  2.8255e+000 33038 102390,102442,102416
 2.0000e-001 102661  9.8321e+000  2.4396e+001 -2.2635e+000 33038 102494,102468,102635
 2.0000e-001 102684  1.0659e+001  2.9118e+001  1.9249e+000 33038 102494,102635,102364
 2.0000e-001 103318  1.0868e+001  2.2900e+001 -2.7728e-001 32402 102972,103128,103076
 2.0000e-001 103295  1.0054e+001  2.3057e+001 -2.7027e-001 32402 102946,103128,102972
 2.0000e-001 103272  1.5791e+001  3.3216e+001  2.1131e+000 32402 103076,103128,103102
 2.0000e-001 103249  1.2666e+001  2.4059e+001 -1.9265e+000 32402 102946,103154,103128
 2.0000e-001 103226  8.1049e+000  2.0693e+001  9.3986e-001 32402 102972,103076,102998
 2.0000e-001 103203 -5.2763e+000  2.2121e+001  4.2187e+000 32402 102998,103076,103050
 2.0000e-001 103180  3.2664e+000  4.3520e+001 -3.2825e+000 32402 102998,103050,103024
 2.0000e-001 103696  4.7529e+000  2.2018e+001  6.2812e-001 31924 103448,103526,103500
 2.0000e-001 103673  3.2845e+000  2.1964e+001  2.9193e+000 31924 103448,103578,103526
 2.0000e-001 103650  9.0418e+000  1.7250e+001 -1.0522e-001 31924 103448,103500,103474
 2.0000e-001 103627 -2.0444e+000  2.7191e+001  1.6330e+000 31924 103422,103578,103448
 2.0000e-001 103604 -7.9435e-001  2.7478e+001  2.4825e+000 31924 103526,103578,103552
 2.0000e-001 104281  4.9538e+000  1.8345e+001 -1.2564e+000 31520 104304,104062,104036
 2.0000e-001 104258  9.5503e+000  2.1181e+001  1.0734e-001 31520 104304,104036,103984
 2.0000e-001 104235  6.1101e+000  2.0749e+001  2.3701e+000 31520 104062,104114,104088
 2.0000e-001 104212 -3.5235e+000  1.8057e+001  2.2778e+000 31520 103958,104114,103984
 2.0000e-001 104189  1.3319e+001  2.9936e+001 -1.0035e+000 31520 103984,104036,104010
 2.0000e-001 104166  2.1114e-001  2.8508e+001  4.3809e-001 31520 103958,104140,104114
 2.0000e-001 104330  4.5029e+000  2.1728e+001  9.0969e-001 31520 104114,104062,104304
 2.0000e-001 104353  6.1200e+000  2.2384e+001  1.2264e+000 31520 104114,104304,103984
 2.0000e-001 104704  9.0475e+000  2.2883e+001  2.2354e-001 31066 104479,104583,104505
 2.0000e-001 104681  4.1252e+000  2.1105e+001  6.5469e-001 31066 104479,104609,104583
 2.0000e-001 104658  7.7887e-001  2.5982e+001 -1.5894e+000 31066 104505,104557,104531
 2.0000e-001 104635  2.2666e+000  1.9579e+001 -1.0771e+000 31066 104505,104583,104557
 2.0000e-001 104925  1.3507e+001  3.3809e+001 -6.9102e-001 30754 104775,104827,104801
 2.0000e-001 104902  1.6168e+001  3.2670e+001 -1.8413e+000 30754 104775,104853,104827
 2.0000e-001 104879  7.4047e+000  2.8876e+001 -2.4305e+000 30754 104749,104853,104775
 2.0000e-001 105482  1.2019e+001  2.6004e+001  1.2218e+000 30164 105505,105136,105110
 2.0000e-001 105459  1.0206e+001  3.0311e+001 -2.9096e-001 30164 105649,105505,105110
 2.0000e-001 105436  4.1370e+000  2.1962e+001  5.4216e+000 30164 105577,105188,105136
 2.0000e-001 105413  1.1937e+001  3.2657e+001 -1.0521e+001 30164 105649,105110,105318
 2.0000e-001 105390  1.2789e+001  1.3121e+001  3.5598e-001 30164 105214,105292,105240
 2.0000e-001 105367  2.3104e+001  1.4244e+001  1.3160e+000 30164 105240,105292,105266
 2.0000e-001 105344  6.1116e+000  2.7314e+001  3.6074e+000 30164 105136,105188,105162
 2.0000e-001 105531  8.4626e+000  2.3020e+001 -5.7894e-002 30164 105577,105136,105505
 2.0000e-001 105554  1.5869e+001  2.0751e+001  1.5533e+000 30164 105214,105505,105292
 2.0000e-001 105603  3.2499e+000  1.4627e+001  9.4868e+000 30164 105214,105188,105577
 2.0000e-001 105626  5.4369e+000  1.4366e+001  4.2916e+000 30164 105214,105577,105505
 2.0000e-001 105675  3.6622e+000  1.4685e+001 -1.5797e+000 30164 105292,105505,105649
 2.0000e-001 105698  3.4810e+000  1.0375e+001 -1.0009e+001 30164 105292,105649,105318
 2.0000e-001 106027  8.3492e+000  3.0618e+001 -3.9446e-001 29868 106322,106050,105880
 2.0000e-001 106004  1.0881e+001  2.3061e+001  1.2442e+000 29868 106250,106050,105828
 2.0000e-001 105981  1.0545e+001  2.4122e+001  3.5759e+000 29868 106250,105828,105802
 2.0000e-001 105958  1.1083e+001  3.1898e+001 -2.1903e+000 29868 106322,105880,106122
 2.0000e-001 106076  1.0086e+001  3.5541e+001 -7.7836e-001 29868 105906,105880,106050
 2.0000e-001 106099  7.9444e+000  2.9285e+001  9.6067e-001 29868 105906,106050,105932
 2.0000e-001 106148  2.2893e+001  4.7692e+001 -2.8468e+000 29868 105854,105828,106122
 2.0000e-001 106276  1.2261e+001  2.6226e+001  1.4199e+000 29868 105932,106050,106250
 2.0000e-001 106299  1.2508e+001  2.8558e+001  4.0328e+000 29868 105932,106250,105802
 2.0000e-001 106348  1.3330e+001  2.8928e+001 -1.5830e+000 29868 105828,106050,106322
 2.0000e-001 106371  1.5449e+001  2.9506e+001 -3.2233e+000 29868 105828,106322,106122
 2.0000e-001 106828  3.6069e+000  1.3543e+001 -6.1385e+000 29521 106580,106710,106684
 2.0000e-001 106805  8.2280e+000  1.8009e+001 -2.8303e+000 29521 106554,106710,106580
 2.0000e-001 106782  4.5349e-001  1.1629e+001 -7.0001e+000 29521 106580,106684,106606
 2.0000e-001 106759  7.1532e+000  1.9861e+001 -8.5848e-001 29521 106606,106684,106658
 2.0000e-001 106736  5.2892e+000  2.2843e+001  1.9096e-001 29521 106606,106658,106632
 2.0000e-001 107027  7.5589e+000  2.3786e+001 -2.8968e+000 29117 106877,106929,106903
 2.0000e-001 107004  1.2002e+001  2.5666e+001 -4.6230e+000 29117 106851,106929,106877
 2.0000e-001 106981  1.1274e+001  2.1046e+001 -3.8367e+000 29117 106851,106955,106929
 2.0000e-001 107456  1.2719e+001  3.0755e+001 -3.9656e-001 28656 107237,107315,107263
 2.0000e-001 107433  1.0162e+001  2.7877e+001 -1.4776e+000 28656 107133,107315,107237
 2.0000e-001 107410  6.1884e+000  2.1846e+001  5.8943e-001 28656 107133,107237,107159
 2.0000e-001 107387  6.9908e+000  2.1193e+001  5.5590e-001 28656 107159,107237,107185
 2.0000e-001 107364  2.6165e+000  1.9802e+001  2.1597e+000 28656 107185,107237,107211
 2.0000e-001 107341  1.3276e+001  3.7346e+001 -9.0871e+000 28656 107263,107315,107289
 2.0000e-001 107704  1.2626e+001  2.8199e+001 -6.0454e-001 27902 107727,107557,107531
 2.0000e-001 107681  1.2775e+001  3.0117e+001 -7.8061e-001 27902 107727,107531,107505
 2.0000e-001 107658  1.2344e+001  2.9612e+001 -1.2843e+000 27902 107557,107609,107583
 2.0000e-001 107635  1.5091e+001  3.2736e+001 -9.9878e-001 27902 107479,107609,107505
 2.0000e-001 107753  1.2419e+001  2.9669e+001 -1.3432e+000 27902 107609,107557,107727
 2.0000e-001 107776  1.2377e+001  3.1298e+001 -1.5484e+000 27902 107609,107727,107505
 2.0000e-001 108333  7.9901e+000  2.5118e+001 -6.7378e-001 27341 108356,108065,108013
 2.0000e-001 108310  8.0618e+000  2.4600e+001  1.7449e+000 27341 108356,108013,108143
 2.0000e-001 108287  8.3157e+000  2.6731e+001  1.0991e+000 27341 108428,108117,108091
 2.0000e-001 108264  7.3401e+000  2.4670e+001 -4.3399e-001 27341 108013,108065,108039
 2.0000e-001 108241  6.4767e+000  2.2264e+001  9.2425e-001 27341 107987,108143,108013
 2.0000e-001 108218 -3.8679e+000  1.7761e+001  2.2232e+000 27341 107987,108169,108143
 2.0000e-001 108195 -9.2370e+000  2.6049e+001  2.8156e+000 27341 107961,108169,107987
 2.0000e-001 108382  8.9370e+000  2.7329e+001 -6.1170e-001 27341 108091,108065,108356
 2.0000e-001 108405  8.9585e+000  2.5149e+001  6.3990e-001 27341 108428,108091,108356
 2.0000e-001 108454  9.2554e+000  3.0122e+001  1.7634e+000 27341 108143,108117,108428
 2.0000e-001 108477  9.4054e+000  2.7752e+001  1.3668e+000 27341 108143,108428,108356
 2.0000e-001 108725  1.1288e+001  3.5691e+001  2.0417e+000 27029 108748,108526,108500
 2.0000e-001 108702  1.2040e+001  2.5468e+001  1.2793e+000 27029 108748,108500,108630
 2.0000e-001 108679  1.5255e+001  3.7756e+001  5.6671e+000 27029 108578,108630,108604
 2.0000e-001 108656  1.3263e+001  3.3500e+001 -1.1815e+001 27029 108526,108578,108552
 2.0000e-001 108774  1.2333e+001  4.2199e+001  2.0746e+000 27029 108578,108526,108748
 2.0000e-001 108797  1.5106e+001  3.4734e+001  2.2311e+000 27029 108578,108748,108630
 2.0000e-001 109045  1.0134e+001  2.5521e+001 -8.3724e-001 26610 108872,108924,108898
 2.0000e-001 109022  1.0674e+001  2.5155e+001 -1.0149e+000 26610 108872,108950,108924
 2.0000e-001 108999  1.1016e+001  2.5204e+001 -5.1098e-001 26610 108846,108950,108872
 2.0000e-001 108976  1.2129e+001  2.1269e+001 -9.5683e-001 26610 108820,108950,108846
 2.0000e-001 109366  4.6245e+000  2.6197e+001  6.5250e-001 26006 109144,109222,109196
 2.0000e-001 109343  3.7819e+000  2.5473e+001  3.4443e-001 26006 109118,109222,109144
 2.0000e-001 109320  5.8987e+000  2.7007e+001 -6.4401e-001 26006 109092,109222,109118
 2.0000e-001 109297  7.0651e+000  2.7174e+001  1.3173e+000 26006 109144,109196,109170
 2.0000e-001 109274  1.8920e+000  1.9633e+001  9.5139e-001 26006 109092,109248,109222
 2.0000e-001 109567  9.3656e+000  2.6823e+001 -2.8821e+000 25659 109391,109469,109443
 2.0000e-001 109544  1.0291e+001  2.7274e+001 -3.0529e+000 25659 109391,109495,109469
 2.0000e-001 109521  8.7581e+000  2.4131e+001 -3.0644e+000 25659 109391,109443,109417
 2.0000e-001 109900  1.4792e+001  3.8234e+001  2.6294e+000 25255 109923,109779,109753
 2.0000e-001 109877  1.3473e+001  3.3074e+001 -7.4458e-001 25255 109923,109753,109701
 2.0000e-001 109854  1.8919e+001  3.1938e+001  4.5022e+000 25255 109675,109805,109701
 2.0000e-001 109831  1.4610e+001  2.8302e+001  1.0632e+000 25255 109701,109753,109727
 2.0000e-001 109949  1.8147e+001  4.5940e+001  7.6747e+000 25255 109805,109779,109923
 2.0000e-001 109972  1.3953e+001  3.6611e+001  4.0132e+000 25255 109805,109923,109701
 2.0000e-001 110220  7.5612e+000  3.1573e+001 -6.9596e-002 24701 110243,110021,109995
 2.0000e-001 110197  7.6096e+000  3.1054e+001 -1.3425e+000 24701 110243,109995,110099
 2.0000e-001 110174  7.1800e+000  3.1761e+001 -1.8839e-001 24701 110315,110073,110047
 2.0000e-001 110151  8.9558e+000  3.5782e+001 -2.6813e+000 24701 109995,110125,110099
 2.0000e-001 110269  1.3731e+001  3.5411e+001  1.7173e+000 24701 110047,110021,110243
 2.0000e-001 110292  7.5260e+000  3.1603e+001 -4.4314e-001 24701 110315,110047,110243
 2.0000e-001 110341  6.9652e+000  3.1180e+001  1.7913e-001 24701 110099,110073,110315
 2.0000e-001 110364  7.2523e+000  3.0905e+001 -1.6631e-001 24701 110099,110315,110243
 2.0000e-001 110661  1.0297e+001  2.8577e+001 -1.4403e+000 24197 110684,110413,110387
 2.0000e-001 110638  9.1688e+000  2.6478e+001 -8.0052e-001 24197 110684,110387,110543
 2.0000e-001 110615  9.0740e+000  3.0858e+001 -1.2397e+000 24197 110756,110491,110465
 2.0000e-001 110592 -2.1630e+000  2.9148e+001 -1.4672e+000 24197 110413,110465,110439
 2.0000e-001 110569  9.4897e+000  3.4732e+001  4.4922e+000 24197 110491,110543,110517
 2.0000e-001 110710  8.2056e+000  2.7530e+001 -2.0108e+000 24197 110465,110413,110684
 2.0000e-001 110733  9.3822e+000  2.9791e+001 -1.2154e+000 24197 110756,110465,110684
 2.0000e-001 110782  9.6675e+000  2.9605e+001 -2.2511e-002 24197 110543,110491,110756
 2.0000e-001 110805  9.4966e+000  2.7874e+001 -3.8402e-002 24197 110543,110756,110684
 2.0000e-001 111315  1.9286e+001  4.1212e+001  3.7035e+000 23593 111044,111148,111070
 2.0000e-001 111292  9.7726e+000  3.0486e+001 -1.0411e+000 23593 111044,111174,111148
 2.0000e-001 111269  1.7521e+001  2.8786e+001  5.1809e-001 23593 111070,111122,111096
 2.0000e-001 111246  1.7380e+001  3.7397e+001  3.0422e+000 23593 111070,111148,111122
 2.0000e-001 111223  2.2703e+001  4.0877e+001  8.9852e+000 23593 111018,111174,111044
 2.0000e-001 111200  5.8872e+000  4.6104e+001  5.7736e+000 23593 110992,111174,111018
 2.0000e-001 111821  5.9183e+000  2.5672e+001  6.9571e-001 23089 111916,111844,111628
 2.0000e-001 111798  9.4889e+000  2.8118e+001  1.0285e+000 23089 111844,111550,111524
 2.0000e-001 111775  5.2200e+000  2.4446e+001  3.5681e-001 23089 111916,111628,111602
 2.0000e-001 111752  7.8529e+000  3.4152e+001 -1.3916e+000 23089 111498,111680,111524
 2.0000e-001 111729  6.0340e+000  2.1605e+001  3.6654e-001 23089 111550,111602,111576
 2.0000e-001 111706  6.7765e+000  1.9131e+001  2.3316e+000 23089 111628,111680,111654
 2.0000e-001 111870  8.8562e+000  2.5181e+001 -4.7081e-001 23089 111680,111628,111844
 2.0000e-001 111893  9.7427e+000  2.7063e+001 -2.2826e+000 23089 111680,111844,111524
 2.0000e-001 111942  7.9767e+000  2.3501e+001  1.2228e+000 23089 111550,111844,111916
 2.0000e-001 111965  7.1235e+000  2.2217e+001  7.6884e-001 23089 111550,111916,111602
 2.0000e-001 112164  6.8569e+000  2.7202e+001  1.7293e+000 22626 112187,112014,111988
 2.0000e-001 112141  9.8490e+000  3.0168e+001  5.2463e-001 22626 112259,112187,111988
 2.0000e-001 112118  9.5187e+000  3.1007e+001 -1.0579e+000 22626 112259,111988,112092
 2.0000e-001 112213  9.2790e+000  2.2142e+001  1.1394e+000 22626 112040,112014,112187
 2.0000e-001 112236  1.2923e+001  2.7481e+001 -7.9549e-001 22626 112040,112187,112066
 2.0000e-001 112285  9.0016e+000  2.7632e+001  5.3032e-001 22626 112066,112187,112259
 2.0000e-001 112308  8.4778e+000  2.8253e+001 -9.5268e-001 22626 112066,112259,112092
 2.0000e-001 112605  1.6787e+001  3.1808e+001 -1.7736e+000 22286 112628,112383,112357
 2.0000e-001 112582  1.5399e+001  3.0954e+001 -1.3242e+000 22286 112772,112628,112357
 2.0000e-001 112559  1.6317e+001  3.4056e+001 -2.6922e+000 22286 112700,112435,112409
 2.0000e-001 112536  1.4906e+001  3.1030e+001 -1.1038e+000 22286 112772,112357,112331
 2.0000e-001 112513  1.9339e+001  3.2768e+001 -2.6937e+000 22286 112435,112487,112461
 2.0000e-001 112654  1.5835e+001  3.0861e+001 -2.3656e+000 22286 112409,112383,112628
 2.0000e-001 112677  1.5579e+001  3.2232e+001 -2.6723e+000 22286 112700,112409,112628
 2.0000e-001 112726  1.6015e+001  3.3055e+001 -1.4390e+000 22286 112487,112435,112700
 2.0000e-001 112749  1.5895e+001  3.2704e+001 -1.4872e+000 22286 112487,112700,112628
 2.0000e-001 112798  1.5611e+001  3.1194e+001 -1.4158e+000 22286 112487,112628,112772
 2.0000e-001 112821  1.5414e+001  3.1454e+001 -1.2999e+000 22286 112487,112772,112331
 2.0000e-001 112924  9.1080e+000  4.0453e+001  1.5753e+000 21974 112846,112898,112872
 2.0000e-001 113223  1.2142e+001  2.8498e+001 -7.4816e-001 21420 112949,113053,112975
 2.0000e-001 113200  1.2902e+001  2.7794e+001 -1.3229e+000 21420 112949,113079,113053
 2.0000e-001 113177  8.6301e+000  2.7370e+001 -1.3155e+000 21420 112975,113053,113001
 2.0000e-001 113154  1.5245e+001  2.9829e+001 -6.6944e-001 21420 113001,113053,113027
 2.0000e-001 113131  1.1604e+001  2.9553e+001 -2.7412e+000 21420 112949,113105,113079
 2.0000e-001 113605  1.1642e+001  3.6962e+001 -2.1101e+000 20716 113331,113435,113357
 2.0000e-001 113582  1.3410e+001  3.0984e+001 -3.0805e+000 20716 113331,113461,113435
 2.0000e-001 113559  1.2263e+001  3.9822e+001  1.7586e+000 20716 113383,113435,113409
 2.0000e-001 113536  1.2466e+001  3.5890e+001  2.5216e-001 20716 113357,113435,113383
 2.0000e-001 113513 -1.1359e+001  2.2092e+001 -1.6738e+000 20716 113331,113487,113461
 2.0000e-001 113853  1.1175e+001  2.5592e+001 -1.4566e+000 20290 113876,113680,113654
 2.0000e-001 113830  8.7206e+000  2.7070e+001 -5.4605e-001 20290 113876,113654,113628
 2.0000e-001 113807  1.0457e+001  2.5165e+001 -2.6121e+000 20290 113948,113732,113680
 2.0000e-001 113784  2.2458e+001  2.4292e+001 -7.9724e+000 20290 113680,113732,113706
 2.0000e-001 113902  1.1545e+001  2.6583e+001 -1.5551e+000 20290 113948,113680,113876
 2.0000e-001 113925  9.8882e+000  3.1119e+001 -1.7402e+000 20290 113758,113876,113628
 2.0000e-001 113974  9.2419e+000  2.6216e+001 -2.9507e+000 20290 113758,113732,113948
 2.0000e-001 113997  9.4011e+000  2.6465e+001 -2.1177e+000 20290 113758,113948,113876
 2.0000e-001 114365  5.8094e+000  2.6002e+001 -8.3753e-002 19900 114146,114198,114172
 2.0000e-001 114342  6.2901e+000  2.6217e+001 -1.2926e-002 19900 114042,114198,114146
 2.0000e-001 114319  5.3918e+000  2.5716e+001  4.8670e-001 19900 114042,114224,114198
 2.0000e-001 114296  9.2154e+000  2.5904e+001 -1.0991e-001 19900 114094,114146,114120
 2.0000e-001 114273  6.1412e+000  2.4667e+001  6.3720e-001 19900 114042,114146,114094
 2.0000e-001 114250  4.3214e+000  2.4429e+001  1.2091e+000 19900 114042,114094,114068
 2.0000e-001 114566  5.7918e+000  2.2799e+001 -2.1376e-001 19496 114442,114494,114468
 2.0000e-001 114543  1.6753e+001  2.7256e+001  4.8883e+000 19496 114416,114494,114442
 2.0000e-001 114520 -3.9615e+000  2.3678e+001  6.0739e+000 19496 114390,114494,114416
 2.0000e-001 114767  6.6553e+000  2.6302e+001 -1.9127e-001 19042 114790,114669,114643
 2.0000e-001 114744  7.8329e+000  2.6154e+001 -2.5848e-001 19042 114790,114643,114591
 2.0000e-001 114721  8.1436e+000  2.8791e+001 -1.1044e+000 19042 114591,114643,114617
 2.0000e-001 114816  5.1684e+000  2.6330e+001 -1.6094e-001 19042 114695,114669,114790
 2.0000e-001 114839  6.7209e+000  2.6437e+001  2.2926e-002 19042 114695,114790,114591
 2.0000e-001 114991  7.9459e+000  2.5752e+001  8.1207e-001 18488 114864,114916,114890
 2.0000e-001 114968  7.4081e+000  2.9700e+001  5.4217e-001 18488 114864,114942,114916
 2.0000e-001 115192  9.9421e+000  2.4966e+001  8.4133e-001 18098 115215,115042,115016
 2.0000e-001 115169  7.9340e+000  2.3504e+001  1.4898e+000 18098 115215,115016,115120
 2.0000e-001 115146  8.9705e+000  2.5511e+001 -5.2794e-001 18098 115287,115094,115068
 2.0000e-001 115241  8.4674e+000  2.5074e+001  2.6256e-001 18098 115068,115042,115215
 2.0000e-001 115264  8.7929e+000  2.5418e+001  1.2545e-001 18098 115287,115068,115215
 2.0000e-001 115313  7.9657e+000  2.5325e+001 -1.2248e-001 18098 115120,115094,115287
 2.0000e-001 115336  7.5043e+000  2.5139e+001  5.0478e-001 18098 115120,115287,115215
 2.0000e-001 115846  1.3159e+001  3.5101e+001  4.4152e+000 17644 115653,115705,115679
 2.0000e-001 115823  1.5696e+001  3.3151e+001  2.7702e+000 17644 115627,115705,115653
 2.0000e-001 115800  9.7667e+000  2.9880e+001 -1.6371e+000 17644 115549,115705,115627
 2.0000e-001 115777  8.8530e+000  3.3819e+001 -4.0119e-001 17644 115549,115627,115575
 2.0000e-001 115754  2.7694e+000  2.4344e+001 -5.6437e+000 17644 115523,115705,115549
 2.0000e-001 115731  6.9205e+000  3.3281e+001 -3.9783e-001 17644 115575,115627,115601
 2.0000e-001 116067  1.6428e+001  3.6590e+001  1.5055e+000 17116 115891,115943,115917
 2.0000e-001 116044  1.6776e+001  4.1096e+001  4.2850e-001 17116 115891,115995,115943
 2.0000e-001 116021  1.3359e+001  3.5066e+001 -9.8187e-001 17116 115943,115995,115969
 2.0000e-001 116288  1.5281e+000  9.0157e+000 -1.1658e+000 16704 116164,116216,116190
 2.0000e-001 116265  3.7541e+000  1.0286e+001 -1.2629e-001 16704 116112,116216,116164
 2.0000e-001 116242  1.1386e+001  7.6550e+000  5.4189e+000 16704 116112,116164,116138
 2.0000e-001 116489  1.4410e+001  3.7302e+001 -6.1482e-001 16434 116339,116417,116365
 2.0000e-001 116466  1.1123e+001  3.6196e+001 -1.6896e-001 16434 116313,116417,116339
 2.0000e-001 116443  3.1677e+001  4.1859e+001 -1.4116e+001 16434 116365,116417,116391
 2.0000e-001 116592  9.7330e+000  2.5338e+001 -8.8325e-002 15967 116514,116566,116540
 2.0000e-001 116695 -4.3665e+000  3.9288e+001  6.6080e+000 15552 116617,116669,116643
 2.0000e-001 116798  5.2488e+000  2.4433e+001  0.0000e+000 421 116720,116772,116746
 3.0000e-001 69066 -1.0759e-001 -3.6633e-001  2.6274e-002 68738 68965,69017,68991
 3.0000e-001 69043  5.5684e-001 -1.2883e-001 -1.0322e-001 68738 68939,69017,68965
 3.0000e-001 69371 -5.0739e+000  2.5453e+000  3.5457e+000 68426 69172,69250,69198
 3.0000e-001 69348  1.2156e-001  5.7969e+000  2.1611e+000 68426 69146,69250,69172
 3.0000e-001 69325 -1.4943e+000  8.5408e+000  7.3632e+000 68426 69198,69250,69224
 3.0000e-001 69302  9.1148e-002  5.0662e-001  9.8605e-001 68426 69146,69276,69250
 3.0000e-001 69521 -8.2159e+000  2.9576e+001  1.7336e+000 68228 69420,69472,69446
 3.0000e-001 69498  1.0731e+000  3.7500e+001 -2.6918e+000 68228 69394,69472,69420
 3.0000e-001 69781 -2.8669e+000  8.5810e+000  2.2480e+000 68030 69631,69683,69657
 3.0000e-001 69758  2.3590e+000  1.0542e+001  3.1665e+000 68030 69631,69709,69683
 3.0000e-001 69735  9.2522e-001 -8.6606e-001 -9.5461e-001 68030 69605,69709,69631
 3.0000e-001 70078  5.4780e+000  2.7404e+001  6.0067e+000 67832 69882,69934,69908
 3.0000e-001 70055 -7.8328e+000  1.5693e+001  1.1519e+001 67832 69856,69934,69882
 3.0000e-001 70032 -1.5296e-001  2.8650e+001  7.8913e+000 67832 69830,69934,69856
 3.0000e-001 70009 -1.9121e+000  2.3899e+001 -2.4463e+000 67832 69804,69934,69830
 3.0000e-001 69986 -4.7988e+000  3.6937e+001  3.8266e+000 67832 69804,69960,69934
 3.0000e-001 70586  3.0207e+000  1.6134e+001 -8.8692e-002 67634 70609,70419,70341
 3.0000e-001 70563 -1.2930e+000  1.3252e+001  1.1886e+000 67634 70681,70609,70341
 3.0000e-001 70540 -1.5536e+000  1.2334e+001  4.7082e+000 67634 70681,70341,70315
 3.0000e-001 70517  5.3246e+000  1.3841e+001 -4.1094e+000 67634 70341,70419,70367
 3.0000e-001 70494  1.5626e+001  1.3273e+001  4.5878e+000 67634 70263,70445,70289
 3.0000e-001 70471  1.7784e+000  6.3272e+000 -1.8310e+000 67634 70367,70419,70393
 3.0000e-001 70635  4.9413e-001  8.4097e+000 -6.3537e-001 67634 70445,70419,70609
 3.0000e-001 70658  9.2602e+000  1.9260e+001 -4.4180e+000 67634 70445,70609,70289
 3.0000e-001 70707  1.4170e+000  2.1165e+001 -2.3224e+000 67634 70289,70609,70681
 3.0000e-001 70730 -2.0676e+000  1.7681e+001  1.7113e+000 67634 70289,70681,70315
 3.0000e-001 71108 -1.2836e-002  2.3053e+001 -7.8200e+000 67344 71131,70912,70886
 3.0000e-001 71085 -4.1864e+000  1.3772e+001 -9.8176e+000 67344 71131,70886,70860
 3.0000e-001 71062 -3.3363e-001  1.7627e+001 -4.4663e+000 67344 71203,70938,70912
 3.0000e-001 71039  3.0161e+000  1.0698e+001 -6.7325e+000 67344 70834,70990,70860
 3.0000e-001 71016  3.7636e+000  1.9952e+001 -3.0129e+000 67344 70938,70990,70964
 3.0000e-001 71157  1.2944e-001  1.6337e+001 -4.9689e+000 67344 71203,70912,71131
 3.0000e-001 71180 -4.6372e-001  1.3877e+001 -5.6570e+000 67344 70990,71131,70860
 3.0000e-001 71229  2.7746e-001  1.9152e+001 -4.0059e+000 67344 70990,70938,71203
 3.0000e-001 71252  1.1044e+000  1.7942e+001 -4.2874e+000 67344 70990,71203,71131
 3.0000e-001 71603  4.8847e-001  1.8772e+001 -2.3952e+000 67032 71378,71482,71404
 3.0000e-001 71580  7.7586e-001  1.0740e+001 -3.9899e+000 67032 71378,71508,71482
 3.0000e-001 71557 -2.8553e+000  1.4375e+001 -2.0793e+000 67032 71404,71456,71430
 3.0000e-001 71534 -1.0396e+000  1.6101e+001 -1.3624e+000 67032 71404,71482,71456
 3.0000e-001 72003 -6.9572e-002  1.4363e+001  1.2709e-001 66834 71755,71859,71781
 3.0000e-001 71980  7.0265e-001  1.6789e+001  6.1006e-001 66834 71755,71885,71859
 3.0000e-001 71957  4.1259e+000  1.7352e+001  4.3718e+000 66834 71781,71833,71807
 3.0000e-001 71934 -1.1877e+000  1.3782e+001  2.2840e+000 66834 71781,71859,71833
 3.0000e-001 71911 -2.8121e-001  1.1847e+001 -3.9463e+000 66834 71729,71885,71755
 3.0000e-001 72430  1.5472e+000  1.0253e+001  8.9793e-001 66266 72237,72289,72263
 3.0000e-001 72407  4.2005e-001  7.8916e+000 -5.3581e-001 66266 72133,72289,72237
 3.0000e-001 72384  3.1872e+000  1.0258e+001 -1.5436e+000 66266 72133,72237,72211
 3.0000e-001 72361  1.8429e+000  6.3199e+000 -2.0840e+000 66266 72107,72289,72133
 3.0000e-001 72338  3.7918e+000  1.1617e+001 -1.2512e+000 66266 72133,72211,72185
 3.0000e-001 72315  1.1577e+001  9.3673e+000 -4.7312e-001 66266 72133,72185,72159
 3.0000e-001 72580  8.5791e+000  4.0604e+001 -5.5609e+000 65968 72479,72531,72505
 3.0000e-001 72557  1.4771e+000  2.3695e+001 -2.8807e+000 65968 72453,72531,72479
 3.0000e-001 72960 -4.0178e+000  2.3601e+001  9.1777e-001 65621 72983,72738,72712
 3.0000e-001 72937 -2.7642e+000  1.8051e+001  3.5355e-001 65621 72983,72712,72686
 3.0000e-001 72914 -1.0138e+001  8.4431e+000  8.3099e+000 65621 72738,72842,72764
 3.0000e-001 72891  9.8006e-001  1.0928e+001  1.1435e+001 65621 72764,72842,72816
 3.0000e-001 72868 -4.9574e+000  6.1567e-001  1.4548e+001 65621 72764,72816,72790
 3.0000e-001 73009 -1.2278e+000  1.8521e+001  1.7506e+000 65621 72842,72738,72983
 3.0000e-001 73032 -3.5007e+000  8.1723e+000  1.2345e+000 65621 72842,72983,72686
 3.0000e-001 73361  1.1785e+001  4.4293e+001  8.1554e+000 65281 73456,73384,73188
 3.0000e-001 73338  5.3594e+001  4.1856e+001 -1.1112e+000 65281 73384,73162,73136
 3.0000e-001 73315  5.9435e+000  3.9393e+001  1.3043e+001 65281 73188,73240,73214
 3.0000e-001 73292  8.9510e+000  2.4640e+001  5.2444e-001 65281 73136,73266,73240
 3.0000e-001 73410  1.5513e+001  4.9429e+001  6.0286e+000 65281 73240,73188,73384
 3.0000e-001 73433  2.4465e+001  2.7782e+001  8.2946e+000 65281 73240,73384,73136
 3.0000e-001 73482  1.5435e+001  4.1574e+001 -3.9352e-001 65281 73162,73384,73456
 3.0000e-001 73711 -1.4213e+000  2.0518e+001 -7.4696e+000 64820 73734,73610,73584
 3.0000e-001 73688  1.1592e+001  4.6979e+001  4.6521e+000 64820 73734,73584,73662
 3.0000e-001 73760  3.1119e+000  2.2573e+001 -6.2400e+000 64820 73636,73610,73734
 3.0000e-001 73783 -3.2068e+000  2.8666e+001 -9.9906e+000 64820 73806,73734,73662
 3.0000e-001 73832 -6.7657e-001  1.2444e+000 -9.2449e-001 64820 73636,73734,73806
 3.0000e-001 74112  1.0575e+000  3.5988e+001 -4.5936e+000 64622 74278,74135,73988
 3.0000e-001 74089 -1.1561e-001  2.7831e+001 -3.9862e+000 64622 74135,73936,74040
 3.0000e-001 74066  7.9695e-001  3.5935e+001 -8.5611e+000 64622 74278,73988,73962
 3.0000e-001 74161 -1.0371e+000  3.1182e+001 -2.1912e+000 64622 74014,73988,74135
 3.0000e-001 74184 -1.1441e+000  2.3519e+001 -1.5652e+000 64622 74207,74135,74040
 3.0000e-001 74233  2.1834e+000  3.0927e+001 -2.5394e+000 64622 74014,74135,74207
 3.0000e-001 74304 -2.0953e+000  2.8579e+001 -3.3803e+000 64622 73936,74135,74278
 3.0000e-001 74327 -1.0562e+000  3.0154e+001 -7.6616e+000 64622 73936,74278,73962
 3.0000e-001 74526  4.1855e+000  3.8594e+001 -4.5316e+000 64424 74621,74549,74402
 3.0000e-001 74503  5.8603e-001  3.3402e+001 -2.2139e+000 64424 74549,74350,74454
 3.0000e-001 74480  6.0038e+000  4.0052e+001 -5.8884e+000 64424 74621,74402,74376
 3.0000e-001 74575  4.8093e+000  3.4504e+001 -3.2663e+000 64424 74428,74402,74549
 3.0000e-001 74598  7.5654e-001  2.8466e+001 -4.2618e-001 64424 74693,74549,74454
 3.0000e-001 74647  2.2361e+000  3.6506e+001 -8.4850e-001 64424 74350,74549,74621
 3.0000e-001 74670  4.8033e+000  3.7960e+001 -2.2205e+000 64424 74350,74621,74376
 3.0000e-001 74719  3.3666e+000  3.1629e+001 -4.2116e+000 64424 74428,74549,74693
 3.0000e-001 75123 -1.2918e+001 -2.2134e+000 -6.5195e+000 64126 74875,74953,74927
 3.0000e-001 75100 -7.1935e+000  1.0567e+001 -7.7436e+000 64126 74875,74979,74953
 3.0000e-001 75077 -5.2794e+001  2.6611e+000 -1.1503e+000 64126 74875,75005,74979
 3.0000e-001 75054 -4.4259e+000 -2.7178e+000 -2.9030e-001 64126 74875,74927,74901
 3.0000e-001 75031 -1.7569e+001  3.4001e+001  1.2522e+001 64126 74849,75005,74875
 3.0000e-001 75224 -1.9627e+000  2.3988e+001 -5.1041e+000 63836 75146,75198,75172
 3.0000e-001 75472  1.7644e+001  3.2867e+001  1.3609e+000 63375 75273,75351,75325
 3.0000e-001 75449  1.5839e+001  3.1450e+001  2.3912e+000 63375 75273,75377,75351
 3.0000e-001 75426  1.7967e+001  2.6603e+001 -1.7365e+000 63375 75247,75377,75273
 3.0000e-001 75403  1.7958e+001  2.6501e+001 -5.5154e-002 63375 75273,75325,75299
 3.0000e-001 75673  8.5587e-001  2.3739e+001 -7.5379e-001 63063 75523,75575,75549
 3.0000e-001 75650 -2.7387e+000  2.7183e+001  1.0996e+000 63063 75497,75575,75523
 3.0000e-001 75627  4.0753e-001  2.9892e+001 -2.0255e+000 63063 75497,75601,75575
 3.0000e-001 75874  1.0653e+001  3.7793e+001 -2.6382e+000 62716 75897,75750,75724
 3.0000e-001 75851  1.0258e+001  3.9253e+001 -2.2128e+000 62716 75897,75724,75698
 3.0000e-001 75828  4.6466e+000  3.2683e+001  5.0207e+000 62716 75698,75802,75776
 3.0000e-001 75923  1.0567e+001  3.9511e+001 -3.3659e+000 62716 75776,75750,75897
 3.0000e-001 75946  9.8696e+000  4.0503e+001 -2.3920e+000 62716 75776,75897,75698
 3.0000e-001 76328 -4.3963e+000  3.5944e+001 -3.7911e-001 62198 76495,76351,76158
 3.0000e-001 76305  6.4867e-001  2.8784e+001  5.2840e-001 62198 76351,76080,76054
 3.0000e-001 76282  8.2416e+000  4.2237e+001  5.1341e+000 62198 76423,76184,76158
 3.0000e-001 76259 -4.4575e+000  3.7891e+001 -4.0061e-001 62198 76495,76158,76106
 3.0000e-001 76236 -1.0424e+001  4.2967e+001 -3.1119e+000 62198 76106,76158,76132
 3.0000e-001 76377 -4.1905e+000  3.6410e+001  2.5964e-001 62198 76423,76158,76351
 3.0000e-001 76400 -3.8036e+000  2.3546e+001 -5.8573e+000 62198 76210,76351,76054
 3.0000e-001 76449  1.5282e+001  3.1590e+001  5.0816e-001 62198 76210,76184,76423
 3.0000e-001 76472  1.0578e+001  3.3021e+001 -1.5320e+000 62198 76210,76423,76351
 3.0000e-001 76521 -2.9904e+000  3.1417e+001 -3.4128e+000 62198 76080,76351,76495
 3.0000e-001 76544 -7.0604e-001  3.7327e+001 -4.6941e+000 62198 76080,76495,76106
 3.0000e-001 76841 -6.2503e+000  1.9743e+001  4.6742e+000 61751 76936,76864,76645
 3.0000e-001 76818  1.7539e-001  1.4573e+001  3.7813e+000 61751 76864,76567,76723
 3.0000e-001 76795 -7.7235e+000  2.2515e+001  5.7805e+000 61751 76936,76645,76593
 3.0000e-001 76772  2.9639e+001  1.9735e+001  1.2323e+001 61751 77008,76697,76671
 3.0000e-001 76749  1.0221e+000  2.8397e+001  2.9102e+000 61751 76593,76645,76619
 3.0000e-001 76890 -6.9598e+000  1.5976e+001  1.3010e+001 61751 76671,76645,76864
 3.0000e-001 76913  1.1009e+001  2.1820e+001  1.4409e+001 61751 77008,76671,76864
 3.0000e-001 76962 -8.8112e+000  1.6357e+001  3.2788e+000 61751 76567,76864,76936
 3.0000e-001 76985 -9.6178e+000  1.9395e+001  4.6638e+000 61751 76567,76936,76593
 3.0000e-001 77034  5.4675e+000  1.0287e+001  9.8823e+000 61751 76723,76697,77008
 3.0000e-001 77057  7.1532e-001  1.6091e+001  1.2116e+001 61751 76723,77008,76864
 3.0000e-001 77207 -1.3713e+001  3.0133e+001 -2.4891e+000 61418 77106,77158,77132
 3.0000e-001 77184 -1.2685e+001  2.7496e+001 -2.4153e+000 61418 77080,77158,77106
 3.0000e-001 77638  1.4089e+001  3.6747e+001 -8.3622e-001 60814 77733,77661,77471
 3.0000e-001 77615  1.9653e+001  3.5466e+001  1.8930e+000 60814 77661,77393,77315
 3.0000e-001 77592  1.5235e+001  3.1338e+001 -3.2714e+000 60814 77733,77471,77445
 3.0000e-001 77569  1.7283e+001  4.7732e+001  1.1192e+001 60814 77315,77367,77341
 3.0000e-001 77546  9.4193e+000  3.3030e+001  7.7517e+000 60814 77315,77393,77367
 3.0000e-001 77523  1.8540e+001  2.6018e+001 -4.9774e+000 60814 77393,77445,77419
 3.0000e-001 77687  1.4408e+001  3.6874e+001 -6.1347e-001 60814 77497,77471,77661
 3.0000e-001 77710  1.3989e+001  3.6001e+001  1.3229e-001 60814 77497,77661,77315
 3.0000e-001 77759  1.4429e+001  2.8653e+001 -5.9900e-001 60814 77393,77661,77733
 3.0000e-001 77782  1.5661e+001  2.4115e+001 -3.8581e+000 60814 77393,77733,77445
 3.0000e-001 78337 -4.4954e+000  1.0012e+001 -1.2280e+001 60210 78360,78017,77965
 3.0000e-001 78314 -6.3277e+000 -1.1746e+001 -1.3371e+001 60210 78360,77965,78173
 3.0000e-001 78291 -8.2439e+000  1.4108e+001 -6.4800e+000 60210 78432,78043,78017
 3.0000e-001 78268 -7.7083e+000  3.3139e+001 -2.6919e+001 60210 77965,78017,77991
 3.0000e-001 78245 -1.4614e+001  1.1468e+001 -3.0773e+000 60210 78043,78095,78069
 3.0000e-001 78222  3.3045e+000  1.0382e+000 -1.2843e+000 60210 78095,78173,78121
 3.0000e-001 78199  2.9111e+000  1.1116e-001 -2.3986e-001 60210 78121,78173,78147
 3.0000e-001 78386 -4.8790e+000  1.4388e+001 -1.0736e+001 60210 78432,78017,78360
 3.0000e-001 78409  1.0797e+001  8.8770e+000 -5.7634e+000 60210 78095,78360,78173
 3.0000e-001 78458 -9.5812e+000  8.3499e+000 -3.4624e+000 60210 78095,78043,78432
 3.0000e-001 78481 -7.7160e+000  7.0189e+000 -7.5269e+000 60210 78095,78432,78360
 3.0000e-001 78680 -2.3300e+000  3.2381e+001  2.6945e-001 59848 78703,78556,78530
 3.0000e-001 78657 -6.5946e+000  3.0068e+001 -6.2338e-001 59848 78703,78530,78504
 3.0000e-001 78634 -1.6579e+000  2.8772e+001 -5.2439e+000 59848 78504,78608,78582
 3.0000e-001 78729  6.9268e+000  2.9378e+001 -2.1292e+000 59848 78582,78556,78703
 3.0000e-001 78752 -1.4134e+000  2.5509e+001 -3.4942e+000 59848 78582,78703,78504
 3.0000e-001 78951  2.2199e+001  4.8455e+001 -1.2274e+000 59344 78974,78801,78775
 3.0000e-001 78928  2.1808e+001  4.8770e+001  1.7813e+000 59344 79046,78974,78775
 3.0000e-001 78905  2.3346e+001  5.0864e+001  1.1022e+000 59344 79046,78775,78879
 3.0000e-001 79000  2.0153e+001  4.8025e+001  4.9827e-001 59344 78827,78801,78974
 3.0000e-001 79023  2.0773e+001  4.1068e+001  4.5237e+000 59344 78827,78974,78853
 3.0000e-001 79072  2.5622e+001  4.5376e+001  8.3256e-001 59344 78853,78974,79046
 3.0000e-001 79095  2.6731e+001  4.6775e+001  3.1455e-001 59344 78853,79046,78879
 3.0000e-001 79296  1.4678e+001  5.5740e+001  2.2542e+000 58711 79319,79172,79146
 3.0000e-001 79273  1.0115e+001  5.1003e+001  3.3415e-001 58711 79319,79146,79120
 3.0000e-001 79250  1.6675e+001  4.6130e+001 -4.0882e+000 58711 79172,79224,79198
 3.0000e-001 79345  1.8732e+001  4.9701e+001  1.9537e+000 58711 79224,79172,79319
 3.0000e-001 79368  1.6172e+001  4.6563e+001  8.1973e-001 58711 79224,79319,79120
 3.0000e-001 79667  5.8654e+000  2.2383e+001  4.2712e+000 58285 79690,79471,79393
 3.0000e-001 79644  6.6222e+000  2.8178e+001  5.3523e+000 58285 79690,79393,79549
 3.0000e-001 79621  8.6371e+000  1.0396e+001  8.7477e+000 58285 79393,79471,79419
 3.0000e-001 79598  3.7954e+000  2.4365e+001 -1.4758e+000 58285 79497,79549,79523
 3.0000e-001 79575  1.3925e+001  8.7361e+000  6.8072e+000 58285 79419,79471,79445
 3.0000e-001 79716  6.5869e+000  1.6233e+001  5.2794e-001 58285 79497,79471,79690
 3.0000e-001 79739  8.8586e+000  2.5822e+001  5.3245e-001 58285 79497,79690,79549
 3.0000e-001 80249  8.6854e-001  2.3223e+001  5.7124e+000 57831 80272,79978,79952
 3.0000e-001 80226 -2.7599e+000  2.3868e+001  2.7431e+000 57831 80272,79952,80108
 3.0000e-001 80203 -1.2790e+001  2.8448e+001  5.4731e+000 57831 79926,80108,79952
 3.0000e-001 80180  5.0320e+000  4.3799e+001  7.2880e+000 57831 80004,80082,80030
 3.0000e-001 80157 -5.7612e+000  2.3478e+001  3.2839e+000 57831 80004,80108,80082
 3.0000e-001 80134  7.2174e+000  3.9220e+001  1.8589e+000 57831 80030,80082,80056
 3.0000e-001 80298 -1.9428e+000  1.7734e+001  3.6226e+000 57831 80004,79978,80272
 3.0000e-001 80321 -4.7194e+000  2.2162e+001  1.3394e+000 57831 80004,80272,80108
 3.0000e-001 80618 -1.6824e+001  5.1906e+000  3.8416e+000 57077 80344,80448,80422
 3.0000e-001 80595 -9.7449e-001  1.2728e+001  1.6605e+000 57077 80344,80500,80448
 3.0000e-001 80572 -1.5209e+001  7.5983e+000  2.5484e+000 57077 80344,80422,80370
 3.0000e-001 80549 -1.2758e+001  2.0270e+001  2.3312e-001 57077 80370,80422,80396
 3.0000e-001 80526  3.6089e+000  2.3466e+000  1.0313e+000 57077 80448,80500,80474
 3.0000e-001 80768  8.5585e+000  2.5877e+001 -8.3021e-001 56787 80791,80693,80667
 3.0000e-001 80745  1.0813e+001  2.3959e+001 -3.9435e+000 56787 80791,80667,80641
 3.0000e-001 80817  8.4741e+000  2.4477e+001 -1.1755e+000 56787 80719,80693,80791
 3.0000e-001 80840  5.1513e+000  1.0669e+001 -4.7398e+000 56787 80719,80791,80641
 3.0000e-001 81429  2.0650e+001  2.2378e+001 -1.2571e+001 56497 81452,81158,81132
 3.0000e-001 81406  1.4377e+001  9.5413e+000 -9.2647e+000 56497 81452,81132,81288
 3.0000e-001 81383  9.3997e+000  2.1092e+001 -1.1439e+001 56497 81524,81184,81158
 3.0000e-001 81360  1.5966e+001  1.4945e+001 -7.6638e+000 56497 81210,81288,81236
 3.0000e-001 81337  9.2169e+000  8.7671e+000 -7.6095e+000 56497 81106,81288,81132
 3.0000e-001 81314  2.1439e+001  1.0806e+001 -7.9504e+000 56497 81236,81288,81262
 3.0000e-001 81478  1.1303e+001  2.0647e+001 -1.0499e+001 56497 81524,81158,81452
 3.0000e-001 81501  1.7364e+001  1.8062e+001 -7.2343e+000 56497 81210,81452,81288
 3.0000e-001 81550  1.0084e+001  2.1234e+001 -8.8943e+000 56497 81210,81184,81524
 3.0000e-001 81573  1.3351e+001  2.2307e+001 -7.7251e+000 56497 81210,81524,81452
 3.0000e-001 81870  8.7683e-001  2.3963e+001 -3.5715e+000 55979 81893,81674,81648
 3.0000e-001 81847 -4.8357e+000  2.2395e+001 -1.0530e+000 55979 81893,81648,81752
 3.0000e-001 81824  3.5162e+000  4.9580e+001  3.0303e+000 55979 81596,81752,81648
 3.0000e-001 81801  1.2469e+001  3.5507e+001 -3.8329e+000 55979 81674,81726,81700
 3.0000e-001 81778  7.6300e+000  5.8400e+001  6.6293e+000 55979 81596,81648,81622
 3.0000e-001 81919  4.5332e+000  2.4776e+001 -7.7373e+000 55979 81726,81674,81893
 3.0000e-001 81942 -2.6252e+000  2.3185e+001 -5.5253e+000 55979 81726,81893,81752
 3.0000e-001 82371 -3.9898e+000  1.2544e+001 -3.3041e+000 55631 82100,82204,82152
 3.0000e-001 82348  8.4594e-001  6.3914e+000 -5.8524e+000 55631 82100,82230,82204
 3.0000e-001 82325 -2.9991e+000  1.5526e+001 -9.2057e+000 55631 82100,82152,82126
 3.0000e-001 82302  1.1845e+000  7.9910e+000 -4.3004e+000 55631 82074,82230,82100
 3.0000e-001 82279  6.8868e-001  2.8952e+001  3.8673e+000 55631 82152,82204,82178
 3.0000e-001 82256  5.6260e+000  2.3244e+000 -2.4806e+000 55631 82048,82230,82074
 3.0000e-001 82521  7.2183e+000  1.7398e+001 -4.5025e-001 55227 82544,82420,82394
 3.0000e-001 82498  6.3480e+000  1.7900e+001 -2.5519e-001 55227 82544,82394,82472
 3.0000e-001 82570  6.4302e+000  1.7841e+001 -5.8368e-001 55227 82446,82420,82544
 3.0000e-001 82593  4.5381e+000  1.7554e+001 -5.4805e-001 55227 82446,82544,82472
 3.0000e-001 82875  5.7615e+000  2.3996e+001  3.6103e+000 54979 82699,82777,82725
 3.0000e-001 82852  1.5005e+001  1.6607e+001  1.2158e+000 54979 82699,82803,82777
 3.0000e-001 82829  1.5668e+001  4.9374e+001  1.6177e+001 54979 82725,82777,82751
 3.0000e-001 83204  6.8277e+000  2.4976e+001  4.8757e+000 54475 83005,83083,83057
 3.0000e-001 83181  1.0828e+001  2.3046e+001  7.6727e+000 54475 82979,83083,83005
 3.0000e-001 83158  1.9763e+001  3.4420e+001 -2.0007e+000 54475 83005,83057,83031
 3.0000e-001 83135  2.1577e+001  4.8176e+001  6.8161e+000 54475 82979,83109,83083
 3.0000e-001 83582  6.9231e+000  3.0033e+001  5.2605e+000 54071 83605,83438,83412
 3.0000e-001 83559  1.0339e+001  3.1682e+001  4.0052e-001 54071 83749,83605,83412
 3.0000e-001 83536  1.7743e+001  3.5163e+001 -3.7279e+000 54071 83677,83360,83334
 3.0000e-001 83513  1.1314e+001  3.1413e+001  9.5896e-002 54071 83749,83412,83677
 3.0000e-001 83490 -1.7528e+000  4.3184e+001  1.3341e+001 54071 83308,83464,83334
 3.0000e-001 83631  1.7073e+001  3.3827e+001  6.0913e+000 54071 83464,83438,83605
 3.0000e-001 83654  1.3064e+001  2.9502e+001  1.8457e+000 54071 83464,83605,83334
 3.0000e-001 83703  1.1567e+001  3.1022e+001 -1.5812e+000 54071 83386,83360,83677
 3.0000e-001 83726  1.2401e+001  3.0536e+001  6.7341e-001 54071 83386,83677,83412
 3.0000e-001 83775  1.2469e+001  3.1456e+001  3.7338e-001 54071 83334,83605,83749
 3.0000e-001 83798  1.3694e+001  3.1402e+001  1.9401e-002 54071 83334,83749,83677
 3.0000e-001 84068  8.2889e+000  1.3187e+001  1.2754e+000 53524 83869,83921,83895
 3.0000e-001 84045  7.3553e+000  1.6342e+001  4.7633e-001 53524 83869,83947,83921
 3.0000e-001 84022  9.4890e+000  1.9135e+001  1.4497e+000 53524 83843,83947,83869
 3.0000e-001 83999  3.0016e+000  1.7363e+001  1.9364e+000 53524 83843,83973,83947
 3.0000e-001 84497 -2.1233e+000  2.5402e+001 -4.9681e+000 53184 84200,84330,84252
 3.0000e-001 84474 -1.0268e+001  1.4699e+001  3.3976e+000 53184 84200,84356,84330
 3.0000e-001 84451  2.8972e+000  3.5760e+001 -2.8642e+000 53184 84200,84252,84226
 3.0000e-001 84428  9.4044e+000  2.8383e+001 -3.8423e+000 53184 84252,84330,84278
 3.0000e-001 84405  6.7017e+000  3.1324e+001 -1.7162e+001 53184 84174,84356,84200
 3.0000e-001 84382  1.9175e+001  3.3581e+001 -8.8504e+000 53184 84278,84330,84304
 3.0000e-001 84954  1.4110e+001  2.8706e+001  2.3130e+000 52680 84706,84836,84784
 3.0000e-001 84931  7.7494e+000  2.3849e+001  8.6249e+000 52680 84680,84836,84706
 3.0000e-001 84908  1.0221e+001  2.7457e+001  1.3594e+000 52680 84784,84836,84810
 3.0000e-001 84885  1.2993e+001  2.3585e+001  1.9700e+000 52680 84706,84784,84732
 3.0000e-001 84862  2.8378e+001  2.3802e+001  7.9576e+000 52680 84732,84784,84758
 3.0000e-001 85202  6.2843e+000  5.5772e+000  2.7611e-001 52226 85029,85081,85055
 3.0000e-001 85179 -3.6027e+000  5.6201e+000 -1.1584e+000 52226 85225,85081,85029
 3.0000e-001 85156 -1.7819e+000  1.0363e+001  3.4096e+000 52226 85225,85029,85003
 3.0000e-001 85133 -9.8751e+000  3.4518e+001  4.2515e+000 52226 84977,85107,85003
 3.0000e-001 85251 -6.3727e+000  4.4232e+000 -5.2945e+000 52226 85107,85081,85225
 3.0000e-001 85274 -1.0201e+001  1.1851e+001 -1.0568e+000 52226 85107,85225,85003
 3.0000e-001 85522  8.6451e+000  1.2157e+001 -3.9782e+000 51764 85297,85349,85323
 3.0000e-001 85499  5.3837e+000  1.2039e+001 -8.9699e-001 51764 85545,85297,85427
 3.0000e-001 85476  6.1030e+000  1.2851e+001 -5.7705e-001 51764 85545,85427,85375
 3.0000e-001 85453  6.6569e+000  1.4996e+001 -3.1672e-001 51764 85375,85427,85401
 3.0000e-001 85571  4.3843e+000  1.2577e+001 -1.6257e+000 51764 85349,85297,85545
 3.0000e-001 85594  5.2149e+000  1.3704e+001 -1.2369e+000 51764 85349,85545,85375
 3.0000e-001 85746  6.2072e+000  1.7233e+001 -1.5961e+000 51374 85645,85697,85671
 3.0000e-001 85723  7.3949e+000  1.7345e+001 -2.7965e-001 51374 85619,85697,85645
 3.0000e-001 86256  1.1708e+001  1.6627e+001 -6.7973e-002 50970 86279,86011,85959
 3.0000e-001 86233  1.5040e+001  1.2790e+001  2.2110e-001 50970 86279,85959,86115
 3.0000e-001 86210  1.2190e+001  1.9101e+001  4.2348e+000 50970 85959,86011,85985
 3.0000e-001 86187  1.4784e+001  1.0231e+001 -5.2999e+000 50970 86037,86115,86089
 3.0000e-001 86164  1.2972e+001  1.1743e+001 -1.2181e+000 50970 85933,86115,85959
 3.0000e-001 86141  1.1663e+001  5.1826e+000 -6.6720e+000 50970 86037,86089,86063
 3.0000e-001 86305  1.3864e+001  1.9668e+001  9.2003e-001 50970 86037,86011,86279
 3.0000e-001 86328  1.7064e+001  1.5625e+001  1.1662e+000 50970 86037,86279,86115
 3.0000e-001 86478 -5.7626e+001 -4.3400e+000 -7.7213e-001 50451 86351,86403,86377
 3.0000e-001 86455 -3.8231e+001 -8.4501e+000 -1.5733e+001 50451 86351,86429,86403
 3.0000e-001 86907  1.3659e+001  2.1311e+001  2.3473e+000 50047 86930,86714,86662
 3.0000e-001 86884  6.2460e+000  2.3357e+001  1.1211e+000 50047 86930,86662,86610
 3.0000e-001 86861  2.6831e+001  1.7110e+001 -4.5155e+000 50047 87002,86740,86714
 3.0000e-001 86838  2.2887e+001  2.4726e+001  6.9251e+000 50047 86662,86714,86688
 3.0000e-001 86815  1.4213e+001  4.7947e+001  6.5230e+000 50047 86610,86662,86636
 3.0000e-001 86792  1.7734e+001  3.3731e+001 -5.2325e+000 50047 86584,86766,86610
 3.0000e-001 86956  1.7857e+001  2.1713e+001  1.6244e+000 50047 87002,86714,86930
 3.0000e-001 86979  1.1923e+001  3.1751e+001 -1.9457e+000 50047 86766,86930,86610
 3.0000e-001 87028  1.2532e+001  1.7938e+001 -4.1766e+000 50047 86766,86740,87002
 3.0000e-001 87051  8.5703e+000  1.9022e+001 -9.3669e-003 50047 86766,87002,86930
 3.0000e-001 87250  8.6085e+000  3.5602e+001 -9.2697e+000 49543 87273,87126,87100
 3.0000e-001 87227  1.6740e+001  3.6615e+001 -1.0028e+001 49543 87273,87100,87074
 3.0000e-001 87204  2.7176e+000  4.6357e+001  1.2919e-001 49543 87126,87178,87152
 3.0000e-001 87299  2.6415e-001  3.5330e+001 -1.2137e+000 49543 87178,87126,87273
 3.0000e-001 87322  1.2129e+001  3.9635e+001 -2.7706e+000 49543 87178,87273,87074
 3.0000e-001 87570 -1.7141e+001  6.1300e+000 -7.8975e+000 49146 87593,87449,87397
 3.0000e-001 87547 -1.8639e+001  1.0237e+000 -1.0994e+001 49146 87593,87397,87371
 3.0000e-001 87524 -4.1329e+000  2.5991e+000 -5.7599e+000 49146 87345,87475,87371
 3.0000e-001 87501 -1.9645e+001  1.6229e+001 -4.7823e+000 49146 87397,87449,87423
 3.0000e-001 87619 -1.3296e+001  5.2121e+000 -4.0959e+000 49146 87475,87449,87593
 3.0000e-001 87642 -1.5616e+001  1.8972e+000 -7.1087e+000 49146 87475,87593,87371
 3.0000e-001 88073  1.0229e+001  3.9143e+001  2.0002e+000 48706 87854,87932,87880
 3.0000e-001 88050  1.5218e+001  4.6956e+001 -3.0769e-001 48706 87828,87932,87854
 3.0000e-001 88027  1.1158e+001  3.8593e+001 -1.8477e+000 48706 87750,87932,87828
 3.0000e-001 88004 -9.3922e+000  6.8098e+001 -2.0639e+001 48706 87750,87802,87776
 3.0000e-001 87981  2.2648e+001  7.3216e+001  1.3278e-001 48706 87750,87828,87802
 3.0000e-001 87958  1.4119e+001  3.9195e+001  4.4554e+000 48706 87880,87932,87906
 3.0000e-001 88402  1.1701e+001  3.9951e+001  2.9010e+000 48145 88203,88281,88255
 3.0000e-001 88379  1.6181e+001  4.3449e+001  8.7626e+000 48145 88203,88307,88281
 3.0000e-001 88356  1.0413e+001  4.1554e+001  2.9487e+000 48145 88203,88255,88229
 3.0000e-001 88333  1.8151e+001  3.1035e+001  1.7130e+001 48145 88177,88307,88203
 3.0000e-001 88601  1.7760e+001  2.7728e+001  5.2876e+000 47805 88696,88624,88477
 3.0000e-001 88578  2.1485e+001  4.0292e+001  1.0215e+001 47805 88826,88624,88451
 3.0000e-001 88555  1.7975e+001  3.6001e+001  4.3779e+000 47805 88826,88451,88425
 3.0000e-001 88650  2.1342e+001  3.6337e+001  4.2674e+000 47805 88503,88477,88624
 3.0000e-001 88673  1.6193e+001  3.4729e+001  4.4475e+000 47805 88503,88624,88529
 3.0000e-001 88722  3.9196e+001  4.0829e+001  1.1231e+001 47805 88451,88624,88696
 3.0000e-001 88852  2.0126e+001  3.1237e+001  4.7071e+000 47805 88529,88624,88826
 3.0000e-001 88875  1.6605e+001  2.7637e+001 -1.2050e+000 47805 88529,88826,88425
 3.0000e-001 89172  4.7750e+000  1.6653e+001 -6.5055e+000 47401 89195,88976,88898
 3.0000e-001 89149  8.4962e+000  1.8293e+001 -6.8713e+000 47401 89195,88898,89054
 3.0000e-001 89126  3.5568e+000  1.9988e+001 -7.3442e+000 47401 88898,88976,88950
 3.0000e-001 89103  2.8815e+000  1.8614e+001 -2.6284e-001 47401 88976,89028,89002
 3.0000e-001 89080  5.7617e+000  2.3552e+001 -1.0594e+001 47401 88898,88950,88924
 3.0000e-001 89221  1.5692e+000  1.4808e+001 -9.6772e-001 47401 89028,88976,89195
 3.0000e-001 89244  1.0665e+001  1.8826e+001 -1.6272e+000 47401 89028,89195,89054
 3.0000e-001 89575  1.1044e+001  3.6234e+001  2.3275e+000 47111 89350,89454,89376
 3.0000e-001 89552  1.0637e+001  3.3892e+001  3.5334e+000 47111 89350,89480,89454
 3.0000e-001 89529  1.2710e+001  3.2757e+001 -1.2897e+000 47111 89376,89454,89402
 3.0000e-001 89506  1.6615e+001  4.0581e+001  4.6224e-001 47111 89402,89454,89428
 3.0000e-001 89904  2.7750e+001  3.2605e+001  1.4643e+000 46707 89705,89757,89731
 3.0000e-001 89881  2.8867e+001  4.0357e+001 -3.1012e+000 46707 89705,89783,89757
 3.0000e-001 89858  2.0854e+001  3.8673e+001  1.3732e+000 46707 89679,89783,89705
 3.0000e-001 89835  3.6927e+001  3.9675e+001 -7.1379e+000 46707 89679,89809,89783
 3.0000e-001 90233  2.3583e+001  3.5276e+001 -1.0436e+001 46360 90034,90112,90086
 3.0000e-001 90210 -5.2770e+000  2.7132e+001 -9.8816e+000 46360 90034,90138,90112
 3.0000e-001 90187 -7.2683e+000  2.3320e+001 -2.8531e+000 46360 90034,90086,90060
 3.0000e-001 90164 -2.2666e+000  3.7488e+001 -1.1057e+001 46360 90008,90138,90034
 3.0000e-001 90530  2.7323e+000  2.0004e+001 -1.0844e+000 45662 90256,90360,90308
 3.0000e-001 90507  5.6730e+000  2.1527e+001 -1.6659e+000 45662 90256,90412,90360
 3.0000e-001 90484  7.5686e+000  2.2657e+001 -3.6964e+000 45662 90256,90308,90282
 3.0000e-001 90461  2.3305e+000  1.6242e+001  4.2606e-001 45662 90360,90412,90386
 3.0000e-001 90438  5.4405e+000  1.9155e+001 -1.7271e+000 45662 90308,90360,90334
 3.0000e-001 90910 -6.8931e+000  6.0175e+000  1.5107e+000 45108 90688,90766,90714
 3.0000e-001 90887 -8.4842e+000  9.4249e+000 -4.4517e-001 45108 90662,90766,90688
 3.0000e-001 90864 -2.4751e+001  4.1592e+000 -2.4486e+000 45108 90636,90766,90662
 3.0000e-001 90841  5.2441e+000  5.7559e+000 -6.3424e+000 45108 90714,90766,90740
 3.0000e-001 90818 -1.3175e+001  2.6293e+001 -1.2766e+001 45108 90636,90792,90766
 3.0000e-001 91158 -5.3259e+000  3.2559e+001  3.9816e+000 44604 91181,91011,90959
 3.0000e-001 91135 -1.9228e+001  3.2270e+001  7.9627e+000 44604 91181,90959,90933
 3.0000e-001 91112  3.2125e+000  3.6852e+001  2.3439e+000 44604 90959,91011,90985
 3.0000e-001 91089 -1.7347e+001  3.9354e+001 -1.0163e+001 44604 90933,91063,91037
 3.0000e-001 91207  1.4257e+000  3.1311e+001 -5.2486e-001 44604 91037,91011,91181
 3.0000e-001 91230 -7.9832e+000  3.9607e+001 -1.1638e-001 44604 91037,91181,90933
 3.0000e-001 91429 -3.3977e+000  2.8922e+001 -1.4169e+000 44264 91452,91279,91253
 3.0000e-001 91406  1.7056e-001  2.9639e+001 -2.9192e+000 44264 91452,91253,91357
 3.0000e-001 91383  4.1871e+000  2.8762e+001  1.9820e+000 44264 91279,91331,91305
 3.0000e-001 91478  1.2495e-001  2.5293e+001 -4.4215e-001 44264 91331,91279,91452
 3.0000e-001 91501  5.8248e+000  2.7398e+001 -1.6486e+000 44264 91331,91452,91357
 3.0000e-001 92060  6.3120e+000  2.3755e+001 -8.1223e+000 43860 92083,91740,91688
 3.0000e-001 92037 -4.6967e+000  2.0611e+001 -8.3278e+000 43860 92083,91688,91896
 3.0000e-001 92014 -2.4928e+000  2.9666e+001 -5.6674e+000 43860 91766,91870,91844
 3.0000e-001 91991 -1.5990e+001  2.6221e+001 -1.2789e+001 43860 91740,91870,91766
 3.0000e-001 91968  5.6065e+000  3.6783e+001 -1.3288e+000 43860 91766,91844,91792
 3.0000e-001 91945  1.1212e+001  2.2858e+001 -1.3727e+001 43860 91688,91740,91714
 3.0000e-001 91922 -8.4075e+000  3.8447e+001 -3.1839e+000 43860 91792,91844,91818
 3.0000e-001 92109 -3.7244e+000  2.7637e+001 -1.3978e+001 43860 91870,91740,92083
 3.0000e-001 92132 -1.4440e+001  2.4298e+001 -1.4781e+001 43860 91870,92083,91896
 3.0000e-001 92353  1.8949e+000  3.4563e+001  1.1110e+001 43662 92203,92255,92229
 3.0000e-001 92330  2.1342e+001  3.7973e+001  1.2374e+000 43662 92376,92203,92281
 3.0000e-001 92307  1.2771e+000  3.1078e+001 -7.3965e+000 43662 92177,92281,92203
 3.0000e-001 92402  3.0614e+001  4.1999e+001  3.2806e+000 43662 92255,92203,92376
 3.0000e-001 92682  2.7225e+000  2.6806e+001 -1.1890e+000 43464 92532,92584,92558
 3.0000e-001 92659  2.1454e+000  2.4782e+001 -1.9451e+000 43464 92506,92584,92532
 3.0000e-001 92636  7.9405e+000  2.8050e+001 -3.3518e+000 43464 92506,92610,92584
 3.0000e-001 93013  1.8719e+001  2.9095e+001 -7.1320e+000 42960 92866,92918,92892
 3.0000e-001 92990  1.1014e+001  3.0067e+001 -8.9959e-002 42960 93036,92918,92866
 3.0000e-001 92967  7.7008e+000  2.7736e+001  9.3345e-001 42960 93036,92866,92840
 3.0000e-001 92944  5.7849e+000  3.5375e+001 -4.3379e+000 42960 92788,92918,92814
 3.0000e-001 93062  8.7876e+000  3.6467e+001 -3.8161e+000 42960 92814,92918,93036
 3.0000e-001 93085 -1.2713e+000  3.0659e+001 -1.3479e+000 42960 92814,93036,92840
 3.0000e-001 93186  5.2152e+000  2.6474e+001  2.8197e+000 42556 93108,93160,93134
 3.0000e-001 93554  1.5719e+000  2.8539e+001 -2.2821e+000 42052 93231,93387,93361
 3.0000e-001 93531  4.6927e+000  2.7596e+001 -6.1166e+000 42052 93231,93413,93387
 3.0000e-001 93508  5.3472e+000  2.8522e+001 -3.1360e+000 42052 93231,93361,93257
 3.0000e-001 93485 -7.8409e-001  2.0783e+001  9.5905e-001 42052 93283,93361,93335
 3.0000e-001 93462 -8.9986e+000  2.2837e+001 -4.0283e+000 42052 93257,93361,93283
 3.0000e-001 93439 -8.8447e+000  1.6046e+001  7.5047e+000 42052 93283,93335,93309
 3.0000e-001 94162  1.7882e+000  2.5453e+001  5.3737e+000 41498 93767,93975,93793
 3.0000e-001 94139  9.9548e+000  2.8199e+001  7.9575e-001 41498 93741,93975,93767
 3.0000e-001 94116  4.1940e+000  2.3879e+001  5.1558e+000 41498 93793,93975,93923
 3.0000e-001 94093  7.7046e+000  3.2383e+001 -1.2773e+000 41498 93923,93975,93949
 3.0000e-001 94070  1.6607e+001  1.7761e+001  1.0765e+001 41498 93871,93923,93897
 3.0000e-001 94047  2.3845e+000  2.1331e+001  7.1303e+000 41498 93793,93923,93871
 3.0000e-001 94024  9.4666e+000  2.2343e+001  4.1388e+000 41498 93819,93871,93845
 3.0000e-001 94001  4.5131e+000  1.9503e+001  5.5120e+000 41498 93793,93871,93819
 3.0000e-001 94619  2.0426e+001  3.0706e+001  4.0292e+000 40930 94642,94423,94371
 3.0000e-001 94596  1.8049e+001  3.0421e+001  2.1929e+000 40930 94642,94371,94345
 3.0000e-001 94573  2.0552e+001  3.7634e+001  1.9631e-001 40930 94345,94501,94475
 3.0000e-001 94550  2.1681e+001  3.9058e+001  2.9106e+000 40930 94371,94423,94397
 3.0000e-001 94527  2.1034e+001  2.6260e+001  9.4082e-001 40930 94423,94475,94449
 3.0000e-001 94668  1.8599e+001  2.7737e+001  2.8360e+000 40930 94475,94423,94642
 3.0000e-001 94691  1.7413e+001  2.9450e+001  1.3015e+000 40930 94475,94642,94345
 3.0000e-001 95148  2.3339e+001  4.4475e+001 -1.6255e+001 40362 95171,94952,94926
 3.0000e-001 95125  2.4155e+001  4.7791e+001 -4.0714e+000 40362 95171,94926,95004
 3.0000e-001 95102  2.7280e+001  3.3433e+001 -8.4004e+000 40362 94874,95004,94926
 3.0000e-001 95079  3.0587e+001  3.2205e+001 -4.4170e+000 40362 94874,95030,95004
 3.0000e-001 95056  3.0932e+001  3.6692e+001 -1.3716e+001 40362 94874,94926,94900
 3.0000e-001 95197  2.6502e+001  5.6669e+001 -1.5760e+001 40362 94978,94952,95171
 3.0000e-001 95220  2.7476e+001  5.9476e+001 -3.9952e+000 40362 94978,95171,95004
 3.0000e-001 95549  8.9002e+000  2.8734e+001 -2.9416e+000 39586 95350,95402,95376
 3.0000e-001 95526  3.2275e+000  2.7788e+001 -2.8485e+000 39586 95324,95402,95350
 3.0000e-001 95503  4.5063e+000  2.9417e+001 -3.8353e+000 39586 95324,95454,95402
 3.0000e-001 95480  1.0719e+001  4.5677e+001 -1.2765e+000 39586 95402,95454,95428
 3.0000e-001 96055  7.2971e-001  2.0311e+001  1.9835e+000 38968 96078,95862,95810
 3.0000e-001 96032  4.7600e+000  2.0465e+001  3.4830e+000 38968 96078,95810,95758
 3.0000e-001 96009 -1.0408e+000  2.3856e+001  4.8497e+000 38968 96150,95732,95888
 3.0000e-001 95986  1.0002e+000  2.0304e+001  1.8390e+000 38968 95810,95862,95836
 3.0000e-001 95963 -6.7670e+000  2.1132e+001  5.6251e+000 38968 95732,95914,95888
 3.0000e-001 95940  9.3759e+000  2.5056e+001  4.8952e-001 38968 95758,95810,95784
 3.0000e-001 96104  1.6009e-002  2.1115e+001  1.2452e+000 38968 95888,95862,96078
 3.0000e-001 96127  1.8937e+000  2.2788e+001  1.9488e+000 38968 96150,95888,96078
 3.0000e-001 96176 -5.1932e+000  1.9206e+001  6.8943e+000 38968 95758,95732,96150
 3.0000e-001 96199 -2.1660e+000  1.7350e+001  4.1177e+000 38968 95758,96150,96078
 3.0000e-001 96545  4.4073e+000  3.1459e+001  9.8988e-001 38507 96640,96568,96352
 3.0000e-001 96522  1.2750e+001  2.7171e+001 -2.6632e+000 38507 96568,96300,96222
 3.0000e-001 96499 -1.1678e+000  3.1400e+001 -4.0906e+000 38507 96640,96352,96326
 3.0000e-001 96476 -5.1066e+000  4.4581e+001  1.5906e+001 38507 96352,96404,96378
 3.0000e-001 96453  1.5497e+001  2.4364e+001 -1.6137e-001 38507 96222,96300,96248
 3.0000e-001 96430  2.8112e+001  3.1362e+001 -1.0193e+001 38507 96248,96300,96274
 3.0000e-001 96594  1.9068e+000  3.0149e+001  1.6264e+000 38507 96404,96352,96568
 3.0000e-001 96617  3.7534e+000  2.7139e+001  3.0566e+000 38507 96404,96568,96222
 3.0000e-001 96666  1.0917e+000  2.2224e+001 -4.0928e+000 38507 96300,96568,96640
 3.0000e-001 96689 -1.0218e+000  2.3408e+001 -8.7934e+000 38507 96300,96640,96326
 3.0000e-001 97069 -8.4878e+000  9.0625e+000  5.2468e+000 37760 97092,96873,96821
 3.0000e-001 97046 -1.0927e+001  7.4813e+000  1.0594e+001 37760 97092,96821,96795
 3.0000e-001 97023  9.8133e+000  8.6351e+000  3.0494e+000 37760 96821,96873,96847
 3.0000e-001 97000 -1.0662e+001  2.1238e+001 -2.2035e+000 37760 96873,96925,96899
 3.0000e-001 96977 -2.0673e+000  2.7240e+001  2.2609e+000 37760 96795,96951,96925
 3.0000e-001 97118 -4.2191e+000  1.5930e+001  7.9720e-001 37760 96925,96873,97092
 3.0000e-001 97141 -1.2389e+001  1.1640e+001  6.8702e+000 37760 96925,97092,96795
 3.0000e-001 97647  1.6408e+001  4.9766e+001 -7.5176e+000 37356 97324,97480,97376
 3.0000e-001 97624  1.4750e+001  5.5885e+001 -1.8907e+001 37356 97324,97506,97480
 3.0000e-001 97601  2.0327e+001  3.3272e+001 -9.7431e+000 37356 97376,97480,97454
 3.0000e-001 97578  2.0694e+001  6.2152e+001 -7.9311e+000 37356 97324,97376,97350
 3.0000e-001 97555  1.4342e+001  3.2045e+001 -7.3921e+000 37356 97376,97454,97402
 3.0000e-001 97532  3.0527e+001  1.9189e+001 -4.4959e+000 37356 97402,97454,97428
 3.0000e-001 98232  1.4559e+001  1.9196e+001 -1.6182e+000 36902 97935,98065,98013
 3.0000e-001 98209  6.4264e+000  1.6827e+001 -1.3076e+000 36902 97935,98091,98065
 3.0000e-001 98186  1.1414e+001  1.8044e+001 -1.3316e+000 36902 97935,98013,97987
 3.0000e-001 98163  1.2495e+001  2.3706e+001  1.2944e+000 36902 97909,98091,97935
 3.0000e-001 98140  1.5628e+001  2.4943e+001 -3.2061e+000 36902 97935,97987,97961
 3.0000e-001 98117  1.4986e+001  2.0451e+001 -1.8250e+000 36902 98013,98065,98039
 3.0000e-001 98659  1.6288e+001  6.9649e+001  7.9483e+000 36604 98682,98414,98388
 3.0000e-001 98636  1.9224e+001  6.8657e+001 -1.9173e+000 36604 98682,98388,98336
 3.0000e-001 98613  2.9267e+001  5.5864e+001  3.0521e+000 36604 98754,98518,98466
 3.0000e-001 98590 -1.9626e+000  4.0969e+001  5.0170e+000 36604 98414,98466,98440
 3.0000e-001 98567  3.2444e-001  8.2568e+001 -7.0749e+000 36604 98336,98388,98362
 3.0000e-001 98544  2.4529e+001  4.6241e+001  1.2319e+000 36604 98466,98518,98492
 3.0000e-001 98708  1.2871e+001  5.8353e+001  1.1487e+001 36604 98466,98414,98682
 3.0000e-001 98731  2.3584e+001  6.5648e+001  3.8068e+000 36604 98754,98466,98682
 3.0000e-001 98780  2.4762e+001  5.3252e+001  1.6992e+000 36604 98336,98518,98754
 3.0000e-001 98803  1.3452e+001  5.7159e+001  5.8053e-002 36604 98336,98754,98682
 3.0000e-001 99309 -3.7701e+000  1.7140e+001 -9.9619e-001 36200 99332,99116,99012
 3.0000e-001 99286 -3.2887e+000  8.9505e+000  2.8904e+000 36200 99332,99012,98986
 3.0000e-001 99263  7.3991e-002  1.3372e+001 -5.3230e+000 36200 99012,99116,99064
 3.0000e-001 99240  3.1864e+000  3.0750e+001  1.3938e+000 36200 98986,99168,99142
 3.0000e-001 99217 -2.7291e+001  2.2219e+001 -1.0742e+001 36200 99064,99116,99090
 3.0000e-001 99194  2.6755e+000  1.3788e+001 -3.5078e+000 36200 99012,99064,99038
 3.0000e-001 99358 -2.6690e+000  2.2419e+001 -2.6738e+000 36200 99142,99116,99332
 3.0000e-001 99381 -1.0646e+000  1.7473e+001  2.0493e+000 36200 99142,99332,98986
 3.0000e-001 99887  1.1745e+001  1.3789e+001  1.6229e+000 35488 99564,99720,99590
 3.0000e-001 99864  1.4300e+001  1.9844e+001  1.4963e+000 35488 99564,99746,99720
 3.0000e-001 99841  1.4735e+001  2.0733e+001 -6.6400e+000 35488 99642,99694,99668
 3.0000e-001 99818  1.3008e+001  1.6059e+001 -2.0443e-001 35488 99590,99694,99642
 3.0000e-001 99795  1.2219e+001  1.5941e+001  2.1343e-001 35488 99590,99720,99694
 3.0000e-001 99772  1.8020e+001  1.0062e+001  5.4487e-001 35488 99590,99642,99616
 3.0000e-001 99988  1.7737e+000  3.4075e+001 -4.4677e+000 35198 99910,99962,99936
 3.0000e-001 100138  2.8612e+001  7.6468e+001  9.7981e+000 34794 100233,100161,100063
 3.0000e-001 100115  4.2436e+001  7.7036e+001  4.6470e+000 34794 100365,100161,100037
 3.0000e-001 100187  3.3757e+001  6.9694e+001  1.0498e+001 34794 100089,100063,100161
 3.0000e-001 100210  2.6783e+001  6.2461e+001  6.8155e+000 34794 100089,100161,100011
 3.0000e-001 100259  3.0135e+001  8.0385e+001  9.3163e+000 34794 100037,100161,100233
 3.0000e-001 100391  2.1194e+001  5.5550e+001  1.4399e+001 34794 100011,100161,100365
 3.0000e-001 100927  3.5919e-001  2.0825e+001  2.8297e+000 34404 100679,100809,100783
 3.0000e-001 100904  7.9373e+000  2.2694e+001  4.2136e+000 34404 100653,100809,100679
 3.0000e-001 100881  8.9239e+000  2.5634e+001  1.3402e+000 34404 100705,100783,100731
 3.0000e-001 100858  5.8464e+000  2.4095e+001  7.3186e-001 34404 100679,100783,100705
 3.0000e-001 100835  1.1935e+001  3.0405e+001  2.9514e+000 34404 100731,100783,100757
 3.0000e-001 101354  9.0796e+000  4.5693e+001  8.5529e+000 34000 101377,101109,101057
 3.0000e-001 101331  1.1148e+000  3.6115e+001  1.6011e+000 34000 101449,101377,101057
 3.0000e-001 101308 -3.6362e+000  4.3056e+001  1.0169e+000 34000 101449,101057,101031
 3.0000e-001 101285  5.7139e+000  4.7163e+001 -2.7210e+001 34000 101031,101213,101187
 3.0000e-001 101262  1.3441e+001  3.8028e+001  4.6658e+000 34000 101135,101187,101161
 3.0000e-001 101239 -8.0265e+000  2.4730e+000  2.1965e+001 34000 101057,101109,101083
 3.0000e-001 101403  3.7353e+000  2.7711e+001  1.0954e+001 34000 101135,101109,101377
 3.0000e-001 101426  1.6221e+001  3.4951e+001  2.4741e+000 34000 101135,101377,101187
 3.0000e-001 101475  1.0550e+001  4.3467e+001 -1.9569e+000 34000 101187,101377,101449
 3.0000e-001 101498  2.5359e+000  4.6490e+001 -8.2798e-001 34000 101187,101449,101031
 3.0000e-001 102083 -7.8845e-001  2.3113e+001 -1.1619e+000 33472 102106,101812,101786
 3.0000e-001 102060  3.2703e+000  2.3249e+001  1.2192e+000 33472 102106,101786,101916
 3.0000e-001 102037  3.8208e+000  2.6305e+001  6.5169e-001 33472 101812,101864,101838
 3.0000e-001 102014 -1.2440e+000  3.3424e+001  3.2491e+000 33472 101864,101916,101890
 3.0000e-001 101991  1.2638e+001  2.7838e+001  4.0861e+000 33472 101786,101942,101916
 3.0000e-001 101968  1.5724e+001  2.6587e+001 -4.3184e+000 33472 101760,101942,101786
 3.0000e-001 102132  2.2461e+000  2.5563e+001  4.0889e-001 33472 101864,101812,102106
 3.0000e-001 102155  4.3157e+000  2.4960e+001  2.7415e+000 33472 101864,102106,101916
 3.0000e-001 102612  1.1804e+001  2.8268e+001  9.6533e+000 33038 102635,102468,102390
 3.0000e-001 102589  1.5991e+001  3.5286e+001  1.1928e+001 33038 102635,102390,102364
 3.0000e-001 102566  8.3547e+000  2.2749e+001  7.5013e+000 33038 102390,102468,102442
 3.0000e-001 102543  7.4486e+000  2.3422e+001  4.7664e+000 33038 102338,102494,102364
 3.0000e-001 102520  1.0126e+001  2.3136e+001  6.9067e+000 33038 102390,102442,102416
 3.0000e-001 102661  1.1867e+001  2.6640e+001  5.6429e+000 33038 102494,102468,102635
 3.0000e-001 102684  1.3218e+001  3.0926e+001  7.2750e+000 33038 102494,102635,102364
 3.0000e-001 103318  1.1062e+001  2.7228e+001  1.0156e+000 32402 102972,103128,103076
 3.0000e-001 103295  1.1715e+001  2.8920e+001  1.6591e+000 32402 102946,103128,102972
 3.0000e-001 103272  1.8748e+001  4.3378e+001  4.6653e+000 32402 103076,103128,103102
 3.0000e-001 103249  1.4115e+001  2.9775e+001 -8.0049e-001 32402 102946,103154,103128
 3.0000e-001 103226  7.4779e+000  2.4633e+001  2.3505e+000 32402 102972,103076,102998
 3.0000e-001 103203 -9.5806e+000  2.6409e+001  6.4986e+000 32402 102998,103076,103050
 3.0000e-001 103180  2.0941e+000  5.3260e+001 -3.0081e+000 32402 102998,103050,103024
 3.0000e-001 103696 -7.9306e-001  1.9179e+001  7.8991e+000 31924 103448,103526,103500
 3.0000e-001 103673  2.0734e-001  1.9152e+001  6.0872e+000 31924 103448,103578,103526
 3.0000e-001 103650  9.0200e-001  2.2129e+001  7.0695e+000 31924 103448,103500,103474
 3.0000e-001 103627 -1.0034e+001  3.1238e+001  3.7801e+000 31924 103422,103578,103448
 3.0000e-001 103604  9.3595e+000  8.6032e+000  6.6901e+000 31924 103526,103578,103552
 3.0000e-001 104281  2.1836e+000  2.1075e+001 -1.0855e+000 31520 104304,104062,104036
 3.0000e-001 104258  8.4194e+000  2.5511e+001  9.3114e-001 31520 104304,104036,103984
 3.0000e-001 104235  3.6191e+000  2.4515e+001  3.7033e+000 31520 104062,104114,104088
 3.0000e-001 104212 -1.1215e+001  2.0701e+001  4.1393e+000 31520 103958,104114,103984
 3.0000e-001 104189  1.3521e+001  3.7367e+001 -3.6106e-001 31520 103984,104036,104010
 3.0000e-001 104166 -6.5376e+000  3.7200e+001  1.7050e+000 31520 103958,104140,104114
 3.0000e-001 104330  1.7460e+000  2.6204e+001  1.8846e+000 31520 104114,104062,104304
 3.0000e-001 104353  3.7494e+000  2.7433e+001  2.4358e+000 31520 104114,104304,103984
 3.0000e-001 104704  7.8685e+000  2.9132e+001  7.7225e-001 31066 104479,104583,104505
 3.0000e-001 104681 -4.0780e-001  2.6517e+001  1.2429e+000 31066 104479,104609,104583
 3.0000e-001 104658 -5.4672e+000  3.2572e+001 -2.1120e+000 31066 104505,104557,104531
 3.0000e-001 104635 -2.7684e+000  2.3454e+001 -1.5353e+000 31066 104505,104583,104557
 3.0000e-001 104925  4.6546e-001  6.0659e+001  5.9070e-001 30754 104775,104827,104801
 3.0000e-001 104902  5.8442e+000  4.5443e+001 -1.6989e+000 30754 104775,104853,104827
 3.0000e-001 104879 -9.3968e+000  3.8609e+001 -5.8499e+000 30754 104749,104853,104775
 3.0000e-001 105482  1.7749e+001  3.9347e+001  6.6970e+000 30164 105505,105136,105110
 3.0000e-001 105459  2.0349e+001  5.1371e+001  2.1022e+000 30164 105649,105505,105110
 3.0000e-001 105436  1.8372e+001  3.2086e+001  8.6219e+000 30164 105577,105188,105136
 3.0000e-001 105413  2.1111e+001  5.4434e+001 -1.5135e+001 30164 105649,105110,105318
 3.0000e-001 105390  2.4893e+001  2.4737e+001 -1.0460e-001 30164 105214,105292,105240
 3.0000e-001 105367  4.3130e+001  2.5815e+001  2.2337e+000 30164 105240,105292,105266
 3.0000e-001 105344  1.7789e+001  3.5887e+001  7.5507e+000 30164 105136,105188,105162
 3.0000e-001 105531  1.9405e+001  3.1888e+001  4.1277e+000 30164 105577,105136,105505
 3.0000e-001 105554  2.7697e+001  3.2079e+001  2.1417e+000 30164 105214,105505,105292
 3.0000e-001 105603  1.6313e+001  2.6036e+001  9.3644e+000 30164 105214,105188,105577
 3.0000e-001 105626  1.6713e+001  2.5230e+001  5.0860e+000 30164 105214,105577,105505
 3.0000e-001 105675  9.3958e+000  2.4723e+001 -2.0348e+000 30164 105292,105505,105649
 3.0000e-001 105698  8.6723e+000  1.7282e+001 -1.6275e+001 30164 105292,105649,105318
 3.0000e-001 106027  1.4248e+001  3.9665e+001  1.1264e+001 29868 106322,106050,105880
 3.0000e-001 106004  1.0343e+001  2.2252e+001  1.3154e+001 29868 106250,106050,105828
 3.0000e-001 105981  7.0260e+000  2.4273e+001  1.9673e+001 29868 106250,105828,105802
 3.0000e-001 105958  1.6667e+001  4.5041e+001  1.0517e+001 29868 106322,105880,106122
 3.0000e-001 106076  1.2867e+001  4.3577e+001  6.0620e+000 29868 105906,105880,106050
 3.0000e-001 106099  8.5302e+000  3.6514e+001  8.3848e+000 29868 105906,106050,105932
 3.0000e-001 106148  2.5293e+001  5.5003e+001  4.0130e+000 29868 105854,105828,106122
 3.0000e-001 106276  1.3424e+001  3.2095e+001  8.7503e+000 29868 105932,106050,106250
 3.0000e-001 106299  7.5401e+000  3.6019e+001  1.5733e+001 29868 105932,106250,105802
 3.0000e-001 106348  1.8637e+001  3.3619e+001  7.8335e+000 29868 105828,106050,106322
 3.0000e-001 106371  2.0396e+001  3.7897e+001  7.4206e+000 29868 105828,106322,106122
 3.0000e-001 106828  8.5562e+000  2.1622e+001  2.2648e+000 29521 106580,106710,106684
 3.0000e-001 106805  1.0074e+001  2.6407e+001  2.1169e+000 29521 106554,106710,106580
 3.0000e-001 106782  4.3972e+000  1.8771e+001  1.0050e+000 29521 106580,106684,106606
 3.0000e-001 106759  1.1759e+001  2.8494e+001  7.2743e+000 29521 106606,106684,106658
 3.0000e-001 106736  4.7712e+000  2.8541e+001  6.9902e+000 29521 106606,106658,106632
 3.0000e-001 107027  1.6435e+001  2.1059e+001  9.5278e+000 29117 106877,106929,106903
 3.0000e-001 107004  2.2088e+001  2.3358e+001  1.2760e+000 29117 106851,106929,106877
 3.0000e-001 106981  2.5631e+001  2.0154e+001  6.9390e-001 29117 106851,106955,106929
 3.0000e-001 107456  1.1123e+001  3.4115e+001 -3.4563e-001 28656 107237,107315,107263
 3.0000e-001 107433  8.5507e+000  2.9480e+001 -1.7461e+000 28656 107133,107315,107237
 3.0000e-001 107410  2.9536e+000  1.9718e+001  6.6996e-001 28656 107133,107237,107159
 3.0000e-001 107387  4.7452e+000  2.2745e+001 -2.9036e-001 28656 107159,107237,107185
 3.0000e-001 107364 -4.6133e+000  1.9663e+001  2.7751e+000 28656 107185,107237,107211
 3.0000e-001 107341  1.2887e+001  4.4681e+001 -1.0885e+001 28656 107263,107315,107289
 3.0000e-001 107704  6.3466e+000  2.1513e+001  5.8331e+000 27902 107727,107557,107531
 3.0000e-001 107681  8.3332e+000  2.7196e+001  6.3210e+000 27902 107727,107531,107505
 3.0000e-001 107658  5.5309e+000  2.9937e+001  3.2093e+000 27902 107557,107609,107583
 3.0000e-001 107635  8.8093e+000  3.5103e+001  7.2472e+000 27902 107479,107609,107505
 3.0000e-001 107753  4.1240e+000  2.6285e+001  3.3703e+000 27902 107609,107557,107727
 3.0000e-001 107776  5.5068e+000  3.0974e+001  3.6842e+000 27902 107609,107727,107505
 3.0000e-001 108333  5.9639e+000  2.8915e+001 -5.1855e-001 27341 108356,108065,108013
 3.0000e-001 108310  6.1453e+000  2.8240e+001  2.8016e+000 27341 108356,108013,108143
 3.0000e-001 108287  5.9308e+000  3.1285e+001  1.9769e+000 27341 108428,108117,108091
 3.0000e-001 108264  4.3824e+000  2.8327e+001  5.5942e-003 27341 108013,108065,108039
 3.0000e-001 108241  4.3507e+000  2.6039e+001  1.9813e+000 27341 107987,108143,108013
 3.0000e-001 108218 -9.1275e+000  2.0215e+001  2.8956e+000 27341 107987,108169,108143
 3.0000e-001 108195 -1.5060e+001  2.9818e+001  3.6378e+000 27341 107961,108169,107987
 3.0000e-001 108382  7.3274e+000  3.2197e+001 -5.6797e-001 27341 108091,108065,108356
 3.0000e-001 108405  6.9758e+000  2.8971e+001  1.2488e+000 27341 108428,108091,108356
 3.0000e-001 108454  7.5970e+000  3.5951e+001  2.9993e+000 27341 108143,108117,108428
 3.0000e-001 108477  7.9986e+000  3.2586e+001  2.3177e+000 27341 108143,108428,108356
 3.0000e-001 108725 -5.7203e-001  6.6532e+000  1.9765e-001 27029 108748,108526,108500
 3.0000e-001 108702  4.6379e-001  1.5598e+000 -5.0633e-001 27029 108748,108500,108630
 3.0000e-001 108679  8.1501e+000  1.3193e+001 -6.8672e+000 27029 108578,108630,108604
 3.0000e-001 108656  5.4926e+000  6.1853e+000 -7.2980e+000 27029 108526,108578,108552
 3.0000e-001 108774  4.8634e-001  9.3894e+000  5.5898e-001 27029 108578,108526,108748
 3.0000e-001 108797  2.6956e+000  5.7941e+000  3.8946e-001 27029 108578,108748,108630
 3.0000e-001 109045  1.8545e+000  1.9036e+001 -2.0251e+000 26610 108872,108924,108898
 3.0000e-001 109022  9.8939e-002  1.7737e+001 -2.5927e+000 26610 108872,108950,108924
 3.0000e-001 108999 -1.8248e+000  1.7021e+001 -5.1645e+000 26610 108846,108950,108872
 3.0000e-001 108976  9.1473e+000  8.3125e+000 -4.2514e+000 26610 108820,108950,108846
 3.0000e-001 109366  1.4380e+000  3.0550e+001  9.6990e-001 26006 109144,109222,109196
 3.0000e-001 109343  6.6574e-001  3.0641e+001  9.4092e-001 26006 109118,109222,109144
 3.0000e-001 109320  2.6726e+000  3.2632e+001 -7.0891e-001 26006 109092,109222,109118
 3.0000e-001 109297  5.0625e+000  3.1987e+001  2.1098e+000 26006 109144,109196,109170
 3.0000e-001 109274 -3.0954e+000  2.2651e+001  1.6578e+000 26006 109092,109248,109222
 3.0000e-001 109567  2.2887e+001  3.6847e+001 -4.3827e-001 25659 109391,109469,109443
 3.0000e-001 109544  3.0931e+001  3.9501e+001  1.1861e+000 25659 109391,109495,109469
 3.0000e-001 109521  2.1176e+001  2.9053e+001 -1.0075e+000 25659 109391,109443,109417
 3.0000e-001 109900  2.0116e+001  3.7584e+001  9.6775e+000 25255 109923,109779,109753
 3.0000e-001 109877  1.8095e+001  3.2473e+001  9.1418e+000 25255 109923,109753,109701
 3.0000e-001 109854  1.5743e+001  3.8288e+001  1.4753e+001 25255 109675,109805,109701
 3.0000e-001 109831  1.5353e+001  1.9306e+001  1.4345e+001 25255 109701,109753,109727
 3.0000e-001 109949  1.9905e+001  4.4539e+001  1.4847e+001 25255 109805,109779,109923
 3.0000e-001 109972  1.5924e+001  3.5307e+001  1.4333e+001 25255 109805,109923,109701
 3.0000e-001 110220  7.2684e+000  2.5449e+001  1.2259e+001 24701 110243,110021,109995
 3.0000e-001 110197  8.7690e+000  2.7425e+001  9.1221e+000 24701 110243,109995,110099
 3.0000e-001 110174  8.9986e+000  2.9746e+001  8.1590e+000 24701 110315,110073,110047
 3.0000e-001 110151  1.0338e+001  3.0704e+001  8.0883e+000 24701 109995,110125,110099
 3.0000e-001 110269  1.5953e+001  2.5406e+001  9.2718e+000 24701 110047,110021,110243
 3.0000e-001 110292  8.6514e+000  2.9395e+001  7.9331e+000 24701 110315,110047,110243
 3.0000e-001 110341  1.1671e+001  2.9185e+001  8.9909e+000 24701 110099,110073,110315
 3.0000e-001 110364  1.0295e+001  2.8076e+001  8.3642e+000 24701 110099,110315,110243
 3.0000e-001 110661  6.5145e+000  2.7884e+001  8.2304e+000 24197 110684,110413,110387
 3.0000e-001 110638  1.1081e+001  3.8491e+001  7.7471e+000 24197 110684,110387,110543
 3.0000e-001 110615  9.9777e+000  3.6963e+001  1.2441e+000 24197 110756,110491,110465
 3.0000e-001 110592  4.1158e+000  2.8401e+001  1.5952e+000 24197 110413,110465,110439
 3.0000e-001 110569  8.0097e+000  3.9162e+001  7.8234e+000 24197 110491,110543,110517
 3.0000e-001 110710  8.8574e+000  2.6905e+001  1.5781e+000 24197 110465,110413,110684
 3.0000e-001 110733  1.2240e+001  3.4768e+001  1.8445e+000 24197 110756,110465,110684
 3.0000e-001 110782  8.5403e+000  3.4500e+001  2.9736e+000 24197 110543,110491,110756
 3.0000e-001 110805  9.8145e+000  3.1206e+001  3.7300e+000 24197 110543,110756,110684
 3.0000e-001 111315  2.7361e+000  1.3672e+001 -1.0778e+001 23593 111044,111148,111070
 3.0000e-001 111292  1.8927e+001  1.2216e+000 -1.6563e+001 23593 111044,111174,111148
 3.0000e-001 111269  1.3052e-001 -7.7949e-001 -3.4447e-001 23593 111070,111122,111096
 3.0000e-001 111246  4.8042e+000  4.3270e-001  5.3793e-001 23593 111070,111148,111122
 3.0000e-001 111223  2.7842e+001 -3.9490e-001 -6.3724e+000 23593 111018,111174,111044
 3.0000e-001 111200  7.2384e+000  9.0568e+000 -9.8359e+000 23593 110992,111174,111018
 3.0000e-001 111821  3.2457e+000  2.9034e+001  1.6334e+000 23089 111916,111844,111628
 3.0000e-001 111798  7.6300e+000  3.2280e+001  2.8748e+000 23089 111844,111550,111524
 3.0000e-001 111775  2.8659e+000  2.7018e+001  1.3110e+000 23089 111916,111628,111602
 3.0000e-001 111752  2.3548e+000  4.1051e+001 -7.2138e-001 23089 111498,111680,111524
 3.0000e-001 111729  2.9703e+000  2.2922e+001  1.3253e+000 23089 111550,111602,111576
 3.0000e-001 111706  2.8343e+000  1.8855e+001  4.0284e+000 23089 111628,111680,111654
 3.0000e-001 111870  5.9643e+000  2.7798e+001 -1.1187e-001 23089 111680,111628,111844
 3.0000e-001 111893  7.2020e+000  3.0534e+001 -1.6003e+000 23089 111680,111844,111524
 3.0000e-001 111942  4.9973e+000  2.5793e+001  2.5341e+000 23089 111550,111844,111916
 3.0000e-001 111965  4.6540e+000  2.3887e+001  1.9944e+000 23089 111550,111916,111602
 3.0000e-001 112164  1.4510e+001  5.0349e+000  6.9587e+000 22626 112187,112014,111988
 3.0000e-001 112141  6.5800e+000  4.4108e+000  9.1885e+000 22626 112259,112187,111988
 3.0000e-001 112118  5.3276e+000  2.0418e+000  1.2260e+001 22626 112259,111988,112092
 3.0000e-001 112213  7.1418e+000  3.6624e-001  4.5722e+000 22626 112040,112014,112187
 3.0000e-001 112236  8.3987e+000  9.1691e+000  6.4897e+000 22626 112040,112187,112066
 3.0000e-001 112285  6.5949e+000  9.5926e+000  7.4307e+000 22626 112066,112187,112259
 3.0000e-001 112308  6.6022e+000  8.0477e+000  1.0205e+001 22626 112066,112259,112092
 3.0000e-001 112605  1.9361e+001  2.8123e+001  2.6077e+000 22286 112628,112383,112357
 3.0000e-001 112582  1.3645e+001  2.5604e+001  3.1134e+000 22286 112772,112628,112357
 3.0000e-001 112559  1.5226e+001  3.0005e+001  2.7874e-001 22286 112700,112435,112409
 3.0000e-001 112536  6.1440e+000  2.8060e+001  7.6980e+000 22286 112772,112357,112331
 3.0000e-001 112513  2.0660e+001  2.5357e+001 -1.5272e+000 22286 112435,112487,112461
 3.0000e-001 112654  1.6968e+001  2.7064e+001  7.4407e-001 22286 112409,112383,112628
 3.0000e-001 112677  1.5133e+001  2.9833e+001  3.2322e-001 22286 112700,112409,112628
 3.0000e-001 112726  1.5142e+001  2.9895e+001  3.8869e-001 22286 112487,112435,112700
 3.0000e-001 112749  1.5108e+001  2.9850e+001  4.2185e-001 22286 112487,112700,112628
 3.0000e-001 112798  1.7202e+001  3.2055e+001  1.5324e+000 22286 112487,112628,112772
 3.0000e-001 112821  1.3324e+001  3.6496e+001  3.5195e+000 22286 112487,112772,112331
 3.0000e-001 112924 -4.0033e+000  2.9715e+001  1.3605e+000 21974 112846,112898,112872
 3.0000e-001 113223  1.3908e+001  8.2596e+000  3.1384e+000 21420 112949,113053,112975
 3.0000e-001 113200  1.0288e+001  1.2721e+001  6.0245e+000 21420 112949,113079,113053
 3.0000e-001 113177  1.5244e+001  9.1160e+000  2.5100e+000 21420 112975,113053,113001
 3.0000e-001 113154  1.0214e+001  5.7431e+000  1.0196e+000 21420 113001,113053,113027
 3.0000e-001 113131  2.2182e+001  1.5520e+001  6.0239e+000 21420 112949,113105,113079
 3.0000e-001 113605  4.9417e+000  1.1220e+001 -7.3567e+000 20716 113331,113435,113357
 3.0000e-001 113582  2.7913e+000  3.1806e+001 -5.8262e+000 20716 113331,113461,113435
 3.0000e-001 113559  7.6130e-001  1.5357e+000 -1.1318e+000 20716 113383,113435,113409
 3.0000e-001 113536  6.7550e+000  6.8867e+000  1.1578e+000 20716 113357,113435,113383
 3.0000e-001 113513  1.4104e+001  1.4364e+001  1.1075e+001 20716 113331,113487,113461
 3.0000e-001 113853  1.2418e+001  1.0746e+001  1.8170e+000 20290 113876,113680,113654
 3.0000e-001 113830  2.0273e+001  1.4626e+001  3.3795e+000 20290 113876,113654,113628
 3.0000e-001 113807  1.0876e+001  1.5872e+001 -7.4125e-001 20290 113948,113732,113680
 3.0000e-001 113784  2.0678e+001  1.5460e+001 -4.7913e+000 20290 113680,113732,113706
 3.0000e-001 113902  1.2662e+001  1.6406e+001  2.4893e+000 20290 113948,113680,113876
 3.0000e-001 113925  1.1820e+001  1.6486e+001  4.1872e+000 20290 113758,113876,113628
 3.0000e-001 113974  7.3740e+000  1.6028e+001 -6.3952e-001 20290 113758,113732,113948
 3.0000e-001 113997  7.0214e+000  1.4772e+001  2.2884e+000 20290 113758,113948,113876
 3.0000e-001 114365  3.3482e+000  2.9814e+001 -1.0017e-001 19900 114146,114198,114172
 3.0000e-001 114342  3.9094e+000  3.0075e+001  3.4422e-002 19900 114042,114198,114146
 3.0000e-001 114319  2.6985e+000  2.9703e+001  7.4640e-001 19900 114042,114224,114198
 3.0000e-001 114296  8.0296e+000  2.9339e+001 -2.5540e-002 19900 114094,114146,114120
 3.0000e-001 114273  3.6806e+000  2.7793e+001  9.7646e-001 19900 114042,114146,114094
 3.0000e-001 114250  1.0075e+000  2.7642e+001  2.0743e+000 19900 114042,114094,114068
 3.0000e-001 114566  5.2634e+000  2.1238e+001  2.8556e-001 19496 114442,114494,114468
 3.0000e-001 114543  1.8650e+001  2.6052e+001  6.5343e+000 19496 114416,114494,114442
 3.0000e-001 114520  2.3009e+000  2.2457e+001  6.9178e+000 19496 114390,114494,114416
 3.0000e-001 114767  4.0319e+000  2.9235e+001 -7.4340e-002 19042 114790,114669,114643
 3.0000e-001 114744  5.8769e+000  2.9012e+001 -1.7553e-001 19042 114790,114643,114591
 3.0000e-001 114721  6.9028e+000  3.1864e+001 -2.0954e-001 19042 114591,114643,114617
 3.0000e-001 114816  1.6783e+000  2.9291e+001 -3.1045e-002 19042 114695,114669,114790
 3.0000e-001 114839  4.1241e+000  2.9481e+001  2.6536e-001 19042 114695,114790,114591
 3.0000e-001 114991  6.4766e+000  2.7511e+001  1.1814e+000 18488 114864,114916,114890
 3.0000e-001 114968  3.9464e+000  3.3106e+001  1.3264e+000 18488 114864,114942,114916
 3.0000e-001 115192  1.3345e+001  2.5356e+001  3.7893e+000 18098 115215,115042,115016
 3.0000e-001 115169  6.1047e+000  2.1917e+001  5.1167e+000 18098 115215,115016,115120
 3.0000e-001 115146  7.0443e+000  2.6983e+001  6.2653e-001 18098 115287,115094,115068
 3.0000e-001 115241  7.3781e+000  2.4643e+001  1.4121e+000 18098 115068,115042,115215
 3.0000e-001 115264  6.7147e+000  2.6659e+001  1.5367e+000 18098 115287,115068,115215
 3.0000e-001 115313  5.5790e+000  2.6847e+001  1.4717e+000 18098 115120,115094,115287
 3.0000e-001 115336  4.8679e+000  2.6422e+001  2.3508e+000 18098 115120,115287,115215
 3.0000e-001 115846  1.5717e-003  8.1242e-003 -4.1272e-002 17644 115653,115705,115679
 3.0000e-001 115823  7.3877e+000  1.2131e+000 -4.1908e+000 17644 115627,115705,115653
 3.0000e-001 115800  2.3372e+001 -2.7340e+000  1.1149e+001 17644 115549,115705,115627
 3.0000e-001 115777  3.6238e+001 -1.8215e+000  2.5094e+000 17644 115549,115627,115575
 3.0000e-001 115754  5.0284e+001  5.0914e+000  7.7946e+000 17644 115523,115705,115549
 3.0000e-001 115731  3.8720e+001  6.2371e+000 -3.1255e+000 17644 115575,115627,115601
 3.0000e-001 116067  2.9988e-001  3.6527e-001  5.1930e-001 17116 115891,115943,115917
 3.0000e-001 116044  4.5756e+000 -1.6238e-001 -1.0868e-001 17116 115891,115995,115943
 3.0000e-001 116021  7.7639e+000  1.7582e+000  1.4975e+000 17116 115943,115995,115969
 3.0000e-001 116288  1.3024e+000  7.6419e+000 -1.8281e+000 16704 116164,116216,116190
 3.0000e-001 116265  4.3526e+000  8.1551e+000 -3.6000e-001 16704 116112,116216,116164
 3.0000e-001 116242  2.0146e+001  1.0610e+001  2.7622e+000 16704 116112,116164,116138
 3.0000e-001 116489 -2.8928e-002 -7.2433e-001  1.2142e-001 16434 116339,116417,116365
 3.0000e-001 116466  7.0112e+000  2.2369e+000  3.4694e-001 16434 116313,116417,116339
 3.0000e-001 116443  2.1607e-001  7.0972e-002  1.0070e-001 16434 116365,116417,116391
 3.0000e-001 116592  1.5098e+001  1.0804e+001  1.0839e+000 15967 116514,116566,116540
 3.0000e-001 116695  4.9325e+001 -5.1737e+001 -1.1033e+001 15552 116617,116669,116643
 3.0000e-001 116798  2.9576e+000  2.8076e+001  0.0000e+000 421 116720,116772,116746
 4.0000e-001 69066 -2.9490e-001  1.6488e-001  3.4538e-002 68738 68965,69017,68991
 4.0000e-001 69043 -8.1429e-001  3.8839e-001  1.3802e+000 68738 68939,69017,68965
 4.0000e-001 69371 -8.0443e+000  3.1163e+000  5.1716e+000 68426 69172,69250,69198
 4.0000e-001 69348  1.0038e+000  7.7934e+000  3.2997e+000 68426 69146,69250,69172
 4.0000e-001 69325 -6.2178e-002  1.3682e+001  1.1563e+001 68426 69198,69250,69224
 4.0000e-001 69302 -1.6327e-001 -3.9201e-001  1.2778e+000 68426 69146,69276,69250
 4.0000e-001 69521 -7.5283e+000  1.1292e+001  5.7030e+000 68228 69420,69472,69446
 4.0000e-001 69498  9.8052e-001  2.3792e+001 -2.8533e+000 68228 69394,69472,69420
 4.0000e-001 69781 -8.2316e+000  7.1325e+000  8.2880e+000 68030 69631,69683,69657
 4.0000e-001 69758 -1.8972e+000  1.3036e+001  1.0833e+001 68030 69631,69709,69683
 4.0000e-001 69735  9.8731e+000  1.0094e+000 -1.2809e+001 68030 69605,69709,69631
 4.0000e-001 70078  5.8202e+000  3.0556e+001  5.8798e+000 67832 69882,69934,69908
 4.0000e-001 70055 -1.7346e+001  1.0436e+001  1.5277e+001 67832 69856,69934,69882
 4.0000e-001 70032 -3.9513e+000  1.1905e+001 -7.0136e-001 67832 69830,69934,69856
 4.0000e-001 70009 -6.0990e+000  6.2615e+000 -1.4605e+001 67832 69804,69934,69830
 4.0000e-001 69986 -8.4469e-001  3.3728e+001 -1.6288e+000 67832 69804,69960,69934
 4.0000e-001 70586  4.1630e+000  2.9133e+001 -4.1430e+000 67634 70609,70419,70341
 4.0000e-001 70563  2.9242e+000  2.9002e+001 -4.0398e+000 67634 70681,70609,70341
 4.0000e-001 70540  9.8973e+000  2.9113e+001  8.3259e+000 67634 70681,70341,70315
 4.0000e-001 70517  6.8844e+000  2.3188e+001 -1.0430e+001 67634 70341,70419,70367
 4.0000e-001 70494  3.8742e+001  4.0640e+001  2.2895e+001 67634 70263,70445,70289
 4.0000e-001 70471  2.1849e+000  1.5523e+001 -7.9079e+000 67634 70367,70419,70393
 4.0000e-001 70635  5.2470e+000  1.1713e+001 -9.5041e-001 67634 70445,70419,70609
 4.0000e-001 70658  1.0868e+001  3.4565e+001 -4.3348e+000 67634 70445,70609,70289
 4.0000e-001 70707  1.2146e+001  4.7370e+001  3.4190e+000 67634 70289,70609,70681
 4.0000e-001 70730  2.1860e+001  4.4750e+001  1.5978e+001 67634 70289,70681,70315
 4.0000e-001 71108 -2.7773e+000  1.8673e+001 -2.6143e+000 67344 71131,70912,70886
 4.0000e-001 71085 -3.7894e+000  1.5127e+001  2.2949e+000 67344 71131,70886,70860
 4.0000e-001 71062 -1.0986e+001  1.3491e+001 -5.3770e-001 67344 71203,70938,70912
 4.0000e-001 71039 -1.5355e+001  6.0822e+000 -3.8213e+000 67344 70834,70990,70860
 4.0000e-001 71016 -4.6132e+000  8.0517e+000  2.8569e+000 67344 70938,70990,70964
 4.0000e-001 71157 -1.0014e+001  1.4941e+001 -9.6775e-001 67344 71203,70912,71131
 4.0000e-001 71180 -4.6948e+000  1.5480e+001  2.0350e-001 67344 70990,71131,70860
 4.0000e-001 71229 -8.2365e+000  8.9584e+000 -1.1528e+000 67344 70990,70938,71203
 4.0000e-001 71252 -5.9280e+000  1.1929e+001 -2.1556e+000 67344 70990,71203,71131
 4.0000e-001 71603  1.2129e+000  4.2826e+001 -1.2665e+000 67032 71378,71482,71404
 4.0000e-001 71580 -3.4725e+000  2.7134e+001 -5.4137e+000 67032 71378,71508,71482
 4.0000e-001 71557 -3.1683e+000  3.7087e+001  8.8867e-001 67032 71404,71456,71430
 4.0000e-001 71534 -3.4305e+000  3.2055e+001 -7.6130e-001 67032 71404,71482,71456
 4.0000e-001 72003 -9.9604e-002  2.1650e+001  2.0840e+000 66834 71755,71859,71781
 4.0000e-001 71980  7.9920e-001  2.5820e+001  2.7842e+000 66834 71755,71885,71859
 4.0000e-001 71957  6.8086e+000  2.7029e+001  6.9264e+000 66834 71781,71833,71807
 4.0000e-001 71934 -1.1740e+000  2.0657e+001  3.7231e+000 66834 71781,71859,71833
 4.0000e-001 71911  8.2692e-001  2.6401e+001  3.6833e+000 66834 71729,71885,71755
 4.0000e-001 72430  8.4810e-001  1.3165e+001  1.2867e+000 66266 72237,72289,72263
 4.0000e-001 72407 -1.0545e+000  8.7895e+000  8.7147e-001 66266 72133,72289,72237
 4.0000e-001 72384  3.7788e+000  1.2239e+001 -6.9671e-001 66266 72133,72237,72211
 4.0000e-001 72361  1.4666e-001  5.4501e+000 -2.0211e+000 66266 72107,72289,72133
 4.0000e-001 72338  5.0042e+000  1.4726e+001  1.3513e+000 66266 72133,72211,72185
 4.0000e-001 72315  1.5381e+001  1.1862e+001  2.4146e+000 66266 72133,72185,72159
 4.0000e-001 72580  1.0814e+001  5.0368e+001 -7.2401e+000 65968 72479,72531,72505
 4.0000e-001 72557 -4.6013e-001  3.0074e+001 -2.5720e+000 65968 72453,72531,72479
 4.0000e-001 72960 -5.3138e+000  2.3306e+001  3.7571e+000 65621 72983,72738,72712
 4.0000e-001 72937 -1.2487e+000  1.7679e+001  3.8683e+000 65621 72983,72712,72686
 4.0000e-001 72914 -1.6883e+001  5.5210e+000  1.3426e+001 65621 72738,72842,72764
 4.0000e-001 72891 -3.9980e+000  7.1698e+000  1.9087e+001 65621 72764,72842,72816
 4.0000e-001 72868 -9.2785e+000 -4.8066e+000  2.2327e+001 65621 72764,72816,72790
 4.0000e-001 73009 -4.9658e+000  1.9177e+001  4.7285e+000 65621 72842,72738,72983
 4.0000e-001 73032 -4.6121e+000  8.8611e+000  5.6110e+000 65621 72842,72983,72686
 4.0000e-001 73361  2.0434e+000 -5.2433e+000 -2.6235e-001 65281 73456,73384,73188
 4.0000e-001 73338  4.6013e+001  1.8203e+001 -7.6189e+000 65281 73384,73162,73136
 4.0000e-001 73315 -1.4875e+001 -1.0729e+000 -4.0866e+000 65281 73188,73240,73214
 4.0000e-001 73292 -1.7426e+001  2.5316e+001 -2.0971e+001 65281 73136,73266,73240
 4.0000e-001 73410 -4.2421e+000  1.7534e+001 -8.7618e+000 65281 73240,73188,73384
 4.0000e-001 73433  1.4135e+001  2.9889e+001 -1.3695e+000 65281 73240,73384,73136
 4.0000e-001 73482  1.3711e+001  9.1551e+000 -1.1094e+001 65281 73162,73384,73456
 4.0000e-001 73711  6.4883e+000  2.0555e+001 -1.7671e+001 64820 73734,73610,73584
 4.0000e-001 73688  2.3283e+001  5.2943e+001  2.5245e+000 64820 73734,73584,73662
 4.0000e-001 73760  1.1573e+001  2.2951e+001 -1.5243e+001 64820 73636,73610,73734
 4.0000e-001 73783 -7.2485e+000  2.6531e+001 -1.5101e+001 64820 73806,73734,73662
 4.0000e-001 73832  9.0603e+000 -7.1348e-001 -7.2353e+000 64820 73636,73734,73806
 4.0000e-001 74112 -3.4695e-001  3.6596e+001 -5.3790e-001 64622 74278,74135,73988
 4.0000e-001 74089 -3.0510e+000  3.3330e+001 -9.2455e-001 64622 74135,73936,74040
 4.0000e-001 74066 -1.0269e+000  3.6341e+001 -2.7447e+000 64622 74278,73988,73962
 4.0000e-001 74161  2.2223e+000  3.4317e+001  8.2088e-001 64622 74014,73988,74135
 4.0000e-001 74184 -9.6710e-002  3.3116e+001 -5.0409e-001 64622 74207,74135,74040
 4.0000e-001 74233 -4.9148e-001  3.2391e+001 -2.4265e-002 64622 74014,74135,74207
 4.0000e-001 74304 -1.9637e+000  3.2859e+001 -1.2929e+000 64622 73936,74135,74278
 4.0000e-001 74327 -2.7698e+000  3.3139e+001 -3.6186e+000 64622 73936,74278,73962
 4.0000e-001 74526 -4.1083e-001  1.8682e+001  5.7742e+000 64424 74621,74549,74402
 4.0000e-001 74503 -4.8739e+000  2.9556e+001  2.9755e+000 64424 74549,74350,74454
 4.0000e-001 74480 -8.0506e-001  1.3899e+001  1.4292e+001 64424 74621,74402,74376
 4.0000e-001 74575  1.0736e+001  2.4316e+001  2.9662e+000 64424 74428,74402,74549
 4.0000e-001 74598  1.9205e+000  3.1286e+001  1.9700e+000 64424 74693,74549,74454
 4.0000e-001 74647  5.7888e+000  3.2318e+001  4.1452e+000 64424 74350,74549,74621
 4.0000e-001 74670  6.2315e+000  3.0090e+001  1.2973e+001 64424 74350,74621,74376
 4.0000e-001 74719 -8.9228e-001  2.3890e+001  1.1612e+000 64424 74428,74549,74693
 4.0000e-001 75123 -1.6368e+001 -5.6494e+000 -3.5232e+000 64126 74875,74953,74927
 4.0000e-001 75100 -1.8917e+001 -1.0392e+001 -2.4592e+000 64126 74875,74979,74953
 4.0000e-001 75077 -6.1782e+001  6.4604e-001 -2.1212e+000 64126 74875,75005,74979
 4.0000e-001 75054 -8.7220e+000 -4.2790e+000  1.7362e+000 64126 74875,74927,74901
 4.0000e-001 75031 -3.0215e+001  3.8547e+001  1.4442e+001 64126 74849,75005,74875
 4.0000e-001 75224 -4.9221e+000  2.3083e+001 -4.3617e+000 63836 75146,75198,75172
 4.0000e-001 75472  1.8535e+001  3.5247e+001  3.7461e+000 63375 75273,75351,75325
 4.0000e-001 75449  1.5999e+001  3.4235e+001  3.8169e+000 63375 75273,75377,75351
 4.0000e-001 75426  1.9017e+001  2.8400e+001 -1.2489e+000 63375 75247,75377,75273
 4.0000e-001 75403  1.9649e+001  2.5351e+001  1.0911e+000 63375 75273,75325,75299
 4.0000e-001 75673 -1.0071e+000  2.5513e+001 -4.9004e-001 63063 75523,75575,75549
 4.0000e-001 75650 -1.9219e+000  3.0466e+001  1.9998e+000 63063 75497,75575,75523
 4.0000e-001 75627 -1.7436e+000  3.2072e+001 -1.3593e+000 63063 75497,75601,75575
 4.0000e-001 75874  1.9635e+000  3.4595e+001 -6.8348e-001 62716 75897,75750,75724
 4.0000e-001 75851  5.0005e+000  3.2618e+001 -1.0267e+000 62716 75897,75724,75698
 4.0000e-001 75828 -3.5983e+000  2.3206e+001  8.7582e+000 62716 75698,75802,75776
 4.0000e-001 75923 -4.0737e+000  3.2142e+001  4.1011e-001 62716 75776,75750,75897
 4.0000e-001 75946  2.3884e+000  3.2824e+001 -5.5695e-001 62716 75776,75897,75698
 4.0000e-001 76328 -1.1956e+001  3.1775e+001  2.4102e+000 62198 76495,76351,76158
 4.0000e-001 76305 -7.0881e+000  2.6787e+001  4.1875e+000 62198 76351,76080,76054
 4.0000e-001 76282 -1.1038e+001  4.8587e+001  4.5420e+000 62198 76423,76184,76158
 4.0000e-001 76259 -8.6105e+000  3.0684e+001  1.0826e+000 62198 76495,76158,76106
 4.0000e-001 76236 -6.8689e+000  4.2615e+001 -4.6954e+000 62198 76106,76158,76132
 4.0000e-001 76377 -9.6463e+000  3.7112e+001  4.4618e+000 62198 76423,76158,76351
 4.0000e-001 76400 -6.4120e+000  2.7529e+001  5.2126e+000 62198 76210,76351,76054
 4.0000e-001 76449 -1.4330e+001  3.6139e+001  5.4129e+000 62198 76210,76184,76423
 4.0000e-001 76472 -1.1165e+001  2.8095e+001  6.7668e+000 62198 76210,76423,76351
 4.0000e-001 76521 -6.4457e+000  3.0334e+001  7.9214e-001 62198 76080,76351,76495
 4.0000e-001 76544  5.2378e-001  3.3056e+001 -1.6567e+000 62198 76080,76495,76106
 4.0000e-001 76841  1.4554e+001  2.9726e+001  8.9074e+000 61751 76936,76864,76645
 4.0000e-001 76818  2.1212e+001  3.6798e+001  5.9231e+000 61751 76864,76567,76723
 4.0000e-001 76795  1.3909e+001  2.9726e+001  9.2792e+000 61751 76936,76645,76593
 4.0000e-001 76772  4.5418e+001  3.0909e+001  1.3198e+001 61751 77008,76697,76671
 4.0000e-001 76749  1.1785e+001  2.9320e+001  9.0283e+000 61751 76593,76645,76619
 4.0000e-001 76890  1.4267e+001  2.7034e+001  1.6692e+001 61751 76671,76645,76864
 4.0000e-001 76913  2.7192e+001  3.2951e+001  1.5267e+001 61751 77008,76671,76864
 4.0000e-001 76962  1.3395e+001  2.9860e+001  8.9109e+000 61751 76567,76864,76936
 4.0000e-001 76985  1.3018e+001  3.0086e+001  9.2750e+000 61751 76567,76936,76593
 4.0000e-001 77034  2.1736e+001  2.1669e+001  1.0803e+001 61751 76723,76697,77008
 4.0000e-001 77057  1.7081e+001  2.7310e+001  1.3007e+001 61751 76723,77008,76864
 4.0000e-001 77207 -2.3669e+001  2.9205e+001 -3.6356e+000 61418 77106,77158,77132
 4.0000e-001 77184 -1.8229e+001  2.4586e+001 -2.3617e+000 61418 77080,77158,77106
 4.0000e-001 77638 -6.5974e-001  1.6497e+001 -3.5776e+000 60814 77733,77661,77471
 4.0000e-001 77615  1.1699e+001  1.3046e+001  7.2460e-001 60814 77661,77393,77315
 4.0000e-001 77592 -2.3278e+000  1.4252e+001 -4.5705e+000 60814 77733,77471,77445
 4.0000e-001 77569  1.0843e+001  7.1670e-001 -2.7058e+000 60814 77315,77367,77341
 4.0000e-001 77546  1.3335e+001  4.6016e+000 -1.1762e+000 60814 77315,77393,77367
 4.0000e-001 77523  8.6017e+000  1.5407e+001 -1.0003e+001 60814 77393,77445,77419
 4.0000e-001 77687  4.5978e+000  1.8563e+001  3.7139e-001 60814 77497,77471,77661
 4.0000e-001 77710 -2.0843e+000  3.6321e+000  5.1505e+000 60814 77497,77661,77315
 4.0000e-001 77759  3.3897e+000  1.2381e+001 -4.9194e+000 60814 77393,77661,77733
 4.0000e-001 77782  6.1608e-001  9.6929e+000 -6.3052e+000 60814 77393,77733,77445
 4.0000e-001 78337 -6.0658e+000  1.1048e+001 -7.0991e+000 60210 78360,78017,77965
 4.0000e-001 78314 -1.0017e+001 -6.6750e+000 -6.5622e+000 60210 78360,77965,78173
 4.0000e-001 78291 -1.4120e+001  1.6231e+001  1.8442e+000 60210 78432,78043,78017
 4.0000e-001 78268 -7.9809e+000  4.3954e+001 -2.4574e+001 60210 77965,78017,77991
 4.0000e-001 78245 -2.7211e+001  1.5596e+001  8.2510e+000 60210 78043,78095,78069
 4.0000e-001 78222 -7.4847e+000 -1.8221e+000  6.7572e+000 60210 78095,78173,78121
 4.0000e-001 78199 -1.4655e+001 -1.7826e+000  3.0989e+000 60210 78121,78173,78147
 4.0000e-001 78386 -8.5075e+000  1.6715e+001 -5.2094e+000 60210 78432,78017,78360
 4.0000e-001 78409  3.9544e+000  9.3029e+000 -3.2781e-001 60210 78095,78360,78173
 4.0000e-001 78458 -1.6282e+001  6.8339e+000  6.8208e+000 60210 78095,78043,78432
 4.0000e-001 78481 -1.3139e+001  4.6554e+000  7.8878e-002 60210 78095,78432,78360
 4.0000e-001 78680 -3.3948e+000  2.9700e+001 -4.2544e-001 59848 78703,78556,78530
 4.0000e-001 78657 -5.9664e+000  2.6727e+001 -2.5567e+000 59848 78703,78530,78504
 4.0000e-001 78634 -5.7872e+000  1.9936e+001 -3.8451e+000 59848 78504,78608,78582
 4.0000e-001 78729  2.6429e+000  2.4733e+001 -1.6550e+000 59848 78582,78556,78703
 4.0000e-001 78752 -2.3615e+000  2.1859e+001 -4.6426e+000 59848 78582,78703,78504
 4.0000e-001 78951  2.3683e+001  3.9032e+001  1.4494e+001 59344 78974,78801,78775
 4.0000e-001 78928  2.8911e+001  4.9499e+001  1.0022e+001 59344 79046,78974,78775
 4.0000e-001 78905  2.4025e+001  5.7082e+001  1.1043e+001 59344 79046,78775,78879
 4.0000e-001 79000  2.9115e+001  3.9680e+001  7.8339e+000 59344 78827,78801,78974
 4.0000e-001 79023  2.8270e+001  4.8091e+001  2.8794e+000 59344 78827,78974,78853
 4.0000e-001 79072  2.2167e+001  4.2849e+001  7.2488e+000 59344 78853,78974,79046
 4.0000e-001 79095  1.4534e+001  4.7664e+001  7.2114e+000 59344 78853,79046,78879
 4.0000e-001 79296  4.5147e+000  2.7018e+001 -3.8745e-001 58711 79319,79172,79146
 4.0000e-001 79273  4.9601e+000  2.4871e+001 -1.0108e+000 58711 79319,79146,79120
 4.0000e-001 79250  4.4912e+000  2.6473e+001 -1.1749e+001 58711 79172,79224,79198
 4.0000e-001 79345  4.7677e+000  2.4755e+001 -1.5641e-001 58711 79224,79172,79319
 4.0000e-001 79368  5.2846e+000  2.2688e+001 -4.4076e-001 58711 79224,79319,79120
 4.0000e-001 79667  7.3409e+000  2.6644e+001  4.4293e+000 58285 79690,79471,79393
 4.0000e-001 79644  7.8440e+000  3.2250e+001  5.6943e+000 58285 79690,79393,79549
 4.0000e-001 79621  9.4003e+000  1.1046e+001  9.0903e+000 58285 79393,79471,79419
 4.0000e-001 79598  6.2915e-001  2.4458e+001 -2.4663e+000 58285 79497,79549,79523
 4.0000e-001 79575  1.6575e+001  1.0403e+001  6.3896e+000 58285 79419,79471,79445
 4.0000e-001 79716  7.7804e+000  2.0831e+001  9.1756e-001 58285 79497,79471,79690
 4.0000e-001 79739  9.5509e+000  2.9894e+001  1.1811e+000 58285 79497,79690,79549
 4.0000e-001 80249 -1.1057e+001 -1.1168e+000  3.2560e+000 57831 80272,79978,79952
 4.0000e-001 80226 -1.3696e+001  1.4344e-001 -6.2544e-002 57831 80272,79952,80108
 4.0000e-001 80203 -1.5903e+001 -1.7084e-002 -4.4503e-002 57831 79926,80108,79952
 4.0000e-001 80180 -1.0897e+001  8.3887e-001  1.1421e+000 57831 80004,80082,80030
 4.0000e-001 80157 -1.3973e+001 -2.3821e+000 -7.0128e-001 57831 80004,80108,80082
 4.0000e-001 80134 -6.0004e+000  3.0800e+000 -4.4704e+000 57831 80030,80082,80056
 4.0000e-001 80298 -1.4255e+001 -8.5442e+000  3.0233e+000 57831 80004,79978,80272
 4.0000e-001 80321 -1.4498e+001 -2.3631e+000 -2.3672e-002 57831 80004,80272,80108
 4.0000e-001 80618 -2.4346e+001 -2.4806e+000  2.9118e+000 57077 80344,80448,80422
 4.0000e-001 80595 -1.1028e+001  4.3042e+000  3.1416e-001 57077 80344,80500,80448
 4.0000e-001 80572 -2.4977e+001 -2.0882e+000  4.5044e+000 57077 80344,80422,80370
 4.0000e-001 80549 -1.1900e+001  1.2473e+001 -9.7310e-001 57077 80370,80422,80396
 4.0000e-001 80526 -2.6134e+000 -1.5378e+000 -1.9508e+000 57077 80448,80500,80474
 4.0000e-001 80768  4.0180e+000  2.2213e+001 -4.2303e+000 56787 80791,80693,80667
 4.0000e-001 80745  6.9300e+000  1.9615e+001 -8.3864e+000 56787 80791,80667,80641
 4.0000e-001 80817  4.0239e+000  2.0351e+001 -4.7997e+000 56787 80719,80693,80791
 4.0000e-001 80840 -8.3103e-001  1.7285e+000 -9.6740e+000 56787 80719,80791,80641
 4.0000e-001 81429  1.8266e+001  2.0868e+001 -7.9627e+000 56497 81452,81158,81132
 4.0000e-001 81406  1.0371e+001  1.1769e+001 -4.6177e+000 56497 81452,81132,81288
 4.0000e-001 81383  1.1090e+001  1.6947e+001  1.4362e-001 56497 81524,81184,81158
 4.0000e-001 81360  7.9630e+000  1.0859e+001 -5.8201e+000 56497 81210,81288,81236
 4.0000e-001 81337  7.4811e+000  7.7463e+000 -8.7300e+000 56497 81106,81288,81132
 4.0000e-001 81314  1.5266e+001  7.3797e+000 -6.6082e+000 56497 81236,81288,81262
 4.0000e-001 81478  1.1777e+001  2.1728e+001 -3.9850e+000 56497 81524,81158,81452
 4.0000e-001 81501  1.0629e+001  1.6359e+001 -3.8634e+000 56497 81210,81452,81288
 4.0000e-001 81550  9.3615e+000  1.1840e+001  1.9142e+000 56497 81210,81184,81524
 4.0000e-001 81573  8.8096e+000  1.2800e+001 -2.6882e+000 56497 81210,81524,81452
 4.0000e-001 81870  5.4596e+000  9.3068e+000 -6.5416e+000 55979 81893,81674,81648
 4.0000e-001 81847  6.6241e+000  8.6689e+000 -1.0021e+001 55979 81893,81648,81752
 4.0000e-001 81824  1.6624e+001  4.3856e+000 -6.1798e+000 55979 81596,81752,81648
 4.0000e-001 81801  9.4597e+000  1.9038e+001 -5.2265e+000 55979 81674,81726,81700
 4.0000e-001 81778  1.5360e+001  6.6063e-003 -2.2111e-001 55979 81596,81648,81622
 4.0000e-001 81919  4.4653e+000  6.7778e+000 -6.4561e+000 55979 81726,81674,81893
 4.0000e-001 81942  5.1152e+000  5.0727e+000 -9.9496e+000 55979 81726,81893,81752
 4.0000e-001 82371 -1.3620e+001 -4.7748e-001 -4.1855e+000 55631 82100,82204,82152
 4.0000e-001 82348 -1.1979e+001 -1.1021e+001 -8.6213e+000 55631 82100,82230,82204
 4.0000e-001 82325 -9.9116e+000  3.4496e+000 -9.7041e+000 55631 82100,82152,82126
 4.0000e-001 82302 -7.4090e+000  7.1983e-001 -6.7600e+000 55631 82074,82230,82100
 4.0000e-001 82279 -8.1916e+000  1.6095e+001  7.5719e-001 55631 82152,82204,82178
 4.0000e-001 82256 -8.7013e+000 -4.3461e+000 -7.3551e+000 55631 82048,82230,82074
 4.0000e-001 82521  2.4701e+000  6.8412e+000 -1.4834e+000 55227 82544,82420,82394
 4.0000e-001 82498  2.6627e+000  4.9322e+000 -1.3190e+000 55227 82544,82394,82472
 4.0000e-001 82570  2.1126e+000  8.0323e+000 -1.3963e+000 55227 82446,82420,82544
 4.0000e-001 82593  2.8748e+000  6.8299e+000 -7.1995e-001 55227 82446,82544,82472
 4.0000e-001 82875  2.4978e+000  1.2422e+001  7.2482e-001 54979 82699,82777,82725
 4.0000e-001 82852  9.0724e+000  6.9651e+000 -9.5890e-001 54979 82699,82803,82777
 4.0000e-001 82829  7.9399e+000  2.5470e+001  7.1672e+000 54979 82725,82777,82751
 4.0000e-001 83204  1.1106e+001  1.6628e+001  7.3108e+000 54475 83005,83083,83057
 4.0000e-001 83181  2.3154e+000  2.7413e+000  1.7174e+001 54475 82979,83083,83005
 4.0000e-001 83158  2.0885e+001  2.0521e+001  1.6999e+000 54475 83005,83057,83031
 4.0000e-001 83135  1.8541e+001  4.1068e+001  8.7766e+000 54475 82979,83109,83083
 4.0000e-001 83582 -5.0395e-001  1.9088e+001  6.1520e+000 54071 83605,83438,83412
 4.0000e-001 83559 -3.0879e-001  1.9111e+001  5.8258e+000 54071 83749,83605,83412
 4.0000e-001 83536  1.7410e+000  1.0754e+001  8.9964e+000 54071 83677,83360,83334
 4.0000e-001 83513  1.7554e+000  1.8914e+001  5.1527e+000 54071 83749,83412,83677
 4.0000e-001 83490 -1.6892e+001  2.6089e+001  2.2721e+001 54071 83308,83464,83334
 4.0000e-001 83631  3.9626e+000  1.9859e+001  8.5854e+000 54071 83464,83438,83605
 4.0000e-001 83654  7.7863e-001  1.0581e+001  9.5790e+000 54071 83464,83605,83334
 4.0000e-001 83703  2.5500e+000  1.7141e+001  2.5172e+000 54071 83386,83360,83677
 4.0000e-001 83726  6.7742e+000  3.2789e+001 -2.1570e+000 54071 83386,83677,83412
 4.0000e-001 83775  4.9083e+000  1.7580e+001  5.3727e+000 54071 83334,83605,83749
 4.0000e-001 83798  7.6079e+000  1.7982e+001  4.5340e+000 54071 83334,83749,83677
 4.0000e-001 84068  7.5616e+000  6.3475e+000  1.3459e+000 53524 83869,83921,83895
 4.0000e-001 84045  7.0485e+000  8.7920e+000  7.0219e-001 53524 83869,83947,83921
 4.0000e-001 84022  1.2059e+001  1.4553e+001  2.8438e+000 53524 83843,83947,83869
 4.0000e-001 83999 -1.4647e+000  1.0697e+001  3.9479e+000 53524 83843,83973,83947
 4.0000e-001 84497 -1.3276e+001  5.9497e+000 -2.2840e+000 53184 84200,84330,84252
 4.0000e-001 84474 -1.6137e+001  3.8751e+000  2.1661e+000 53184 84200,84356,84330
 4.0000e-001 84451 -1.1113e+001  1.7500e+001 -1.5697e+000 53184 84200,84252,84226
 4.0000e-001 84428  4.1007e+000  6.3055e+000  3.9532e+000 53184 84252,84330,84278
 4.0000e-001 84405 -5.3217e+000  1.0113e+001 -1.7650e+000 53184 84174,84356,84200
 4.0000e-001 84382  1.6084e+001  1.3683e+001 -7.0429e+000 53184 84278,84330,84304
 4.0000e-001 84954  8.4716e-001  1.2821e+001  5.1031e+000 52680 84706,84836,84784
 4.0000e-001 84931 -3.1133e-001  1.0756e+001  9.6262e+000 52680 84680,84836,84706
 4.0000e-001 84908  3.2406e+000  2.0064e+001  7.1716e+000 52680 84784,84836,84810
 4.0000e-001 84885  4.5613e-001  1.1002e+001  4.9764e+000 52680 84706,84784,84732
 4.0000e-001 84862  5.3896e+000  1.3251e+001  4.4003e+000 52680 84732,84784,84758
 4.0000e-001 85202 -2.2192e+000 -1.3015e+000 -3.3500e+000 52226 85029,85081,85055
 4.0000e-001 85179 -1.4189e+001 -3.7759e+000 -5.7354e+000 52226 85225,85081,85029
 4.0000e-001 85156 -1.2819e+001 -2.6099e-001 -2.8372e+000 52226 85225,85029,85003
 4.0000e-001 85133 -1.1003e+001  2.1158e+001 -7.8112e-001 52226 84977,85107,85003
 4.0000e-001 85251 -1.6051e+001 -4.5832e+000 -9.0053e+000 52226 85107,85081,85225
 4.0000e-001 85274 -1.7888e+001  1.5587e+000 -6.4841e+000 52226 85107,85225,85003
 4.0000e-001 85522  4.4756e+000  4.1198e+000  6.1702e-002 51764 85297,85349,85323
 4.0000e-001 85499  3.8144e+000  4.4696e+000 -1.0490e+000 51764 85545,85297,85427
 4.0000e-001 85476  3.2899e+000  3.2937e+000 -1.2650e+000 51764 85545,85427,85375
 4.0000e-001 85453  2.7288e+000  1.9535e+000 -1.1720e+000 51764 85375,85427,85401
 4.0000e-001 85571  4.7965e+000  3.7209e+000 -1.4190e-001 51764 85349,85297,85545
 4.0000e-001 85594  4.0280e+000  2.0951e+000 -4.0473e-001 51764 85349,85545,85375
 4.0000e-001 85746  4.6319e+000  6.3510e+000 -3.1630e+000 51374 85645,85697,85671
 4.0000e-001 85723  5.3699e+000  7.8089e-001 -4.6362e-002 51374 85619,85697,85645
 4.0000e-001 86256  7.6197e+000  2.6085e+000  3.1067e+000 50970 86279,86011,85959
 4.0000e-001 86233  5.3759e+000  5.1114e+000  2.9303e+000 50970 86279,85959,86115
 4.0000e-001 86210  9.0522e+000  6.5369e+000  4.9153e+000 50970 85959,86011,85985
 4.0000e-001 86187  4.7596e+000  5.0834e+000 -2.1874e+000 50970 86037,86115,86089
 4.0000e-001 86164  5.8379e+000  5.0817e+000  9.1620e-001 50970 85933,86115,85959
 4.0000e-001 86141  4.0557e+000  1.6905e+000 -2.5315e+000 50970 86037,86089,86063
 4.0000e-001 86305  6.1143e+000  6.0059e-001  2.4323e+000 50970 86037,86011,86279
 4.0000e-001 86328  3.9531e+000  3.2378e+000  2.2857e+000 50970 86037,86279,86115
 4.0000e-001 86478 -2.9606e+001  6.5724e+000  4.7304e+000 50451 86351,86403,86377
 4.0000e-001 86455 -1.6332e+001 -3.6131e+000 -6.9303e+000 50451 86351,86429,86403
 4.0000e-001 86907 -8.2997e-001 -1.2713e+000 -6.4610e+000 50047 86930,86714,86662
 4.0000e-001 86884 -1.1160e+000  1.7422e+000 -5.9633e+000 50047 86930,86662,86610
 4.0000e-001 86861  8.3808e+000  2.1297e+001 -1.0771e+001 50047 87002,86740,86714
 4.0000e-001 86838  1.5684e+001  6.9720e+000 -1.6276e+001 50047 86662,86714,86688
 4.0000e-001 86815 -4.0563e+000  1.7061e-001 -2.1143e-001 50047 86610,86662,86636
 4.0000e-001 86792  1.1267e+001  2.3042e+000 -3.3920e+000 50047 86584,86766,86610
 4.0000e-001 86956  9.3222e-001  4.5873e+000 -8.2049e+000 50047 87002,86714,86930
 4.0000e-001 86979 -1.1508e+000 -3.1621e+000 -4.5815e+000 50047 86766,86930,86610
 4.0000e-001 87028  3.1834e+000  3.2288e+000 -3.7807e+000 50047 86766,86740,87002
 4.0000e-001 87051  1.9152e+000  1.8576e+000 -2.9857e+000 50047 86766,87002,86930
 4.0000e-001 87250  2.0856e+001  1.7209e+001 -1.1089e+001 49543 87273,87126,87100
 4.0000e-001 87227  2.5327e+001  1.2258e+001 -1.5488e+001 49543 87273,87100,87074
 4.0000e-001 87204  1.1225e+001  5.9217e+000 -8.0117e+000 49543 87126,87178,87152
 4.0000e-001 87299  1.3789e+001  8.7241e+000 -6.9228e+000 49543 87178,87126,87273
 4.0000e-001 87322  2.2168e+001  9.9983e+000 -1.2542e+001 49543 87178,87273,87074
 4.0000e-001 87570 -2.2836e+001  1.0631e+000 -6.1647e+000 49146 87593,87449,87397
 4.0000e-001 87547 -2.2975e+001 -1.9072e+000 -1.1341e+001 49146 87593,87397,87371
 4.0000e-001 87524 -9.1914e+000  8.6779e-001 -7.1096e+000 49146 87345,87475,87371
 4.0000e-001 87501 -2.0774e+001  1.1554e+001 -2.5426e+000 49146 87397,87449,87423
 4.0000e-001 87619 -1.6404e+001  1.9407e+000 -3.6037e+000 49146 87475,87449,87593
 4.0000e-001 87642 -1.8926e+001 -4.8061e-001 -8.4898e+000 49146 87475,87593,87371
 4.0000e-001 88073 -1.0891e+001  2.1382e+001  1.1151e+001 48706 87854,87932,87880
 4.0000e-001 88050  9.1539e-001  4.0674e+001  5.9234e+000 48706 87828,87932,87854
 4.0000e-001 88027 -4.7869e-001  3.1703e+001  6.0009e+000 48706 87750,87932,87828
 4.0000e-001 88004 -2.1644e+001  3.0388e+001 -8.0766e+000 48706 87750,87802,87776
 4.0000e-001 87981  1.0133e+001  6.4196e+001  8.0839e+000 48706 87750,87828,87802
 4.0000e-001 87958  6.8722e+000  2.7289e+001  1.2946e+001 48706 87880,87932,87906
 4.0000e-001 88402  3.8687e+000  3.0091e+001  7.7313e-001 48145 88203,88281,88255
 4.0000e-001 88379  3.9837e+000  3.1308e+001  5.0018e+000 48145 88203,88307,88281
 4.0000e-001 88356 -6.0553e+000  2.7507e+001  3.5603e+000 48145 88203,88255,88229
 4.0000e-001 88333 -4.0327e+000  1.8581e+001  7.5732e-001 48145 88177,88307,88203
 4.0000e-001 88601  2.1239e+001  1.0875e+001  1.3366e+001 47805 88696,88624,88477
 4.0000e-001 88578  1.7226e+001  2.8312e+001  1.7525e+001 47805 88826,88624,88451
 4.0000e-001 88555  1.1984e+001  2.4747e+001  1.4595e+001 47805 88826,88451,88425
 4.0000e-001 88650  2.6454e+001  2.4563e+001  6.7399e+000 47805 88503,88477,88624
 4.0000e-001 88673  8.4402e+000  1.8710e+001  7.5372e+000 47805 88503,88624,88529
 4.0000e-001 88722  3.5806e+001  2.6551e+001  1.9864e+001 47805 88451,88624,88696
 4.0000e-001 88852  1.8066e+001  2.2951e+001  1.0439e+001 47805 88529,88624,88826
 4.0000e-001 88875  1.2523e+001  1.9580e+001  7.4977e+000 47805 88529,88826,88425
 4.0000e-001 89172 -4.8631e+000  1.3384e+000 -5.9455e+000 47401 89195,88976,88898
 4.0000e-001 89149 -2.6419e+000  2.3629e+000 -6.4710e+000 47401 89195,88898,89054
 4.0000e-001 89126 -7.4346e+000  4.4461e-001 -5.3920e+000 47401 88898,88976,88950
 4.0000e-001 89103 -2.8114e+000  5.9659e+000 -7.3370e-001 47401 88976,89028,89002
 4.0000e-001 89080 -4.6015e+000  1.0725e+001  1.7721e+000 47401 88898,88950,88924
 4.0000e-001 89221 -6.9466e+000 -1.1008e-001 -2.5787e+000 47401 89028,88976,89195
 4.0000e-001 89244 -1.4365e+000  2.4341e+000 -3.3043e+000 47401 89028,89195,89054
 4.0000e-001 89575  1.3598e+001  2.6822e+001  3.9521e+000 47111 89350,89454,89376
 4.0000e-001 89552  1.1942e+001  2.8228e+001  3.1090e+000 47111 89350,89480,89454
 4.0000e-001 89529  1.6312e+001  2.2761e+001 -4.8359e-001 47111 89376,89454,89402
 4.0000e-001 89506  1.5868e+001  2.2356e+001 -1.2065e+000 47111 89402,89454,89428
 4.0000e-001 89904  3.0224e+001  3.7785e+001  5.7793e+000 46707 89705,89757,89731
 4.0000e-001 89881  3.2519e+001  4.5119e+001  1.5888e+000 46707 89705,89783,89757
 4.0000e-001 89858  2.6136e+001  4.2451e+001  1.5358e+000 46707 89679,89783,89705
 4.0000e-001 89835  3.3143e+001  3.5640e+001 -2.6544e+000 46707 89679,89809,89783
 4.0000e-001 90233  1.6596e+001  2.9274e+001  4.1436e-001 46360 90034,90112,90086
 4.0000e-001 90210  4.9245e-001  1.6456e+001 -6.4545e+000 46360 90034,90138,90112
 4.0000e-001 90187 -1.2164e+001  3.3354e+001  3.5555e+000 46360 90034,90086,90060
 4.0000e-001 90164  5.1205e+000  3.3869e+001 -9.0265e+000 46360 90008,90138,90034
 4.0000e-001 90530 -2.5861e+000  8.4807e+000 -2.2978e+000 45662 90256,90360,90308
 4.0000e-001 90507  3.1692e+000  9.9998e+000 -2.5078e+000 45662 90256,90412,90360
 4.0000e-001 90484  7.9824e+000  1.2931e+001 -8.1510e+000 45662 90256,90308,90282
 4.0000e-001 90461  3.3064e-002  7.9787e+000  1.3565e+000 45662 90360,90412,90386
 4.0000e-001 90438  2.0749e+000  1.0345e+001 -1.6191e+000 45662 90308,90360,90334
 4.0000e-001 90910  6.3151e+000  2.3573e+001  5.5215e+000 45108 90688,90766,90714
 4.0000e-001 90887  1.2526e+001  1.8092e+001  1.1538e+001 45108 90662,90766,90688
 4.0000e-001 90864  7.7718e-001  1.0342e+001  8.1815e+000 45108 90636,90766,90662
 4.0000e-001 90841  3.3792e+001  1.8843e+001 -1.2624e+001 45108 90714,90766,90740
 4.0000e-001 90818  4.2784e+000  1.1836e+001  7.5705e+000 45108 90636,90792,90766
 4.0000e-001 91158 -2.2800e+001  1.5945e+001  4.7487e+000 44604 91181,91011,90959
 4.0000e-001 91135 -3.3099e+001  1.6908e+001  8.8043e+000 44604 91181,90959,90933
 4.0000e-001 91112 -1.1719e+001  2.3714e+001  1.2983e+000 44604 90959,91011,90985
 4.0000e-001 91089 -2.3516e+001  2.7704e+001  1.1632e+000 44604 90933,91063,91037
 4.0000e-001 91207 -1.8672e+001  1.6970e+001  2.2383e+000 44604 91037,91011,91181
 4.0000e-001 91230 -2.4288e+001  2.6518e+001  3.5670e+000 44604 91037,91181,90933
 4.0000e-001 91429  1.9838e+000  2.5219e+001 -1.3902e+000 44264 91452,91279,91253
 4.0000e-001 91406  3.2909e+000  2.9116e+001 -1.9886e+000 44264 91452,91253,91357
 4.0000e-001 91383 -3.7501e-002  2.0856e+001 -2.8253e-001 44264 91279,91331,91305
 4.0000e-001 91478  3.8185e+000  2.1671e+001 -9.9381e-001 44264 91331,91279,91452
 4.0000e-001 91501  4.9476e+000  2.4808e+001 -2.0857e+000 44264 91331,91452,91357
 4.0000e-001 92060 -4.3316e+000  2.8646e-001  3.4873e+000 43860 92083,91740,91688
 4.0000e-001 92037 -2.0148e+001 -2.5941e+000  1.7528e+000 43860 92083,91688,91896
 4.0000e-001 92014 -1.5012e+001 -1.5665e+000 -4.3949e+000 43860 91766,91870,91844
 4.0000e-001 91991 -1.6909e+001  2.9535e+000 -5.7756e+000 43860 91740,91870,91766
 4.0000e-001 91968 -4.8218e-001  8.5356e+000  7.9145e-001 43860 91766,91844,91792
 4.0000e-001 91945 -4.5146e-001  1.0281e+000 -4.1119e-001 43860 91688,91740,91714
 4.0000e-001 91922 -7.5003e+000  3.7492e+000 -1.4877e+000 43860 91792,91844,91818
 4.0000e-001 92109 -1.8587e+001  4.0333e+000 -4.7007e+000 43860 91870,91740,92083
 4.0000e-001 92132 -3.4360e+001  2.6137e-001 -7.3595e+000 43860 91870,92083,91896
 4.0000e-001 92353  8.6592e+000  2.5287e+001 -4.7619e+000 43662 92203,92255,92229
 4.0000e-001 92330  1.6572e+000  2.7137e+001 -2.4123e+000 43662 92376,92203,92281
 4.0000e-001 92307 -1.3404e+001  2.0301e+001 -8.9076e+000 43662 92177,92281,92203
 4.0000e-001 92402  3.6476e+000  2.7945e+001 -4.0861e+000 43662 92255,92203,92376
 4.0000e-001 92682 -1.6341e+000  1.9608e+001 -1.4857e+000 43464 92532,92584,92558
 4.0000e-001 92659 -7.0724e+000  1.6157e+001 -3.0457e+000 43464 92506,92584,92532
 4.0000e-001 92636  8.1244e+000  2.4069e+001 -5.9479e+000 43464 92506,92610,92584
 4.0000e-001 93013 -6.2374e+000  2.0490e+001 -1.4047e+001 42960 92866,92918,92892
 4.0000e-001 92990 -1.2173e+001  2.6294e+001 -7.2763e+000 42960 93036,92918,92866
 4.0000e-001 92967 -8.9660e+000  2.7112e+001 -7.4809e+000 42960 93036,92866,92840
 4.0000e-001 92944 -5.9467e+000  2.6558e+001 -2.5587e+000 42960 92788,92918,92814
 4.0000e-001 93062 -1.0124e+001  2.2316e+001 -4.3636e+000 42960 92814,92918,93036
 4.0000e-001 93085 -1.4513e+000  2.6239e+001 -5.3841e+000 42960 92814,93036,92840
 4.0000e-001 93186  1.8208e+000  1.5498e+001 -3.2709e-001 42556 93108,93160,93134
 4.0000e-001 93554 -2.3772e+000  1.9875e+001 -2.7958e+000 42052 93231,93387,93361
 4.0000e-001 93531  2.2749e+000  2.0230e+001 -5.4147e+000 42052 93231,93413,93387
 4.0000e-001 93508 -6.7753e-001  1.9668e+001 -3.1455e+000 42052 93231,93361,93257
 4.0000e-001 93485 -5.2680e+000  1.2423e+001  1.0057e+000 42052 93283,93361,93335
 4.0000e-001 93462 -1.2497e+001  1.5367e+001 -3.4951e+000 42052 93257,93361,93283
 4.0000e-001 93439 -1.1164e+001  8.8318e+000  6.4182e+000 42052 93283,93335,93309
 4.0000e-001 94162 -5.4894e+000  1.6073e+001  7.9928e+000 41498 93767,93975,93793
 4.0000e-001 94139 -8.5766e+000  1.3397e+001 -4.6246e-001 41498 93741,93975,93767
 4.0000e-001 94116 -5.0823e+000  1.2824e+001  7.0594e+000 41498 93793,93975,93923
 4.0000e-001 94093  3.0822e-001  2.5630e+001  2.1202e+000 41498 93923,93975,93949
 4.0000e-001 94070  6.2941e+000  7.2852e+000  1.0161e+001 41498 93871,93923,93897
 4.0000e-001 94047 -7.2155e+000  1.2266e+001  6.8953e+000 41498 93793,93923,93871
 4.0000e-001 94024  1.3334e+000  1.4360e+001  4.4790e+000 41498 93819,93871,93845
 4.0000e-001 94001 -6.4699e+000  1.0235e+001  6.1395e+000 41498 93793,93871,93819
 4.0000e-001 94619  1.4053e+001  1.0121e+001 -4.4644e-001 40930 94642,94423,94371
 4.0000e-001 94596  1.4739e+001  9.2242e+000  2.6626e+000 40930 94642,94371,94345
 4.0000e-001 94573  1.7705e+001  2.3734e+001  1.4338e+000 40930 94345,94501,94475
 4.0000e-001 94550  2.0817e+001  1.3823e+001 -2.9694e+000 40930 94371,94423,94397
 4.0000e-001 94527  1.7737e+001  1.4726e+001 -2.1415e+000 40930 94423,94475,94449
 4.0000e-001 94668  1.5888e+001  1.5473e+001 -1.0234e+000 40930 94475,94423,94642
 4.0000e-001 94691  1.5574e+001  1.1767e+001  1.7172e+000 40930 94475,94642,94345
 4.0000e-001 95148 -4.1978e+000  3.2319e+000 -8.6312e+000 40362 95171,94952,94926
 4.0000e-001 95125 -5.9986e+000  4.5306e+000 -1.5141e-001 40362 95171,94926,95004
 4.0000e-001 95102 -6.7132e+000  3.0386e+000 -6.9439e-001 40362 94874,95004,94926
 4.0000e-001 95079 -1.1064e+001  4.1813e+000 -5.1855e+000 40362 94874,95030,95004
 4.0000e-001 95056 -2.1856e+000  9.3093e+000 -5.1799e+000 40362 94874,94926,94900
 4.0000e-001 95197 -3.9558e+000  1.2103e+001 -9.5376e+000 40362 94978,94952,95171
 4.0000e-001 95220 -5.1632e+000  1.3248e+001 -1.3685e+000 40362 94978,95171,95004
 4.0000e-001 95549  1.9758e+000  1.8783e+001 -2.7616e+000 39586 95350,95402,95376
 4.0000e-001 95526 -1.6172e+000  1.5818e+001 -1.4134e+000 39586 95324,95402,95350
 4.0000e-001 95503  7.8672e-001  2.1507e+001 -1.7280e+000 39586 95324,95454,95402
 4.0000e-001 95480  5.6360e+000  3.3220e+001  2.8836e-001 39586 95402,95454,95428
 4.0000e-001 96055 -7.0399e+000  1.0976e+001  1.7606e+000 38968 96078,95862,95810
 4.0000e-001 96032 -3.1009e+000  1.2038e+001  3.2722e+000 38968 96078,95810,95758
 4.0000e-001 96009 -9.9220e+000  1.7046e+001  5.3006e+000 38968 96150,95732,95888
 4.0000e-001 95986 -5.2944e+000  1.1583e+001  1.6991e+000 38968 95810,95862,95836
 4.0000e-001 95963 -1.4911e+001  1.9332e+001 -5.7732e-001 38968 95732,95914,95888
 4.0000e-001 95940 -6.6108e-001  1.4735e+001  1.7747e+000 38968 95758,95810,95784
 4.0000e-001 96104 -5.5546e+000  1.2929e+001  5.9683e-001 38968 95888,95862,96078
 4.0000e-001 96127 -5.6969e+000  1.5575e+001  1.2210e+000 38968 96150,95888,96078
 4.0000e-001 96176 -1.5974e+001  1.0587e+001  8.3229e+000 38968 95758,95732,96150
 4.0000e-001 96199 -1.1545e+001  8.0447e+000  4.4343e+000 38968 95758,96150,96078
 4.0000e-001 96545  1.1563e+001  8.2114e+000  1.1344e+001 38507 96640,96568,96352
 4.0000e-001 96522  3.8565e+000  1.8722e+000  1.6265e+001 38507 96568,96300,96222
 4.0000e-001 96499  1.4807e+001  1.1800e+001  6.1651e+000 38507 96640,96352,96326
 4.0000e-001 96476  1.5796e+001  1.2955e+000  3.3832e+000 38507 96352,96404,96378
 4.0000e-001 96453  3.2896e+000  7.9334e+000  1.4741e+001 38507 96222,96300,96248
 4.0000e-001 96430  1.2071e+001  1.4144e+000  4.1575e+000 38507 96248,96300,96274
 4.0000e-001 96594  8.3028e+000  3.7183e+000  1.3097e+001 38507 96404,96352,96568
 4.0000e-001 96617  9.4270e+000  7.0596e+000  1.3407e+001 38507 96404,96568,96222
 4.0000e-001 96666  7.9611e+000  7.4015e-001  1.4669e+001 38507 96300,96568,96640
 4.0000e-001 96689  8.8857e+000  3.1651e+000  9.9946e+000 38507 96300,96640,96326
 4.0000e-001 97069 -2.1912e+001 -3.7447e+000 -1.3300e+000 37760 97092,96873,96821
 4.0000e-001 97046 -2.1432e+001 -3.8259e+000  1.5321e+000 37760 97092,96821,96795
 4.0000e-001 97023 -8.7837e+000 -5.6877e+000 -2.4482e+000 37760 96821,96873,96847
 4.0000e-001 97000 -3.7291e+001  1.0290e+001 -8.8365e+000 37760 96873,96925,96899
 4.0000e-001 96977 -1.5471e+001  4.2138e+000 -4.2085e-001 37760 96795,96951,96925
 4.0000e-001 97118 -2.0824e+001 -1.0382e+000 -1.1841e+000 37760 96925,96873,97092
 4.0000e-001 97141 -2.0111e+001 -1.1515e+000  1.9579e+000 37760 96925,97092,96795
 4.0000e-001 97647  1.8182e+001  2.8648e+000  3.1787e+000 37356 97324,97480,97376
 4.0000e-001 97624  3.1724e+001  6.8306e+000  5.4865e+000 37356 97324,97506,97480
 4.0000e-001 97601  2.3296e+001  1.3174e+001  6.1898e+000 37356 97376,97480,97454
 4.0000e-001 97578  1.6420e+001  2.5791e+000  4.6589e+000 37356 97324,97376,97350
 4.0000e-001 97555  1.9469e+001  1.2394e+001  7.6935e+000 37356 97376,97454,97402
 4.0000e-001 97532  2.9823e+001  1.7201e+001  1.1197e+001 37356 97402,97454,97428
 4.0000e-001 98232  8.5118e+000  8.1611e+000 -6.4499e+000 36902 97935,98065,98013
 4.0000e-001 98209  9.8208e+000  9.2149e+000 -5.8387e+000 36902 97935,98091,98065
 4.0000e-001 98186  1.1800e+001  1.1883e+001 -8.4605e+000 36902 97935,98013,97987
 4.0000e-001 98163  1.4657e+001  1.0412e+001 -3.9220e+000 36902 97909,98091,97935
 4.0000e-001 98140  2.0238e+001  1.6445e+001 -1.4996e+001 36902 97935,97987,97961
 4.0000e-001 98117  1.1096e+001  1.2717e+001 -4.7780e+000 36902 98013,98065,98039
 4.0000e-001 98659  1.1615e+001  1.3250e+001  1.2629e+001 36604 98682,98414,98388
 4.0000e-001 98636  1.3595e+000  6.4189e+000  1.8327e+000 36604 98682,98388,98336
 4.0000e-001 98613 -5.0812e+000  6.8577e-001 -1.8415e+000 36604 98754,98518,98466
 4.0000e-001 98590 -3.1690e+000 -1.0160e+000  3.0599e+000 36604 98414,98466,98440
 4.0000e-001 98567  9.6628e+000  1.8638e+000  4.2262e+000 36604 98336,98388,98362
 4.0000e-001 98544 -4.0006e+000  8.3900e-001  5.1256e-001 36604 98466,98518,98492
 4.0000e-001 98708  4.1759e+000  1.8302e+000  5.0615e+000 36604 98466,98414,98682
 4.0000e-001 98731 -2.1600e+000  2.0833e+000 -2.8771e+000 36604 98754,98466,98682
 4.0000e-001 98780 -1.4478e+000 -1.6835e+000 -1.8161e+000 36604 98336,98518,98754
 4.0000e-001 98803  1.9524e+000 -2.9520e-001 -2.4240e+000 36604 98336,98754,98682
 4.0000e-001 99309 -6.5956e+000  8.4574e+000 -5.2326e-001 36200 99332,99116,99012
 4.0000e-001 99286 -6.3364e+000  2.0743e+000  2.5040e+000 36200 99332,99012,98986
 4.0000e-001 99263 -3.5308e+000  5.5624e+000 -3.9425e+000 36200 99012,99116,99064
 4.0000e-001 99240 -9.9574e-001  2.1157e+001  1.3454e+000 36200 98986,99168,99142
 4.0000e-001 99217 -2.3470e+001  1.2136e+001 -7.9634e+000 36200 99064,99116,99090
 4.0000e-001 99194 -2.0918e+000  5.2976e+000 -2.8461e+000 36200 99012,99064,99038
 4.0000e-001 99358 -5.7728e+000  1.2616e+001 -1.9223e+000 36200 99142,99116,99332
 4.0000e-001 99381 -4.6893e+000  8.7191e+000  1.7517e+000 36200 99142,99332,98986
 4.0000e-001 99887 -6.1800e-001  2.5766e+000  2.4880e+000 35488 99564,99720,99590
 4.0000e-001 99864  3.0491e+000  1.0370e+001  4.5278e+000 35488 99564,99746,99720
 4.0000e-001 99841 -6.9065e-002  6.6827e+000 -7.6725e+000 35488 99642,99694,99668
 4.0000e-001 99818  1.2369e+000  3.3863e+000 -1.5353e+000 35488 99590,99694,99642
 4.0000e-001 99795 -1.1729e+000  6.1022e+000 -4.2021e-002 35488 99590,99720,99694
 4.0000e-001 99772  7.9907e-001  8.9263e-001 -1.9507e+000 35488 99590,99642,99616
 4.0000e-001 99988 -2.1117e+000  2.3984e+001 -3.5037e+000 35198 99910,99962,99936
 4.0000e-001 100138 -3.8161e+000  2.3115e+001  8.7021e+000 34794 100233,100161,100063
 4.0000e-001 100115 -2.0173e+001  7.9498e+000  6.7985e+000 34794 100365,100161,100037
 4.0000e-001 100187  2.0346e+001  7.8703e+000  8.0273e+000 34794 100089,100063,100161
 4.0000e-001 100210 -4.3539e+000  2.9401e+000  8.1878e+000 34794 100089,100161,100011
 4.0000e-001 100259 -1.1603e+001  7.2554e+000  4.6951e+000 34794 100037,100161,100233
 4.0000e-001 100391 -1.0339e+001 -6.3348e+000  1.4192e+001 34794 100011,100161,100365
 4.0000e-001 100927 -7.7717e+000  7.4753e+000  2.5658e+000 34404 100679,100809,100783
 4.0000e-001 100904  1.4721e+000  1.2719e+001  5.1373e+000 34404 100653,100809,100679
 4.0000e-001 100881 -9.4098e-001  1.2546e+001  6.7973e-001 34404 100705,100783,100731
 4.0000e-001 100858 -1.9176e+000  1.1138e+001 -1.6457e-002 34404 100679,100783,100705
 4.0000e-001 100835  1.2720e+000  1.6170e+001  1.8084e+000 34404 100731,100783,100757
 4.0000e-001 101354  1.7324e+001  2.2187e+001  6.4175e+000 34000 101377,101109,101057
 4.0000e-001 101331  1.7804e+001  1.9561e+001  3.5933e+000 34000 101449,101377,101057
 4.0000e-001 101308  1.8420e+001  1.3206e+001  3.0252e+000 34000 101449,101057,101031
 4.0000e-001 101285  2.1120e+001  9.4270e+000  1.2679e+001 34000 101031,101213,101187
 4.0000e-001 101262  2.0566e+001  3.8157e+000  2.9710e+000 34000 101135,101187,101161
 4.0000e-001 101239  1.2094e+001  1.2779e+001  9.5457e+000 34000 101057,101109,101083
 4.0000e-001 101403  1.4682e+001  1.6199e+001  5.9136e+000 34000 101135,101109,101377
 4.0000e-001 101426  1.8163e+001  1.7568e+001  6.3565e+000 34000 101135,101377,101187
 4.0000e-001 101475  1.5286e+001  1.1097e+001  5.3464e+000 34000 101187,101377,101449
 4.0000e-001 101498  1.8559e+001  8.1306e+000  4.1503e+000 34000 101187,101449,101031
 4.0000e-001 102083 -5.7549e+000  1.1939e+001 -3.0772e-001 33472 102106,101812,101786
 4.0000e-001 102060 -3.9147e+000  1.1539e+001  1.5284e+000 33472 102106,101786,101916
 4.0000e-001 102037 -3.0405e+000  1.3016e+001 -3.6683e-001 33472 101812,101864,101838
 4.0000e-001 102014 -7.5092e+000  2.0642e+001  2.4030e+000 33472 101864,101916,101890
 4.0000e-001 101991  4.0570e+000  1.5857e+001  4.0443e+000 33472 101786,101942,101916
 4.0000e-001 101968  6.8742e+000  1.5568e+001 -2.8147e+000 33472 101760,101942,101786
 4.0000e-001 102132 -4.2662e+000  1.3701e+001  3.9742e-001 33472 101864,101812,102106
 4.0000e-001 102155 -3.1264e+000  1.3109e+001  2.1114e+000 33472 101864,102106,101916
 4.0000e-001 102612  1.3479e+001  2.1420e+001  3.5579e+000 33038 102635,102468,102390
 4.0000e-001 102589  9.3291e+000  1.1204e+001  3.2694e+000 33038 102635,102390,102364
 4.0000e-001 102566  1.1011e+001  1.7096e+001  1.8874e+000 33038 102390,102468,102442
 4.0000e-001 102543  6.5811e+000  4.3911e+000  9.3283e+000 33038 102338,102494,102364
 4.0000e-001 102520  7.8184e+000  1.5521e+001  1.3353e+000 33038 102390,102442,102416
 4.0000e-001 102661  1.1941e+001  2.3505e+001  1.0124e+001 33038 102494,102468,102635
 4.0000e-001 102684  8.7349e+000  1.6191e+001  1.0582e+001 33038 102494,102635,102364
 4.0000e-001 103318  3.6867e+000  1.5024e+001  4.7530e-001 32402 102972,103128,103076
 4.0000e-001 103295  4.4549e+000  1.7399e+001  1.3694e+000 32402 102946,103128,102972
 4.0000e-001 103272  9.5093e+000  2.7382e+001  3.0177e+000 32402 103076,103128,103102
 4.0000e-001 103249  5.2425e+000  1.7552e+001 -1.2356e+000 32402 102946,103154,103128
 4.0000e-001 103226  2.2931e+000  1.3828e+001  1.1645e+000 32402 102972,103076,102998
 4.0000e-001 103203 -1.1656e+001  1.4535e+001  4.0365e+000 32402 102998,103076,103050
 4.0000e-001 103180 -2.5149e+000  3.5976e+001 -3.5352e+000 32402 102998,103050,103024
 4.0000e-001 103696  1.0830e-001  1.3833e+001  4.0721e+000 31924 103448,103526,103500
 4.0000e-001 103673 -9.4304e+000  8.7229e+000 -2.7061e-001 31924 103448,103578,103526
 4.0000e-001 103650 -7.4655e+000  1.4878e+001  6.1868e+000 31924 103448,103500,103474
 4.0000e-001 103627 -2.4333e+001  2.9929e+001 -3.3345e+000 31924 103422,103578,103448
 4.0000e-001 103604  1.4987e+001  4.9514e+000 -3.9309e+000 31924 103526,103578,103552
 4.0000e-001 104281 -2.6610e+000  1.0975e+001 -1.1415e+000 31520 104304,104062,104036
 4.0000e-001 104258  2.0353e+000  1.4351e+001  3.8709e-001 31520 104304,104036,103984
 4.0000e-001 104235 -1.3703e+000  1.4057e+001  2.5250e+000 31520 104062,104114,104088
 4.0000e-001 104212 -1.1869e+001  1.1117e+001  2.8204e+000 31520 103958,104114,103984
 4.0000e-001 104189  5.7485e+000  2.2978e+001 -6.3881e-001 31520 103984,104036,104010
 4.0000e-001 104166 -8.2862e+000  2.2986e+001  9.8471e-001 31520 103958,104140,104114
 4.0000e-001 104330 -2.9803e+000  1.4871e+001  1.0978e+000 31520 104114,104062,104304
 4.0000e-001 104353 -1.4841e+000  1.5816e+001  1.5198e+000 31520 104114,104304,103984
 4.0000e-001 104704  1.6894e+000  1.7065e+001  4.5258e-001 31066 104479,104583,104505
 4.0000e-001 104681 -3.9866e+000  1.5266e+001  7.7874e-001 31066 104479,104609,104583
 4.0000e-001 104658 -7.7743e+000  1.9838e+001 -1.5961e+000 31066 104505,104557,104531
 4.0000e-001 104635 -5.8117e+000  1.3089e+001 -1.1596e+000 31066 104505,104583,104557
 4.0000e-001 104925 -1.1691e+001  3.5622e+001  3.1945e+000 30754 104775,104827,104801
 4.0000e-001 104902 -9.5256e+000  2.4113e+001  2.2794e+000 30754 104775,104853,104827
 4.0000e-001 104879 -9.9875e+000  2.3706e+001 -5.8780e-001 30754 104749,104853,104775
 4.0000e-001 105482  1.3873e+001  1.9638e+001  1.7535e+001 30164 105505,105136,105110
 4.0000e-001 105459 -2.6355e+000  4.6995e+001  8.2954e+000 30164 105649,105505,105110
 4.0000e-001 105436  6.0236e+000  4.1159e+000  1.8561e+001 30164 105577,105188,105136
 4.0000e-001 105413 -1.5557e+000  4.9393e+001 -3.2588e+000 30164 105649,105110,105318
 4.0000e-001 105390 -8.9228e+000  2.0216e+001  5.2123e+000 30164 105214,105292,105240
 4.0000e-001 105367  3.1807e+001  2.7421e+001  6.9189e+000 30164 105240,105292,105266
 4.0000e-001 105344 -3.3040e-001 -1.0963e+001  2.3740e+001 30164 105136,105188,105162
 4.0000e-001 105531  7.2811e+000  3.6666e+000  1.1409e+001 30164 105577,105136,105505
 4.0000e-001 105554 -1.0690e+001  1.4947e+001  1.6039e+000 30164 105214,105505,105292
 4.0000e-001 105603  2.5334e+000 -5.6606e+000  1.9427e+001 30164 105214,105188,105577
 4.0000e-001 105626  2.9182e+000 -7.0204e+000  1.2618e+001 30164 105214,105577,105505
 4.0000e-001 105675 -1.0009e+001  2.9246e+001  6.0157e+000 30164 105292,105505,105649
 4.0000e-001 105698 -1.0380e+001  2.4400e+001 -3.5321e+000 30164 105292,105649,105318
 4.0000e-001 106027  3.2127e+001  1.6553e+001  1.2827e+000 29868 106322,106050,105880
 4.0000e-001 106004  1.8781e+001 -1.9021e+001 -2.1052e-002 29868 106250,106050,105828
 4.0000e-001 105981  1.5376e+001 -1.3298e+001  1.3914e+001 29868 106250,105828,105802
 4.0000e-001 105958  1.7178e+001  3.7252e+001  1.6917e+001 29868 106322,105880,106122
 4.0000e-001 106076  3.0934e+001  3.3888e+001 -1.2737e+001 29868 105906,105880,106050
 4.0000e-001 106099  1.5861e+001  3.9009e+000 -3.5326e+000 29868 105906,106050,105932
 4.0000e-001 106148 -6.3085e-001  1.1702e+001  2.3378e+001 29868 105854,105828,106122
 4.0000e-001 106276  2.6558e+001  4.0145e-001 -1.7119e+000 29868 105932,106050,106250
 4.0000e-001 106299  2.4262e+001  1.2774e+001  1.3704e+001 29868 105932,106250,105802
 4.0000e-001 106348  5.0667e+000 -4.1973e+000 -7.9644e+000 29868 105828,106050,106322
 4.0000e-001 106371 -7.3329e+000  1.7184e+001  8.1438e+000 29868 105828,106322,106122
 4.0000e-001 106828  1.5844e+001  2.1490e+001  7.8717e+000 29521 106580,106710,106684
 4.0000e-001 106805  1.6099e+001  1.8496e+001  9.2559e+000 29521 106554,106710,106580
 4.0000e-001 106782  1.8313e+001  2.3641e+001  8.7930e+000 29521 106580,106684,106606
 4.0000e-001 106759  1.8405e+001  2.5668e+001  7.5114e+000 29521 106606,106684,106658
 4.0000e-001 106736  8.4998e+000  2.7372e+001  7.7250e+000 29521 106606,106658,106632
 4.0000e-001 107027  6.1716e+000  1.0735e+001  9.4093e+000 29117 106877,106929,106903
 4.0000e-001 107004  8.2068e+000  1.1521e+001  3.8686e+000 29117 106851,106929,106877
 4.0000e-001 106981  1.4886e+001  9.9110e+000  2.2161e+000 29117 106851,106955,106929
 4.0000e-001 107456  3.4766e+000  1.9812e+001 -1.1946e+000 28656 107237,107315,107263
 4.0000e-001 107433  9.1385e-001  1.7387e+001 -2.1958e+000 28656 107133,107315,107237
 4.0000e-001 107410 -3.3804e+000  9.0281e+000 -6.8209e-001 28656 107133,107237,107159
 4.0000e-001 107387 -1.7642e+000  1.2831e+001 -1.7603e+000 28656 107159,107237,107185
 4.0000e-001 107364 -1.0791e+001  9.8141e+000  1.0346e+000 28656 107185,107237,107211
 4.0000e-001 107341  4.4475e+000  2.7557e+001 -1.0162e+001 28656 107263,107315,107289
 4.0000e-001 107704  2.4684e+000  1.3914e+001  5.3020e+000 27902 107727,107557,107531
 4.0000e-001 107681  5.5300e+000  1.6228e+001  6.9752e+000 27902 107727,107531,107505
 4.0000e-001 107658  6.7683e-001  2.1972e+001  4.3297e+000 27902 107557,107609,107583
 4.0000e-001 107635 -5.1057e-001  2.1492e+001  1.0702e+001 27902 107479,107609,107505
 4.0000e-001 107753 -9.4124e-001  1.6292e+001  3.9756e+000 27902 107609,107557,107727
 4.0000e-001 107776  1.8267e+000  1.8020e+001  5.4498e+000 27902 107609,107727,107505
 4.0000e-001 108333 -5.0144e-001  1.7508e+001 -9.5860e-001 27341 108356,108065,108013
 4.0000e-001 108310 -3.6501e-002  1.7169e+001  1.4054e+000 27341 108356,108013,108143
 4.0000e-001 108287 -1.2109e-002  1.9089e+001  9.9663e-001 27341 108428,108117,108091
 4.0000e-001 108264 -9.5328e-001  1.7380e+001 -8.1357e-001 27341 108013,108065,108039
 4.0000e-001 108241 -2.1742e+000  1.4179e+001  3.3771e-001 27341 107987,108143,108013
 4.0000e-001 108218 -1.1565e+001  1.0086e+001  1.6011e+000 27341 107987,108169,108143
 4.0000e-001 108195 -1.7065e+001  1.6107e+001  1.7136e+000 27341 107961,108169,107987
 4.0000e-001 108382  6.3263e-001  2.0090e+001 -7.8942e-001 27341 108091,108065,108356
 4.0000e-001 108405  5.9190e-001  1.7708e+001  5.7267e-001 27341 108428,108091,108356
 4.0000e-001 108454  9.2922e-001  2.1938e+001  1.5989e+000 27341 108143,108117,108428
 4.0000e-001 108477  1.1334e+000  1.9908e+001  1.2114e+000 27341 108143,108428,108356
 4.0000e-001 108725 -2.3757e+001 -1.9219e+001  4.4926e+000 27029 108748,108526,108500
 4.0000e-001 108702 -2.1300e+001 -2.6828e+001  2.9902e+000 27029 108748,108500,108630
 4.0000e-001 108679 -1.6886e+001 -1.7997e+001  8.9722e+000 27029 108578,108630,108604
 4.0000e-001 108656 -2.6132e+001 -2.8617e+001 -1.0930e+001 27029 108526,108578,108552
 4.0000e-001 108774 -2.1390e+001 -1.6056e+001  5.5521e+000 27029 108578,108526,108748
 4.0000e-001 108797 -1.6948e+001 -2.1252e+001  4.9531e+000 27029 108578,108748,108630
 4.0000e-001 109045 -7.7712e+000  8.1260e+000 -3.1385e+000 26610 108872,108924,108898
 4.0000e-001 109022 -8.1103e+000  7.6433e+000 -3.3549e+000 26610 108872,108950,108924
 4.0000e-001 108999 -1.0015e+001  8.7541e+000 -7.0088e+000 26610 108846,108950,108872
 4.0000e-001 108976 -4.3604e+000 -8.3635e-001 -7.4351e+000 26610 108820,108950,108846
 4.0000e-001 109366 -3.3590e+000  1.9099e+001  6.5857e-001 26006 109144,109222,109196
 4.0000e-001 109343 -4.0864e+000  1.8494e+001  3.9910e-001 26006 109118,109222,109144
 4.0000e-001 109320 -2.0365e+000  2.0009e+001 -5.9711e-001 26006 109092,109222,109118
 4.0000e-001 109297 -8.4155e-001  2.0100e+001  1.4197e+000 26006 109144,109196,109170
 4.0000e-001 109274 -6.3354e+000  1.2609e+001  1.1711e+000 26006 109092,109248,109222
 4.0000e-001 109567  1.5683e+001  2.7813e+001  5.5514e-001 25659 109391,109469,109443
 4.0000e-001 109544  2.1547e+001  2.9836e+001  1.5247e+000 25659 109391,109495,109469
 4.0000e-001 109521  1.2159e+001  1.8218e+001  1.0839e+000 25659 109391,109443,109417
 4.0000e-001 109900  7.9223e+000  1.4208e+001  5.7719e+000 25255 109923,109779,109753
 4.0000e-001 109877  1.0283e+001  2.0386e+001  6.7383e+000 25255 109923,109753,109701
 4.0000e-001 109854  1.2595e+001  1.0796e+001 -4.6940e-001 25255 109675,109805,109701
 4.0000e-001 109831  7.7823e+000  1.1537e+001  1.0259e+001 25255 109701,109753,109727
 4.0000e-001 109949  7.7638e+000  5.6848e+000 -4.9022e-001 25255 109805,109779,109923
 4.0000e-001 109972  1.2614e+001  1.6880e+001  4.9179e-001 25255 109805,109923,109701
 4.0000e-001 110220  9.9599e+000  1.4138e+001  6.5552e+000 24701 110243,110021,109995
 4.0000e-001 110197  1.0392e+001  1.5550e+001  7.3420e+000 24701 110243,109995,110099
 4.0000e-001 110174  9.2684e+000  1.6094e+001  6.5112e+000 24701 110315,110073,110047
 4.0000e-001 110151  6.0771e+000  8.3763e+000  9.7484e+000 24701 109995,110125,110099
 4.0000e-001 110269  9.2096e+000  1.1918e+001  4.5701e+000 24701 110047,110021,110243
 4.0000e-001 110292  1.1226e+001  1.5811e+001  5.6479e+000 24701 110315,110047,110243
 4.0000e-001 110341  5.0888e+000  1.4383e+001  7.0039e+000 24701 110099,110073,110315
 4.0000e-001 110364  8.0713e+000  1.4551e+001  6.2599e+000 24701 110099,110315,110243
 4.0000e-001 110661 -1.6000e+000  1.6899e+001  8.9569e+000 24197 110684,110413,110387
 4.0000e-001 110638  4.3041e+000  2.9950e+001  7.6718e+000 24197 110684,110387,110543
 4.0000e-001 110615  3.4899e+000  2.5231e+001  9.9466e-001 24197 110756,110491,110465
 4.0000e-001 110592  1.1010e+000  1.6814e+001  2.0628e+000 24197 110413,110465,110439
 4.0000e-001 110569  1.5454e+000  2.7672e+001  6.1816e+000 24197 110491,110543,110517
 4.0000e-001 110710  2.6162e+000  1.6607e+001  1.9742e+000 24197 110465,110413,110684
 4.0000e-001 110733  5.4468e+000  2.3635e+001  1.5371e+000 24197 110756,110465,110684
 4.0000e-001 110782  1.8926e+000  2.3477e+001  2.0806e+000 24197 110543,110491,110756
 4.0000e-001 110805  3.1387e+000  2.1145e+001  2.7856e+000 24197 110543,110756,110684
 4.0000e-001 111315 -1.5179e+001  7.2303e+000 -1.2983e+001 23593 111044,111148,111070
 4.0000e-001 111292  4.0240e+000  1.5565e+001 -9.3569e+000 23593 111044,111174,111148
 4.0000e-001 111269  1.2253e+001 -1.5449e+001 -1.8211e+001 23593 111070,111122,111096
 4.0000e-001 111246  1.6917e+000  3.7021e+001 -4.4726e+000 23593 111070,111148,111122
 4.0000e-001 111223  5.9793e+000  5.0265e-002 -1.0856e+000 23593 111018,111174,111044
 4.0000e-001 111200  1.9311e+000  1.8519e+000 -1.8246e+000 23593 110992,111174,111018
 4.0000e-001 111821 -4.0181e+000  1.7784e+001  5.4212e-001 23089 111916,111844,111628
 4.0000e-001 111798 -5.1848e-002  2.0654e+001  1.3822e+000 23089 111844,111550,111524
 4.0000e-001 111775 -4.5584e+000  1.6278e+001  2.2298e-001 23089 111916,111628,111602
 4.0000e-001 111752 -4.7373e+000  2.8762e+001 -1.7268e+000 23089 111498,111680,111524
 4.0000e-001 111729 -3.1522e+000  1.3365e+001  2.4251e-001 23089 111550,111602,111576
 4.0000e-001 111706 -1.9074e+000  1.1182e+001  1.6441e+000 23089 111628,111680,111654
 4.0000e-001 111870 -1.3221e+000  1.6792e+001 -9.8822e-001 23089 111680,111628,111844
 4.0000e-001 111893 -2.1172e-001  1.9229e+001 -2.4940e+000 23089 111680,111844,111524
 4.0000e-001 111942 -2.1604e+000  1.5218e+001  1.2146e+000 23089 111550,111844,111916
 4.0000e-001 111965 -2.7723e+000  1.3725e+001  7.4182e-001 23089 111550,111916,111602
 4.0000e-001 112164  1.1994e+001  3.5690e+000  1.6193e+001 22626 112187,112014,111988
 4.0000e-001 112141  7.5541e+000  2.9175e+001  1.3916e+001 22626 112259,112187,111988
 4.0000e-001 112118  6.8496e+000  3.6911e+001  7.4043e-001 22626 112259,111988,112092
 4.0000e-001 112213  4.3722e+000 -2.9279e+001  7.9614e+000 22626 112040,112014,112187
 4.0000e-001 112236  1.2371e+001  8.6752e+000  1.3411e+001 22626 112040,112187,112066
 4.0000e-001 112285  2.3356e+000  8.0722e+000  1.5858e+001 22626 112066,112187,112259
 4.0000e-001 112308 -8.7740e-001  1.3634e+001  3.5933e+000 22626 112066,112259,112092
 4.0000e-001 112605  1.1650e+001  1.6960e+001  2.1000e+000 22286 112628,112383,112357
 4.0000e-001 112582  7.9552e+000  1.5215e+001  2.5848e+000 22286 112772,112628,112357
 4.0000e-001 112559  9.0889e+000  1.8889e+001  5.6055e-001 22286 112700,112435,112409
 4.0000e-001 112536  3.1642e+000  1.7231e+001  5.9334e+000 22286 112772,112357,112331
 4.0000e-001 112513  1.4839e+001  1.6095e+001 -1.1999e+000 22286 112435,112487,112461
 4.0000e-001 112654  1.0095e+001  1.5931e+001  9.8450e-001 22286 112409,112383,112628
 4.0000e-001 112677  8.8692e+000  1.8340e+001  5.6201e-001 22286 112700,112409,112628
 4.0000e-001 112726  9.0140e+000  1.8610e+001  9.1492e-001 22286 112487,112435,112700
 4.0000e-001 112749  8.9684e+000  1.8478e+001  8.9784e-001 22286 112487,112700,112628
 4.0000e-001 112798  1.0263e+001  2.0045e+001  1.5471e+000 22286 112487,112628,112772
 4.0000e-001 112821  7.5458e+000  2.3154e+001  2.9373e+000 22286 112487,112772,112331
 4.0000e-001 112924 -3.6701e+001  2.4486e+001  6.6259e+000 21974 112846,112898,112872
 4.0000e-001 113223  1.1055e+001 -6.1104e-001  4.4274e+000 21420 112949,113053,112975
 4.0000e-001 113200  1.0920e+001  1.1237e+001  6.0608e+000 21420 112949,113079,113053
 4.0000e-001 113177  5.9908e+000  6.8391e-001 -2.1745e+000 21420 112975,113053,113001
 4.0000e-001 113154  1.5174e+001  2.9942e+000 -2.0123e+000 21420 113001,113053,113027
 4.0000e-001 113131  1.3498e+001  1.3301e+001  5.0582e+000 21420 112949,113105,113079
 4.0000e-001 113605 -1.5691e+001  1.3424e+001 -1.0637e+001 20716 113331,113435,113357
 4.0000e-001 113582 -2.0405e+001  1.5906e+001 -8.3512e+000 20716 113331,113461,113435
 4.0000e-001 113559 -2.2686e+001  4.7247e+000  7.6448e-001 20716 113383,113435,113409
 4.0000e-001 113536 -1.6216e+001  6.0088e+000  1.5053e+000 20716 113357,113435,113383
 4.0000e-001 113513 -9.0111e+000  1.0117e+001 -9.5178e-001 20716 113331,113487,113461
 4.0000e-001 113853  8.7209e+000  2.4394e+000  1.7114e+000 20290 113876,113680,113654
 4.0000e-001 113830  1.2953e+001  7.7443e+000  4.2226e+000 20290 113876,113654,113628
 4.0000e-001 113807  8.1471e+000  9.6770e+000  2.7474e-001 20290 113948,113732,113680
 4.0000e-001 113784  1.4543e+001  8.9852e+000 -2.8161e+000 20290 113680,113732,113706
 4.0000e-001 113902  8.9922e+000  9.0855e+000  2.5093e+000 20290 113948,113680,113876
 4.0000e-001 113925  7.8492e+000  1.1716e+001  3.9902e+000 20290 113758,113876,113628
 4.0000e-001 113974  5.7868e+000  8.7028e+000  7.4837e-001 20290 113758,113732,113948
 4.0000e-001 113997  5.4158e+000  7.5227e+000  2.8896e+000 20290 113758,113948,113876
 4.0000e-001 114365 -2.4598e+000  1.8700e+001 -6.1146e-002 19900 114146,114198,114172
 4.0000e-001 114342 -1.9595e+000  1.8920e+001 -1.8013e-002 19900 114042,114198,114146
 4.0000e-001 114319 -2.8341e+000  1.8397e+001  4.6412e-001 19900 114042,114224,114198
 4.0000e-001 114296  8.2850e-001  1.8568e+001 -1.0073e-001 19900 114094,114146,114120
 4.0000e-001 114273 -2.1090e+000  1.7417e+001  6.0497e-001 19900 114042,114146,114094
 4.0000e-001 114250 -4.0501e+000  1.7024e+001  1.0334e+000 19900 114042,114094,114068
 4.0000e-001 114566  1.8046e+000  1.3138e+001  3.2891e-001 19496 114442,114494,114468
 4.0000e-001 114543  1.0492e+001  1.5576e+001  4.4049e+000 19496 114416,114494,114442
 4.0000e-001 114520  1.4373e+000  1.4820e+001  5.5052e+000 19496 114390,114494,114416
 4.0000e-001 114767 -2.1541e+000  1.9074e+001 -2.5782e-001 19042 114790,114669,114643
 4.0000e-001 114744 -1.1965e+000  1.8971e+001 -3.0481e-001 19042 114790,114643,114591
 4.0000e-001 114721 -6.6117e-001  2.2461e+001 -1.2656e+000 19042 114591,114643,114617
 4.0000e-001 114816 -3.3951e+000  1.9118e+001 -2.4073e-001 19042 114695,114669,114790
 4.0000e-001 114839 -2.1134e+000  1.9243e+001 -7.7472e-002 19042 114695,114790,114591
 4.0000e-001 114991 -7.7805e-001  1.8066e+001  1.2651e+000 18488 114864,114916,114890
 4.0000e-001 114968 -1.1974e+000  2.3118e+001  8.3938e-001 18488 114864,114942,114916
 4.0000e-001 115192  6.0235e+000  1.6327e+001  2.7210e+000 18098 115215,115042,115016
 4.0000e-001 115169  3.0593e-001  1.2783e+001  4.2253e+000 18098 115215,115016,115120
 4.0000e-001 115146  1.9080e+000  1.8078e+001  1.3761e-002 18098 115287,115094,115068
 4.0000e-001 115241  1.3938e+000  1.5470e+001  8.6709e-001 18098 115068,115042,115215
 4.0000e-001 115264  1.4195e+000  1.7295e+001  7.5387e-001 18098 115287,115068,115215
 4.0000e-001 115313  4.9823e-001  1.8227e+001  1.3515e+000 18098 115120,115094,115287
 4.0000e-001 115336 -2.6601e-001  1.7429e+001  2.0809e+000 18098 115120,115287,115215
 4.0000e-001 115846 -9.3726e-001  7.6302e-002 -5.3879e-001 17644 115653,115705,115679
 4.0000e-001 115823  4.7517e+000  1.7755e+000 -3.6601e+000 17644 115627,115705,115653
 4.0000e-001 115800  1.5190e+001 -1.7919e+000  6.6447e+000 17644 115549,115705,115627
 4.0000e-001 115777  2.4495e+001  3.0550e+000  1.0707e+000 17644 115549,115627,115575
 4.0000e-001 115754  3.2078e+001  2.7020e+000  3.9708e+000 17644 115523,115705,115549
 4.0000e-001 115731  2.7651e+001  9.2663e+000 -3.0326e+000 17644 115575,115627,115601
 4.0000e-001 116067 -1.4398e+001  5.8978e-001  5.0176e-001 17116 115891,115943,115917
 4.0000e-001 116044  6.0931e+000 -3.6424e+000 -2.1119e+000 17116 115891,115995,115943
 4.0000e-001 116021  1.9997e+001  1.5561e+000  5.1542e+000 17116 115943,115995,115969
 4.0000e-001 116288  1.6688e+000  4.6005e+000 -8.1955e-001 16704 116164,116216,116190
 4.0000e-001 116265  3.1733e+000  4.5517e+000 -8.4199e-002 16704 116112,116216,116164
 4.0000e-001 116242  1.1653e+001  5.7844e+000  1.6809e+000 16704 116112,116164,116138
 4.0000e-001 116489 -2.0050e+001  2.9876e+000 -1.7646e-001 16434 116339,116417,116365
 4.0000e-001 116466 -1.6929e+001  4.4150e+000  1.5097e-001 16434 116313,116417,116339
 4.0000e-001 116443 -1.4990e+001 -2.1843e+000 -5.8001e+000 16434 116365,116417,116391
 4.0000e-001 116592  1.0294e+001  5.7526e+000  1.9828e+000 15967 116514,116566,116540
 4.0000e-001 116695  3.3731e+001 -3.8945e+001 -7.4878e+000 15552 116617,116669,116643
 4.0000e-001 116798 -2.3743e+000  1.7655e+001  0.0000e+000 421 116720,116772,116746
 5.0000e-001 69066  5.1931e-002 -1.3919e-001  4.2141e-003 68738 68965,69017,68991
 5.0000e-001 69043 -1.8750e-002 -1.0928e-002  4.8144e-001 68738 68939,69017,68965
 5.0000e-001 69371 -5.7156e+000  1.2369e+000  3.9399e+000 68426 69172,69250,69198
 5.0000e-001 69348  7.4121e-001  5.0682e+000  2.3338e+000 68426 69146,69250,69172
 5.0000e-001 69325 -9.5690e-001  8.8677e+000  8.7595e+000 68426 69198,69250,69224
 5.0000e-001 69302  1.9079e-001 -7.8475e-001  9.4057e-001 68426 69146,69276,69250
 5.0000e-001 69521 -2.8562e+000 -2.0585e+000  3.3444e+000 68228 69420,69472,69446
 5.0000e-001 69498 -3.1012e-001  2.1768e+000  3.5178e-001 68228 69394,69472,69420
 5.0000e-001 69781 -1.0078e+001  1.3759e+001  7.4392e+000 68030 69631,69683,69657
 5.0000e-001 69758  2.8120e+000 -1.6223e+001 -4.5401e+000 68030 69631,69709,69683
 5.0000e-001 69735  1.1729e+000  1.1625e+001  1.3451e+001 68030 69605,69709,69631
 5.0000e-001 70078 -2.7750e-001  1.5762e+001 -6.5228e+000 67832 69882,69934,69908
 5.0000e-001 70055 -7.6851e+000 -4.5816e+000  4.6182e+000 67832 69856,69934,69882
 5.0000e-001 70032  4.6279e-001  8.1579e+000  3.2846e-001 67832 69830,69934,69856
 5.0000e-001 70009 -3.2756e+000 -1.2949e+000 -1.0282e+001 67832 69804,69934,69830
 5.0000e-001 69986  4.2505e+000  7.6413e+000 -6.2458e+000 67832 69804,69960,69934
 5.0000e-001 70586  1.3682e+000 -1.1495e+000 -2.0374e+000 67634 70609,70419,70341
 5.0000e-001 70563  1.8629e+000 -3.4242e+000 -1.1870e+000 67634 70681,70609,70341
 5.0000e-001 70540  2.7463e+000 -3.5244e+000  9.3982e-001 67634 70681,70341,70315
 5.0000e-001 70517  2.7542e+000  3.9390e+000 -1.4204e+000 67634 70341,70419,70367
 5.0000e-001 70494  1.0532e+000  5.2737e-002 -3.4446e-001 67634 70263,70445,70289
 5.0000e-001 70471  1.1507e+000  3.2356e+000 -9.7571e-001 67634 70367,70419,70393
 5.0000e-001 70635  2.4123e+000  3.2080e+000 -1.9863e+000 67634 70445,70419,70609
 5.0000e-001 70658  1.4182e-001 -1.0574e+000 -9.1331e-001 67634 70445,70609,70289
 5.0000e-001 70707  3.4101e+000 -1.0844e-002 -6.5385e-001 67634 70289,70609,70681
 5.0000e-001 70730  4.2451e+000 -8.0678e-001  1.5650e+000 67634 70289,70681,70315
 5.0000e-001 71108 -3.5186e+000  1.0702e+001 -7.1677e+000 67344 71131,70912,70886
 5.0000e-001 71085 -8.9108e+000 -1.0429e+000 -1.0856e+001 67344 71131,70886,70860
 5.0000e-001 71062 -5.9089e+000  6.2185e+000 -1.8343e+000 67344 71203,70938,70912
 5.0000e-001 71039  3.7821e+000  4.4447e+000 -3.2709e+000 67344 70834,70990,70860
 5.0000e-001 71016 -6.8618e-001  1.1218e+001 -1.2921e+000 67344 70938,70990,70964
 5.0000e-001 71157 -4.2755e+000  2.1640e+000 -3.5264e+000 67344 71203,70912,71131
 5.0000e-001 71180 -2.4190e+000 -2.4482e-001 -5.3148e+000 67344 70990,71131,70860
 5.0000e-001 71229 -3.2068e+000  9.7902e+000 -5.4661e-001 67344 70990,70938,71203
 5.0000e-001 71252 -9.8991e-003  6.4661e+000 -1.6756e+000 67344 70990,71203,71131
 5.0000e-001 71603 -2.0851e+000  6.1089e+000 -3.6608e+000 67032 71378,71482,71404
 5.0000e-001 71580  1.0958e+000  7.0340e+000 -2.8495e+000 67032 71378,71508,71482
 5.0000e-001 71557 -1.2410e+000  6.3162e+000 -2.2571e+000 67032 71404,71456,71430
 5.0000e-001 71534 -6.1672e-001  1.3513e+001  1.1609e-001 67032 71404,71482,71456
 5.0000e-001 72003 -1.2303e+000  1.0505e+001  4.2211e-001 66834 71755,71859,71781
 5.0000e-001 71980 -1.3637e-001  1.5469e+001  1.2604e+000 66834 71755,71885,71859
 5.0000e-001 71957  4.9568e+000  1.4108e+001  5.6336e+000 66834 71781,71833,71807
 5.0000e-001 71934 -1.1984e+000  1.3588e+001  3.4621e+000 66834 71781,71859,71833
 5.0000e-001 71911 -1.0432e+000  1.0998e+001 -2.7849e+000 66834 71729,71885,71755
 5.0000e-001 72430  1.6813e+000  1.1609e+001  5.4722e-001 66266 72237,72289,72263
 5.0000e-001 72407  1.4087e-001  8.1130e+000 -4.4447e-002 66266 72133,72289,72237
 5.0000e-001 72384  4.2291e+000  1.1521e+001 -1.5085e+000 66266 72133,72237,72211
 5.0000e-001 72361  2.0957e+000  6.0663e+000 -2.0837e+000 66266 72107,72289,72133
 5.0000e-001 72338  4.6756e+000  1.2401e+001 -6.1591e-001 66266 72133,72211,72185
 5.0000e-001 72315  1.3050e+001  1.0159e+001  2.6138e-001 66266 72133,72185,72159
 5.0000e-001 72580  1.0403e+001  4.6016e+001 -7.1959e+000 65968 72479,72531,72505
 5.0000e-001 72557  9.1424e-001  2.9076e+001 -3.2587e+000 65968 72453,72531,72479
 5.0000e-001 72960 -5.9255e+000  1.0772e+001  1.8072e+000 65621 72983,72738,72712
 5.0000e-001 72937 -4.0191e+000  9.0064e+000  1.9987e+000 65621 72983,72712,72686
 5.0000e-001 72914 -1.5530e+001  2.8792e+000  1.0378e+001 65621 72738,72842,72764
 5.0000e-001 72891 -4.7542e+000  5.0086e+000  1.3867e+001 65621 72764,72842,72816
 5.0000e-001 72868 -9.7666e+000 -7.4039e+000  1.7117e+001 65621 72764,72816,72790
 5.0000e-001 73009 -6.4598e+000  9.7662e+000  2.1392e+000 65621 72842,72738,72983
 5.0000e-001 73032 -5.7170e+000  6.6088e+000  2.7500e+000 65621 72842,72983,72686
 5.0000e-001 73361 -5.7820e-001 -3.4396e+000  3.8104e+000 65281 73456,73384,73188
 5.0000e-001 73338  2.1103e+001  5.8029e-001  5.3443e-001 65281 73384,73162,73136
 5.0000e-001 73315 -1.6825e+000  4.5570e-001 -3.0558e-001 65281 73188,73240,73214
 5.0000e-001 73292 -2.7949e+000  2.5735e+000 -1.4951e+000 65281 73136,73266,73240
 5.0000e-001 73410 -2.3826e+000  2.7401e+000  1.4787e+000 65281 73240,73188,73384
 5.0000e-001 73433  4.7465e+000  3.3459e+000  4.1610e+000 65281 73240,73384,73136
 5.0000e-001 73482  1.7333e+000 -5.6618e+000 -1.9591e+000 65281 73162,73384,73456
 5.0000e-001 73711  6.5429e+000  9.7940e+000 -9.7772e+000 64820 73734,73610,73584
 5.0000e-001 73688  1.7038e+001  3.3437e+001 -6.8953e+000 64820 73734,73584,73662
 5.0000e-001 73760  1.6151e+001  1.3429e+001 -1.4902e+001 64820 73636,73610,73734
 5.0000e-001 73783  5.7696e+000  1.8901e+001 -1.8679e+001 64820 73806,73734,73662
 5.0000e-001 73832  1.3837e+001  1.0224e+001 -1.6355e+001 64820 73636,73734,73806
 5.0000e-001 74112 -2.2324e+000  2.8473e+001  3.3455e+000 64622 74278,74135,73988
 5.0000e-001 74089 -4.3462e+000  3.0010e+001  2.4466e-001 64622 74135,73936,74040
 5.0000e-001 74066 -3.5760e+000  2.7897e+001  3.3195e+000 64622 74278,73988,73962
 5.0000e-001 74161  3.8743e+000  2.8917e+001  3.4874e+000 64622 74014,73988,74135
 5.0000e-001 74184  9.6066e-001  3.2126e+001 -4.6285e-001 64622 74207,74135,74040
 5.0000e-001 74233 -2.1058e+000  2.6121e+001  2.3967e+000 64622 74014,74135,74207
 5.0000e-001 74304 -1.8284e+000  2.9595e+001 -2.2298e-001 64622 73936,74135,74278
 5.0000e-001 74327 -5.2847e+000  2.8106e+001 -1.0267e-001 64622 73936,74278,73962
 5.0000e-001 74526 -3.8264e+000  5.2065e+000  1.1451e+001 64424 74621,74549,74402
 5.0000e-001 74503 -7.9537e+000  1.6996e+001  6.1732e+000 64424 74549,74350,74454
 5.0000e-001 74480 -4.8275e+000 -9.9079e-001  2.2088e+001 64424 74621,74402,74376
 5.0000e-001 74575  1.0439e+001  1.0384e+001  8.5040e+000 64424 74428,74402,74549
 5.0000e-001 74598  2.2890e+000  1.9206e+001  4.7977e+000 64424 74693,74549,74454
 5.0000e-001 74647  4.1615e+000  2.2126e+001  8.3823e+000 64424 74350,74549,74621
 5.0000e-001 74670  3.9479e+000  1.9008e+001  1.9394e+001 64424 74350,74621,74376
 5.0000e-001 74719 -3.4021e+000  6.0351e+000  5.3751e+000 64424 74428,74549,74693
 5.0000e-001 75123 -1.8175e+001 -3.8031e+000  6.2455e+000 64126 74875,74953,74927
 5.0000e-001 75100 -2.0388e+001 -1.2146e+001  4.8684e+000 64126 74875,74979,74953
 5.0000e-001 75077 -4.0114e+001 -6.2110e+000  4.6880e+000 64126 74875,75005,74979
 5.0000e-001 75054 -1.6324e+001 -3.0634e+000  7.4514e+000 64126 74875,74927,74901
 5.0000e-001 75031 -3.8015e+001  1.1651e+001  1.2439e+001 64126 74849,75005,74875
 5.0000e-001 75224 -2.3215e+000  2.0566e+001 -4.0903e+000 63836 75146,75198,75172
 5.0000e-001 75472  1.2348e+001  2.8206e+001  2.6330e-001 63375 75273,75351,75325
 5.0000e-001 75449  1.3625e+001  2.8491e+001  5.4382e-001 63375 75273,75377,75351
 5.0000e-001 75426  1.7067e+001  2.3793e+001 -3.7401e+000 63375 75247,75377,75273
 5.0000e-001 75403  1.2368e+001  2.0976e+001 -1.0991e+000 63375 75273,75325,75299
 5.0000e-001 75673 -1.2821e-001  2.0935e+001 -9.8720e-001 63063 75523,75575,75549
 5.0000e-001 75650 -1.2004e+000  2.4470e+001  8.0713e-001 63063 75497,75575,75523
 5.0000e-001 75627 -2.1783e-001  2.5998e+001 -1.6637e+000 63063 75497,75601,75575
 5.0000e-001 75874 -1.6572e+000  3.1254e+001  8.1410e-001 62716 75897,75750,75724
 5.0000e-001 75851  2.4211e+000  2.7738e+001  8.0224e-002 62716 75897,75724,75698
 5.0000e-001 75828 -4.4836e+000  1.7446e+001  1.1269e+001 62716 75698,75802,75776
 5.0000e-001 75923 -9.2939e+000  2.7011e+001  2.6814e+000 62716 75776,75750,75897
 5.0000e-001 75946 -6.5811e-001  2.7194e+001  7.9469e-001 62716 75776,75897,75698
 5.0000e-001 76328 -1.5964e+001  2.7691e+001  4.2859e+000 62198 76495,76351,76158
 5.0000e-001 76305 -9.0390e+000  2.5168e+001  7.2645e+000 62198 76351,76080,76054
 5.0000e-001 76282 -1.7441e+001  4.9900e+001  7.9812e+000 62198 76423,76184,76158
 5.0000e-001 76259 -1.1174e+001  2.4977e+001  2.4092e+000 62198 76495,76158,76106
 5.0000e-001 76236 -8.7318e+000  3.6981e+001 -3.3758e+000 62198 76106,76158,76132
 5.0000e-001 76377 -1.2370e+001  3.5942e+001  9.1169e+000 62198 76423,76158,76351
 5.0000e-001 76400 -5.3636e+000  2.8911e+001  1.3150e+001 62198 76210,76351,76054
 5.0000e-001 76449 -2.3782e+001  3.5890e+001  1.0394e+001 62198 76210,76184,76423
 5.0000e-001 76472 -1.8352e+001  2.4646e+001  1.2711e+001 62198 76210,76423,76351
 5.0000e-001 76521 -9.0562e+000  2.8475e+001  3.8895e+000 62198 76080,76351,76495
 5.0000e-001 76544 -6.0369e-001  2.8681e+001  1.2132e+000 62198 76080,76495,76106
 5.0000e-001 76841  2.3508e+001  3.3165e+001  1.0748e+001 61751 76936,76864,76645
 5.0000e-001 76818  2.9206e+001  4.5245e+001  7.5216e+000 61751 76864,76567,76723
 5.0000e-001 76795  2.2248e+001  3.1417e+001  1.1308e+001 61751 76936,76645,76593
 5.0000e-001 76772  5.3669e+001  3.6403e+001  1.3257e+001 61751 77008,76697,76671
 5.0000e-001 76749  1.5045e+001  2.6792e+001  1.3461e+001 61751 76593,76645,76619
 5.0000e-001 76890  2.3948e+001  3.2474e+001  1.7279e+001 61751 76671,76645,76864
 5.0000e-001 76913  3.4199e+001  3.7429e+001  1.5779e+001 61751 77008,76671,76864
 5.0000e-001 76962  2.1036e+001  3.5633e+001  1.1591e+001 61751 76567,76864,76936
 5.0000e-001 76985  2.0267e+001  3.4481e+001  1.1948e+001 61751 76567,76936,76593
 5.0000e-001 77034  2.8228e+001  2.6226e+001  1.1554e+001 61751 76723,76697,77008
 5.0000e-001 77057  2.3526e+001  3.2104e+001  1.3790e+001 61751 76723,77008,76864
 5.0000e-001 77207 -1.7986e+001  2.7355e+001 -5.5709e+000 61418 77106,77158,77132
 5.0000e-001 77184 -1.5320e+001  2.5319e+001 -4.9238e+000 61418 77080,77158,77106
 5.0000e-001 77638  5.2327e+000  1.7709e+001 -4.6557e+000 60814 77733,77661,77471
 5.0000e-001 77615 -1.7664e+000  1.0984e+001 -7.1511e+000 60814 77661,77393,77315
 5.0000e-001 77592  1.0083e+001  5.2568e+000 -1.0279e+001 60814 77733,77471,77445
 5.0000e-001 77569  1.7434e+001  1.1090e+000 -3.2377e+000 60814 77315,77367,77341
 5.0000e-001 77546  1.2126e+001  6.9068e+000 -1.5825e+001 60814 77315,77393,77367
 5.0000e-001 77523  2.2193e+001  7.3293e+000 -2.6305e+001 60814 77393,77445,77419
 5.0000e-001 77687  8.2603e+000  1.8697e+001  2.3304e+000 60814 77497,77471,77661
 5.0000e-001 77710  6.7658e+000  1.3718e+001 -7.3673e+000 60814 77497,77661,77315
 5.0000e-001 77759  2.0253e+000 -1.7783e-001 -2.6358e+000 60814 77393,77661,77733
 5.0000e-001 77782  8.2330e+000 -9.8181e+000 -1.0111e+001 60814 77393,77733,77445
 5.0000e-001 78337 -7.3496e+000  1.9194e+001 -9.6969e-001 60210 78360,78017,77965
 5.0000e-001 78314 -9.6576e+000  1.4326e+001 -1.0456e-001 60210 78360,77965,78173
 5.0000e-001 78291 -1.5515e+001  1.8307e+001  2.5711e+000 60210 78432,78043,78017
 5.0000e-001 78268 -1.2242e+001  3.8211e+001 -1.5944e+001 60210 77965,78017,77991
 5.0000e-001 78245 -2.6283e+001  2.1365e+001  9.5095e+000 60210 78043,78095,78069
 5.0000e-001 78222 -4.6717e+000  1.4836e+001  5.8120e+000 60210 78095,78173,78121
 5.0000e-001 78199  1.1225e+000  1.8293e+001  4.0619e+000 60210 78121,78173,78147
 5.0000e-001 78386 -9.7400e+000  1.9797e+001 -9.0009e-001 60210 78432,78017,78360
 5.0000e-001 78409 -1.4387e+000  1.7864e+001  3.7861e+000 60210 78095,78360,78173
 5.0000e-001 78458 -1.5403e+001  1.3691e+001  8.4247e+000 60210 78095,78043,78432
 5.0000e-001 78481 -1.1905e+001  1.3405e+001  5.1412e+000 60210 78095,78432,78360
 5.0000e-001 78680 -6.6672e+000  2.6622e+001 -4.4291e+000 59848 78703,78556,78530
 5.0000e-001 78657 -9.2593e+000  2.3289e+001 -6.9131e+000 59848 78703,78530,78504
 5.0000e-001 78634 -6.9179e+000  1.5592e+001 -7.9216e+000 59848 78504,78608,78582
 5.0000e-001 78729 -5.0820e-001  2.0949e+001 -5.6106e+000 59848 78582,78556,78703
 5.0000e-001 78752 -5.5384e+000  1.7938e+001 -9.0784e+000 59848 78582,78703,78504
 5.0000e-001 78951  1.5542e+001  3.4531e+001  2.6998e+001 59344 78974,78801,78775
 5.0000e-001 78928  2.2452e+001  4.5491e+001  1.4102e+001 59344 79046,78974,78775
 5.0000e-001 78905  1.9443e+001  4.6446e+001  1.5022e+001 59344 79046,78775,78879
 5.0000e-001 79000  3.0240e+001  3.8220e+001  1.6771e+001 59344 78827,78801,78974
 5.0000e-001 79023  2.6380e+001  5.6149e+001  3.6103e+000 59344 78827,78974,78853
 5.0000e-001 79072  1.6891e+001  4.5760e+001  1.3833e+001 59344 78853,78974,79046
 5.0000e-001 79095  1.3252e+001  4.6289e+001  1.4250e+001 59344 78853,79046,78879
 5.0000e-001 79296  1.6275e+000  1.7527e+001 -7.9552e-001 58711 79319,79172,79146
 5.0000e-001 79273  3.9225e+000  1.6285e+001 -9.5631e-001 58711 79319,79146,79120
 5.0000e-001 79250  2.3432e+000  2.3356e+001 -1.0219e+001 58711 79172,79224,79198
 5.0000e-001 79345  3.7869e-001  1.6737e+001 -3.5206e-001 58711 79224,79172,79319
 5.0000e-001 79368  1.9936e+000  1.4975e+001 -3.4864e-001 58711 79224,79319,79120
 5.0000e-001 79667  6.4755e+000  2.2245e+001  2.3417e+000 58285 79690,79471,79393
 5.0000e-001 79644  6.6937e+000  2.5980e+001  3.2973e+000 58285 79690,79393,79549
 5.0000e-001 79621  7.2956e+000  8.9814e+000  5.6050e+000 58285 79393,79471,79419
 5.0000e-001 79598  7.9325e-001  1.9154e+001 -2.4458e+000 58285 79497,79549,79523
 5.0000e-001 79575  1.3680e+001  9.0664e+000  3.1739e+000 58285 79419,79471,79445
 5.0000e-001 79716  6.6427e+000  1.8460e+001  6.7235e-002 58285 79497,79471,79690
 5.0000e-001 79739  7.5986e+000  2.4379e+001  3.7716e-001 58285 79497,79690,79549
 5.0000e-001 80249 -1.4009e+001 -4.6583e+000  2.1134e+000 57831 80272,79978,79952
 5.0000e-001 80226 -1.6294e+001 -3.6372e+000 -6.5239e-001 57831 80272,79952,80108
 5.0000e-001 80203 -1.6176e+001 -9.3760e-001  6.9280e-001 57831 79926,80108,79952
 5.0000e-001 80180 -1.5546e+001 -3.0101e+000  1.5533e+000 57831 80004,80082,80030
 5.0000e-001 80157 -1.7141e+001 -3.9502e+000  4.0019e-001 57831 80004,80108,80082
 5.0000e-001 80134 -1.3476e+001 -2.9173e+000 -1.2782e+000 57831 80030,80082,80056
 5.0000e-001 80298 -1.6661e+001 -1.0800e+001  1.8847e+000 57831 80004,79978,80272
 5.0000e-001 80321 -1.6966e+001 -5.6838e+000 -6.3818e-001 57831 80004,80272,80108
 5.0000e-001 80618 -2.2902e+001 -3.8721e+000  8.9872e-001 57077 80344,80448,80422
 5.0000e-001 80595 -9.6157e+000  1.8700e+000  4.7374e-002 57077 80344,80500,80448
 5.0000e-001 80572 -2.1595e+001 -2.1734e+000 -3.5089e-001 57077 80344,80422,80370
 5.0000e-001 80549 -1.4667e+001  1.2413e+001 -4.1457e+000 57077 80370,80422,80396
 5.0000e-001 80526 -2.5588e+000 -1.5459e+000 -1.9753e+000 57077 80448,80500,80474
 5.0000e-001 80768  3.7799e+000  1.9764e+001 -5.3123e+000 56787 80791,80693,80667
 5.0000e-001 80745  6.5546e+000  1.7315e+001 -9.2397e+000 56787 80791,80667,80641
 5.0000e-001 80817  3.7646e+000  1.8012e+001 -5.8284e+000 56787 80719,80693,80791
 5.0000e-001 80840 -7.3130e-001  4.5447e-001 -1.0407e+001 56787 80719,80791,80641
 5.0000e-001 81429  3.0043e+001  2.4588e+001 -7.8026e+000 56497 81452,81158,81132
 5.0000e-001 81406  1.2311e+001  6.1802e+000 -5.2587e-001 56497 81452,81132,81288
 5.0000e-001 81383  1.4081e+001  2.3281e+001 -4.9572e-001 56497 81524,81184,81158
 5.0000e-001 81360  8.7005e+000  2.8338e+001 -9.3774e+000 56497 81210,81288,81236
 5.0000e-001 81337  2.8768e+001  7.5975e+000 -7.2867e+000 56497 81106,81288,81132
 5.0000e-001 81314  3.7748e+001  2.1050e+001 -1.3694e+001 56497 81236,81288,81262
 5.0000e-001 81478  1.3678e+001  2.3974e+001 -1.2398e+000 56497 81524,81158,81452
 5.0000e-001 81501  6.3464e+000  1.9322e+001 -7.5602e-002 56497 81210,81452,81288
 5.0000e-001 81550  1.3630e+001  2.2448e+001 -9.0518e-001 56497 81210,81184,81524
 5.0000e-001 81573  1.2737e+001  2.2292e+001 -1.7699e+000 56497 81210,81524,81452
 5.0000e-001 81870  7.9467e+000  1.1587e+001 -4.0025e+000 55979 81893,81674,81648
 5.0000e-001 81847  1.0964e+001  1.1031e+001 -9.6421e+000 55979 81893,81648,81752
 5.0000e-001 81824  2.4272e+001  4.1064e+000 -4.5810e+000 55979 81596,81752,81648
 5.0000e-001 81801  7.2223e+000  2.7834e+001 -6.0927e+000 55979 81674,81726,81700
 5.0000e-001 81778  2.2752e+001 -3.0610e-001 -1.0130e+000 55979 81596,81648,81622
 5.0000e-001 81919  5.6167e+000  7.6919e+000 -2.8776e+000 55979 81726,81674,81893
 5.0000e-001 81942  8.2412e+000  5.6002e+000 -8.4686e+000 55979 81726,81893,81752
 5.0000e-001 82371 -1.3882e+001  1.2204e+000 -7.2316e+000 55631 82100,82204,82152
 5.0000e-001 82348 -1.6715e+001 -9.5962e+000 -1.1826e+001 55631 82100,82230,82204
 5.0000e-001 82325 -1.2250e+001  3.4156e+000 -1.0736e+001 55631 82100,82152,82126
 5.0000e-001 82302 -1.0166e+001  5.7988e+000 -1.1939e+001 55631 82074,82230,82100
 5.0000e-001 82279 -9.9569e+000  1.4406e+001 -2.0247e+000 55631 82152,82204,82178
 5.0000e-001 82256 -8.4250e+000 -6.5974e+000 -1.1324e+001 55631 82048,82230,82074
 5.0000e-001 82521  2.4339e-001  4.0024e+000 -1.7054e+000 55227 82544,82420,82394
 5.0000e-001 82498  1.0134e+000  2.0720e+000 -1.7061e+000 55227 82544,82394,82472
 5.0000e-001 82570  5.2071e-001  4.6750e+000 -1.5349e+000 55227 82446,82420,82544
 5.0000e-001 82593  2.4840e+000  3.8854e+000 -1.0020e+000 55227 82446,82544,82472
 5.0000e-001 82875  3.3333e+000  1.0931e+001 -5.9085e-002 54979 82699,82777,82725
 5.0000e-001 82852  8.4396e+000  7.1757e+000 -1.4078e+000 54979 82699,82803,82777
 5.0000e-001 82829  5.8972e+000  1.8176e+001  3.5446e+000 54979 82725,82777,82751
 5.0000e-001 83204  1.1008e+001  2.0475e+001  9.7733e+000 54475 83005,83083,83057
 5.0000e-001 83181 -1.6954e-001  3.2032e+000  2.1990e+001 54475 82979,83083,83005
 5.0000e-001 83158  2.3340e+001  2.9780e+001  3.2459e+000 54475 83005,83057,83031
 5.0000e-001 83135  2.0027e+001  5.1013e+001  8.2445e+000 54475 82979,83109,83083
 5.0000e-001 83582  3.7560e-001  2.5588e+001  6.4227e+000 54071 83605,83438,83412
 5.0000e-001 83559  8.6613e-001  2.5964e+001  5.8255e+000 54071 83749,83605,83412
 5.0000e-001 83536  2.0499e+000  1.6199e+001  1.0374e+001 54071 83677,83360,83334
 5.0000e-001 83513  3.0159e+000  2.6132e+001  5.0966e+000 54071 83749,83412,83677
 5.0000e-001 83490 -2.2241e+001  3.3881e+001  2.7304e+001 54071 83308,83464,83334
 5.0000e-001 83631  6.6160e+000  2.6716e+001  9.7244e+000 54071 83464,83438,83605
 5.0000e-001 83654  2.1504e+000  1.4446e+001  1.0571e+001 54071 83464,83605,83334
 5.0000e-001 83703  4.7196e+000  2.4125e+001  2.9302e+000 54071 83386,83360,83677
 5.0000e-001 83726  9.2607e+000  4.2567e+001 -3.5510e+000 54071 83386,83677,83412
 5.0000e-001 83775  6.6848e+000  2.3460e+001  5.0105e+000 54071 83334,83605,83749
 5.0000e-001 83798  9.5712e+000  2.4361e+001  4.0622e+000 54071 83334,83749,83677
 5.0000e-001 84068  5.6897e+000  4.1001e+000  9.0108e-001 53524 83869,83921,83895
 5.0000e-001 84045  6.0223e+000  5.8962e+000  3.4460e-001 53524 83869,83947,83921
 5.0000e-001 84022  1.0164e+001  1.0896e+001  2.1578e+000 53524 83843,83947,83869
 5.0000e-001 83999 -5.6056e-001  8.0313e+000  2.9279e+000 53524 83843,83973,83947
 5.0000e-001 84497 -1.8507e+001  4.5243e+000 -3.4697e+000 53184 84200,84330,84252
 5.0000e-001 84474 -2.2047e+001  2.5633e+000  2.5951e+000 53184 84200,84356,84330
 5.0000e-001 84451 -1.4715e+001  1.7673e+001 -2.0244e+000 53184 84200,84252,84226
 5.0000e-001 84428  5.2746e+000  3.5734e+000  6.6508e+000 53184 84252,84330,84278
 5.0000e-001 84405 -1.0153e+001  9.6774e+000 -2.2597e+000 53184 84174,84356,84200
 5.0000e-001 84382  1.7486e+001  1.1660e+001 -7.3298e+000 53184 84278,84330,84304
 5.0000e-001 84954  5.1207e-001  1.0264e+001  5.3527e+000 52680 84706,84836,84784
 5.0000e-001 84931  4.5833e-001  8.6826e+000  9.7948e+000 52680 84680,84836,84706
 5.0000e-001 84908  3.6610e+000  1.7754e+001  7.6092e+000 52680 84784,84836,84810
 5.0000e-001 84885  8.0368e-001  8.4604e+000  4.6523e+000 52680 84706,84784,84732
 5.0000e-001 84862  2.1729e+000  9.8898e+000  3.5689e+000 52680 84732,84784,84758
 5.0000e-001 85202 -3.0993e+000 -1.7159e+000 -4.0320e+000 52226 85029,85081,85055
 5.0000e-001 85179 -1.4889e+001 -4.8496e+000 -6.5605e+000 52226 85225,85081,85029
 5.0000e-001 85156 -1.3531e+001 -1.4017e+000 -4.0324e+000 52226 85225,85029,85003
 5.0000e-001 85133 -1.3373e+001  1.6082e+001 -3.5316e+000 52226 84977,85107,85003
 5.0000e-001 85251 -1.6592e+001 -5.5897e+000 -9.8820e+000 52226 85107,85081,85225
 5.0000e-001 85274 -1.7755e+001  8.2440e-001 -7.8054e+000 52226 85107,85225,85003
 5.0000e-001 85522  3.4837e+000  3.2379e+000  5.1227e-001 51764 85297,85349,85323
 5.0000e-001 85499  3.3649e+000  3.4686e+000 -1.1966e+000 51764 85545,85297,85427
 5.0000e-001 85476  2.7769e+000  2.0376e+000 -1.4353e+000 51764 85545,85427,85375
 5.0000e-001 85453  1.7742e+000  7.4297e-002 -1.0842e+000 51764 85375,85427,85401
 5.0000e-001 85571  4.5336e+000  2.5678e+000 -1.0838e-001 51764 85349,85297,85545
 5.0000e-001 85594  3.6397e+000  5.8924e-001 -3.9956e-001 51764 85349,85545,85375
 5.0000e-001 85746  3.8337e+000  4.5186e+000 -2.8167e+000 51374 85645,85697,85671
 5.0000e-001 85723  4.1691e+000 -1.3424e+000 -4.3632e-002 51374 85619,85697,85645
 5.0000e-001 86256  1.0407e+001  3.6705e+000  3.4052e+000 50970 86279,86011,85959
 5.0000e-001 86233  1.0421e+001  5.8675e+000  2.9032e+000 50970 86279,85959,86115
 5.0000e-001 86210  1.1424e+001  6.5963e+000  5.0908e+000 50970 85959,86011,85985
 5.0000e-001 86187  1.1947e+001  5.0925e+000 -1.9607e+000 50970 86037,86115,86089
 5.0000e-001 86164  2.0218e+001  1.0043e+001  2.8199e+000 50970 85933,86115,85959
 5.0000e-001 86141  6.4464e+000  3.8861e+000 -4.2610e+000 50970 86037,86089,86063
 5.0000e-001 86305  1.1078e+001  1.1412e+000  3.2540e+000 50970 86037,86011,86279
 5.0000e-001 86328  1.1250e+001  3.5278e+000  2.7171e+000 50970 86037,86279,86115
 5.0000e-001 86478 -1.9066e+001  1.1050e+001  7.1932e+000 50451 86351,86403,86377
 5.0000e-001 86455 -8.4955e+000 -2.5159e+000 -3.1382e+000 50451 86351,86429,86403
 5.0000e-001 86907 -2.7246e+000 -9.2105e-001 -8.6273e+000 50047 86930,86714,86662
 5.0000e-001 86884 -8.6243e-002  3.6509e+000 -7.2135e+000 50047 86930,86662,86610
 5.0000e-001 86861  1.0437e+001  2.8808e+001 -1.5589e+001 50047 87002,86740,86714
 5.0000e-001 86838  2.1548e+001  1.1369e+001 -2.4512e+001 50047 86662,86714,86688
 5.0000e-001 86815 -4.5246e+000 -5.3754e-001 -4.2701e-001 50047 86610,86662,86636
 5.0000e-001 86792  7.4979e+000  2.6968e+000 -3.6468e+000 50047 86584,86766,86610
 5.0000e-001 86956 -7.2373e-001  8.0792e+000 -1.1203e+001 50047 87002,86714,86930
 5.0000e-001 86979 -3.6882e+000 -2.2838e+000 -5.0992e+000 50047 86766,86930,86610
 5.0000e-001 87028  1.2889e+000  5.5732e+000 -6.4746e+000 50047 86766,86740,87002
 5.0000e-001 87051 -1.0090e+000  4.0996e+000 -4.7164e+000 50047 86766,87002,86930
 5.0000e-001 87250  2.2978e+001  2.1672e+001 -1.5066e+001 49543 87273,87126,87100
 5.0000e-001 87227  2.9700e+001  1.4759e+001 -2.1295e+001 49543 87273,87100,87074
 5.0000e-001 87204  1.2243e+001  6.0026e+000 -8.9930e+000 49543 87126,87178,87152
 5.0000e-001 87299  1.2594e+001  9.8668e+000 -8.7325e+000 49543 87178,87126,87273
 5.0000e-001 87322  2.5036e+001  1.1903e+001 -1.6719e+001 49543 87178,87273,87074
 5.0000e-001 87570 -2.4000e+001 -3.4220e-001 -6.5370e+000 49146 87593,87449,87397
 5.0000e-001 87547 -2.3600e+001 -2.4876e+000 -1.2574e+001 49146 87593,87397,87371
 5.0000e-001 87524 -1.0230e+001  1.0267e+000 -8.6657e+000 49146 87345,87475,87371
 5.0000e-001 87501 -2.1137e+001  9.7572e+000 -2.9783e+000 49146 87397,87449,87423
 5.0000e-001 87619 -1.6498e+001  1.2594e+000 -4.4586e+000 49146 87475,87449,87593
 5.0000e-001 87642 -1.9119e+001 -8.3224e-001 -1.0122e+001 49146 87475,87593,87371
 5.0000e-001 88073 -1.6343e+001  2.0622e+001  1.5725e+001 48706 87854,87932,87880
 5.0000e-001 88050  3.4985e-001  4.5527e+001  7.6503e+000 48706 87828,87932,87854
 5.0000e-001 88027  6.2862e-001  3.4304e+001  8.9301e+000 48706 87750,87932,87828
 5.0000e-001 88004 -2.2873e+001  1.9952e+001 -2.9670e+000 48706 87750,87802,87776
 5.0000e-001 87981  9.7956e+000  6.5026e+001  1.2061e+001 48706 87750,87828,87802
 5.0000e-001 87958  4.8430e+000  2.8374e+001  1.6685e+001 48706 87880,87932,87906
 5.0000e-001 88402  4.3937e+000  3.0888e+001  9.8702e-001 48145 88203,88281,88255
 5.0000e-001 88379  4.3969e+000  3.2250e+001  5.9025e+000 48145 88203,88307,88281
 5.0000e-001 88356 -5.6280e+000  2.7409e+001  3.9416e+000 48145 88203,88255,88229
 5.0000e-001 88333 -3.6434e+000  2.1586e+001  6.4377e-001 48145 88177,88307,88203
 5.0000e-001 88601  2.7120e+001  1.1163e+001  1.5779e+001 47805 88696,88624,88477
 5.0000e-001 88578  2.0912e+001  3.3576e+001  2.0078e+001 47805 88826,88624,88451
 5.0000e-001 88555  1.4529e+001  2.9468e+001  1.6992e+001 47805 88826,88451,88425
 5.0000e-001 88650  3.3099e+001  2.6951e+001  7.5890e+000 47805 88503,88477,88624
 5.0000e-001 88673  1.0889e+001  2.0689e+001  7.8440e+000 47805 88503,88624,88529
 5.0000e-001 88722  4.2558e+001  3.0203e+001  2.3540e+001 47805 88451,88624,88696
 5.0000e-001 88852  2.2171e+001  2.7764e+001  1.1620e+001 47805 88529,88624,88826
 5.0000e-001 88875  1.5401e+001  2.3824e+001  8.5282e+000 47805 88529,88826,88425
 5.0000e-001 89172 -5.9602e+000 -6.5723e-001 -6.2356e+000 47401 89195,88976,88898
 5.0000e-001 89149 -3.7990e+000  3.4427e-001 -6.7792e+000 47401 89195,88898,89054
 5.0000e-001 89126 -8.5257e+000 -1.6622e+000 -5.6504e+000 47401 88898,88976,88950
 5.0000e-001 89103 -3.3798e+000  3.7543e+000 -9.4028e-001 47401 88976,89028,89002
 5.0000e-001 89080 -5.7094e+000  8.4732e+000  1.2958e+000 47401 88898,88950,88924
 5.0000e-001 89221 -8.0149e+000 -2.1205e+000 -2.9491e+000 47401 89028,88976,89195
 5.0000e-001 89244 -2.6413e+000  3.7226e-001 -3.6912e+000 47401 89028,89195,89054
 5.0000e-001 89575  1.9359e+001  2.9039e+001  4.5252e+000 47111 89350,89454,89376
 5.0000e-001 89552  1.8822e+001  3.2524e+001  2.6547e+000 47111 89350,89480,89454
 5.0000e-001 89529  2.1946e+001  2.3099e+001 -1.5612e+000 47111 89376,89454,89402
 5.0000e-001 89506  2.2254e+001  2.5538e+001 -3.4205e+000 47111 89402,89454,89428
 5.0000e-001 89904  3.7181e+001  4.6122e+001  7.5380e+000 46707 89705,89757,89731
 5.0000e-001 89881  3.8710e+001  5.1803e+001  4.2590e+000 46707 89705,89783,89757
 5.0000e-001 89858  3.2645e+001  4.7827e+001  3.1891e-001 46707 89679,89783,89705
 5.0000e-001 89835  3.7541e+001  3.8709e+001 -2.8986e+000 46707 89679,89809,89783
 5.0000e-001 90233  1.7693e+001  3.7175e+001  2.8409e+000 46360 90034,90112,90086
 5.0000e-001 90210  3.0827e-001  1.7938e+001 -9.2333e+000 46360 90034,90138,90112
 5.0000e-001 90187 -1.6218e+001  4.5061e+001  5.7272e+000 46360 90034,90086,90060
 5.0000e-001 90164  6.0392e+000  3.5258e+001 -1.0272e+001 46360 90008,90138,90034
 5.0000e-001 90530 -3.0754e+000  6.1984e+000 -2.3998e+000 45662 90256,90360,90308
 5.0000e-001 90507  2.6304e+000  7.5857e+000 -2.5326e+000 45662 90256,90412,90360
 5.0000e-001 90484  7.7540e+000  1.0779e+001 -8.3951e+000 45662 90256,90308,90282
 5.0000e-001 90461 -2.9153e-001  6.1079e+000  1.3300e+000 45662 90360,90412,90386
 5.0000e-001 90438  1.4294e+000  8.3372e+000 -1.5630e+000 45662 90308,90360,90334
 5.0000e-001 90910  8.2905e+000  3.4215e+001  5.9932e+000 45108 90688,90766,90714
 5.0000e-001 90887  1.6714e+001  2.3869e+001  1.4813e+001 45108 90662,90766,90688
 5.0000e-001 90864 -3.3030e+000  1.4273e+001  1.0829e+001 45108 90636,90766,90662
 5.0000e-001 90841  4.7970e+001  2.6808e+001 -2.0135e+001 45108 90714,90766,90740
 5.0000e-001 90818  7.0403e+000  1.6512e+001  1.0100e+001 45108 90636,90792,90766
 5.0000e-001 91158 -2.2687e+001  1.5071e+001  4.9761e+000 44604 91181,91011,90959
 5.0000e-001 91135 -3.3930e+001  1.6222e+001  9.4942e+000 44604 91181,90959,90933
 5.0000e-001 91112 -1.2092e+001  2.1804e+001  2.0966e+000 44604 90959,91011,90985
 5.0000e-001 91089 -2.3781e+001  2.8400e+001  4.8344e-001 44604 90933,91063,91037
 5.0000e-001 91207 -1.8274e+001  1.6280e+001  2.3082e+000 44604 91037,91011,91181
 5.0000e-001 91230 -2.4295e+001  2.6980e+001  3.8396e+000 44604 91037,91181,90933
 5.0000e-001 91429  1.4159e+000  2.3733e+001 -1.3710e+000 44264 91452,91279,91253
 5.0000e-001 91406  2.8602e+000  2.8318e+001 -2.0362e+000 44264 91452,91253,91357
 5.0000e-001 91383 -6.9670e-001  1.8560e+001 -3.8916e-001 44264 91279,91331,91305
 5.0000e-001 91478  3.4817e+000  1.9631e+001 -9.3145e-001 44264 91331,91279,91452
 5.0000e-001 91501  4.6561e+000  2.3280e+001 -2.1885e+000 44264 91331,91452,91357
 5.0000e-001 92060 -6.0875e+000 -6.6491e-001  4.2097e+000 43860 92083,91740,91688
 5.0000e-001 92037 -2.3925e+001 -3.8186e+000  2.1588e+000 43860 92083,91688,91896
 5.0000e-001 92014 -1.6633e+001 -3.7356e+000 -4.6691e+000 43860 91766,91870,91844
 5.0000e-001 91991 -1.9807e+001  1.4994e+000 -6.8093e+000 43860 91740,91870,91766
 5.0000e-001 91968  2.3950e+000  7.8951e+000  5.6549e-001 43860 91766,91844,91792
 5.0000e-001 91945 -1.7663e+000 -5.3635e-001 -3.7902e-001 43860 91688,91740,91714
 5.0000e-001 91922 -4.9360e+000 -1.2835e+000 -2.8191e+000 43860 91792,91844,91818
 5.0000e-001 92109 -2.2149e+001  3.4096e+000 -5.0258e+000 43860 91870,91740,92083
 5.0000e-001 92132 -3.9966e+001 -7.9246e-001 -8.1231e+000 43860 91870,92083,91896
 5.0000e-001 92353  6.9704e+000  2.5632e+001 -4.7619e+000 43662 92203,92255,92229
 5.0000e-001 92330 -1.1450e+000  2.6717e+001 -2.0673e+000 43662 92376,92203,92281
 5.0000e-001 92307 -1.6828e+001  1.7527e+001 -8.8427e+000 43662 92177,92281,92203
 5.0000e-001 92402  2.2527e+000  2.8117e+001 -4.1229e+000 43662 92255,92203,92376
 5.0000e-001 92682 -1.9555e+000  1.7036e+001 -1.5765e+000 43464 92532,92584,92558
 5.0000e-001 92659 -7.8017e+000  1.3718e+001 -3.1141e+000 43464 92506,92584,92532
 5.0000e-001 92636  7.8740e+000  2.2028e+001 -6.2861e+000 43464 92506,92610,92584
 5.0000e-001 93013 -8.8476e+000  2.5730e+001 -1.7711e+001 42960 92866,92918,92892
 5.0000e-001 92990 -1.6704e+001  3.1966e+001 -9.1541e+000 42960 93036,92918,92866
 5.0000e-001 92967 -1.2239e+001  3.3438e+001 -9.6207e+000 42960 93036,92866,92840
 5.0000e-001 92944 -8.1204e+000  3.0925e+001 -2.8397e+000 42960 92788,92918,92814
 5.0000e-001 93062 -1.3837e+001  2.5996e+001 -4.9629e+000 42960 92814,92918,93036
 5.0000e-001 93085 -1.5732e+000  3.1817e+001 -6.6855e+000 42960 92814,93036,92840
 5.0000e-001 93186  1.2201e+000  1.2574e+001 -7.7308e-001 42556 93108,93160,93134
 5.0000e-001 93554 -2.3355e+000  1.7093e+001 -2.6963e+000 42052 93231,93387,93361
 5.0000e-001 93531  2.0398e+000  1.7568e+001 -4.9107e+000 42052 93231,93413,93387
 5.0000e-001 93508 -1.3030e+000  1.6730e+001 -2.8675e+000 42052 93231,93361,93257
 5.0000e-001 93485 -5.1468e+000  1.0260e+001  9.0357e-001 42052 93283,93361,93335
 5.0000e-001 93462 -1.1582e+001  1.3041e+001 -3.1186e+000 42052 93257,93361,93283
 5.0000e-001 93439 -1.0093e+001  7.2094e+000  5.6316e+000 42052 93283,93335,93309
 5.0000e-001 94162 -6.0025e+000  1.6100e+001  8.6760e+000 41498 93767,93975,93793
 5.0000e-001 94139 -8.9324e+000  1.3421e+001 -1.7626e-001 41498 93741,93975,93767
 5.0000e-001 94116 -4.9925e+000  1.1970e+001  7.5434e+000 41498 93793,93975,93923
 5.0000e-001 94093  3.7649e-001  2.4692e+001  3.2510e+000 41498 93923,93975,93949
 5.0000e-001 94070  7.4797e+000  5.0219e+000  1.0500e+001 41498 93871,93923,93897
 5.0000e-001 94047 -6.8920e+000  1.1679e+001  7.1869e+000 41498 93793,93923,93871
 5.0000e-001 94024  2.5690e+000  1.2460e+001  6.7891e+000 41498 93819,93871,93845
 5.0000e-001 94001 -8.2841e+000  7.7938e+000  7.5537e+000 41498 93793,93871,93819
 5.0000e-001 94619  2.0076e+001  9.5999e+000 -4.4165e+000 40930 94642,94423,94371
 5.0000e-001 94596  2.2516e+001  8.7863e+000  4.0311e-001 40930 94642,94371,94345
 5.0000e-001 94573  2.5845e+001  2.7771e+001  5.4200e-002 40930 94345,94501,94475
 5.0000e-001 94550  2.9437e+001  1.2547e+001 -7.7197e+000 40930 94371,94423,94397
 5.0000e-001 94527  2.6476e+001  1.7680e+001 -5.0006e+000 40930 94423,94475,94449
 5.0000e-001 94668  2.3433e+001  1.7696e+001 -4.2026e+000 40930 94475,94423,94642
 5.0000e-001 94691  2.3890e+001  1.2284e+001 -9.3192e-003 40930 94475,94642,94345
 5.0000e-001 95148 -1.1462e+001  1.5168e+000 -1.0859e+001 40362 95171,94952,94926
 5.0000e-001 95125 -1.1439e+001  4.0061e+000 -7.0568e-001 40362 95171,94926,95004
 5.0000e-001 95102 -1.1505e+001  1.6547e+000 -1.4652e+000 40362 94874,95004,94926
 5.0000e-001 95079 -1.8388e+001  1.4392e+000 -5.3787e+000 40362 94874,95030,95004
 5.0000e-001 95056 -8.0616e+000  6.5433e+000 -4.7601e+000 40362 94874,94926,94900
 5.0000e-001 95197 -9.3518e+000  1.1768e+001 -1.0783e+001 40362 94978,94952,95171
 5.0000e-001 95220 -9.0686e+000  1.3887e+001 -9.8239e-001 40362 94978,95171,95004
 5.0000e-001 95549  1.0810e+000  1.6049e+001 -2.4294e+000 39586 95350,95402,95376
 5.0000e-001 95526 -1.8358e+000  1.3457e+001 -1.2334e+000 39586 95324,95402,95350
 5.0000e-001 95503  4.3343e-001  1.8943e+001 -1.4627e+000 39586 95324,95454,95402
 5.0000e-001 95480  4.8141e+000  2.8804e+001  3.7337e-001 39586 95402,95454,95428
 5.0000e-001 96055 -6.5875e+000  9.2913e+000  2.0633e+000 38968 96078,95862,95810
 5.0000e-001 96032 -2.8330e+000  1.0592e+001  3.5188e+000 38968 96078,95810,95758
 5.0000e-001 96009 -9.5341e+000  1.6025e+001  5.6198e+000 38968 96150,95732,95888
 5.0000e-001 95986 -4.2635e+000  1.0190e+001  2.1015e+000 38968 95810,95862,95836
 5.0000e-001 95963 -1.4095e+001  1.8923e+001 -8.9390e-001 38968 95732,95914,95888
 5.0000e-001 95940 -1.3715e+000  1.1839e+001  2.5072e+000 38968 95758,95810,95784
 5.0000e-001 96104 -5.1589e+000  1.1453e+001  7.3268e-001 38968 95888,95862,96078
 5.0000e-001 96127 -5.3081e+000  1.4485e+001  1.4498e+000 38968 96150,95888,96078
 5.0000e-001 96176 -1.5528e+001  9.3614e+000  8.5757e+000 38968 95758,95732,96150
 5.0000e-001 96199 -1.1158e+001  6.6943e+000  4.5865e+000 38968 95758,96150,96078
 5.0000e-001 96545  1.4906e+001  1.1560e+001  1.4294e+001 38507 96640,96568,96352
 5.0000e-001 96522  3.9579e+000  2.0794e+000  2.1185e+001 38507 96568,96300,96222
 5.0000e-001 96499  1.9140e+001  1.6717e+001  6.4419e+000 38507 96640,96352,96326
 5.0000e-001 96476  2.2026e+001  3.6625e+000  3.2662e+000 38507 96352,96404,96378
 5.0000e-001 96453  3.4504e+000  7.9609e+000  1.9733e+001 38507 96222,96300,96248
 5.0000e-001 96430  1.5302e+001  2.3354e+000  6.4874e+000 38507 96248,96300,96274
 5.0000e-001 96594  1.0628e+001  4.7157e+000  1.6912e+001 38507 96404,96352,96568
 5.0000e-001 96617  1.1762e+001  8.9361e+000  1.7130e+001 38507 96404,96568,96222
 5.0000e-001 96666  9.4892e+000  1.7977e-001  1.8766e+001 38507 96300,96568,96640
 5.0000e-001 96689  1.0607e+001  3.7443e+000  1.1663e+001 38507 96300,96640,96326
 5.0000e-001 97069 -2.8773e+001 -6.4586e+000 -4.0676e+000 37760 97092,96873,96821
 5.0000e-001 97046 -2.7746e+001 -6.4745e+000  4.9463e-001 37760 97092,96821,96795
 5.0000e-001 97023 -1.4570e+001 -8.6766e+000 -5.2441e+000 37760 96821,96873,96847
 5.0000e-001 97000 -5.1105e+001  1.3719e+001 -1.4542e+001 37760 96873,96925,96899
 5.0000e-001 96977 -1.8837e+001  6.0375e+000 -1.6437e+000 37760 96795,96951,96925
 5.0000e-001 97118 -2.7238e+001 -2.3220e+000 -3.4387e+000 37760 96925,96873,97092
 5.0000e-001 97141 -2.5323e+001 -2.1668e+000  1.5492e+000 37760 96925,97092,96795
 5.0000e-001 97647  2.2374e+001  3.1912e+000  4.8736e+000 37356 97324,97480,97376
 5.0000e-001 97624  4.1732e+001  7.0137e+000  1.1310e+001 37356 97324,97506,97480
 5.0000e-001 97601  3.2723e+001  1.7012e+001  9.6587e+000 37356 97376,97480,97454
 5.0000e-001 97578  1.9469e+001  2.7230e+000  7.3144e+000 37356 97324,97376,97350
 5.0000e-001 97555  2.6358e+001  1.5270e+001  1.1280e+001 37356 97376,97454,97402
 5.0000e-001 97532  4.2189e+001  2.6070e+001  1.7067e+001 37356 97402,97454,97428
 5.0000e-001 98232  1.4357e+001  1.1888e+001 -1.1255e+001 36902 97935,98065,98013
 5.0000e-001 98209  1.8148e+001  1.4841e+001 -9.5831e+000 36902 97935,98091,98065
 5.0000e-001 98186  2.1563e+001  1.9611e+001 -1.5366e+001 36902 97935,98013,97987
 5.0000e-001 98163  2.3486e+001  1.6589e+001 -7.4509e+000 36902 97909,98091,97935
 5.0000e-001 98140  3.1847e+001  2.0096e+001 -2.4849e+001 36902 97935,97987,97961
 5.0000e-001 98117  1.9398e+001  2.0814e+001 -8.0257e+000 36902 98013,98065,98039
 5.0000e-001 98659  1.1907e+001  1.6221e+001  1.5916e+001 36604 98682,98414,98388
 5.0000e-001 98636 -1.6644e+000  7.4236e+000  2.7197e+000 36604 98682,98388,98336
 5.0000e-001 98613 -6.5730e+000  2.7089e-001 -2.2129e+000 36604 98754,98518,98466
 5.0000e-001 98590 -4.7009e+000 -4.2811e+000  4.0051e+000 36604 98414,98466,98440
 5.0000e-001 98567  7.2668e+000 -6.9634e-001  5.0360e+000 36604 98336,98388,98362
 5.0000e-001 98544 -5.3332e+000  3.7212e-001  5.6533e-001 36604 98466,98518,98492
 5.0000e-001 98708  2.5435e+000  1.6214e+000  6.6222e+000 36604 98466,98414,98682
 5.0000e-001 98731 -4.0035e+000  2.4667e+000 -3.2233e+000 36604 98754,98466,98682
 5.0000e-001 98780 -3.1056e+000 -2.3784e+000 -2.2790e+000 36604 98336,98518,98754
 5.0000e-001 98803 -4.8262e-001 -6.5095e-001 -3.0319e+000 36604 98336,98754,98682
 5.0000e-001 99309 -5.9445e+000  6.5678e+000 -3.6714e-001 36200 99332,99116,99012
 5.0000e-001 99286 -5.7884e+000  1.1443e+000  2.2036e+000 36200 99332,99012,98986
 5.0000e-001 99263 -3.3142e+000  4.0310e+000 -3.3149e+000 36200 99012,99116,99064
 5.0000e-001 99240 -1.1872e+000  1.7996e+001  1.1919e+000 36200 98986,99168,99142
 5.0000e-001 99217 -2.0183e+001  9.6525e+000 -6.7494e+000 36200 99064,99116,99090
 5.0000e-001 99194 -2.2088e+000  3.9179e+000 -2.4894e+000 36200 99012,99064,99038
 5.0000e-001 99358 -5.2679e+000  1.0127e+001 -1.6122e+000 36200 99142,99116,99332
 5.0000e-001 99381 -4.4417e+000  6.7918e+000  1.5056e+000 36200 99142,99332,98986
 5.0000e-001 99887 -3.0047e+000 -1.3150e+000  3.6017e+000 35488 99564,99720,99590
 5.0000e-001 99864  3.6213e+000  1.2636e+001  7.6069e+000 35488 99564,99746,99720
 5.0000e-001 99841 -2.6847e+000  2.7588e+000 -8.6475e+000 35488 99642,99694,99668
 5.0000e-001 99818  4.0204e-001 -4.9539e-001 -1.4531e+000 35488 99590,99694,99642
 5.0000e-001 99795 -2.0743e+000  3.8380e+000  1.9008e-001 35488 99590,99720,99694
 5.0000e-001 99772 -4.2037e+000 -3.7197e+000 -3.1614e+000 35488 99590,99642,99616
 5.0000e-001 99988 -2.1846e+000  2.0401e+001 -3.0275e+000 35198 99910,99962,99936
 5.0000e-001 100138 -3.5079e+000  3.3492e+001  9.9003e+000 34794 100233,100161,100063
 5.0000e-001 100115 -2.7306e+001  1.0061e+001  9.1295e+000 34794 100365,100161,100037
 5.0000e-001 100187  2.6681e+001  1.0645e+001  9.8787e+000 34794 100089,100063,100161
 5.0000e-001 100210 -4.6752e+000  5.6878e+000  1.0926e+001 34794 100089,100161,100011
 5.0000e-001 100259 -1.5496e+001  8.0021e+000  5.4033e+000 34794 100037,100161,100233
 5.0000e-001 100391 -1.4068e+001 -9.7425e+000  1.9335e+001 34794 100011,100161,100365
 5.0000e-001 100927 -7.2917e+000  4.8988e+000  2.9639e+000 34404 100679,100809,100783
 5.0000e-001 100904  3.5500e+000  1.1852e+001  6.2191e+000 34404 100653,100809,100679
 5.0000e-001 100881 -1.7272e+000  8.6805e+000  2.5402e-001 34404 100705,100783,100731
 5.0000e-001 100858 -1.5735e+000  8.5986e+000  1.9764e-001 34404 100679,100783,100705
 5.0000e-001 100835  6.2924e-001  1.2576e+001  1.4378e+000 34404 100731,100783,100757
 5.0000e-001 101354  2.2956e+001  2.7535e+001  6.9351e+000 34000 101377,101109,101057
 5.0000e-001 101331  2.1527e+001  2.4419e+001  4.2607e+000 34000 101449,101377,101057
 5.0000e-001 101308  2.1241e+001  1.7117e+001  3.3191e+000 34000 101449,101057,101031
 5.0000e-001 101285  2.5140e+001  1.1875e+001  1.5603e+001 34000 101031,101213,101187
 5.0000e-001 101262  2.6806e+001  2.8434e+000  3.1771e+000 34000 101135,101187,101161
 5.0000e-001 101239  1.5757e+001  1.6031e+001  1.0883e+001 34000 101057,101109,101083
 5.0000e-001 101403  1.9656e+001  2.1283e+001  5.6006e+000 34000 101135,101109,101377
 5.0000e-001 101426  2.4466e+001  2.2903e+001  7.3699e+000 34000 101135,101377,101187
 5.0000e-001 101475  2.0338e+001  1.4161e+001  5.8588e+000 34000 101187,101377,101449
 5.0000e-001 101498  2.3040e+001  1.0715e+001  4.4535e+000 34000 101187,101449,101031
 5.0000e-001 102083 -4.8491e+000  8.8948e+000 -4.3320e-002 33472 102106,101812,101786
 5.0000e-001 102060 -3.8518e+000  8.1306e+000  1.8473e+000 33472 102106,101786,101916
 5.0000e-001 102037 -3.2180e+000  9.6310e+000 -5.7503e-001 33472 101812,101864,101838
 5.0000e-001 102014 -6.8238e+000  1.6880e+001  2.2293e+000 33472 101864,101916,101890
 5.0000e-001 101991  3.7645e+000  1.3525e+001  4.4851e+000 33472 101786,101942,101916
 5.0000e-001 101968  6.5952e+000  1.3568e+001 -2.0862e+000 33472 101760,101942,101786
 5.0000e-001 102132 -3.9057e+000  1.0645e+001  3.2916e-001 33472 101864,101812,102106
 5.0000e-001 102155 -3.0403e+000  9.9526e+000  2.0307e+000 33472 101864,102106,101916
 5.0000e-001 102612  1.9788e+001  2.8939e+001  3.0417e+000 33038 102635,102468,102390
 5.0000e-001 102589  1.4039e+001  1.4114e+001  3.0475e+000 33038 102635,102390,102364
 5.0000e-001 102566  1.8061e+001  2.3514e+001  1.0389e+000 33038 102390,102468,102442
 5.0000e-001 102543  9.4724e+000  3.2543e+000  1.1903e+001 33038 102338,102494,102364
 5.0000e-001 102520  1.3848e+001  2.1201e+001 -1.2753e-001 33038 102390,102442,102416
 5.0000e-001 102661  1.7358e+001  3.1923e+001  1.2655e+001 33038 102494,102468,102635
 5.0000e-001 102684  1.2526e+001  2.1151e+001  1.3720e+001 33038 102494,102635,102364
 5.0000e-001 103318  2.7182e+000  1.1833e+001  3.8819e-001 32402 102972,103128,103076
 5.0000e-001 103295  3.9079e+000  1.4399e+001  1.3755e+000 32402 102946,103128,102972
 5.0000e-001 103272  7.8272e+000  2.2690e+001  2.5969e+000 32402 103076,103128,103102
 5.0000e-001 103249  4.0815e+000  1.4326e+001 -6.9796e-001 32402 102946,103154,103128
 5.0000e-001 103226  2.2848e+000  1.1320e+001  7.3084e-001 32402 102972,103076,102998
 5.0000e-001 103203 -1.0102e+001  1.1549e+001  3.0019e+000 32402 102998,103076,103050
 5.0000e-001 103180 -2.6029e+000  3.1219e+001 -3.8568e+000 32402 102998,103050,103024
 5.0000e-001 103696  9.3240e+000  2.0167e+001  1.3350e+000 31924 103448,103526,103500
 5.0000e-001 103673 -8.8102e+000  1.1217e+001 -3.8426e+000 31924 103448,103578,103526
 5.0000e-001 103650 -5.6918e+000  1.8015e+001  6.0010e+000 31924 103448,103500,103474
 5.0000e-001 103627 -2.9030e+001  4.1283e+001 -7.9131e+000 31924 103422,103578,103448
 5.0000e-001 103604  3.1577e+001  9.6306e+000 -1.0887e+001 31924 103526,103578,103552
 5.0000e-001 104281 -2.8888e+000  8.4099e+000 -1.2457e+000 31520 104304,104062,104036
 5.0000e-001 104258  1.2787e+000  1.1423e+001  1.1566e-001 31520 104304,104036,103984
 5.0000e-001 104235 -1.6631e+000  1.1354e+001  2.0254e+000 31520 104062,104114,104088
 5.0000e-001 104212 -1.0298e+001  8.8763e+000  2.2965e+000 31520 103958,104114,103984
 5.0000e-001 104189  4.3968e+000  1.8667e+001 -7.4703e-001 31520 103984,104036,104010
 5.0000e-001 104166 -7.2807e+000  1.9040e+001  7.4337e-001 31520 103958,104140,104114
 5.0000e-001 104330 -3.1682e+000  1.1879e+001  7.4169e-001 31520 104114,104062,104304
 5.0000e-001 104353 -1.8447e+000  1.2729e+001  1.1204e+000 31520 104114,104304,103984
 5.0000e-001 104704  7.9832e-001  1.3662e+001  3.2078e-001 31066 104479,104583,104505
 5.0000e-001 104681 -3.7204e+000  1.2268e+001  5.5433e-001 31066 104479,104609,104583
 5.0000e-001 104658 -7.0628e+000  1.6162e+001 -1.4146e+000 31066 104505,104557,104531
 5.0000e-001 104635 -5.4167e+000  1.0346e+001 -1.0265e+000 31066 104505,104583,104557
 5.0000e-001 104925 -1.9577e+001  4.3761e+001  4.7365e+000 30754 104775,104827,104801
 5.0000e-001 104902 -1.6267e+001  2.9502e+001  3.3298e+000 30754 104775,104853,104827
 5.0000e-001 104879 -1.6386e+001  2.9188e+001 -2.8203e-001 30754 104749,104853,104775
 5.0000e-001 105482  1.4830e+001  2.5263e+001  2.3161e+001 30164 105505,105136,105110
 5.0000e-001 105459 -5.3777e+000  6.1298e+001  1.0967e+001 30164 105649,105505,105110
 5.0000e-001 105436  5.0936e+000  3.6566e+000  2.3774e+001 30164 105577,105188,105136
 5.0000e-001 105413 -3.5838e+000  6.4517e+001 -3.3264e+000 30164 105649,105110,105318
 5.0000e-001 105390 -1.2661e+001  2.3714e+001  5.0296e+000 30164 105214,105292,105240
 5.0000e-001 105367  3.8310e+001  3.2550e+001  7.2326e+000 30164 105240,105292,105266
 5.0000e-001 105344 -2.5034e+000 -1.8177e+001  3.1089e+001 30164 105136,105188,105162
 5.0000e-001 105531  7.4812e+000  3.4687e+000  1.4884e+001 30164 105577,105136,105505
 5.0000e-001 105554 -1.4098e+001  1.9625e+001  2.6417e+000 30164 105214,105505,105292
 5.0000e-001 105603  1.3010e+000 -8.1830e+000  2.5653e+001 30164 105214,105188,105577
 5.0000e-001 105626  2.2622e+000 -9.6486e+000  1.7185e+001 30164 105214,105577,105505
 5.0000e-001 105675 -1.4495e+001  3.9489e+001  8.6627e+000 30164 105292,105505,105649
 5.0000e-001 105698 -1.4963e+001  3.3531e+001 -3.1643e+000 30164 105292,105649,105318
 5.0000e-001 106027  4.3860e+001  1.9758e+001  1.4752e+000 29868 106322,106050,105880
 5.0000e-001 106004  2.4424e+001 -2.3171e+001 -7.5882e-001 29868 106250,106050,105828
 5.0000e-001 105981  1.9665e+001 -1.6598e+001  1.5993e+001 29868 106250,105828,105802
 5.0000e-001 105958  2.4364e+001  4.5542e+001  2.1750e+001 29868 106322,105880,106122
 5.0000e-001 106076  4.0815e+001  3.9755e+001 -1.7493e+001 29868 105906,105880,106050
 5.0000e-001 106099  2.1225e+001  4.3376e+000 -6.2964e+000 29868 105906,106050,105932
 5.0000e-001 106148 -5.0076e-001  1.3570e+001  2.8109e+001 29868 105854,105828,106122
 5.0000e-001 106276  3.3520e+001  4.4009e-001 -4.1927e+000 29868 105932,106050,106250
 5.0000e-001 106299  2.8892e+001  1.4531e+001  1.4244e+001 29868 105932,106250,105802
 5.0000e-001 106348  8.3798e+000 -6.0338e+000 -9.9043e+000 29868 105828,106050,106322
 5.0000e-001 106371 -7.7527e+000  2.0801e+001  1.0939e+001 29868 105828,106322,106122
 5.0000e-001 106828  2.1150e+001  2.6365e+001  8.3195e+000 29521 106580,106710,106684
 5.0000e-001 106805  2.2460e+001  2.1527e+001  1.1515e+001 29521 106554,106710,106580
 5.0000e-001 106782  2.7068e+001  3.0141e+001  1.0005e+001 29521 106580,106684,106606
 5.0000e-001 106759  2.4554e+001  2.8838e+001  6.4269e+000 29521 106606,106684,106658
 5.0000e-001 106736  1.6320e+001  3.1333e+001  7.0128e+000 29521 106606,106658,106632
 5.0000e-001 107027  6.9379e+000  9.5417e+000  1.0038e+001 29117 106877,106929,106903
 5.0000e-001 107004  5.4058e+000  8.8303e+000  6.4336e+000 29117 106851,106929,106877
 5.0000e-001 106981  1.4551e+001  9.9807e+000  3.7461e+000 29117 106851,106955,106929
 5.0000e-001 107456  2.7692e+000  1.6107e+001 -1.6175e+000 28656 107237,107315,107263
 5.0000e-001 107433  1.4986e-001  1.4580e+001 -2.4697e+000 28656 107133,107315,107237
 5.0000e-001 107410 -3.6179e+000  6.6181e+000 -1.3871e+000 28656 107133,107237,107159
 5.0000e-001 107387 -2.3748e+000  1.0762e+001 -2.4571e+000 28656 107159,107237,107185
 5.0000e-001 107364 -1.0948e+001  7.8519e+000  3.8173e-002 28656 107185,107237,107211
 5.0000e-001 107341  3.8135e+000  2.3555e+001 -9.7979e+000 28656 107263,107315,107289
 5.0000e-001 107704  5.6964e+000  1.3865e+001  5.5440e+000 27902 107727,107557,107531
 5.0000e-001 107681  8.0781e+000  1.5028e+001  6.9362e+000 27902 107727,107531,107505
 5.0000e-001 107658  4.3400e+000  2.1831e+001  5.8078e+000 27902 107557,107609,107583
 5.0000e-001 107635  1.4052e+000  1.8252e+001  1.0437e+001 27902 107479,107609,107505
 5.0000e-001 107753  3.0472e+000  1.5210e+001  4.7642e+000 27902 107609,107557,107727
 5.0000e-001 107776  5.2636e+000  1.6011e+001  6.0088e+000 27902 107609,107727,107505
 5.0000e-001 108333 -1.4912e+000  1.4725e+001 -1.1799e+000 27341 108356,108065,108013
 5.0000e-001 108310 -1.0075e+000  1.4480e+001  8.0353e-001 27341 108356,108013,108143
 5.0000e-001 108287 -8.1921e-001  1.5967e+001  4.8667e-001 27341 108428,108117,108091
 5.0000e-001 108264 -1.2920e+000  1.5007e+001 -1.2704e+000 27341 108013,108065,108039
 5.0000e-001 108241 -3.2219e+000  1.1248e+001 -3.3533e-001 27341 107987,108143,108013
 5.0000e-001 108218 -1.1187e+001  7.7675e+000  9.1713e-001 27341 107987,108169,108143
 5.0000e-001 108195 -1.5982e+001  1.2441e+001  9.0068e-001 27341 107961,108169,107987
 5.0000e-001 108382 -4.7795e-001  1.6997e+001 -9.7930e-001 27341 108091,108065,108356
 5.0000e-001 108405 -4.1036e-001  1.4960e+001  1.9456e-001 27341 108428,108091,108356
 5.0000e-001 108454 -2.0052e-001  1.8107e+001  9.1334e-001 27341 108143,108117,108428
 5.0000e-001 108477 -9.9594e-002  1.6605e+001  6.5819e-001 27341 108143,108428,108356
 5.0000e-001 108725 -3.7208e+001 -2.8356e+001  6.3017e+000 27029 108748,108526,108500
 5.0000e-001 108702 -3.3528e+001 -3.6247e+001  4.1854e+000 27029 108748,108500,108630
 5.0000e-001 108679 -2.7726e+001 -2.5527e+001  1.4005e+001 27029 108578,108630,108604
 5.0000e-001 108656 -4.1269e+001 -4.5171e+001 -1.7386e+001 27029 108526,108578,108552
 5.0000e-001 108774 -3.3763e+001 -2.5803e+001  8.0161e+000 27029 108578,108526,108748
 5.0000e-001 108797 -2.7740e+001 -3.0978e+001  6.9681e+000 27029 108578,108748,108630
 5.0000e-001 109045 -8.0740e+000  6.5348e+000 -3.3295e+000 26610 108872,108924,108898
 5.0000e-001 109022 -8.2018e+000  6.1309e+000 -3.5134e+000 26610 108872,108950,108924
 5.0000e-001 108999 -1.0693e+001  6.7644e+000 -7.7936e+000 26610 108846,108950,108872
 5.0000e-001 108976 -6.7786e+000 -2.3322e+000 -8.5215e+000 26610 108820,108950,108846
 5.0000e-001 109366 -3.7885e+000  1.6153e+001  4.9995e-001 26006 109144,109222,109196
 5.0000e-001 109343 -4.5361e+000  1.5003e+001  5.5813e-002 26006 109118,109222,109144
 5.0000e-001 109320 -2.3909e+000  1.6270e+001 -5.6387e-001 26006 109092,109222,109118
 5.0000e-001 109297 -1.6360e+000  1.7012e+001  1.1158e+000 26006 109144,109196,109170
 5.0000e-001 109274 -6.0644e+000  9.9807e+000  9.5086e-001 26006 109092,109248,109222
 5.0000e-001 109567  1.6026e+001  2.6952e+001  1.5316e+000 25659 109391,109469,109443
 5.0000e-001 109544  2.0367e+001  2.8473e+001  2.1899e+000 25659 109391,109495,109469
 5.0000e-001 109521  1.1926e+001  1.6885e+001  2.4344e+000 25659 109391,109443,109417
 5.0000e-001 109900  1.3439e+001  1.4771e+001  4.3857e+000 25255 109923,109779,109753
 5.0000e-001 109877  1.6653e+001  2.4028e+001  7.0982e+000 25255 109923,109753,109701
 5.0000e-001 109854  1.8131e+001  9.9017e+000 -3.6012e+000 25255 109675,109805,109701
 5.0000e-001 109831  1.3728e+001  1.2211e+001  1.1784e+001 25255 109701,109753,109727
 5.0000e-001 109949  1.1614e+001  1.6999e+000 -4.9172e+000 25255 109805,109779,109923
 5.0000e-001 109972  1.8972e+001  1.8492e+001 -2.0416e+000 25255 109805,109923,109701
 5.0000e-001 110220  1.6489e+001  1.3960e+001  6.6047e+000 24701 110243,110021,109995
 5.0000e-001 110197  1.6804e+001  1.5243e+001  7.6888e+000 24701 110243,109995,110099
 5.0000e-001 110174  1.5810e+001  1.5498e+001  6.6943e+000 24701 110315,110073,110047
 5.0000e-001 110151  1.2822e+001  6.3778e+000  1.0440e+001 24701 109995,110125,110099
 5.0000e-001 110269  1.4487e+001  1.1291e+001  4.5885e+000 24701 110047,110021,110243
 5.0000e-001 110292  1.7639e+001  1.5337e+001  5.9848e+000 24701 110315,110047,110243
 5.0000e-001 110341  1.1730e+001  1.3970e+001  7.0764e+000 24701 110099,110073,110315
 5.0000e-001 110364  1.4592e+001  1.4291e+001  6.5112e+000 24701 110099,110315,110243
 5.0000e-001 110661 -2.1911e+000  1.5184e+001  8.9989e+000 24197 110684,110413,110387
 5.0000e-001 110638  4.0961e+000  2.8924e+001  7.4732e+000 24197 110684,110387,110543
 5.0000e-001 110615  3.1953e+000  2.2994e+001  8.1976e-001 24197 110756,110491,110465
 5.0000e-001 110592  3.6595e+000  1.4864e+001  2.2703e+000 24197 110413,110465,110439
 5.0000e-001 110569  8.3806e-001  2.5432e+001  5.3678e+000 24197 110491,110543,110517
 5.0000e-001 110710  2.8293e+000  1.5293e+001  2.2218e+000 24197 110465,110413,110684
 5.0000e-001 110733  5.2715e+000  2.1644e+001  1.4209e+000 24197 110756,110465,110684
 5.0000e-001 110782  1.1721e+000  2.1543e+001  1.5390e+000 24197 110543,110491,110756
 5.0000e-001 110805  2.6456e+000  1.9639e+001  2.3387e+000 24197 110543,110756,110684
 5.0000e-001 111315 -2.1004e+001  9.5506e+000 -1.8114e+001 23593 111044,111148,111070
 5.0000e-001 111292  5.5389e+000  2.1318e+001 -1.2950e+001 23593 111044,111174,111148
 5.0000e-001 111269  1.6500e+001 -2.1878e+001 -2.5413e+001 23593 111070,111122,111096
 5.0000e-001 111246  2.3623e+000  5.1306e+001 -6.4988e+000 23593 111070,111148,111122
 5.0000e-001 111223  8.0001e+000 -2.1457e-001 -1.5242e+000 23593 111018,111174,111044
 5.0000e-001 111200  2.7991e+000  2.4066e+000 -2.4583e+000 23593 110992,111174,111018
 5.0000e-001 111821 -5.1807e+000  1.5540e+001  3.2015e-002 23089 111916,111844,111628
 5.0000e-001 111798 -1.1502e+000  1.8409e+001  6.7970e-001 23089 111844,111550,111524
 5.0000e-001 111775 -5.8727e+000  1.4259e+001 -3.1061e-001 23089 111916,111628,111602
 5.0000e-001 111752 -5.3025e+000  2.5266e+001 -2.5176e+000 23089 111498,111680,111524
 5.0000e-001 111729 -3.9602e+000  1.1844e+001 -2.6943e-002 23089 111550,111602,111576
 5.0000e-001 111706 -1.9870e+000  9.9409e+000  6.9652e-001 23089 111628,111680,111654
 5.0000e-001 111870 -2.2963e+000  1.4595e+001 -1.5070e+000 23089 111680,111628,111844
 5.0000e-001 111893 -1.1644e+000  1.7070e+001 -3.1240e+000 23089 111680,111844,111524
 5.0000e-001 111942 -3.0897e+000  1.3253e+001  5.9382e-001 23089 111550,111844,111916
 5.0000e-001 111965 -3.9316e+000  1.1919e+001  1.2859e-001 23089 111550,111916,111602
 5.0000e-001 112164  1.9515e+001  3.5516e+000  2.1327e+001 22626 112187,112014,111988
 5.0000e-001 112141  1.4146e+001  4.0747e+001  1.7683e+001 22626 112259,112187,111988
 5.0000e-001 112118  1.3068e+001  5.2705e+001 -2.7175e+000 22626 112259,111988,112092
 5.0000e-001 112213  9.3525e+000 -4.1812e+001  1.0072e+001 22626 112040,112014,112187
 5.0000e-001 112236  1.9479e+001  9.5379e+000  1.8148e+001 22626 112040,112187,112066
 5.0000e-001 112285  6.0491e+000  7.9896e+000  2.0722e+001 22626 112066,112187,112259
 5.0000e-001 112308  1.1003e+000  1.6614e+001  1.7216e+000 22626 112066,112259,112092
 5.0000e-001 112605  1.4207e+001  1.5052e+001  3.0057e+000 22286 112628,112383,112357
 5.0000e-001 112582  1.0016e+001  1.3109e+001  3.5063e+000 22286 112772,112628,112357
 5.0000e-001 112559  1.0257e+001  1.7322e+001  1.2602e+000 22286 112700,112435,112409
 5.0000e-001 112536  5.9770e+000  1.5186e+001  6.6851e+000 22286 112772,112357,112331
 5.0000e-001 112513  1.5481e+001  1.4568e+001 -7.8376e-002 22286 112435,112487,112461
 5.0000e-001 112654  1.2143e+001  1.4218e+001  1.3756e+000 22286 112409,112383,112628
 5.0000e-001 112677  1.0028e+001  1.6539e+001  1.1088e+000 22286 112700,112409,112628
 5.0000e-001 112726  1.0366e+001  1.7003e+001  1.7696e+000 22286 112487,112435,112700
 5.0000e-001 112749  1.0371e+001  1.6826e+001  1.6115e+000 22286 112487,112700,112628
 5.0000e-001 112798  1.1991e+001  1.7782e+001  2.6088e+000 22286 112487,112628,112772
 5.0000e-001 112821  9.4963e+000  2.0631e+001  3.8835e+000 22286 112487,112772,112331
 5.0000e-001 112924 -5.5327e+001  3.1125e+001  9.9410e+000 21974 112846,112898,112872
 5.0000e-001 113223  1.8983e+001 -3.0925e+000  5.1932e+000 21420 112949,113053,112975
 5.0000e-001 113200  1.7859e+001  1.1862e+001  7.8565e+000 21420 112949,113079,113053
 5.0000e-001 113177  9.8248e+000 -2.5626e+000 -3.1702e+000 21420 112975,113053,113001
 5.0000e-001 113154  2.4069e+001  2.1180e+000 -2.1880e+000 21420 113001,113053,113027
 5.0000e-001 113131  2.2506e+001  1.5218e+001  6.3024e+000 21420 112949,113105,113079
 5.0000e-001 113605 -2.5892e+001  1.6418e+001 -1.5168e+001 20716 113331,113435,113357
 5.0000e-001 113582 -3.2706e+001  1.8965e+001 -1.1881e+001 20716 113331,113461,113435
 5.0000e-001 113559 -3.6208e+001 -1.3233e+000 -1.2267e+000 20716 113383,113435,113409
 5.0000e-001 113536 -2.6595e+001  5.9644e+000  1.9468e+000 20716 113357,113435,113383
 5.0000e-001 113513 -1.8153e+001  1.1865e+001 -2.6939e+000 20716 113331,113487,113461
 5.0000e-001 113853  1.4751e+001 -2.3927e-001  2.3200e+000 20290 113876,113680,113654
 5.0000e-001 113830  2.0730e+001  6.5300e+000  5.4907e+000 20290 113876,113654,113628
 5.0000e-001 113807  1.4060e+001  9.2227e+000  9.6785e-001 20290 113948,113732,113680
 5.0000e-001 113784  1.6958e+001  7.2102e+000 -2.2448e+000 20290 113680,113732,113706
 5.0000e-001 113902  1.4884e+001  8.2476e+000  3.4792e+000 20290 113948,113680,113876
 5.0000e-001 113925  1.3905e+001  1.1057e+001  5.3767e+000 20290 113758,113876,113628
 5.0000e-001 113974  1.1431e+001  7.8065e+000  1.6198e+000 20290 113758,113732,113948
 5.0000e-001 113997  1.0966e+001  6.3628e+000  4.0626e+000 20290 113758,113948,113876
 5.0000e-001 114365 -3.3939e+000  1.5990e+001 -4.9206e-002 19900 114146,114198,114172
 5.0000e-001 114342 -2.8822e+000  1.6206e+001 -6.4174e-002 19900 114042,114198,114146
 5.0000e-001 114319 -3.6132e+000  1.5478e+001  3.0226e-001 19900 114042,114224,114198
 5.0000e-001 114296 -6.3804e-001  1.6060e+001 -2.0056e-001 19900 114094,114146,114120
 5.0000e-001 114273 -3.0301e+000  1.4957e+001  4.1857e-001 19900 114042,114146,114094
 5.0000e-001 114250 -4.7721e+000  1.4375e+001  5.0423e-001 19900 114042,114094,114068
 5.0000e-001 114566  2.9859e+000  1.3339e+001  1.2503e-001 19496 114442,114494,114468
 5.0000e-001 114543  1.0069e+001  1.4737e+001  3.4656e+000 19496 114416,114494,114442
 5.0000e-001 114520  4.6764e+000  1.5219e+001  4.7925e+000 19496 114390,114494,114416
 5.0000e-001 114767 -3.2393e+000  1.6819e+001 -3.8912e-001 19042 114790,114669,114643
 5.0000e-001 114744 -2.5713e+000  1.6761e+001 -4.1539e-001 19042 114790,114643,114591
 5.0000e-001 114721 -2.2493e+000  2.0467e+001 -1.7504e+000 19042 114591,114643,114617
 5.0000e-001 114816 -4.1263e+000  1.6866e+001 -3.8327e-001 19042 114695,114669,114790
 5.0000e-001 114839 -3.2183e+000  1.6983e+001 -2.5861e-001 19042 114695,114790,114591
 5.0000e-001 114991 -2.0590e+000  1.6726e+001  1.2035e+000 18488 114864,114916,114890
 5.0000e-001 114968 -1.5651e+000  2.1763e+001  5.0724e-001 18488 114864,114942,114916
 5.0000e-001 115192  5.1824e+000  1.5556e+001  2.2389e+000 18098 115215,115042,115016
 5.0000e-001 115169 -7.2593e-002  1.2198e+001  3.6771e+000 18098 115215,115016,115120
 5.0000e-001 115146  1.4600e+000  1.7142e+001 -3.1144e-001 18098 115287,115094,115068
 5.0000e-001 115241  9.5420e-001  1.4994e+001  5.5266e-001 18098 115068,115042,115215
 5.0000e-001 115264  1.0190e+000  1.6479e+001  4.4471e-001 18098 115287,115068,115215
 5.0000e-001 115313  7.2216e-002  1.7224e+001  8.8311e-001 18098 115120,115094,115287
 5.0000e-001 115336 -6.5963e-001  1.6528e+001  1.6245e+000 18098 115120,115287,115215
 5.0000e-001 115846 -1.8393e+000 -5.4881e-001 -1.0887e+000 17644 115653,115705,115679
 5.0000e-001 115823  6.2728e+000  2.7823e+000 -5.4560e+000 17644 115627,115705,115653
 5.0000e-001 115800  2.1665e+001 -1.9090e+000  9.5549e+000 17644 115549,115705,115627
 5.0000e-001 115777  3.4766e+001  1.1198e+000  1.0883e+000 17644 115549,115627,115575
 5.0000e-001 115754  4.4060e+001  2.0684e+000  3.1855e+000 17644 115523,115705,115549
 5.0000e-001 115731  3.9463e+001  9.3100e+000 -4.2077e+000 17644 115575,115627,115601
 5.0000e-001 116067 -1.7831e+001  7.7907e-001  6.8016e-001 17116 115891,115943,115917
 5.0000e-001 116044  1.2349e+001 -5.3122e+000 -3.1899e+000 17116 115891,115995,115943
 5.0000e-001 116021  3.2399e+001  1.4924e+000  7.3547e+000 17116 115943,115995,115969
 5.0000e-001 116288  5.8895e+000  6.7176e+000 -3.7467e-001 16704 116164,116216,116190
 5.0000e-001 116265  6.9781e+000  6.0989e+000  1.7858e-001 16704 116112,116216,116164
 5.0000e-001 116242  1.4316e+001  6.7537e+000  2.1414e+000 16704 116112,116164,116138
 5.0000e-001 116489 -3.3875e+001  2.7404e+000 -3.2555e-002 16434 116339,116417,116365
 5.0000e-001 116466 -2.6083e+001  6.0992e+000  3.8183e-001 16434 116313,116417,116339
 5.0000e-001 116443 -2.4649e+001 -3.7072e+000 -9.5083e+000 16434 116365,116417,116391
 5.0000e-001 116592  1.7140e+001  4.2926e+000  2.5545e+000 15967 116514,116566,116540
 5.0000e-001 116695  4.9625e+001 -4.9345e+001 -1.0400e+001 15552 116617,116669,116643
 5.0000e-001 116798 -3.2332e+000  1.5096e+001  0.0000e+000 421 116720,116772,116746
 6.0000e-001 69066 -6.9162e-002 -3.0938e-002  1.3765e-003 68738 68965,69017,68991
 6.0000e-001 69043  3.5027e-002 -1.3088e-002 -8.3637e-002 68738 68939,69017,68965
 6.0000e-001 69371 -4.2386e+000  9.8754e-001  3.5511e+000 68426 69172,69250,69198
 6.0000e-001 69348 -3.4592e-001  4.7997e+000  1.7594e+000 68426 69146,69250,69172
 6.0000e-001 69325 -2.4434e+000  5.9845e+000  6.9734e+000 68426 69198,69250,69224
 6.0000e-001 69302  1.1474e+000  5.1001e-001  1.0791e+000 68426 69146,69276,69250
 6.0000e-001 69521 -3.2028e+000 -1.5678e+001  2.8415e+000 68228 69420,69472,69446
 6.0000e-001 69498 -1.6208e+000 -1.2383e+001  4.0361e-001 68228 69394,69472,69420
 6.0000e-001 69781 -1.1277e+001  1.4013e+001  9.2227e+000 68030 69631,69683,69657
 6.0000e-001 69758  3.5727e+000 -2.1470e+001 -4.9495e+000 68030 69631,69709,69683
 6.0000e-001 69735 -2.3996e-002  8.1041e+000  1.6900e+001 68030 69605,69709,69631
 6.0000e-001 70078 -1.9347e+000  8.8556e+000 -9.0973e+000 67832 69882,69934,69908
 6.0000e-001 70055 -4.8910e+000 -1.0581e+001  1.9919e+000 67832 69856,69934,69882
 6.0000e-001 70032  1.3598e+000 -3.3986e+000 -2.4312e+000 67832 69830,69934,69856
 6.0000e-001 70009 -1.7226e+000 -1.1074e+001 -8.7739e+000 67832 69804,69934,69830
 6.0000e-001 69986  5.7434e+000 -3.5370e+000 -5.4021e+000 67832 69804,69960,69934
 6.0000e-001 70586  1.4879e+000 -1.2442e+000 -1.8880e+000 67634 70609,70419,70341
 6.0000e-001 70563  1.8186e+000 -3.4168e+000 -1.0688e+000 67634 70681,70609,70341
 6.0000e-001 70540  2.7108e+000 -3.5156e+000  1.0792e+000 67634 70681,70341,70315
 6.0000e-001 70517  2.7229e+000  4.2312e+000 -9.0240e-001 67634 70341,70419,70367
 6.0000e-001 70494  1.1417e+000  2.3445e-001 -4.4940e-001 67634 70263,70445,70289
 6.0000e-001 70471  7.7130e-001  2.7184e+000 -2.1796e-001 67634 70367,70419,70393
 6.0000e-001 70635  2.4133e+000  2.6589e+000 -1.8498e+000 67634 70445,70419,70609
 6.0000e-001 70658  3.0748e-001 -1.0486e+000 -8.7028e-001 67634 70445,70609,70289
 6.0000e-001 70707  3.4058e+000  9.0940e-002 -5.3396e-001 67634 70289,70609,70681
 6.0000e-001 70730  4.2453e+000 -7.1368e-001  1.7108e+000 67634 70289,70681,70315
 6.0000e-001 71108 -4.5913e+000  7.3254e+000 -5.9772e+000 67344 71131,70912,70886
 6.0000e-001 71085 -8.1699e+000 -1.5506e-002 -1.0406e+001 67344 71131,70886,70860
 6.0000e-001 71062 -3.6336e+000  6.5138e+000 -2.5963e+000 67344 71203,70938,70912
 6.0000e-001 71039  2.4694e+000  5.5045e+000 -2.9873e+000 67344 70834,70990,70860
 6.0000e-001 71016 -4.0878e-001  1.3697e+001 -3.4758e+000 67344 70938,70990,70964
 6.0000e-001 71157 -2.6387e+000  2.3616e+000 -3.8764e+000 67344 71203,70912,71131
 6.0000e-001 71180 -3.2610e+000  2.5333e-001 -5.2250e+000 67344 70990,71131,70860
 6.0000e-001 71229 -2.4243e+000  1.1586e+001 -1.2054e+000 67344 70990,70938,71203
 6.0000e-001 71252 -6.4049e-001  7.4199e+000 -1.7520e+000 67344 70990,71203,71131
 6.0000e-001 71603 -1.9501e+000  5.2120e+000 -3.2522e+000 67032 71378,71482,71404
 6.0000e-001 71580  1.0539e+000  5.8089e+000 -2.5414e+000 67032 71378,71508,71482
 6.0000e-001 71557 -1.5111e+000  2.9005e+000 -2.6645e+000 67032 71404,71456,71430
 6.0000e-001 71534 -9.1173e-001  1.1065e+001  1.3882e-002 67032 71404,71482,71456
 6.0000e-001 72003 -1.2643e+000  7.7225e+000 -6.1014e-001 66834 71755,71859,71781
 6.0000e-001 71980  1.2369e-001  1.2893e+001  3.3767e-001 66834 71755,71885,71859
 6.0000e-001 71957  4.1103e+000  1.0464e+001  3.9833e+000 66834 71781,71833,71807
 6.0000e-001 71934 -8.5072e-001  1.1655e+001  2.3392e+000 66834 71781,71859,71833
 6.0000e-001 71911 -1.3379e+000  6.5759e+000 -4.6006e+000 66834 71729,71885,71755
 6.0000e-001 72430  6.1910e-001  8.0206e+000  7.9489e-001 66266 72237,72289,72263
 6.0000e-001 72407 -2.1211e-001  6.3172e+000 -4.8571e-001 66266 72133,72289,72237
 6.0000e-001 72384  2.4847e+000  7.9177e+000 -1.2694e+000 66266 72133,72237,72211
 6.0000e-001 72361  1.5355e+000  5.5121e+000 -1.5020e+000 66266 72107,72289,72133
 6.0000e-001 72338  3.0843e+000  9.4428e+000 -1.9512e+000 66266 72133,72211,72185
 6.0000e-001 72315  9.6494e+000  8.3445e+000 -1.1068e+000 66266 72133,72185,72159
 6.0000e-001 72580  4.4897e+000  1.2502e+001 -3.4997e+000 65968 72479,72531,72505
 6.0000e-001 72557 -1.2957e+000  2.1888e+000 -1.0992e+000 65968 72453,72531,72479
 6.0000e-001 72960 -5.5913e+000  8.3567e+000  6.7931e-001 65621 72983,72738,72712
 6.0000e-001 72937 -5.3944e+000  7.7891e+000  6.3908e-001 65621 72983,72712,72686
 6.0000e-001 72914 -1.2221e+001  3.5618e+000  7.4257e+000 65621 72738,72842,72764
 6.0000e-001 72891 -1.6063e+000  6.1527e+000  1.0051e+001 65621 72764,72842,72816
 6.0000e-001 72868 -8.5870e+000 -5.3460e+000  1.3603e+001 65621 72764,72816,72790
 6.0000e-001 73009 -5.3462e+000  7.8653e+000  7.6409e-001 65621 72842,72738,72983
 6.0000e-001 73032 -5.5169e+000  6.8089e+000  7.4462e-001 65621 72842,72983,72686
 6.0000e-001 73361 -5.1603e+000 -2.6633e+000  2.2943e+000 65281 73456,73384,73188
 6.0000e-001 73338  6.7700e+000  1.0231e+000 -7.6140e-001 65281 73384,73162,73136
 6.0000e-001 73315 -2.8776e+000 -6.6308e-001 -8.7604e-001 65281 73188,73240,73214
 6.0000e-001 73292 -5.9297e+000  1.8834e+000 -3.5269e+000 65281 73136,73266,73240
 6.0000e-001 73410 -3.2765e+000  1.6413e+000  5.5384e-001 65281 73240,73188,73384
 6.0000e-001 73433 -1.5975e+000  1.7495e+000  1.1870e+000 65281 73240,73384,73136
 6.0000e-001 73482 -2.5183e+000 -1.9967e+000 -1.9734e+000 65281 73162,73384,73456
 6.0000e-001 73711  5.9102e+000  1.9169e+000 -9.1508e+000 64820 73734,73610,73584
 6.0000e-001 73688  1.0367e+001  1.1240e+001 -5.7062e+000 64820 73734,73584,73662
 6.0000e-001 73760  8.3747e+000  2.7944e+000 -1.0982e+001 64820 73636,73610,73734
 6.0000e-001 73783  2.3993e+000  4.1842e+000 -1.0430e+001 64820 73806,73734,73662
 6.0000e-001 73832  8.7356e+000  2.1812e+000 -1.0218e+001 64820 73636,73734,73806
 6.0000e-001 74112 -1.5555e+000  5.5028e+000  2.7195e+000 64622 74278,74135,73988
 6.0000e-001 74089 -2.5008e+000  3.8864e+000  1.4820e+000 64622 74135,73936,74040
 6.0000e-001 74066 -1.4996e+000  5.5194e+000  3.1410e+000 64622 74278,73988,73962
 6.0000e-001 74161  3.3064e+000  2.8058e+000  4.4390e+000 64622 74014,73988,74135
 6.0000e-001 74184  1.2850e+000  3.1620e+000  2.2811e+000 64622 74207,74135,74040
 6.0000e-001 74233 -1.2496e+000 -3.0819e+000  1.6037e+000 64622 74014,74135,74207
 6.0000e-001 74304 -1.2439e+000  6.2306e+000  2.7069e+000 64622 73936,74135,74278
 6.0000e-001 74327 -1.2564e+000  6.1052e+000  3.1560e+000 64622 73936,74278,73962
 6.0000e-001 74526 -1.9541e+000 -9.7321e+000  7.8062e+000 64424 74621,74549,74402
 6.0000e-001 74503 -6.2734e+000 -3.0346e+000  4.6345e+000 64424 74549,74350,74454
 6.0000e-001 74480 -2.1451e+000 -1.3794e+001  1.5156e+001 64424 74621,74402,74376
 6.0000e-001 74575  8.0640e+000 -7.3417e+000  6.1424e+000 64424 74428,74402,74549
 6.0000e-001 74598  1.5690e+000 -2.8950e+000  4.1491e+000 64424 74693,74549,74454
 6.0000e-001 74647  3.2046e+000  1.8058e+000  6.7328e+000 64424 74350,74549,74621
 6.0000e-001 74670  3.8181e+000 -1.4435e-002  1.4348e+001 64424 74350,74621,74376
 6.0000e-001 74719 -1.6784e+000 -1.0971e+001  3.7888e+000 64424 74428,74549,74693
 6.0000e-001 75123 -1.0580e+001 -3.8900e+000  2.2850e+000 64126 74875,74953,74927
 6.0000e-001 75100 -1.0897e+001 -7.0114e+000  1.0461e+000 64126 74875,74979,74953
 6.0000e-001 75077 -2.2878e+001 -6.0176e+000  1.7640e+000 64126 74875,75005,74979
 6.0000e-001 75054 -1.0148e+001 -3.8163e+000  2.5878e+000 64126 74875,74927,74901
 6.0000e-001 75031 -1.8118e+001  1.8416e+000  5.1806e+000 64126 74849,75005,74875
 6.0000e-001 75224 -2.9409e+000  1.8451e+001 -4.1666e+000 63836 75146,75198,75172
 6.0000e-001 75472  9.2634e+000  2.2650e+001 -3.7141e-001 63375 75273,75351,75325
 6.0000e-001 75449  1.0878e+001  2.2884e+001  1.6114e-001 63375 75273,75377,75351
 6.0000e-001 75426  1.4135e+001  1.9565e+001 -3.0322e+000 63375 75247,75377,75273
 6.0000e-001 75403  8.8365e+000  1.6520e+001 -1.2033e+000 63375 75273,75325,75299
 6.0000e-001 75673 -1.8556e+000  1.6043e+001 -1.1298e+000 63063 75523,75575,75549
 6.0000e-001 75650 -3.1025e+000  2.0117e+001  9.3830e-001 63063 75497,75575,75523
 6.0000e-001 75627 -1.6572e+000  2.1967e+001 -1.8241e+000 63063 75497,75601,75575
 6.0000e-001 75874 -4.5685e+000  7.8357e+000  8.6621e-001 62716 75897,75750,75724
 6.0000e-001 75851 -1.9086e+000  3.4783e+000 -2.6593e-001 62716 75897,75724,75698
 6.0000e-001 75828 -7.3879e+000 -4.1458e+000  5.0419e+000 62716 75698,75802,75776
 6.0000e-001 75923 -8.4417e+000  2.8347e+000  3.0232e+000 62716 75776,75750,75897
 6.0000e-001 75946 -2.9001e+000  1.2076e+000  3.9167e-001 62716 75776,75897,75698
 6.0000e-001 76328 -1.1523e+001  6.4978e+000  4.0756e+000 62198 76495,76351,76158
 6.0000e-001 76305 -7.3904e+000  3.0927e+000  7.3477e+000 62198 76351,76080,76054
 6.0000e-001 76282 -1.2274e+001  2.6365e+001  5.6674e+000 62198 76423,76184,76158
 6.0000e-001 76259 -8.0986e+000  4.5973e+000  2.7349e+000 62198 76495,76158,76106
 6.0000e-001 76236 -4.3219e+000  1.5239e+001 -2.3367e+000 62198 76106,76158,76132
 6.0000e-001 76377 -8.2630e+000  1.4043e+001  6.5081e+000 62198 76423,76158,76351
 6.0000e-001 76400 -4.4558e+000  7.6005e+000  1.0306e+001 62198 76210,76351,76054
 6.0000e-001 76449 -1.7458e+001  1.3985e+001  7.5732e+000 62198 76210,76184,76423
 6.0000e-001 76472 -1.2884e+001  4.2324e+000  9.5326e+000 62198 76210,76423,76351
 6.0000e-001 76521 -6.5903e+000  6.9259e+000  3.7115e+000 62198 76080,76351,76495
 6.0000e-001 76544 -4.9530e-001  7.2102e+000  1.7711e+000 62198 76080,76495,76106
 6.0000e-001 76841  1.5696e+001  1.6571e+001  6.4923e+000 61751 76936,76864,76645
 6.0000e-001 76818  1.6677e+001  1.8948e+001  6.2786e+000 61751 76864,76567,76723
 6.0000e-001 76795  1.4668e+001  1.5717e+001  7.0037e+000 61751 76936,76645,76593
 6.0000e-001 76772  2.9316e+001  1.9583e+001  6.9775e+000 61751 77008,76697,76671
 6.0000e-001 76749  1.1710e+001  1.3461e+001  8.2178e+000 61751 76593,76645,76619
 6.0000e-001 76890  1.6065e+001  1.6978e+001  8.2819e+000 61751 76671,76645,76864
 6.0000e-001 76913  2.0450e+001  1.8473e+001  8.5261e+000 61751 77008,76671,76864
 6.0000e-001 76962  1.3813e+001  1.7710e+001  6.8485e+000 61751 76567,76864,76936
 6.0000e-001 76985  1.3177e+001  1.7258e+001  7.2631e+000 61751 76567,76936,76593
 6.0000e-001 77034  1.7625e+001  1.4559e+001  7.3659e+000 61751 76723,76697,77008
 6.0000e-001 77057  1.5839e+001  1.7045e+001  8.2116e+000 61751 76723,77008,76864
 6.0000e-001 77207 -1.4333e+001  2.1879e+001 -4.8145e+000 61418 77106,77158,77132
 6.0000e-001 77184 -1.3778e+001  2.1368e+001 -4.6877e+000 61418 77080,77158,77106
 6.0000e-001 77638  3.5935e+000  1.5861e+001 -4.1150e+000 60814 77733,77661,77471
 6.0000e-001 77615 -1.8491e+000  1.0041e+001 -6.6261e+000 60814 77661,77393,77315
 6.0000e-001 77592  7.5686e+000  4.5714e+000 -9.1979e+000 60814 77733,77471,77445
 6.0000e-001 77569  1.6746e+001  1.0710e+000 -3.5484e+000 60814 77315,77367,77341
 6.0000e-001 77546  1.1721e+001  5.9417e+000 -1.5098e+001 60814 77315,77393,77367
 6.0000e-001 77523  1.6153e+001  4.6869e+000 -2.3534e+001 60814 77393,77445,77419
 6.0000e-001 77687  6.9129e+000  1.7021e+001  1.9963e+000 60814 77497,77471,77661
 6.0000e-001 77710  5.7686e+000  1.2915e+001 -7.1729e+000 60814 77497,77661,77315
 6.0000e-001 77759  1.4438e+000 -4.7855e-001 -2.5557e+000 60814 77393,77661,77733
 6.0000e-001 77782  6.4292e+000 -9.3776e+000 -9.3249e+000 60814 77393,77733,77445
 6.0000e-001 78337 -8.6447e+000  7.1685e+000 -1.7462e+000 60210 78360,78017,77965
 6.0000e-001 78314 -1.0063e+001  7.1630e+000 -9.2496e-001 60210 78360,77965,78173
 6.0000e-001 78291 -1.4754e+001  5.5235e+000  1.3231e-001 60210 78432,78043,78017
 6.0000e-001 78268 -1.0659e+001  1.8504e+001 -9.5601e+000 60210 77965,78017,77991
 6.0000e-001 78245 -2.3846e+001  8.9315e+000  5.3265e+000 60210 78043,78095,78069
 6.0000e-001 78222 -6.8441e+000  8.5492e+000  2.5401e+000 60210 78095,78173,78121
 6.0000e-001 78199 -3.4175e-001  1.0777e+001  2.8156e+000 60210 78121,78173,78147
 6.0000e-001 78386 -1.0419e+001  6.7643e+000 -1.9992e+000 60210 78432,78017,78360
 6.0000e-001 78409 -5.9027e+000  6.4291e+000  1.1455e+000 60210 78095,78360,78173
 6.0000e-001 78458 -1.4287e+001  2.9400e+000  4.6113e+000 60210 78095,78043,78432
 6.0000e-001 78481 -1.1627e+001  2.9644e+000  2.5979e+000 60210 78095,78432,78360
 6.0000e-001 78680 -6.6286e+000  2.0445e+001 -5.0416e+000 59848 78703,78556,78530
 6.0000e-001 78657 -8.1679e+000  1.8179e+001 -6.8036e+000 59848 78703,78530,78504
 6.0000e-001 78634 -6.0392e+000  1.3691e+001 -7.6689e+000 59848 78504,78608,78582
 6.0000e-001 78729 -2.9057e+000  1.6490e+001 -5.6945e+000 59848 78582,78556,78703
 6.0000e-001 78752 -5.8836e+000  1.4604e+001 -8.1447e+000 59848 78582,78703,78504
 6.0000e-001 78951  7.4021e+000  1.7014e+001  1.6378e+001 59344 78974,78801,78775
 6.0000e-001 78928  1.1268e+001  2.3044e+001  9.0576e+000 59344 79046,78974,78775
 6.0000e-001 78905  1.1681e+001  2.1406e+001  9.0550e+000 59344 79046,78775,78879
 6.0000e-001 79000  1.5173e+001  1.8518e+001  9.3075e+000 59344 78827,78801,78974
 6.0000e-001 79023  1.4485e+001  3.0558e+001  2.8172e+000 59344 78827,78974,78853
 6.0000e-001 79072  1.1453e+001  2.4872e+001  9.7090e+000 59344 78853,78974,79046
 6.0000e-001 79095  1.2388e+001  2.3823e+001  9.8326e+000 59344 78853,79046,78879
 6.0000e-001 79296 -4.4496e+000 -3.3551e+000 -9.5846e-001 58711 79319,79172,79146
 6.0000e-001 79273 -1.3121e+000 -5.3270e+000 -1.2627e+000 58711 79319,79146,79120
 6.0000e-001 79250 -3.3824e+000  2.8182e+000 -7.0027e+000 58711 79172,79224,79198
 6.0000e-001 79345 -5.9626e+000 -4.5743e+000 -3.8648e-001 58711 79224,79172,79319
 6.0000e-001 79368 -3.7235e+000 -7.2456e+000 -4.2451e-001 58711 79224,79319,79120
 6.0000e-001 79667  3.3968e+000  1.6256e+001  1.9208e+000 58285 79690,79471,79393
 6.0000e-001 79644  3.2466e+000  2.0360e+001  3.3445e+000 58285 79690,79393,79549
 6.0000e-001 79621  3.8432e+000  5.1345e+000  4.4776e+000 58285 79393,79471,79419
 6.0000e-001 79598 -1.3065e+000  1.4374e+001 -1.6093e+000 58285 79497,79549,79523
 6.0000e-001 79575  7.7898e+000  4.8608e+000  2.9885e+000 58285 79419,79471,79445
 6.0000e-001 79716  3.1333e+000  1.2317e+001 -3.9892e-001 58285 79497,79471,79690
 6.0000e-001 79739  3.4582e+000  1.8464e+001  3.8328e-001 58285 79497,79690,79549
 6.0000e-001 80249 -1.3306e+001 -1.0557e+001 -1.1903e+000 57831 80272,79978,79952
 6.0000e-001 80226 -1.4177e+001 -1.1006e+001 -1.0213e+000 57831 80272,79952,80108
 6.0000e-001 80203 -1.0597e+001 -1.0518e+001 -9.3481e-001 57831 79926,80108,79952
 6.0000e-001 80180 -1.2814e+001 -3.9455e+000  7.9938e-001 57831 80004,80082,80030
 6.0000e-001 80157 -1.6195e+001 -1.0137e+001 -5.0230e-001 57831 80004,80108,80082
 6.0000e-001 80134 -1.1441e+001 -4.0864e+000 -1.1814e+000 57831 80030,80082,80056
 6.0000e-001 80298 -1.3103e+001 -9.3004e+000 -2.5926e+000 57831 80004,79978,80272
 6.0000e-001 80321 -1.5056e+001 -1.0457e+001 -2.0991e+000 57831 80004,80272,80108
 6.0000e-001 80618 -2.1580e+001 -4.0019e+000  1.0005e+000 57077 80344,80448,80422
 6.0000e-001 80595 -8.2538e+000  1.7752e+000  1.1664e-001 57077 80344,80500,80448
 6.0000e-001 80572 -1.9457e+001 -2.1007e+000 -1.7242e+000 57077 80344,80422,80370
 6.0000e-001 80549 -1.6866e+001  9.7072e+000 -3.9707e+000 57077 80370,80422,80396
 6.0000e-001 80526 -2.1863e+000 -1.3582e+000 -1.6054e+000 57077 80448,80500,80474
 6.0000e-001 80768  1.6966e+000  1.6645e+001 -4.3778e+000 56787 80791,80693,80667
 6.0000e-001 80745  4.4634e+000  1.4658e+001 -7.7719e+000 56787 80791,80667,80641
 6.0000e-001 80817  1.2748e+000  1.5186e+001 -4.4226e+000 56787 80719,80693,80791
 6.0000e-001 80840 -1.0172e+000  7.5170e-001 -7.9226e+000 56787 80719,80791,80641
 6.0000e-001 81429  2.7108e+001  1.8749e+001 -7.6199e+000 56497 81452,81158,81132
 6.0000e-001 81406  9.7888e+000  4.0811e+000 -9.0282e-001 56497 81452,81132,81288
 6.0000e-001 81383  9.8677e+000  1.6577e+001 -2.8971e+000 56497 81524,81184,81158
 6.0000e-001 81360  7.0960e+000  2.2496e+001 -7.9096e+000 56497 81210,81288,81236
 6.0000e-001 81337  2.6439e+001  5.6259e+000 -7.5474e+000 56497 81106,81288,81132
 6.0000e-001 81314  3.0586e+001  1.5367e+001 -1.1139e+001 56497 81236,81288,81262
 6.0000e-001 81478  1.0451e+001  1.6643e+001 -2.7903e+000 56497 81524,81158,81452
 6.0000e-001 81501  4.9678e+000  1.4772e+001 -5.4234e-001 56497 81210,81452,81288
 6.0000e-001 81550  1.0011e+001  1.6463e+001 -2.0907e+000 56497 81210,81184,81524
 6.0000e-001 81573  1.0938e+001  1.6815e+001 -1.9346e+000 56497 81210,81524,81452
 6.0000e-001 81870  5.1908e+000  5.9193e+000  4.5177e-003 55979 81893,81674,81648
 6.0000e-001 81847  6.5194e+000  5.8376e+000 -1.9455e+000 55979 81893,81648,81752
 6.0000e-001 81824  1.2446e+001  1.2909e+000  2.8830e-001 55979 81596,81752,81648
 6.0000e-001 81801  4.3983e+000  1.9011e+001 -2.5027e+000 55979 81674,81726,81700
 6.0000e-001 81778  1.2160e+001  8.3659e-001 -5.4101e-001 55979 81596,81648,81622
 6.0000e-001 81919  4.2555e+000  4.6788e+000  6.0111e-001 55979 81726,81674,81893
 6.0000e-001 81942  5.5417e+000  4.1078e+000 -1.3124e+000 55979 81726,81893,81752
 6.0000e-001 82371 -1.3391e+001  1.3367e+000 -7.0415e+000 55631 82100,82204,82152
 6.0000e-001 82348 -1.6011e+001 -6.5815e+000 -1.0408e+001 55631 82100,82230,82204
 6.0000e-001 82325 -1.3712e+001  2.3105e+000 -9.5845e+000 55631 82100,82152,82126
 6.0000e-001 82302 -1.0349e+001  5.9016e+000 -1.2094e+001 55631 82074,82230,82100
 6.0000e-001 82279 -1.0539e+001  1.2444e+001 -1.1930e+000 55631 82152,82204,82178
 6.0000e-001 82256 -7.5612e+000 -7.8879e+000 -1.1041e+001 55631 82048,82230,82074
 6.0000e-001 82521 -1.9436e+000  3.7955e+000 -1.0219e+000 55227 82544,82420,82394
 6.0000e-001 82498 -1.4019e+000  3.4850e+000 -1.1433e+000 55227 82544,82394,82472
 6.0000e-001 82570 -1.4489e+000  3.5177e+000 -9.3804e-001 55227 82446,82420,82544
 6.0000e-001 82593 -2.7077e-001  3.6980e+000 -9.6102e-001 55227 82446,82544,82472
 6.0000e-001 82875 -8.0084e-001 -1.0116e+000 -1.5088e+000 54979 82699,82777,82725
 6.0000e-001 82852  8.3351e-001 -4.3858e+000 -1.7558e+000 54979 82699,82803,82777
 6.0000e-001 82829  3.2416e+000  1.5193e+000 -4.2641e-001 54979 82725,82777,82751
 6.0000e-001 83204  1.5135e+000  1.3133e+001  6.9986e+000 54475 83005,83083,83057
 6.0000e-001 83181 -5.8522e-001  4.6684e+000  1.3938e+001 54475 82979,83083,83005
 6.0000e-001 83158  9.5161e+000  2.0733e+001  2.9650e+000 54475 83005,83057,83031
 6.0000e-001 83135  1.2370e+001  3.5235e+001  6.1708e+000 54475 82979,83109,83083
 6.0000e-001 83582 -1.9842e+000  2.0559e+001  5.5936e+000 54071 83605,83438,83412
 6.0000e-001 83559 -5.8270e-002  2.2251e+001  3.4103e+000 54071 83749,83605,83412
 6.0000e-001 83536  1.9351e+000  1.6948e+001  3.7613e+000 54071 83677,83360,83334
 6.0000e-001 83513  9.4354e-001  2.3002e+001  3.0174e+000 54071 83749,83412,83677
 6.0000e-001 83490 -1.7764e+001  2.7003e+001  1.8666e+001 54071 83308,83464,83334
 6.0000e-001 83631  5.9284e+000  2.2839e+001  7.8389e+000 54071 83464,83438,83605
 6.0000e-001 83654  1.3981e+000  1.3229e+001  6.5599e+000 54071 83464,83605,83334
 6.0000e-001 83703 -9.7951e-001  2.0613e+001 -1.2298e+000 54071 83386,83360,83677
 6.0000e-001 83726  3.8497e+000  3.4796e+001 -3.3370e+000 54071 83386,83677,83412
 6.0000e-001 83775  3.2641e+000  1.9524e+001  2.4395e+000 54071 83334,83605,83749
 6.0000e-001 83798  4.7340e+000  2.0799e+001  1.8647e+000 54071 83334,83749,83677
 6.0000e-001 84068  2.0206e+000  1.7435e+000  9.7608e-001 53524 83869,83921,83895
 6.0000e-001 84045  2.2469e+000  4.0036e+000  2.9838e-001 53524 83869,83947,83921
 6.0000e-001 84022  5.1727e+000  8.2459e+000  1.7079e+000 53524 83843,83947,83869
 6.0000e-001 83999 -2.4356e+000  6.5897e+000  2.0494e+000 53524 83843,83973,83947
 6.0000e-001 84497 -1.7785e+001 -4.2093e+000 -4.0211e+000 53184 84200,84330,84252
 6.0000e-001 84474 -2.0727e+001 -5.7901e+000  1.0510e+000 53184 84200,84356,84330
 6.0000e-001 84451 -1.3775e+001  8.7294e-002 -2.2342e+000 53184 84200,84252,84226
 6.0000e-001 84428  4.0028e+000 -8.8975e-001  6.5232e-001 53184 84252,84330,84278
 6.0000e-001 84405 -1.1073e+001 -1.1938e-002 -2.9091e+000 53184 84174,84356,84200
 6.0000e-001 84382  8.6994e+000  2.6442e+000 -6.7898e+000 53184 84278,84330,84304
 6.0000e-001 84954 -4.6905e+000 -2.4925e+000  2.4366e+000 52680 84706,84836,84784
 6.0000e-001 84931 -5.4372e+000 -3.2785e+000  3.7928e+000 52680 84680,84836,84706
 6.0000e-001 84908 -3.6240e-001  2.2199e+000  4.2588e+000 52680 84784,84836,84810
 6.0000e-001 84885 -6.7558e+000 -2.9892e+000  4.0561e+000 52680 84706,84784,84732
 6.0000e-001 84862 -4.8056e+000 -1.3067e+000  2.9177e+000 52680 84732,84784,84758
 6.0000e-001 85202 -3.9784e+000 -3.4486e+000 -2.6637e+000 52226 85029,85081,85055
 6.0000e-001 85179 -1.5944e+001 -5.2547e+000 -4.8786e+000 52226 85225,85081,85029
 6.0000e-001 85156 -1.4716e+001 -2.1794e+000 -2.9895e+000 52226 85225,85029,85003
 6.0000e-001 85133 -1.4279e+001  1.4956e+001 -2.6336e+000 52226 84977,85107,85003
 6.0000e-001 85251 -1.7317e+001 -5.8536e+000 -7.9746e+000 52226 85107,85081,85225
 6.0000e-001 85274 -1.7613e+001  3.2047e-001 -6.5834e+000 52226 85107,85225,85003
 6.0000e-001 85522  3.4221e-001  9.5377e-001 -6.1895e-001 51764 85297,85349,85323
 6.0000e-001 85499 -5.3266e-001  1.5910e+000 -1.1529e+000 51764 85545,85297,85427
 6.0000e-001 85476 -2.9261e-001  2.6202e-001 -9.9836e-001 51764 85545,85427,85375
 6.0000e-001 85453 -7.4540e-001  2.7803e-001 -4.5319e-001 51764 85375,85427,85401
 6.0000e-001 85571 -1.6721e-001  7.7988e-001 -3.5369e-001 51764 85349,85297,85545
 6.0000e-001 85594 -3.3938e-001 -1.0518e+000 -1.6840e-001 51764 85349,85545,85375
 6.0000e-001 85746  2.7974e-001  3.3973e+000 -3.0922e+000 51374 85645,85697,85671
 6.0000e-001 85723  1.8000e+000  3.2445e-001 -9.5983e-002 51374 85619,85697,85645
 6.0000e-001 86256  9.4186e+000  2.0396e+000  2.9345e+000 50970 86279,86011,85959
 6.0000e-001 86233  1.0084e+001  4.3634e+000  2.2898e+000 50970 86279,85959,86115
 6.0000e-001 86210  1.0496e+001  4.8196e+000  3.7154e+000 50970 85959,86011,85985
 6.0000e-001 86187  1.1878e+001  2.0290e+000 -1.1293e+000 50970 86037,86115,86089
 6.0000e-001 86164  1.9897e+001  8.5367e+000  2.1292e+000 50970 85933,86115,85959
 6.0000e-001 86141  5.3970e+000  2.5961e+000 -3.8149e+000 50970 86037,86089,86063
 6.0000e-001 86305  1.0844e+001 -8.6547e-001  2.9417e+000 50970 86037,86011,86279
 6.0000e-001 86328  1.1706e+001  1.6833e+000  2.2392e+000 50970 86037,86279,86115
 6.0000e-001 86478 -6.1385e+000  8.7009e-001  4.4550e+000 50451 86351,86403,86377
 6.0000e-001 86455 -1.6455e+000 -1.3619e+001 -1.5930e+000 50451 86351,86429,86403
 6.0000e-001 86907 -3.4714e+000  2.0354e-001 -5.6837e+000 50047 86930,86714,86662
 6.0000e-001 86884 -7.6009e-001  3.6855e+000 -4.4571e+000 50047 86930,86662,86610
 6.0000e-001 86861  8.5504e+000  2.1372e+001 -1.2208e+001 50047 87002,86740,86714
 6.0000e-001 86838  1.1306e+001  7.9410e+000 -1.7979e+001 50047 86662,86714,86688
 6.0000e-001 86815 -3.8636e+000 -1.4934e-001 -6.9450e-001 50047 86610,86662,86636
 6.0000e-001 86792  8.8024e-001  2.7041e+000  2.1661e-001 50047 86584,86766,86610
 6.0000e-001 86956 -1.3961e+000  7.1805e+000 -7.7679e+000 50047 87002,86714,86930
 6.0000e-001 86979 -4.6038e+000 -1.0814e-001 -2.9143e+000 50047 86766,86930,86610
 6.0000e-001 87028 -9.9780e-001  4.6873e+000 -5.5022e+000 50047 86766,86740,87002
 6.0000e-001 87051 -3.4958e+000  3.7633e+000 -3.3871e+000 50047 86766,87002,86930
 6.0000e-001 87250  6.4340e+000  9.5899e+000 -1.3190e+001 49543 87273,87126,87100
 6.0000e-001 87227  1.2731e+001  6.0582e+000 -1.6889e+001 49543 87273,87100,87074
 6.0000e-001 87204 -2.2503e+000  2.1600e+000 -7.2998e+000 49543 87126,87178,87152
 6.0000e-001 87299 -1.9502e+000  2.9230e+000 -7.1655e+000 49543 87178,87126,87273
 6.0000e-001 87322  8.6940e+000  5.3994e+000 -1.2094e+001 49543 87178,87273,87074
 6.0000e-001 87570 -2.5057e+001 -1.2192e+000 -5.5538e+000 49146 87593,87449,87397
 6.0000e-001 87547 -2.4611e+001 -3.5527e+000 -1.2151e+001 49146 87593,87397,87371
 6.0000e-001 87524 -1.1161e+001 -5.1610e-001 -8.2537e+000 49146 87345,87475,87371
 6.0000e-001 87501 -2.2578e+001  7.6478e+000 -2.4333e+000 49146 87397,87449,87423
 6.0000e-001 87619 -1.6841e+001  5.4432e-001 -3.2902e+000 49146 87475,87449,87593
 6.0000e-001 87642 -1.9699e+001 -1.7346e+000 -9.4785e+000 49146 87475,87593,87371
 6.0000e-001 88073 -1.4296e+001  4.7183e+000  1.0295e+001 48706 87854,87932,87880
 6.0000e-001 88050 -3.7417e+000  2.3396e+001  6.0353e+000 48706 87828,87932,87854
 6.0000e-001 88027 -4.1656e+000  1.3678e+001  6.7533e+000 48706 87750,87932,87828
 6.0000e-001 88004 -1.8476e+001 -7.4800e+000  1.3733e+000 48706 87750,87802,87776
 6.0000e-001 87981  5.3935e-001  2.9636e+001  8.4531e+000 48706 87750,87828,87802
 6.0000e-001 87958 -3.1414e+000  7.7594e+000  1.2534e+001 48706 87880,87932,87906
 6.0000e-001 88402  2.2269e+000  2.9333e+001  1.9589e+000 48145 88203,88281,88255
 6.0000e-001 88379  3.2404e+000  3.1256e+001  7.3513e+000 48145 88203,88307,88281
 6.0000e-001 88356 -6.8849e+000  2.5736e+001  4.7145e+000 48145 88203,88255,88229
 6.0000e-001 88333 -5.3117e+000  2.1622e+001  9.3857e-001 48145 88177,88307,88203
 6.0000e-001 88601  2.3700e+001  8.2960e+000  1.3434e+001 47805 88696,88624,88477
 6.0000e-001 88578  1.7960e+001  2.8471e+001  1.7145e+001 47805 88826,88624,88451
 6.0000e-001 88555  1.2572e+001  2.5187e+001  1.4922e+001 47805 88826,88451,88425
 6.0000e-001 88650  2.9064e+001  2.2343e+001  6.5107e+000 47805 88503,88477,88624
 6.0000e-001 88673  1.0877e+001  1.6927e+001  6.9311e+000 47805 88503,88624,88529
 6.0000e-001 88722  3.4872e+001  2.5243e+001  2.0192e+001 47805 88451,88624,88696
 6.0000e-001 88852  1.9238e+001  2.4119e+001  1.0074e+001 47805 88529,88624,88826
 6.0000e-001 88875  1.3507e+001  2.0924e+001  7.8528e+000 47805 88529,88826,88425
 6.0000e-001 89172 -7.0137e+000 -4.4031e-001 -5.6226e+000 47401 89195,88976,88898
 6.0000e-001 89149 -4.4604e+000  6.9183e-001 -5.9178e+000 47401 89195,88898,89054
 6.0000e-001 89126 -9.1055e+000 -1.6455e+000 -5.0325e+000 47401 88898,88976,88950
 6.0000e-001 89103 -5.7529e+000  2.9965e+000 -2.8429e-001 47401 88976,89028,89002
 6.0000e-001 89080 -6.4733e+000  7.6267e+000  1.0456e+000 47401 88898,88950,88924
 6.0000e-001 89221 -9.2387e+000 -1.7563e+000 -1.8162e+000 47401 89028,88976,89195
 6.0000e-001 89244 -2.9878e+000  1.0207e+000 -2.3158e+000 47401 89028,89195,89054
 6.0000e-001 89575  1.8991e+001  2.5757e+001  4.0594e+000 47111 89350,89454,89376
 6.0000e-001 89552  2.0798e+001  3.0402e+001  1.7212e+000 47111 89350,89480,89454
 6.0000e-001 89529  2.2086e+001  1.9466e+001 -2.4752e+000 47111 89376,89454,89402
 6.0000e-001 89506  2.2909e+001  2.2283e+001 -3.3867e+000 47111 89402,89454,89428
 6.0000e-001 89904  2.1961e+001  2.8726e+001  3.0104e+000 46707 89705,89757,89731
 6.0000e-001 89881  2.2706e+001  3.0824e+001  1.8197e+000 46707 89705,89783,89757
 6.0000e-001 89858  1.9705e+001  2.8861e+001 -1.1334e-001 46707 89679,89783,89705
 6.0000e-001 89835  2.4164e+001  2.0807e+001 -3.0212e+000 46707 89679,89809,89783
 6.0000e-001 90233  6.3909e+000  2.4208e+001  4.2650e-001 46360 90034,90112,90086
 6.0000e-001 90210 -8.0636e+000  9.8635e+000 -8.1825e+000 46360 90034,90138,90112
 6.0000e-001 90187 -1.9458e+001  3.2411e+001  2.0553e+000 46360 90034,90086,90060
 6.0000e-001 90164 -5.2114e+000  1.9054e+001 -8.9906e+000 46360 90008,90138,90034
 6.0000e-001 90530 -6.2130e+000  5.8338e+000 -1.8385e+000 45662 90256,90360,90308
 6.0000e-001 90507 -4.8155e-001  8.0270e+000 -2.4797e+000 45662 90256,90412,90360
 6.0000e-001 90484  3.9062e+000  9.6357e+000 -7.4925e+000 45662 90256,90308,90282
 6.0000e-001 90461 -3.8314e+000  5.4974e+000  1.4081e+000 45662 90360,90412,90386
 6.0000e-001 90438 -1.0792e+000  7.1520e+000 -1.4857e+000 45662 90308,90360,90334
 6.0000e-001 90910 -2.6725e-001  2.0616e+001  3.0116e+000 45108 90688,90766,90714
 6.0000e-001 90887  4.7176e+000  1.5169e+001  8.0871e+000 45108 90662,90766,90688
 6.0000e-001 90864 -1.5311e+001  6.9288e+000  4.7513e+000 45108 90636,90766,90662
 6.0000e-001 90841  2.7040e+001  1.5202e+001 -1.5057e+001 45108 90714,90766,90740
 6.0000e-001 90818 -6.5764e+000  9.5783e+000  3.7677e+000 45108 90636,90792,90766
 6.0000e-001 91158 -2.2484e+001  1.3793e+001  5.6691e+000 44604 91181,91011,90959
 6.0000e-001 91135 -3.4114e+001  1.4974e+001  1.0331e+001 44604 91181,90959,90933
 6.0000e-001 91112 -1.2143e+001  1.9126e+001  3.6061e+000 44604 90959,91011,90985
 6.0000e-001 91089 -2.5166e+001  2.7141e+001  3.0608e-001 44604 90933,91063,91037
 6.0000e-001 91207 -1.7904e+001  1.5031e+001  2.8984e+000 44604 91037,91011,91181
 6.0000e-001 91230 -2.4144e+001  2.6068e+001  4.4712e+000 44604 91037,91181,90933
 6.0000e-001 91429 -1.7926e+000  2.1767e+001 -5.2399e-001 44264 91452,91279,91253
 6.0000e-001 91406 -1.2781e-001  2.6826e+001 -1.2881e+000 44264 91452,91253,91357
 6.0000e-001 91383 -3.3653e+000  1.6127e+001  4.2385e-001 44264 91279,91331,91305
 6.0000e-001 91478  5.5650e-001  1.7187e+001 -1.7838e-002 44264 91331,91279,91452
 6.0000e-001 91501  1.9696e+000  2.1246e+001 -1.4264e+000 44264 91331,91452,91357
 6.0000e-001 92060 -9.3173e+000 -2.8215e+000  2.0618e+000 43860 92083,91740,91688
 6.0000e-001 92037 -2.3078e+001 -5.7678e+000  9.1887e-001 43860 92083,91688,91896
 6.0000e-001 92014 -1.6233e+001 -6.0773e+000 -4.4990e+000 43860 91766,91870,91844
 6.0000e-001 91991 -1.9951e+001 -1.1156e+000 -6.9236e+000 43860 91740,91870,91766
 6.0000e-001 91968  1.1228e+000  3.6173e+000 -6.1212e-001 43860 91766,91844,91792
 6.0000e-001 91945 -6.2296e+000 -1.4717e+000 -7.4548e-001 43860 91688,91740,91714
 6.0000e-001 91922 -3.3472e+000 -4.7661e+000 -3.3432e+000 43860 91792,91844,91818
 6.0000e-001 92109 -2.1765e+001  9.0504e-001 -5.1595e+000 43860 91870,91740,92083
 6.0000e-001 92132 -3.5381e+001 -2.6544e+000 -7.0879e+000 43860 91870,92083,91896
 6.0000e-001 92353 -4.6393e+000  1.3025e+001 -1.0647e+000 43662 92203,92255,92229
 6.0000e-001 92330 -6.5381e+000  1.0223e+001 -1.1369e+000 43662 92376,92203,92281
 6.0000e-001 92307 -1.6668e+001  3.8980e+000 -5.5136e+000 43662 92177,92281,92203
 6.0000e-001 92402 -3.9375e+000  1.1343e+001 -9.3284e-001 43662 92255,92203,92376
 6.0000e-001 92682 -4.6772e+000  1.5697e+001 -1.2891e+000 43464 92532,92584,92558
 6.0000e-001 92659 -9.4517e+000  1.3427e+001 -2.3882e+000 43464 92506,92584,92532
 6.0000e-001 92636  4.4996e+000  2.0736e+001 -5.1070e+000 43464 92506,92610,92584
 6.0000e-001 93013 -8.7940e+000  1.3742e+001 -1.1949e+001 42960 92866,92918,92892
 6.0000e-001 92990 -1.5695e+001  1.8092e+001 -4.7230e+000 42960 93036,92918,92866
 6.0000e-001 92967 -1.3560e+001  1.9122e+001 -5.1245e+000 42960 93036,92866,92840
 6.0000e-001 92944 -1.0227e+001  1.4997e+001 -2.1982e+000 42960 92788,92918,92814
 6.0000e-001 93062 -1.4290e+001  1.4546e+001 -2.4982e+000 42960 92814,92918,93036
 6.0000e-001 93085 -8.0592e+000  1.7792e+001 -3.6675e+000 42960 92814,93036,92840
 6.0000e-001 93186 -1.2629e+000  1.2529e+001 -3.0934e-001 42556 93108,93160,93134
 6.0000e-001 93554 -5.4639e+000  1.7273e+001 -2.7381e+000 42052 93231,93387,93361
 6.0000e-001 93531 -9.3629e-001  1.7498e+001 -5.4989e+000 42052 93231,93413,93387
 6.0000e-001 93508 -3.9205e+000  1.6089e+001 -2.8828e+000 42052 93231,93361,93257
 6.0000e-001 93485 -8.0629e+000  8.5544e+000  1.0820e+000 42052 93283,93361,93335
 6.0000e-001 93462 -1.5277e+001  1.1743e+001 -3.4339e+000 42052 93257,93361,93283
 6.0000e-001 93439 -1.2698e+001  5.5712e+000  6.1297e+000 42052 93283,93335,93309
 6.0000e-001 94162 -8.4439e+000  1.3848e+001  9.3794e+000 41498 93767,93975,93793
 6.0000e-001 94139 -1.0842e+001  1.1327e+001  1.3922e-001 41498 93741,93975,93767
 6.0000e-001 94116 -7.7436e+000  9.2303e+000  8.0688e+000 41498 93793,93975,93923
 6.0000e-001 94093 -3.0329e+000  2.0359e+001  4.9656e+000 41498 93923,93975,93949
 6.0000e-001 94070 -8.5941e-001  4.5042e+000  1.0516e+001 41498 93871,93923,93897
 6.0000e-001 94047 -1.0696e+001  8.1702e+000  8.1352e+000 41498 93793,93923,93871
 6.0000e-001 94024  2.3495e+000  9.8118e+000  7.8467e+000 41498 93819,93871,93845
 6.0000e-001 94001 -1.1504e+001  4.3312e+000  8.1334e+000 41498 93793,93871,93819
 6.0000e-001 94619  1.8799e+001  7.3910e+000 -5.8065e+000 40930 94642,94423,94371
 6.0000e-001 94596  2.1795e+001  6.8690e+000 -1.1333e+000 40930 94642,94371,94345
 6.0000e-001 94573  2.5105e+001  2.5412e+001 -9.9772e-001 40930 94345,94501,94475
 6.0000e-001 94550  2.7734e+001  9.3120e+000 -8.8797e+000 40930 94371,94423,94397
 6.0000e-001 94527  2.4972e+001  1.5411e+001 -5.5846e+000 40930 94423,94475,94449
 6.0000e-001 94668  2.2295e+001  1.5176e+001 -5.0974e+000 40930 94475,94423,94642
 6.0000e-001 94691  2.3172e+001  1.0084e+001 -1.0570e+000 40930 94475,94642,94345
 6.0000e-001 95148 -1.1425e+001  3.0130e-001 -9.3632e+000 40362 95171,94952,94926
 6.0000e-001 95125 -9.6934e+000  3.3087e+000 -1.3640e-001 40362 95171,94926,95004
 6.0000e-001 95102 -1.0194e+001 -8.1414e-001 -1.4995e+000 40362 94874,95004,94926
 6.0000e-001 95079 -1.2557e+001 -1.0589e+000 -2.5784e+000 40362 94874,95030,95004
 6.0000e-001 95056 -7.9757e+000  3.0033e+000 -2.9961e+000 40362 94874,94926,94900
 6.0000e-001 95197 -8.0754e+000  9.3181e+000 -8.3803e+000 40362 94978,94952,95171
 6.0000e-001 95220 -6.4634e+000  1.1839e+001  5.4292e-001 40362 94978,95171,95004
 6.0000e-001 95549 -1.4579e+000  1.4295e+001 -1.8240e+000 39586 95350,95402,95376
 6.0000e-001 95526 -4.0941e+000  1.2752e+001 -1.1799e+000 39586 95324,95402,95350
 6.0000e-001 95503 -2.0706e+000  1.8170e+001 -1.0763e+000 39586 95324,95454,95402
 6.0000e-001 95480  2.6680e+000  2.8782e+001  9.1080e-001 39586 95402,95454,95428
 6.0000e-001 96055 -7.3288e+000  7.8926e+000  2.9965e+000 38968 96078,95862,95810
 6.0000e-001 96032 -5.0997e+000  9.2425e+000  3.8896e+000 38968 96078,95810,95758
 6.0000e-001 96009 -9.7493e+000  1.4590e+001  5.8400e+000 38968 96150,95732,95888
 6.0000e-001 95986 -5.1606e+000  9.3540e+000  3.8656e+000 38968 95810,95862,95836
 6.0000e-001 95963 -1.4597e+001  1.6658e+001  3.3860e-001 38968 95732,95914,95888
 6.0000e-001 95940 -1.6413e+000  1.2566e+001  1.6136e+000 38968 95758,95810,95784
 6.0000e-001 96104 -6.3142e+000  9.9815e+000  1.6384e+000 38968 95888,95862,96078
 6.0000e-001 96127 -6.4798e+000  1.3244e+001  2.4088e+000 38968 96150,95888,96078
 6.0000e-001 96176 -1.4199e+001  8.8702e+000  7.9272e+000 38968 95758,95732,96150
 6.0000e-001 96199 -1.0988e+001  6.5060e+000  4.6049e+000 38968 95758,96150,96078
 6.0000e-001 96545  3.2111e-001  4.2624e+000  9.9877e+000 38507 96640,96568,96352
 6.0000e-001 96522 -6.0390e+000 -1.9764e+000  1.4398e+001 38507 96568,96300,96222
 6.0000e-001 96499  3.2910e+000  7.6759e+000  4.9227e+000 38507 96640,96352,96326
 6.0000e-001 96476  5.5875e+000 -9.9859e-002  1.9020e+000 38507 96352,96404,96378
 6.0000e-001 96453 -4.3867e+000  4.7994e+000  1.4345e+001 38507 96222,96300,96248
 6.0000e-001 96430  6.6798e+000  8.8578e-001  2.4087e+000 38507 96248,96300,96274
 6.0000e-001 96594 -2.9141e+000 -1.6498e-001  1.1720e+001 38507 96404,96352,96568
 6.0000e-001 96617 -1.8060e+000  1.6411e+000  1.2187e+001 38507 96404,96568,96222
 6.0000e-001 96666 -3.1976e+000 -3.0640e+000  1.3077e+001 38507 96300,96568,96640
 6.0000e-001 96689 -2.3824e+000 -7.4024e-001  8.5012e+000 38507 96300,96640,96326
 6.0000e-001 97069 -2.5698e+001 -5.5393e+000 -5.4432e+000 37760 97092,96873,96821
 6.0000e-001 97046 -2.4424e+001 -5.4490e+000 -7.9669e-001 37760 97092,96821,96795
 6.0000e-001 97023 -1.1502e+001 -9.4325e+000 -6.1403e+000 37760 96821,96873,96847
 6.0000e-001 97000 -4.7363e+001  1.0767e+001 -1.5166e+001 37760 96873,96925,96899
 6.0000e-001 96977 -1.5532e+001  9.2661e+000 -1.9495e+000 37760 96795,96951,96925
 6.0000e-001 97118 -2.4297e+001 -1.4532e+000 -4.4590e+000 37760 96925,96873,97092
 6.0000e-001 97141 -2.1668e+001 -9.9419e-001  6.0711e-001 37760 96925,97092,96795
 6.0000e-001 97647  9.7087e+000  7.9059e-001  1.7031e+000 37356 97324,97480,97376
 6.0000e-001 97624  2.2989e+001  3.1392e+000  6.6008e+000 37356 97324,97506,97480
 6.0000e-001 97601  1.8225e+001  9.9836e+000  5.2360e+000 37356 97376,97480,97454
 6.0000e-001 97578  7.4017e+000  8.5011e-001  3.7533e+000 37356 97324,97376,97350
 6.0000e-001 97555  1.2687e+001  7.8108e+000  5.3513e+000 37356 97376,97454,97402
 6.0000e-001 97532  2.5683e+001  1.5803e+001  9.9963e+000 37356 97402,97454,97428
 6.0000e-001 98232  1.3542e+001  1.0840e+001 -1.1527e+001 36902 97935,98065,98013
 6.0000e-001 98209  1.7774e+001  1.4364e+001 -9.4397e+000 36902 97935,98091,98065
 6.0000e-001 98186  2.2112e+001  1.9010e+001 -1.5730e+001 36902 97935,98013,97987
 6.0000e-001 98163  2.1048e+001  1.7193e+001 -8.0669e+000 36902 97909,98091,97935
 6.0000e-001 98140  3.0724e+001  1.6319e+001 -2.4590e+001 36902 97935,97987,97961
 6.0000e-001 98117  1.9130e+001  2.0930e+001 -8.1292e+000 36902 98013,98065,98039
 6.0000e-001 98659  3.5249e+000  1.4571e+001  1.5047e+001 36604 98682,98414,98388
 6.0000e-001 98636 -6.9751e+000  7.1941e+000  2.3067e+000 36604 98682,98388,98336
 6.0000e-001 98613 -8.2079e+000 -9.5852e-001 -8.0626e-001 36604 98754,98518,98466
 6.0000e-001 98590 -6.3245e+000 -7.6838e+000  6.4860e+000 36604 98414,98466,98440
 6.0000e-001 98567 -6.8768e+000  2.5640e+000  1.9690e+000 36604 98336,98388,98362
 6.0000e-001 98544 -7.5726e+000 -1.2106e+000  9.0349e-001 36604 98466,98518,98492
 6.0000e-001 98708 -4.8687e+000  9.2333e-002  8.3804e+000 36604 98466,98414,98682
 6.0000e-001 98731 -7.5375e+000  2.5356e+000 -1.3713e+000 36604 98754,98466,98682
 6.0000e-001 98780 -6.6508e+000 -3.3897e+000 -1.1331e+000 36604 98336,98518,98754
 6.0000e-001 98803 -7.0622e+000 -1.3994e+000 -1.9928e+000 36604 98336,98754,98682
 6.0000e-001 99309 -8.7060e+000  3.4674e+000  2.3663e-001 36200 99332,99116,99012
 6.0000e-001 99286 -8.8008e+000 -1.9343e+000  2.7904e+000 36200 99332,99012,98986
 6.0000e-001 99263 -5.9403e+000  8.3568e-001 -2.8533e+000 36200 99012,99116,99064
 6.0000e-001 99240 -3.7114e+000  1.6345e+001  1.3289e+000 36200 98986,99168,99142
 6.0000e-001 99217 -2.3200e+001  6.3474e+000 -6.2493e+000 36200 99064,99116,99090
 6.0000e-001 99194 -5.2982e+000  9.9329e-001 -2.4153e+000 36200 99012,99064,99038
 6.0000e-001 99358 -8.1159e+000  7.1072e+000 -1.2108e+000 36200 99142,99116,99332
 6.0000e-001 99381 -7.6551e+000  3.6960e+000  1.8767e+000 36200 99142,99332,98986
 6.0000e-001 99887 -7.6820e+000 -6.4020e+000  5.9157e+000 35488 99564,99720,99590
 6.0000e-001 99864  5.6622e-002  9.7805e+000  1.0895e+001 35488 99564,99746,99720
 6.0000e-001 99841 -5.5267e+000 -1.5600e+000 -6.0753e+000 35488 99642,99694,99668
 6.0000e-001 99818 -9.8774e-001 -3.8522e+000  4.9926e-001 35488 99590,99694,99642
 6.0000e-001 99795 -2.8019e+000  7.0853e-001  1.7978e+000 35488 99590,99720,99694
 6.0000e-001 99772 -7.2993e+000 -7.1643e+000 -1.7157e+000 35488 99590,99642,99616
 6.0000e-001 99988 -4.6782e+000  1.8958e+001 -3.0512e+000 35198 99910,99962,99936
 6.0000e-001 100138 -1.0130e+001  1.3709e+001  8.8921e+000 34794 100233,100161,100063
 6.0000e-001 100115 -2.5682e+001  4.8433e+000  9.9946e+000 34794 100365,100161,100037
 6.0000e-001 100187  9.1362e+000  3.7147e+000  7.8970e+000 34794 100089,100063,100161
 6.0000e-001 100210 -1.0476e+001  3.9518e+000  1.0657e+001 34794 100089,100161,100011
 6.0000e-001 100259 -1.4057e+001  4.9932e+000  7.9558e+000 34794 100037,100161,100233
 6.0000e-001 100391 -1.7887e+001 -8.5117e+000  1.6888e+001 34794 100011,100161,100365
 6.0000e-001 100927 -6.3766e+000  2.2451e+000  3.9094e+000 34404 100679,100809,100783
 6.0000e-001 100904  5.2494e+000  1.1076e+001  7.8098e+000 34404 100653,100809,100679
 6.0000e-001 100881 -2.3092e+000  3.3409e+000  1.0423e+000 34404 100705,100783,100731
 6.0000e-001 100858 -2.6783e+000  4.7713e+000  1.8510e+000 34404 100679,100783,100705
 6.0000e-001 100835  2.1044e+000  8.8198e+000  4.1389e+000 34404 100731,100783,100757
 6.0000e-001 101354  1.2046e+001  1.4107e+001  2.5431e+000 34000 101377,101109,101057
 6.0000e-001 101331  1.0484e+001  1.3732e+001  2.6924e+000 34000 101449,101377,101057
 6.0000e-001 101308  9.6701e+000  9.9612e+000  2.0177e+000 34000 101449,101057,101031
 6.0000e-001 101285  1.1687e+001  6.4992e+000  7.7169e+000 34000 101031,101213,101187
 6.0000e-001 101262  1.4148e+001  3.1077e+000  2.3696e+000 34000 101135,101187,101161
 6.0000e-001 101239  7.5331e+000  7.5869e+000  4.8468e+000 34000 101057,101109,101083
 6.0000e-001 101403  1.1041e+001  1.3537e+001  1.3654e+000 34000 101135,101109,101377
 6.0000e-001 101426  1.3567e+001  1.3951e+001  4.1879e+000 34000 101135,101377,101187
 6.0000e-001 101475  1.0943e+001  8.1515e+000  3.2567e+000 34000 101187,101377,101449
 6.0000e-001 101498  1.1608e+001  6.3318e+000  2.5082e+000 34000 101187,101449,101031
 6.0000e-001 102083 -9.6111e+000  4.0632e+000 -1.8090e-001 33472 102106,101812,101786
 6.0000e-001 102060 -6.7555e+000  4.0145e+000  1.7338e+000 33472 102106,101786,101916
 6.0000e-001 102037 -5.6206e+000  4.9159e+000 -2.1625e-001 33472 101812,101864,101838
 6.0000e-001 102014 -9.4492e+000  1.1958e+001  2.9332e+000 33472 101864,101916,101890
 6.0000e-001 101991 -1.1194e+000  9.6946e+000  3.9973e+000 33472 101786,101942,101916
 6.0000e-001 101968  2.3684e+000  1.1260e+001 -2.6316e+000 33472 101760,101942,101786
 6.0000e-001 102132 -7.4666e+000  5.9215e+000  9.1483e-001 33472 101864,101812,102106
 6.0000e-001 102155 -5.9545e+000  5.3893e+000  2.7730e+000 33472 101864,102106,101916
 6.0000e-001 102612  1.2943e+001  2.2926e+001  1.8111e-001 33038 102635,102468,102390
 6.0000e-001 102589  9.4289e+000  1.2349e+001  1.1033e+000 33038 102635,102390,102364
 6.0000e-001 102566  1.5778e+001  1.6814e+001 -1.7473e+000 33038 102390,102468,102442
 6.0000e-001 102543  4.2479e+000  3.2511e+000  7.3068e+000 33038 102338,102494,102364
 6.0000e-001 102520  1.1665e+001  1.5201e+001 -1.6901e+000 33038 102390,102442,102416
 6.0000e-001 102661  1.0738e+001  2.4937e+001  7.1983e+000 33038 102494,102468,102635
 6.0000e-001 102684  6.9006e+000  1.6902e+001  8.8149e+000 33038 102494,102635,102364
 6.0000e-001 103318  6.5922e-001  8.1212e+000  1.3342e+000 32402 102972,103128,103076
 6.0000e-001 103295  3.2004e+000  1.1951e+001  2.8541e+000 32402 102946,103128,102972
 6.0000e-001 103272  6.3027e+000  1.9950e+001  4.0747e+000 32402 103076,103128,103102
 6.0000e-001 103249  2.9121e+000  1.1710e+001  1.2037e+000 32402 102946,103154,103128
 6.0000e-001 103226  8.5344e-001  8.3266e+000  1.2029e+000 32402 102972,103076,102998
 6.0000e-001 103203 -1.0205e+001  7.9024e+000  2.7899e+000 32402 102998,103076,103050
 6.0000e-001 103180 -4.2637e+000  2.3182e+001 -2.5496e+000 32402 102998,103050,103024
 6.0000e-001 103696  1.1237e+001  1.6153e+001 -2.1853e+000 31924 103448,103526,103500
 6.0000e-001 103673 -6.7929e+000  7.4466e+000 -6.5513e+000 31924 103448,103578,103526
 6.0000e-001 103650 -3.0504e+000  1.1469e+001  2.5455e+000 31924 103448,103500,103474
 6.0000e-001 103627 -2.5535e+001  3.4528e+001 -1.0402e+001 31924 103422,103578,103448
 6.0000e-001 103604  3.1846e+001  7.9917e+000 -1.3730e+001 31924 103526,103578,103552
 6.0000e-001 104281 -4.5057e+000  5.2394e+000 -6.8433e-001 31520 104304,104062,104036
 6.0000e-001 104258 -8.6827e-001  8.3727e+000  6.4655e-001 31520 104304,104036,103984
 6.0000e-001 104235 -3.3344e+000  8.0389e+000  2.2115e+000 31520 104062,104114,104088
 6.0000e-001 104212 -1.2093e+001  5.8852e+000  2.7407e+000 31520 103958,104114,103984
 6.0000e-001 104189  1.4385e+000  1.3728e+001 -1.0782e-001 31520 103984,104036,104010
 6.0000e-001 104166 -9.2407e+000  1.7063e+001  1.2118e+000 31520 103958,104140,104114
 6.0000e-001 104330 -4.6005e+000  8.7301e+000  1.0779e+000 31520 104114,104062,104304
 6.0000e-001 104353 -3.6102e+000  9.7625e+000  1.5123e+000 31520 104114,104304,103984
 6.0000e-001 104704 -1.6682e+000  1.0959e+001  4.8198e-001 31066 104479,104583,104505
 6.0000e-001 104681 -5.9299e+000  9.9768e+000  4.7627e-001 31066 104479,104609,104583
 6.0000e-001 104658 -9.3750e+000  1.2329e+001 -1.1654e+000 31066 104505,104557,104531
 6.0000e-001 104635 -7.4358e+000  7.4729e+000 -9.8931e-001 31066 104505,104583,104557
 6.0000e-001 104925 -3.1081e+001  3.7746e+001  4.8599e+000 30754 104775,104827,104801
 6.0000e-001 104902 -2.7560e+001  1.0278e+001  3.3986e+000 30754 104775,104853,104827
 6.0000e-001 104879 -3.0824e+001  8.3827e+000 -3.3039e+000 30754 104749,104853,104775
 6.0000e-001 105482 -1.3352e+000  1.0308e+001  1.9856e+001 30164 105505,105136,105110
 6.0000e-001 105459 -9.8500e+000  3.2894e+001  1.1932e+001 30164 105649,105505,105110
 6.0000e-001 105436 -2.2577e+000 -2.3700e+000  2.0388e+001 30164 105577,105188,105136
 6.0000e-001 105413 -9.4909e+000  3.4829e+001  1.0518e+000 30164 105649,105110,105318
 6.0000e-001 105390 -1.0164e+001  1.0787e+001  5.4320e+000 30164 105214,105292,105240
 6.0000e-001 105367  1.6164e+001  1.7126e+001  5.4030e+000 30164 105240,105292,105266
 6.0000e-001 105344 -6.3148e+000 -2.3617e+001  2.7159e+001 30164 105136,105188,105162
 6.0000e-001 105531 -2.2819e+000 -3.1320e+000  1.4976e+001 30164 105577,105136,105505
 6.0000e-001 105554 -1.2395e+001  5.9046e+000  6.5019e+000 30164 105214,105505,105292
 6.0000e-001 105603 -5.3716e+000 -9.5848e+000  1.9981e+001 30164 105214,105188,105577
 6.0000e-001 105626 -5.5928e+000 -1.0842e+001  1.4816e+001 30164 105214,105577,105505
 6.0000e-001 105675 -1.6759e+001  1.6082e+001  9.1155e+000 30164 105292,105505,105649
 6.0000e-001 105698 -1.7166e+001  1.1458e+001  1.2690e-001 30164 105292,105649,105318
 6.0000e-001 106027  2.6070e+001  1.0667e+001 -3.7450e-001 29868 106322,106050,105880
 6.0000e-001 106004  1.4135e+001 -1.2508e+001 -5.3922e-001 29868 106250,106050,105828
 6.0000e-001 105981  1.0855e+001 -9.0456e+000  8.8485e+000 29868 106250,105828,105802
 6.0000e-001 105958  1.4410e+001  2.3979e+001  1.1190e+001 29868 106322,105880,106122
 6.0000e-001 106076  2.5610e+001  2.8077e+001 -1.3217e+001 29868 105906,105880,106050
 6.0000e-001 106099  1.1036e+001  3.1576e+000 -5.1797e+000 29868 105906,106050,105932
 6.0000e-001 106148 -9.9781e-001  7.5703e+000  1.4957e+001 29868 105854,105828,106122
 6.0000e-001 106276  1.9042e+001  1.0033e+000 -3.7323e+000 29868 105932,106050,106250
 6.0000e-001 106299  1.4752e+001  8.2561e+000  6.5265e+000 29868 105932,106250,105802
 6.0000e-001 106348  5.0093e+000 -2.4221e+000 -5.9513e+000 29868 105828,106050,106322
 6.0000e-001 106371 -4.6036e+000  1.1715e+001  5.8445e+000 29868 105828,106322,106122
 6.0000e-001 106828  1.0738e+001  1.4845e+001  1.9127e+000 29521 106580,106710,106684
 6.0000e-001 106805  1.2411e+001  1.0784e+001  5.2224e+000 29521 106554,106710,106580
 6.0000e-001 106782  1.5100e+001  1.6078e+001  2.5703e+000 29521 106580,106684,106606
 6.0000e-001 106759  1.4481e+001  1.5982e+001  1.5268e+000 29521 106606,106684,106658
 6.0000e-001 106736  1.2217e+001  1.7166e+001  1.8760e+000 29521 106606,106658,106632
 6.0000e-001 107027  1.6704e+000  3.3329e+000  5.7930e+000 29117 106877,106929,106903
 6.0000e-001 107004 -2.5622e-001  2.5143e+000  6.2363e+000 29117 106851,106929,106877
 6.0000e-001 106981  7.3186e+000  5.3123e+000  3.7778e+000 29117 106851,106955,106929
 6.0000e-001 107456  9.9879e-002  1.1327e+001 -6.3272e-001 28656 107237,107315,107263
 6.0000e-001 107433 -1.7626e+000  1.1355e+001 -1.0386e+000 28656 107133,107315,107237
 6.0000e-001 107410 -5.4044e+000  3.1473e+000 -1.9208e-001 28656 107133,107237,107159
 6.0000e-001 107387 -5.0055e+000  5.7259e+000 -7.8247e-001 28656 107159,107237,107185
 6.0000e-001 107364 -1.0744e+001  3.6815e+000  5.4043e-001 28656 107185,107237,107211
 6.0000e-001 107341  1.0442e+000  1.7447e+001 -7.0211e+000 28656 107263,107315,107289
 6.0000e-001 107704  3.3764e+000  7.9400e+000  3.5922e+000 27902 107727,107557,107531
 6.0000e-001 107681  2.5684e+000  8.7532e+000  2.9469e+000 27902 107727,107531,107505
 6.0000e-001 107658  4.9907e+000  1.5182e+001  5.0871e+000 27902 107557,107609,107583
 6.0000e-001 107635  1.7504e+000  9.7961e+000  4.2507e+000 27902 107479,107609,107505
 6.0000e-001 107753  4.2704e+000  8.4257e+000  3.3888e+000 27902 107609,107557,107727
 6.0000e-001 107776  3.3996e+000  9.1843e+000  2.7803e+000 27902 107609,107727,107505
 6.0000e-001 108333 -3.2607e+000  1.0236e+001 -8.5537e-001 27341 108356,108065,108013
 6.0000e-001 108310 -2.7922e+000  1.0014e+001  9.9962e-001 27341 108356,108013,108143
 6.0000e-001 108287 -2.7455e+000  1.1491e+001  7.4885e-001 27341 108428,108117,108091
 6.0000e-001 108264 -3.2762e+000  1.0140e+001 -8.3960e-001 27341 108013,108065,108039
 6.0000e-001 108241 -4.3695e+000  7.7878e+000  2.0705e-001 27341 107987,108143,108013
 6.0000e-001 108218 -1.1054e+001  4.8614e+000  1.3480e+000 27341 107987,108169,108143
 6.0000e-001 108195 -1.4749e+001  9.1918e+000  1.4817e+000 27341 107961,108169,107987
 6.0000e-001 108382 -2.3532e+000  1.2237e+001 -6.2829e-001 27341 108091,108065,108356
 6.0000e-001 108405 -2.2874e+000  1.0411e+001  4.2499e-001 27341 108428,108091,108356
 6.0000e-001 108454 -2.0253e+000  1.3731e+001  1.2165e+000 27341 108143,108117,108428
 6.0000e-001 108477 -1.8826e+000  1.2140e+001  9.2373e-001 27341 108143,108428,108356
 6.0000e-001 108725 -5.1400e+001 -3.6258e+001  7.2394e+000 27029 108748,108526,108500
 6.0000e-001 108702 -4.8016e+001 -4.8603e+001  5.0956e+000 27029 108748,108500,108630
 6.0000e-001 108679 -3.9083e+001 -2.8581e+001  1.3362e+001 27029 108578,108630,108604
 6.0000e-001 108656 -5.3589e+001 -5.2683e+001 -2.2637e+001 27029 108526,108578,108552
 6.0000e-001 108774 -4.8059e+001 -3.0322e+001  8.6105e+000 27029 108578,108526,108748
 6.0000e-001 108797 -4.1608e+001 -3.8866e+001  7.8633e+000 27029 108578,108748,108630
 6.0000e-001 109045 -6.3209e+000  2.6880e+000 -2.0742e+000 26610 108872,108924,108898
 6.0000e-001 109022 -6.5273e+000  3.5407e+000 -1.6783e+000 26610 108872,108950,108924
 6.0000e-001 108999 -9.4552e+000  1.9255e+000 -5.2801e+000 26610 108846,108950,108872
 6.0000e-001 108976 -7.6865e+000 -4.2411e+000 -5.9684e+000 26610 108820,108950,108846
 6.0000e-001 109366 -5.3329e+000  1.1591e+001  4.6198e-001 26006 109144,109222,109196
 6.0000e-001 109343 -5.7800e+000  1.1159e+001  2.8248e-001 26006 109118,109222,109144
 6.0000e-001 109320 -4.3755e+000  1.2187e+001 -3.8676e-001 26006 109092,109222,109118
 6.0000e-001 109297 -3.5171e+000  1.2315e+001  9.8115e-001 26006 109144,109196,109170
 6.0000e-001 109274 -7.5328e+000  7.0049e+000  9.3974e-001 26006 109092,109248,109222
 6.0000e-001 109567  7.9290e+000  1.6585e+001  1.1466e+000 25659 109391,109469,109443
 6.0000e-001 109544  1.0991e+001  1.7523e+001  1.9449e+000 25659 109391,109495,109469
 6.0000e-001 109521  3.4112e+000  7.8159e+000  2.7539e+000 25659 109391,109443,109417
 6.0000e-001 109900  1.0340e+001  1.2997e+001  1.1839e+000 25255 109923,109779,109753
 6.0000e-001 109877  1.1956e+001  1.8219e+001  3.4770e+000 25255 109923,109753,109701
 6.0000e-001 109854  1.0816e+001  7.6406e+000 -3.0967e+000 25255 109675,109805,109701
 6.0000e-001 109831  6.8362e+000  7.8417e+000  7.6852e+000 25255 109701,109753,109727
 6.0000e-001 109949  8.3493e+000  5.4499e+000 -4.0003e+000 25255 109805,109779,109923
 6.0000e-001 109972  1.2540e+001  1.4913e+001 -1.5340e+000 25255 109805,109923,109701
 6.0000e-001 110220  9.0519e+000  8.5248e+000  5.0662e+000 24701 110243,110021,109995
 6.0000e-001 110197  9.5346e+000  9.5541e+000  4.8485e+000 24701 110243,109995,110099
 6.0000e-001 110174  9.7799e+000  9.4640e+000  3.8621e+000 24701 110315,110073,110047
 6.0000e-001 110151  1.1437e+001  5.8215e+000  5.4197e+000 24701 109995,110125,110099
 6.0000e-001 110269  8.9087e+000  6.8485e+000  3.4241e+000 24701 110047,110021,110243
 6.0000e-001 110292  9.5475e+000  9.4991e+000  3.9659e+000 24701 110315,110047,110243
 6.0000e-001 110341  1.0233e+001  9.7055e+000  3.7697e+000 24701 110099,110073,110315
 6.0000e-001 110364  9.9019e+000  9.7077e+000  3.8717e+000 24701 110099,110315,110243
 6.0000e-001 110661 -3.2960e+000  9.2767e+000  6.0493e+000 24197 110684,110413,110387
 6.0000e-001 110638  6.3188e-001  1.8035e+001  5.2695e+000 24197 110684,110387,110543
 6.0000e-001 110615  9.2737e-002  1.4903e+001  7.7726e-001 24197 110756,110491,110465
 6.0000e-001 110592 -1.3206e+000  8.4173e+000  1.5264e+000 24197 110413,110465,110439
 6.0000e-001 110569 -5.9037e-001  1.8359e+001  4.7976e+000 24197 110491,110543,110517
 6.0000e-001 110710 -6.4684e-001  8.9814e+000  1.2850e+000 24197 110465,110413,110684
 6.0000e-001 110733  1.3447e+000  1.3828e+001  1.1206e+000 24197 110756,110465,110684
 6.0000e-001 110782 -8.4584e-001  1.3718e+001  1.5465e+000 24197 110543,110491,110756
 6.0000e-001 110805 -7.5947e-002  1.2133e+001  1.9880e+000 24197 110543,110756,110684
 6.0000e-001 111315 -1.6711e+001  7.1120e+000 -1.4085e+001 23593 111044,111148,111070
 6.0000e-001 111292  3.5392e+000  1.7037e+001 -9.7576e+000 23593 111044,111174,111148
 6.0000e-001 111269  1.3451e+001 -1.7428e+001 -2.0259e+001 23593 111070,111122,111096
 6.0000e-001 111246  1.8496e+000  4.0540e+001 -5.1208e+000 23593 111070,111148,111122
 6.0000e-001 111223  5.2726e+000  2.3405e-001 -1.1908e+000 23593 111018,111174,111044
 6.0000e-001 111200  2.0072e+000  2.3970e+000 -1.6833e+000 23593 110992,111174,111018
 6.0000e-001 111821 -5.9765e+000  1.0182e+001  9.3985e-002 23089 111916,111844,111628
 6.0000e-001 111798 -3.3339e+000  1.2070e+001  2.4675e-001 23089 111844,111550,111524
 6.0000e-001 111775 -6.4934e+000  9.2241e+000 -1.6203e-001 23089 111916,111628,111602
 6.0000e-001 111752 -6.1807e+000  1.8698e+001 -1.7226e+000 23089 111498,111680,111524
 6.0000e-001 111729 -5.4445e+000  7.1743e+000 -1.5665e-001 23089 111550,111602,111576
 6.0000e-001 111706 -4.0301e+000  5.7416e+000  1.0404e+000 23089 111628,111680,111654
 6.0000e-001 111870 -3.6675e+000  9.7642e+000 -8.4919e-001 23089 111680,111628,111844
 6.0000e-001 111893 -2.9338e+000  1.1318e+001 -2.3713e+000 23089 111680,111844,111524
 6.0000e-001 111942 -4.4163e+000  8.4684e+000  5.1576e-001 23089 111550,111844,111916
 6.0000e-001 111965 -5.0450e+000  7.4708e+000  1.6799e-001 23089 111550,111916,111602
 6.0000e-001 112164  5.4514e+000  1.3354e+000  1.5040e+001 22626 112187,112014,111988
 6.0000e-001 112141  5.8666e+000  3.0215e+001  1.1004e+001 22626 112259,112187,111988
 6.0000e-001 112118  6.5462e+000  4.0132e+001 -4.8997e+000 22626 112259,111988,112092
 6.0000e-001 112213  2.2242e+000 -3.3128e+001  7.3407e+000 22626 112040,112014,112187
 6.0000e-001 112236  1.0845e+001  4.7229e+000  1.2078e+001 22626 112040,112187,112066
 6.0000e-001 112285  8.5795e-001  4.4229e+000  1.4791e+001 22626 112066,112187,112259
 6.0000e-001 112308 -2.1976e+000  1.1411e+001  7.0036e-002 22626 112066,112259,112092
 6.0000e-001 112605  7.7518e+000  8.8214e+000  1.7052e+000 22286 112628,112383,112357
 6.0000e-001 112582  5.4240e+000  7.1459e+000  2.7880e+000 22286 112772,112628,112357
 6.0000e-001 112559  6.2940e+000  1.1687e+001  9.3548e-001 22286 112700,112435,112409
 6.0000e-001 112536  2.4716e+000  8.4586e+000  4.9170e+000 22286 112772,112357,112331
 6.0000e-001 112513  1.0812e+001  9.8540e+000  4.8742e-001 22286 112435,112487,112461
 6.0000e-001 112654  6.7167e+000  8.4601e+000  8.7136e-001 22286 112409,112383,112628
 6.0000e-001 112677  5.7434e+000  9.9121e+000  6.5177e-001 22286 112700,112409,112628
 6.0000e-001 112726  6.4512e+000  1.0921e+001  2.1041e+000 22286 112487,112435,112700
 6.0000e-001 112749  6.4421e+000  1.0533e+001  1.7964e+000 22286 112487,112700,112628
 6.0000e-001 112798  6.8510e+000  1.0253e+001  2.1440e+000 22286 112487,112628,112772
 6.0000e-001 112821  5.1261e+000  1.2200e+001  3.0141e+000 22286 112487,112772,112331
 6.0000e-001 112924 -7.1089e+001  2.9569e+001  1.0376e+001 21974 112846,112898,112872
 6.0000e-001 113223  1.2260e+001 -4.0298e+000  3.5794e+000 21420 112949,113053,112975
 6.0000e-001 113200  1.2279e+001  6.5807e+000  4.9510e+000 21420 112949,113079,113053
 6.0000e-001 113177  3.5161e+000 -4.2190e+000 -3.0259e+000 21420 112975,113053,113001
 6.0000e-001 113154  1.7877e+001  2.1063e-001 -2.2285e+000 21420 113001,113053,113027
 6.0000e-001 113131  2.0192e+001  1.0062e+001  3.8402e+000 21420 112949,113105,113079
 6.0000e-001 113605 -3.7387e+001  1.5634e+001 -1.6511e+001 20716 113331,113435,113357
 6.0000e-001 113582 -4.5096e+001  1.0387e+001 -1.3002e+001 20716 113331,113461,113435
 6.0000e-001 113559 -4.9155e+001 -5.6566e+000 -2.2263e+000 20716 113383,113435,113409
 6.0000e-001 113536 -3.8719e+001  4.1322e+000  1.9426e+000 20716 113357,113435,113383
 6.0000e-001 113513 -3.1150e+001  8.7902e+000 -8.4392e+000 20716 113331,113487,113461
 6.0000e-001 113853  1.0098e+001 -1.9622e+000  1.6874e+000 20290 113876,113680,113654
 6.0000e-001 113830  1.3095e+001  3.0179e+000  4.1008e+000 20290 113876,113654,113628
 6.0000e-001 113807  1.0226e+001  5.6787e+000  1.0076e+000 20290 113948,113732,113680
 6.0000e-001 113784  1.1647e+001  3.9521e+000 -1.3555e+000 20290 113680,113732,113706
 6.0000e-001 113902  1.0332e+001  4.2213e+000  2.4418e+000 20290 113948,113680,113876
 6.0000e-001 113925  9.5241e+000  6.3182e+000  3.8060e+000 20290 113758,113876,113628
 6.0000e-001 113974  8.7840e+000  3.9479e+000  1.7235e+000 20290 113758,113732,113948
 6.0000e-001 113997  8.3748e+000  2.7739e+000  3.2221e+000 20290 113758,113948,113876
 6.0000e-001 114365 -4.7444e+000  1.1390e+001 -3.3654e-002 19900 114146,114198,114172
 6.0000e-001 114342 -4.3493e+000  1.1559e+001 -2.5297e-002 19900 114042,114198,114146
 6.0000e-001 114319 -4.9861e+000  1.1106e+001  3.1658e-001 19900 114042,114224,114198
 6.0000e-001 114296 -2.4712e+000  1.1421e+001 -1.6375e-001 19900 114094,114146,114120
 6.0000e-001 114273 -4.5054e+000  1.0435e+001  3.7561e-001 19900 114042,114146,114094
 6.0000e-001 114250 -5.7520e+000  1.0168e+001  6.3075e-001 19900 114042,114094,114068
 6.0000e-001 114566  3.9846e-001  9.0431e+000  1.4527e-001 19496 114442,114494,114468
 6.0000e-001 114543  4.5137e+000  9.1643e+000  2.1067e+000 19496 114416,114494,114442
 6.0000e-001 114520  4.1367e-001  1.0592e+001  3.8787e+000 19496 114390,114494,114416
 6.0000e-001 114767 -4.6338e+000  1.1845e+001 -2.7761e-001 19042 114790,114669,114643
 6.0000e-001 114744 -4.1859e+000  1.1877e+001 -2.6418e-001 19042 114790,114643,114591
 6.0000e-001 114721 -4.1161e+000  1.4725e+001 -1.5169e+000 19042 114591,114643,114617
 6.0000e-001 114816 -5.3302e+000  1.1953e+001 -3.0136e-001 19042 114695,114669,114790
 6.0000e-001 114839 -4.6557e+000  1.2175e+001 -1.6688e-001 19042 114695,114790,114591
 6.0000e-001 114991 -3.8456e+000  1.1588e+001  1.0903e+000 18488 114864,114916,114890
 6.0000e-001 114968 -3.3196e+000  1.5623e+001  4.9355e-001 18488 114864,114942,114916
 6.0000e-001 115192  8.0418e-001  1.0483e+001  1.2311e+000 18098 115215,115042,115016
 6.0000e-001 115169 -2.2493e+000  7.6456e+000  2.5551e+000 18098 115215,115016,115120
 6.0000e-001 115146 -7.1566e-001  1.1799e+001 -3.5528e-001 18098 115287,115094,115068
 6.0000e-001 115241 -1.6059e+000  1.0205e+001  2.7126e-001 18098 115068,115042,115215
 6.0000e-001 115264 -1.1548e+000  1.0973e+001  6.4607e-002 18098 115287,115068,115215
 6.0000e-001 115313 -1.6658e+000  1.2093e+001  9.0801e-001 18098 115120,115094,115287
 6.0000e-001 115336 -2.2350e+000  1.1310e+001  1.3325e+000 18098 115120,115287,115215
 6.0000e-001 115846 -3.4389e+000 -1.8884e+000 -1.5911e+000 17644 115653,115705,115679
 6.0000e-001 115823  3.4423e+000  1.5308e+000 -5.2383e+000 17644 115627,115705,115653
 6.0000e-001 115800  1.7443e+001 -1.8281e+000  8.1716e+000 17644 115549,115705,115627
 6.0000e-001 115777  2.9068e+001 -9.3806e-001  3.7702e-001 17644 115549,115627,115575
 6.0000e-001 115754  3.4308e+001 -1.6058e+000 -5.2350e-001 17644 115523,115705,115549
 6.0000e-001 115731  3.4338e+001  6.5578e+000 -4.2802e+000 17644 115575,115627,115601
 6.0000e-001 116067 -1.7720e+001  6.3193e-001  3.1957e-001 17116 115891,115943,115917
 6.0000e-001 116044  5.7430e+000 -3.8854e+000 -2.7457e+000 17116 115891,115995,115943
 6.0000e-001 116021  2.0896e+001  4.6366e-001  5.2795e+000 17116 115943,115995,115969
 6.0000e-001 116288  3.2517e+000  4.2393e+000  6.7818e-002 16704 116164,116216,116190
 6.0000e-001 116265  3.5540e+000  3.2501e+000  2.5111e-001 16704 116112,116216,116164
 6.0000e-001 116242  7.6105e+000  3.8753e+000  1.0560e+000 16704 116112,116164,116138
 6.0000e-001 116489 -4.6788e+001 -1.0264e+000  2.4225e-001 16434 116339,116417,116365
 6.0000e-001 116466 -3.7755e+001  2.7299e+000  4.4617e-001 16434 116313,116417,116339
 6.0000e-001 116443 -3.3792e+001 -5.9188e+000 -1.2035e+001 16434 116365,116417,116391
 6.0000e-001 116592  1.1274e+001  1.7970e+000  2.0459e+000 15967 116514,116566,116540
 6.0000e-001 116695  4.4404e+001 -3.7685e+001 -9.0797e+000 15552 116617,116669,116643
 6.0000e-001 116798 -4.4626e+000  1.0773e+001  0.0000e+000 421 116720,116772,116746
 7.0000e-001 69066 -1.0345e-001  1.1552e-001 -1.2393e-002 68738 68965,69017,68991
 7.0000e-001 69043 -1.2203e-001  1.7900e-001  1.9949e-001 68738 68939,69017,68965
 7.0000e-001 69371 -3.5627e+000  9.4103e-001  2.9554e+000 68426 69172,69250,69198
 7.0000e-001 69348 -3.9083e-001  3.8989e+000  1.5769e+000 68426 69146,69250,69172
 7.0000e-001 69325 -2.0448e+000  5.1035e+000  5.8026e+000 68426 69198,69250,69224
 7.0000e-001 69302  1.2206e+000 -1.2329e-001  9.7675e-001 68426 69146,69276,69250
 7.0000e-001 69521 -4.2227e+000 -1.4616e+001  2.6023e+000 68228 69420,69472,69446
 7.0000e-001 69498 -1.9724e+000 -1.0829e+001 -8.6292e-002 68228 69394,69472,69420
 7.0000e-001 69781 -7.8954e+000  9.0309e+000  6.5962e+000 68030 69631,69683,69657
 7.0000e-001 69758  2.0648e+000 -1.5494e+001 -3.1472e+000 68030 69631,69709,69683
 7.0000e-001 69735  4.0910e-001  6.7930e+000  1.1580e+001 68030 69605,69709,69631
 7.0000e-001 70078 -1.0664e+000  4.5161e+000 -6.4032e+000 67832 69882,69934,69908
 7.0000e-001 70055 -4.0038e+000 -9.6225e+000  1.5862e+000 67832 69856,69934,69882
 7.0000e-001 70032  9.8813e-001 -4.7579e+000 -2.3325e+000 67832 69830,69934,69856
 7.0000e-001 70009 -8.2451e-001 -9.2738e+000 -6.1744e+000 67832 69804,69934,69830
 7.0000e-001 69986  4.3853e+000 -2.5313e+000 -3.1178e+000 67832 69804,69960,69934
 7.0000e-001 70586  1.2159e+000 -8.6473e-001 -1.4911e+000 67634 70609,70419,70341
 7.0000e-001 70563  1.4565e+000 -2.6175e+000 -8.3069e-001 67634 70681,70609,70341
 7.0000e-001 70540  2.0928e+000 -2.7158e+000  8.1195e-001 67634 70681,70341,70315
 7.0000e-001 70517  2.3194e+000  3.2349e+000 -9.7659e-001 67634 70341,70419,70367
 7.0000e-001 70494  8.7525e-001  1.8747e-001 -4.4391e-001 67634 70263,70445,70289
 7.0000e-001 70471  6.2225e-001  2.0659e+000 -4.1328e-001 67634 70367,70419,70393
 7.0000e-001 70635  1.9273e+000  2.2750e+000 -1.4807e+000 67634 70445,70419,70609
 7.0000e-001 70658  3.0330e-001 -7.3413e-001 -7.1628e-001 67634 70445,70609,70289
 7.0000e-001 70707  2.6731e+000  9.7541e-002 -4.8433e-001 67634 70289,70609,70681
 7.0000e-001 70730  3.2247e+000 -5.6066e-001  1.2380e+000 67634 70289,70681,70315
 7.0000e-001 71108 -3.8640e+000  6.3156e+000 -5.0491e+000 67344 71131,70912,70886
 7.0000e-001 71085 -7.0193e+000 -3.0438e-001 -8.2867e+000 67344 71131,70886,70860
 7.0000e-001 71062 -3.5989e+000  4.9665e+000 -2.0386e+000 67344 71203,70938,70912
 7.0000e-001 71039  6.7594e-001  3.5243e+000 -2.4705e+000 67344 70834,70990,70860
 7.0000e-001 71016 -1.0545e+000  9.9900e+000 -1.9827e+000 67344 70938,70990,70964
 7.0000e-001 71157 -2.7374e+000  1.7122e+000 -3.0981e+000 67344 71203,70912,71131
 7.0000e-001 71180 -3.0588e+000 -1.2508e-001 -4.0159e+000 67344 70990,71131,70860
 7.0000e-001 71229 -2.4864e+000  8.8248e+000 -9.4754e-001 67344 70990,70938,71203
 7.0000e-001 71252 -9.2156e-001  5.6333e+000 -1.4454e+000 67344 70990,71203,71131
 7.0000e-001 71603 -1.7426e+000  5.4589e+000 -2.6259e+000 67032 71378,71482,71404
 7.0000e-001 71580  5.3814e-001  4.8999e+000 -2.2941e+000 67032 71378,71508,71482
 7.0000e-001 71557 -9.8823e-001  3.4194e+000 -1.8856e+000 67032 71404,71456,71430
 7.0000e-001 71534 -1.3218e+000  9.0408e+000 -1.0557e-001 67032 71404,71482,71456
 7.0000e-001 72003 -1.2483e+000  6.8711e+000 -3.3545e-001 66834 71755,71859,71781
 7.0000e-001 71980  1.4292e-001  1.1225e+001  5.3173e-001 66834 71755,71885,71859
 7.0000e-001 71957  3.5386e+000  9.2661e+000  3.5433e+000 66834 71781,71833,71807
 7.0000e-001 71934 -9.5910e-001  9.9125e+000  2.0242e+000 66834 71781,71859,71833
 7.0000e-001 71911 -1.1213e+000  5.6729e+000 -3.9088e+000 66834 71729,71885,71755
 7.0000e-001 72430  2.8728e-001  6.6536e+000  4.4412e-001 66266 72237,72289,72263
 7.0000e-001 72407 -4.3725e-001  5.0579e+000 -1.2027e-001 66266 72133,72289,72237
 7.0000e-001 72384  1.6236e+000  6.2834e+000 -7.1989e-001 66266 72133,72237,72211
 7.0000e-001 72361  8.5886e-001  4.1717e+000 -1.1015e+000 66266 72107,72289,72133
 7.0000e-001 72338  2.0951e+000  7.4674e+000 -1.1701e+000 66266 72133,72211,72185
 7.0000e-001 72315  7.5227e+000  6.3780e+000 -5.1446e-001 66266 72133,72185,72159
 7.0000e-001 72580  9.2770e-001 -1.0100e+000 -1.9487e+000 65968 72479,72531,72505
 7.0000e-001 72557 -1.8836e+000 -8.4188e+000 -9.3530e-001 65968 72453,72531,72479
 7.0000e-001 72960 -5.1595e+000  7.1939e+000  7.6646e-001 65621 72983,72738,72712
 7.0000e-001 72937 -4.8757e+000  6.4131e+000  7.1403e-001 65621 72983,72712,72686
 7.0000e-001 72914 -1.0761e+001  2.3722e+000  6.5101e+000 65621 72738,72842,72764
 7.0000e-001 72891 -2.6472e+000  4.2558e+000  8.6750e+000 65621 72764,72842,72816
 7.0000e-001 72868 -7.3224e+000 -4.9409e+000  1.1303e+001 65621 72764,72816,72790
 7.0000e-001 73009 -4.7629e+000  6.5164e+000  8.7411e-001 65621 72842,72738,72983
 7.0000e-001 73032 -5.0028e+000  5.0468e+000  8.4546e-001 65621 72842,72983,72686
 7.0000e-001 73361 -4.8395e+000 -1.4902e+000  1.1934e+000 65281 73456,73384,73188
 7.0000e-001 73338  3.7360e+000  8.5447e-001 -1.3540e+000 65281 73384,73162,73136
 7.0000e-001 73315 -2.5588e+000 -4.2467e-001 -7.8406e-001 65281 73188,73240,73214
 7.0000e-001 73292 -4.2696e+000  9.1951e-001 -3.1630e+000 65281 73136,73266,73240
 7.0000e-001 73410 -2.5731e+000  1.3911e+000 -4.9710e-003 65281 73240,73188,73384
 7.0000e-001 73433 -2.0736e+000  4.7783e-001  1.3856e-001 65281 73240,73384,73136
 7.0000e-001 73482 -2.8193e+000 -9.3030e-001 -2.0449e+000 65281 73162,73384,73456
 7.0000e-001 73711  4.1985e+000 -3.5384e-001 -8.2088e+000 64820 73734,73610,73584
 7.0000e-001 73688  7.4845e+000  5.8878e+000 -3.7480e+000 64820 73734,73584,73662
 7.0000e-001 73760  3.6821e+000 -7.0205e-001 -9.5354e+000 64820 73636,73610,73734
 7.0000e-001 73783  4.7496e-001  3.3208e-001 -7.1839e+000 64820 73806,73734,73662
 7.0000e-001 73832  5.4765e+000 -7.4579e-001 -7.1890e+000 64820 73636,73734,73806
 7.0000e-001 74112 -1.1424e+000 -1.3804e+000  1.9459e+000 64622 74278,74135,73988
 7.0000e-001 74089 -7.8219e-001 -4.1078e+000  8.4160e-001 64622 74135,73936,74040
 7.0000e-001 74066 -7.8559e-001 -1.2346e+000  2.3717e+000 64622 74278,73988,73962
 7.0000e-001 74161  2.0936e+000 -4.8633e+000  3.9799e+000 64622 74014,73988,74135
 7.0000e-001 74184  1.5129e+000 -6.0528e+000  2.2051e+000 64622 74207,74135,74040
 7.0000e-001 74233 -3.3249e-001 -1.0940e+001  9.0220e-001 64622 74014,74135,74207
 7.0000e-001 74304 -8.9339e-001 -8.3654e-001  2.7215e+000 64622 73936,74135,74278
 7.0000e-001 74327 -1.3891e-001 -6.3175e-001  3.1456e+000 64622 73936,74278,73962
 7.0000e-001 74526 -1.0085e+000 -1.0283e+001  5.3535e+000 64424 74621,74549,74402
 7.0000e-001 74503 -4.0991e+000 -5.6298e+000  3.3459e+000 64424 74549,74350,74454
 7.0000e-001 74480 -1.2579e+000 -1.2828e+001  9.8642e+000 64424 74621,74402,74376
 7.0000e-001 74575  6.6859e+000 -8.4282e+000  4.0707e+000 64424 74428,74402,74549
 7.0000e-001 74598  6.7809e-001 -5.7680e+000  3.1322e+000 64424 74693,74549,74454
 7.0000e-001 74647  2.2504e+000 -3.1839e+000  4.3992e+000 64424 74350,74549,74621
 7.0000e-001 74670  2.4194e+000 -4.3869e+000  9.0724e+000 64424 74350,74621,74376
 7.0000e-001 74719 -1.0289e+000 -1.0430e+001  2.4295e+000 64424 74428,74549,74693
 7.0000e-001 75123 -7.4818e+000 -4.9691e+000 -6.7328e-001 64126 74875,74953,74927
 7.0000e-001 75100 -7.0378e+000 -4.6162e+000 -1.1149e+000 64126 74875,74979,74953
 7.0000e-001 75077 -1.5620e+001 -5.1908e+000 -1.7955e-001 64126 74875,75005,74979
 7.0000e-001 75054 -6.2617e+000 -3.5564e+000 -4.6528e-002 64126 74875,74927,74901
 7.0000e-001 75031 -1.1246e+001  2.9597e-001  2.2138e+000 64126 74849,75005,74875
 7.0000e-001 75224 -3.4060e+000  1.3924e+001 -3.4452e+000 63836 75146,75198,75172
 7.0000e-001 75472  7.2677e+000  1.8280e+001  7.0606e-002 63375 75273,75351,75325
 7.0000e-001 75449  8.2700e+000  1.8357e+001  4.9748e-001 63375 75273,75377,75351
 7.0000e-001 75426  1.0789e+001  1.5529e+001 -2.1724e+000 63375 75247,75377,75273
 7.0000e-001 75403  7.0050e+000  1.2553e+001 -8.0692e-001 63375 75273,75325,75299
 7.0000e-001 75673 -2.4944e+000  1.2716e+001 -7.3887e-001 63063 75523,75575,75549
 7.0000e-001 75650 -3.0881e+000  1.6155e+001  9.8853e-001 63063 75497,75575,75523
 7.0000e-001 75627 -2.5710e+000  1.7383e+001 -1.2416e+000 63063 75497,75601,75575
 7.0000e-001 75874 -4.6490e+000  4.0149e-002  3.0038e-002 62716 75897,75750,75724
 7.0000e-001 75851 -3.4006e+000 -2.6689e+000 -7.1185e-001 62716 75897,75724,75698
 7.0000e-001 75828 -7.5317e+000 -8.6733e+000  3.0672e+000 62716 75698,75802,75776
 7.0000e-001 75923 -6.0172e+000 -3.1252e+000  1.3857e+000 62716 75776,75750,75897
 7.0000e-001 75946 -3.4942e+000 -4.4900e+000 -3.2184e-001 62716 75776,75897,75698
 7.0000e-001 76328 -8.3781e+000  7.8882e-001  2.4849e+000 62198 76495,76351,76158
 7.0000e-001 76305 -5.6840e+000 -3.6567e+000  5.0516e+000 62198 76351,76080,76054
 7.0000e-001 76282 -8.5780e+000  1.5231e+001  3.4530e+000 62198 76423,76184,76158
 7.0000e-001 76259 -6.3423e+000  2.1594e-002  1.6794e+000 62198 76495,76158,76106
 7.0000e-001 76236 -2.4629e+000  8.2439e+000 -2.2039e+000 62198 76106,76158,76132
 7.0000e-001 76377 -6.2031e+000  5.8314e+000  3.8435e+000 62198 76423,76158,76351
 7.0000e-001 76400 -3.4327e+000  5.5238e-001  6.4512e+000 62198 76210,76351,76054
 7.0000e-001 76449 -1.2022e+001  5.5516e+000  4.6117e+000 62198 76210,76184,76423
 7.0000e-001 76472 -8.8323e+000 -1.5763e+000  5.9784e+000 62198 76210,76423,76351
 7.0000e-001 76521 -4.9950e+000  1.8222e-003  1.5542e+000 62198 76080,76351,76495
 7.0000e-001 76544 -7.6851e-001  1.5053e+000  8.3936e-002 62198 76080,76495,76106
 7.0000e-001 76841  9.3614e+000  7.4071e+000  3.1557e+000 61751 76936,76864,76645
 7.0000e-001 76818  1.1248e+001  1.1531e+001  3.6656e+000 61751 76864,76567,76723
 7.0000e-001 76795  8.6806e+000  5.2333e+000  3.3426e+000 61751 76936,76645,76593
 7.0000e-001 76772  1.6673e+001  1.2543e+001  3.9986e+000 61751 77008,76697,76671
 7.0000e-001 76749  4.8698e+000  4.6945e+000  2.7157e+000 61751 76593,76645,76619
 7.0000e-001 76890  1.0314e+001  9.2129e+000  4.8189e+000 61751 76671,76645,76864
 7.0000e-001 76913  1.2545e+001  9.7027e+000  5.3272e+000 61751 77008,76671,76864
 7.0000e-001 76962  8.0680e+000  1.0346e+001  4.2220e+000 61751 76567,76864,76936
 7.0000e-001 76985  7.6208e+000  8.5934e+000  4.1716e+000 61751 76567,76936,76593
 7.0000e-001 77034  1.1107e+001  9.6486e+000  5.9008e+000 61751 76723,76697,77008
 7.0000e-001 77057  1.0786e+001  1.0519e+001  6.0590e+000 61751 76723,77008,76864
 7.0000e-001 77207 -1.2941e+001  1.7055e+001 -3.6857e+000 61418 77106,77158,77132
 7.0000e-001 77184 -1.2280e+001  1.6256e+001 -3.5529e+000 61418 77080,77158,77106
 7.0000e-001 77638  2.8011e+000  1.2735e+001 -3.3761e+000 60814 77733,77661,77471
 7.0000e-001 77615 -1.5225e+000  7.8950e+000 -5.1679e+000 60814 77661,77393,77315
 7.0000e-001 77592  6.1154e+000  3.5916e+000 -7.4975e+000 60814 77733,77471,77445
 7.0000e-001 77569  1.3068e+001  7.2331e-001 -2.8223e+000 60814 77315,77367,77341
 7.0000e-001 77546  9.0944e+000  4.4388e+000 -1.1841e+001 60814 77315,77393,77367
 7.0000e-001 77523  1.3052e+001  3.6512e+000 -1.8901e+001 60814 77393,77445,77419
 7.0000e-001 77687  5.3737e+000  1.3615e+001  1.6792e+000 60814 77497,77471,77661
 7.0000e-001 77710  4.2280e+000  9.8573e+000 -5.4127e+000 60814 77497,77661,77315
 7.0000e-001 77759  9.1463e-001 -4.9132e-001 -2.0633e+000 60814 77393,77661,77733
 7.0000e-001 77782  5.0930e+000 -7.6607e+000 -7.5496e+000 60814 77393,77733,77445
 7.0000e-001 78337 -7.3706e+000  3.1830e+000 -2.2843e+000 60210 78360,78017,77965
 7.0000e-001 78314 -9.0976e+000  2.5327e+000 -1.3449e+000 60210 78360,77965,78173
 7.0000e-001 78291 -1.3196e+001  1.6336e+000 -1.1710e+000 60210 78432,78043,78017
 7.0000e-001 78268 -8.4442e+000  1.0654e+001 -7.0929e+000 60210 77965,78017,77991
 7.0000e-001 78245 -2.1396e+001  3.6920e+000  2.7824e+000 60210 78043,78095,78069
 7.0000e-001 78222 -6.7017e+000  4.1440e+000  1.5068e+000 60210 78095,78173,78121
 7.0000e-001 78199 -1.6522e+000  5.7751e+000  1.8487e+000 60210 78121,78173,78147
 7.0000e-001 78386 -9.5624e+000  2.7858e+000 -2.5597e+000 60210 78432,78017,78360
 7.0000e-001 78409 -5.7328e+000  2.8002e+000  2.9401e-001 60210 78095,78360,78173
 7.0000e-001 78458 -1.2572e+001 -4.3768e-002  2.6448e+000 60210 78095,78043,78432
 7.0000e-001 78481 -1.0311e+001  1.9202e-001  1.3425e+000 60210 78095,78432,78360
 7.0000e-001 78680 -6.6052e+000  1.6905e+001 -3.4980e+000 59848 78703,78556,78530
 7.0000e-001 78657 -8.1674e+000  1.4771e+001 -5.1210e+000 59848 78703,78530,78504
 7.0000e-001 78634 -5.7303e+000  1.0755e+001 -6.1142e+000 59848 78504,78608,78582
 7.0000e-001 78729 -2.8555e+000  1.3232e+001 -4.1927e+000 59848 78582,78556,78703
 7.0000e-001 78752 -5.8854e+000  1.1374e+001 -6.4541e+000 59848 78582,78703,78504
 7.0000e-001 78951  4.1938e+000  1.0235e+001  9.6871e+000 59344 78974,78801,78775
 7.0000e-001 78928  6.8585e+000  1.4992e+001  6.0622e+000 59344 79046,78974,78775
 7.0000e-001 78905  7.0520e+000  1.5072e+001  5.9914e+000 59344 79046,78775,78879
 7.0000e-001 79000  7.7758e+000  1.0469e+001  4.6025e+000 59344 78827,78801,78974
 7.0000e-001 79023  8.3346e+000  1.8060e+001  1.7707e+000 59344 78827,78974,78853
 7.0000e-001 79072  7.2093e+000  1.4830e+001  6.0285e+000 59344 78853,78974,79046
 7.0000e-001 79095  7.4088e+000  1.4894e+001  5.9822e+000 59344 78853,79046,78879
 7.0000e-001 79296 -5.3260e+000 -6.1014e+000 -7.4869e-001 58711 79319,79172,79146
 7.0000e-001 79273 -2.8836e+000 -8.1210e+000 -1.1362e+000 58711 79319,79146,79120
 7.0000e-001 79250 -4.3217e+000 -1.7990e+000 -5.5853e+000 58711 79172,79224,79198
 7.0000e-001 79345 -6.3691e+000 -7.6845e+000 -2.5595e-001 58711 79224,79172,79319
 7.0000e-001 79368 -4.5577e+000 -1.0182e+001 -3.5052e-001 58711 79224,79319,79120
 7.0000e-001 79667  1.9650e+000  1.2875e+001  1.8066e+000 58285 79690,79471,79393
 7.0000e-001 79644  1.9178e+000  1.6216e+001  2.8944e+000 58285 79690,79393,79549
 7.0000e-001 79621  2.4790e+000  3.4045e+000  4.0832e+000 58285 79393,79471,79419
 7.0000e-001 79598 -1.9897e+000  1.1262e+001 -1.3289e+000 58285 79497,79549,79523
 7.0000e-001 79575  5.4382e+000  3.0828e+000  2.9707e+000 58285 79419,79471,79445
 7.0000e-001 79716  1.8351e+000  9.6211e+000 -1.1956e-001 58285 79497,79471,79690
 7.0000e-001 79739  2.2400e+000  1.4697e+001  4.3243e-001 58285 79497,79690,79549
 7.0000e-001 80249 -1.1456e+001 -9.8984e+000 -2.8385e+000 57831 80272,79978,79952
 7.0000e-001 80226 -1.1416e+001 -1.0679e+001 -1.6757e+000 57831 80272,79952,80108
 7.0000e-001 80203 -8.2895e+000 -9.9581e+000 -1.4528e+000 57831 79926,80108,79952
 7.0000e-001 80180 -8.0412e+000 -2.9262e+000  4.2803e-001 57831 80004,80082,80030
 7.0000e-001 80157 -1.1548e+001 -6.4637e+000 -1.7097e+000 57831 80004,80108,80082
 7.0000e-001 80134 -6.9702e+000 -1.4813e+000 -3.0474e-001 57831 80030,80082,80056
 7.0000e-001 80298 -1.0316e+001 -6.5728e+000 -3.9773e+000 57831 80004,79978,80272
 7.0000e-001 80321 -1.1938e+001 -9.4636e+000 -2.6186e+000 57831 80004,80272,80108
 7.0000e-001 80618 -1.8312e+001 -4.4764e+000  1.1446e+000 57077 80344,80448,80422
 7.0000e-001 80595 -7.5047e+000  4.1343e-001  8.0169e-002 57077 80344,80500,80448
 7.0000e-001 80572 -1.6866e+001 -2.7166e+000 -3.3545e-001 57077 80344,80422,80370
 7.0000e-001 80549 -1.3077e+001  6.1176e+000 -2.5224e+000 57077 80370,80422,80396
 7.0000e-001 80526 -2.0202e+000 -1.4030e+000 -1.5647e+000 57077 80448,80500,80474
 7.0000e-001 80768  3.4210e-001  1.2350e+001 -3.6306e+000 56787 80791,80693,80667
 7.0000e-001 80745  2.7131e+000  1.0738e+001 -6.4367e+000 56787 80791,80667,80641
 7.0000e-001 80817 -8.1480e-002  1.1158e+001 -3.5932e+000 56787 80719,80693,80791
 7.0000e-001 80840 -1.6604e+000 -6.2849e-001 -6.3974e+000 56787 80719,80791,80641
 7.0000e-001 81429  2.2035e+001  1.3871e+001 -7.9355e+000 56497 81452,81158,81132
 7.0000e-001 81406  6.8730e+000  8.8176e-001 -2.0354e+000 56497 81452,81132,81288
 7.0000e-001 81383  6.4109e+000  1.1420e+001 -3.5540e+000 56497 81524,81184,81158
 7.0000e-001 81360  5.0942e+000  1.6467e+001 -7.8568e+000 56497 81210,81288,81236
 7.0000e-001 81337  2.0120e+001  2.6350e+000 -6.6004e+000 56497 81106,81288,81132
 7.0000e-001 81314  2.3272e+001  1.0563e+001 -1.0301e+001 56497 81236,81288,81262
 7.0000e-001 81478  7.2651e+000  1.1908e+001 -3.7536e+000 56497 81524,81158,81452
 7.0000e-001 81501  3.3933e+000  1.0105e+001 -1.5446e+000 56497 81210,81452,81288
 7.0000e-001 81550  6.4709e+000  1.0874e+001 -2.3392e+000 56497 81210,81184,81524
 7.0000e-001 81573  7.6812e+000  1.1428e+001 -2.5094e+000 56497 81210,81524,81452
 7.0000e-001 81870  2.2391e+000  2.4819e+000 -8.0788e-002 55979 81893,81674,81648
 7.0000e-001 81847  2.9847e+000  2.7097e+000 -3.3707e-001 55979 81893,81648,81752
 7.0000e-001 81824  4.6296e+000  3.4470e-001  2.5389e-001 55979 81596,81752,81648
 7.0000e-001 81801  2.6126e+000  1.2543e+001 -1.1696e+000 55979 81674,81726,81700
 7.0000e-001 81778  4.3651e+000 -6.9446e-002 -5.3924e-001 55979 81596,81648,81622
 7.0000e-001 81919  1.7883e+000  2.4105e+000  4.4516e-001 55979 81726,81674,81893
 7.0000e-001 81942  2.7260e+000  2.6601e+000  2.2819e-001 55979 81726,81893,81752
 7.0000e-001 82371 -1.2572e+001 -1.3935e+000 -5.2634e+000 55631 82100,82204,82152
 7.0000e-001 82348 -1.4143e+001 -7.7929e+000 -7.9799e+000 55631 82100,82230,82204
 7.0000e-001 82325 -1.2861e+001 -5.4995e-001 -7.4722e+000 55631 82100,82152,82126
 7.0000e-001 82302 -9.4421e+000  2.9778e+000 -8.6034e+000 55631 82074,82230,82100
 7.0000e-001 82279 -1.0166e+001  7.6644e+000 -7.4371e-001 55631 82152,82204,82178
 7.0000e-001 82256 -7.0562e+000 -7.7842e+000 -7.6957e+000 55631 82048,82230,82074
 7.0000e-001 82521 -2.2047e+000  1.7039e+000 -8.4020e-001 55227 82544,82420,82394
 7.0000e-001 82498 -1.8445e+000  1.2896e+000 -8.9699e-001 55227 82544,82394,82472
 7.0000e-001 82570 -1.9389e+000  1.6694e+000 -7.7808e-001 55227 82446,82420,82544
 7.0000e-001 82593 -1.1164e+000  1.6425e+000 -7.1409e-001 55227 82446,82544,82472
 7.0000e-001 82875 -1.4578e+000 -3.5967e+000 -1.6891e+000 54979 82699,82777,82725
 7.0000e-001 82852 -8.9033e-001 -6.1462e+000 -1.6578e+000 54979 82699,82803,82777
 7.0000e-001 82829  2.4661e+000 -1.0479e+000 -5.9065e-001 54979 82725,82777,82751
 7.0000e-001 83204 -2.0955e+000  8.4090e+000  4.5107e+000 54475 83005,83083,83057
 7.0000e-001 83181 -1.6848e+000  3.6036e+000  8.8876e+000 54475 82979,83083,83005
 7.0000e-001 83158  3.4198e+000  1.4271e+001  1.8060e+000 54475 83005,83057,83031
 7.0000e-001 83135  7.1127e+000  2.4342e+001  4.4091e+000 54475 82979,83109,83083
 7.0000e-001 83582 -3.2777e+000  1.4586e+001  3.5621e+000 54071 83605,83438,83412
 7.0000e-001 83559 -1.5290e+000  1.6284e+001  1.6879e+000 54071 83749,83605,83412
 7.0000e-001 83536 -6.9822e-003  1.1950e+001  8.6221e-001 54071 83677,83360,83334
 7.0000e-001 83513 -1.0021e+000  1.7061e+001  1.4504e+000 54071 83749,83412,83677
 7.0000e-001 83490 -1.3794e+001  2.0172e+001  1.3015e+001 54071 83308,83464,83334
 7.0000e-001 83631  3.0297e+000  1.6540e+001  5.0289e+000 54071 83464,83438,83605
 7.0000e-001 83654 -4.7044e-001  9.4395e+000  3.7967e+000 54071 83464,83605,83334
 7.0000e-001 83703 -4.6060e+000  1.4564e+001 -3.6228e+000 54071 83386,83360,83677
 7.0000e-001 83726  3.0986e-001  2.7069e+001 -4.0328e+000 54071 83386,83677,83412
 7.0000e-001 83775  6.3183e-001  1.3925e+001  8.2413e-001 54071 83334,83605,83749
 7.0000e-001 83798  1.4832e+000  1.5091e+001  4.4237e-001 54071 83334,83749,83677
 7.0000e-001 84068  8.5453e-001  4.0528e-001  7.6915e-001 53524 83869,83921,83895
 7.0000e-001 84045  1.0629e+000  2.2088e+000  2.2512e-001 53524 83869,83947,83921
 7.0000e-001 84022  3.8812e+000  5.9165e+000  1.5142e+000 53524 83843,83947,83869
 7.0000e-001 83999 -3.1166e+000  4.2596e+000  1.9009e+000 53524 83843,83973,83947
 7.0000e-001 84497 -1.5577e+001 -5.8165e+000 -4.7595e+000 53184 84200,84330,84252
 7.0000e-001 84474 -1.8645e+001 -8.2059e+000 -1.3040e-001 53184 84200,84356,84330
 7.0000e-001 84451 -1.2634e+001 -5.5819e+000 -3.3707e+000 53184 84200,84252,84226
 7.0000e-001 84428 -9.7934e-002 -3.1406e+000 -1.8024e+000 53184 84252,84330,84278
 7.0000e-001 84405 -8.2111e+000 -1.9579e+000 -4.4116e+000 53184 84174,84356,84200
 7.0000e-001 84382  4.2314e+000 -4.8773e-003 -8.0442e+000 53184 84278,84330,84304
 7.0000e-001 84954 -5.6571e+000 -4.7003e+000  7.3993e-001 52680 84706,84836,84784
 7.0000e-001 84931 -5.8058e+000 -5.1802e+000  1.9321e+000 52680 84680,84836,84706
 7.0000e-001 84908 -1.8652e+000 -3.3046e+000  1.7108e+000 52680 84784,84836,84810
 7.0000e-001 84885 -7.8902e+000 -7.3259e+000  1.9662e+000 52680 84706,84784,84732
 7.0000e-001 84862 -5.2534e+000 -5.4790e+000  9.1736e-001 52680 84732,84784,84758
 7.0000e-001 85202 -4.3137e+000 -4.1440e+000 -2.2619e+000 52226 85029,85081,85055
 7.0000e-001 85179 -1.3804e+001 -5.6570e+000 -4.0384e+000 52226 85225,85081,85029
 7.0000e-001 85156 -1.2826e+001 -3.2123e+000 -2.5550e+000 52226 85225,85029,85003
 7.0000e-001 85133 -1.1694e+001  1.0050e+001 -2.2518e+000 52226 84977,85107,85003
 7.0000e-001 85251 -1.4885e+001 -6.1275e+000 -6.5089e+000 52226 85107,85081,85225
 7.0000e-001 85274 -1.5079e+001 -1.1928e+000 -5.4269e+000 52226 85107,85225,85003
 7.0000e-001 85522 -4.5306e-001 -1.3611e-001 -2.6009e-001 51764 85297,85349,85323
 7.0000e-001 85499 -1.1679e+000  3.6181e-001 -9.3532e-001 51764 85545,85297,85427
 7.0000e-001 85476 -1.1040e+000 -8.7130e-001 -8.6800e-001 51764 85545,85427,85375
 7.0000e-001 85453 -1.5515e+000 -1.1066e+000 -4.3679e-001 51764 85375,85427,85401
 7.0000e-001 85571 -6.8688e-001 -3.9682e-001 -1.5129e-001 51764 85349,85297,85545
 7.0000e-001 85594 -9.7937e-001 -2.0972e+000 -7.1378e-002 51764 85349,85545,85375
 7.0000e-001 85746 -6.0532e-001  1.5089e+000 -2.6216e+000 51374 85645,85697,85671
 7.0000e-001 85723  6.5006e-001 -1.1845e+000 -8.4117e-002 51374 85619,85697,85645
 7.0000e-001 86256  5.7933e+000 -2.3050e-001  2.3011e+000 50970 86279,86011,85959
 7.0000e-001 86233  6.3062e+000  7.3844e-001  1.9918e+000 50970 86279,85959,86115
 7.0000e-001 86210  6.7520e+000  2.1513e+000  2.7197e+000 50970 85959,86011,85985
 7.0000e-001 86187  7.6296e+000  4.1396e-001 -1.6763e-001 50970 86037,86115,86089
 7.0000e-001 86164  1.3063e+001  3.6313e+000  2.0461e+000 50970 85933,86115,85959
 7.0000e-001 86141  3.2166e+000  1.4475e+000 -1.9817e+000 50970 86037,86089,86063
 7.0000e-001 86305  6.6332e+000 -1.5407e+000  2.3570e+000 50970 86037,86011,86279
 7.0000e-001 86328  7.2386e+000 -4.6915e-001  2.0161e+000 50970 86037,86279,86115
 7.0000e-001 86478 -6.2198e+000 -2.5248e+000  3.0527e+000 50451 86351,86403,86377
 7.0000e-001 86455 -3.3484e+000 -1.1459e+001 -7.5628e-001 50451 86351,86429,86403
 7.0000e-001 86907 -3.3418e+000 -6.1897e-002 -4.3664e+000 50047 86930,86714,86662
 7.0000e-001 86884 -2.1725e+000  2.7510e+000 -3.5963e+000 50047 86930,86662,86610
 7.0000e-001 86861  5.4692e+000  1.5446e+001 -9.1695e+000 50047 87002,86740,86714
 7.0000e-001 86838  5.8971e+000  4.8984e+000 -1.3100e+001 50047 86662,86714,86688
 7.0000e-001 86815 -4.2590e+000  3.5726e-001 -8.7599e-001 50047 86610,86662,86636
 7.0000e-001 86792 -1.9956e+000  2.2026e+000  1.1586e+000 50047 86584,86766,86610
 7.0000e-001 86956 -1.8556e+000  5.0614e+000 -5.8904e+000 50047 87002,86714,86930
 7.0000e-001 86979 -4.1466e+000  6.9070e-001 -2.7724e+000 50047 86766,86930,86610
 7.0000e-001 87028 -1.5229e+000  3.2550e+000 -4.2709e+000 50047 86766,86740,87002
 7.0000e-001 87051 -3.3832e+000  2.5671e+000 -2.6935e+000 50047 86766,87002,86930
 7.0000e-001 87250  1.5084e+000  5.8285e+000 -1.1366e+001 49543 87273,87126,87100
 7.0000e-001 87227  7.4634e+000  3.7278e+000 -1.3974e+001 49543 87273,87100,87074
 7.0000e-001 87204 -6.9720e+000  1.2059e+000 -6.0401e+000 49543 87126,87178,87152
 7.0000e-001 87299 -5.8577e+000  1.4108e+000 -5.6071e+000 49543 87178,87126,87273
 7.0000e-001 87322  3.7905e+000  4.0007e+000 -9.2001e+000 49543 87178,87273,87074
 7.0000e-001 87570 -2.1207e+001 -2.3876e+000 -4.4521e+000 49146 87593,87449,87397
 7.0000e-001 87547 -2.0736e+001 -3.8374e+000 -9.4478e+000 49146 87593,87397,87371
 7.0000e-001 87524 -1.0362e+001 -1.3730e+000 -6.6257e+000 49146 87345,87475,87371
 7.0000e-001 87501 -1.9502e+001  5.0093e+000 -1.8789e+000 49146 87397,87449,87423
 7.0000e-001 87619 -1.4988e+001 -9.1781e-001 -2.9520e+000 49146 87475,87449,87593
 7.0000e-001 87642 -1.7077e+001 -2.4662e+000 -7.6298e+000 49146 87475,87593,87371
 7.0000e-001 88073 -1.2352e+001  1.7710e+000  6.5848e+000 48706 87854,87932,87880
 7.0000e-001 88050 -6.1754e+000  1.1242e+001  3.6694e+000 48706 87828,87932,87854
 7.0000e-001 88027 -6.8527e+000  4.6660e+000  3.9266e+000 48706 87750,87932,87828
 7.0000e-001 88004 -1.6765e+001 -1.0360e+001  9.5161e-001 48706 87750,87802,87776
 7.0000e-001 87981 -3.6401e+000  1.6634e+001  5.6245e+000 48706 87750,87828,87802
 7.0000e-001 87958 -6.7136e+000  3.0547e+000  8.1293e+000 48706 87880,87932,87906
 7.0000e-001 88402  4.6984e-001  2.1693e+001  1.4423e+000 48145 88203,88281,88255
 7.0000e-001 88379  1.4009e+000  2.3218e+001  5.5286e+000 48145 88203,88307,88281
 7.0000e-001 88356 -7.0117e+000  1.8638e+001  3.7216e+000 48145 88203,88255,88229
 7.0000e-001 88333 -5.0393e+000  1.5118e+001  1.1069e+000 48145 88177,88307,88203
 7.0000e-001 88601  1.8541e+001  4.8069e+000  1.1310e+001 47805 88696,88624,88477
 7.0000e-001 88578  1.2813e+001  2.0188e+001  1.3899e+001 47805 88826,88624,88451
 7.0000e-001 88555  8.1203e+000  1.7244e+001  1.1792e+001 47805 88826,88451,88425
 7.0000e-001 88650  2.2607e+001  1.5746e+001  4.8069e+000 47805 88503,88477,88624
 7.0000e-001 88673  7.0920e+000  1.0983e+001  5.2771e+000 47805 88503,88624,88529
 7.0000e-001 88722  2.6418e+001  1.7550e+001  1.6365e+001 47805 88451,88624,88696
 7.0000e-001 88852  1.3839e+001  1.6159e+001  7.7026e+000 47805 88529,88624,88826
 7.0000e-001 88875  8.8558e+000  1.3318e+001  5.5943e+000 47805 88529,88826,88425
 7.0000e-001 89172 -6.7899e+000 -1.6940e+000 -4.5911e+000 47401 89195,88976,88898
 7.0000e-001 89149 -4.7901e+000 -7.7934e-001 -5.0124e+000 47401 89195,88898,89054
 7.0000e-001 89126 -8.1819e+000 -2.7996e+000 -4.1094e+000 47401 88898,88976,88950
 7.0000e-001 89103 -5.4143e+000  8.0631e-001 -2.0711e-001 47401 88976,89028,89002
 7.0000e-001 89080 -5.8906e+000  5.0191e+000  6.7370e-001 47401 88898,88950,88924
 7.0000e-001 89221 -8.6347e+000 -2.9450e+000 -1.5819e+000 47401 89028,88976,89195
 7.0000e-001 89244 -3.6990e+000 -6.8394e-001 -2.1791e+000 47401 89028,89195,89054
 7.0000e-001 89575  1.3655e+001  1.8475e+001  3.2056e+000 47111 89350,89454,89376
 7.0000e-001 89552  1.3385e+001  2.1098e+001  1.8053e+000 47111 89350,89480,89454
 7.0000e-001 89529  1.5315e+001  1.3674e+001 -1.5894e+000 47111 89376,89454,89402
 7.0000e-001 89506  1.5930e+001  1.5830e+001 -2.3198e+000 47111 89402,89454,89428
 7.0000e-001 89904  1.0658e+001  1.8441e+001  9.7652e-001 46707 89705,89757,89731
 7.0000e-001 89881  1.3745e+001  1.9737e+001  5.4154e-001 46707 89705,89783,89757
 7.0000e-001 89858  1.1064e+001  1.8128e+001 -7.9980e-001 46707 89679,89783,89705
 7.0000e-001 89835  1.5254e+001  9.7639e+000 -3.5896e+000 46707 89679,89809,89783
 7.0000e-001 90233  2.0304e+000  1.7707e+001 -1.2030e+000 46360 90034,90112,90086
 7.0000e-001 90210 -1.1419e+001  6.7474e+000 -7.1568e+000 46360 90034,90138,90112
 7.0000e-001 90187 -1.9647e+001  2.1933e+001  8.5922e-001 46360 90034,90086,90060
 7.0000e-001 90164 -1.0115e+001  1.3057e+001 -8.5917e+000 46360 90008,90138,90034
 7.0000e-001 90530 -6.2482e+000  3.0970e+000 -1.4658e+000 45662 90256,90360,90308
 7.0000e-001 90507 -1.3364e+000  5.0916e+000 -2.0883e+000 45662 90256,90412,90360
 7.0000e-001 90484  2.3218e+000  6.2141e+000 -6.2661e+000 45662 90256,90308,90282
 7.0000e-001 90461 -4.0004e+000  3.3485e+000  1.1774e+000 45662 90360,90412,90386
 7.0000e-001 90438 -2.0357e+000  4.1398e+000 -1.1971e+000 45662 90308,90360,90334
 7.0000e-001 90910 -3.4462e+000  1.1112e+001  1.7441e+000 45108 90688,90766,90714
 7.0000e-001 90887 -4.9162e-001  8.8036e+000  4.5438e+000 45108 90662,90766,90688
 7.0000e-001 90864 -1.8344e+001  3.2674e+000  2.4458e+000 45108 90636,90766,90662
 7.0000e-001 90841  1.3416e+001  7.8307e+000 -9.4645e+000 45108 90714,90766,90740
 7.0000e-001 90818 -1.0985e+001  7.0885e+000  8.3924e-001 45108 90636,90792,90766
 7.0000e-001 91158 -1.9171e+001  9.2235e+000  4.3978e+000 44604 91181,91011,90959
 7.0000e-001 91135 -2.8393e+001  1.0141e+001  8.0789e+000 44604 91181,90959,90933
 7.0000e-001 91112 -1.1021e+001  1.3374e+001  2.8036e+000 44604 90959,91011,90985
 7.0000e-001 91089 -2.1562e+001  1.9635e+001  8.7970e-002 44604 90933,91063,91037
 7.0000e-001 91207 -1.5513e+001  1.0185e+001  2.1810e+000 44604 91037,91011,91181
 7.0000e-001 91230 -2.0487e+001  1.8885e+001  3.4138e+000 44604 91037,91181,90933
 7.0000e-001 91429 -2.9154e+000  1.5841e+001 -5.3053e-001 44264 91452,91279,91253
 7.0000e-001 91406 -1.4739e+000  1.9828e+001 -1.1866e+000 44264 91452,91253,91357
 7.0000e-001 91383 -4.2172e+000  1.1148e+001  1.8504e-001 44264 91279,91331,91305
 7.0000e-001 91478 -9.2542e-001  1.2115e+001 -9.1871e-002 44264 91331,91279,91452
 7.0000e-001 91501  4.0336e-001  1.5374e+001 -1.2412e+000 44264 91331,91452,91357
 7.0000e-001 92060 -9.6482e+000 -6.4294e+000  1.3301e+000 43860 92083,91740,91688
 7.0000e-001 92037 -2.1363e+001 -9.6375e+000  9.7930e-001 43860 92083,91688,91896
 7.0000e-001 92014 -1.6620e+001 -8.3698e+000 -4.8264e+000 43860 91766,91870,91844
 7.0000e-001 91991 -1.7750e+001 -3.0804e+000 -5.8512e+000 43860 91740,91870,91766
 7.0000e-001 91968 -1.5017e+000  4.2861e-001 -1.0971e+000 43860 91766,91844,91792
 7.0000e-001 91945 -7.5904e+000 -3.3809e+000  2.4850e-001 43860 91688,91740,91714
 7.0000e-001 91922 -6.8114e+000 -5.9985e+000 -3.4952e+000 43860 91792,91844,91818
 7.0000e-001 92109 -2.0344e+001 -2.4353e+000 -4.9269e+000 43860 91870,91740,92083
 7.0000e-001 92132 -3.1771e+001 -5.9012e+000 -5.9192e+000 43860 91870,92083,91896
 7.0000e-001 92353 -9.7376e+000  5.6561e+000  7.6074e-001 43662 92203,92255,92229
 7.0000e-001 92330 -8.7212e+000  3.1262e+000 -6.6525e-001 43662 92376,92203,92281
 7.0000e-001 92307 -1.6277e+001 -7.9547e-001 -3.9243e+000 43662 92177,92281,92203
 7.0000e-001 92402 -6.0515e+000  4.2917e+000  1.5907e-001 43662 92255,92203,92376
 7.0000e-001 92682 -4.9637e+000  1.0817e+001 -1.1299e+000 43464 92532,92584,92558
 7.0000e-001 92659 -9.0119e+000  9.1614e+000 -1.9658e+000 43464 92506,92584,92532
 7.0000e-001 92636  2.5255e+000  1.5211e+001 -4.2206e+000 43464 92506,92610,92584
 7.0000e-001 93013 -8.7172e+000  6.6507e+000 -7.3904e+000 42960 92866,92918,92892
 7.0000e-001 92990 -1.3087e+001  9.7753e+000 -2.6993e+000 42960 93036,92918,92866
 7.0000e-001 92967 -1.2609e+001  1.0058e+001 -2.8180e+000 42960 93036,92866,92840
 7.0000e-001 92944 -1.0710e+001  8.0492e+000 -2.3351e+000 42960 92788,92918,92814
 7.0000e-001 93062 -1.2783e+001  8.7089e+000 -2.1356e+000 42960 92814,92918,93036
 7.0000e-001 93085 -1.1255e+001  9.5604e+000 -2.4788e+000 42960 92814,93036,92840
 7.0000e-001 93186 -2.1558e+000  8.2462e+000 -5.5501e-001 42556 93108,93160,93134
 7.0000e-001 93554 -5.5885e+000  1.2247e+001 -2.2586e+000 42052 93231,93387,93361
 7.0000e-001 93531 -1.7749e+000  1.2572e+001 -4.3459e+000 42052 93231,93413,93387
 7.0000e-001 93508 -4.4774e+000  1.1100e+001 -2.3116e+000 42052 93231,93361,93257
 7.0000e-001 93485 -7.7207e+000  5.0150e+000  8.9238e-001 42052 93283,93361,93335
 7.0000e-001 93462 -1.3624e+001  7.5585e+000 -2.7957e+000 42052 93257,93361,93283
 7.0000e-001 93439 -1.1343e+001  2.6790e+000  4.8579e+000 42052 93283,93335,93309
 7.0000e-001 94162 -8.3642e+000  8.8808e+000  7.3764e+000 41498 93767,93975,93793
 7.0000e-001 94139 -1.0108e+001  6.9898e+000  3.0635e-001 41498 93741,93975,93767
 7.0000e-001 94116 -7.7700e+000  5.5333e+000  6.4353e+000 41498 93793,93975,93923
 7.0000e-001 94093 -4.1622e+000  1.4054e+001  4.1474e+000 41498 93923,93975,93949
 7.0000e-001 94070 -2.2995e+000  1.3773e+000  8.3954e+000 41498 93871,93923,93897
 7.0000e-001 94047 -1.0173e+001  4.6336e+000  6.5268e+000 41498 93793,93923,93871
 7.0000e-001 94024  3.9974e-001  5.7587e+000  6.6965e+000 41498 93819,93871,93845
 7.0000e-001 94001 -1.0972e+001  1.4825e+000  6.6126e+000 41498 93793,93871,93819
 7.0000e-001 94619  1.3166e+001  3.7163e+000 -4.6971e+000 40930 94642,94423,94371
 7.0000e-001 94596  1.5632e+001  3.2957e+000 -8.8227e-001 40930 94642,94371,94345
 7.0000e-001 94573  1.8039e+001  1.7814e+001 -6.3176e-001 40930 94345,94501,94475
 7.0000e-001 94550  2.1275e+001  6.5713e+000 -7.5831e+000 40930 94371,94423,94397
 7.0000e-001 94527  1.7942e+001  1.0544e+001 -4.1914e+000 40930 94423,94475,94449
 7.0000e-001 94668  1.6034e+001  1.0079e+001 -4.0980e+000 40930 94475,94423,94642
 7.0000e-001 94691  1.6763e+001  5.9238e+000 -8.0094e-001 40930 94475,94642,94345
 7.0000e-001 95148 -8.8583e+000 -1.6434e-001 -5.4523e+000 40362 95171,94952,94926
 7.0000e-001 95125 -8.5960e+000  1.3233e+000  1.4690e-001 40362 95171,94926,95004
 7.0000e-001 95102 -7.3542e+000 -3.2750e+000 -1.2135e+000 40362 94874,95004,94926
 7.0000e-001 95079 -9.9857e+000 -4.1302e+000 -1.4849e+000 40362 94874,95030,95004
 7.0000e-001 95056 -6.0999e+000 -1.0932e-001 -1.1263e+000 40362 94874,94926,94900
 7.0000e-001 95197 -7.4888e+000  5.4391e+000 -5.2809e+000 40362 94978,94952,95171
 7.0000e-001 95220 -7.1351e+000  6.6987e+000  1.2832e-001 40362 94978,95171,95004
 7.0000e-001 95549 -2.9283e+000  9.3383e+000 -1.4415e+000 39586 95350,95402,95376
 7.0000e-001 95526 -4.7807e+000  8.3338e+000 -1.0322e+000 39586 95324,95402,95350
 7.0000e-001 95503 -3.1857e+000  1.2772e+001 -8.5254e-001 39586 95324,95454,95402
 7.0000e-001 95480  6.2232e-001  2.1043e+001  7.4974e-001 39586 95402,95454,95428
 7.0000e-001 96055 -7.4951e+000  4.1840e+000  2.4789e+000 38968 96078,95862,95810
 7.0000e-001 96032 -5.8987e+000  5.4180e+000  3.1317e+000 38968 96078,95810,95758
 7.0000e-001 96009 -9.4424e+000  9.7418e+000  4.6525e+000 38968 96150,95732,95888
 7.0000e-001 95986 -5.8663e+000  5.4101e+000  3.3031e+000 38968 95810,95862,95836
 7.0000e-001 95963 -1.2894e+001  1.1585e+001  2.1454e-001 38968 95732,95914,95888
 7.0000e-001 95940 -3.1778e+000  7.9777e+000  1.3239e+000 38968 95758,95810,95784
 7.0000e-001 96104 -6.5667e+000  5.9652e+000  1.3332e+000 38968 95888,95862,96078
 7.0000e-001 96127 -6.8777e+000  8.6748e+000  1.9457e+000 38968 96150,95888,96078
 7.0000e-001 96176 -1.2919e+001  5.2116e+000  6.2745e+000 38968 95758,95732,96150
 7.0000e-001 96199 -1.0413e+001  3.3348e+000  3.6510e+000 38968 95758,96150,96078
 7.0000e-001 96545 -5.1375e+000  1.1802e+000  6.9873e+000 38507 96640,96568,96352
 7.0000e-001 96522 -1.0173e+001 -3.4492e+000  1.0023e+001 38507 96568,96300,96222
 7.0000e-001 96499 -3.3126e+000  3.5585e+000  3.2402e+000 38507 96640,96352,96326
 7.0000e-001 96476 -4.1538e-001 -1.1874e+000  1.5791e+000 38507 96352,96404,96378
 7.0000e-001 96453 -9.7125e+000  1.6324e+000  9.4218e+000 38507 96222,96300,96248
 7.0000e-001 96430 -3.0962e-002  1.0830e+000 -1.3997e-001 38507 96248,96300,96274
 7.0000e-001 96594 -6.5419e+000 -2.2712e+000  8.2467e+000 38507 96404,96352,96568
 7.0000e-001 96617 -6.6343e+000 -1.1863e+000  8.0729e+000 38507 96404,96568,96222
 7.0000e-001 96666 -7.7388e+000 -4.3490e+000  8.9122e+000 38507 96300,96568,96640
 7.0000e-001 96689 -7.2621e+000 -2.6764e+000  5.5243e+000 38507 96300,96640,96326
 7.0000e-001 97069 -2.1027e+001 -5.6489e+000 -4.2608e+000 37760 97092,96873,96821
 7.0000e-001 97046 -2.0172e+001 -5.6327e+000 -7.0381e-001 37760 97092,96821,96795
 7.0000e-001 97023 -8.2851e+000 -1.0131e+001 -4.6122e+000 37760 96821,96873,96847
 7.0000e-001 97000 -3.8591e+001  6.9432e+000 -1.2358e+001 37760 96873,96925,96899
 7.0000e-001 96977 -1.3304e+001  6.3510e+000 -1.7649e+000 37760 96795,96951,96925
 7.0000e-001 97118 -1.9868e+001 -2.4481e+000 -3.6835e+000 37760 96925,96873,97092
 7.0000e-001 97141 -1.8205e+001 -2.2482e+000  2.0312e-001 37760 96925,97092,96795
 7.0000e-001 97647  3.9827e+000 -5.8208e-001  4.0250e-001 37356 97324,97480,97376
 7.0000e-001 97624  1.0918e+001 -1.3789e-001  4.2750e+000 37356 97324,97506,97480
 7.0000e-001 97601  9.1634e+000  4.3696e+000  2.4332e+000 37356 97376,97480,97454
 7.0000e-001 97578  6.4772e-001 -7.5783e-001  3.3002e+000 37356 97324,97376,97350
 7.0000e-001 97555  4.8715e+000  2.9974e+000  3.1369e+000 37356 97376,97454,97402
 7.0000e-001 97532  1.2484e+001  7.6860e+000  5.8592e+000 37356 97402,97454,97428
 7.0000e-001 98232  8.6658e+000  6.8085e+000 -9.3757e+000 36902 97935,98065,98013
 7.0000e-001 98209  1.1744e+001  9.2132e+000 -8.0119e+000 36902 97935,98091,98065
 7.0000e-001 98186  1.5909e+001  1.3178e+001 -1.2563e+001 36902 97935,98013,97987
 7.0000e-001 98163  1.4099e+001  1.2790e+001 -6.9689e+000 36902 97909,98091,97935
 7.0000e-001 98140  2.2149e+001  1.0932e+001 -1.9074e+001 36902 97935,97987,97961
 7.0000e-001 98117  1.2932e+001  1.4535e+001 -6.8054e+000 36902 98013,98065,98039
 7.0000e-001 98659 -1.6500e+000  1.1643e+001  1.2525e+001 36604 98682,98414,98388
 7.0000e-001 98636 -8.7105e+000  6.1816e+000  1.7454e+000 36604 98682,98388,98336
 7.0000e-001 98613 -8.1099e+000 -1.1181e+000  1.4634e-001 36604 98754,98518,98466
 7.0000e-001 98590 -7.4400e+000 -7.4752e+000  7.3001e+000 36604 98414,98466,98440
 7.0000e-001 98567 -1.1759e+001  4.1751e+000  5.7327e-001 36604 98336,98388,98362
 7.0000e-001 98544 -7.4326e+000 -6.0129e-001  1.2229e+000 36604 98466,98518,98492
 7.0000e-001 98708 -8.3217e+000 -9.3643e-001  8.4933e+000 36604 98466,98414,98682
 7.0000e-001 98731 -8.4894e+000  2.1279e+000 -7.1198e-002 36604 98754,98466,98682
 7.0000e-001 98780 -7.8235e+000 -2.8503e+000 -2.2090e-001 36604 98336,98518,98754
 7.0000e-001 98803 -9.5510e+000 -1.2234e+000 -9.1866e-001 36604 98336,98754,98682
 7.0000e-001 99309 -8.4780e+000  4.1786e-001  2.8093e-001 36200 99332,99116,99012
 7.0000e-001 99286 -8.5893e+000 -3.7603e+000  2.2555e+000 36200 99332,99012,98986
 7.0000e-001 99263 -6.2244e+000 -1.5117e+000 -2.1800e+000 36200 99012,99116,99064
 7.0000e-001 99240 -4.5446e+000  1.0798e+001  1.0645e+000 36200 98986,99168,99142
 7.0000e-001 99217 -1.9390e+001  2.5885e+000 -4.7220e+000 36200 99064,99116,99090
 7.0000e-001 99194 -5.8689e+000 -1.2615e+000 -1.9678e+000 36200 99012,99064,99038
 7.0000e-001 99358 -8.0353e+000  3.2483e+000 -8.7282e-001 36200 99142,99116,99332
 7.0000e-001 99381 -7.7353e+000  5.9507e-001  1.5132e+000 36200 99142,99332,98986
 7.0000e-001 99887 -9.1763e+000 -7.7209e+000  5.1463e+000 35488 99564,99720,99590
 7.0000e-001 99864 -2.9890e+000  5.1437e+000  9.3100e+000 35488 99564,99746,99720
 7.0000e-001 99841 -7.0083e+000 -4.1332e+000 -4.0296e+000 35488 99642,99694,99668
 7.0000e-001 99818 -3.2537e+000 -5.6883e+000  8.5814e-001 35488 99590,99694,99642
 7.0000e-001 99795 -4.4334e+000 -1.7182e+000  1.7735e+000 35488 99590,99720,99694
 7.0000e-001 99772 -7.9942e+000 -7.3558e+000 -7.1008e-001 35488 99590,99642,99616
 7.0000e-001 99988 -5.2447e+000  1.2889e+001 -2.3221e+000 35198 99910,99962,99936
 7.0000e-001 100138 -1.3043e+001  1.6905e+000  7.4230e+000 34794 100233,100161,100063
 7.0000e-001 100115 -2.2034e+001  1.4459e-002  9.6917e+000 34794 100365,100161,100037
 7.0000e-001 100187 -2.8057e+000 -8.4115e-001  6.2620e+000 34794 100089,100063,100161
 7.0000e-001 100210 -1.3946e+001  1.6606e+000  9.3414e+000 34794 100089,100161,100011
 7.0000e-001 100259 -1.3992e+001 -7.2359e-001  7.6806e+000 34794 100037,100161,100233
 7.0000e-001 100391 -1.8852e+001 -6.8276e+000  1.3195e+001 34794 100011,100161,100365
 7.0000e-001 100927 -6.9201e+000 -7.4775e-001  3.2473e+000 34404 100679,100809,100783
 7.0000e-001 100904  2.8875e+000  6.5413e+000  6.4898e+000 34404 100653,100809,100679
 7.0000e-001 100881 -3.8098e+000 -3.3894e-001  8.3908e-001 34404 100705,100783,100731
 7.0000e-001 100858 -4.0508e+000  1.1911e+000  1.6926e+000 34404 100679,100783,100705
 7.0000e-001 100835 -1.5565e-001  4.0758e+000  3.4616e+000 34404 100731,100783,100757
 7.0000e-001 101354  6.0963e+000  5.7194e+000  6.4785e-001 34000 101377,101109,101057
 7.0000e-001 101331  5.7916e+000  6.7586e+000  1.8010e+000 34000 101449,101377,101057
 7.0000e-001 101308  5.8085e+000  4.3630e+000  1.5268e+000 34000 101449,101057,101031
 7.0000e-001 101285  2.8630e+000  9.8668e-001  5.1902e+000 34000 101031,101213,101187
 7.0000e-001 101262  5.5532e+000 -9.0168e-001  8.2269e-001 34000 101135,101187,101161
 7.0000e-001 101239  4.4786e+000  3.9207e+000  1.3355e+000 34000 101057,101109,101083
 7.0000e-001 101403  6.2368e+000  8.2446e+000 -5.9770e-001 34000 101135,101109,101377
 7.0000e-001 101426  5.3676e+000  7.2648e+000  2.0343e+000 34000 101135,101377,101187
 7.0000e-001 101475  5.2102e+000  3.4708e+000  2.3719e+000 34000 101187,101377,101449
 7.0000e-001 101498  6.2134e+000  2.3431e+000  1.9160e+000 34000 101187,101449,101031
 7.0000e-001 102083 -9.5977e+000  5.2311e-001 -3.1634e-002 33472 102106,101812,101786
 7.0000e-001 102060 -7.3414e+000  4.8256e-001  1.4843e+000 33472 102106,101786,101916
 7.0000e-001 102037 -6.3405e+000  1.0810e+000 -1.8009e-001 33472 101812,101864,101838
 7.0000e-001 102014 -9.4132e+000  7.0067e+000  2.3813e+000 33472 101864,101916,101890
 7.0000e-001 101991 -2.8846e+000  5.4291e+000  3.3580e+000 33472 101786,101942,101916
 7.0000e-001 101968  6.7859e-002  7.0967e+000 -1.9307e+000 33472 101760,101942,101786
 7.0000e-001 102132 -7.9096e+000  1.9994e+000  8.2932e-001 33472 101864,101812,102106
 7.0000e-001 102155 -6.7040e+000  1.5824e+000  2.2984e+000 33472 101864,102106,101916
 7.0000e-001 102612  6.8925e+000  1.5158e+001 -4.9619e-001 33038 102635,102468,102390
 7.0000e-001 102589  5.7825e+000  9.2599e+000  1.3403e+000 33038 102635,102390,102364
 7.0000e-001 102566  1.0725e+001  1.0514e+001 -1.8478e+000 33038 102390,102468,102442
 7.0000e-001 102543 -3.8016e-001 -6.1426e-001  4.3575e+000 33038 102338,102494,102364
 7.0000e-001 102520  7.2293e+000  9.0374e+000 -1.9942e+000 33038 102390,102442,102416
 7.0000e-001 102661  5.0294e+000  1.6129e+001  3.6890e+000 33038 102494,102468,102635
 7.0000e-001 102684  2.3349e+000  1.1155e+001  5.8277e+000 33038 102494,102635,102364
 7.0000e-001 103318 -1.2276e+000  3.9593e+000  1.1476e+000 32402 102972,103128,103076
 7.0000e-001 103295  8.9437e-001  7.1907e+000  2.4286e+000 32402 102946,103128,102972
 7.0000e-001 103272  3.0835e+000  1.2923e+001  3.3737e+000 32402 103076,103128,103102
 7.0000e-001 103249  5.8611e-001  6.9649e+000  1.1140e+000 32402 102946,103154,103128
 7.0000e-001 103226 -1.0072e+000  4.1693e+000  1.0196e+000 32402 102972,103076,102998
 7.0000e-001 103203 -9.1605e+000  3.7189e+000  2.0937e+000 32402 102998,103076,103050
 7.0000e-001 103180 -5.0022e+000  1.4428e+001 -1.6479e+000 32402 102998,103050,103024
 7.0000e-001 103696  7.4900e+000  9.2720e+000 -3.0806e+000 31924 103448,103526,103500
 7.0000e-001 103673 -7.2069e+000  2.2628e+000 -6.2927e+000 31924 103448,103578,103526
 7.0000e-001 103650 -3.7308e+000  5.6824e+000  6.2600e-001 31924 103448,103500,103474
 7.0000e-001 103627 -2.1598e+001  2.3346e+001 -9.2110e+000 31924 103422,103578,103448
 7.0000e-001 103604  2.2229e+001  4.2065e+000 -1.2105e+001 31924 103526,103578,103552
 7.0000e-001 104281 -5.2530e+000  1.4641e+000 -4.0570e-001 31520 104304,104062,104036
 7.0000e-001 104258 -2.5945e+000  4.0312e+000  6.4550e-001 31520 104304,104036,103984
 7.0000e-001 104235 -4.3573e+000  3.6095e+000  1.7274e+000 31520 104062,104114,104088
 7.0000e-001 104212 -1.0921e+001  2.3105e+000  2.1110e+000 31520 103958,104114,103984
 7.0000e-001 104189 -9.9932e-001  7.7364e+000  1.7919e-001 31520 103984,104036,104010
 7.0000e-001 104166 -8.7569e+000  1.1030e+001  9.4123e-001 31520 103958,104140,104114
 7.0000e-001 104330 -5.2437e+000  4.2610e+000  8.9759e-001 31520 104114,104062,104304
 7.0000e-001 104353 -4.6091e+000  5.1777e+000  1.2731e+000 31520 104114,104304,103984
 7.0000e-001 104704 -3.2920e+000  6.1541e+000  4.0758e-001 31066 104479,104583,104505
 7.0000e-001 104681 -6.2465e+000  5.6222e+000  3.0249e-001 31066 104479,104609,104583
 7.0000e-001 104658 -9.0793e+000  6.6780e+000 -7.4628e-001 31066 104505,104557,104531
 7.0000e-001 104635 -7.4281e+000  3.5001e+000 -7.3096e-001 31066 104505,104583,104557
 7.0000e-001 104925 -3.1841e+001  2.6615e+001  4.0061e+000 30754 104775,104827,104801
 7.0000e-001 104902 -2.7793e+001  2.8100e+000  2.3088e+000 30754 104775,104853,104827
 7.0000e-001 104879 -3.2240e+001  4.6680e-001 -3.6093e+000 30754 104749,104853,104775
 7.0000e-001 105482 -9.9243e+000  2.8577e+000  1.4532e+001 30164 105505,105136,105110
 7.0000e-001 105459 -1.1958e+001  1.6897e+001  9.4255e+000 30164 105649,105505,105110
 7.0000e-001 105436 -1.1356e+001 -6.6036e+000  1.4635e+001 30164 105577,105188,105136
 7.0000e-001 105413 -9.2695e+000  1.9156e+001  2.4369e+000 30164 105649,105110,105318
 7.0000e-001 105390 -9.6143e+000  2.5397e+000  5.7257e+000 30164 105214,105292,105240
 7.0000e-001 105367  2.8209e+000  8.0312e+000  3.9807e+000 30164 105240,105292,105266
 7.0000e-001 105344 -7.8056e+000 -2.3942e+001  1.9422e+001 30164 105136,105188,105162
 7.0000e-001 105531 -8.9847e+000 -6.0466e+000  1.1398e+001 30164 105577,105136,105505
 7.0000e-001 105554 -1.1091e+001 -3.5456e-002  8.4025e+000 30164 105214,105505,105292
 7.0000e-001 105603 -1.1958e+001 -1.0902e+001  1.6838e+001 30164 105214,105188,105577
 7.0000e-001 105626 -1.0768e+001 -1.1092e+001  1.3767e+001 30164 105214,105577,105505
 7.0000e-001 105675 -1.6343e+001  6.7517e+000  9.8852e+000 30164 105292,105505,105649
 7.0000e-001 105698 -1.6171e+001  3.9418e+000  4.1235e+000 30164 105292,105649,105318
 7.0000e-001 106027  1.6884e+001  6.1451e+000 -6.9906e-001 29868 106322,106050,105880
 7.0000e-001 106004  8.5459e+000 -7.0941e+000 -2.8966e-001 29868 106250,106050,105828
 7.0000e-001 105981  6.3043e+000 -5.6579e+000  4.3042e+000 29868 106250,105828,105802
 7.0000e-001 105958  9.5366e+000  1.3448e+001  6.3392e+000 29868 106322,105880,106122
 7.0000e-001 106076  1.7214e+001  2.1632e+001 -1.0862e+001 29868 105906,105880,106050
 7.0000e-001 106099  4.0558e+000  2.2919e+000 -4.2780e+000 29868 105906,106050,105932
 7.0000e-001 106148 -9.3225e-001  3.8044e+000  8.3666e+000 29868 105854,105828,106122
 7.0000e-001 106276  1.0750e+001 -1.6417e-001 -3.1805e+000 29868 105932,106050,106250
 7.0000e-001 106299  6.8702e+000  2.6757e+000  1.7609e+000 29868 105932,106250,105802
 7.0000e-001 106348  3.6234e+000 -9.1010e-001 -3.5851e+000 29868 105828,106050,106322
 7.0000e-001 106371 -2.4040e+000  7.0298e+000  3.5445e+000 29868 105828,106322,106122
 7.0000e-001 106828  2.6099e+000  6.5722e+000 -1.0674e+000 29521 106580,106710,106684
 7.0000e-001 106805  5.3349e+000  4.5753e+000  2.6042e+000 29521 106554,106710,106580
 7.0000e-001 106782  5.9885e+000  7.3240e+000 -6.3484e-001 29521 106580,106684,106606
 7.0000e-001 106759  5.6049e+000  6.8687e+000 -9.9849e-001 29521 106606,106684,106658
 7.0000e-001 106736  6.0804e+000  8.9851e+000 -1.7659e-001 29521 106606,106658,106632
 7.0000e-001 107027 -2.5723e+000 -8.6321e-001  2.9963e+000 29117 106877,106929,106903
 7.0000e-001 107004 -4.2514e+000 -1.5601e+000  4.4583e+000 29117 106851,106929,106877
 7.0000e-001 106981  1.4859e+000  6.6672e-001  2.5819e+000 29117 106851,106955,106929
 7.0000e-001 107456 -2.1325e+000  5.7767e+000 -3.3361e-001 28656 107237,107315,107263
 7.0000e-001 107433 -3.4979e+000  6.1423e+000 -5.6938e-001 28656 107133,107315,107237
 7.0000e-001 107410 -6.1841e+000 -1.3151e-001 -3.0541e-002 28656 107133,107237,107159
 7.0000e-001 107387 -6.1897e+000  1.3676e+000 -3.2583e-001 28656 107159,107237,107185
 7.0000e-001 107364 -1.0095e+001 -7.5152e-002  3.8977e-001 28656 107185,107237,107211
 7.0000e-001 107341 -1.3248e+000  1.0382e+001 -4.7606e+000 28656 107263,107315,107289
 7.0000e-001 107704  1.4736e-001  3.7026e+000  2.2477e+000 27902 107727,107557,107531
 7.0000e-001 107681 -1.2439e+000  4.1915e+000  1.2672e+000 27902 107727,107531,107505
 7.0000e-001 107658  2.0060e+000  8.5025e+000  3.6075e+000 27902 107557,107609,107583
 7.0000e-001 107635 -2.8155e-001  3.6466e+000  7.1767e-001 27902 107479,107609,107505
 7.0000e-001 107753  1.6840e+000  3.8340e+000  2.2476e+000 27902 107609,107557,107727
 7.0000e-001 107776  2.7432e-001  4.3617e+000  1.3402e+000 27902 107609,107727,107505
 7.0000e-001 108333 -4.3882e+000  5.0005e+000 -5.8199e-001 27341 108356,108065,108013
 7.0000e-001 108310 -4.0607e+000  4.8305e+000  7.8042e-001 27341 108356,108013,108143
 7.0000e-001 108287 -3.9588e+000  5.9635e+000  6.0791e-001 27341 108428,108117,108091
 7.0000e-001 108264 -4.5213e+000  4.7192e+000 -5.1044e-001 27341 108013,108065,108039
 7.0000e-001 108241 -5.2039e+000  3.3449e+000  2.3732e-001 27341 107987,108143,108013
 7.0000e-001 108218 -9.8148e+000  1.3264e+000  1.0227e+000 27341 107987,108169,108143
 7.0000e-001 108195 -1.2425e+001  4.4124e+000  1.1230e+000 27341 107961,108169,107987
 7.0000e-001 108382 -3.7666e+000  6.3206e+000 -3.5375e-001 27341 108091,108065,108356
 7.0000e-001 108405 -3.6123e+000  5.1013e+000  3.5978e-001 27341 108428,108091,108356
 7.0000e-001 108454 -3.4318e+000  7.7800e+000  9.7057e-001 27341 108143,108117,108428
 7.0000e-001 108477 -3.3469e+000  6.4973e+000  7.5348e-001 27341 108143,108428,108356
 7.0000e-001 108725 -4.9390e+001 -3.3810e+001  6.4241e+000 27029 108748,108526,108500
 7.0000e-001 108702 -4.6581e+001 -4.5818e+001  4.5766e+000 27029 108748,108500,108630
 7.0000e-001 108679 -3.7276e+001 -2.4272e+001  1.1099e+001 27029 108578,108630,108604
 7.0000e-001 108656 -5.0534e+001 -4.8376e+001 -2.2070e+001 27029 108526,108578,108552
 7.0000e-001 108774 -4.6544e+001 -2.7676e+001  7.5012e+000 27029 108578,108526,108748
 7.0000e-001 108797 -4.0872e+001 -3.6078e+001  6.9562e+000 27029 108578,108748,108630
 7.0000e-001 109045 -6.2327e+000 -3.3762e-001 -1.3695e+000 26610 108872,108924,108898
 7.0000e-001 109022 -6.3218e+000  5.8537e-001 -9.4328e-001 26610 108872,108950,108924
 7.0000e-001 108999 -8.6016e+000 -1.0973e+000 -3.4893e+000 26610 108846,108950,108872
 7.0000e-001 108976 -8.2164e+000 -5.0250e+000 -4.0932e+000 26610 108820,108950,108846
 7.0000e-001 109366 -5.8351e+000  5.8769e+000  3.3579e-001 26006 109144,109222,109196
 7.0000e-001 109343 -6.1503e+000  5.7265e+000  2.6093e-001 26006 109118,109222,109144
 7.0000e-001 109320 -5.2113e+000  6.4606e+000 -2.4910e-001 26006 109092,109222,109118
 7.0000e-001 109297 -4.6286e+000  6.3535e+000  7.2935e-001 26006 109144,109196,109170
 7.0000e-001 109274 -7.4583e+000  2.9445e+000  7.1385e-001 26006 109092,109248,109222
 7.0000e-001 109567  1.5334e+000  8.4085e+000  6.3636e-001 25659 109391,109469,109443
 7.0000e-001 109544  3.4266e+000  8.9285e+000  1.2768e+000 25659 109391,109495,109469
 7.0000e-001 109521 -2.0125e+000  2.7901e+000  2.2306e+000 25659 109391,109443,109417
 7.0000e-001 109900  5.7695e+000  1.0240e+001  5.8061e-001 25255 109923,109779,109753
 7.0000e-001 109877  6.8133e+000  1.3995e+001  2.6956e+000 25255 109923,109753,109701
 7.0000e-001 109854  5.4276e+000  4.8398e+000 -2.2213e+000 25255 109675,109805,109701
 7.0000e-001 109831  4.0180e+000  4.3313e+000  6.5417e+000 25255 109701,109753,109727
 7.0000e-001 109949  3.7476e+000  4.6821e+000 -3.1319e+000 25255 109805,109779,109923
 7.0000e-001 109972  6.7947e+000  1.1499e+001 -8.4217e-001 25255 109805,109923,109701
 7.0000e-001 110220  2.7486e+000  4.6502e+000  3.7990e+000 24701 110243,110021,109995
 7.0000e-001 110197  3.1363e+000  5.1508e+000  2.9703e+000 24701 110243,109995,110099
 7.0000e-001 110174  3.6604e+000  5.1696e+000  2.5286e+000 24701 110315,110073,110047
 7.0000e-001 110151  5.6516e+000  3.3704e+000  2.9781e+000 24701 109995,110125,110099
 7.0000e-001 110269  4.3065e+000  4.4826e+000  3.1036e+000 24701 110047,110021,110243
 7.0000e-001 110292  2.8471e+000  5.2234e+000  2.8269e+000 24701 110315,110047,110243
 7.0000e-001 110341  5.5463e+000  5.8100e+000  2.3974e+000 24701 110099,110073,110315
 7.0000e-001 110364  4.2414e+000  5.6231e+000  2.6162e+000 24701 110099,110315,110243
 7.0000e-001 110661 -4.9519e+000  4.1547e+000  3.7091e+000 24197 110684,110413,110387
 7.0000e-001 110638 -2.6073e+000  9.3075e+000  3.1688e+000 24197 110684,110387,110543
 7.0000e-001 110615 -2.8093e+000  7.8958e+000  4.0235e-001 24197 110756,110491,110465
 7.0000e-001 110592 -4.8446e+000  3.5805e+000  8.7136e-001 24197 110413,110465,110439
 7.0000e-001 110569 -2.9628e+000  1.0370e+001  3.4172e+000 24197 110491,110543,110517
 7.0000e-001 110710 -3.4898e+000  3.8642e+000  6.4817e-001 24197 110465,110413,110684
 7.0000e-001 110733 -2.1344e+000  7.1370e+000  5.7403e-001 24197 110756,110465,110684
 7.0000e-001 110782 -3.1196e+000  7.0509e+000  1.0424e+000 24197 110543,110491,110756
 7.0000e-001 110805 -2.7853e+000  5.8977e+000  1.2525e+000 24197 110543,110756,110684
 7.0000e-001 111315 -1.3702e+001  2.4419e+000 -1.1576e+001 23593 111044,111148,111070
 7.0000e-001 111292 -4.6330e+000  1.0195e+001 -8.1867e+000 23593 111044,111174,111148
 7.0000e-001 111269  1.0655e+001 -1.5484e+001 -1.6925e+001 23593 111070,111122,111096
 7.0000e-001 111246  2.8815e-001  2.8571e+001 -5.4689e+000 23593 111070,111148,111122
 7.0000e-001 111223 -1.2361e+000 -1.8282e-001 -3.8293e-001 23593 111018,111174,111044
 7.0000e-001 111200 -1.6558e+000  6.5626e-001 -3.5533e-001 23593 110992,111174,111018
 7.0000e-001 111821 -6.4192e+000  4.6955e+000  1.0520e-001 23089 111916,111844,111628
 7.0000e-001 111798 -4.8523e+000  5.9341e+000  5.4597e-002 23089 111844,111550,111524
 7.0000e-001 111775 -6.7304e+000  3.9964e+000 -6.1416e-002 23089 111916,111628,111602
 7.0000e-001 111752 -6.7411e+000  1.0857e+001 -1.2848e+000 23089 111498,111680,111524
 7.0000e-001 111729 -6.2958e+000  2.4883e+000 -4.2085e-002 23089 111550,111602,111576
 7.0000e-001 111706 -5.1773e+000  1.5309e+000  8.0905e-001 23089 111628,111680,111654
 7.0000e-001 111870 -4.8399e+000  4.4081e+000 -5.4088e-001 23089 111680,111628,111844
 7.0000e-001 111893 -4.3033e+000  5.5360e+000 -1.7314e+000 23089 111680,111844,111524
 7.0000e-001 111942 -5.4420e+000  3.4875e+000  4.1324e-001 23089 111550,111844,111916
 7.0000e-001 111965 -5.8082e+000  2.7787e+000  1.7786e-001 23089 111550,111916,111602
 7.0000e-001 112164 -1.8582e+000 -2.4294e+000  1.0570e+001 22626 112187,112014,111988
 7.0000e-001 112141 -7.3585e-001  1.8872e+001  7.3927e+000 22626 112259,112187,111988
 7.0000e-001 112118 -7.6856e-002  2.6366e+001 -4.5032e+000 22626 112259,111988,112092
 7.0000e-001 112213 -3.4373e+000 -2.7514e+001  5.0948e+000 22626 112040,112014,112187
 7.0000e-001 112236  2.9561e+000 -2.3471e-001  8.3318e+000 22626 112040,112187,112066
 7.0000e-001 112285 -4.3243e+000 -3.9810e-001  1.0366e+001 22626 112066,112187,112259
 7.0000e-001 112308 -6.5410e+000  4.8581e+000 -6.3357e-001 22626 112066,112259,112092
 7.0000e-001 112605  2.3794e+000  3.9494e+000  1.1629e+000 22286 112628,112383,112357
 7.0000e-001 112582  8.2708e-001  2.7060e+000  2.0552e+000 22286 112772,112628,112357
 7.0000e-001 112559  1.8225e+000  6.3569e+000  5.3265e-001 22286 112700,112435,112409
 7.0000e-001 112536 -1.1492e+000  3.4454e+000  3.3498e+000 22286 112772,112357,112331
 7.0000e-001 112513  5.0161e+000  5.3676e+000  4.0352e-001 22286 112435,112487,112461
 7.0000e-001 112654  1.6724e+000  3.6325e+000  6.1328e-001 22286 112409,112383,112628
 7.0000e-001 112677  1.2336e+000  4.7071e+000  4.0851e-001 22286 112700,112409,112628
 7.0000e-001 112726  1.7704e+000  5.5603e+000  1.6321e+000 22286 112487,112435,112700
 7.0000e-001 112749  1.7073e+000  5.2093e+000  1.4672e+000 22286 112487,112700,112628
 7.0000e-001 112798  1.7722e+000  4.5673e+000  1.6323e+000 22286 112487,112628,112772
 7.0000e-001 112821  6.9169e-001  5.7853e+000  2.1768e+000 22286 112487,112772,112331
 7.0000e-001 112924 -6.6465e+001  2.2002e+001  8.9383e+000 21974 112846,112898,112872
 7.0000e-001 113223  6.2879e+000 -4.6086e+000  1.9668e+000 21420 112949,113053,112975
 7.0000e-001 113200  5.3070e+000  2.2600e+000  3.4867e+000 21420 112949,113079,113053
 7.0000e-001 113177 -2.0104e+000 -5.6387e+000 -2.6146e+000 21420 112975,113053,113001
 7.0000e-001 113154  1.0097e+001 -1.1228e+000 -1.4205e+000 21420 113001,113053,113027
 7.0000e-001 113131  1.1622e+001  4.4140e+000  3.0279e+000 21420 112949,113105,113079
 7.0000e-001 113605 -3.6685e+001  1.2329e+001 -1.3951e+001 20716 113331,113435,113357
 7.0000e-001 113582 -4.3336e+001  2.2978e+000 -1.1066e+001 20716 113331,113461,113435
 7.0000e-001 113559 -4.7065e+001 -5.3851e+000 -1.7412e+000 20716 113383,113435,113409
 7.0000e-001 113536 -3.8652e+001  2.3408e+000  1.5556e+000 20716 113357,113435,113383
 7.0000e-001 113513 -3.3077e+001  5.6349e+000 -1.1377e+001 20716 113331,113487,113461
 7.0000e-001 113853  4.4832e+000 -3.5381e+000  1.1762e+000 20290 113876,113680,113654
 7.0000e-001 113830  7.0066e+000 -1.0865e-001  2.8121e+000 20290 113876,113654,113628
 7.0000e-001 113807  4.5652e+000  1.8764e+000  7.3663e-001 20290 113948,113732,113680
 7.0000e-001 113784  5.4215e+000  1.0906e+000 -4.1302e-001 20290 113680,113732,113706
 7.0000e-001 113902  4.6126e+000  8.0415e-001  1.7292e+000 20290 113948,113680,113876
 7.0000e-001 113925  4.1787e+000  1.8858e+000  2.7352e+000 20290 113758,113876,113628
 7.0000e-001 113974  3.5645e+000  6.0814e-001  1.2587e+000 20290 113758,113732,113948
 7.0000e-001 113997  3.2719e+000 -2.2751e-001  2.3025e+000 20290 113758,113948,113876
 7.0000e-001 114365 -5.4434e+000  5.6617e+000 -1.7056e-002 19900 114146,114198,114172
 7.0000e-001 114342 -5.1573e+000  5.7844e+000 -1.2217e-002 19900 114042,114198,114146
 7.0000e-001 114319 -5.6197e+000  5.4904e+000  2.4052e-001 19900 114042,114224,114198
 7.0000e-001 114296 -3.8612e+000  5.6371e+000 -1.1792e-001 19900 114094,114146,114120
 7.0000e-001 114273 -5.2941e+000  4.9323e+000  2.6471e-001 19900 114042,114146,114094
 7.0000e-001 114250 -6.0968e+000  4.8419e+000  5.3564e-001 19900 114042,114094,114068
 7.0000e-001 114566 -2.5883e+000  4.5839e+000  3.5986e-002 19496 114442,114494,114468
 7.0000e-001 114543  4.6191e-002  4.2821e+000  1.3028e+000 19496 114416,114494,114442
 7.0000e-001 114520 -3.1489e+000  5.6280e+000  2.8514e+000 19496 114390,114494,114416
 7.0000e-001 114767 -5.4973e+000  5.8587e+000 -2.0247e-001 19042 114790,114669,114643
 7.0000e-001 114744 -5.3170e+000  5.9321e+000 -1.7058e-001 19042 114790,114643,114591
 7.0000e-001 114721 -5.3541e+000  7.8815e+000 -1.1367e+000 19042 114591,114643,114617
 7.0000e-001 114816 -5.8651e+000  5.9714e+000 -2.3714e-001 19042 114695,114669,114790
 7.0000e-001 114839 -5.5362e+000  6.1839e+000 -1.3891e-001 19042 114695,114790,114591
 7.0000e-001 114991 -5.2506e+000  5.7441e+000  7.9251e-001 18488 114864,114916,114890
 7.0000e-001 114968 -4.7075e+000  8.5498e+000  3.2477e-001 18488 114864,114942,114916
 7.0000e-001 115192 -2.6355e+000  5.1160e+000  6.3578e-001 18098 115215,115042,115016
 7.0000e-001 115169 -4.2933e+000  3.0406e+000  1.6496e+000 18098 115215,115016,115120
 7.0000e-001 115146 -3.0751e+000  6.0307e+000 -3.2010e-001 18098 115287,115094,115068
 7.0000e-001 115241 -3.9017e+000  5.1192e+000  1.3610e-001 18098 115068,115042,115215
 7.0000e-001 115264 -3.4094e+000  5.3740e+000 -5.6187e-002 18098 115287,115068,115215
 7.0000e-001 115313 -3.7247e+000  6.2891e+000  6.5187e-001 18098 115120,115094,115287
 7.0000e-001 115336 -4.1314e+000  5.6779e+000  9.2250e-001 18098 115120,115287,115215
 7.0000e-001 115846 -2.9366e+000 -9.7777e-001 -1.4451e+000 17644 115653,115705,115679
 7.0000e-001 115823  1.4045e+000  1.5788e+000 -3.7065e+000 17644 115627,115705,115653
 7.0000e-001 115800  1.0168e+001 -7.4837e-001  4.7641e+000 17644 115549,115705,115627
 7.0000e-001 115777  1.8269e+001  2.5902e+000 -2.2587e-001 17644 115549,115627,115575
 7.0000e-001 115754  1.9659e+001 -2.3911e+000 -2.5809e+000 17644 115523,115705,115549
 7.0000e-001 115731  2.1580e+001  2.4413e+000  5.2805e-001 17644 115575,115627,115601
 7.0000e-001 116067 -1.6844e+001 -8.1333e-002 -1.4891e-002 17116 115891,115943,115917
 7.0000e-001 116044  3.7350e-001 -3.1780e+000 -2.3183e+000 17116 115891,115995,115943
 7.0000e-001 116021  1.1031e+001 -9.8002e-001  3.3890e+000 17116 115943,115995,115969
 7.0000e-001 116288 -5.7825e-001  1.1396e+000 -7.7838e-002 16704 116164,116216,116190
 7.0000e-001 116265 -3.0031e-001  7.2771e-001  7.2672e-002 16704 116112,116216,116164
 7.0000e-001 116242  2.3583e+000  1.3968e+000  3.2466e-001 16704 116112,116164,116138
 7.0000e-001 116489 -4.3804e+001 -2.2673e-001 -3.9283e-001 16434 116339,116417,116365
 7.0000e-001 116466 -3.7286e+001  2.7635e+000  3.1487e-001 16434 116313,116417,116339
 7.0000e-001 116443 -3.9248e+001 -1.1970e+001 -7.2614e+000 16434 116365,116417,116391
 7.0000e-001 116592  5.2918e+000 -7.7785e-001  1.2666e+000 15967 116514,116566,116540
 7.0000e-001 116695  2.9844e+001 -2.3152e+001 -4.8680e+000 15552 116617,116669,116643
 7.0000e-001 116798 -5.0773e+000  5.3930e+000  0.0000e+000 421 116720,116772,116746
 8.0000e-001 69066  2.5665e-002  1.2513e-001  2.4622e-002 68738 68965,69017,68991
 8.0000e-001 69043 -5.8905e-001 -3.0550e-002  3.2854e-001 68738 68939,69017,68965
 8.0000e-001 69371 -2.7413e+000  9.1770e-001  2.3966e+000 68426 69172,69250,69198
 8.0000e-001 69348 -4.6519e-001  3.1610e+000  1.3412e+000 68426 69146,69250,69172
 8.0000e-001 69325 -1.1148e+000  4.6320e+000  4.8826e+000 68426 69198,69250,69224
 8.0000e-001 69302  7.3878e-001 -4.0180e-002  8.5039e-001 68426 69146,69276,69250
 8.0000e-001 69521 -5.4467e+000 -1.4167e+001  3.1369e+000 68228 69420,69472,69446
 8.0000e-001 69498 -2.3088e+000 -9.1049e+000 -4.1782e-001 68228 69394,69472,69420
 8.0000e-001 69781 -3.1053e+000  4.3151e+000  3.1894e+000 68030 69631,69683,69657
 8.0000e-001 69758  9.2700e-001 -8.0003e+000 -1.6963e+000 68030 69631,69709,69683
 8.0000e-001 69735  9.9362e-002  2.7885e+000  5.3719e+000 68030 69605,69709,69631
 8.0000e-001 70078 -1.6482e+000  9.6700e-001 -4.0794e+000 67832 69882,69934,69908
 8.0000e-001 70055 -1.9868e+000 -6.5056e+000  2.6510e-001 67832 69856,69934,69882
 8.0000e-001 70032  1.1246e-001 -6.9450e+000 -2.4830e+000 67832 69830,69934,69856
 8.0000e-001 70009 -5.7146e-001 -8.6846e+000 -4.4732e+000 67832 69804,69934,69830
 8.0000e-001 69986  3.8299e+000 -3.6107e+000 -2.1837e+000 67832 69804,69960,69934
 8.0000e-001 70586  7.4937e-001 -5.8266e-001 -1.1404e+000 67634 70609,70419,70341
 8.0000e-001 70563  8.3769e-001 -1.8927e+000 -6.4406e-001 67634 70681,70609,70341
 8.0000e-001 70540  1.2832e+000 -1.9777e+000  5.6832e-001 67634 70681,70341,70315
 8.0000e-001 70517  2.0519e+000  2.4885e+000 -1.3576e+000 67634 70341,70419,70367
 8.0000e-001 70494  4.8253e-001  1.6037e-001 -4.0069e-001 67634 70263,70445,70289
 8.0000e-001 70471  1.7627e-001  1.5761e+000 -8.1732e-001 67634 70367,70419,70393
 8.0000e-001 70635  1.2040e+000  1.6759e+000 -1.1696e+000 67634 70445,70419,70609
 8.0000e-001 70658  5.6873e-002 -4.5360e-001 -6.2992e-001 67634 70445,70609,70289
 8.0000e-001 70707  1.7402e+000  1.5115e-001 -4.5734e-001 67634 70289,70609,70681
 8.0000e-001 70730  2.0734e+000 -3.6961e-001  8.1967e-001 67634 70289,70681,70315
 8.0000e-001 71108 -3.6573e+000  4.8663e+000 -4.0454e+000 67344 71131,70912,70886
 8.0000e-001 71085 -6.3674e+000 -9.3152e-001 -6.3316e+000 67344 71131,70886,70860
 8.0000e-001 71062 -3.6744e+000  3.1172e+000 -1.5354e+000 67344 71203,70938,70912
 8.0000e-001 71039 -1.0519e+000  1.3544e+000 -2.0194e+000 67344 70834,70990,70860
 8.0000e-001 71016 -8.8085e-001  6.8435e+000 -1.2215e+000 67344 70938,70990,70964
 8.0000e-001 71157 -3.0331e+000  7.8041e-001 -2.3124e+000 67344 71203,70912,71131
 8.0000e-001 71180 -3.2701e+000 -8.1385e-001 -2.9379e+000 67344 70990,71131,70860
 8.0000e-001 71229 -2.8079e+000  5.8137e+000 -7.5753e-001 67344 70990,70938,71203
 8.0000e-001 71252 -1.6269e+000  3.5562e+000 -1.1397e+000 67344 70990,71203,71131
 8.0000e-001 71603 -1.1615e+000  6.2773e+000 -1.9580e+000 67032 71378,71482,71404
 8.0000e-001 71580  5.1896e-001  4.5873e+000 -1.9764e+000 67032 71378,71508,71482
 8.0000e-001 71557 -1.3691e+000  3.9109e+000 -1.3680e+000 67032 71404,71456,71430
 8.0000e-001 71534 -1.2441e+000  8.0279e+000 -3.0189e-002 67032 71404,71482,71456
 8.0000e-001 72003 -9.2656e-001  5.6796e+000 -3.2587e-001 66834 71755,71859,71781
 8.0000e-001 71980  6.3027e-002  9.0252e+000  3.1638e-001 66834 71755,71885,71859
 8.0000e-001 71957  2.9491e+000  7.6431e+000  2.8664e+000 66834 71781,71833,71807
 8.0000e-001 71934 -7.6425e-001  7.9805e+000  1.5991e+000 66834 71781,71859,71833
 8.0000e-001 71911 -8.1280e-001  5.4882e+000 -2.2366e+000 66834 71729,71885,71755
 8.0000e-001 72430 -3.4549e-001  4.9860e+000  2.9486e-001 66266 72237,72289,72263
 8.0000e-001 72407 -9.0712e-001  3.7062e+000  5.1401e-002 66266 72133,72289,72237
 8.0000e-001 72384  1.1614e+000  4.6923e+000 -4.8187e-001 66266 72133,72237,72211
 8.0000e-001 72361  2.7347e-001  2.8624e+000 -8.7115e-001 66266 72107,72289,72133
 8.0000e-001 72338  1.5777e+000  5.7013e+000 -6.8058e-001 66266 72133,72211,72185
 8.0000e-001 72315  6.1927e+000  4.9391e+000 -8.4689e-002 66266 72133,72185,72159
 8.0000e-001 72580 -1.6561e+000 -1.0789e+001  2.8114e-002 65968 72479,72531,72505
 8.0000e-001 72557 -1.0116e+000 -9.8152e+000 -2.5163e-001 65968 72453,72531,72479
 8.0000e-001 72960 -4.7121e+000  6.0640e+000  7.7830e-001 65621 72983,72738,72712
 8.0000e-001 72937 -4.6022e+000  5.1859e+000  6.6788e-001 65621 72983,72712,72686
 8.0000e-001 72914 -9.0798e+000  1.5158e+000  5.4566e+000 65621 72738,72842,72764
 8.0000e-001 72891 -2.2600e+000  3.1915e+000  7.1215e+000 65621 72764,72842,72816
 8.0000e-001 72868 -5.8738e+000 -4.2467e+000  9.2056e+000 65621 72764,72816,72790
 8.0000e-001 73009 -4.0979e+000  5.2179e+000  8.9429e-001 65621 72842,72738,72983
 8.0000e-001 73032 -4.5642e+000  3.5532e+000  7.5768e-001 65621 72842,72983,72686
 8.0000e-001 73361 -4.9921e+000 -1.1669e+000  5.2593e-001 65281 73456,73384,73188
 8.0000e-001 73338  9.8464e-001  1.4425e+000 -1.8353e+000 65281 73384,73162,73136
 8.0000e-001 73315 -2.8817e+000 -8.2966e-001 -9.2961e-001 65281 73188,73240,73214
 8.0000e-001 73292 -2.9219e+000  6.8273e-001 -3.5274e+000 65281 73136,73266,73240
 8.0000e-001 73410 -2.3724e+000  1.4321e+000 -5.7461e-001 65281 73240,73188,73384
 8.0000e-001 73433 -2.4999e+000 -2.9780e-001 -7.0451e-001 65281 73240,73384,73136
 8.0000e-001 73482 -2.6344e+000  1.8479e+000 -1.5647e+000 65281 73162,73384,73456
 8.0000e-001 73711  2.0080e+000 -2.6097e+000 -5.7256e+000 64820 73734,73610,73584
 8.0000e-001 73688  4.1562e+000  1.0975e+000 -1.7055e+000 64820 73734,73584,73662
 8.0000e-001 73760 -5.3463e-001 -3.7903e+000 -6.7081e+000 64820 73636,73610,73734
 8.0000e-001 73783  3.2307e-001 -2.3684e+000 -4.0610e+000 64820 73806,73734,73662
 8.0000e-001 73832  1.7850e+000 -3.9327e+000 -3.6398e+000 64820 73636,73734,73806
 8.0000e-001 74112 -6.3143e-001 -6.0009e+000  5.1074e-001 64622 74278,74135,73988
 8.0000e-001 74089 -6.1739e-001 -7.8692e+000  5.0131e-001 64622 74135,73936,74040
 8.0000e-001 74066  2.5066e-002 -5.7321e+000  1.2354e+000 64622 74278,73988,73962
 8.0000e-001 74161  1.1099e+000 -7.8213e+000  1.5753e+000 64622 74014,73988,74135
 8.0000e-001 74184 -2.5592e-002 -1.0218e+001  1.9296e+000 64622 74207,74135,74040
 8.0000e-001 74233  1.2450e-001 -1.0611e+001  1.5316e-001 64622 74014,74135,74207
 8.0000e-001 74304 -2.6609e-001 -5.2216e+000  1.9836e+000 64622 73936,74135,74278
 8.0000e-001 74327  1.1583e+000 -4.8116e+000  2.6944e+000 64622 73936,74278,73962
 8.0000e-001 74526 -1.1020e+000 -1.0530e+001  3.2574e+000 64424 74621,74549,74402
 8.0000e-001 74503 -1.6259e+000 -9.7528e+000  9.6269e-001 64424 74549,74350,74454
 8.0000e-001 74480 -1.5515e+000 -1.1901e+001  5.4502e+000 64424 74621,74402,74376
 8.0000e-001 74575  5.1106e+000 -1.0986e+001  2.8478e+000 64424 74428,74402,74549
 8.0000e-001 74598  5.3883e-001 -1.2447e+001  1.8194e+000 64424 74693,74549,74454
 8.0000e-001 74647  6.5203e-001 -7.1429e+000  2.1086e+000 64424 74350,74549,74621
 8.0000e-001 74670  2.3084e-001 -7.9403e+000  4.3736e+000 64424 74350,74621,74376
 8.0000e-001 74719 -1.5618e-001 -1.4665e+001  1.1358e+000 64424 74428,74549,74693
 8.0000e-001 75123 -3.8530e+000 -3.0472e+000 -1.3755e+000 64126 74875,74953,74927
 8.0000e-001 75100 -3.9074e+000 -3.5465e+000 -1.5698e+000 64126 74875,74979,74953
 8.0000e-001 75077 -8.0458e+000 -3.5530e+000 -1.2040e+000 64126 74875,75005,74979
 8.0000e-001 75054 -3.6603e+000 -3.2055e+000 -1.2042e+000 64126 74875,74927,74901
 8.0000e-001 75031 -6.1416e+000 -1.0283e+000 -9.6854e-002 64126 74849,75005,74875
 8.0000e-001 75224 -2.9366e+000  1.0508e+001 -2.6277e+000 63836 75146,75198,75172
 8.0000e-001 75472  5.7053e+000  1.3928e+001  4.7456e-001 63375 75273,75351,75325
 8.0000e-001 75449  6.3161e+000  1.3991e+001  7.1214e-001 63375 75273,75377,75351
 8.0000e-001 75426  8.0930e+000  1.1796e+001 -1.3237e+000 63375 75247,75377,75273
 8.0000e-001 75403  5.7252e+000  9.2067e+000 -4.2211e-001 63375 75273,75325,75299
 8.0000e-001 75673 -1.6782e+000  9.6883e+000 -5.4513e-001 63063 75523,75575,75549
 8.0000e-001 75650 -2.2349e+000  1.2423e+001  8.3224e-001 63063 75497,75575,75523
 8.0000e-001 75627 -2.0103e+000  1.3331e+001 -9.5598e-001 63063 75497,75601,75575
 8.0000e-001 75874 -4.6177e+000 -7.7014e+000  9.7297e-002 62716 75897,75750,75724
 8.0000e-001 75851 -4.4058e+000 -9.0344e+000 -3.0557e-001 62716 75897,75724,75698
 8.0000e-001 75828 -5.0923e+000 -1.1102e+001  2.9614e-001 62716 75698,75802,75776
 8.0000e-001 75923 -4.1498e+000 -9.2499e+000  7.5016e-001 62716 75776,75750,75897
 8.0000e-001 75946 -3.8453e+000 -1.0279e+001 -1.6154e-001 62716 75776,75897,75698
 8.0000e-001 76328 -4.8130e+000 -4.5481e+000  9.6885e-001 62198 76495,76351,76158
 8.0000e-001 76305 -3.9978e+000 -7.3584e+000  2.9814e+000 62198 76351,76080,76054
 8.0000e-001 76282 -4.7094e+000  6.3197e-001  1.7651e+000 62198 76423,76184,76158
 8.0000e-001 76259 -3.8981e+000 -5.1507e+000  6.1220e-001 62198 76495,76158,76106
 8.0000e-001 76236 -9.7894e-001 -7.8026e-001 -1.4190e+000 62198 76106,76158,76132
 8.0000e-001 76377 -3.9895e+000 -2.6495e+000  1.8590e+000 62198 76423,76158,76351
 8.0000e-001 76400 -1.6530e+000 -2.5587e+000  3.9547e+000 62198 76210,76351,76054
 8.0000e-001 76449 -5.7933e+000 -2.7095e+000  2.1070e+000 62198 76210,76184,76423
 8.0000e-001 76472 -4.7343e+000 -5.1680e+000  2.5583e+000 62198 76210,76423,76351
 8.0000e-001 76521 -3.2630e+000 -4.7917e+000  6.1582e-001 62198 76080,76351,76495
 8.0000e-001 76544 -1.3750e+000 -4.4307e+000 -1.1700e-002 62198 76080,76495,76106
 8.0000e-001 76841  3.5404e+000  2.2225e+000  9.7977e-001 61751 76936,76864,76645
 8.0000e-001 76818  4.6502e+000  3.4144e+000  1.2580e+000 61751 76864,76567,76723
 8.0000e-001 76795  2.8155e+000  1.4023e+000  1.3196e+000 61751 76936,76645,76593
 8.0000e-001 76772  6.1067e+000  5.3406e+000  1.5747e+000 61751 77008,76697,76671
 8.0000e-001 76749  1.8544e+000  1.4592e+000  9.8109e-001 61751 76593,76645,76619
 8.0000e-001 76890  3.8832e+000  2.7651e+000  1.9938e+000 61751 76671,76645,76864
 8.0000e-001 76913  5.1553e+000  3.0210e+000  2.3159e+000 61751 77008,76671,76864
 8.0000e-001 76962  2.1920e+000  3.3389e+000  1.3506e+000 61751 76567,76864,76936
 8.0000e-001 76985  1.7432e+000  2.8281e+000  1.5975e+000 61751 76567,76936,76593
 8.0000e-001 77034  4.6875e+000  4.2602e+000  3.2232e+000 61751 76723,76697,77008
 8.0000e-001 77057  4.9772e+000  4.2228e+000  3.0915e+000 61751 76723,77008,76864
 8.0000e-001 77207 -1.1328e+001  1.2215e+001 -2.6736e+000 61418 77106,77158,77132
 8.0000e-001 77184 -1.0848e+001  1.1233e+001 -2.6150e+000 61418 77080,77158,77106
 8.0000e-001 77638  1.8904e+000  9.6791e+000 -2.7687e+000 60814 77733,77661,77471
 8.0000e-001 77615 -1.2265e+000  5.8009e+000 -3.7953e+000 60814 77661,77393,77315
 8.0000e-001 77592  4.5061e+000  2.6422e+000 -5.9430e+000 60814 77733,77471,77445
 8.0000e-001 77569  8.7887e+000  6.9187e-001 -2.4020e+000 60814 77315,77367,77341
 8.0000e-001 77546  6.0492e+000  2.9679e+000 -8.4299e+000 60814 77315,77393,77367
 8.0000e-001 77523  1.0048e+001  2.9396e+000 -1.4750e+001 60814 77393,77445,77419
 8.0000e-001 77687  3.7516e+000  1.0295e+001  1.2638e+000 60814 77497,77471,77661
 8.0000e-001 77710  2.5650e+000  6.7827e+000 -3.7035e+000 60814 77497,77661,77315
 8.0000e-001 77759  2.7653e-001 -4.7274e-001 -1.7013e+000 60814 77393,77661,77733
 8.0000e-001 77782  3.6031e+000 -5.9557e+000 -5.9218e+000 60814 77393,77733,77445
 8.0000e-001 78337 -5.7166e+000  1.9810e-001 -1.8936e+000 60210 78360,78017,77965
 8.0000e-001 78314 -7.0005e+000 -2.9057e-002 -1.1691e+000 60210 78360,77965,78173
 8.0000e-001 78291 -9.5546e+000 -9.0626e-001 -1.5172e+000 60210 78432,78043,78017
 8.0000e-001 78268 -6.1714e+000  1.4688e+000 -3.0491e+000 60210 77965,78017,77991
 8.0000e-001 78245 -1.5966e+001  8.1570e-001  7.6589e-001 60210 78043,78095,78069
 8.0000e-001 78222 -6.1656e+000  1.3764e+000  6.7837e-001 60210 78095,78173,78121
 8.0000e-001 78199 -2.6872e+000  2.5342e+000  8.5932e-001 60210 78121,78173,78147
 8.0000e-001 78386 -7.3759e+000 -1.5079e-001 -2.1185e+000 60210 78432,78017,78360
 8.0000e-001 78409 -5.3675e+000  7.7786e-002 -3.7418e-001 60210 78095,78360,78173
 8.0000e-001 78458 -9.0482e+000 -1.6264e+000  7.9650e-001 60210 78095,78043,78432
 8.0000e-001 78481 -7.6707e+000 -1.3591e+000  2.3981e-001 60210 78095,78432,78360
 8.0000e-001 78680 -6.2557e+000  1.3526e+001 -1.8387e+000 59848 78703,78556,78530
 8.0000e-001 78657 -7.7276e+000  1.1485e+001 -3.3993e+000 59848 78703,78530,78504
 8.0000e-001 78634 -5.0307e+000  7.8561e+000 -4.4334e+000 59848 78504,78608,78582
 8.0000e-001 78729 -2.6999e+000  9.9947e+000 -2.4939e+000 59848 78582,78556,78703
 8.0000e-001 78752 -5.5606e+000  8.2324e+000 -4.6681e+000 59848 78582,78703,78504
 8.0000e-001 78951  3.3775e-001  2.6259e+000  4.6929e+000 59344 78974,78801,78775
 8.0000e-001 78928  1.8038e+000  5.4173e+000  3.1030e+000 59344 79046,78974,78775
 8.0000e-001 78905  2.3601e+000  5.4501e+000  2.9154e+000 59344 79046,78775,78879
 8.0000e-001 79000  1.8920e+000  2.5557e+000  1.7895e+000 59344 78827,78801,78974
 8.0000e-001 79023  2.6260e+000  6.4212e+000  9.1928e-001 59344 78827,78974,78853
 8.0000e-001 79072  2.8954e+000  5.1111e+000  3.0662e+000 59344 78853,78974,79046
 8.0000e-001 79095  3.5084e+000  5.1499e+000  2.9633e+000 59344 78853,79046,78879
 8.0000e-001 79296 -5.9255e+000 -1.1476e+001 -7.2402e-001 58711 79319,79172,79146
 8.0000e-001 79273 -3.6202e+000 -1.2313e+001 -7.5790e-001 58711 79319,79146,79120
 8.0000e-001 79250 -5.1874e+000 -6.8697e+000 -2.6178e+000 58711 79172,79224,79198
 8.0000e-001 79345 -7.0636e+000 -1.1723e+001 -3.8248e-001 58711 79224,79172,79319
 8.0000e-001 79368 -5.4500e+000 -1.3106e+001 -3.0728e-001 58711 79224,79319,79120
 8.0000e-001 79667  1.6886e+000  9.9029e+000  1.6414e+000 58285 79690,79471,79393
 8.0000e-001 79644  1.7570e+000  1.2364e+001  2.3441e+000 58285 79690,79393,79549
 8.0000e-001 79621  1.8824e+000  2.2617e+000  3.3114e+000 58285 79393,79471,79419
 8.0000e-001 79598 -1.7787e+000  7.9485e+000 -1.1794e+000 58285 79497,79549,79523
 8.0000e-001 79575  3.3850e+000  1.3925e+000  2.7752e+000 58285 79419,79471,79445
 8.0000e-001 79716  1.6974e+000  7.4560e+000  1.8099e-001 58285 79497,79471,79690
 8.0000e-001 79739  2.1809e+000  1.1279e+001  4.7379e-001 58285 79497,79690,79549
 8.0000e-001 80249 -8.6223e+000 -7.7995e+000 -2.6671e+000 57831 80272,79978,79952
 8.0000e-001 80226 -8.2489e+000 -8.3420e+000 -1.6670e+000 57831 80272,79952,80108
 8.0000e-001 80203 -4.9845e+000 -6.7824e+000 -1.0315e+000 57831 79926,80108,79952
 8.0000e-001 80180 -6.9231e+000 -3.1185e+000  6.1134e-001 57831 80004,80082,80030
 8.0000e-001 80157 -8.8502e+000 -5.1204e+000 -5.4676e-001 57831 80004,80108,80082
 8.0000e-001 80134 -6.4377e+000 -2.9836e+000  2.9907e-003 57831 80030,80082,80056
 8.0000e-001 80298 -7.6230e+000 -5.1229e+000 -3.2305e+000 57831 80004,79978,80272
 8.0000e-001 80321 -8.4076e+000 -7.3604e+000 -2.1611e+000 57831 80004,80272,80108
 8.0000e-001 80618 -1.4868e+001 -4.8312e+000  1.2815e+000 57077 80344,80448,80422
 8.0000e-001 80595 -6.8529e+000 -9.7975e-001  1.1080e-001 57077 80344,80500,80448
 8.0000e-001 80572 -1.4404e+001 -3.9436e+000  1.0685e+000 57077 80344,80422,80370
 8.0000e-001 80549 -9.2175e+000  2.2688e+000 -1.1609e+000 57077 80370,80422,80396
 8.0000e-001 80526 -2.0924e+000 -1.3197e+000 -1.4227e+000 57077 80448,80500,80474
 8.0000e-001 80768 -4.1126e-001  7.8343e+000 -2.8889e+000 56787 80791,80693,80667
 8.0000e-001 80745  1.3669e+000  6.5827e+000 -5.0429e+000 56787 80791,80667,80641
 8.0000e-001 80817 -6.9710e-001  6.9071e+000 -2.9007e+000 56787 80719,80693,80791
 8.0000e-001 80840 -2.0781e+000 -2.2187e+000 -5.1022e+000 56787 80719,80791,80641
 8.0000e-001 81429  1.4419e+001  8.2043e+000 -6.4683e+000 56497 81452,81158,81132
 8.0000e-001 81406  4.1263e+000 -8.1684e-001 -2.4381e+000 56497 81452,81132,81288
 8.0000e-001 81383  3.5966e+000  6.4840e+000 -3.5547e+000 56497 81524,81184,81158
 8.0000e-001 81360  3.3912e+000  1.0924e+001 -7.4715e+000 56497 81210,81288,81236
 8.0000e-001 81337  1.3377e+001  2.0706e-001 -5.9120e+000 56497 81106,81288,81132
 8.0000e-001 81314  1.6504e+001  5.8693e+000 -9.0914e+000 56497 81236,81288,81262
 8.0000e-001 81478  4.2515e+000  6.7950e+000 -3.6504e+000 56497 81524,81158,81452
 8.0000e-001 81501  1.9922e+000  5.5711e+000 -2.0243e+000 56497 81210,81452,81288
 8.0000e-001 81550  3.6821e+000  6.1412e+000 -2.6002e+000 56497 81210,81184,81524
 8.0000e-001 81573  4.6427e+000  6.5637e+000 -2.6664e+000 56497 81210,81524,81452
 8.0000e-001 81870 -3.0893e-001 -5.7566e-001  1.0708e+000 55979 81893,81674,81648
 8.0000e-001 81847 -2.4834e-002 -3.6544e-001  1.3522e+000 55979 81893,81648,81752
 8.0000e-001 81824 -9.8147e-001  5.9609e-001  9.9905e-001 55979 81596,81752,81648
 8.0000e-001 81801 -2.6315e-001  4.7354e+000  3.5344e-001 55979 81674,81726,81700
 8.0000e-001 81778 -9.4190e-001  9.5052e-001 -4.0655e-002 55979 81596,81648,81622
 8.0000e-001 81919 -4.3815e-001 -3.2630e-001  1.3442e+000 55979 81726,81674,81893
 8.0000e-001 81942  1.0353e-002  2.3181e-002  1.6482e+000 55979 81726,81893,81752
 8.0000e-001 82371 -1.1352e+001 -4.0156e+000 -3.5759e+000 55631 82100,82204,82152
 8.0000e-001 82348 -1.2173e+001 -9.1584e+000 -5.7556e+000 55631 82100,82230,82204
 8.0000e-001 82325 -1.1914e+001 -3.3768e+000 -5.5688e+000 55631 82100,82152,82126
 8.0000e-001 82302 -8.3453e+000  9.6071e-002 -5.3291e+000 55631 82074,82230,82100
 8.0000e-001 82279 -9.2953e+000  3.1286e+000 -5.2191e-001 55631 82152,82204,82178
 8.0000e-001 82256 -6.6261e+000 -7.1927e+000 -4.6714e+000 55631 82048,82230,82074
 8.0000e-001 82521 -1.8132e+000 -7.6634e-001 -6.7754e-001 55227 82544,82420,82394
 8.0000e-001 82498 -1.6162e+000 -1.2271e+000 -6.8158e-001 55227 82544,82394,82472
 8.0000e-001 82570 -1.7484e+000 -6.1340e-001 -6.3834e-001 55227 82446,82420,82544
 8.0000e-001 82593 -1.2576e+000 -7.9564e-001 -5.1314e-001 55227 82446,82544,82472
 8.0000e-001 82875 -2.5816e+000 -7.5435e+000 -1.5087e+000 54979 82699,82777,82725
 8.0000e-001 82852 -2.6844e+000 -7.6758e+000 -1.4637e+000 54979 82699,82803,82777
 8.0000e-001 82829  1.5620e+000 -5.2999e+000 -5.8047e-001 54979 82725,82777,82751
 8.0000e-001 83204 -4.8529e+000  3.2990e+000  2.4918e+000 54475 83005,83083,83057
 8.0000e-001 83181 -2.4331e+000  1.6355e+000  4.6277e+000 54475 82979,83083,83005
 8.0000e-001 83158 -1.5420e+000  6.5915e+000  8.3935e-001 54475 83005,83057,83031
 8.0000e-001 83135  2.8909e+000  1.4183e+001  2.2121e+000 54475 82979,83109,83083
 8.0000e-001 83582 -3.3702e+000  9.7455e+000  2.1603e+000 54071 83605,83438,83412
 8.0000e-001 83559 -1.7667e+000  1.1424e+001  5.2182e-001 54071 83749,83605,83412
 8.0000e-001 83536 -1.5002e+000  8.1427e+000 -9.3560e-001 54071 83677,83360,83334
 8.0000e-001 83513 -1.8136e+000  1.2259e+001  4.7066e-001 54071 83749,83412,83677
 8.0000e-001 83490 -1.0330e+001  1.4772e+001  8.3010e+000 54071 83308,83464,83334
 8.0000e-001 83631  1.4235e+000  1.1364e+001  2.9607e+000 54071 83464,83438,83605
 8.0000e-001 83654 -1.1038e+000  6.8800e+000  1.5884e+000 54071 83464,83605,83334
 8.0000e-001 83703 -6.6619e+000  9.9835e+000 -4.7965e+000 54071 83386,83360,83677
 8.0000e-001 83726 -2.1494e+000  2.0039e+001 -3.8986e+000 54071 83386,83677,83412
 8.0000e-001 83775 -1.0828e+000  9.4680e+000 -2.3023e-001 54071 83334,83605,83749
 8.0000e-001 83798 -9.8297e-001  1.0526e+001 -3.7963e-001 54071 83334,83749,83677
 8.0000e-001 84068  2.9754e-001 -8.1331e-001  4.9805e-001 53524 83869,83921,83895
 8.0000e-001 84045  6.2957e-001  2.8181e-001  1.4356e-001 53524 83869,83947,83921
 8.0000e-001 84022  3.2960e+000  3.4742e+000  1.3061e+000 53524 83843,83947,83869
 8.0000e-001 83999 -2.5260e+000  2.0797e+000  1.6365e+000 53524 83843,83973,83947
 8.0000e-001 84497 -1.3244e+001 -7.4464e+000 -3.8390e+000 53184 84200,84330,84252
 8.0000e-001 84474 -1.5686e+001 -8.6126e+000  5.1989e-001 53184 84200,84356,84330
 8.0000e-001 84451 -1.0100e+001 -8.5207e+000 -2.3225e+000 53184 84200,84252,84226
 8.0000e-001 84428 -1.4930e+000 -4.6104e+000 -2.4867e+000 53184 84252,84330,84278
 8.0000e-001 84405 -6.3736e+000 -3.2127e+000 -2.9216e+000 53184 84174,84356,84200
 8.0000e-001 84382  8.1994e-001 -3.0662e+000 -5.2202e+000 53184 84278,84330,84304
 8.0000e-001 84954 -5.7806e+000 -6.6659e+000  4.3668e-001 52680 84706,84836,84784
 8.0000e-001 84931 -6.0373e+000 -6.6823e+000  1.7744e-001 52680 84680,84836,84706
 8.0000e-001 84908 -2.0202e+000 -8.9295e+000  5.6361e-001 52680 84784,84836,84810
 8.0000e-001 84885 -8.3536e+000 -1.0235e+001  1.7130e+000 52680 84706,84784,84732
 8.0000e-001 84862 -8.2530e+000 -9.1747e+000  5.3540e-001 52680 84732,84784,84758
 8.0000e-001 85202 -4.2858e+000 -4.7457e+000 -2.0199e+000 52226 85029,85081,85055
 8.0000e-001 85179 -1.1082e+001 -5.9042e+000 -3.3108e+000 52226 85225,85081,85029
 8.0000e-001 85156 -1.0407e+001 -4.2281e+000 -2.3793e+000 52226 85225,85029,85003
 8.0000e-001 85133 -8.4329e+000  5.4533e+000 -1.9631e+000 52226 84977,85107,85003
 8.0000e-001 85251 -1.1779e+001 -6.2072e+000 -5.0429e+000 52226 85107,85081,85225
 8.0000e-001 85274 -1.1732e+001 -2.7077e+000 -4.4112e+000 52226 85107,85225,85003
 8.0000e-001 85522 -7.0024e-001 -1.1971e+000  1.1245e-001 51764 85297,85349,85323
 8.0000e-001 85499 -1.0039e+000 -6.2322e-001 -8.4504e-001 51764 85545,85297,85427
 8.0000e-001 85476 -9.9694e-001 -1.8796e+000 -8.0424e-001 51764 85545,85427,85375
 8.0000e-001 85453 -1.5670e+000 -2.4922e+000 -3.8895e-001 51764 85375,85427,85401
 8.0000e-001 85571 -4.6505e-001 -1.4003e+000 -2.9835e-002 51764 85349,85297,85545
 8.0000e-001 85594 -8.1151e-001 -3.1332e+000  1.8024e-002 51764 85349,85545,85375
 8.0000e-001 85746 -6.6050e-001 -3.8133e-001 -2.0863e+000 51374 85645,85697,85671
 8.0000e-001 85723  2.1680e-001 -2.9910e+000 -1.6799e-002 51374 85619,85697,85645
 8.0000e-001 86256  3.0022e+000 -2.4138e+000  1.6202e+000 50970 86279,86011,85959
 8.0000e-001 86233  3.2763e+000 -2.8431e+000  1.6701e+000 50970 86279,85959,86115
 8.0000e-001 86210  4.0546e+000  2.0746e-001  2.1062e+000 50970 85959,86011,85985
 8.0000e-001 86187  3.7860e+000 -1.6171e+000  4.3592e-001 50970 86037,86115,86089
 8.0000e-001 86164  6.5749e+000 -1.3872e+000  2.0756e+000 50970 85933,86115,85959
 8.0000e-001 86141  1.0631e+000  2.4660e-001 -6.6067e-001 50970 86037,86089,86063
 8.0000e-001 86305  3.1483e+000 -2.0391e+000  1.7096e+000 50970 86037,86011,86279
 8.0000e-001 86328  3.4041e+000 -2.4946e+000  1.7575e+000 50970 86037,86279,86115
 8.0000e-001 86478 -6.0958e+000 -8.2715e+000  1.9378e+000 50451 86351,86403,86377
 8.0000e-001 86455 -4.1177e+000 -1.5012e+001 -8.0141e-001 50451 86351,86429,86403
 8.0000e-001 86907 -2.6990e+000  9.2870e-002 -2.5381e+000 50047 86930,86714,86662
 8.0000e-001 86884 -2.1850e+000  1.9355e+000 -2.0876e+000 50047 86930,86662,86610
 8.0000e-001 86861  3.1725e+000  9.3048e+000 -5.7579e+000 50047 87002,86740,86714
 8.0000e-001 86838  8.4536e-002  1.8039e+000 -7.0321e+000 50047 86662,86714,86688
 8.0000e-001 86815 -3.5334e+000  2.1189e-001 -5.0813e-001 50047 86610,86662,86636
 8.0000e-001 86792 -4.2056e+000  1.2192e+000  1.9399e+000 50047 86584,86766,86610
 8.0000e-001 86956 -1.6441e+000  3.2708e+000 -3.5024e+000 50047 87002,86714,86930
 8.0000e-001 86979 -3.2695e+000  1.0705e+000 -1.7105e+000 50047 86766,86930,86610
 8.0000e-001 87028 -1.7257e+000  1.9592e+000 -2.7761e+000 50047 86766,86740,87002
 8.0000e-001 87051 -3.0081e+000  1.6298e+000 -1.6411e+000 50047 86766,87002,86930
 8.0000e-001 87250 -4.3186e+000 -2.0482e+000 -8.8138e+000 49543 87273,87126,87100
 8.0000e-001 87227  9.3168e-001 -1.7345e+000 -9.5516e+000 49543 87273,87100,87074
 8.0000e-001 87204 -1.1682e+001 -6.0460e-001 -4.2572e+000 49543 87126,87178,87152
 8.0000e-001 87299 -9.8562e+000 -2.7390e+000 -3.6298e+000 49543 87178,87126,87273
 8.0000e-001 87322 -2.0860e+000 -2.9438e-002 -4.9303e+000 49543 87178,87273,87074
 8.0000e-001 87570 -1.6450e+001 -3.4636e+000 -3.5346e+000 49146 87593,87449,87397
 8.0000e-001 87547 -1.6020e+001 -4.1288e+000 -6.8146e+000 49146 87593,87397,87371
 8.0000e-001 87524 -9.5072e+000 -2.2856e+000 -5.1085e+000 49146 87345,87475,87371
 8.0000e-001 87501 -1.5377e+001  2.5081e+000 -1.4825e+000 49146 87397,87449,87423
 8.0000e-001 87619 -1.2364e+001 -2.3708e+000 -2.7497e+000 49146 87475,87449,87593
 8.0000e-001 87642 -1.3669e+001 -3.2306e+000 -5.8135e+000 49146 87475,87593,87371
 8.0000e-001 88073 -9.6764e+000 -8.7246e-001  3.4511e+000 48706 87854,87932,87880
 8.0000e-001 88050 -6.9603e+000  1.1722e+000  1.5539e+000 48706 87828,87932,87854
 8.0000e-001 88027 -6.2568e+000 -4.0603e-001  2.1202e+000 48706 87750,87932,87828
 8.0000e-001 88004 -1.2470e+001 -1.2867e+001  5.7039e-001 48706 87750,87802,87776
 8.0000e-001 87981 -5.2905e+000  3.6397e+000  2.8545e+000 48706 87750,87828,87802
 8.0000e-001 87958 -5.2172e+000 -4.4282e-001  5.6390e+000 48706 87880,87932,87906
 8.0000e-001 88402 -1.0647e+000  1.3455e+001  6.5150e-001 48145 88203,88281,88255
 8.0000e-001 88379 -5.7520e-002  1.4701e+001  3.6178e+000 48145 88203,88307,88281
 8.0000e-001 88356 -6.7721e+000  1.1985e+001  2.2504e+000 48145 88203,88255,88229
 8.0000e-001 88333 -4.5549e+000  7.8156e+000  1.1169e+000 48145 88177,88307,88203
 8.0000e-001 88601  1.4294e+001  1.8491e+000  9.3935e+000 47805 88696,88624,88477
 8.0000e-001 88578  8.2927e+000  1.2838e+001  1.1034e+001 47805 88826,88624,88451
 8.0000e-001 88555  4.1050e+000  1.0376e+001  9.4830e+000 47805 88826,88451,88425
 8.0000e-001 88650  1.7239e+001  1.0141e+001  3.1148e+000 47805 88503,88477,88624
 8.0000e-001 88673  3.5687e+000  5.8574e+000  3.5990e+000 47805 88503,88624,88529
 8.0000e-001 88722  1.9227e+001  1.0854e+001  1.2933e+001 47805 88451,88624,88696
 8.0000e-001 88852  9.3586e+000  9.7025e+000  5.5743e+000 47805 88529,88624,88826
 8.0000e-001 88875  4.8964e+000  7.2855e+000  4.0291e+000 47805 88529,88826,88425
 8.0000e-001 89172 -6.2324e+000 -3.1100e+000 -3.5731e+000 47401 89195,88976,88898
 8.0000e-001 89149 -4.9259e+000 -2.4839e+000 -4.0415e+000 47401 89195,88898,89054
 8.0000e-001 89126 -6.9036e+000 -4.2023e+000 -3.1771e+000 47401 88898,88976,88950
 8.0000e-001 89103 -4.8488e+000 -1.3758e+000 -4.2933e-001 47401 88976,89028,89002
 8.0000e-001 89080 -4.8086e+000  2.3224e+000 -4.9171e-002 47401 88898,88950,88924
 8.0000e-001 89221 -7.5499e+000 -4.1500e+000 -1.5589e+000 47401 89028,88976,89195
 8.0000e-001 89244 -4.2655e+000 -2.5772e+000 -2.1585e+000 47401 89028,89195,89054
 8.0000e-001 89575  8.6337e+000  1.1441e+001  1.8912e+000 47111 89350,89454,89376
 8.0000e-001 89552  7.4764e+000  1.1840e+001  1.6085e+000 47111 89350,89480,89454
 8.0000e-001 89529  9.5313e+000  8.3736e+000 -1.1303e+000 47111 89376,89454,89402
 8.0000e-001 89506  9.8030e+000  9.6748e+000 -1.8313e+000 47111 89402,89454,89428
 8.0000e-001 89904  5.7410e-001  8.2002e+000 -4.2574e-001 46707 89705,89757,89731
 8.0000e-001 89881  5.6585e+000  9.9152e+000 -8.8939e-001 46707 89705,89783,89757
 8.0000e-001 89858  4.0203e+000  9.3429e+000 -5.9822e-001 46707 89679,89783,89705
 8.0000e-001 89835  9.3537e+000  6.3085e+000 -3.6488e+000 46707 89679,89809,89783
 8.0000e-001 90233 -2.3692e+000  8.9919e+000 -2.1167e+000 46360 90034,90112,90086
 8.0000e-001 90210 -1.2941e+001  2.6393e+000 -4.8410e+000 46360 90034,90138,90112
 8.0000e-001 90187 -1.8750e+001  9.1846e+000  2.2638e-001 46360 90034,90086,90060
 8.0000e-001 90164 -1.4300e+001  5.2453e+000 -7.9853e+000 46360 90008,90138,90034
 8.0000e-001 90530 -5.2618e+000  3.2805e-001 -1.2337e+000 45662 90256,90360,90308
 8.0000e-001 90507 -1.4441e+000  1.8220e+000 -1.6818e+000 45662 90256,90412,90360
 8.0000e-001 90484  1.4957e+000  2.6709e+000 -5.0320e+000 45662 90256,90308,90282
 8.0000e-001 90461 -3.3094e+000  1.1819e+000  9.8054e-001 45662 90360,90412,90386
 8.0000e-001 90438 -1.9475e+000  1.3875e+000 -8.9400e-001 45662 90308,90360,90334
 8.0000e-001 90910 -5.2228e+000  2.2274e+000  7.1676e-002 45108 90688,90766,90714
 8.0000e-001 90887 -4.6603e+000  1.7597e+000  6.0837e-001 45108 90662,90766,90688
 8.0000e-001 90864 -1.8213e+001  2.8138e-001  3.3819e-001 45108 90636,90766,90662
 8.0000e-001 90841  1.2433e+000  1.6319e+000 -4.1651e+000 45108 90714,90766,90740
 8.0000e-001 90818 -1.3540e+001  3.7139e+000 -1.1746e+000 45108 90636,90792,90766
 8.0000e-001 91158 -1.5397e+001  4.7473e+000  3.0205e+000 44604 91181,91011,90959
 8.0000e-001 91135 -2.2308e+001  5.4011e+000  5.7486e+000 44604 91181,90959,90933
 8.0000e-001 91112 -9.6570e+000  7.7736e+000  1.8355e+000 44604 90959,91011,90985
 8.0000e-001 91089 -1.6763e+001  1.2467e+001  2.2402e-002 44604 90933,91063,91037
 8.0000e-001 91207 -1.2611e+001  5.4144e+000  1.3232e+000 44604 91037,91011,91181
 8.0000e-001 91230 -1.6384e+001  1.1834e+001  2.2179e+000 44604 91037,91181,90933
 8.0000e-001 91429 -3.2090e+000  9.9704e+000 -6.5359e-001 44264 91452,91279,91253
 8.0000e-001 91406 -1.9745e+000  1.3117e+001 -1.2117e+000 44264 91452,91253,91357
 8.0000e-001 91383 -4.4567e+000  6.1161e+000 -2.8534e-002 44264 91279,91331,91305
 8.0000e-001 91478 -1.5569e+000  6.9587e+000 -2.8438e-001 44264 91331,91279,91452
 8.0000e-001 91501 -3.5081e-001  9.5729e+000 -1.2197e+000 44264 91331,91452,91357
 8.0000e-001 92060 -9.0882e+000 -8.8624e+000  1.0774e+000 43860 92083,91740,91688
 8.0000e-001 92037 -1.8763e+001 -1.2053e+001  1.2683e+000 43860 92083,91688,91896
 8.0000e-001 92014 -1.5875e+001 -9.8882e+000 -4.8318e+000 43860 91766,91870,91844
 8.0000e-001 91991 -1.4670e+001 -4.6374e+000 -4.5714e+000 43860 91740,91870,91766
 8.0000e-001 91968 -2.7871e+000 -1.9349e+000 -1.2751e+000 43860 91766,91844,91792
 8.0000e-001 91945 -7.5526e+000 -4.0310e+000  1.2170e+000 43860 91688,91740,91714
 8.0000e-001 91922 -9.0475e+000 -6.9590e+000 -3.4895e+000 43860 91792,91844,91818
 8.0000e-001 92109 -1.8023e+001 -4.9377e+000 -4.1849e+000 43860 91870,91740,92083
 8.0000e-001 92132 -2.7333e+001 -8.1373e+000 -4.5030e+000 43860 91870,92083,91896
 8.0000e-001 92353 -1.2854e+001 -1.4036e+000  2.4032e+000 43662 92203,92255,92229
 8.0000e-001 92330 -9.0425e+000 -2.8913e+000 -9.5765e-003 43662 92376,92203,92281
 8.0000e-001 92307 -1.3508e+001 -5.1754e+000 -1.9347e+000 43662 92177,92281,92203
 8.0000e-001 92402 -6.2189e+000 -1.6568e+000  9.3796e-001 43662 92255,92203,92376
 8.0000e-001 92682 -4.5188e+000  5.9844e+000 -1.1700e+000 43464 92532,92584,92558
 8.0000e-001 92659 -7.5726e+000  4.8587e+000 -1.7566e+000 43464 92506,92584,92532
 8.0000e-001 92636  1.7141e+000  9.6581e+000 -3.4871e+000 43464 92506,92610,92584
 8.0000e-001 93013 -8.6070e+000  4.6101e-002 -3.5197e+000 42960 92866,92918,92892
 8.0000e-001 92990 -1.0533e+001  1.8681e+000 -1.3168e+000 42960 93036,92918,92866
 8.0000e-001 92967 -1.0309e+001  8.0395e-001 -7.1938e-001 42960 93036,92866,92840
 8.0000e-001 92944 -1.0188e+001  3.1940e+000 -1.4417e+000 42960 92788,92918,92814
 8.0000e-001 93062 -1.0504e+001  2.8913e+000 -1.5710e+000 42960 92814,92918,93036
 8.0000e-001 93085 -1.0515e+001  1.9801e+000 -6.4498e-001 42960 92814,93036,92840
 8.0000e-001 93186 -2.0569e+000  3.8505e+000 -1.1415e+000 42556 93108,93160,93134
 8.0000e-001 93554 -4.7850e+000  7.1948e+000 -1.8030e+000 42052 93231,93387,93361
 8.0000e-001 93531 -1.6315e+000  7.7376e+000 -3.0476e+000 42052 93231,93413,93387
 8.0000e-001 93508 -4.3463e+000  6.3184e+000 -1.7505e+000 42052 93231,93361,93257
 8.0000e-001 93485 -6.4613e+000  2.0048e+000  6.6464e-001 42052 93283,93361,93335
 8.0000e-001 93462 -1.0789e+001  3.8756e+000 -2.0393e+000 42052 93257,93361,93283
 8.0000e-001 93439 -8.4832e+000  6.1325e-001  3.3120e+000 42052 93283,93335,93309
 8.0000e-001 94162 -7.4046e+000  4.5027e+000  4.9848e+000 41498 93767,93975,93793
 8.0000e-001 94139 -8.5808e+000  3.2710e+000  4.9309e-001 41498 93741,93975,93767
 8.0000e-001 94116 -6.9477e+000  2.5744e+000  4.4547e+000 41498 93793,93975,93923
 8.0000e-001 94093 -4.4506e+000  8.4814e+000  2.6833e+000 41498 93923,93975,93949
 8.0000e-001 94070 -2.8242e+000 -8.0267e-001  6.0068e+000 41498 93871,93923,93897
 8.0000e-001 94047 -8.6357e+000  1.8119e+000  4.6522e+000 41498 93793,93923,93871
 8.0000e-001 94024 -8.5801e-001  2.9118e+000  4.9295e+000 41498 93819,93871,93845
 8.0000e-001 94001 -9.4281e+000 -3.1307e-001  4.8731e+000 41498 93793,93871,93819
 8.0000e-001 94619  8.2927e+000  2.1904e-001 -3.7023e+000 40930 94642,94423,94371
 8.0000e-001 94596  9.9323e+000 -2.5643e-001 -6.5741e-001 40930 94642,94371,94345
 8.0000e-001 94573  1.1417e+001  1.0338e+001 -5.6112e-001 40930 94345,94501,94475
 8.0000e-001 94550  1.5831e+001  4.1742e+000 -6.4983e+000 40930 94371,94423,94397
 8.0000e-001 94527  1.1559e+001  6.2169e+000 -3.0379e+000 40930 94423,94475,94449
 8.0000e-001 94668  1.0464e+001  5.3584e+000 -3.4911e+000 40930 94475,94423,94642
 8.0000e-001 94691  1.0821e+001  1.9612e+000 -8.4698e-001 40930 94475,94642,94345
 8.0000e-001 95148 -5.5464e+000 -1.9255e+000 -2.5291e+000 40362 95171,94952,94926
 8.0000e-001 95125 -6.4300e+000 -1.4780e+000  8.2741e-001 40362 95171,94926,95004
 8.0000e-001 95102 -4.6360e+000 -5.0095e+000 -1.4470e-001 40362 94874,95004,94926
 8.0000e-001 95079 -6.4975e+000 -5.5437e+000 -4.4761e-001 40362 94874,95030,95004
 8.0000e-001 95056 -3.7413e+000 -2.7504e+000 -8.3413e-002 40362 94874,94926,94900
 8.0000e-001 95197 -5.6122e+000  1.6315e+000 -2.9961e+000 40362 94978,94952,95171
 8.0000e-001 95220 -6.2213e+000  2.0322e+000  2.3697e-001 40362 94978,95171,95004
 8.0000e-001 95549 -3.2534e+000  4.9463e+000 -1.2823e+000 39586 95350,95402,95376
 8.0000e-001 95526 -4.5883e+000  4.0380e+000 -8.8669e-001 39586 95324,95402,95350
 8.0000e-001 95503 -3.2491e+000  7.7721e+000 -7.3094e-001 39586 95324,95454,95402
 8.0000e-001 95480 -4.9816e-001  1.3456e+001  4.3261e-001 39586 95402,95454,95428
 8.0000e-001 96055 -6.5717e+000  1.1164e+000  1.7552e+000 38968 96078,95862,95810
 8.0000e-001 96032 -5.5382e+000  2.3381e+000  2.1987e+000 38968 96078,95810,95758
 8.0000e-001 96009 -8.0668e+000  5.4703e+000  3.1511e+000 38968 96150,95732,95888
 8.0000e-001 95986 -5.1223e+000  2.3281e+000  2.6500e+000 38968 95810,95862,95836
 8.0000e-001 95963 -1.0658e+001  6.7668e+000 -5.7712e-002 38968 95732,95914,95888
 8.0000e-001 95940 -3.6714e+000  4.1502e+000  9.7565e-001 38968 95758,95810,95784
 8.0000e-001 96104 -5.6957e+000  2.6360e+000  7.9427e-001 38968 95888,95862,96078
 8.0000e-001 96127 -6.2262e+000  4.7120e+000  1.2176e+000 38968 96150,95888,96078
 8.0000e-001 96176 -1.0563e+001  2.2464e+000  4.3203e+000 38968 95758,95732,96150
 8.0000e-001 96199 -8.7594e+000  9.1260e-001  2.4479e+000 38968 95758,96150,96078
 8.0000e-001 96545 -8.0724e+000 -1.9242e+000  4.3548e+000 38507 96640,96568,96352
 8.0000e-001 96522 -1.1049e+001 -3.8124e+000  5.7546e+000 38507 96568,96300,96222
 8.0000e-001 96499 -7.3173e+000 -9.6760e-001  2.8728e+000 38507 96640,96352,96326
 8.0000e-001 96476 -5.0935e+000 -3.0254e+000  1.7107e+000 38507 96352,96404,96378
 8.0000e-001 96453 -1.3001e+001 -2.2927e+000  4.0654e+000 38507 96222,96300,96248
 8.0000e-001 96430 -6.1679e+000 -6.4736e-001 -2.0643e+000 38507 96248,96300,96274
 8.0000e-001 96594 -7.9521e+000 -3.4756e+000  4.8591e+000 38507 96404,96352,96568
 8.0000e-001 96617 -8.6225e+000 -2.6293e+000  4.3665e+000 38507 96404,96568,96222
 8.0000e-001 96666 -9.1177e+000 -4.1430e+000  5.1502e+000 38507 96300,96568,96640
 8.0000e-001 96689 -8.9204e+000 -3.4773e+000  3.8133e+000 38507 96300,96640,96326
 8.0000e-001 97069 -1.5635e+001 -4.8407e+000 -2.8236e+000 37760 97092,96873,96821
 8.0000e-001 97046 -1.5207e+001 -4.8836e+000 -5.3887e-001 37760 97092,96821,96795
 8.0000e-001 97023 -5.5661e+000 -8.4650e+000 -3.0823e+000 37760 96821,96873,96847
 8.0000e-001 97000 -2.9164e+001  4.6090e+000 -9.2706e+000 37760 96873,96925,96899
 8.0000e-001 96977 -1.0624e+001  3.9658e+000 -1.4013e+000 37760 96795,96951,96925
 8.0000e-001 97118 -1.4811e+001 -2.7248e+000 -2.6283e+000 37760 96925,96873,97092
 8.0000e-001 97141 -1.4093e+001 -2.7483e+000 -1.2497e-001 37760 96925,97092,96795
 8.0000e-001 97647 -4.2635e-001 -2.8263e+000  2.1285e-002 37356 97324,97480,97376
 8.0000e-001 97624 -2.0438e-003 -3.8222e+000  1.9807e+000 37356 97324,97506,97480
 8.0000e-001 97601  2.8635e-001 -3.7073e-001  6.3004e-001 37356 97376,97480,97454
 8.0000e-001 97578 -3.6768e+000 -2.0413e+000  3.1121e+000 37356 97324,97376,97350
 8.0000e-001 97555  2.2888e-001  2.5451e-001  1.9084e+000 37356 97376,97454,97402
 8.0000e-001 97532  1.4013e+000  8.7307e-001  2.3177e+000 37356 97402,97454,97428
 8.0000e-001 98232  4.7227e+000  3.6825e+000 -7.1987e+000 36902 97935,98065,98013
 8.0000e-001 98209  7.0000e+000  4.8293e+000 -6.8105e+000 36902 97935,98091,98065
 8.0000e-001 98186  1.0953e+001  8.3367e+000 -9.3787e+000 36902 97935,98013,97987
 8.0000e-001 98163  9.1897e+000  8.7648e+000 -5.8185e+000 36902 97909,98091,97935
 8.0000e-001 98140  1.5186e+001  7.1986e+000 -1.3683e+001 36902 97935,97987,97961
 8.0000e-001 98117  7.4607e+000  8.7489e+000 -5.6541e+000 36902 98013,98065,98039
 8.0000e-001 98659 -4.9992e+000  8.3378e+000  9.5496e+000 36604 98682,98414,98388
 8.0000e-001 98636 -9.0735e+000  4.8155e+000  1.6877e+000 36604 98682,98388,98336
 8.0000e-001 98613 -7.4745e+000 -1.0723e+000  1.2158e+000 36604 98754,98518,98466
 8.0000e-001 98590 -6.6904e+000 -6.5178e+000  6.8716e+000 36604 98414,98466,98440
 8.0000e-001 98567 -1.4394e+001  4.0130e+000 -1.4226e-001 36604 98336,98388,98362
 8.0000e-001 98544 -7.4162e+000 -1.0952e+000  1.3772e+000 36604 98466,98518,98492
 8.0000e-001 98708 -9.5825e+000 -9.0893e-001  7.4914e+000 36604 98466,98414,98682
 8.0000e-001 98731 -8.3754e+000  1.9085e+000  1.1862e+000 36604 98754,98466,98682
 8.0000e-001 98780 -7.8834e+000 -2.3365e+000  8.4754e-001 36604 98336,98518,98754
 8.0000e-001 98803 -1.0207e+001 -9.6046e-001  2.6116e-001 36604 98336,98754,98682
 8.0000e-001 99309 -7.2696e+000 -1.8505e+000  2.2495e-001 36200 99332,99116,99012
 8.0000e-001 99286 -7.2469e+000 -4.5776e+000  1.5165e+000 36200 99332,99012,98986
 8.0000e-001 99263 -5.6391e+000 -3.0791e+000 -1.5112e+000 36200 99012,99116,99064
 8.0000e-001 99240 -4.2707e+000  5.7140e+000  7.6928e-001 36200 98986,99168,99142
 8.0000e-001 99217 -1.4629e+001 -4.4059e-001 -3.1695e+000 36200 99064,99116,99090
 8.0000e-001 99194 -5.5296e+000 -2.6932e+000 -1.5033e+000 36200 99012,99064,99038
 8.0000e-001 99358 -6.9490e+000 -3.2217e-002 -4.5469e-001 36200 99142,99116,99332
 8.0000e-001 99381 -6.6177e+000 -1.7314e+000  1.1101e+000 36200 99142,99332,98986
 8.0000e-001 99887 -9.9496e+000 -8.8544e+000  4.1943e+000 35488 99564,99720,99590
 8.0000e-001 99864 -5.1926e+000  1.0040e+000  7.4715e+000 35488 99564,99746,99720
 8.0000e-001 99841 -7.5395e+000 -6.1809e+000 -2.3411e+000 35488 99642,99694,99668
 8.0000e-001 99818 -4.6605e+000 -7.1612e+000  1.0629e+000 35488 99590,99694,99642
 8.0000e-001 99795 -5.4724e+000 -4.1965e+000  1.7097e+000 35488 99590,99720,99694
 8.0000e-001 99772 -6.5300e+000 -9.6777e+000  2.3025e-001 35488 99590,99642,99616
 8.0000e-001 99988 -4.6964e+000  7.0519e+000 -1.4661e+000 35198 99910,99962,99936
 8.0000e-001 100138 -1.4142e+001 -9.4857e+000  5.9450e+000 34794 100233,100161,100063
 8.0000e-001 100115 -1.7220e+001 -4.9107e+000  9.1707e+000 34794 100365,100161,100037
 8.0000e-001 100187 -1.1953e+001 -5.4083e+000  4.6328e+000 34794 100089,100063,100161
 8.0000e-001 100210 -1.5443e+001 -1.8734e+000  7.3552e+000 34794 100089,100161,100011
 8.0000e-001 100259 -1.2079e+001 -5.6874e+000  7.6705e+000 34794 100037,100161,100233
 8.0000e-001 100391 -1.7496e+001 -5.1622e+000  9.2808e+000 34794 100011,100161,100365
 8.0000e-001 100927 -6.4392e+000 -3.0974e+000  2.3564e+000 34404 100679,100809,100783
 8.0000e-001 100904  1.2982e+000  2.3802e+000  4.8333e+000 34404 100653,100809,100679
 8.0000e-001 100881 -4.4656e+000 -3.3996e+000  5.3063e-001 34404 100705,100783,100731
 8.0000e-001 100858 -4.4761e+000 -1.8213e+000  1.3934e+000 34404 100679,100783,100705
 8.0000e-001 100835 -1.6668e+000  2.4287e-002  2.5186e+000 34404 100731,100783,100757
 8.0000e-001 101354  1.9316e+000 -2.4100e+000 -6.5949e-001 34000 101377,101109,101057
 8.0000e-001 101331  2.7993e+000 -6.9925e-002  1.4134e+000 34000 101449,101377,101057
 8.0000e-001 101308  3.6156e+000 -1.2309e+000  1.5140e+000 34000 101449,101057,101031
 8.0000e-001 101285 -3.5071e+000 -4.3649e+000  3.3162e+000 34000 101031,101213,101187
 8.0000e-001 101262 -7.3313e-001 -4.9086e+000 -5.4340e-001 34000 101135,101187,101161
 8.0000e-001 101239  4.7131e+000  2.2547e+000 -2.2493e+000 34000 101057,101109,101083
 8.0000e-001 101403  3.0946e+000  3.0210e+000 -2.0464e+000 34000 101135,101109,101377
 8.0000e-001 101426 -1.0744e+000  6.8008e-001  4.2551e-001 34000 101135,101377,101187
 8.0000e-001 101475  1.1826e+000 -1.3001e+000  2.0202e+000 34000 101187,101377,101449
 8.0000e-001 101498  2.5468e+000 -1.8029e+000  1.8293e+000 34000 101187,101449,101031
 8.0000e-001 102083 -8.3749e+000 -2.2244e+000  8.2982e-002 33472 102106,101812,101786
 8.0000e-001 102060 -6.7946e+000 -2.2531e+000  1.1447e+000 33472 102106,101786,101916
 8.0000e-001 102037 -6.1240e+000 -2.0038e+000 -1.4219e-001 33472 101812,101864,101838
 8.0000e-001 102014 -8.3196e+000  2.0769e+000  1.8254e+000 33472 101864,101916,101890
 8.0000e-001 101991 -3.6847e+000  1.5743e+000  2.5214e+000 33472 101786,101942,101916
 8.0000e-001 101968 -1.6425e+000  2.9384e+000 -9.4047e-001 33472 101760,101942,101786
 8.0000e-001 102132 -7.1898e+000 -1.1893e+000  6.8747e-001 33472 101864,101812,102106
 8.0000e-001 102155 -6.3476e+000 -1.4824e+000  1.7166e+000 33472 101864,102106,101916
 8.0000e-001 102612  1.7594e+000  7.2073e+000 -1.3766e+000 33038 102635,102468,102390
 8.0000e-001 102589  2.3346e+000  4.9473e+000  8.8201e-001 33038 102635,102390,102364
 8.0000e-001 102566  5.9351e+000  4.4762e+000 -2.0419e+000 33038 102390,102468,102442
 8.0000e-001 102543 -2.2353e+000 -3.6069e+000  2.1901e+000 33038 102338,102494,102364
 8.0000e-001 102520  3.6288e+000  3.6016e+000 -1.9537e+000 33038 102390,102442,102416
 8.0000e-001 102661  2.8327e-001  7.3949e+000  5.4353e-001 33038 102494,102468,102635
 8.0000e-001 102684 -1.3990e+000  4.9111e+000  2.8183e+000 33038 102494,102635,102364
 8.0000e-001 103318 -2.2998e+000  6.1662e-001  8.6774e-001 32402 102972,103128,103076
 8.0000e-001 103295 -5.7007e-001  3.1642e+000  1.8810e+000 32402 102946,103128,102972
 8.0000e-001 103272  6.7160e-001  6.6793e+000  2.6131e+000 32402 103076,103128,103102
 8.0000e-001 103249 -9.6153e-001  2.9288e+000  9.3207e-001 32402 102946,103154,103128
 8.0000e-001 103226 -1.7691e+000  1.0303e+000  6.4319e-001 32402 102972,103076,102998
 8.0000e-001 103203 -6.8859e+000  4.2184e-001  1.0891e+000 32402 102998,103076,103050
 8.0000e-001 103180 -4.6435e+000  6.7114e+000 -1.0888e+000 32402 102998,103050,103024
 8.0000e-001 103696  4.3580e+000  3.6526e+000 -3.1743e+000 31924 103448,103526,103500
 8.0000e-001 103673 -6.6599e+000 -1.6456e+000 -5.7610e+000 31924 103448,103578,103526
 8.0000e-001 103650 -3.8940e+000  1.5087e+000 -5.0297e-001 31924 103448,103500,103474
 8.0000e-001 103627 -1.6828e+001  1.1854e+001 -7.9294e+000 31924 103422,103578,103448
 8.0000e-001 103604  1.4106e+001 -2.2440e+000 -9.4404e+000 31924 103526,103578,103552
 8.0000e-001 104281 -4.9822e+000 -1.2335e+000 -2.0974e-001 31520 104304,104062,104036
 8.0000e-001 104258 -3.2606e+000  6.0318e-001  5.2037e-001 31520 104304,104036,103984
 8.0000e-001 104235 -4.3679e+000  2.3903e-001  1.1816e+000 31520 104062,104114,104088
 8.0000e-001 104212 -8.6317e+000 -4.1468e-001  1.4759e+000 31520 103958,104114,103984
 8.0000e-001 104189 -2.3967e+000  2.6072e+000  1.9309e-001 31520 103984,104036,104010
 8.0000e-001 104166 -7.0386e+000  5.6409e+000  6.2875e-001 31520 103958,104140,104114
 8.0000e-001 104330 -4.9223e+000  7.4079e-001  6.4220e-001 31520 104114,104062,104304
 8.0000e-001 104353 -4.5669e+000  1.4351e+000  9.2146e-001 31520 104114,104304,103984
 8.0000e-001 104704 -3.9127e+000  2.1151e+000  2.5342e-001 31066 104479,104583,104505
 8.0000e-001 104681 -5.6021e+000  1.9933e+000  6.9323e-002 31066 104479,104609,104583
 8.0000e-001 104658 -7.6878e+000  1.9687e+000 -4.2541e-001 31066 104505,104557,104531
 8.0000e-001 104635 -6.3910e+000  3.3003e-001 -5.3409e-001 31066 104505,104583,104557
 8.0000e-001 104925 -2.8755e+001  1.5186e+001  2.9407e+000 30754 104775,104827,104801
 8.0000e-001 104902 -2.5107e+001 -4.8279e+000  1.4079e+000 30754 104775,104853,104827
 8.0000e-001 104879 -3.0871e+001 -7.6674e+000 -3.6058e+000 30754 104749,104853,104775
 8.0000e-001 105482 -1.5638e+001 -5.1243e+000  1.0558e+001 30164 105505,105136,105110
 8.0000e-001 105459 -1.3982e+001  1.0583e+000  8.1796e+000 30164 105649,105505,105110
 8.0000e-001 105436 -1.8754e+001 -1.2472e+001  9.1872e+000 30164 105577,105188,105136
 8.0000e-001 105413 -1.0333e+001  3.0265e+000  5.5164e+000 30164 105649,105110,105318
 8.0000e-001 105390 -8.5033e+000 -3.6394e+000  5.9933e+000 30164 105214,105292,105240
 8.0000e-001 105367 -6.7305e+000 -1.1967e+000  4.5820e+000 30164 105240,105292,105266
 8.0000e-001 105344 -1.0756e+001 -2.9820e+001  1.3502e+001 30164 105136,105188,105162
 8.0000e-001 105531 -1.4471e+001 -1.0724e+001  8.6242e+000 30164 105577,105136,105505
 8.0000e-001 105554 -1.0190e+001 -6.1706e+000  1.0202e+001 30164 105214,105505,105292
 8.0000e-001 105603 -1.6802e+001 -1.3096e+001  1.3492e+001 30164 105214,105188,105577
 8.0000e-001 105626 -1.4433e+001 -1.2207e+001  1.2985e+001 30164 105214,105577,105505
 8.0000e-001 105675 -1.5599e+001 -2.0647e+000  1.0854e+001 30164 105292,105505,105649
 8.0000e-001 105698 -1.5148e+001 -2.9879e+000  8.6580e+000 30164 105292,105649,105318
 8.0000e-001 106027  1.0362e+001  2.4012e+000 -1.1440e+000 29868 106322,106050,105880
 8.0000e-001 106004  5.2127e+000 -2.3413e+000 -5.6801e-001 29868 106250,106050,105828
 8.0000e-001 105981  4.1664e+000 -2.4994e+000 -5.0567e-002 29868 106250,105828,105802
 8.0000e-001 105958  6.1416e+000  4.9852e+000  2.5620e+000 29868 106322,105880,106122
 8.0000e-001 106076  1.1378e+001  1.5979e+001 -8.7977e+000 29868 105906,105880,106050
 8.0000e-001 106099 -5.9948e-001  1.3245e+000 -3.4340e+000 29868 105906,106050,105932
 8.0000e-001 106148 -6.0804e-001  1.4561e+000  3.1354e+000 29868 105854,105828,106122
 8.0000e-001 106276  5.1965e+000 -1.2061e+000 -2.5540e+000 29868 105932,106050,106250
 8.0000e-001 106299  2.5335e+000 -1.7738e+000 -2.1020e+000 29868 105932,106250,105802
 8.0000e-001 106348  2.7510e+000  8.7304e-002 -1.8873e+000 29868 105828,106050,106322
 8.0000e-001 106371 -6.6578e-001  3.2188e+000  1.7951e+000 29868 105828,106322,106122
 8.0000e-001 106828 -2.9096e+000 -4.8652e-002 -2.9572e+000 29521 106580,106710,106684
 8.0000e-001 106805  2.9832e-001 -3.1938e-001  5.8942e-001 29521 106554,106710,106580
 8.0000e-001 106782 -6.3663e-004  1.2275e+000 -2.3475e+000 29521 106580,106684,106606
 8.0000e-001 106759 -6.9849e-001 -1.5163e-001 -2.6147e+000 29521 106606,106684,106658
 8.0000e-001 106736  1.8142e+000  3.4976e+000 -1.1239e+000 29521 106606,106658,106632
 8.0000e-001 107027 -4.4096e+000 -3.4697e+000  9.8921e-001 29117 106877,106929,106903
 8.0000e-001 107004 -5.7645e+000 -4.0202e+000  2.9610e+000 29117 106851,106929,106877
 8.0000e-001 106981 -1.9326e+000 -2.5696e+000  1.7116e+000 29117 106851,106955,106929
 8.0000e-001 107456 -3.2565e+000  1.1149e+000 -2.3262e-001 28656 107237,107315,107263
 8.0000e-001 107433 -4.1580e+000  1.8168e+000 -3.0565e-001 28656 107133,107315,107237
 8.0000e-001 107410 -5.8876e+000 -2.6374e+000 -1.2046e-001 28656 107133,107237,107159
 8.0000e-001 107387 -6.3946e+000 -1.7741e+000 -1.8868e-001 28656 107159,107237,107185
 8.0000e-001 107364 -8.5687e+000 -2.5967e+000  1.4059e-001 28656 107185,107237,107211
 8.0000e-001 107341 -2.7386e+000  3.9763e+000 -2.9189e+000 28656 107263,107315,107289
 8.0000e-001 107704 -2.0455e+000  7.6435e-002  1.0354e+000 27902 107727,107557,107531
 8.0000e-001 107681 -3.4827e+000  1.5599e-001  8.3666e-002 27902 107727,107531,107505
 8.0000e-001 107658 -4.9918e-001  2.6390e+000  2.2612e+000 27902 107557,107609,107583
 8.0000e-001 107635 -2.1473e+000 -1.4447e+000 -1.3683e+000 27902 107479,107609,107505
 8.0000e-001 107753 -4.5195e-001 -1.2593e-001  1.2034e+000 27902 107609,107557,107727
 8.0000e-001 107776 -1.8652e+000  5.7611e-002  3.3220e-001 27902 107609,107727,107505
 8.0000e-001 108333 -4.5701e+000  8.0927e-001 -4.3329e-001 27341 108356,108065,108013
 8.0000e-001 108310 -4.3308e+000  7.0475e-001  4.7528e-001 27341 108356,108013,108143
 8.0000e-001 108287 -4.1296e+000  1.4288e+000  3.7144e-001 27341 108428,108117,108091
 8.0000e-001 108264 -4.7634e+000  5.5121e-001 -3.4720e-001 27341 108013,108065,108039
 8.0000e-001 108241 -5.1546e+000 -1.2722e-001  1.4248e-001 27341 107987,108143,108013
 8.0000e-001 108218 -7.8000e+000 -1.2869e+000  6.2110e-001 27341 107987,108169,108143
 8.0000e-001 108195 -9.3871e+000  4.6054e-001  6.5658e-001 27341 107961,108169,107987
 8.0000e-001 108382 -4.1575e+000  1.6431e+000 -2.2119e-001 27341 108091,108065,108356
 8.0000e-001 108405 -3.9406e+000  8.8942e-001  2.3119e-001 27341 108428,108091,108356
 8.0000e-001 108454 -3.8692e+000  2.6264e+000  5.8522e-001 27341 108143,108117,108428
 8.0000e-001 108477 -3.8606e+000  1.8019e+000  4.7465e-001 27341 108143,108428,108356
 8.0000e-001 108725 -4.2408e+001 -2.9531e+001  5.1768e+000 27029 108748,108526,108500
 8.0000e-001 108702 -4.0433e+001 -4.0661e+001  3.7747e+000 27029 108748,108500,108630
 8.0000e-001 108679 -3.2964e+001 -2.1568e+001  9.4161e+000 27029 108578,108630,108604
 8.0000e-001 108656 -4.5062e+001 -4.0528e+001 -1.7480e+001 27029 108526,108578,108552
 8.0000e-001 108774 -4.0320e+001 -2.3540e+001  5.8410e+000 27029 108578,108526,108748
 8.0000e-001 108797 -3.5849e+001 -3.1447e+001  5.5730e+000 27029 108578,108748,108630
 8.0000e-001 109045 -5.7231e+000 -2.8327e+000 -9.2920e-001 26610 108872,108924,108898
 8.0000e-001 109022 -5.9722e+000 -2.0569e+000 -5.6807e-001 26610 108872,108950,108924
 8.0000e-001 108999 -7.5767e+000 -3.4044e+000 -2.2603e+000 26610 108846,108950,108872
 8.0000e-001 108976 -8.2308e+000 -5.5035e+000 -2.7753e+000 26610 108820,108950,108846
 8.0000e-001 109366 -5.3845e+000  1.4169e+000  1.8411e-001 26006 109144,109222,109196
 8.0000e-001 109343 -5.5479e+000  1.4652e+000  1.8772e-001 26006 109118,109222,109144
 8.0000e-001 109320 -4.9983e+000  1.9229e+000 -1.4811e-001 26006 109092,109222,109118
 8.0000e-001 109297 -4.6722e+000  1.6962e+000  4.3820e-001 26006 109144,109196,109170
 8.0000e-001 109274 -6.2945e+000 -2.0959e-002  4.1668e-001 26006 109092,109248,109222
 8.0000e-001 109567 -2.2542e+000  2.1040e+000  2.3513e-001 25659 109391,109469,109443
 8.0000e-001 109544 -1.2680e+000  2.2394e+000  9.0173e-001 25659 109391,109495,109469
 8.0000e-001 109521 -4.7552e+000 -1.1018e+000  1.5588e+000 25659 109391,109443,109417
 8.0000e-001 109900  2.1090e+000  6.7175e+000  2.1819e-001 25255 109923,109779,109753
 8.0000e-001 109877  2.7823e+000  9.4923e+000  2.1691e+000 25255 109923,109753,109701
 8.0000e-001 109854  1.1953e+000  1.5434e+000 -1.6340e+000 25255 109675,109805,109701
 8.0000e-001 109831  2.2401e+000  1.2687e+000  5.3733e+000 25255 109701,109753,109727
 8.0000e-001 109949  1.3349e-001  2.5020e+000 -2.5140e+000 25255 109805,109779,109923
 8.0000e-001 109972  2.4147e+000  7.5509e+000 -3.9288e-001 25255 109805,109923,109701
 8.0000e-001 110220 -1.7002e+000  1.0535e+000  2.7992e+000 24701 110243,110021,109995
 8.0000e-001 110197 -1.3975e+000  1.1294e+000  1.5190e+000 24701 110243,109995,110099
 8.0000e-001 110174 -6.8912e-001  1.5969e+000  1.4745e+000 24701 110315,110073,110047
 8.0000e-001 110151  1.5011e+000  1.4476e+000  9.6673e-001 24701 109995,110125,110099
 8.0000e-001 110269  7.3244e-001  1.5662e+000  2.4943e+000 24701 110047,110021,110243
 8.0000e-001 110292 -1.8421e+000  1.5972e+000  1.8261e+000 24701 110315,110047,110243
 8.0000e-001 110341  2.3359e+000  2.3370e+000  1.4630e+000 24701 110099,110073,110315
 8.0000e-001 110364  3.2983e-001  1.8700e+000  1.6306e+000 24701 110099,110315,110243
 8.0000e-001 110661 -5.5438e+000 -1.4167e-003  1.9979e+000 24197 110684,110413,110387
 8.0000e-001 110638 -4.3348e+000  2.5333e+000  1.5977e+000 24197 110684,110387,110543
 8.0000e-001 110615 -4.3082e+000  2.3693e+000  7.7894e-002 24197 110756,110491,110465
 8.0000e-001 110592 -5.9099e+000 -5.5980e-001  4.0100e-001 24197 110413,110465,110439
 8.0000e-001 110569 -4.1356e+000  3.8454e+000  2.1135e+000 24197 110491,110543,110517
 8.0000e-001 110710 -4.8711e+000 -2.4971e-001  2.0139e-001 24197 110465,110413,110684
 8.0000e-001 110733 -4.0146e+000  1.8304e+000  1.3693e-001 24197 110756,110465,110684
 8.0000e-001 110782 -4.2251e+000  1.7683e+000  6.1059e-001 24197 110543,110491,110756
 8.0000e-001 110805 -4.1712e+000  9.2259e-001  6.7051e-001 24197 110543,110756,110684
 8.0000e-001 111315 -1.0456e+001 -1.0658e+000 -8.9063e+000 23593 111044,111148,111070
 8.0000e-001 111292 -1.1709e+001  4.1020e+000 -6.5995e+000 23593 111044,111174,111148
 8.0000e-001 111269  8.5086e+000 -1.2945e+001 -1.3503e+001 23593 111070,111122,111096
 8.0000e-001 111246 -1.2025e+000  1.7606e+001 -5.7613e+000 23593 111070,111148,111122
 8.0000e-001 111223 -6.4781e+000  3.5066e-001  5.8938e-001 23593 111018,111174,111044
 8.0000e-001 111200 -4.1766e+000 -7.6303e-001  9.8761e-001 23593 110992,111174,111018
 8.0000e-001 111821 -6.0419e+000  4.7429e-001 -2.5407e-002 23089 111916,111844,111628
 8.0000e-001 111798 -5.2543e+000  1.1272e+000 -1.8381e-001 23089 111844,111550,111524
 8.0000e-001 111775 -6.2253e+000  7.6787e-002 -1.2210e-001 23089 111916,111628,111602
 8.0000e-001 111752 -6.4920e+000  4.4501e+000 -9.2207e-001 23089 111498,111680,111524
 8.0000e-001 111729 -6.0317e+000 -8.3507e-001 -1.1139e-001 23089 111550,111602,111576
 8.0000e-001 111706 -5.1567e+000 -1.4287e+000  4.9317e-001 23089 111628,111680,111654
 8.0000e-001 111870 -5.0537e+000  3.7884e-001 -3.5782e-001 23089 111680,111628,111844
 8.0000e-001 111893 -4.7572e+000  9.8416e-001 -1.1812e+000 23089 111680,111844,111524
 8.0000e-001 111942 -5.4670e+000 -2.3332e-001  1.5485e-001 23089 111550,111844,111916
 8.0000e-001 111965 -5.6850e+000 -6.3919e-001  1.8856e-002 23089 111550,111916,111602
 8.0000e-001 112164 -6.2628e+000 -5.2906e+000  6.6416e+000 22626 112187,112014,111988
 8.0000e-001 112141 -5.0085e+000  8.9989e+000  4.3861e+000 22626 112259,112187,111988
 8.0000e-001 112118 -4.4723e+000  1.4202e+001 -3.8021e+000 22626 112259,111988,112092
 8.0000e-001 112213 -6.8525e+000 -2.1605e+001  3.1518e+000 22626 112040,112014,112187
 8.0000e-001 112236 -2.7847e+000 -4.1390e+000  5.2608e+000 22626 112040,112187,112066
 8.0000e-001 112285 -7.4100e+000 -4.2981e+000  6.5040e+000 22626 112066,112187,112259
 8.0000e-001 112308 -8.9000e+000 -6.6456e-001 -1.0581e+000 22626 112066,112259,112092
 8.0000e-001 112605 -1.3305e+000 -3.2441e-001  7.4858e-001 22286 112628,112383,112357
 8.0000e-001 112582 -2.3042e+000 -1.1828e+000  1.4141e+000 22286 112772,112628,112357
 8.0000e-001 112559 -1.2509e+000  1.5137e+000  2.3277e-001 22286 112700,112435,112409
 8.0000e-001 112536 -3.6300e+000 -8.6650e-001  2.1138e+000 22286 112772,112357,112331
 8.0000e-001 112513  6.0867e-001  8.5886e-001  3.8470e-001 22286 112435,112487,112461
 8.0000e-001 112654 -1.7855e+000 -6.7254e-001  4.3580e-001 22286 112409,112383,112628
 8.0000e-001 112677 -1.7994e+000  1.3853e-001  2.3364e-001 22286 112700,112409,112628
 8.0000e-001 112726 -1.4403e+000  7.8051e-001  1.1687e+000 22286 112487,112435,112700
 8.0000e-001 112749 -1.5289e+000  5.0640e-001  1.1219e+000 22286 112487,112700,112628
 8.0000e-001 112798 -1.6858e+000 -2.2114e-001  1.1421e+000 22286 112487,112628,112772
 8.0000e-001 112821 -2.3150e+000  4.8701e-001  1.4588e+000 22286 112487,112772,112331
 8.0000e-001 112924 -5.6101e+001  1.1900e+001  6.5246e+000 21974 112846,112898,112872
 8.0000e-001 113223  1.9946e+000 -5.1741e+000  4.8452e-001 21420 112949,113053,112975
 8.0000e-001 113200 -2.2542e-001 -2.1591e+000  2.2885e+000 21420 112949,113079,113053
 8.0000e-001 113177 -5.6708e+000 -7.0129e+000 -1.9906e+000 21420 112975,113053,113001
 8.0000e-001 113154  3.5895e+000 -3.1396e+000 -7.9704e-001 21420 113001,113053,113027
 8.0000e-001 113131  4.6375e+000 -1.2463e-001  1.6759e+000 21420 112949,113105,113079
 8.0000e-001 113605 -3.2512e+001  8.4042e+000 -9.7796e+000 20716 113331,113435,113357
 8.0000e-001 113582 -3.7135e+001 -4.8597e+000 -7.9288e+000 20716 113331,113461,113435
 8.0000e-001 113559 -4.0123e+001 -2.7996e+000 -6.8275e-001 20716 113383,113435,113409
 8.0000e-001 113536 -3.4498e+001  1.1879e+000  1.0672e+000 20716 113357,113435,113383
 8.0000e-001 113513 -3.0926e+001  2.7238e+000 -1.2656e+001 20716 113331,113487,113461
 8.0000e-001 113853  5.7014e-001 -4.5939e+000  8.0168e-001 20290 113876,113680,113654
 8.0000e-001 113830  2.9692e+000 -2.5941e+000  1.7022e+000 20290 113876,113654,113628
 8.0000e-001 113807  4.9746e-001 -1.3352e+000  5.6189e-001 20290 113948,113732,113680
 8.0000e-001 113784  2.1257e-001 -1.6765e+000  3.0750e-001 20290 113680,113732,113706
 8.0000e-001 113902  5.6258e-001 -1.9364e+000  1.1977e+000 20290 113948,113680,113876
 8.0000e-001 113925  5.3839e-001 -1.8398e+000  1.8782e+000 20290 113758,113876,113628
 8.0000e-001 113974 -1.4528e-001 -2.0569e+000  8.6233e-001 20290 113758,113732,113948
 8.0000e-001 113997 -3.1938e-001 -2.5598e+000  1.5214e+000 20290 113758,113948,113876
 8.0000e-001 114365 -5.1233e+000  1.1753e+000 -1.2883e-003 19900 114146,114198,114172
 8.0000e-001 114342 -5.0131e+000  1.2239e+000  9.2641e-003 19900 114042,114198,114146
 8.0000e-001 114319 -5.2202e+000  1.1783e+000  1.3330e-001 19900 114042,114224,114198
 8.0000e-001 114296 -4.3158e+000  1.1426e+000 -2.8204e-002 19900 114094,114146,114120
 8.0000e-001 114273 -5.0666e+000  8.1118e-001  1.6209e-001 19900 114042,114146,114094
 8.0000e-001 114250 -5.5095e+000  7.9144e-001  3.5090e-001 19900 114042,114094,114068
 8.0000e-001 114566 -4.1097e+000  5.4376e-001 -6.2377e-002 19496 114442,114494,114468
 8.0000e-001 114543 -2.8238e+000  2.0319e-001  5.6171e-001 19496 114416,114494,114442
 8.0000e-001 114520 -4.7281e+000  1.1574e+000  1.5940e+000 19496 114390,114494,114416
 8.0000e-001 114767 -5.3688e+000  1.3759e+000 -1.1017e-001 19042 114790,114669,114643
 8.0000e-001 114744 -5.3624e+000  1.4370e+000 -8.3379e-002 19042 114790,114643,114591
 8.0000e-001 114721 -5.4647e+000  2.7101e+000 -8.1398e-001 19042 114591,114643,114617
 8.0000e-001 114816 -5.4690e+000  1.4457e+000 -1.3521e-001 19042 114695,114669,114790
 8.0000e-001 114839 -5.4012e+000  1.5730e+000 -8.8884e-002 19042 114695,114790,114591
 8.0000e-001 114991 -5.4561e+000  1.5142e+000  5.0614e-001 18488 114864,114916,114890
 8.0000e-001 114968 -4.8998e+000  3.1358e+000  1.6351e-001 18488 114864,114942,114916
 8.0000e-001 115192 -4.3385e+000  8.5606e-001  1.5506e-001 18098 115215,115042,115016
 8.0000e-001 115169 -5.0555e+000 -4.7947e-001  8.3500e-001 18098 115215,115016,115120
 8.0000e-001 115146 -4.1598e+000  1.4285e+000 -3.6753e-001 18098 115287,115094,115068
 8.0000e-001 115241 -4.8417e+000  9.3715e-001 -4.1059e-002 18098 115068,115042,115215
 8.0000e-001 115264 -4.3921e+000  9.6183e-001 -2.0485e-001 18098 115287,115068,115215
 8.0000e-001 115313 -4.5833e+000  1.6175e+000  3.0477e-001 18098 115120,115094,115287
 8.0000e-001 115336 -4.8562e+000  1.1866e+000  4.7337e-001 18098 115120,115287,115215
 8.0000e-001 115846 -2.4599e+000 -5.1587e-001 -1.2935e+000 17644 115653,115705,115679
 8.0000e-001 115823 -5.5889e-001  1.0333e+000 -2.2422e+000 17644 115627,115705,115653
 8.0000e-001 115800  3.0635e+000 -6.6468e-001  1.4690e+000 17644 115549,115705,115627
 8.0000e-001 115777  6.8803e+000  1.1290e+000 -8.4425e-001 17644 115549,115627,115575
 8.0000e-001 115754  4.8822e+000 -3.0413e+000 -2.8079e+000 17644 115523,115705,115549
 8.0000e-001 115731  9.5619e+000  7.5727e-001 -5.0948e-002 17644 115575,115627,115601
 8.0000e-001 116067 -1.4156e+001 -1.1039e-001 -3.6481e-001 17116 115891,115943,115917
 8.0000e-001 116044 -2.8112e+000 -2.1952e+000 -1.8754e+000 17116 115891,115995,115943
 8.0000e-001 116021  3.7514e+000 -1.8610e+000  1.7164e+000 17116 115943,115995,115969
 8.0000e-001 116288 -2.6074e+000 -9.5211e-001 -1.3432e-001 16704 116164,116216,116190
 8.0000e-001 116265 -2.4282e+000 -1.0121e+000 -4.4737e-002 16704 116112,116216,116164
 8.0000e-001 116242 -1.1009e+000 -4.1305e-001 -2.0099e-001 16704 116112,116164,116138
 8.0000e-001 116489 -3.6876e+001 -1.0706e-001 -4.5230e-001 16434 116339,116417,116365
 8.0000e-001 116466 -3.4172e+001  1.2779e+000  1.2710e-001 16434 116313,116417,116339
 8.0000e-001 116443 -2.8175e+001 -5.3262e+000 -9.1893e+000 16434 116365,116417,116391
 8.0000e-001 116592  1.2833e+000 -2.8028e+000  5.7916e-001 15967 116514,116566,116540
 8.0000e-001 116695  1.3237e+001 -8.9269e+000 -1.5551e+000 15552 116617,116669,116643
 8.0000e-001 116798 -4.7611e+000  1.1552e+000  0.0000e+000 421 116720,116772,116746
 9.0000e-001 69066 -5.3753e-002  1.2916e-001  4.6375e-003 68738 68965,69017,68991
 9.0000e-001 69043 -5.6206e-001  6.3631e-002  4.4857e-001 68738 68939,69017,68965
 9.0000e-001 69371 -2.1997e+000  4.9815e-001  1.7750e+000 68426 69172,69250,69198
 9.0000e-001 69348 -1.6810e-001  2.0351e+000  1.0881e+000 68426 69146,69250,69172
 9.0000e-001 69325 -1.4915e+000  3.2091e+000  3.6877e+000 68426 69198,69250,69224
 9.0000e-001 69302 -8.6377e-002 -2.5781e-001  5.9800e-001 68426 69146,69276,69250
 9.0000e-001 69521 -3.5305e+000 -1.1496e+001  1.8563e+000 68228 69420,69472,69446
 9.0000e-001 69498 -8.2872e-001 -8.7927e+000  2.2724e-001 68228 69394,69472,69420
 9.0000e-001 69781  2.7233e-001 -1.5538e+000 -2.1919e-001 68030 69631,69683,69657
 9.0000e-001 69758  4.2223e-001 -1.9126e-001  3.3323e-001 68030 69631,69709,69683
 9.0000e-001 69735 -2.4715e-001 -3.2837e+000 -3.7926e-001 68030 69605,69709,69631
 9.0000e-001 70078 -1.4113e+000 -4.1627e+000 -1.0625e+000 67832 69882,69934,69908
 9.0000e-001 70055 -5.5582e-002 -4.0536e+000 -9.8797e-001 67832 69856,69934,69882
 9.0000e-001 70032  5.9277e-001 -4.2005e+000 -1.8427e+000 67832 69830,69934,69856
 9.0000e-001 70009 -8.1861e-001 -7.4835e+000 -1.6540e+000 67832 69804,69934,69830
 9.0000e-001 69986  8.9229e-001 -5.3987e+000 -7.0978e-001 67832 69804,69960,69934
 9.0000e-001 70586 -1.1205e-001 -4.0479e-001 -7.0006e-001 67634 70609,70419,70341
 9.0000e-001 70563  2.7062e-001 -1.0945e+000 -4.5320e-001 67634 70681,70609,70341
 9.0000e-001 70540  5.6201e-001 -1.1102e+000  1.5606e-001 67634 70681,70341,70315
 9.0000e-001 70517  1.1693e+000  1.2354e+000 -1.5611e+000 67634 70341,70419,70367
 9.0000e-001 70494  2.3544e-001 -2.5587e-003 -2.0002e-001 67634 70263,70445,70289
 9.0000e-001 70471 -5.2326e-001  5.3383e-001 -1.0997e+000 67634 70367,70419,70393
 9.0000e-001 70635  3.9174e-001  8.1641e-001 -5.4526e-001 67634 70445,70419,70609
 9.0000e-001 70658 -2.3542e-002 -4.2585e-001 -3.2059e-001 67634 70445,70609,70289
 9.0000e-001 70707  7.2421e-001 -1.2485e-001 -2.2489e-001 67634 70289,70609,70681
 9.0000e-001 70730  1.0547e+000 -3.1684e-001  4.0603e-001 67634 70289,70681,70315
 9.0000e-001 71108 -3.3943e+000  2.8476e+000 -2.8147e+000 67344 71131,70912,70886
 9.0000e-001 71085 -5.3244e+000 -1.3387e+000 -4.1893e+000 67344 71131,70886,70860
 9.0000e-001 71062 -3.8758e+000  1.3358e+000 -9.6644e-001 67344 71203,70938,70912
 9.0000e-001 71039 -2.1120e+000 -2.9677e-001 -1.6488e+000 67344 70834,70990,70860
 9.0000e-001 71016 -1.8221e+000  3.2926e+000 -4.1587e-001 67344 70938,70990,70964
 9.0000e-001 71157 -3.3666e+000 -1.7115e-001 -1.5322e+000 67344 71203,70912,71131
 9.0000e-001 71180 -3.1355e+000 -1.1769e+000 -2.0270e+000 67344 70990,71131,70860
 9.0000e-001 71229 -3.1215e+000  2.8244e+000 -4.9101e-001 67344 70990,70938,71203
 9.0000e-001 71252 -2.1459e+000  1.4848e+000 -8.2600e-001 67344 70990,71203,71131
 9.0000e-001 71603 -6.0657e-001  5.5976e+000 -1.3885e+000 67032 71378,71482,71404
 9.0000e-001 71580  3.7689e-001  3.3853e+000 -1.6516e+000 67032 71378,71508,71482
 9.0000e-001 71557 -9.7335e-001  3.6787e+000 -8.3302e-001 67032 71404,71456,71430
 9.0000e-001 71534 -8.9660e-001  6.3191e+000  2.5873e-002 67032 71404,71482,71456
 9.0000e-001 72003 -4.3057e-001  4.5004e+000  1.2925e-001 66834 71755,71859,71781
 9.0000e-001 71980 -6.7802e-002  6.6523e+000  4.5873e-001 66834 71755,71885,71859
 9.0000e-001 71957  2.0027e+000  6.1575e+000  2.0595e+000 66834 71781,71833,71807
 9.0000e-001 71934 -3.7588e-001  5.6937e+000  1.2019e+000 66834 71781,71859,71833
 9.0000e-001 71911 -4.8581e-001  4.6931e+000 -1.2440e+000 66834 71729,71885,71755
 9.0000e-001 72430 -2.2159e-001  3.6495e+000  3.8574e-001 66266 72237,72289,72263
 9.0000e-001 72407 -7.6046e-001  2.3973e+000  2.6406e-001 66266 72133,72289,72237
 9.0000e-001 72384  6.4350e-001  3.1945e+000 -1.3386e-001 66266 72133,72237,72211
 9.0000e-001 72361 -8.4780e-002  1.5682e+000 -5.3625e-001 66266 72107,72289,72133
 9.0000e-001 72338  9.4655e-001  3.8648e+000  7.3800e-002 66266 72133,72211,72185
 9.0000e-001 72315  3.7696e+000  3.0972e+000  3.6812e-001 66266 72133,72185,72159
 9.0000e-001 72580 -2.8049e+000 -1.6612e+001  1.7024e+000 65968 72479,72531,72505
 9.0000e-001 72557 -2.9245e-001 -1.3184e+001  5.9139e-001 65968 72453,72531,72479
 9.0000e-001 72960 -3.8139e+000  4.6224e+000  8.1136e-001 65621 72983,72738,72712
 9.0000e-001 72937 -3.2177e+000  3.4766e+000  7.7775e-001 65621 72983,72712,72686
 9.0000e-001 72914 -7.2264e+000  3.4587e-001  4.0526e+000 65621 72738,72842,72764
 9.0000e-001 72891 -3.0386e+000  1.0821e+000  5.5588e+000 65621 72764,72842,72816
 9.0000e-001 72868 -4.1821e+000 -3.6808e+000  6.6174e+000 65621 72764,72816,72790
 9.0000e-001 73009 -3.5586e+000  3.7256e+000  9.9465e-001 65621 72842,72738,72983
 9.0000e-001 73032 -3.6952e+000  1.6267e+000  1.0630e+000 65621 72842,72983,72686
 9.0000e-001 73361 -4.2663e+000  1.0350e-001 -5.8863e-001 65281 73456,73384,73188
 9.0000e-001 73338 -4.1925e+000  1.2692e-001 -1.6893e+000 65281 73384,73162,73136
 9.0000e-001 73315 -1.9844e+000 -3.2722e-001 -3.5369e-001 65281 73188,73240,73214
 9.0000e-001 73292 -2.6907e+000 -1.6787e+000 -1.0008e+000 65281 73136,73266,73240
 9.0000e-001 73410 -1.5659e+000  7.5920e-002 -6.7268e-001 65281 73240,73188,73384
 9.0000e-001 73433 -3.6172e+000 -1.8411e+000 -1.5287e+000 65281 73240,73384,73136
 9.0000e-001 73482 -3.5171e+000  1.0229e+000 -1.2832e+000 65281 73162,73384,73456
 9.0000e-001 73711  1.4476e+000 -3.3843e+000 -3.7532e+000 64820 73734,73610,73584
 9.0000e-001 73688  2.0731e+000 -2.6384e+000 -1.5864e+000 64820 73734,73584,73662
 9.0000e-001 73760 -2.2068e-001 -4.1567e+000 -4.3824e+000 64820 73636,73610,73734
 9.0000e-001 73783 -8.4691e-001 -4.0376e+000 -2.0025e+000 64820 73806,73734,73662
 9.0000e-001 73832  1.7175e+000 -2.1787e+000 -2.8245e+000 64820 73636,73734,73806
 9.0000e-001 74112 -3.4982e-001 -1.1562e+001  3.6067e-001 64622 74278,74135,73988
 9.0000e-001 74089 -2.2086e-001 -1.2017e+001  5.2338e-001 64622 74135,73936,74040
 9.0000e-001 74066  1.2887e-001 -1.1368e+001  9.8289e-001 64622 74278,73988,73962
 9.0000e-001 74161  8.6253e-001 -1.2689e+001  1.0273e+000 64622 74014,73988,74135
 9.0000e-001 74184  4.8883e-001 -1.2622e+001  9.4605e-001 64622 74207,74135,74040
 9.0000e-001 74233 -3.6609e-001 -1.5102e+001 -1.7866e-001 64622 74014,74135,74207
 9.0000e-001 74304  5.8816e-002 -1.0655e+001  1.2771e+000 64622 73936,74135,74278
 9.0000e-001 74327  9.8884e-001 -1.0432e+001  1.9067e+000 64622 73936,74278,73962
 9.0000e-001 74526 -7.1775e-001 -8.9683e+000  8.9954e-001 64424 74621,74549,74402
 9.0000e-001 74503 -9.7219e-001 -9.7456e+000 -5.1496e-001 64424 74549,74350,74454
 9.0000e-001 74480 -1.3369e+000 -9.1285e+000  7.3808e-001 64424 74621,74402,74376
 9.0000e-001 74575  3.2247e+000 -9.6454e+000  7.6266e-001 64424 74428,74402,74549
 9.0000e-001 74598 -5.8371e-001 -1.2215e+001  3.5798e-001 64424 74693,74549,74454
 9.0000e-001 74647 -4.8376e-001 -9.2174e+000 -2.8304e-001 64424 74350,74549,74621
 9.0000e-001 74670 -1.4290e+000 -9.5664e+000 -4.6245e-001 64424 74350,74621,74376
 9.0000e-001 74719  6.3955e-002 -1.0985e+001 -4.1278e-002 64424 74428,74549,74693
 9.0000e-001 75123 -2.6940e+000 -6.6541e+000 -1.2356e+000 64126 74875,74953,74927
 9.0000e-001 75100 -4.0346e-001 -1.9152e+000 -1.9298e+000 64126 74875,74979,74953
 9.0000e-001 75077 -1.4187e+000 -3.1059e+000 -1.4562e+000 64126 74875,75005,74979
 9.0000e-001 75054 -1.7142e+000 -6.0134e+000 -6.4209e-001 64126 74875,74927,74901
 9.0000e-001 75031 -2.8648e+000 -2.6729e+000 -1.2610e+000 64126 74849,75005,74875
 9.0000e-001 75224 -2.9551e+000  5.8290e+000 -1.4050e+000 63836 75146,75198,75172
 9.0000e-001 75472  3.7034e+000  9.1545e+000  7.2832e-001 63375 75273,75351,75325
 9.0000e-001 75449  3.6758e+000  9.1465e+000  7.2475e-001 63375 75273,75377,75351
 9.0000e-001 75426  5.0083e+000  7.5451e+000 -7.6904e-001 63375 75247,75377,75273
 9.0000e-001 75403  3.8080e+000  5.6008e+000 -1.2997e-002 63375 75273,75325,75299
 9.0000e-001 75673 -1.5723e+000  6.1492e+000 -1.8474e-001 63063 75523,75575,75549
 9.0000e-001 75650 -1.7250e+000  7.9666e+000  7.2183e-001 63063 75497,75575,75523
 9.0000e-001 75627 -2.0342e+000  8.3667e+000 -4.3037e-001 63063 75497,75601,75575
 9.0000e-001 75874 -4.0204e+000 -1.4404e+001  2.0606e-001 62716 75897,75750,75724
 9.0000e-001 75851 -4.4528e+000 -1.4527e+001  1.2660e-001 62716 75897,75724,75698
 9.0000e-001 75828 -4.5849e+000 -1.4191e+001 -1.2992e+000 62716 75698,75802,75776
 9.0000e-001 75923 -2.7332e+000 -1.4498e+001  2.3464e-001 62716 75776,75750,75897
 9.0000e-001 75946 -3.7378e+000 -1.4979e+001  7.8633e-002 62716 75776,75897,75698
 9.0000e-001 76328 -3.1301e+000 -8.7931e+000 -2.2323e-001 62198 76495,76351,76158
 9.0000e-001 76305 -2.9412e+000 -9.9806e+000  1.4008e+000 62198 76351,76080,76054
 9.0000e-001 76282 -2.4694e+000 -8.2950e+000  8.7557e-001 62198 76423,76184,76158
 9.0000e-001 76259 -2.9456e+000 -8.9791e+000 -2.9405e-001 62198 76495,76158,76106
 9.0000e-001 76236 -1.8738e+000 -8.8840e+000 -3.0121e-001 62198 76106,76158,76132
 9.0000e-001 76377 -2.9264e+000 -8.3429e+000  7.0448e-001 62198 76423,76158,76351
 9.0000e-001 76400 -7.2864e-001 -5.5302e+000  2.4089e+000 62198 76210,76351,76054
 9.0000e-001 76449 -2.1275e+000 -8.3715e+000  6.8359e-001 62198 76210,76184,76423
 9.0000e-001 76472 -2.3574e+000 -8.2519e+000  5.8457e-001 62198 76210,76423,76351
 9.0000e-001 76521 -2.8654e+000 -8.5062e+000 -7.6120e-002 62198 76080,76351,76495
 9.0000e-001 76544 -2.6426e+000 -8.7726e+000 -1.2095e-001 62198 76080,76495,76106
 9.0000e-001 76841 -9.2581e-001 -4.7162e+000 -4.5245e-001 61751 76936,76864,76645
 9.0000e-001 76818 -8.9684e-001 -5.9715e+000  5.5476e-001 61751 76864,76567,76723
 9.0000e-001 76795 -7.7634e-001 -5.1986e+000 -5.8482e-001 61751 76936,76645,76593
 9.0000e-001 76772  1.8009e+000 -1.8192e+000 -7.9637e-001 61751 77008,76697,76671
 9.0000e-001 76749 -2.8735e+000 -6.1070e+000 -3.6523e-001 61751 76593,76645,76619
 9.0000e-001 76890 -9.6697e-001 -4.9419e+000  5.1019e-002 61751 76671,76645,76864
 9.0000e-001 76913  6.3234e-001 -4.3130e+000  2.0802e-002 61751 77008,76671,76864
 9.0000e-001 76962 -5.3771e-001 -4.1058e+000 -2.0344e-001 61751 76567,76864,76936
 9.0000e-001 76985 -4.6989e-001 -4.6083e+000 -3.7973e-001 61751 76567,76936,76593
 9.0000e-001 77034  5.4292e-002 -3.0883e+000  1.0211e+000 61751 76723,76697,77008
 9.0000e-001 77057  3.7408e-001 -2.9995e+000  8.7746e-001 61751 76723,77008,76864
 9.0000e-001 77207 -9.3019e+000  7.4628e+000 -1.5830e+000 61418 77106,77158,77132
 9.0000e-001 77184 -8.6139e+000  6.1592e+000 -1.4897e+000 61418 77080,77158,77106
 9.0000e-001 77638  6.6939e-001  6.2293e+000 -1.8027e+000 60814 77733,77661,77471
 9.0000e-001 77615 -1.0414e+000  3.4814e+000 -2.0897e+000 60814 77661,77393,77315
 9.0000e-001 77592  2.3941e+000  1.7424e+000 -3.8284e+000 60814 77733,77471,77445
 9.0000e-001 77569  4.2745e+000  2.2876e-001 -8.9752e-001 60814 77315,77367,77341
 9.0000e-001 77546  2.6153e+000  1.4992e+000 -4.4864e+000 60814 77315,77393,77367
 9.0000e-001 77523  6.5213e+000  2.1025e+000 -9.2045e+000 60814 77393,77445,77419
 9.0000e-001 77687  1.8312e+000  6.5965e+000  1.0440e+000 60814 77497,77471,77661
 9.0000e-001 77710  6.0153e-001  3.3410e+000 -1.5902e+000 60814 77497,77661,77315
 9.0000e-001 77759 -4.7501e-001 -2.1020e-001 -1.0819e+000 60814 77393,77661,77733
 9.0000e-001 77782  1.7387e+000 -3.6785e+000 -3.7718e+000 60814 77393,77733,77445
 9.0000e-001 78337 -5.3023e+000 -4.1500e+000 -1.6168e+000 60210 78360,78017,77965
 9.0000e-001 78314 -5.8811e+000 -4.9847e+000 -1.3622e+000 60210 78360,77965,78173
 9.0000e-001 78291 -7.1370e+000 -5.0181e+000 -2.1130e+000 60210 78432,78043,78017
 9.0000e-001 78268 -6.6270e+000 -6.7484e+000 -2.0816e+000 60210 77965,78017,77991
 9.0000e-001 78245 -1.0382e+001 -3.9431e+000 -1.2940e+000 60210 78043,78095,78069
 9.0000e-001 78222 -4.5008e+000 -2.9218e+000 -5.9604e-001 60210 78095,78173,78121
 9.0000e-001 78199 -3.1464e+000 -3.0378e+000  2.2653e-001 60210 78121,78173,78147
 9.0000e-001 78386 -6.2655e+000 -4.5735e+000 -1.8258e+000 60210 78432,78017,78360
 9.0000e-001 78409 -4.5979e+000 -3.9006e+000 -7.7534e-001 60210 78095,78360,78173
 9.0000e-001 78458 -6.5989e+000 -4.5970e+000 -1.0782e+000 60210 78095,78043,78432
 9.0000e-001 78481 -6.0126e+000 -4.2137e+000 -7.9234e-001 60210 78095,78432,78360
 9.0000e-001 78680 -5.4142e+000  9.1401e+000 -3.2138e-001 59848 78703,78556,78530
 9.0000e-001 78657 -6.8296e+000  7.4131e+000 -1.5854e+000 59848 78703,78530,78504
 9.0000e-001 78634 -4.1187e+000  4.8739e+000 -2.8532e+000 59848 78504,78608,78582
 9.0000e-001 78729 -2.0504e+000  6.2254e+000 -9.9059e-001 59848 78582,78556,78703
 9.0000e-001 78752 -4.8080e+000  4.6116e+000 -2.7588e+000 59848 78582,78703,78504
 9.0000e-001 78951 -6.1261e-001 -2.2343e+000 -3.7349e-001 59344 78974,78801,78775
 9.0000e-001 78928 -8.0891e-001 -2.1605e+000  9.4117e-001 59344 79046,78974,78775
 9.0000e-001 78905  5.7767e-001 -3.0119e+000  5.4790e-001 59344 79046,78775,78879
 9.0000e-001 79000 -2.9864e+000 -3.5322e+000 -1.5569e+000 59344 78827,78801,78974
 9.0000e-001 79023 -7.8391e-001 -2.1254e+000  5.7029e-001 59344 78827,78974,78853
 9.0000e-001 79072  1.4611e+000 -1.7060e+000  1.2469e+000 59344 78853,78974,79046
 9.0000e-001 79095  3.2702e+000 -2.2039e+000  1.0956e+000 59344 78853,79046,78879
 9.0000e-001 79296 -6.3738e+000 -1.5437e+001 -3.9880e-001 58711 79319,79172,79146
 9.0000e-001 79273 -4.3340e+000 -1.5802e+001 -3.1212e-001 58711 79319,79146,79120
 9.0000e-001 79250 -5.8054e+000 -1.0969e+001 -7.0322e-001 58711 79172,79224,79198
 9.0000e-001 79345 -7.5664e+000 -1.5213e+001 -1.0471e-001 58711 79224,79172,79319
 9.0000e-001 79368 -6.2024e+000 -1.6115e+001  9.3213e-003 58711 79224,79319,79120
 9.0000e-001 79667  1.0217e+000  6.3902e+000  1.3497e+000 58285 79690,79471,79393
 9.0000e-001 79644  1.1720e+000  7.8583e+000  1.6642e+000 58285 79690,79393,79549
 9.0000e-001 79621  1.2269e+000  1.0305e+000  2.5724e+000 58285 79393,79471,79419
 9.0000e-001 79598 -1.2430e+000  4.5203e+000 -7.4301e-001 58285 79497,79549,79523
 9.0000e-001 79575  9.3231e-001 -5.5309e-002  2.7280e+000 58285 79419,79471,79445
 9.0000e-001 79716  1.1480e+000  4.8589e+000  4.2245e-001 58285 79497,79471,79690
 9.0000e-001 79739  1.6420e+000  7.2443e+000  4.7261e-001 58285 79497,79690,79549
 9.0000e-001 80249 -7.6183e+000 -8.7823e+000 -3.7555e+000 57831 80272,79978,79952
 9.0000e-001 80226 -6.2126e+000 -9.5203e+000 -1.8969e+000 57831 80272,79952,80108
 9.0000e-001 80203 -2.4003e+000 -5.9941e+000 -3.0241e-001 57831 79926,80108,79952
 9.0000e-001 80180 -4.8997e+000 -3.4092e+000  5.8922e-001 57831 80004,80082,80030
 9.0000e-001 80157 -6.0305e+000 -4.6800e+000 -6.3901e-002 57831 80004,80108,80082
 9.0000e-001 80134 -3.9779e+000 -1.1322e+000  4.9946e-001 57831 80030,80082,80056
 9.0000e-001 80298 -5.8377e+000 -4.6115e+000 -3.6841e+000 57831 80004,79978,80272
 9.0000e-001 80321 -5.8072e+000 -8.1150e+000 -1.9636e+000 57831 80004,80272,80108
 9.0000e-001 80618 -1.1118e+001 -5.2154e+000  1.4522e+000 57077 80344,80448,80422
 9.0000e-001 80595 -5.9824e+000 -2.3523e+000  3.2658e-002 57077 80344,80500,80448
 9.0000e-001 80572 -1.1386e+001 -4.7107e+000  2.4066e+000 57077 80344,80422,80370
 9.0000e-001 80549 -5.4798e+000 -1.7917e+000  4.0656e-001 57077 80370,80422,80396
 9.0000e-001 80526 -2.2170e+000 -1.1448e+000 -1.3058e+000 57077 80448,80500,80474
 9.0000e-001 80768 -1.2975e+000  3.3229e+000 -2.2051e+000 56787 80791,80693,80667
 9.0000e-001 80745 -4.3927e-002  2.4345e+000 -3.7313e+000 56787 80791,80667,80641
 9.0000e-001 80817 -1.4868e+000  2.6689e+000 -2.2252e+000 56787 80719,80693,80791
 9.0000e-001 80840 -2.5033e+000 -3.8118e+000 -3.7958e+000 56787 80719,80791,80641
 9.0000e-001 81429  6.4123e+000  2.3616e+000 -5.1792e+000 56497 81452,81158,81132
 9.0000e-001 81406  1.2212e+000 -3.2350e+000 -3.0247e+000 56497 81452,81132,81288
 9.0000e-001 81383  2.0424e-001  1.1984e+000 -3.5316e+000 56497 81524,81184,81158
 9.0000e-001 81360  2.2002e+000  5.0547e+000 -6.7049e+000 56497 81210,81288,81236
 9.0000e-001 81337  5.5360e+000 -2.2544e+000 -3.9421e+000 56497 81106,81288,81132
 9.0000e-001 81314  7.8410e+000  2.6265e+000 -7.3610e+000 56497 81236,81288,81262
 9.0000e-001 81478  8.4342e-001  1.5545e+000 -3.6727e+000 56497 81524,81158,81452
 9.0000e-001 81501  9.6105e-001  5.3741e-001 -2.5254e+000 56497 81210,81452,81288
 9.0000e-001 81550  2.6822e-001  8.2357e-001 -2.6187e+000 56497 81210,81184,81524
 9.0000e-001 81573  1.1790e+000  1.2384e+000 -2.7364e+000 56497 81210,81524,81452
 9.0000e-001 81870 -1.8675e+000 -4.5261e+000  2.4473e-001 55979 81893,81674,81648
 9.0000e-001 81847 -1.7667e+000 -3.8308e+000  2.2558e+000 55979 81893,81648,81752
 9.0000e-001 81824 -3.0315e+000 -1.1021e+000  1.8298e+000 55979 81596,81752,81648
 9.0000e-001 81801 -4.5251e-001 -1.4689e+000  1.5008e+000 55979 81674,81726,81700
 9.0000e-001 81778 -2.8638e+000 -1.7696e-001 -4.0260e-001 55979 81596,81648,81622
 9.0000e-001 81919 -1.7105e+000 -2.8523e+000  8.1053e-001 55979 81726,81674,81893
 9.0000e-001 81942 -1.0375e+000 -1.4197e+000  2.8796e+000 55979 81726,81893,81752
 9.0000e-001 82371 -9.9714e+000 -6.7025e+000 -1.7591e+000 55631 82100,82204,82152
 9.0000e-001 82348 -9.0963e+000 -9.8198e+000 -3.0672e+000 55631 82100,82230,82204
 9.0000e-001 82325 -1.0127e+001 -6.2374e+000 -2.9698e+000 55631 82100,82152,82126
 9.0000e-001 82302 -6.7293e+000 -3.4689e+000 -1.5846e+000 55631 82074,82230,82100
 9.0000e-001 82279 -8.4490e+000 -1.7345e+000  6.6244e-002 55631 82152,82204,82178
 9.0000e-001 82256 -5.1875e+000 -5.5590e+000 -9.5108e-001 55631 82048,82230,82074
 9.0000e-001 82521 -1.3263e+000 -3.2000e+000 -5.8031e-001 55227 82544,82420,82394
 9.0000e-001 82498 -1.2278e+000 -3.8361e+000 -5.3554e-001 55227 82544,82394,82472
 9.0000e-001 82570 -1.4060e+000 -2.8332e+000 -5.4576e-001 55227 82446,82420,82544
 9.0000e-001 82593 -1.0809e+000 -3.2086e+000 -3.2941e-001 55227 82446,82544,82472
 9.0000e-001 82875 -3.6164e+000 -1.0387e+001 -1.4463e+000 54979 82699,82777,82725
 9.0000e-001 82852 -4.8007e+000 -8.4443e+000 -1.2237e+000 54979 82699,82803,82777
 9.0000e-001 82829  1.5326e+000 -1.0112e+001 -1.5930e+000 54979 82725,82777,82751
 9.0000e-001 83204 -5.9942e+000 -6.2166e-001  5.0617e-001 54475 83005,83083,83057
 9.0000e-001 83181 -2.6403e+000 -1.7787e-002  8.8693e-001 54475 82979,83083,83005
 9.0000e-001 83158 -4.0128e+000  1.0555e+000 -5.1967e-001 54475 83005,83057,83031
 9.0000e-001 83135 -5.4807e-001  4.8648e+000  8.8203e-001 54475 82979,83109,83083
 9.0000e-001 83582 -4.0612e+000  4.3286e+000  6.5226e-001 54071 83605,83438,83412
 9.0000e-001 83559 -2.9534e+000  5.3029e+000 -6.1159e-001 54071 83749,83605,83412
 9.0000e-001 83536 -2.7329e+000  3.3919e+000 -2.5752e+000 54071 83677,83360,83334
 9.0000e-001 83513 -3.2113e+000  5.8947e+000 -5.7262e-001 54071 83749,83412,83677
 9.0000e-001 83490 -7.4786e+000  6.4406e+000  3.3550e+000 54071 83308,83464,83334
 9.0000e-001 83631 -6.7628e-001  5.4283e+000  1.3135e+000 54071 83464,83438,83605
 9.0000e-001 83654 -2.4687e+000  2.6590e+000  3.4472e-002 54071 83464,83605,83334
 9.0000e-001 83703 -8.0395e+000  4.0939e+000 -5.2694e+000 54071 83386,83360,83677
 9.0000e-001 83726 -4.4443e+000  1.0848e+001 -3.4334e+000 54071 83386,83677,83412
 9.0000e-001 83775 -3.0095e+000  4.1168e+000 -1.0829e+000 54071 83334,83605,83749
 9.0000e-001 83798 -3.2323e+000  4.8001e+000 -1.0948e+000 54071 83334,83749,83677
 9.0000e-001 84068 -4.0414e-001 -2.1278e+000  1.1344e-001 53524 83869,83921,83895
 9.0000e-001 84045  2.1631e-001 -1.7672e+000 -6.3414e-002 53524 83869,83947,83921
 9.0000e-001 84022  2.9726e+000  9.1481e-001  1.0264e+000 53524 83843,83947,83869
 9.0000e-001 83999 -2.3599e+000 -5.6477e-001  1.4389e+000 53524 83843,83973,83947
 9.0000e-001 84497 -1.1076e+001 -1.2599e+001 -2.8370e+000 53184 84200,84330,84252
 9.0000e-001 84474 -1.1640e+001 -1.0859e+001  5.2177e-004 53184 84200,84356,84330
 9.0000e-001 84451 -8.2834e+000 -1.3523e+001 -1.4934e+000 53184 84200,84252,84226
 9.0000e-001 84428 -6.4158e+000 -1.0819e+001 -3.0318e+000 53184 84252,84330,84278
 9.0000e-001 84405 -4.9689e+000 -6.9256e+000 -2.6017e+000 53184 84174,84356,84200
 9.0000e-001 84382 -6.8735e+000 -1.0779e+001 -4.2048e+000 53184 84278,84330,84304
 9.0000e-001 84954 -7.1882e+000 -1.0721e+001 -4.1136e-002 52680 84706,84836,84784
 9.0000e-001 84931 -6.1540e+000 -9.8057e+000 -1.4222e+000 52680 84680,84836,84706
 9.0000e-001 84908 -3.6590e+000 -1.5981e+001 -6.4278e-001 52680 84784,84836,84810
 9.0000e-001 84885 -8.8851e+000 -1.4075e+001  5.4914e-001 52680 84706,84784,84732
 9.0000e-001 84862 -6.5524e+000 -1.2900e+001  1.4156e-001 52680 84732,84784,84758
 9.0000e-001 85202 -4.2348e+000 -5.2901e+000 -1.6681e+000 52226 85029,85081,85055
 9.0000e-001 85179 -8.0330e+000 -6.1260e+000 -2.4378e+000 52226 85225,85081,85029
 9.0000e-001 85156 -7.6172e+000 -5.0965e+000 -1.8907e+000 52226 85225,85029,85003
 9.0000e-001 85133 -4.9343e+000  1.0309e+000 -1.3683e+000 52226 84977,85107,85003
 9.0000e-001 85251 -8.4616e+000 -6.3120e+000 -3.5076e+000 52226 85107,85081,85225
 9.0000e-001 85274 -8.3855e+000 -4.1364e+000 -3.1494e+000 52226 85107,85225,85003
 9.0000e-001 85522 -8.4772e-001 -2.2280e+000  6.3137e-001 51764 85297,85349,85323
 9.0000e-001 85499 -7.2666e-001 -1.6696e+000 -7.1950e-001 51764 85545,85297,85427
 9.0000e-001 85476 -9.6360e-001 -2.8994e+000 -7.9623e-001 51764 85545,85427,85375
 9.0000e-001 85453 -1.7062e+000 -4.1285e+000 -4.3994e-001 51764 85375,85427,85401
 9.0000e-001 85571  2.1012e-002 -2.4386e+000  1.4354e-001 51764 85349,85297,85545
 9.0000e-001 85594 -5.2191e-001 -4.1363e+000  4.9185e-002 51764 85349,85545,85375
 9.0000e-001 85746 -6.5493e-001 -2.5099e+000 -1.5542e+000 51374 85645,85697,85671
 9.0000e-001 85723 -2.0296e-001 -5.0853e+000  1.3375e-002 51374 85619,85697,85645
 9.0000e-001 86256  2.2290e-001 -4.3359e+000  7.8914e-001 50970 86279,86011,85959
 9.0000e-001 86233  2.1792e-001 -6.6850e+000  1.3218e+000 50970 86279,85959,86115
 9.0000e-001 86210  7.6278e-001 -2.7775e+000  1.7210e+000 50970 85959,86011,85985
 9.0000e-001 86187 -4.7186e-001 -3.6246e+000  4.8070e-001 50970 86037,86115,86089
 9.0000e-001 86164 -9.3311e-001 -7.0910e+000  2.0790e+000 50970 85933,86115,85959
 9.0000e-001 86141 -6.8349e-001 -9.2586e-003  4.5522e-001 50970 86037,86089,86063
 9.0000e-001 86305 -5.4437e-001 -1.6410e+000  9.3901e-001 50970 86037,86011,86279
 9.0000e-001 86328 -7.1800e-001 -4.1913e+000  1.5097e+000 50970 86037,86279,86115
 9.0000e-001 86478 -5.4733e+000 -1.6819e+001  1.8747e+000 50451 86351,86403,86377
 9.0000e-001 86455 -4.1016e+000 -2.3329e+001 -3.7838e-001 50451 86351,86429,86403
 9.0000e-001 86907 -2.1627e+000 -2.2459e+000 -4.1931e-001 50047 86930,86714,86662
 9.0000e-001 86884 -2.8304e+000  1.1788e-001 -1.2719e-001 50047 86930,86662,86610
 9.0000e-001 86861  4.1329e-001  3.3914e+000 -2.3406e+000 50047 87002,86740,86714
 9.0000e-001 86838 -8.6457e-001 -1.4204e+000 -2.7469e+000 50047 86662,86714,86688
 9.0000e-001 86815 -2.5783e+000  2.9377e-001 -5.7612e-001 50047 86610,86662,86636
 9.0000e-001 86792 -3.9424e+000  2.0635e+000  2.4462e+000 50047 86584,86766,86610
 9.0000e-001 86956 -2.2492e+000  3.2389e-001 -1.0590e+000 50047 87002,86714,86930
 9.0000e-001 86979 -2.5416e+000  2.1863e+000 -7.4593e-001 50047 86766,86930,86610
 9.0000e-001 87028 -2.3743e+000 -3.8643e-001 -7.9505e-001 50047 86766,86740,87002
 9.0000e-001 87051 -3.1218e+000 -5.7202e-001 -1.2972e-001 50047 86766,87002,86930
 9.0000e-001 87250 -7.5535e+000 -5.8063e+000 -5.3300e+000 49543 87273,87126,87100
 9.0000e-001 87227 -3.9649e+000 -4.3172e+000 -4.9124e+000 49543 87273,87100,87074
 9.0000e-001 87204 -1.2835e+001 -2.6366e+000 -2.4901e+000 49543 87126,87178,87152
 9.0000e-001 87299 -1.0744e+001 -4.3792e+000 -1.7485e+000 49543 87178,87126,87273
 9.0000e-001 87322 -5.8743e+000 -2.2828e+000 -1.5356e+000 49543 87178,87273,87074
 9.0000e-001 87570 -1.2207e+001 -5.1672e+000 -2.5106e+000 49146 87593,87449,87397
 9.0000e-001 87547 -1.1797e+001 -5.1050e+000 -4.2778e+000 49146 87593,87397,87371
 9.0000e-001 87524 -8.9430e+000 -3.7216e+000 -3.5842e+000 49146 87345,87475,87371
 9.0000e-001 87501 -1.1504e+001 -7.8182e-001 -1.0104e+000 49146 87397,87449,87423
 9.0000e-001 87619 -9.9699e+000 -4.3774e+000 -2.3833e+000 49146 87475,87449,87593
 9.0000e-001 87642 -1.0573e+001 -4.6091e+000 -4.0212e+000 49146 87475,87593,87371
 9.0000e-001 88073 -7.9085e+000 -6.2158e+000  9.5228e-001 48706 87854,87932,87880
 9.0000e-001 88050 -7.7346e+000 -9.7434e+000 -2.3253e-001 48706 87828,87932,87854
 9.0000e-001 88027 -6.6923e+000 -6.5646e+000  6.1454e-002 48706 87750,87932,87828
 9.0000e-001 88004 -1.1371e+001 -1.8665e+001 -1.4096e+000 48706 87750,87802,87776
 9.0000e-001 87981 -7.9957e+000 -1.0863e+001 -3.4936e-001 48706 87750,87828,87802
 9.0000e-001 87958 -7.1548e+000 -5.4241e+000  1.1555e-001 48706 87880,87932,87906
 9.0000e-001 88402 -1.7413e+000  5.7887e+000  2.4211e-001 48145 88203,88281,88255
 9.0000e-001 88379 -1.4588e+000  6.4518e+000  2.2104e+000 48145 88203,88307,88281
 9.0000e-001 88356 -5.2514e+000  5.2027e+000  1.1736e+000 48145 88203,88255,88229
 9.0000e-001 88333 -4.6610e+000 -3.6818e-001  1.3408e+000 48145 88177,88307,88203
 9.0000e-001 88601  9.5468e+000 -1.1858e+000  7.9085e+000 47805 88696,88624,88477
 9.0000e-001 88578  3.3492e+000  5.0237e+000  8.0484e+000 47805 88826,88624,88451
 9.0000e-001 88555 -1.3396e-001  2.7015e+000  6.1993e+000 47805 88826,88451,88425
 9.0000e-001 88650  1.0922e+001  3.3957e+000  1.8965e+000 47805 88503,88477,88624
 9.0000e-001 88673 -5.5652e-001  4.8045e-002  2.1190e+000 47805 88503,88624,88529
 9.0000e-001 88722  1.1347e+001  3.2377e+000  9.6145e+000 47805 88451,88624,88696
 9.0000e-001 88852  3.9461e+000  1.6177e+000  3.4030e+000 47805 88529,88624,88826
 9.0000e-001 88875  2.6327e-001 -5.8551e-001  1.5492e+000 47805 88529,88826,88425
 9.0000e-001 89172 -5.5313e+000 -4.9064e+000 -2.5636e+000 47401 89195,88976,88898
 9.0000e-001 89149 -4.8967e+000 -4.5640e+000 -3.0508e+000 47401 89195,88898,89054
 9.0000e-001 89126 -5.4331e+000 -5.7949e+000 -2.3146e+000 47401 88898,88976,88950
 9.0000e-001 89103 -3.9273e+000 -3.7502e+000 -6.0011e-001 47401 88976,89028,89002
 9.0000e-001 89080 -3.7948e+000 -1.0341e+000 -5.5343e-001 47401 88898,88950,88924
 9.0000e-001 89221 -6.3026e+000 -5.7087e+000 -1.5630e+000 47401 89028,88976,89195
 9.0000e-001 89244 -4.6685e+000 -4.8338e+000 -2.1351e+000 47401 89028,89195,89054
 9.0000e-001 89575  3.8551e+000  3.9605e+000  8.7745e-001 47111 89350,89454,89376
 9.0000e-001 89552  1.8558e+000  1.8533e+000  1.8617e+000 47111 89350,89480,89454
 9.0000e-001 89529  2.8759e+000  2.4883e+000 -1.7579e-001 47111 89376,89454,89402
 9.0000e-001 89506  3.3647e+000  4.0341e+000 -5.6818e-001 47111 89402,89454,89428
 9.0000e-001 89904 -9.4681e+000 -3.0871e+000 -1.3630e+000 46707 89705,89757,89731
 9.0000e-001 89881 -2.2600e+000 -2.3856e+000 -9.7619e-001 46707 89705,89783,89757
 9.0000e-001 89858 -2.9083e+000 -2.2865e+000  2.5077e-002 46707 89679,89783,89705
 9.0000e-001 89835  5.3721e-001 -4.2116e+000 -1.9482e+000 46707 89679,89809,89783
 9.0000e-001 90233 -4.6714e+000 -4.2171e-001 -2.4621e+000 46360 90034,90112,90086
 9.0000e-001 90210 -1.3574e+001 -2.9139e+000 -2.2695e+000 46360 90034,90138,90112
 9.0000e-001 90187 -1.7222e+001 -5.4838e+000  6.7354e-001 46360 90034,90086,90060
 9.0000e-001 90164 -1.5322e+001 -2.5436e+000 -4.7992e+000 46360 90008,90138,90034
 9.0000e-001 90530 -4.2693e+000 -2.6020e+000 -9.7336e-001 45662 90256,90360,90308
 9.0000e-001 90507 -1.2435e+000 -1.4224e+000 -1.3257e+000 45662 90256,90412,90360
 9.0000e-001 90484  1.0349e+000 -8.5035e-001 -3.9648e+000 45662 90256,90308,90282
 9.0000e-001 90461 -2.3698e+000 -9.9898e-001  8.0635e-001 45662 90360,90412,90386
 9.0000e-001 90438 -1.7051e+000 -1.4842e+000 -5.5052e-001 45662 90308,90360,90334
 9.0000e-001 90910 -7.2420e+000 -5.0968e+000 -2.3774e+000 45108 90688,90766,90714
 9.0000e-001 90887 -8.4495e+000 -7.8028e+000 -2.7377e+000 45108 90662,90766,90688
 9.0000e-001 90864 -1.8008e+001 -4.7743e+000 -9.5013e-001 45108 90636,90766,90662
 9.0000e-001 90841 -5.5204e+000 -1.7318e+000 -3.0289e+000 45108 90714,90766,90740
 9.0000e-001 90818 -1.4376e+001 -2.8031e-001 -3.0118e+000 45108 90636,90792,90766
 9.0000e-001 91158 -1.1171e+001 -3.1119e-002  1.7875e+000 44604 91181,91011,90959
 9.0000e-001 91135 -1.5752e+001  3.5111e-001  3.5484e+000 44604 91181,90959,90933
 9.0000e-001 91112 -7.6878e+000  1.6086e+000  1.1871e+000 44604 90959,91011,90985
 9.0000e-001 91089 -1.1539e+001  5.0365e+000 -8.6338e-002 44604 90933,91063,91037
 9.0000e-001 91207 -9.2876e+000  3.4340e-001  6.2949e-001 44604 91037,91011,91181
 9.0000e-001 91230 -1.1846e+001  4.4534e+000  1.1800e+000 44604 91037,91181,90933
 9.0000e-001 91429 -3.5676e+000  3.9753e+000 -6.8473e-001 44264 91452,91279,91253
 9.0000e-001 91406 -2.5964e+000  6.0761e+000 -1.1187e+000 44264 91452,91253,91357
 9.0000e-001 91383 -4.3499e+000  1.0538e+000 -4.6199e-001 44264 91279,91331,91305
 9.0000e-001 91478 -2.3391e+000  1.8319e+000 -4.0400e-001 44264 91331,91279,91452
 9.0000e-001 91501 -1.2928e+000  3.6436e+000 -1.0723e+000 44264 91331,91452,91357
 9.0000e-001 92060 -8.4391e+000 -1.0618e+001  1.4365e+000 43860 92083,91740,91688
 9.0000e-001 92037 -1.5691e+001 -1.2831e+001  1.4237e+000 43860 92083,91688,91896
 9.0000e-001 92014 -1.4693e+001 -1.2156e+001 -3.8917e+000 43860 91766,91870,91844
 9.0000e-001 91991 -1.1085e+001 -6.6768e+000 -2.3334e+000 43860 91740,91870,91766
 9.0000e-001 91968 -3.5201e+000 -5.1723e+000 -6.6521e-001 43860 91766,91844,91792
 9.0000e-001 91945 -7.0091e+000 -4.9451e+000  2.0042e+000 43860 91688,91740,91714
 9.0000e-001 91922 -9.7665e+000 -9.2035e+000 -2.6381e+000 43860 91792,91844,91818
 9.0000e-001 92109 -1.5091e+001 -7.8597e+000 -2.4606e+000 43860 91870,91740,92083
 9.0000e-001 92132 -2.2109e+001 -1.0144e+001 -2.8614e+000 43860 91870,92083,91896
 9.0000e-001 92353 -1.4843e+001 -9.0210e+000  3.6299e+000 43662 92203,92255,92229
 9.0000e-001 92330 -8.3112e+000 -6.9044e+000  7.7074e-001 43662 92376,92203,92281
 9.0000e-001 92307 -1.0037e+001 -7.9687e+000  2.5901e-002 43662 92177,92281,92203
 9.0000e-001 92402 -5.4957e+000 -5.6944e+000  9.2704e-001 43662 92255,92203,92376
 9.0000e-001 92682 -3.8389e+000  7.9254e-001 -1.0958e+000 43464 92532,92584,92558
 9.0000e-001 92659 -6.3392e+000  3.1271e-001 -1.4185e+000 43464 92506,92584,92532
 9.0000e-001 92636  8.8880e-001  3.9904e+000 -2.6962e+000 43464 92506,92610,92584
 9.0000e-001 93013 -8.1541e+000 -9.4328e+000  7.8799e-001 42960 92866,92918,92892
 9.0000e-001 92990 -7.2839e+000 -7.8560e+000  4.6798e-001 42960 93036,92918,92866
 9.0000e-001 92967 -8.0522e+000 -9.4919e+000  1.3022e+000 42960 93036,92866,92840
 9.0000e-001 92944 -8.7106e+000 -3.1677e+000 -1.1416e-001 42960 92788,92918,92814
 9.0000e-001 93062 -7.9170e+000 -5.0846e+000 -8.5105e-001 42960 92814,92918,93036
 9.0000e-001 93085 -1.0867e+001 -7.5983e+000  6.9878e-001 42960 92814,93036,92840
 9.0000e-001 93186 -1.8233e+000 -8.2306e-001 -1.7006e+000 42556 93108,93160,93134
 9.0000e-001 93554 -3.7479e+000  1.8066e+000 -1.2875e+000 42052 93231,93387,93361
 9.0000e-001 93531 -1.2329e+000  2.6251e+000 -1.6027e+000 42052 93231,93413,93387
 9.0000e-001 93508 -3.9484e+000  1.1179e+000 -1.1225e+000 42052 93231,93361,93257
 9.0000e-001 93485 -5.0725e+000 -1.3154e+000  3.7024e-001 42052 93283,93361,93335
 9.0000e-001 93462 -7.7720e+000 -3.3592e-001 -1.2977e+000 42052 93257,93361,93283
 9.0000e-001 93439 -5.7030e+000 -1.8310e+000  1.6003e+000 42052 93283,93335,93309
 9.0000e-001 94162 -6.2564e+000 -7.2454e-001  2.8374e+000 41498 93767,93975,93793
 9.0000e-001 94139 -6.7966e+000 -1.3480e+000  4.3038e-001 41498 93741,93975,93767
 9.0000e-001 94116 -6.1565e+000 -1.3669e+000  2.6551e+000 41498 93793,93975,93923
 9.0000e-001 94093 -4.5461e+000  2.4220e+000  1.9789e+000 41498 93923,93975,93949
 9.0000e-001 94070 -3.6952e+000 -3.0773e+000  3.2880e+000 41498 93871,93923,93897
 9.0000e-001 94047 -7.0263e+000 -1.5249e+000  2.5172e+000 41498 93793,93923,93871
 9.0000e-001 94024 -1.7538e+000 -6.2272e-001  3.5879e+000 41498 93819,93871,93845
 9.0000e-001 94001 -7.9452e+000 -2.5486e+000  2.9687e+000 41498 93793,93871,93819
 9.0000e-001 94619  3.1988e+000 -3.5517e+000 -2.5172e+000 40930 94642,94423,94371
 9.0000e-001 94596  4.0675e+000 -4.1601e+000  2.8773e-002 40930 94642,94371,94345
 9.0000e-001 94573  4.8336e+000  2.3076e+000 -2.1596e-001 40930 94345,94501,94475
 9.0000e-001 94550  9.6639e+000  1.0111e-001 -4.9388e+000 40930 94371,94423,94397
 9.0000e-001 94527  5.1597e+000  1.8810e+000 -1.8728e+000 40930 94423,94475,94449
 9.0000e-001 94668  4.8097e+000  7.6637e-001 -2.7381e+000 40930 94475,94423,94642
 9.0000e-001 94691  4.7607e+000 -2.1990e+000 -5.0545e-001 40930 94475,94642,94345
 9.0000e-001 95148 -4.9241e+000 -6.6307e+000 -2.7832e-001 40362 95171,94952,94926
 9.0000e-001 95125 -5.8990e+000 -6.5685e+000  1.6684e+000 40362 95171,94926,95004
 9.0000e-001 95102 -3.6294e+000 -7.7739e+000  1.4839e+000 40362 94874,95004,94926
 9.0000e-001 95079 -5.2684e+000 -7.9273e+000  7.1629e-001 40362 94874,95030,95004
 9.0000e-001 95056 -4.9872e+000 -1.0741e+001  1.8003e+000 40362 94874,94926,94900
 9.0000e-001 95197 -5.3451e+000 -4.4701e+000 -7.9607e-001 40362 94978,94952,95171
 9.0000e-001 95220 -6.0651e+000 -4.3963e+000  1.0747e+000 40362 94978,95171,95004
 9.0000e-001 95549 -4.0595e+000 -4.9591e-002 -8.1408e-001 39586 95350,95402,95376
 9.0000e-001 95526 -4.3602e+000 -3.5395e-001 -6.7056e-001 39586 95324,95402,95350
 9.0000e-001 95503 -3.4755e+000  2.3984e+000 -4.0031e-001 39586 95324,95454,95402
 9.0000e-001 95480 -1.8988e+000  5.0498e+000  2.7889e-001 39586 95402,95454,95428
 9.0000e-001 96055 -5.7372e+000 -2.1506e+000  1.1614e+000 38968 96078,95862,95810
 9.0000e-001 96032 -5.2502e+000 -1.1730e+000  1.3902e+000 38968 96078,95810,95758
 9.0000e-001 96009 -6.6675e+000  8.1088e-001  1.9051e+000 38968 96150,95732,95888
 9.0000e-001 95986 -4.6010e+000 -1.1580e+000  1.9199e+000 38968 95810,95862,95836
 9.0000e-001 95963 -8.0935e+000  1.8898e+000 -3.7462e-001 38968 95732,95914,95888
 9.0000e-001 95940 -4.3555e+000 -2.1050e-001  8.3335e-001 38968 95758,95810,95784
 9.0000e-001 96104 -5.0709e+000 -1.0612e+000  4.8006e-001 38968 95888,95862,96078
 9.0000e-001 96127 -5.5952e+000  3.4016e-001  7.3963e-001 38968 96150,95888,96078
 9.0000e-001 96176 -8.1443e+000 -1.1348e+000  2.5914e+000 38968 95758,95732,96150
 9.0000e-001 96199 -7.1018e+000 -1.9556e+000  1.4605e+000 38968 95758,96150,96078
 9.0000e-001 96545 -9.1870e+000 -4.6219e+000  2.1950e+000 38507 96640,96568,96352
 9.0000e-001 96522 -1.1400e+001 -4.7062e+000  2.4999e+000 38507 96568,96300,96222
 9.0000e-001 96499 -9.3145e+000 -4.6718e+000  2.1868e+000 38507 96640,96352,96326
 9.0000e-001 96476 -6.5389e+000 -2.9133e+000  2.2644e+000 38507 96352,96404,96378
 9.0000e-001 96453 -1.5854e+001 -4.8436e+000 -6.8691e-001 38507 96222,96300,96248
 9.0000e-001 96430 -1.1099e+001 -1.5202e+000 -4.2739e+000 38507 96248,96300,96274
 9.0000e-001 96594 -7.2886e+000 -5.1398e+000  2.2106e+000 38507 96404,96352,96568
 9.0000e-001 96617 -9.0880e+000 -4.4327e+000  1.0611e+000 38507 96404,96568,96222
 9.0000e-001 96666 -9.2055e+000 -4.6930e+000  2.0949e+000 38507 96300,96568,96640
 9.0000e-001 96689 -9.2635e+000 -4.7143e+000  2.0880e+000 38507 96300,96640,96326
 9.0000e-001 97069 -1.0920e+001 -5.2915e+000 -1.4076e+000 37760 97092,96873,96821
 9.0000e-001 97046 -1.0835e+001 -5.3508e+000 -4.4772e-001 37760 97092,96821,96795
 9.0000e-001 97023 -5.2007e+000 -6.9240e+000 -1.6763e+000 37760 96821,96873,96847
 9.0000e-001 97000 -2.0559e+001  1.0570e+000 -6.1122e+000 37760 96873,96925,96899
 9.0000e-001 96977 -8.8586e+000 -2.0179e-001 -7.8593e-001 37760 96795,96951,96925
 9.0000e-001 97118 -1.0503e+001 -4.3363e+000 -1.4619e+000 37760 96925,96873,97092
 9.0000e-001 97141 -1.0474e+001 -4.4642e+000 -4.0264e-001 37760 96925,97092,96795
 9.0000e-001 97647 -4.8509e+000 -7.2116e+000 -2.0789e-001 37356 97324,97480,97376
 9.0000e-001 97624 -8.7511e+000 -9.8709e+000  1.6793e+000 37356 97324,97506,97480
 9.0000e-001 97601 -6.4294e+000 -5.1641e+000 -1.6480e-001 37356 97376,97480,97454
 9.0000e-001 97578 -9.0860e+000 -3.8448e+000  4.4721e+000 37356 97324,97376,97350
 9.0000e-001 97555 -2.5046e+000 -2.3678e+000  2.2323e+000 37356 97376,97454,97402
 9.0000e-001 97532 -8.2799e+000 -5.1428e+000  2.7235e-001 37356 97402,97454,97428
 9.0000e-001 98232  8.6671e-001 -9.4670e-002 -5.1565e+000 36902 97935,98065,98013
 9.0000e-001 98209  3.1620e+000  3.1413e-001 -5.4998e+000 36902 97935,98091,98065
 9.0000e-001 98186  6.9203e+000  3.4736e+000 -6.6257e+000 36902 97935,98013,97987
 9.0000e-001 98163  5.8114e+000  3.2692e+000 -4.3653e+000 36902 97909,98091,97935
 9.0000e-001 98140  9.0284e+000  2.7041e+000 -8.8319e+000 36902 97935,97987,97961
 9.0000e-001 98117  2.3482e+000  2.8570e+000 -4.5239e+000 36902 98013,98065,98039
 9.0000e-001 98659 -7.0393e+000  3.6432e+000  6.0050e+000 36604 98682,98414,98388
 9.0000e-001 98636 -8.7039e+000  1.8391e+000  1.1804e+000 36604 98682,98388,98336
 9.0000e-001 98613 -7.7894e+000 -8.5120e-001  1.0568e+000 36604 98754,98518,98466
 9.0000e-001 98590 -1.0253e+001 -7.6454e+000  4.4679e+000 36604 98414,98466,98440
 9.0000e-001 98567 -1.6805e+001  2.8172e+000 -1.4297e+000 36604 98336,98388,98362
 9.0000e-001 98544 -7.3354e+000 -2.0888e-001  1.4998e+000 36604 98466,98518,98492
 9.0000e-001 98708 -9.7364e+000 -2.5253e+000  5.6373e+000 36604 98466,98414,98682
 9.0000e-001 98731 -8.4483e+000 -3.5692e-001  1.2077e+000 36604 98754,98466,98682
 9.0000e-001 98780 -8.4046e+000 -8.3096e-001  9.6306e-001 36604 98336,98518,98754
 9.0000e-001 98803 -9.4767e+000 -7.1767e-001  9.1926e-001 36604 98336,98754,98682
 9.0000e-001 99309 -5.9740e+000 -4.4726e+000  2.6954e-001 36200 99332,99116,99012
 9.0000e-001 99286 -5.9773e+000 -5.7257e+000  8.6270e-001 36200 99332,99012,98986
 9.0000e-001 99263 -4.8662e+000 -4.8526e+000 -7.9023e-001 36200 99012,99116,99064
 9.0000e-001 99240 -4.2001e+000 -6.7953e-002  3.8124e-001 36200 98986,99168,99142
 9.0000e-001 99217 -9.4092e+000 -3.8424e+000 -1.4700e+000 36200 99064,99116,99090
 9.0000e-001 99194 -5.0775e+000 -4.7577e+000 -9.6165e-001 36200 99012,99064,99038
 9.0000e-001 99358 -5.8300e+000 -3.6369e+000 -4.8680e-002 36200 99142,99116,99332
 9.0000e-001 99381 -5.6958e+000 -4.4218e+000  6.6909e-001 36200 99142,99332,98986
 9.0000e-001 99887 -1.0836e+001 -1.0913e+001  3.2932e+000 35488 99564,99720,99590
 9.0000e-001 99864 -7.3589e+000 -3.5952e+000  5.4095e+000 35488 99564,99746,99720
 9.0000e-001 99841 -8.4307e+000 -9.4596e+000 -1.4207e+000 35488 99642,99694,99668
 9.0000e-001 99818 -6.3507e+000 -1.0197e+001  1.0841e+000 35488 99590,99694,99642
 9.0000e-001 99795 -6.8329e+000 -7.4243e+000  1.5401e+000 35488 99590,99720,99694
 9.0000e-001 99772 -4.6658e+000 -1.4660e+001  1.0556e+000 35488 99590,99642,99616
 9.0000e-001 99988 -4.3119e+000  5.8398e-001 -5.6390e-001 35198 99910,99962,99936
 9.0000e-001 100138 -1.5131e+001 -1.7224e+001  6.0744e+000 34794 100233,100161,100063
 9.0000e-001 100115 -1.2875e+001 -7.6620e+000  8.3161e+000 34794 100365,100161,100037
 9.0000e-001 100187 -1.5932e+001 -8.2273e+000  4.1368e+000 34794 100089,100063,100161
 9.0000e-001 100210 -1.6643e+001 -6.3270e+000  5.4466e+000 34794 100089,100161,100011
 9.0000e-001 100259 -1.0741e+001 -7.8821e+000  7.7697e+000 34794 100037,100161,100233
 9.0000e-001 100391 -1.5712e+001 -3.4988e+000  6.1447e+000 34794 100011,100161,100365
 9.0000e-001 100927 -5.8138e+000 -5.9448e+000  1.3787e+000 34404 100679,100809,100783
 9.0000e-001 100904 -1.9974e-001 -1.8825e+000  3.2018e+000 34404 100653,100809,100679
 9.0000e-001 100881 -5.1627e+000 -6.8986e+000  9.4119e-002 34404 100705,100783,100731
 9.0000e-001 100858 -4.7517e+000 -5.2951e+000  9.3908e-001 34404 100679,100783,100705
 9.0000e-001 100835 -3.2692e+000 -4.6611e+000  1.4771e+000 34404 100731,100783,100757
 9.0000e-001 101354 -7.0416e-001 -9.7321e+000 -4.1241e-001 34000 101377,101109,101057
 9.0000e-001 101331 -1.2485e+000 -7.5437e+000  1.9915e+000 34000 101449,101377,101057
 9.0000e-001 101308 -5.9987e-001 -7.4194e+000  2.1935e+000 34000 101449,101057,101031
 9.0000e-001 101285 -9.3501e+000 -1.0306e+001  1.1474e+000 34000 101031,101213,101187
 9.0000e-001 101262 -5.4894e+000 -1.1518e+001 -2.4298e+000 34000 101135,101187,101161
 9.0000e-001 101239  4.6485e+000  1.2590e+000 -3.9588e+000 34000 101057,101109,101083
 9.0000e-001 101403  1.7927e-001 -2.6379e+000 -3.1660e+000 34000 101135,101109,101377
 9.0000e-001 101426 -7.0245e+000 -6.2555e+000 -7.3702e-001 34000 101135,101377,101187
 9.0000e-001 101475 -2.2864e+000 -7.0634e+000  2.2249e+000 34000 101187,101377,101449
 9.0000e-001 101498 -1.6346e+000 -6.9721e+000  2.2721e+000 34000 101187,101449,101031
 9.0000e-001 102083 -6.8197e+000 -5.2664e+000  1.3886e-001 33472 102106,101812,101786
 9.0000e-001 102060 -6.1549e+000 -5.3485e+000  6.9986e-001 33472 102106,101786,101916
 9.0000e-001 102037 -5.8432e+000 -5.6136e+000 -3.7133e-001 33472 101812,101864,101838
 9.0000e-001 102014 -6.8609e+000 -3.0315e+000  9.4939e-001 33472 101864,101916,101890
 9.0000e-001 101991 -4.4337e+000 -2.5622e+000  1.5851e+000 33472 101786,101942,101916
 9.0000e-001 101968 -3.3524e+000 -1.6329e+000 -5.3017e-002 33472 101760,101942,101786
 9.0000e-001 102132 -6.3122e+000 -4.7341e+000  3.8727e-001 33472 101864,101812,102106
 9.0000e-001 102155 -5.9196e+000 -4.9022e+000  9.1869e-001 33472 101864,102106,101916
 9.0000e-001 102612 -2.7884e+000 -1.7604e+000 -2.4605e+000 33038 102635,102468,102390
 9.0000e-001 102589 -1.1782e+000 -1.5930e+000 -6.0218e-002 33038 102635,102390,102364
 9.0000e-001 102566  1.1014e+000 -1.6771e+000 -2.1679e+000 33038 102390,102468,102442
 9.0000e-001 102543 -3.2531e+000 -7.6037e+000  6.0402e-001 33038 102338,102494,102364
 9.0000e-001 102520 -1.7966e-001 -1.9926e+000 -1.8033e+000 33038 102390,102442,102416
 9.0000e-001 102661 -3.9316e+000 -2.0787e+000 -2.0917e+000 33038 102494,102468,102635
 9.0000e-001 102684 -4.8804e+000 -2.8521e+000  1.4354e-001 33038 102494,102635,102364
 9.0000e-001 103318 -3.4138e+000 -3.3446e+000  5.9536e-001 32402 102972,103128,103076
 9.0000e-001 103295 -2.0082e+000 -1.5968e+000  1.3038e+000 32402 102946,103128,102972
 9.0000e-001 103272 -1.8068e+000 -8.4764e-002  1.5744e+000 32402 103076,103128,103102
 9.0000e-001 103249 -2.6410e+000 -1.8967e+000  8.9755e-001 32402 102946,103154,103128
 9.0000e-001 103226 -2.3919e+000 -2.5425e+000  1.5805e-001 32402 102972,103076,102998
 9.0000e-001 103203 -4.5828e+000 -3.0971e+000  1.4299e-001 32402 102998,103076,103050
 9.0000e-001 103180 -4.0595e+000 -1.4080e+000 -4.3441e-001 32402 102998,103050,103024
 9.0000e-001 103696  7.6279e-001 -2.8678e+000 -2.5908e+000 31924 103448,103526,103500
 9.0000e-001 103673 -5.9691e+000 -6.3062e+000 -4.9829e+000 31924 103448,103578,103526
 9.0000e-001 103650 -4.5625e+000 -2.9853e+000 -1.0081e+000 31924 103448,103500,103474
 9.0000e-001 103627 -1.1891e+001 -2.9064e-001 -6.3971e+000 31924 103422,103578,103448
 9.0000e-001 103604  7.9592e+000 -1.1191e+001 -6.4830e+000 31924 103526,103578,103552
 9.0000e-001 104281 -4.6385e+000 -4.0994e+000  2.4551e-002 31520 104304,104062,104036
 9.0000e-001 104258 -4.0597e+000 -3.0728e+000  3.8592e-001 31520 104304,104036,103984
 9.0000e-001 104235 -4.2619e+000 -3.3836e+000  5.8478e-001 31520 104062,104114,104088
 9.0000e-001 104212 -6.1650e+000 -3.3441e+000  7.1897e-001 31520 103958,104114,103984
 9.0000e-001 104189 -3.9201e+000 -2.7514e+000  2.6495e-001 31520 103984,104036,104010
 9.0000e-001 104166 -5.3779e+000 -2.9929e-001  2.9822e-001 31520 103958,104140,104114
 9.0000e-001 104330 -4.4992e+000 -3.0679e+000  3.3214e-001 31520 104114,104062,104304
 9.0000e-001 104353 -4.5103e+000 -2.5954e+000  5.1165e-001 31520 104114,104304,103984
 9.0000e-001 104704 -4.6096e+000 -2.3206e+000  1.1902e-001 31066 104479,104583,104505
 9.0000e-001 104681 -4.8717e+000 -2.0070e+000 -1.3548e-001 31066 104479,104609,104583
 9.0000e-001 104658 -6.0481e+000 -2.8682e+000 -1.0238e-001 31066 104505,104557,104531
 9.0000e-001 104635 -5.2875e+000 -3.1221e+000 -2.6579e-001 31066 104505,104583,104557
 9.0000e-001 104925 -2.3544e+001  8.7899e-001  1.6961e+000 30754 104775,104827,104801
 9.0000e-001 104902 -2.0162e+001 -1.2280e+001  2.6139e-001 30754 104775,104853,104827
 9.0000e-001 104879 -2.6315e+001 -1.5165e+001 -3.1483e+000 30754 104749,104853,104775
 9.0000e-001 105482 -1.7903e+001 -1.5325e+001  6.8771e+000 30164 105505,105136,105110
 9.0000e-001 105459 -1.6088e+001 -1.3454e+001  6.0930e+000 30164 105649,105505,105110
 9.0000e-001 105436 -2.4264e+001 -2.0494e+001  6.0727e+000 30164 105577,105188,105136
 9.0000e-001 105413 -1.1514e+001 -1.1325e+001  4.9123e+000 30164 105649,105110,105318
 9.0000e-001 105390 -1.0950e+001 -1.2253e+001  7.0963e+000 30164 105214,105292,105240
 9.0000e-001 105367 -1.3664e+001 -1.1198e+001  5.8961e+000 30164 105240,105292,105266
 9.0000e-001 105344 -1.0829e+001 -3.1770e+001  7.9909e+000 30164 105136,105188,105162
 9.0000e-001 105531 -1.8655e+001 -1.8136e+001  5.8272e+000 30164 105577,105136,105505
 9.0000e-001 105554 -1.2895e+001 -1.5827e+001  9.9895e+000 30164 105214,105505,105292
 9.0000e-001 105603 -2.1460e+001 -2.0772e+001  1.1776e+001 30164 105214,105188,105577
 9.0000e-001 105626 -1.8355e+001 -1.9501e+001  1.1584e+001 30164 105214,105577,105505
 9.0000e-001 105675 -1.6782e+001 -1.4086e+001  1.0093e+001 30164 105292,105505,105649
 9.0000e-001 105698 -1.6150e+001 -1.4322e+001  9.1223e+000 30164 105292,105649,105318
 9.0000e-001 106027  3.7732e+000 -3.0685e+000 -3.3472e+000 29868 106322,106050,105880
 9.0000e-001 106004  1.9334e+000 -3.5586e+000 -3.5570e+000 29868 106250,106050,105828
 9.0000e-001 105981  2.5431e+000 -4.2840e+000 -5.4677e+000 29868 106250,105828,105802
 9.0000e-001 105958  1.6653e+000 -2.1549e+000 -1.5755e+000 29868 106322,105880,106122
 9.0000e-001 106076  4.9072e+000  6.2266e+000 -7.8217e+000 29868 105906,105880,106050
 9.0000e-001 106099 -5.0667e+000 -3.5162e+000 -3.8803e+000 29868 105906,106050,105932
 9.0000e-001 106148 -1.2740e+000 -1.3889e+000 -1.8170e+000 29868 105854,105828,106122
 9.0000e-001 106276  9.2036e-001 -6.2883e+000 -3.0011e+000 29868 105932,106050,106250
 9.0000e-001 106299  1.6557e+000 -7.8157e+000 -5.0993e+000 29868 105932,106250,105802
 9.0000e-001 106348 -2.8073e-002 -3.8264e+000 -3.5096e+000 29868 105828,106050,106322
 9.0000e-001 106371 -1.7232e+000 -2.5968e+000 -1.7673e+000 29868 105828,106322,106122
 9.0000e-001 106828 -6.6418e+000 -5.3453e+000 -3.1293e+000 29521 106580,106710,106684
 9.0000e-001 106805 -3.1501e+000 -4.5745e+000  3.3198e-001 29521 106554,106710,106580
 9.0000e-001 106782 -3.0099e+000 -2.4673e+000 -1.8826e+000 29521 106580,106684,106606
 9.0000e-001 106759 -5.1572e+000 -5.4934e+000 -3.5736e+000 29521 106606,106684,106658
 9.0000e-001 106736 -1.8196e+000 -1.1519e+000 -1.7849e+000 29521 106606,106658,106632
 9.0000e-001 107027 -4.8738e+000 -5.8900e+000 -3.4450e-001 29117 106877,106929,106903
 9.0000e-001 107004 -5.3394e+000 -6.0552e+000  1.9192e+000 29117 106851,106929,106877
 9.0000e-001 106981 -4.6005e+000 -5.0673e+000  1.5873e+000 29117 106851,106955,106929
 9.0000e-001 107456 -4.5417e+000 -3.9758e+000 -1.7805e-001 28656 107237,107315,107263
 9.0000e-001 107433 -4.8578e+000 -2.9437e+000 -6.2589e-002 28656 107133,107315,107237
 9.0000e-001 107410 -5.6012e+000 -5.4577e+000 -2.1689e-001 28656 107133,107237,107159
 9.0000e-001 107387 -6.4841e+000 -5.1500e+000 -9.9265e-002 28656 107159,107237,107185
 9.0000e-001 107364 -7.2014e+000 -5.4882e+000 -2.2854e-001 28656 107185,107237,107211
 9.0000e-001 107341 -4.3068e+000 -2.9242e+000 -9.9072e-001 28656 107263,107315,107289
 9.0000e-001 107704 -4.0011e+000 -4.0389e+000 -8.7188e-002 27902 107727,107557,107531
 9.0000e-001 107681 -5.1374e+000 -4.4106e+000 -7.7751e-001 27902 107727,107531,107505
 9.0000e-001 107658 -2.9679e+000 -3.8542e+000  7.0861e-001 27902 107557,107609,107583
 9.0000e-001 107635 -4.7672e+000 -6.8557e+000 -2.5257e+000 27902 107479,107609,107505
 9.0000e-001 107753 -2.7383e+000 -4.5402e+000  2.1523e-001 27902 107609,107557,107727
 9.0000e-001 107776 -3.8127e+000 -4.7655e+000 -4.0651e-001 27902 107609,107727,107505
 9.0000e-001 108333 -4.8022e+000 -3.6933e+000 -2.4307e-001 27341 108356,108065,108013
 9.0000e-001 108310 -4.6177e+000 -3.7066e+000  1.6059e-001 27341 108356,108013,108143
 9.0000e-001 108287 -4.4696e+000 -3.4262e+000  1.6433e-001 27341 108428,108117,108091
 9.0000e-001 108264 -4.9512e+000 -3.8549e+000 -1.8115e-001 27341 108013,108065,108039
 9.0000e-001 108241 -5.1799e+000 -3.9137e+000  2.1994e-002 27341 107987,108143,108013
 9.0000e-001 108218 -5.5755e+000 -4.0899e+000  1.4427e-001 27341 107987,108169,108143
 9.0000e-001 108195 -6.1328e+000 -3.9045e+000  7.0911e-002 27341 107961,108169,107987
 9.0000e-001 108382 -4.5946e+000 -3.3156e+000 -7.6836e-002 27341 108091,108065,108356
 9.0000e-001 108405 -4.4115e+000 -3.6269e+000  1.1874e-001 27341 108428,108091,108356
 9.0000e-001 108454 -4.4071e+000 -2.9414e+000  2.3841e-001 27341 108143,108117,108428
 9.0000e-001 108477 -4.4258e+000 -3.2613e+000  2.0942e-001 27341 108143,108428,108356
 9.0000e-001 108725 -3.4527e+001 -2.6660e+001  4.1875e+000 27029 108748,108526,108500
 9.0000e-001 108702 -3.2997e+001 -3.7468e+001  3.0175e+000 27029 108748,108500,108630
 9.0000e-001 108679 -2.7025e+001 -2.0539e+001  8.1323e+000 27029 108578,108630,108604
 9.0000e-001 108656 -3.6856e+001 -3.3457e+001 -1.3319e+001 27029 108526,108578,108552
 9.0000e-001 108774 -3.2803e+001 -2.0209e+001  4.6078e+000 27029 108578,108526,108748
 9.0000e-001 108797 -2.8949e+001 -2.7962e+001  4.4949e+000 27029 108578,108748,108630
 9.0000e-001 109045 -5.4028e+000 -5.6666e+000 -5.0438e-001 26610 108872,108924,108898
 9.0000e-001 109022 -5.8240e+000 -5.2464e+000 -3.0391e-001 26610 108872,108950,108924
 9.0000e-001 108999 -6.6556e+000 -5.6947e+000 -1.3329e+000 26610 108846,108950,108872
 9.0000e-001 108976 -8.6302e+000 -6.0681e+000 -1.8403e+000 26610 108820,108950,108846
 9.0000e-001 109366 -4.9064e+000 -3.3659e+000  3.0340e-002 26006 109144,109222,109196
 9.0000e-001 109343 -5.0053e+000 -3.1301e+000  1.0188e-001 26006 109118,109222,109144
 9.0000e-001 109320 -4.8456e+000 -2.9597e+000 -4.5541e-002 26006 109092,109222,109118
 9.0000e-001 109297 -4.7880e+000 -3.3259e+000  1.3787e-001 26006 109144,109196,109170
 9.0000e-001 109274 -5.1854e+000 -3.1826e+000  1.3408e-001 26006 109092,109248,109222
 9.0000e-001 109567 -4.7750e+000 -4.1932e+000  7.9733e-004 25659 109391,109469,109443
 9.0000e-001 109544 -4.6825e+000 -4.5560e+000  9.8625e-001 25659 109391,109495,109469
 9.0000e-001 109521 -5.8830e+000 -5.0465e+000  7.3641e-001 25659 109391,109443,109417
 9.0000e-001 109900 -2.0710e+000  2.2784e-001 -5.7471e-001 25255 109923,109779,109753
 9.0000e-001 109877 -1.3165e+000  3.2187e+000  1.4206e+000 25255 109923,109753,109701
 9.0000e-001 109854 -2.8357e+000 -4.8762e+000 -2.5980e+000 25255 109675,109805,109701
 9.0000e-001 109831  1.6705e+000 -2.6651e+000  3.5876e+000 25255 109701,109753,109727
 9.0000e-001 109949 -4.0760e+000 -4.2852e+000 -3.5227e+000 25255 109805,109779,109923
 9.0000e-001 109972 -1.6244e+000  1.1521e+000 -1.3545e+000 25255 109805,109923,109701
 9.0000e-001 110220 -4.8916e+000 -3.4412e+000  1.1472e+000 24701 110243,110021,109995
 9.0000e-001 110197 -4.7873e+000 -3.7644e+000  3.3761e-003 24701 110243,109995,110099
 9.0000e-001 110174 -4.2794e+000 -2.7317e+000  3.1911e-001 24701 110315,110073,110047
 9.0000e-001 110151 -2.6849e+000 -3.6810e+000 -3.6262e-001 24701 109995,110125,110099
 9.0000e-001 110269 -3.0556e+000 -2.9829e+000  9.8901e-001 24701 110047,110021,110243
 9.0000e-001 110292 -5.1280e+000 -2.8491e+000  4.6679e-001 24701 110315,110047,110243
 9.0000e-001 110341 -1.5199e+000 -2.4439e+000  5.7674e-001 24701 110099,110073,110315
 9.0000e-001 110364 -3.2343e+000 -3.0973e+000  4.8072e-001 24701 110099,110315,110243
 9.0000e-001 110661 -6.0819e+000 -4.6007e+000  9.4301e-001 24197 110684,110413,110387
 9.0000e-001 110638 -5.5452e+000 -3.6243e+000  6.1698e-001 24197 110684,110387,110543
 9.0000e-001 110615 -5.3590e+000 -3.4212e+000 -1.4449e-002 24197 110756,110491,110465
 9.0000e-001 110592 -6.3454e+000 -4.6357e+000  7.1655e-002 24197 110413,110465,110439
 9.0000e-001 110569 -5.1540e+000 -3.1752e+000  9.7804e-001 24197 110491,110543,110517
 9.0000e-001 110710 -5.7911e+000 -4.7426e+000  4.9191e-002 24197 110465,110413,110684
 9.0000e-001 110733 -5.3696e+000 -3.6819e+000 -3.7591e-002 24197 110756,110465,110684
 9.0000e-001 110782 -5.0507e+000 -3.7269e+000  3.2436e-001 24197 110543,110491,110756
 9.0000e-001 110805 -5.1801e+000 -4.1656e+000  2.7791e-001 24197 110543,110756,110684
 9.0000e-001 111315 -7.5832e+000 -5.4970e+000 -6.7221e+000 23593 111044,111148,111070
 9.0000e-001 111292 -1.6562e+001 -1.8083e+000 -4.9891e+000 23593 111044,111174,111148
 9.0000e-001 111269  6.5258e+000 -1.1508e+001 -1.0198e+001 23593 111070,111122,111096
 9.0000e-001 111246 -2.5422e+000  6.3048e+000 -6.0166e+000 23593 111070,111148,111122
 9.0000e-001 111223 -9.8978e+000  6.1836e-001  1.3510e+000 23593 111018,111174,111044
 9.0000e-001 111200 -5.0944e+000 -1.7384e+000  2.1558e+000 23593 110992,111174,111018
 9.0000e-001 111821 -5.6895e+000 -3.9081e+000 -1.1025e-001 23089 111916,111844,111628
 9.0000e-001 111798 -5.7337e+000 -3.7661e+000 -2.7430e-001 23089 111844,111550,111524
 9.0000e-001 111775 -5.6452e+000 -4.1614e+000 -1.2250e-001 23089 111916,111628,111602
 9.0000e-001 111752 -6.4593e+000 -2.0368e+000 -5.4768e-001 23089 111498,111680,111524
 9.0000e-001 111729 -5.7545e+000 -4.5487e+000 -3.6551e-002 23089 111550,111602,111576
 9.0000e-001 111706 -5.2010e+000 -4.5870e+000  1.0318e-001 23089 111628,111680,111654
 9.0000e-001 111870 -5.4312e+000 -3.9440e+000 -2.0644e-001 23089 111680,111628,111844
 9.0000e-001 111893 -5.3112e+000 -3.7062e+000 -6.0475e-001 23089 111680,111844,111524
 9.0000e-001 111942 -5.6836e+000 -4.2703e+000  6.9304e-003 23089 111550,111844,111916
 9.0000e-001 111965 -5.5985e+000 -4.4840e+000 -3.5576e-002 23089 111550,111916,111602
 9.0000e-001 112164 -1.0311e+001 -8.4955e+000  2.5408e+000 22626 112187,112014,111988
 9.0000e-001 112141 -8.7969e+000 -5.6461e-001  1.0739e+000 22626 112259,112187,111988
 9.0000e-001 112118 -8.5921e+000  2.6932e+000 -4.1235e+000 22626 112259,111988,112092
 9.0000e-001 112213 -9.9646e+000 -1.6391e+001  9.6685e-001 22626 112040,112014,112187
 9.0000e-001 112236 -8.2368e+000 -8.5659e+000  2.0179e+000 22626 112040,112187,112066
 9.0000e-001 112285 -1.0430e+001 -8.9782e+000  2.2924e+000 22626 112066,112187,112259
 9.0000e-001 112308 -1.1453e+001 -6.6943e+000 -2.5135e+000 22626 112066,112259,112092
 9.0000e-001 112605 -4.0678e+000 -4.5378e+000  2.7260e-001 22286 112628,112383,112357
 9.0000e-001 112582 -4.6515e+000 -5.0515e+000  6.7037e-001 22286 112772,112628,112357
 9.0000e-001 112559 -4.1613e+000 -3.7329e+000  1.5116e-001 22286 112700,112435,112409
 9.0000e-001 112536 -5.6192e+000 -5.0816e+000  9.3557e-001 22286 112772,112357,112331
 9.0000e-001 112513 -3.4935e+000 -4.3030e+000  3.7910e-001 22286 112435,112487,112461
 9.0000e-001 112654 -4.3012e+000 -4.4611e+000  3.9780e-002 22286 112409,112383,112628
 9.0000e-001 112677 -4.3688e+000 -4.4113e+000  3.7397e-002 22286 112700,112409,112628
 9.0000e-001 112726 -4.0923e+000 -4.0208e+000  5.9574e-001 22286 112487,112435,112700
 9.0000e-001 112749 -4.0945e+000 -4.1711e+000  4.7364e-001 22286 112487,112700,112628
 9.0000e-001 112798 -4.2231e+000 -4.7592e+000  4.8870e-001 22286 112487,112628,112772
 9.0000e-001 112821 -4.5478e+000 -4.4052e+000  6.4717e-001 22286 112487,112772,112331
 9.0000e-001 112924 -4.5347e+001  3.9582e+000  4.6893e+000 21974 112846,112898,112872
 9.0000e-001 113223 -2.2599e+000 -6.2942e+000 -1.2644e+000 21420 112949,113053,112975
 9.0000e-001 113200 -5.5883e+000 -7.3619e+000  7.0946e-001 21420 112949,113079,113053
 9.0000e-001 113177 -9.8134e+000 -9.1048e+000 -1.7300e+000 21420 112975,113053,113001
 9.0000e-001 113154 -2.4218e+000 -5.0166e+000 -1.1213e-001 21420 113001,113053,113027
 9.0000e-001 113131 -3.2683e+000 -5.9116e+000  8.6134e-002 21420 112949,113105,113079
 9.0000e-001 113605 -2.8121e+001  2.1735e+000 -6.8956e+000 20716 113331,113435,113357
 9.0000e-001 113582 -3.1650e+001 -1.2256e+001 -5.5841e+000 20716 113331,113461,113435
 9.0000e-001 113559 -3.3647e+001 -5.2607e+000 -2.4931e-001 20716 113383,113435,113409
 9.0000e-001 113536 -2.9746e+001 -3.0071e+000  7.6687e-001 20716 113357,113435,113383
 9.0000e-001 113513 -2.7666e+001 -2.6111e+000 -1.2525e+001 20716 113331,113487,113461
 9.0000e-001 113853 -3.3176e+000 -6.2585e+000  2.0207e-001 20290 113876,113680,113654
 9.0000e-001 113830 -1.4532e+000 -5.7076e+000  3.8034e-001 20290 113876,113654,113628
 9.0000e-001 113807 -3.3095e+000 -4.8529e+000  9.1738e-002 20290 113948,113732,113680
 9.0000e-001 113784 -3.8862e+000 -5.2388e+000 -1.0275e-001 20290 113680,113732,113706
 9.0000e-001 113902 -3.3396e+000 -5.2542e+000  3.6452e-001 20290 113948,113680,113876
 9.0000e-001 113925 -3.1022e+000 -6.2458e+000  7.6395e-001 20290 113758,113876,113628
 9.0000e-001 113974 -3.5797e+000 -5.3022e+000  2.7286e-001 20290 113758,113732,113948
 9.0000e-001 113997 -3.6796e+000 -5.5793e+000  5.7118e-001 20290 113758,113948,113876
 9.0000e-001 114365 -4.8432e+000 -3.4917e+000  1.2428e-002 19900 114146,114198,114172
 9.0000e-001 114342 -4.8174e+000 -3.4820e+000  4.7488e-003 19900 114042,114198,114146
 9.0000e-001 114319 -4.8536e+000 -3.4727e+000  2.8623e-002 19900 114042,114224,114198
 9.0000e-001 114296 -4.7023e+000 -3.5087e+000 -4.4555e-002 19900 114094,114146,114120
 9.0000e-001 114273 -4.8778e+000 -3.6725e+000  2.3122e-002 19900 114042,114146,114094
 9.0000e-001 114250 -4.9756e+000 -3.5974e+000  1.6830e-001 19900 114042,114094,114068
 9.0000e-001 114566 -5.4022e+000 -4.0119e+000 -3.3627e-002 19496 114442,114494,114468
 9.0000e-001 114543 -5.0940e+000 -4.2130e+000  1.1945e-001 19496 114416,114494,114442
 9.0000e-001 114520 -5.7029e+000 -3.6852e+000  6.0981e-001 19496 114390,114494,114416
 9.0000e-001 114767 -5.2679e+000 -3.4491e+000 -1.1557e-001 19042 114790,114669,114643
 9.0000e-001 114744 -5.4469e+000 -3.4007e+000 -9.4024e-002 19042 114790,114643,114591
 9.0000e-001 114721 -5.6640e+000 -3.0105e+000 -5.5509e-001 19042 114591,114643,114617
 9.0000e-001 114816 -5.0844e+000 -3.4179e+000 -1.3309e-001 19042 114695,114669,114790
 9.0000e-001 114839 -5.2923e+000 -3.3776e+000 -1.4069e-001 19042 114695,114790,114591
 9.0000e-001 114991 -5.7432e+000 -3.5212e+000  1.8717e-001 18488 114864,114916,114890
 9.0000e-001 114968 -5.2307e+000 -2.8115e+000 -4.2956e-002 18488 114864,114942,114916
 9.0000e-001 115192 -5.6892e+000 -3.8140e+000 -8.1072e-002 18098 115215,115042,115016
 9.0000e-001 115169 -5.7942e+000 -4.7042e+000  4.0146e-001 18098 115215,115016,115120
 9.0000e-001 115146 -5.0885e+000 -3.4066e+000 -2.9097e-001 18098 115287,115094,115068
 9.0000e-001 115241 -5.7146e+000 -3.8137e+000 -9.1076e-002 18098 115068,115042,115215
 9.0000e-001 115264 -5.2774e+000 -3.8303e+000 -2.4805e-001 18098 115287,115068,115215
 9.0000e-001 115313 -5.3108e+000 -3.1953e+000  2.7211e-001 18098 115120,115094,115287
 9.0000e-001 115336 -5.4901e+000 -3.5698e+000  3.2507e-001 18098 115120,115287,115215
 9.0000e-001 115846 -2.1730e+000 -1.0503e+000 -7.4841e-001 17644 115653,115705,115679
 9.0000e-001 115823 -2.3031e+000  4.4978e-001 -5.3109e-001 17644 115627,115705,115653
 9.0000e-001 115800 -1.9205e+000  3.5239e-001 -1.6196e-001 17644 115549,115705,115627
 9.0000e-001 115777 -2.2164e+000 -2.9809e-001 -6.4648e-002 17644 115549,115627,115575
 9.0000e-001 115754 -5.4127e+000 -4.2602e+000 -4.7411e+000 17644 115523,115705,115549
 9.0000e-001 115731 -1.0644e+000  1.5369e+000 -1.2734e+000 17644 115575,115627,115601
 9.0000e-001 116067 -1.1295e+001 -5.9871e-001 -4.8651e-001 17116 115891,115943,115917
 9.0000e-001 116044 -5.2978e+000 -1.2700e+000 -1.3833e+000 17116 115891,115995,115943
 9.0000e-001 116021 -2.7367e+000 -2.9955e+000  1.6264e-001 17116 115943,115995,115969
 9.0000e-001 116288 -4.6157e+000 -4.6316e+000  8.0238e-002 16704 116164,116216,116190
 9.0000e-001 116265 -4.6102e+000 -4.8591e+000  9.1171e-002 16704 116112,116216,116164
 9.0000e-001 116242 -3.9716e+000 -4.6272e+000  7.3358e-002 16704 116112,116164,116138
 9.0000e-001 116489 -3.1331e+001 -4.1312e+000 -7.6643e-001 16434 116339,116417,116365
 9.0000e-001 116466 -2.9752e+001 -3.0737e+000  6.8005e-002 16434 116313,116417,116339
 9.0000e-001 116443 -2.2537e+001 -8.9762e+000 -9.4923e+000 16434 116365,116417,116391
 9.0000e-001 116592 -2.8441e+000 -5.5391e+000 -1.7030e-001 15967 116514,116566,116540
 9.0000e-001 116695 -1.2478e+000 -2.4517e+000 -9.1719e-001 15552 116617,116669,116643
 9.0000e-001 116798 -4.4735e+000 -3.2391e+000  0.0000e+000 421 116720,116772,116746
 1.0000e+000 69066 -3.8260e-001 -4.1780e-002 -2.2538e-002 68738 68965,69017,68991
 1.0000e+000 69043 -5.7591e-003  2.6451e-001  4.2697e-001 68738 68939,69017,68965
 1.0000e+000 69371 -1.4520e+000  2.9906e-001  1.0411e+000 68426 69172,69250,69198
 1.0000e+000 69348  1.8333e-001  1.1223e+000  7.1501e-001 68426 69146,69250,69172
 1.0000e+000 69325 -4.4469e-002  2.4467e+000  2.3849e+000 68426 69198,69250,69224
 1.0000e+000 69302 -5.8080e-002 -6.8376e-001  2.7515e-001 68426 69146,69276,69250
 1.0000e+000 69521 -2.5162e+000 -1.3482e+001  2.8710e+000 68228 69420,69472,69446
 1.0000e+000 69498 -1.1614e+000 -1.1282e+001  1.3279e+000 68228 69394,69472,69420
 1.0000e+000 69781 -1.3540e-001 -7.2499e+000 -9.5305e-001 68030 69631,69683,69657
 1.0000e+000 69758 -6.9584e-001 -4.4034e+000  1.7735e-001 68030 69631,69709,69683
 1.0000e+000 69735  1.5773e+000 -9.0964e-001 -1.1585e+000 68030 69605,69709,69631
 1.0000e+000 70078  2.6672e-002 -8.1723e+000  1.2585e+000 67832 69882,69934,69908
 1.0000e+000 70055  2.8157e-002 -4.8172e+000 -7.0562e-001 67832 69856,69934,69882
 1.0000e+000 70032  1.4048e-001 -5.4161e+000 -1.1098e+000 67832 69830,69934,69856
 1.0000e+000 70009 -1.6460e+000 -9.5911e+000 -1.1602e+000 67832 69804,69934,69830
 1.0000e+000 69986  1.9742e+000 -9.4152e+000 -1.1772e+000 67832 69804,69960,69934
 1.0000e+000 70586 -2.5999e-001 -6.5619e-001 -6.0035e-001 67634 70609,70419,70341
 1.0000e+000 70563 -1.8316e+000 -9.4953e-001 -4.2295e-001 67634 70681,70609,70341
 1.0000e+000 70540 -2.1833e+000 -1.1256e+000 -3.0783e-001 67634 70681,70341,70315
 1.0000e+000 70517  6.9619e-001  3.8944e-001 -1.3275e+000 67634 70341,70419,70367
 1.0000e+000 70494 -1.3153e+000  2.9273e-001 -7.6506e-001 67634 70263,70445,70289
 1.0000e+000 70471 -5.9398e-001  7.3475e-002 -1.0231e+000 67634 70367,70419,70393
 1.0000e+000 70635 -1.4080e+000 -5.2565e-001 -1.3735e+000 67634 70445,70419,70609
 1.0000e+000 70658 -1.9113e+000 -2.1714e-001 -1.2154e+000 67634 70445,70609,70289
 1.0000e+000 70707 -1.7409e+000 -3.4585e-001 -1.3153e+000 67634 70289,70609,70681
 1.0000e+000 70730 -2.7518e+000 -8.5309e-001 -1.1210e+000 67634 70289,70681,70315
 1.0000e+000 71108 -2.6970e+000  8.9067e-002 -1.3043e+000 67344 71131,70912,70886
 1.0000e+000 71085 -3.6629e+000 -2.1599e+000 -1.3465e+000 67344 71131,70886,70860
 1.0000e+000 71062 -3.3038e+000 -1.1999e+000 -4.0513e-001 67344 71203,70938,70912
 1.0000e+000 71039 -3.2229e+000 -1.5641e+000 -2.2708e-001 67344 70834,70990,70860
 1.0000e+000 71016 -1.7556e+000 -7.2692e-001  2.1730e-001 67344 70938,70990,70964
 1.0000e+000 71157 -3.1502e+000 -1.6267e+000 -5.7185e-001 67344 71203,70912,71131
 1.0000e+000 71180 -2.9928e+000 -2.1901e+000 -4.5789e-001 67344 70990,71131,70860
 1.0000e+000 71229 -2.9278e+000 -9.0265e-001 -2.7286e-001 67344 70990,70938,71203
 1.0000e+000 71252 -2.5870e+000 -1.2222e+000 -3.9514e-001 67344 70990,71203,71131
 1.0000e+000 71603 -3.9290e-001  4.4297e+000 -5.5226e-001 67032 71378,71482,71404
 1.0000e+000 71580 -3.9336e-001  2.6965e+000 -9.0919e-001 67032 71378,71508,71482
 1.0000e+000 71557 -1.0158e+000  3.9529e+000 -3.2888e-001 67032 71404,71456,71430
 1.0000e+000 71534 -5.6058e-001  4.4475e+000 -1.2915e-001 67032 71404,71482,71456
 1.0000e+000 72003 -3.4454e-001  2.6859e+000  1.1624e-001 66834 71755,71859,71781
 1.0000e+000 71980  1.0262e-001  4.3529e+000  4.2266e-001 66834 71755,71885,71859
 1.0000e+000 71957  1.5753e+000  4.3929e+000  1.6124e+000 66834 71781,71833,71807
 1.0000e+000 71934 -3.2719e-001  3.4929e+000  8.9059e-001 66834 71781,71859,71833
 1.0000e+000 71911 -8.6400e-002  4.0616e+000  6.8479e-001 66834 71729,71885,71755
 1.0000e+000 72430 -7.7905e-002  1.9114e+000  1.1914e-001 66266 72237,72289,72263
 1.0000e+000 72407 -3.8402e-001  1.1262e+000  3.7657e-001 66266 72133,72289,72237
 1.0000e+000 72384  4.6185e-001  1.5543e+000  1.5150e-001 66266 72133,72237,72211
 1.0000e+000 72361 -4.9926e-001  3.4523e-001 -2.1244e-001 66266 72107,72289,72133
 1.0000e+000 72338  7.3948e-001  2.1094e+000  6.6379e-001 66266 72133,72211,72185
 1.0000e+000 72315  2.0950e+000  1.8088e+000  8.2135e-001 66266 72133,72185,72159
 1.0000e+000 72580 -4.3325e+000 -2.2240e+001  2.3487e+000 65968 72479,72531,72505
 1.0000e+000 72557 -1.5648e+000 -1.7237e+001  1.2034e+000 65968 72453,72531,72479
 1.0000e+000 72960 -2.5007e+000  1.9651e+000  7.6387e-001 65621 72983,72738,72712
 1.0000e+000 72937 -2.0754e+000  1.1324e+000  7.3726e-001 65621 72983,72712,72686
 1.0000e+000 72914 -4.7508e+000 -1.2101e+000  2.9718e+000 65621 72738,72842,72764
 1.0000e+000 72891 -3.2301e+000 -1.2663e+000  4.0532e+000 65621 72764,72842,72816
 1.0000e+000 72868 -2.5632e+000 -2.9246e+000  4.1670e+000 65621 72764,72816,72790
 1.0000e+000 73009 -2.1959e+000  1.2565e+000  8.9268e-001 65621 72842,72738,72983
 1.0000e+000 73032 -2.3395e+000 -3.1213e-001  9.2133e-001 65621 72842,72983,72686
 1.0000e+000 73361 -3.5950e+000 -5.7720e-001 -6.2103e-001 65281 73456,73384,73188
 1.0000e+000 73338 -4.0042e+000 -1.6243e-001 -1.5228e+000 65281 73384,73162,73136
 1.0000e+000 73315 -1.8546e+000 -7.1742e-001 -3.0536e-001 65281 73188,73240,73214
 1.0000e+000 73292 -2.1978e+000 -2.0883e+000 -8.6674e-001 65281 73136,73266,73240
 1.0000e+000 73410 -1.3676e+000 -4.3332e-001 -7.5560e-001 65281 73240,73188,73384
 1.0000e+000 73433 -3.0241e+000 -2.1829e+000 -1.4562e+000 65281 73240,73384,73136
 1.0000e+000 73482 -2.7062e+000  1.3458e+000 -8.4362e-001 65281 73162,73384,73456
 1.0000e+000 73711  2.3717e+000 -2.2880e+000 -2.5440e+000 64820 73734,73610,73584
 1.0000e+000 73688  2.1004e+000 -3.1190e+000 -1.9655e+000 64820 73734,73584,73662
 1.0000e+000 73760  2.6510e+000 -2.1460e+000 -2.2997e+000 64820 73636,73610,73734
 1.0000e+000 73783 -8.6616e-001 -3.5151e+000 -1.2461e+000 64820 73806,73734,73662
 1.0000e+000 73832  3.0594e+000 -4.6545e-001 -2.5736e+000 64820 73636,73734,73806
 1.0000e+000 74112  2.9355e-002 -1.4569e+001  1.5370e-001 64622 74278,74135,73988
 1.0000e+000 74089  1.8711e-001 -1.3178e+001  5.6825e-001 64622 74135,73936,74040
 1.0000e+000 74066  3.0090e-001 -1.4467e+001  9.1874e-001 64622 74278,73988,73962
 1.0000e+000 74161  8.8507e-001 -1.3656e+001 -2.7286e-001 64622 74014,73988,74135
 1.0000e+000 74184 -4.7978e-002 -1.2924e+001  3.9582e-001 64622 74207,74135,74040
 1.0000e+000 74233 -2.7514e-001 -1.3717e+001 -2.2604e-001 64622 74014,74135,74207
 1.0000e+000 74304  6.0814e-001 -1.3237e+001  4.9604e-001 64622 73936,74135,74278
 1.0000e+000 74327  9.7026e-001 -1.3301e+001  1.3015e+000 64622 73936,74278,73962
 1.0000e+000 74526 -8.3510e-001 -1.1354e+001  1.2077e-001 64424 74621,74549,74402
 1.0000e+000 74503  2.3699e-001 -1.0978e+001 -1.0060e+000 64424 74549,74350,74454
 1.0000e+000 74480 -1.8754e+000 -1.1398e+001 -5.6082e-001 64424 74621,74402,74376
 1.0000e+000 74575 -6.4275e-001 -1.0578e+001 -1.4457e-001 64424 74428,74402,74549
 1.0000e+000 74598 -1.7190e-001 -1.0338e+001 -1.2147e+000 64424 74693,74549,74454
 1.0000e+000 74647 -8.1963e-001 -1.2548e+001 -1.6978e+000 64424 74350,74549,74621
 1.0000e+000 74670 -2.4267e+000 -1.3023e+001 -2.4282e+000 64424 74350,74621,74376
 1.0000e+000 74719 -1.4881e-001 -9.0557e+000  3.1988e-001 64424 74428,74549,74693
 1.0000e+000 75123 -3.2760e+000 -1.1446e+001 -1.4462e+000 64126 74875,74953,74927
 1.0000e+000 75100  4.5475e-001 -2.6822e+000 -2.0034e+000 64126 74875,74979,74953
 1.0000e+000 75077 -2.4659e+000 -5.3944e+000 -8.7102e-001 64126 74875,75005,74979
 1.0000e+000 75054  2.9239e+000 -1.1392e+001  3.0130e+000 64126 74875,74927,74901
 1.0000e+000 75031 -3.7278e+000 -3.2561e+000  6.7532e-002 64126 74849,75005,74875
 1.0000e+000 75224 -1.4129e+000  1.7520e+000 -3.3079e-001 63836 75146,75198,75172
 1.0000e+000 75472  1.3912e+000  3.3636e+000  1.1191e+000 63375 75273,75351,75325
 1.0000e+000 75449  1.0763e+000  3.5522e+000  6.8632e-001 63375 75273,75377,75351
 1.0000e+000 75426  1.8128e+000  2.7918e+000 -4.4626e-002 63375 75247,75377,75273
 1.0000e+000 75403  1.7937e+000  1.0146e+000  3.8503e-001 63375 75273,75325,75299
 1.0000e+000 75673 -7.5084e-001  2.1320e+000  4.0906e-003 63063 75523,75575,75549
 1.0000e+000 75650 -2.0167e-001  3.2569e+000  5.3864e-001 63063 75497,75575,75523
 1.0000e+000 75627 -1.0382e+000  3.1604e+000  3.1719e-003 63063 75497,75601,75575
 1.0000e+000 75874 -4.6391e+000 -1.9491e+001  2.6504e-001 62716 75897,75750,75724
 1.0000e+000 75851 -5.6078e+000 -1.9476e+001  1.7949e-001 62716 75897,75724,75698
 1.0000e+000 75828 -4.4064e+000 -1.7567e+001 -3.0778e+000 62716 75698,75802,75776
 1.0000e+000 75923 -2.2819e+000 -1.9322e+001  1.7230e-001 62716 75776,75750,75897
 1.0000e+000 75946 -4.3895e+000 -2.0066e+001  6.1141e-002 62716 75776,75897,75698
 1.0000e+000 76328 -1.5036e+000 -1.5941e+001 -6.9515e-001 62198 76495,76351,76158
 1.0000e+000 76305 -2.0217e+000 -1.4104e+001 -2.7110e-001 62198 76351,76080,76054
 1.0000e+000 76282 -2.0401e+000 -1.8510e+001 -5.9283e-001 62198 76423,76184,76158
 1.0000e+000 76259 -1.2123e+000 -1.6702e+001 -7.9641e-001 62198 76495,76158,76106
 1.0000e+000 76236  4.7551e-001 -1.7861e+001 -1.6763e-001 62198 76106,76158,76132
 1.0000e+000 76377 -1.6382e+000 -1.6266e+001 -3.2861e-001 62198 76423,76158,76351
 1.0000e+000 76400 -1.0375e+000 -1.2520e+001  6.3172e-001 62198 76210,76351,76054
 1.0000e+000 76449 -1.7459e+000 -1.5653e+001 -5.3706e-001 62198 76210,76184,76423
 1.0000e+000 76472 -2.0641e+000 -1.4421e+001 -6.7002e-001 62198 76210,76423,76351
 1.0000e+000 76521 -1.5632e+000 -1.4460e+001  2.4833e-001 62198 76080,76351,76495
 1.0000e+000 76544 -1.8108e+000 -1.6316e+001  5.0243e-001 62198 76080,76495,76106
 1.0000e+000 76841 -4.4002e+000 -1.1822e+001 -1.1595e+000 61751 76936,76864,76645
 1.0000e+000 76818 -4.4455e+000 -9.1914e+000 -1.9856e+000 61751 76864,76567,76723
 1.0000e+000 76795 -3.9040e+000 -1.2001e+001 -1.4635e+000 61751 76936,76645,76593
 1.0000e+000 76772 -2.7137e+000 -9.3547e+000 -3.5937e+000 61751 77008,76697,76671
 1.0000e+000 76749 -2.5861e+000 -1.0958e+001 -2.0443e+000 61751 76593,76645,76619
 1.0000e+000 76890 -5.2480e+000 -1.4068e+001 -1.5095e-001 61751 76671,76645,76864
 1.0000e+000 76913 -4.5053e+000 -1.2018e+001 -2.6442e+000 61751 77008,76671,76864
 1.0000e+000 76962 -3.5276e+000 -1.1605e+001 -1.0416e+000 61751 76567,76864,76936
 1.0000e+000 76985 -3.2323e+000 -1.1926e+001 -1.3622e+000 61751 76567,76936,76593
 1.0000e+000 77034 -5.3525e+000 -1.1019e+001 -1.7168e+000 61751 76723,76697,77008
 1.0000e+000 77057 -5.1437e+000 -1.0818e+001 -1.8084e+000 61751 76723,77008,76864
 1.0000e+000 77207 -6.4415e+000  1.6220e+000 -3.9809e-001 61418 77106,77158,77132
 1.0000e+000 77184 -5.4724e+000  6.9628e-001 -1.8061e-001 61418 77080,77158,77106
 1.0000e+000 77638 -1.0824e+000  6.7798e-001 -1.0928e+000 60814 77733,77661,77471
 1.0000e+000 77615 -8.1242e-001 -7.9449e-001 -5.8728e-001 60814 77661,77393,77315
 1.0000e+000 77592 -6.3354e-001 -6.3595e-001 -1.6857e+000 60814 77733,77471,77445
 1.0000e+000 77569 -2.7738e+000 -1.5995e-001  8.7089e-001 60814 77315,77367,77341
 1.0000e+000 77546 -3.5509e+000 -2.2683e+000  8.9077e-001 60814 77315,77393,77367
 1.0000e+000 77523  2.8168e+000 -1.7108e-002 -2.9058e+000 60814 77393,77445,77419
 1.0000e+000 77687 -3.1438e-001  9.3045e-001  5.4962e-001 60814 77497,77471,77661
 1.0000e+000 77710 -1.8234e+000 -2.5818e+000  6.2848e-001 60814 77497,77661,77315
 1.0000e+000 77759 -1.3688e+000 -1.2390e+000 -8.9914e-001 60814 77393,77661,77733
 1.0000e+000 77782 -7.9701e-001 -2.2702e+000 -1.6861e+000 60814 77393,77733,77445
 1.0000e+000 78337 -5.9696e+000 -8.8646e+000 -1.8170e+000 60210 78360,78017,77965
 1.0000e+000 78314 -5.5667e+000 -9.9602e+000 -2.1619e+000 60210 78360,77965,78173
 1.0000e+000 78291 -5.6493e+000 -9.4654e+000 -2.5386e+000 60210 78432,78043,78017
 1.0000e+000 78268 -7.5407e+000 -1.3527e+001 -1.6461e+000 60210 77965,78017,77991
 1.0000e+000 78245 -4.9318e+000 -9.1851e+000 -2.5864e+000 60210 78043,78095,78069
 1.0000e+000 78222 -3.8187e+000 -8.8425e+000 -1.8095e+000 60210 78095,78173,78121
 1.0000e+000 78199 -3.2048e+000 -8.3849e+000 -2.1376e+000 60210 78121,78173,78147
 1.0000e+000 78386 -5.6856e+000 -9.3282e+000 -1.9662e+000 60210 78432,78017,78360
 1.0000e+000 78409 -4.1280e+000 -8.7281e+000 -1.5051e+000 60210 78095,78360,78173
 1.0000e+000 78458 -5.3022e+000 -8.6837e+000 -2.4770e+000 60210 78095,78043,78432
 1.0000e+000 78481 -5.2818e+000 -8.3931e+000 -1.9260e+000 60210 78095,78432,78360
 1.0000e+000 78680 -4.6431e+000  3.0330e+000  5.8789e-001 59848 78703,78556,78530
 1.0000e+000 78657 -5.6384e+000  1.9070e+000 -2.1197e-001 59848 78703,78530,78504
 1.0000e+000 78634 -3.8456e+000  5.1037e-001 -1.2212e+000 59848 78504,78608,78582
 1.0000e+000 78729 -2.2855e+000  1.1972e+000  9.4936e-002 59848 78582,78556,78703
 1.0000e+000 78752 -4.2263e+000  9.3784e-002 -1.0248e+000 59848 78582,78703,78504
 1.0000e+000 78951 -8.6325e-001 -7.6585e+000 -3.7438e+000 59344 78974,78801,78775
 1.0000e+000 78928 -1.4513e+000 -7.9026e+000 -9.2300e-001 59344 79046,78974,78775
 1.0000e+000 78905 -2.9470e-001 -8.2137e+000 -1.2842e+000 59344 79046,78775,78879
 1.0000e+000 79000 -5.1865e+000 -9.7031e+000 -4.6234e+000 59344 78827,78801,78974
 1.0000e+000 79023 -2.0364e+000 -8.9208e+000 -1.0180e+000 59344 78827,78974,78853
 1.0000e+000 79072  6.0325e-001 -8.0240e+000 -8.3522e-001 59344 78853,78974,79046
 1.0000e+000 79095  1.9963e+000 -8.1816e+000 -1.0092e+000 59344 78853,79046,78879
 1.0000e+000 79296 -5.7127e+000 -2.2686e+001 -1.0806e+000 58711 79319,79172,79146
 1.0000e+000 79273 -3.6978e+000 -2.1380e+001 -4.7693e-001 58711 79319,79146,79120
 1.0000e+000 79250 -5.9620e+000 -1.7885e+001  2.1713e-001 58711 79172,79224,79198
 1.0000e+000 79345 -7.2804e+000 -2.0729e+001 -9.1324e-001 58711 79224,79172,79319
 1.0000e+000 79368 -6.0849e+000 -2.0084e+001 -5.4003e-001 58711 79224,79319,79120
 1.0000e+000 79667  8.3254e-001  2.5946e+000  7.9743e-001 58285 79690,79471,79393
 1.0000e+000 79644  9.3357e-001  2.9734e+000  8.1886e-001 58285 79690,79393,79549
 1.0000e+000 79621  7.7566e-001 -2.7059e-001  1.3257e+000 58285 79393,79471,79419
 1.0000e+000 79598 -1.3993e+000 -4.6426e-003 -6.1835e-001 58285 79497,79549,79523
 1.0000e+000 79575 -7.6907e-001 -1.0913e+000  1.9452e+000 58285 79419,79471,79445
 1.0000e+000 79716  9.2607e-001  2.1694e+000  5.3358e-001 58285 79497,79471,79690
 1.0000e+000 79739  1.1650e+000  2.8351e+000  4.7787e-001 58285 79497,79690,79549
 1.0000e+000 80249 -5.1964e+000 -1.1302e+001 -2.5438e+000 57831 80272,79978,79952
 1.0000e+000 80226 -3.4662e+000 -1.1527e+001 -1.2515e+000 57831 80272,79952,80108
 1.0000e+000 80203 -1.2322e+000 -1.0827e+001 -1.0000e+000 57831 79926,80108,79952
 1.0000e+000 80180 -4.1192e+000 -1.3340e+001  5.1626e-001 57831 80004,80082,80030
 1.0000e+000 80157 -3.3142e+000 -1.0871e+001  5.5551e-001 57831 80004,80108,80082
 1.0000e+000 80134 -3.5008e+000 -1.0094e+001  1.3586e+000 57831 80030,80082,80056
 1.0000e+000 80298 -3.9983e+000 -9.0904e+000 -1.4313e+000 57831 80004,79978,80272
 1.0000e+000 80321 -2.5003e+000 -1.0890e+001 -4.9126e-001 57831 80004,80272,80108
 1.0000e+000 80618 -6.2640e+000 -5.6258e+000  1.0615e+000 57077 80344,80448,80422
 1.0000e+000 80595 -4.5881e+000 -4.2564e+000 -1.3815e-001 57077 80344,80500,80448
 1.0000e+000 80572 -7.1527e+000 -5.5657e+000  2.9076e+000 57077 80344,80422,80370
 1.0000e+000 80549 -7.2220e-001 -5.4900e+000  1.1314e+000 57077 80370,80422,80396
 1.0000e+000 80526 -1.8689e+000 -1.0959e+000 -1.2972e+000 57077 80448,80500,80474
 1.0000e+000 80768 -2.0313e+000 -1.9231e+000 -1.4977e+000 56787 80791,80693,80667
 1.0000e+000 80745 -1.4389e+000 -2.3800e+000 -2.2616e+000 56787 80791,80667,80641
 1.0000e+000 80817 -2.0685e+000 -2.2475e+000 -1.5612e+000 56787 80719,80693,80791
 1.0000e+000 80840 -2.7677e+000 -5.5777e+000 -2.4015e+000 56787 80719,80791,80641
 1.0000e+000 81429 -3.5153e+000 -5.1583e+000 -3.0715e+000 56497 81452,81158,81132
 1.0000e+000 81406 -2.1155e+000 -5.7006e+000 -3.4160e+000 56497 81452,81132,81288
 1.0000e+000 81383 -2.9865e+000 -5.4502e+000 -2.7723e+000 56497 81524,81184,81158
 1.0000e+000 81360 -1.1694e-001 -3.2933e+000 -6.6095e+000 56497 81210,81288,81236
 1.0000e+000 81337 -5.0503e+000 -5.9070e+000 -2.1434e+000 56497 81106,81288,81132
 1.0000e+000 81314 -9.3166e-001 -2.8166e+000 -6.5411e+000 56497 81236,81288,81262
 1.0000e+000 81478 -2.6493e+000 -4.9140e+000 -3.1605e+000 56497 81524,81158,81452
 1.0000e+000 81501 -5.3732e-001 -5.6837e+000 -3.0165e+000 56497 81210,81452,81288
 1.0000e+000 81550 -3.1001e+000 -6.0210e+000 -2.2540e+000 56497 81210,81184,81524
 1.0000e+000 81573 -2.7482e+000 -5.7638e+000 -2.6691e+000 56497 81210,81524,81452
 1.0000e+000 81870 -5.0372e+000 -9.3197e+000 -9.5827e-001 55979 81893,81674,81648
 1.0000e+000 81847 -4.1061e+000 -8.6929e+000 -2.2444e-001 55979 81893,81648,81752
 1.0000e+000 81824 -5.2809e+000 -6.0504e+000 -6.1510e-001 55979 81596,81752,81648
 1.0000e+000 81801 -3.9774e+000 -1.1080e+001  1.7864e+000 55979 81674,81726,81700
 1.0000e+000 81778 -4.4070e+000 -3.4546e+000 -2.8930e+000 55979 81596,81648,81622
 1.0000e+000 81919 -5.5095e+000 -8.5042e+000  6.8033e-004 55979 81726,81674,81893
 1.0000e+000 81942 -4.0342e+000 -7.4609e+000  8.1394e-001 55979 81726,81893,81752
 1.0000e+000 82371 -7.9612e+000 -9.7197e+000 -7.3088e-001 55631 82100,82204,82152
 1.0000e+000 82348 -6.1458e+000 -1.0667e+001 -1.1131e+000 55631 82100,82230,82204
 1.0000e+000 82325 -7.6632e+000 -9.2162e+000 -1.6030e+000 55631 82100,82152,82126
 1.0000e+000 82302 -5.9502e+000 -9.2905e+000  6.6048e-001 55631 82074,82230,82100
 1.0000e+000 82279 -7.1976e+000 -7.5007e+000 -1.8795e-001 55631 82152,82204,82178
 1.0000e+000 82256 -4.3029e+000 -1.5800e+000  1.4365e+000 55631 82048,82230,82074
 1.0000e+000 82521 -1.0344e+000 -6.0409e+000 -5.1263e-001 55227 82544,82420,82394
 1.0000e+000 82498 -9.2590e-001 -6.8174e+000 -4.5461e-001 55227 82544,82394,82472
 1.0000e+000 82570 -1.1459e+000 -5.5853e+000 -4.7282e-001 55227 82446,82420,82544
 1.0000e+000 82593 -7.7310e-001 -6.0520e+000 -2.0586e-001 55227 82446,82544,82472
 1.0000e+000 82875 -2.8172e+000 -1.3454e+001 -1.8802e+000 54979 82699,82777,82725
 1.0000e+000 82852 -5.8656e+000 -1.0581e+001 -1.1268e+000 54979 82699,82803,82777
 1.0000e+000 82829  4.0681e+000 -1.1884e+001 -1.4547e+000 54979 82725,82777,82751
 1.0000e+000 83204 -5.0819e+000 -5.4855e+000 -1.5547e+000 54475 83005,83083,83057
 1.0000e+000 83181 -4.1819e+000 -5.2242e+000 -1.5407e+000 54475 82979,83083,83005
 1.0000e+000 83158 -5.6465e+000 -9.5377e+000 -1.7036e+000 54475 83005,83057,83031
 1.0000e+000 83135 -3.7892e+000 -4.4524e+000  8.3657e-001 54475 82979,83109,83083
 1.0000e+000 83582 -5.4776e+000 -4.0252e+000 -3.6739e-001 54071 83605,83438,83412
 1.0000e+000 83559 -4.9490e+000 -3.9306e+000 -1.2307e+000 54071 83749,83605,83412
 1.0000e+000 83536 -5.4012e+000 -6.0986e+000 -2.4092e+000 54071 83677,83360,83334
 1.0000e+000 83513 -5.0690e+000 -3.9559e+000 -1.1886e+000 54071 83749,83412,83677
 1.0000e+000 83490 -3.2511e+000 -2.0936e+000 -6.3576e-001 54071 83308,83464,83334
 1.0000e+000 83631 -4.0302e+000 -3.4588e+000 -3.0642e-001 54071 83464,83438,83605
 1.0000e+000 83654 -4.5144e+000 -3.3500e+000 -1.2900e+000 54071 83464,83605,83334
 1.0000e+000 83703 -9.2478e+000 -5.0856e+000 -4.8933e+000 54071 83386,83360,83677
 1.0000e+000 83726 -6.6765e+000 -8.7357e-001 -3.0343e+000 54071 83386,83677,83412
 1.0000e+000 83775 -5.2716e+000 -3.7227e+000 -1.1577e+000 54071 83334,83605,83749
 1.0000e+000 83798 -5.4367e+000 -3.7956e+000 -1.1010e+000 54071 83334,83749,83677
 1.0000e+000 84068 -5.3668e-001 -3.8062e+000 -4.5500e-002 53524 83869,83921,83895
 1.0000e+000 84045  3.1356e-001 -4.1359e+000 -5.0586e-002 53524 83869,83947,83921
 1.0000e+000 84022  2.2787e+000 -2.2039e+000  7.2998e-001 53524 83843,83947,83869
 1.0000e+000 83999 -1.6897e+000 -3.3194e+000  1.0448e+000 53524 83843,83973,83947
 1.0000e+000 84497 -6.8482e+000 -1.4098e+001 -1.2638e+000 53184 84200,84330,84252
 1.0000e+000 84474 -5.4955e+000 -1.0067e+001 -6.0767e-001 53184 84200,84356,84330
 1.0000e+000 84451 -3.8793e+000 -1.3992e+001  1.3611e-001 53184 84200,84252,84226
 1.0000e+000 84428 -5.4978e+000 -1.2496e+001 -2.5191e+000 53184 84252,84330,84278
 1.0000e+000 84405 -4.5137e+000 -1.0633e+001  1.4321e+000 53184 84174,84356,84200
 1.0000e+000 84382 -5.7619e+000 -1.2287e+001 -4.0946e+000 53184 84278,84330,84304
 1.0000e+000 84954 -8.3392e+000 -1.5249e+001  6.2790e-001 52680 84706,84836,84784
 1.0000e+000 84931 -8.1724e+000 -1.4340e+001 -1.7593e+000 52680 84680,84836,84706
 1.0000e+000 84908 -8.0630e+000 -2.1811e+001 -8.2950e-001 52680 84784,84836,84810
 1.0000e+000 84885 -1.1818e+001 -2.2155e+001  1.8306e+000 52680 84706,84784,84732
 1.0000e+000 84862 -8.5205e+000 -2.0510e+001  1.2767e+000 52680 84732,84784,84758
 1.0000e+000 85202 -4.1125e+000 -5.8964e+000 -1.2502e+000 52226 85029,85081,85055
 1.0000e+000 85179 -5.0883e+000 -6.9249e+000 -1.6569e+000 52226 85225,85081,85029
 1.0000e+000 85156 -4.9868e+000 -6.7141e+000 -1.9017e+000 52226 85225,85029,85003
 1.0000e+000 85133 -6.9714e-001 -5.6587e+000 -1.7193e+000 52226 84977,85107,85003
 1.0000e+000 85251 -5.0391e+000 -6.9045e+000 -2.0254e+000 52226 85107,85081,85225
 1.0000e+000 85274 -4.2879e+000 -5.9903e+000 -2.4039e+000 52226 85107,85225,85003
 1.0000e+000 85522 -6.3167e-001 -3.1796e+000  9.0178e-001 51764 85297,85349,85323
 1.0000e+000 85499 -3.3208e-001 -3.3768e+000 -6.3246e-001 51764 85545,85297,85427
 1.0000e+000 85476 -6.6255e-001 -4.5591e+000 -7.5536e-001 51764 85545,85427,85375
 1.0000e+000 85453 -1.7226e+000 -6.1966e+000 -1.9649e-001 51764 85375,85427,85401
 1.0000e+000 85571  4.8135e-001 -4.1212e+000  2.2656e-001 51764 85349,85297,85545
 1.0000e+000 85594 -1.2687e-001 -5.7547e+000  7.6190e-002 51764 85349,85545,85375
 1.0000e+000 85746 -6.6184e-001 -4.8176e+000 -1.1188e+000 51374 85645,85697,85671
 1.0000e+000 85723 -6.2283e-001 -7.7404e+000  1.1664e-001 51374 85619,85697,85645
 1.0000e+000 86256 -2.2723e+000 -6.0866e+000 -8.5631e-001 50970 86279,86011,85959
 1.0000e+000 86233 -2.8046e+000 -9.6797e+000  4.8118e-002 50970 86279,85959,86115
 1.0000e+000 86210 -2.1239e+000 -5.1838e+000  9.3103e-001 50970 85959,86011,85985
 1.0000e+000 86187 -4.3473e+000 -4.7077e+000  1.2025e-001 50970 86037,86115,86089
 1.0000e+000 86164 -7.9061e+000 -1.1687e+001  1.5933e+000 50970 85933,86115,85959
 1.0000e+000 86141 -2.1699e+000 -9.6418e-001  1.0872e+000 50970 86037,86089,86063
 1.0000e+000 86305 -3.9474e+000 -1.7499e+000 -7.3150e-001 50970 86037,86011,86279
 1.0000e+000 86328 -4.7584e+000 -5.6683e+000  2.4698e-001 50970 86037,86279,86115
 1.0000e+000 86478 -2.6940e+000 -2.0031e+001  1.1061e-001 50451 86351,86403,86377
 1.0000e+000 86455 -5.7147e-001 -2.9014e+001 -3.1587e+000 50451 86351,86429,86403
 1.0000e+000 86907 -2.6679e+000 -6.5528e+000  9.7365e-001 50047 86930,86714,86662
 1.0000e+000 86884 -6.2560e+000 -4.0809e+000  6.5948e-001 50047 86930,86662,86610
 1.0000e+000 86861 -2.1907e+000 -1.5822e+000  4.9909e-001 50047 87002,86740,86714
 1.0000e+000 86838 -1.9658e+000 -6.1239e+000 -1.2704e-001 50047 86662,86714,86688
 1.0000e+000 86815 -4.8156e+000 -1.4032e+000 -1.8022e-001 50047 86610,86662,86636
 1.0000e+000 86792 -2.6818e+000 -1.0349e+000  1.4662e-001 50047 86584,86766,86610
 1.0000e+000 86956 -3.0210e+000 -4.8959e+000  6.0664e-001 50047 87002,86714,86930
 1.0000e+000 86979 -2.4160e+000 -1.0373e+000 -6.7158e-001 50047 86766,86930,86610
 1.0000e+000 87028 -2.2610e+000 -4.9238e+000  1.7520e+000 50047 86766,86740,87002
 1.0000e+000 87051 -2.2611e+000 -5.2237e+000  1.6582e+000 50047 86766,87002,86930
 1.0000e+000 87250 -8.0297e+000 -1.1565e+001 -2.0547e+000 49543 87273,87126,87100
 1.0000e+000 87227 -6.1787e+000 -9.0501e+000 -5.7091e-001 49543 87273,87100,87074
 1.0000e+000 87204 -8.8161e+000 -5.6770e+000  1.1495e-002 49543 87126,87178,87152
 1.0000e+000 87299 -8.8827e+000 -8.1378e+000 -1.1288e-001 49543 87178,87126,87273
 1.0000e+000 87322 -6.9597e+000 -6.7155e+000  1.5142e+000 49543 87178,87273,87074
 1.0000e+000 87570 -7.3385e+000 -6.7123e+000 -1.7618e+000 49146 87593,87449,87397
 1.0000e+000 87547 -6.9875e+000 -6.1215e+000 -2.2262e+000 49146 87593,87397,87371
 1.0000e+000 87524 -7.2506e+000 -3.9001e+000 -1.9321e+000 49146 87345,87475,87371
 1.0000e+000 87501 -7.3070e+000 -3.8426e+000 -8.1573e-001 49146 87397,87449,87423
 1.0000e+000 87619 -6.7498e+000 -6.2556e+000 -2.1209e+000 49146 87475,87449,87593
 1.0000e+000 87642 -6.7687e+000 -5.9945e+000 -2.5357e+000 49146 87475,87593,87371
 1.0000e+000 88073 -8.1893e+000 -1.2846e+001 -1.0266e+000 48706 87854,87932,87880
 1.0000e+000 88050 -9.7860e+000 -1.8553e+001 -1.2200e+000 48706 87828,87932,87854
 1.0000e+000 88027 -8.0540e+000 -1.4442e+001 -6.1582e-001 48706 87750,87932,87828
 1.0000e+000 88004 -4.9617e+000 -2.3780e+001  1.3071e+000 48706 87750,87802,87776
 1.0000e+000 87981 -1.0772e+001 -2.5223e+001 -2.3855e+000 48706 87750,87828,87802
 1.0000e+000 87958 -7.2233e+000 -1.1860e+001 -2.0486e+000 48706 87880,87932,87906
 1.0000e+000 88402 -2.8703e+000 -1.9921e+000 -6.1563e-001 48145 88203,88281,88255
 1.0000e+000 88379 -3.1226e+000 -1.9018e+000  9.6155e-002 48145 88203,88307,88281
 1.0000e+000 88356 -4.2792e+000 -1.7942e+000 -3.1236e-001 48145 88203,88255,88229
 1.0000e+000 88333 -6.0564e+000 -9.2697e+000 -1.7061e-001 48145 88177,88307,88203
 1.0000e+000 88601  4.3932e+000 -2.6143e+000  4.6079e+000 47805 88696,88624,88477
 1.0000e+000 88578 -1.3686e+000 -2.6849e+000  2.6590e+000 47805 88826,88624,88451
 1.0000e+000 88555 -3.2533e+000 -4.4184e+000  6.8840e-001 47805 88826,88451,88425
 1.0000e+000 88650  3.6972e+000 -3.0814e+000 -4.2190e-001 47805 88503,88477,88624
 1.0000e+000 88673 -4.6142e+000 -5.0761e+000 -5.8011e-001 47805 88503,88624,88529
 1.0000e+000 88722  1.6393e+000 -4.3934e+000  3.8096e+000 47805 88451,88624,88696
 1.0000e+000 88852 -1.5380e+000 -5.9150e+000 -4.3332e-002 47805 88529,88624,88826
 1.0000e+000 88875 -3.4808e+000 -7.4411e+000 -2.0328e+000 47805 88529,88826,88425
 1.0000e+000 89172 -4.6920e+000 -6.8067e+000 -1.6747e+000 47401 89195,88976,88898
 1.0000e+000 89149 -4.6689e+000 -6.7068e+000 -2.2841e+000 47401 89195,88898,89054
 1.0000e+000 89126 -3.9173e+000 -7.5494e+000 -1.5452e+000 47401 88898,88976,88950
 1.0000e+000 89103 -3.1693e+000 -6.2035e+000 -7.6358e-001 47401 88976,89028,89002
 1.0000e+000 89080 -2.6214e+000 -4.2500e+000 -1.0847e+000 47401 88898,88950,88924
 1.0000e+000 89221 -5.0592e+000 -7.5315e+000 -1.5152e+000 47401 89028,88976,89195
 1.0000e+000 89244 -4.8413e+000 -7.2167e+000 -2.1786e+000 47401 89028,89195,89054
 1.0000e+000 89575 -1.5686e+000 -3.4125e+000 -1.1596e+000 47111 89350,89454,89376
 1.0000e+000 89552 -3.1017e+000 -8.2403e+000  1.2812e+000 47111 89350,89480,89454
 1.0000e+000 89529 -3.7814e+000 -2.1463e+000  6.1414e-001 47111 89376,89454,89402
 1.0000e+000 89506 -3.8543e+000 -2.1667e+000  4.5418e-001 47111 89402,89454,89428
 1.0000e+000 89904 -1.2910e+001 -1.4929e+001 -1.6739e+000 46707 89705,89757,89731
 1.0000e+000 89881 -6.7484e+000 -1.3851e+001 -1.6347e+000 46707 89705,89783,89757
 1.0000e+000 89858 -7.6317e+000 -1.3219e+001  1.0906e+000 46707 89679,89783,89705
 1.0000e+000 89835 -2.9479e+000 -1.2586e+001 -1.3738e+000 46707 89679,89809,89783
 1.0000e+000 90233 -5.6584e+000 -1.1254e+001 -2.7378e+000 46360 90034,90112,90086
 1.0000e+000 90210 -1.2886e+001 -1.0286e+001  3.1237e-002 46360 90034,90138,90112
 1.0000e+000 90187 -1.5342e+001 -1.7977e+001  4.0252e-001 46360 90034,90086,90060
 1.0000e+000 90164 -1.5738e+001 -1.2408e+001 -2.7219e+000 46360 90008,90138,90034
 1.0000e+000 90530 -3.4082e+000 -5.7614e+000 -7.5579e-001 45662 90256,90360,90308
 1.0000e+000 90507 -1.2754e+000 -4.9654e+000 -9.8166e-001 45662 90256,90412,90360
 1.0000e+000 90484  5.6384e-001 -4.6258e+000 -3.0156e+000 45662 90256,90308,90282
 1.0000e+000 90461 -1.6694e+000 -3.3272e+000  7.2891e-001 45662 90360,90412,90386
 1.0000e+000 90438 -1.7691e+000 -4.6497e+000 -2.7236e-001 45662 90308,90360,90334
 1.0000e+000 90910 -9.7157e+000 -1.0905e+001 -2.7617e+000 45108 90688,90766,90714
 1.0000e+000 90887 -1.1725e+001 -1.6230e+001 -3.1885e+000 45108 90662,90766,90688
 1.0000e+000 90864 -1.7461e+001 -1.0573e+001 -2.4770e-001 45108 90636,90766,90662
 1.0000e+000 90841 -9.0426e+000 -3.2368e+000 -2.1408e+000 45108 90714,90766,90740
 1.0000e+000 90818 -1.1627e+001 -5.2090e+000 -2.6560e+000 45108 90636,90792,90766
 1.0000e+000 91158 -7.4020e+000 -4.4786e+000  2.5155e-001 44604 91181,91011,90959
 1.0000e+000 91135 -9.6851e+000 -4.3730e+000  1.0492e+000 44604 91181,90959,90933
 1.0000e+000 91112 -5.9645e+000 -3.6945e+000 -6.1080e-002 44604 90959,91011,90985
 1.0000e+000 91089 -6.9822e+000 -2.3066e+000 -1.0056e-001 44604 90933,91063,91037
 1.0000e+000 91207 -6.4103e+000 -4.4140e+000 -3.7624e-001 44604 91037,91011,91181
 1.0000e+000 91230 -7.7791e+000 -2.6076e+000 -1.7400e-001 44604 91037,91181,90933
 1.0000e+000 91429 -3.4719e+000 -1.8676e+000 -9.1914e-001 44264 91452,91279,91253
 1.0000e+000 91406 -2.8461e+000 -8.8936e-001 -1.1938e+000 44264 91452,91253,91357
 1.0000e+000 91383 -4.2707e+000 -3.8229e+000 -1.0297e+000 44264 91279,91331,91305
 1.0000e+000 91478 -2.7181e+000 -3.0172e+000 -7.3583e-001 44264 91331,91279,91452
 1.0000e+000 91501 -1.9429e+000 -2.0932e+000 -1.0998e+000 44264 91331,91452,91357
 1.0000e+000 92060 -5.6629e+000 -9.9939e+000  5.9832e-001 43860 92083,91740,91688
 1.0000e+000 92037 -1.0196e+001 -1.1423e+001  6.3191e-001 43860 92083,91688,91896
 1.0000e+000 92014 -1.2058e+001 -1.1624e+001 -3.5508e+000 43860 91766,91870,91844
 1.0000e+000 91991 -6.6239e+000 -6.2108e+000 -9.9128e-001 43860 91740,91870,91766
 1.0000e+000 91968 -4.0156e+000 -5.5429e+000 -1.9980e-001 43860 91766,91844,91792
 1.0000e+000 91945 -5.5362e+000 -4.9899e+000  2.3244e+000 43860 91688,91740,91714
 1.0000e+000 91922 -1.1084e+001 -8.8883e+000 -2.1384e+000 43860 91792,91844,91818
 1.0000e+000 92109 -9.8554e+000 -8.2254e+000 -1.8551e+000 43860 91870,91740,92083
 1.0000e+000 92132 -1.4229e+001 -9.6803e+000 -2.0621e+000 43860 91870,92083,91896
 1.0000e+000 92353 -1.5950e+001 -1.8199e+001  3.9656e+000 43662 92203,92255,92229
 1.0000e+000 92330 -1.0099e+001 -2.0462e+001  3.5340e-001 43662 92376,92203,92281
 1.0000e+000 92307 -8.0534e+000 -1.4580e+001  1.2658e+000 43662 92177,92281,92203
 1.0000e+000 92402 -1.0301e+001 -2.0479e+001  3.0742e+000 43662 92255,92203,92376
 1.0000e+000 92682 -3.3289e+000 -4.4602e+000 -1.2022e+000 43464 92532,92584,92558
 1.0000e+000 92659 -4.9010e+000 -4.0577e+000 -1.1540e+000 43464 92506,92584,92532
 1.0000e+000 92636  2.4437e-001 -1.5253e+000 -1.9608e+000 43464 92506,92610,92584
 1.0000e+000 93013 -9.2898e+000 -1.7237e+001  2.0678e+000 42960 92866,92918,92892
 1.0000e+000 92990 -7.1791e+000 -1.7562e+001  1.3785e-001 42960 93036,92918,92866
 1.0000e+000 92967 -7.0608e+000 -2.2178e+001  2.6605e+000 42960 93036,92866,92840
 1.0000e+000 92944 -8.9859e+000 -1.0764e+001 -1.1669e+000 42960 92788,92918,92814
 1.0000e+000 93062 -7.5233e+000 -1.2107e+001 -1.6570e+000 42960 92814,92918,93036
 1.0000e+000 93085 -9.8145e+000 -1.6918e+001  2.4606e+000 42960 92814,93036,92840
 1.0000e+000 93186 -1.8760e+000 -5.6927e+000 -2.4983e+000 42556 93108,93160,93134
 1.0000e+000 93554 -2.8673e+000 -3.4463e+000 -8.8243e-001 42052 93231,93387,93361
 1.0000e+000 93531 -1.0633e+000 -2.3999e+000 -3.0141e-001 42052 93231,93413,93387
 1.0000e+000 93508 -3.6093e+000 -3.7889e+000 -6.5447e-001 42052 93231,93361,93257
 1.0000e+000 93485 -3.7935e+000 -4.6067e+000  5.5135e-002 42052 93283,93361,93335
 1.0000e+000 93462 -4.8963e+000 -4.1931e+000 -6.2749e-001 42052 93257,93361,93283
 1.0000e+000 93439 -3.2186e+000 -4.3526e+000  5.0920e-003 42052 93283,93335,93309
 1.0000e+000 94162 -5.0626e+000 -4.9537e+000  2.0978e-001 41498 93767,93975,93793
 1.0000e+000 94139 -3.6699e+000 -4.2859e+000  6.9422e-001 41498 93741,93975,93767
 1.0000e+000 94116 -5.0448e+000 -3.9690e+000  5.0750e-001 41498 93793,93975,93923
 1.0000e+000 94093 -4.7345e+000 -3.2604e+000  8.4347e-001 41498 93923,93975,93949
 1.0000e+000 94070 -4.8673e+000 -5.1864e+000  7.3095e-001 41498 93871,93923,93897
 1.0000e+000 94047 -5.7572e+000 -4.2824e+000  5.8232e-001 41498 93793,93923,93871
 1.0000e+000 94024 -3.5044e+000 -3.8248e+000  1.9657e+000 41498 93819,93871,93845
 1.0000e+000 94001 -6.4041e+000 -4.2549e+000  1.0017e+000 41498 93793,93871,93819
 1.0000e+000 94619 -1.5512e+000 -5.7836e+000 -1.2742e+000 40930 94642,94423,94371
 1.0000e+000 94596 -1.8507e+000 -6.3812e+000 -3.2431e-002 40930 94642,94371,94345
 1.0000e+000 94573 -2.0521e+000 -5.9248e+000 -6.1599e-001 40930 94345,94501,94475
 1.0000e+000 94550  3.3395e+000 -1.9364e+000 -3.1989e+000 40930 94371,94423,94397
 1.0000e+000 94527 -2.0409e+000 -2.0379e+000 -3.5255e-001 40930 94423,94475,94449
 1.0000e+000 94668 -1.0376e+000 -3.5971e+000 -1.9495e+000 40930 94475,94423,94642
 1.0000e+000 94691 -1.5624e+000 -5.2188e+000 -8.3020e-001 40930 94475,94642,94345
 1.0000e+000 95148 -2.6650e+000 -7.1715e+000  5.9038e-001 40362 95171,94952,94926
 1.0000e+000 95125 -5.3926e+000 -8.4284e+000  1.6155e-001 40362 95171,94926,95004
 1.0000e+000 95102 -1.7830e+000 -7.8105e+000  6.8103e-001 40362 94874,95004,94926
 1.0000e+000 95079 -6.0287e+000 -8.6993e+000 -5.2471e-001 40362 94874,95030,95004
 1.0000e+000 95056 -4.7952e+000 -1.3903e+001  1.8566e+000 40362 94874,94926,94900
 1.0000e+000 95197 -5.0306e+000 -7.1256e+000 -8.7117e-001 40362 94978,94952,95171
 1.0000e+000 95220 -7.2104e+000 -8.1392e+000 -1.3097e+000 40362 94978,95171,95004
 1.0000e+000 95549 -4.7054e+000 -4.5563e+000 -5.8469e-001 39586 95350,95402,95376
 1.0000e+000 95526 -3.8466e+000 -4.4565e+000 -5.7492e-001 39586 95324,95402,95350
 1.0000e+000 95503 -3.4081e+000 -2.5899e+000 -1.4638e-001 39586 95324,95454,95402
 1.0000e+000 95480 -3.0109e+000 -2.7216e+000  4.0796e-002 39586 95402,95454,95428
 1.0000e+000 96055 -4.8458e+000 -5.1958e+000  4.6931e-001 38968 96078,95862,95810
 1.0000e+000 96032 -5.0057e+000 -4.2410e+000  4.5719e-001 38968 96078,95810,95758
 1.0000e+000 96009 -5.3813e+000 -3.4234e+000  4.5517e-001 38968 96150,95732,95888
 1.0000e+000 95986 -3.9858e+000 -4.4341e+000  1.0574e+000 38968 95810,95862,95836
 1.0000e+000 95963 -5.1877e+000 -2.2470e+000 -1.0971e+000 38968 95732,95914,95888
 1.0000e+000 95940 -5.0243e+000 -4.3951e+000  4.2706e-001 38968 95758,95810,95784
 1.0000e+000 96104 -3.9946e+000 -4.3367e+000 -4.1410e-003 38968 95888,95862,96078
 1.0000e+000 96127 -4.9539e+000 -3.5822e+000  2.9050e-002 38968 96150,95888,96078
 1.0000e+000 96176 -5.9841e+000 -4.1231e+000  7.4841e-001 38968 95758,95732,96150
 1.0000e+000 96199 -5.5480e+000 -4.4005e+000  3.3939e-001 38968 95758,96150,96078
 1.0000e+000 96545 -1.0891e+001 -1.0413e+001  2.6800e-002 38507 96640,96568,96352
 1.0000e+000 96522 -1.1742e+001 -1.1307e+001 -6.3782e-001 38507 96568,96300,96222
 1.0000e+000 96499 -1.3147e+001 -1.0690e+001 -1.4389e+000 38507 96640,96352,96326
 1.0000e+000 96476 -9.9047e+000 -4.6036e+000  2.8192e+000 38507 96352,96404,96378
 1.0000e+000 96453 -1.5433e+001 -1.1038e+001 -3.3449e+000 38507 96222,96300,96248
 1.0000e+000 96430 -1.1403e+001 -1.3505e+001 -8.0843e+000 38507 96248,96300,96274
 1.0000e+000 96594 -9.7425e+000 -1.0745e+001  4.1344e-002 38507 96404,96352,96568
 1.0000e+000 96617 -1.0672e+001 -7.6871e+000 -8.3866e-001 38507 96404,96568,96222
 1.0000e+000 96666 -1.1853e+001 -1.3238e+001 -2.0338e+000 38507 96300,96568,96640
 1.0000e+000 96689 -1.2700e+001 -1.2984e+001 -3.3967e+000 38507 96300,96640,96326
 1.0000e+000 97069 -7.6273e+000 -4.6620e+000 -3.6210e-001 37760 97092,96873,96821
 1.0000e+000 97046 -7.6080e+000 -4.5832e+000 -1.0674e+000 37760 97092,96821,96795
 1.0000e+000 97023 -3.7591e+000 -4.9279e+000 -7.7805e-001 37760 96821,96873,96847
 1.0000e+000 97000 -1.5260e+001 -1.0041e+000 -3.5796e+000 37760 96873,96925,96899
 1.0000e+000 96977 -8.5167e+000 -4.8806e+000 -3.8861e-001 37760 96795,96951,96925
 1.0000e+000 97118 -7.9799e+000 -5.3893e+000 -2.0924e-001 37760 96925,96873,97092
 1.0000e+000 97141 -7.7706e+000 -5.1960e+000 -9.9053e-001 37760 96925,97092,96795
 1.0000e+000 97647 -6.4027e+000 -7.7524e+000 -2.2884e+000 37356 97324,97480,97376
 1.0000e+000 97624 -1.2483e+001 -1.0153e+001 -2.2768e+000 37356 97324,97506,97480
 1.0000e+000 97601 -1.0616e+001 -6.8895e+000 -3.0281e+000 37356 97376,97480,97454
 1.0000e+000 97578 -8.6767e+000 -3.1274e+000  1.0003e+000 37356 97324,97376,97350
 1.0000e+000 97555 -6.4933e+000 -4.1137e+000 -8.2590e-001 37356 97376,97454,97402
 1.0000e+000 97532 -1.4380e+001 -8.5487e+000 -3.5830e+000 37356 97402,97454,97428
 1.0000e+000 98232 -3.0549e+000 -3.1427e+000 -3.1664e+000 36902 97935,98065,98013
 1.0000e+000 98209 -9.6469e-001 -3.7837e+000 -4.4759e+000 36902 97935,98091,98065
 1.0000e+000 98186  2.8431e+000 -5.2702e-001 -4.0124e+000 36902 97935,98013,97987
 1.0000e+000 98163  3.2875e+000 -1.5854e+000 -2.7492e+000 36902 97909,98091,97935
 1.0000e+000 98140  4.1492e+000  2.3434e-001 -5.0076e+000 36902 97935,97987,97961
 1.0000e+000 98117 -2.8576e+000 -2.2519e+000 -3.5618e+000 36902 98013,98065,98039
 1.0000e+000 98659 -1.1890e+001 -3.0577e+000  1.5053e+000 36604 98682,98414,98388
 1.0000e+000 98636 -9.2767e+000 -2.3205e+000 -1.1499e-001 36604 98682,98388,98336
 1.0000e+000 98613 -9.3062e+000 -4.4541e+000  1.7452e+000 36604 98754,98518,98466
 1.0000e+000 98590 -1.7215e+001 -9.0381e+000  1.1327e+000 36604 98414,98466,98440
 1.0000e+000 98567 -1.7169e+001 -1.3857e+000 -2.6606e+000 36604 98336,98388,98362
 1.0000e+000 98544 -9.3557e+000 -8.4117e+000  5.3426e+000 36604 98466,98518,98492
 1.0000e+000 98708 -1.1869e+001 -4.4053e+000  3.1175e+000 36604 98466,98414,98682
 1.0000e+000 98731 -9.9643e+000 -3.1326e+000  1.8117e+000 36604 98754,98466,98682
 1.0000e+000 98780 -9.7317e+000 -4.9556e+000  1.5568e+000 36604 98336,98518,98754
 1.0000e+000 98803 -1.1116e+001 -4.4092e+000  1.3272e+000 36604 98336,98754,98682
 1.0000e+000 99309 -4.5796e+000 -6.8161e+000  1.9454e-001 36200 99332,99116,99012
 1.0000e+000 99286 -4.5259e+000 -6.7057e+000  1.4366e-001 36200 99332,99012,98986
 1.0000e+000 99263 -4.1820e+000 -6.5639e+000 -8.3576e-002 36200 99012,99116,99064
 1.0000e+000 99240 -3.8236e+000 -5.1895e+000 -1.2163e-003 36200 98986,99168,99142
 1.0000e+000 99217 -4.3457e+000 -6.8792e+000  6.5399e-002 36200 99064,99116,99090
 1.0000e+000 99194 -4.7697e+000 -6.5425e+000 -5.1535e-001 36200 99012,99064,99038
 1.0000e+000 99358 -4.5775e+000 -6.9073e+000  2.5973e-001 36200 99142,99116,99332
 1.0000e+000 99381 -4.5145e+000 -6.8201e+000  2.0060e-001 36200 99142,99332,98986
 1.0000e+000 99887 -1.0479e+001 -1.0575e+001  1.8364e+000 35488 99564,99720,99590
 1.0000e+000 99864 -8.6364e+000 -6.6206e+000  2.7743e+000 35488 99564,99746,99720
 1.0000e+000 99841 -8.3840e+000 -1.0754e+001 -6.1503e-001 35488 99642,99694,99668
 1.0000e+000 99818 -7.8095e+000 -1.1544e+001  1.0242e+000 35488 99590,99694,99642
 1.0000e+000 99795 -7.4153e+000 -8.6578e+000  1.0158e+000 35488 99590,99720,99694
 1.0000e+000 99772 -4.0783e+000 -1.4543e+001  1.7582e+000 35488 99590,99642,99616
 1.0000e+000 99988 -3.7033e+000 -5.2077e+000  1.8248e-001 35198 99910,99962,99936
 1.0000e+000 100138 -1.0969e+001 -3.2324e+000  3.0750e+000 34794 100233,100161,100063
 1.0000e+000 100115 -3.4135e+000  8.6786e-002  1.3012e+000 34794 100365,100161,100037
 1.0000e+000 100187 -1.4565e+001 -1.1168e+000  3.2015e+000 34794 100089,100063,100161
 1.0000e+000 100210 -1.1121e+001 -1.4956e+000  2.4952e+000 34794 100089,100161,100011
 1.0000e+000 100259 -1.0255e+001 -7.9803e-001  1.9209e+000 34794 100037,100161,100233
 1.0000e+000 100391 -1.0599e+001 -1.0346e+000  1.5661e+000 34794 100011,100161,100365
 1.0000e+000 100927 -5.2117e+000 -7.8875e+000  4.4322e-001 34404 100679,100809,100783
 1.0000e+000 100904 -2.7648e+000 -5.9823e+000  1.2779e+000 34404 100653,100809,100679
 1.0000e+000 100881 -5.5916e+000 -9.1857e+000 -1.0801e-001 34404 100705,100783,100731
 1.0000e+000 100858 -5.2677e+000 -7.9579e+000  5.3830e-001 34404 100679,100783,100705
 1.0000e+000 100835 -4.7087e+000 -8.6023e+000  7.5899e-001 34404 100731,100783,100757
 1.0000e+000 101354 -1.9814e+000 -5.0306e+000  8.4862e-001 34000 101377,101109,101057
 1.0000e+000 101331 -5.9548e+000 -6.6502e+000  5.5890e-001 34000 101449,101377,101057
 1.0000e+000 101308 -6.5646e+000 -5.9322e+000  4.6749e-001 34000 101449,101057,101031
 1.0000e+000 101285 -1.1622e+001 -8.3017e+000 -6.8425e+000 34000 101031,101213,101187
 1.0000e+000 101262 -8.1383e+000 -1.1152e+001 -3.7515e+000 34000 101135,101187,101161
 1.0000e+000 101239 -1.4260e+000 -9.3438e-001 -2.5459e-001 34000 101057,101109,101083
 1.0000e+000 101403 -3.8591e+000 -3.6313e+000 -2.7565e+000 34000 101135,101109,101377
 1.0000e+000 101426 -9.0556e+000 -5.9009e+000 -2.4544e+000 34000 101135,101377,101187
 1.0000e+000 101475 -4.7789e+000 -5.9318e+000  1.3898e-001 34000 101187,101377,101449
 1.0000e+000 101498 -5.7363e+000 -5.6271e+000  2.5425e-001 34000 101187,101449,101031
 1.0000e+000 102083 -5.6819e+000 -7.8626e+000  2.4215e-001 33472 102106,101812,101786
 1.0000e+000 102060 -5.5054e+000 -7.8230e+000  2.9054e-001 33472 102106,101786,101916
 1.0000e+000 102037 -5.5178e+000 -8.6393e+000 -3.3110e-001 33472 101812,101864,101838
 1.0000e+000 102014 -5.6090e+000 -7.3037e+000  3.3257e-001 33472 101864,101916,101890
 1.0000e+000 101991 -5.1509e+000 -6.0981e+000  6.8533e-001 33472 101786,101942,101916
 1.0000e+000 101968 -4.7699e+000 -5.3878e+000  4.7379e-001 33472 101760,101942,101786
 1.0000e+000 102132 -5.5654e+000 -7.8068e+000  3.0700e-001 33472 101864,101812,102106
 1.0000e+000 102155 -5.4840e+000 -7.8072e+000  3.6030e-001 33472 101864,102106,101916
 1.0000e+000 102612 -6.8709e+000 -6.6160e+000 -2.4006e+000 33038 102635,102468,102390
 1.0000e+000 102589 -3.2059e+000 -2.5627e+000  8.4860e-001 33038 102635,102390,102364
 1.0000e+000 102566 -3.4992e+000 -5.3864e+000 -1.7446e+000 33038 102390,102468,102442
 1.0000e+000 102543 -6.8033e+000 -7.9391e+000 -1.3031e+000 33038 102338,102494,102364
 1.0000e+000 102520 -3.7918e+000 -5.1281e+000 -1.0496e+000 33038 102390,102442,102416
 1.0000e+000 102661 -7.7837e+000 -7.8104e+000 -4.3844e+000 33038 102494,102468,102635
 1.0000e+000 102684 -7.8181e+000 -6.0732e+000 -1.6296e+000 33038 102494,102635,102364
 1.0000e+000 103318 -4.2240e+000 -6.7071e+000  3.1297e-001 32402 102972,103128,103076
 1.0000e+000 103295 -3.4139e+000 -5.6702e+000  7.3180e-001 32402 102946,103128,102972
 1.0000e+000 103272 -3.9835e+000 -6.3798e+000  7.5215e-001 32402 103076,103128,103102
 1.0000e+000 103249 -3.9655e+000 -5.9136e+000  6.3036e-001 32402 102946,103154,103128
 1.0000e+000 103226 -3.2399e+000 -5.9652e+000 -8.0479e-002 32402 102972,103076,102998
 1.0000e+000 103203 -2.4469e+000 -6.6637e+000 -7.0574e-001 32402 102998,103076,103050
 1.0000e+000 103180 -4.2049e+000 -9.8591e+000  4.6030e-001 32402 102998,103050,103024
 1.0000e+000 103696 -2.0540e+000 -6.5761e+000 -1.6251e+000 31924 103448,103526,103500
 1.0000e+000 103673 -5.9977e+000 -8.8368e+000 -4.0176e+000 31924 103448,103578,103526
 1.0000e+000 103650 -5.5844e+000 -5.6785e+000 -6.8508e-001 31924 103448,103500,103474
 1.0000e+000 103627 -8.5204e+000 -7.0125e+000 -4.6817e+000 31924 103422,103578,103448
 1.0000e+000 103604  1.9300e+000 -1.3868e+001 -4.3869e+000 31924 103526,103578,103552
 1.0000e+000 104281 -4.2804e+000 -6.8564e+000  2.2659e-001 31520 104304,104062,104036
 1.0000e+000 104258 -4.6665e+000 -6.4915e+000  2.8297e-001 31520 104304,104036,103984
 1.0000e+000 104235 -4.1556e+000 -6.7324e+000  3.2516e-002 31520 104062,104114,104088
 1.0000e+000 104212 -3.7288e+000 -5.9816e+000  3.5744e-002 31520 103958,104114,103984
 1.0000e+000 104189 -5.3855e+000 -8.1629e+000  4.6120e-001 31520 103984,104036,104010
 1.0000e+000 104166 -3.6413e+000 -5.6045e+000 -1.2573e-002 31520 103958,104140,104114
 1.0000e+000 104330 -4.0626e+000 -6.5897e+000  7.4308e-002 31520 104114,104062,104304
 1.0000e+000 104353 -4.3904e+000 -6.2938e+000  1.7342e-001 31520 104114,104304,103984
 1.0000e+000 104704 -5.1644e+000 -6.3455e+000 -7.1760e-002 31066 104479,104583,104505
 1.0000e+000 104681 -3.9238e+000 -5.5437e+000 -4.2080e-001 31066 104479,104609,104583
 1.0000e+000 104658 -4.5897e+000 -7.5808e+000  2.3389e-001 31066 104505,104557,104531
 1.0000e+000 104635 -4.1217e+000 -6.2227e+000 -8.0157e-002 31066 104505,104583,104557
 1.0000e+000 104925 -1.9211e+001 -1.0916e+001  4.3319e-001 30754 104775,104827,104801
 1.0000e+000 104902 -1.6267e+001 -1.3538e+001 -8.3696e-001 30754 104775,104853,104827
 1.0000e+000 104879 -2.1743e+001 -1.5950e+001 -1.7710e+000 30754 104749,104853,104775
 1.0000e+000 105482 -1.5212e+001 -1.4248e+001  2.2063e+000 30164 105505,105136,105110
 1.0000e+000 105459 -1.4320e+001 -9.5611e+000  4.2002e-001 30164 105649,105505,105110
 1.0000e+000 105436 -2.0436e+001 -1.9281e+001  2.8669e+000 30164 105577,105188,105136
 1.0000e+000 105413 -1.0174e+001 -7.1095e+000 -3.9889e+000 30164 105649,105110,105318
 1.0000e+000 105390 -1.4143e+001 -2.0786e+001  2.5859e+000 30164 105214,105292,105240
 1.0000e+000 105367 -1.4824e+001 -2.0074e+001  1.9677e+000 30164 105240,105292,105266
 1.0000e+000 105344 -1.1721e+001 -2.7928e+001  4.5076e+000 30164 105136,105188,105162
 1.0000e+000 105531 -1.5915e+001 -1.7624e+001  9.5741e-001 30164 105577,105136,105505
 1.0000e+000 105554 -1.2246e+001 -1.6109e+001  3.2646e+000 30164 105214,105505,105292
 1.0000e+000 105603 -1.9156e+001 -2.1782e+001  7.3474e+000 30164 105214,105188,105577
 1.0000e+000 105626 -1.6716e+001 -2.1155e+001  5.5594e+000 30164 105214,105577,105505
 1.0000e+000 105675 -1.6957e+001 -1.5075e+001  3.0681e+000 30164 105292,105505,105649
 1.0000e+000 105698 -1.6512e+001 -1.6731e+001 -5.8059e-001 30164 105292,105649,105318
 1.0000e+000 106027 -8.2994e+000 -6.0354e+000 -4.5174e+000 29868 106322,106050,105880
 1.0000e+000 106004 -5.9812e+000 -6.4575e+000 -5.0900e+000 29868 106250,106050,105828
 1.0000e+000 105981 -4.5248e+000 -7.7350e+000 -8.7507e+000 29868 106250,105828,105802
 1.0000e+000 105958 -7.0965e+000 -5.5565e+000 -5.3269e+000 29868 106322,105880,106122
 1.0000e+000 106076 -7.6695e+000 -3.8315e+000 -4.9478e+000 29868 105906,105880,106050
 1.0000e+000 106099 -1.1426e+001 -7.3265e+000 -3.5006e+000 29868 105906,106050,105932
 1.0000e+000 106148 -2.3434e+000 -3.8609e+000 -2.5212e+000 29868 105854,105828,106122
 1.0000e+000 106276 -7.8401e+000 -1.1820e+001 -3.4634e+000 29868 105932,106050,106250
 1.0000e+000 106299 -5.6563e+000 -1.4441e+001 -7.4487e+000 29868 105932,106250,105802
 1.0000e+000 106348 -6.1339e+000 -6.6772e+000 -4.9872e+000 29868 105828,106050,106322
 1.0000e+000 106371 -5.1958e+000 -6.4936e+000 -5.7332e+000 29868 105828,106322,106122
 1.0000e+000 106828 -1.0142e+001 -8.4946e+000 -2.4197e+000 29521 106580,106710,106684
 1.0000e+000 106805 -5.5518e+000 -4.9790e+000  1.2028e+000 29521 106554,106710,106580
 1.0000e+000 106782 -5.1088e+000 -3.9306e+000 -4.7428e-001 29521 106580,106684,106606
 1.0000e+000 106759 -8.4704e+000 -8.5457e+000 -3.2094e+000 29521 106606,106684,106658
 1.0000e+000 106736 -4.9155e+000 -4.2475e+000 -1.4278e+000 29521 106606,106658,106632
 1.0000e+000 107027 -5.2983e+000 -7.9168e+000 -3.6862e-001 29117 106877,106929,106903
 1.0000e+000 107004 -6.0205e+000 -8.1969e+000  1.5497e+000 29117 106851,106929,106877
 1.0000e+000 106981 -5.9879e+000 -6.3992e+000  1.3112e+000 29117 106851,106955,106929
 1.0000e+000 107456 -5.4448e+000 -8.2275e+000 -6.6781e-002 28656 107237,107315,107263
 1.0000e+000 107433 -5.3545e+000 -7.0249e+000  1.6896e-001 28656 107133,107315,107237
 1.0000e+000 107410 -5.3038e+000 -8.0028e+000 -2.6891e-001 28656 107133,107237,107159
 1.0000e+000 107387 -6.2610e+000 -7.6999e+000 -1.3537e-001 28656 107159,107237,107185
 1.0000e+000 107364 -5.8897e+000 -7.6140e+000 -3.8578e-001 28656 107185,107237,107211
 1.0000e+000 107341 -5.5954e+000 -9.1791e+000  9.0979e-001 28656 107263,107315,107289
 1.0000e+000 107704 -5.8386e+000 -8.0406e+000 -1.0653e-001 27902 107727,107557,107531
 1.0000e+000 107681 -6.4888e+000 -8.1705e+000 -5.1344e-001 27902 107727,107531,107505
 1.0000e+000 107658 -5.0864e+000 -8.0744e+000  6.2637e-002 27902 107557,107609,107583
 1.0000e+000 107635 -6.8935e+000 -1.0340e+001 -2.2947e+000 27902 107479,107609,107505
 1.0000e+000 107753 -5.1156e+000 -8.2520e+000  2.9160e-002 27902 107609,107557,107727
 1.0000e+000 107776 -5.7396e+000 -8.3120e+000 -3.3976e-001 27902 107609,107727,107505
 1.0000e+000 108333 -4.8032e+000 -7.6881e+000 -5.6695e-002 27341 108356,108065,108013
 1.0000e+000 108310 -4.7575e+000 -7.6506e+000 -1.3705e-001 27341 108356,108013,108143
 1.0000e+000 108287 -4.5008e+000 -7.7955e+000 -9.9814e-002 27341 108428,108117,108091
 1.0000e+000 108264 -4.8844e+000 -7.8182e+000 -1.7970e-002 27341 108013,108065,108039
 1.0000e+000 108241 -4.9016e+000 -7.3786e+000 -9.2785e-002 27341 107987,108143,108013
 1.0000e+000 108218 -3.4184e+000 -6.7389e+000 -1.7447e-001 27341 107987,108169,108143
 1.0000e+000 108195 -2.7958e+000 -7.7354e+000 -2.5094e-001 27341 107961,108169,107987
 1.0000e+000 108382 -4.8194e+000 -7.7961e+000  4.2481e-002 27341 108091,108065,108356
 1.0000e+000 108405 -4.6197e+000 -7.6459e+000 -2.5084e-002 27341 108428,108091,108356
 1.0000e+000 108454 -4.7277e+000 -8.0077e+000 -1.9025e-001 27341 108143,108117,108428
 1.0000e+000 108477 -4.8312e+000 -7.8241e+000 -1.0171e-001 27341 108143,108428,108356
 1.0000e+000 108725 -2.3802e+001 -1.9647e+001  2.5102e+000 27029 108748,108526,108500
 1.0000e+000 108702 -2.2808e+001 -2.7640e+001  1.7138e+000 27029 108748,108500,108630
 1.0000e+000 108679 -1.9342e+001 -1.6621e+001  5.6178e+000 27029 108578,108630,108604
 1.0000e+000 108656 -2.5503e+001 -2.3092e+001 -8.4677e+000 27029 108526,108578,108552
 1.0000e+000 108774 -2.2664e+001 -1.4675e+001  2.7264e+000 27029 108578,108526,108748
 1.0000e+000 108797 -1.9988e+001 -2.0437e+001  2.6961e+000 27029 108578,108748,108630
 1.0000e+000 109045 -5.4441e+000 -8.4498e+000 -3.4751e-001 26610 108872,108924,108898
 1.0000e+000 109022 -6.0831e+000 -7.9060e+000 -8.6525e-002 26610 108872,108950,108924
 1.0000e+000 108999 -6.5860e+000 -8.0170e+000 -8.0625e-001 26610 108846,108950,108872
 1.0000e+000 108976 -8.3529e+000 -6.0525e+000 -8.5547e-001 26610 108820,108950,108846
 1.0000e+000 109366 -4.2429e+000 -7.7609e+000 -1.0089e-001 26006 109144,109222,109196
 1.0000e+000 109343 -4.2883e+000 -7.4080e+000  1.4151e-002 26006 109118,109222,109144
 1.0000e+000 109320 -4.4683e+000 -7.5080e+000  5.7726e-002 26006 109092,109222,109118
 1.0000e+000 109297 -4.6730e+000 -7.9373e+000 -1.7623e-001 26006 109144,109196,109170
 1.0000e+000 109274 -3.8574e+000 -6.1409e+000 -1.5884e-001 26006 109092,109248,109222
 1.0000e+000 109567 -5.8723e+000 -8.1159e+000  1.0585e-001 25659 109391,109469,109443
 1.0000e+000 109544 -6.0410e+000 -8.6070e+000  1.1425e+000 25659 109391,109495,109469
 1.0000e+000 109521 -6.4000e+000 -8.4359e+000  4.7884e-001 25659 109391,109443,109417
 1.0000e+000 109900 -5.5761e+000 -6.3753e+000 -8.5094e-001 25255 109923,109779,109753
 1.0000e+000 109877 -5.0394e+000 -3.9647e+000  1.0372e+000 25255 109923,109753,109701
 1.0000e+000 109854 -6.0949e+000 -9.7157e+000 -1.9128e+000 25255 109675,109805,109701
 1.0000e+000 109831 -3.2593e-001 -6.5640e+000  1.8687e+000 25255 109701,109753,109727
 1.0000e+000 109949 -7.5457e+000 -1.0078e+001 -3.2069e+000 25255 109805,109779,109923
 1.0000e+000 109972 -5.5529e+000 -5.6962e+000 -1.1490e+000 25255 109805,109923,109701
 1.0000e+000 110220 -7.0991e+000 -7.5171e+000  6.1674e-001 24701 110243,110021,109995
 1.0000e+000 110197 -7.0700e+000 -7.8684e+000 -2.2679e-001 24701 110243,109995,110099
 1.0000e+000 110174 -6.6409e+000 -6.8309e+000  3.8222e-002 24701 110315,110073,110047
 1.0000e+000 110151 -6.1466e+000 -8.7257e+000 -1.7626e-001 24701 109995,110125,110099
 1.0000e+000 110269 -6.2992e+000 -7.5473e+000  3.1610e-001 24701 110047,110021,110243
 1.0000e+000 110292 -7.3230e+000 -6.9503e+000  1.3318e-001 24701 110315,110047,110243
 1.0000e+000 110341 -4.2564e+000 -6.6744e+000  3.2489e-001 24701 110099,110073,110315
 1.0000e+000 110364 -5.7075e+000 -7.2832e+000  1.9115e-001 24701 110099,110315,110243
 1.0000e+000 110661 -6.3491e+000 -8.2760e+000  6.2397e-001 24197 110684,110413,110387
 1.0000e+000 110638 -6.0081e+000 -7.7629e+000  3.1003e-001 24197 110684,110387,110543
 1.0000e+000 110615 -5.7488e+000 -7.9154e+000  1.4189e-001 24197 110756,110491,110465
 1.0000e+000 110592 -6.0195e+000 -8.3318e+000  2.2212e-001 24197 110413,110465,110439
 1.0000e+000 110569 -5.2147e+000 -7.9183e+000 -1.1394e-001 24197 110491,110543,110517
 1.0000e+000 110710 -6.0565e+000 -8.2759e+000  2.0866e-001 24197 110465,110413,110684
 1.0000e+000 110733 -5.9489e+000 -7.9285e+000  7.3115e-002 24197 110756,110465,110684
 1.0000e+000 110782 -5.4009e+000 -7.9342e+000  2.4647e-001 24197 110543,110491,110756
 1.0000e+000 110805 -5.6058e+000 -7.9866e+000  1.4763e-001 24197 110543,110756,110684
 1.0000e+000 111315 -5.3536e+000 -1.1315e+001 -4.5588e+000 23593 111044,111148,111070
 1.0000e+000 111292 -1.6809e+001 -7.4302e+000 -2.6694e+000 23593 111044,111174,111148
 1.0000e+000 111269 -1.7437e+000 -1.1171e+001 -4.5625e+000 23593 111070,111122,111096
 1.0000e+000 111246 -3.2527e+000 -7.4407e+000 -3.6295e+000 23593 111070,111148,111122
 1.0000e+000 111223 -1.1192e+001  1.1446e-002  6.1437e-001 23593 111018,111174,111044
 1.0000e+000 111200 -6.6522e+000 -1.7330e+000  1.4374e+000 23593 110992,111174,111018
 1.0000e+000 111821 -5.0640e+000 -7.8025e+000 -1.9670e-001 23089 111916,111844,111628
 1.0000e+000 111798 -5.8186e+000 -8.1590e+000 -3.7181e-001 23089 111844,111550,111524
 1.0000e+000 111775 -4.8661e+000 -7.8476e+000 -1.4067e-001 23089 111916,111628,111602
 1.0000e+000 111752 -6.1472e+000 -7.5617e+000 -1.0805e-001 23089 111498,111680,111524
 1.0000e+000 111729 -5.0935e+000 -7.6843e+000 -1.0832e-001 23089 111550,111602,111576
 1.0000e+000 111706 -4.7250e+000 -7.0696e+000 -3.5674e-001 23089 111628,111680,111654
 1.0000e+000 111870 -5.4477e+000 -7.7494e+000 -5.4094e-002 23089 111680,111628,111844
 1.0000e+000 111893 -5.5205e+000 -7.9175e+000 -3.7391e-002 23089 111680,111844,111524
 1.0000e+000 111942 -5.5089e+000 -7.7630e+000 -1.7115e-001 23089 111550,111844,111916
 1.0000e+000 111965 -5.2287e+000 -7.7473e+000 -1.2632e-001 23089 111550,111916,111602
 1.0000e+000 112164 -1.5647e+001 -1.2353e+001 -7.7500e-001 22626 112187,112014,111988
 1.0000e+000 112141 -1.3843e+001 -1.0104e+001 -1.5625e+000 22626 112259,112187,111988
 1.0000e+000 112118 -1.4230e+001 -8.6691e+000 -4.1524e+000 22626 112259,111988,112092
 1.0000e+000 112213 -1.4458e+001 -1.3012e+001 -6.8464e-001 22626 112040,112014,112187
 1.0000e+000 112236 -1.4402e+001 -1.3401e+001 -8.8992e-001 22626 112040,112187,112066
 1.0000e+000 112285 -1.5070e+001 -1.4178e+001 -1.4185e+000 22626 112066,112187,112259
 1.0000e+000 112308 -1.5836e+001 -1.3124e+001 -3.8418e+000 22626 112066,112259,112092
 1.0000e+000 112605 -5.9766e+000 -8.5750e+000  1.0070e-001 22286 112628,112383,112357
 1.0000e+000 112582 -6.5480e+000 -9.0621e+000  4.6887e-001 22286 112772,112628,112357
 1.0000e+000 112559 -6.1970e+000 -8.3257e+000  1.9616e-001 22286 112700,112435,112409
 1.0000e+000 112536 -7.8535e+000 -9.3373e+000  6.0558e-001 22286 112772,112357,112331
 1.0000e+000 112513 -5.8171e+000 -8.2815e+000  3.2079e-001 22286 112435,112487,112461
 1.0000e+000 112654 -6.1064e+000 -8.0455e+000 -1.6679e-001 22286 112409,112383,112628
 1.0000e+000 112677 -6.2111e+000 -8.6363e+000 -2.1820e-003 22286 112700,112409,112628
 1.0000e+000 112726 -5.9557e+000 -8.3617e+000  3.7711e-001 22286 112487,112435,112700
 1.0000e+000 112749 -5.9039e+000 -8.4508e+000  1.9457e-001 22286 112487,112700,112628
 1.0000e+000 112798 -5.9923e+000 -9.0450e+000  2.3989e-001 22286 112487,112628,112772
 1.0000e+000 112821 -6.3060e+000 -8.7098e+000  3.8994e-001 22286 112487,112772,112331
 1.0000e+000 112924 -2.7921e+001 -5.4012e+000  2.3914e+000 21974 112846,112898,112872
 1.0000e+000 113223 -6.4229e+000 -7.4509e+000 -2.8508e+000 21420 112949,113053,112975
 1.0000e+000 113200 -1.0305e+001 -1.1477e+001 -9.1304e-001 21420 112949,113079,113053
 1.0000e+000 113177 -1.4580e+001 -1.1228e+001 -1.8891e+000 21420 112975,113053,113001
 1.0000e+000 113154 -7.6778e+000 -6.5568e+000  1.9140e-001 21420 113001,113053,113027
 1.0000e+000 113131 -9.9342e+000 -1.2169e+001 -3.8212e-001 21420 112949,113105,113079
 1.0000e+000 113605 -1.9958e+001 -5.0455e+000 -2.9868e+000 20716 113331,113435,113357
 1.0000e+000 113582 -2.2275e+001 -1.6925e+001 -2.1798e+000 20716 113331,113461,113435
 1.0000e+000 113559 -2.2887e+001 -7.1261e+000  4.8299e-001 20716 113383,113435,113409
 1.0000e+000 113536 -2.1502e+001 -7.6241e+000  3.4321e-001 20716 113357,113435,113383
 1.0000e+000 113513 -1.9989e+001 -6.1097e+000 -1.0488e+001 20716 113331,113487,113461
 1.0000e+000 113853 -6.7494e+000 -8.3685e+000 -1.1143e-001 20290 113876,113680,113654
 1.0000e+000 113830 -5.5011e+000 -9.4522e+000 -7.4756e-001 20290 113876,113654,113628
 1.0000e+000 113807 -6.6145e+000 -8.9943e+000 -1.5377e-001 20290 113948,113732,113680
 1.0000e+000 113784 -5.5238e+000 -8.7592e+000 -2.9896e-001 20290 113680,113732,113706
 1.0000e+000 113902 -6.7410e+000 -9.2035e+000 -2.3976e-001 20290 113948,113680,113876
 1.0000e+000 113925 -6.2520e+000 -1.1483e+001 -1.2407e-001 20290 113758,113876,113628
 1.0000e+000 113974 -6.5059e+000 -9.1995e+000 -8.1606e-002 20290 113758,113732,113948
 1.0000e+000 113997 -6.5268e+000 -9.2403e+000 -1.3665e-001 20290 113758,113948,113876
 1.0000e+000 114365 -4.4335e+000 -7.7878e+000  2.6662e-002 19900 114146,114198,114172
 1.0000e+000 114342 -4.5006e+000 -7.8196e+000  6.0106e-003 19900 114042,114198,114146
 1.0000e+000 114319 -4.3634e+000 -7.7205e+000 -6.7441e-002 19900 114042,114224,114198
 1.0000e+000 114296 -4.8667e+000 -7.7852e+000 -1.0531e-002 19900 114094,114146,114120
 1.0000e+000 114273 -4.5149e+000 -7.7033e+000 -7.9967e-002 19900 114042,114146,114094
 1.0000e+000 114250 -4.2287e+000 -7.5584e+000 -2.9513e-002 19900 114042,114094,114068
 1.0000e+000 114566 -5.6545e+000 -7.8921e+000  1.7250e-001 19496 114442,114494,114468
 1.0000e+000 114543 -6.3430e+000 -8.1672e+000 -1.4835e-001 19496 114416,114494,114442
 1.0000e+000 114520 -5.7726e+000 -7.6819e+000  9.7555e-002 19496 114390,114494,114416
 1.0000e+000 114767 -4.8585e+000 -7.8475e+000 -3.1171e-002 19042 114790,114669,114643
 1.0000e+000 114744 -5.2283e+000 -7.7455e+000  1.4242e-002 19042 114790,114643,114591
 1.0000e+000 114721 -5.3830e+000 -7.8053e+000 -1.5500e-001 19042 114591,114643,114617
 1.0000e+000 114816 -4.4729e+000 -7.7925e+000 -6.3817e-002 19042 114695,114669,114790
 1.0000e+000 114839 -4.9071e+000 -7.7123e+000 -8.0928e-002 19042 114695,114790,114591
 1.0000e+000 114991 -5.5031e+000 -7.6895e+000  3.2316e-002 18488 114864,114916,114890
 1.0000e+000 114968 -5.0277e+000 -7.9360e+000 -8.2505e-002 18488 114864,114942,114916
 1.0000e+000 115192 -6.0862e+000 -7.8135e+000 -1.0537e-001 18098 115215,115042,115016
 1.0000e+000 115169 -5.7873e+000 -8.1730e+000  1.1636e-001 18098 115215,115016,115120
 1.0000e+000 115146 -5.2986e+000 -7.5713e+000 -8.6630e-002 18098 115287,115094,115068
 1.0000e+000 115241 -5.8063e+000 -8.1000e+000 -3.7083e-003 18098 115068,115042,115215
 1.0000e+000 115264 -5.4354e+000 -7.9243e+000 -1.4766e-001 18098 115287,115068,115215
 1.0000e+000 115313 -5.3460e+000 -7.3584e+000  3.4831e-001 18098 115120,115094,115287
 1.0000e+000 115336 -5.4316e+000 -7.6542e+000  2.9981e-001 18098 115120,115287,115215
 1.0000e+000 115846 -6.1228e+000 -4.4900e+000  1.7344e+000 17644 115653,115705,115679
 1.0000e+000 115823 -3.9671e+000 -2.7904e+000  6.5359e-001 17644 115627,115705,115653
 1.0000e+000 115800 -5.8973e+000 -2.7132e+000 -1.0990e+000 17644 115549,115705,115627
 1.0000e+000 115777 -7.5383e+000 -1.5953e+000  1.8888e-001 17644 115549,115627,115575
 1.0000e+000 115754 -1.0641e+001 -5.9303e+000 -3.0741e+000 17644 115523,115705,115549
 1.0000e+000 115731 -1.0249e+001 -5.0348e+000  2.2091e+000 17644 115575,115627,115601
 1.0000e+000 116067 -9.7057e+000 -8.1398e-001 -8.5647e-001 17116 115891,115943,115917
 1.0000e+000 116044 -8.6003e+000 -3.8551e-001 -1.1462e+000 17116 115891,115995,115943
 1.0000e+000 116021 -9.6905e+000 -4.0637e+000 -1.4592e+000 17116 115943,115995,115969
 1.0000e+000 116288 -5.7176e+000 -8.3660e+000  5.3211e-001 16704 116164,116216,116190
 1.0000e+000 116265 -6.2392e+000 -9.3619e+000  3.1383e-001 16704 116112,116216,116164
 1.0000e+000 116242 -6.6284e+000 -9.1233e+000 -8.3487e-002 16704 116112,116164,116138
 1.0000e+000 116489 -2.0518e+001 -5.5242e+000 -7.1358e-001 16434 116339,116417,116365
 1.0000e+000 116466 -2.1559e+001 -5.6158e+000 -5.9878e-002 16434 116313,116417,116339
 1.0000e+000 116443 -1.8967e+001 -1.1112e+001 -3.4871e+000 16434 116365,116417,116391
 1.0000e+000 116592 -6.6559e+000 -7.9764e+000 -1.0920e+000 15967 116514,116566,116540
 1.0000e+000 116695 -1.1661e+001 -4.9316e+000  2.8409e-001 15552 116617,116669,116643
 1.0000e+000 116798 -4.0718e+000 -7.2935e+000  0.0000e+000 421 116720,116772,116746
 1.1000e+000 69066 -9.9732e-001 -1.7737e-001 -3.9226e-002 68738 68965,69017,68991
 1.1000e+000 69043 -1.0668e-001  3.6356e-001  4.7117e-001 68738 68939,69017,68965
 1.1000e+000 69371  3.0951e-001 -9.9327e-001 -5.1231e-001 68426 69172,69250,69198
 1.1000e+000 69348  6.6094e-001 -1.8650e+000 -8.0317e-003 68426 69146,69250,69172
 1.1000e+000 69325  1.2310e+000 -7.2256e-001 -4.9333e-001 68426 69198,69250,69224
 1.1000e+000 69302 -5.3214e-001 -1.9001e+000 -2.2531e-001 68426 69146,69276,69250
 1.1000e+000 69521 -3.8989e+000 -1.7734e+001  4.9909e+000 68228 69420,69472,69446
 1.1000e+000 69498 -1.2931e+000 -1.2875e+001  1.4866e+000 68228 69394,69472,69420
 1.1000e+000 69781  2.9328e-001 -3.7051e+000 -8.1961e-002 68030 69631,69683,69657
 1.1000e+000 69758 -1.6553e+000 -3.8805e+000 -1.9974e-001 68030 69631,69709,69683
 1.1000e+000 69735 -8.5536e-002 -1.5956e+000 -1.1930e+000 68030 69605,69709,69631
 1.1000e+000 70078 -1.2483e+000 -9.0214e+000 -9.2353e-001 67832 69882,69934,69908
 1.1000e+000 70055  4.0684e-001 -6.6962e+000 -2.1173e+000 67832 69856,69934,69882
 1.1000e+000 70032  2.4017e-001 -8.6549e+000 -2.7841e+000 67832 69830,69934,69856
 1.1000e+000 70009 -1.6105e+000 -1.2931e+001 -2.0908e+000 67832 69804,69934,69830
 1.1000e+000 69986  3.0812e+000 -1.2239e+001 -1.8926e+000 67832 69804,69960,69934
 1.1000e+000 70586 -1.3801e+000 -6.9794e+000  7.7083e-001 67634 70609,70419,70341
 1.1000e+000 70563 -1.3261e-001 -6.1567e+000  4.0554e-001 67634 70681,70609,70341
 1.1000e+000 70540  4.5194e-001 -5.8521e+000  1.5343e-001 67634 70681,70341,70315
 1.1000e+000 70517 -1.2659e+000 -7.2596e+000  4.9252e-001 67634 70341,70419,70367
 1.1000e+000 70494 -2.6542e+000 -5.4559e+000  2.0007e+000 67634 70263,70445,70289
 1.1000e+000 70471 -2.2363e+000 -4.1276e+000 -5.7367e-003 67634 70367,70419,70393
 1.1000e+000 70635 -5.0312e-001 -5.4021e+000  1.1197e+000 67634 70445,70419,70609
 1.1000e+000 70658 -3.2160e+000 -7.6830e+000  2.2228e+000 67634 70445,70609,70289
 1.1000e+000 70707 -3.6290e-001 -7.4189e+000  2.0461e+000 67634 70289,70609,70681
 1.1000e+000 70730  1.4474e+000 -6.4819e+000  1.6422e+000 67634 70289,70681,70315
 1.1000e+000 71108 -1.3193e+000 -4.8222e+000 -5.2025e-001 67344 71131,70912,70886
 1.1000e+000 71085 -2.1299e+000 -6.9723e+000  5.2150e-001 67344 71131,70886,70860
 1.1000e+000 71062 -2.9918e+000 -6.6318e+000  4.2544e-001 67344 71203,70938,70912
 1.1000e+000 71039 -3.6131e+000 -6.4499e+000  1.1546e+000 67344 70834,70990,70860
 1.1000e+000 71016 -2.5870e+000 -7.2406e+000  6.5486e-001 67344 70938,70990,70964
 1.1000e+000 71157 -2.7877e+000 -6.6819e+000  2.8153e-001 67344 71203,70912,71131
 1.1000e+000 71180 -2.2512e+000 -7.1668e+000  9.3304e-001 67344 70990,71131,70860
 1.1000e+000 71229 -2.5013e+000 -7.0588e+000  4.0536e-001 67344 70990,70938,71203
 1.1000e+000 71252 -2.0362e+000 -6.8644e+000  2.1688e-001 67344 70990,71203,71131
 1.1000e+000 71603 -2.6261e-001 -4.1638e+000  1.3195e-001 67032 71378,71482,71404
 1.1000e+000 71580  1.1371e+000 -4.1626e+000  4.0301e-001 67032 71378,71508,71482
 1.1000e+000 71557 -3.0261e-001 -3.4560e+000  3.1656e-001 67032 71404,71456,71430
 1.1000e+000 71534 -2.2507e-001 -4.0849e+000  1.1969e-001 67032 71404,71482,71456
 1.1000e+000 72003 -2.4642e-001 -2.2627e+000 -7.4727e-002 66834 71755,71859,71781
 1.1000e+000 71980  2.8678e-001 -2.8374e+000  3.0100e-002 66834 71755,71885,71859
 1.1000e+000 71957 -7.8642e-001 -2.5869e+000 -3.4475e-001 66834 71781,71833,71807
 1.1000e+000 71934 -3.2328e-001 -2.5546e+000 -1.8182e-001 66834 71781,71859,71833
 1.1000e+000 71911  4.7491e-001 -1.5224e+000  1.5503e+000 66834 71729,71885,71755
 1.1000e+000 72430 -3.7296e-001 -1.5906e+000 -2.3081e-001 66266 72237,72289,72263
 1.1000e+000 72407 -4.8958e-001 -2.0556e+000  6.4298e-001 66266 72133,72289,72237
 1.1000e+000 72384 -8.9738e-001 -1.9038e+000  6.5084e-001 66266 72133,72237,72211
 1.1000e+000 72361 -1.7607e+000 -2.6446e+000  4.5851e-001 66266 72107,72289,72133
 1.1000e+000 72338 -1.2133e+000 -2.8052e+000  1.5403e+000 66266 72133,72211,72185
 1.1000e+000 72315 -2.3423e+000 -1.9257e+000  1.5573e+000 66266 72133,72185,72159
 1.1000e+000 72580 -5.1079e+000 -2.9601e+001  2.8704e+000 65968 72479,72531,72505
 1.1000e+000 72557 -3.2308e-001 -1.8329e+001  1.0602e+000 65968 72453,72531,72479
 1.1000e+000 72960 -1.3488e+000 -4.1971e+000  2.2603e-001 65621 72983,72738,72712
 1.1000e+000 72937 -1.5901e+000 -4.2342e+000  1.6128e-001 65621 72983,72712,72686
 1.1000e+000 72914 -3.4602e-001 -4.0866e+000 -4.2554e-001 65621 72738,72842,72764
 1.1000e+000 72891 -2.5281e+000 -4.6751e+000 -8.7191e-001 65621 72764,72842,72816
 1.1000e+000 72868  1.7353e-002 -1.1790e+000 -2.0633e+000 65621 72764,72816,72790
 1.1000e+000 73009 -9.3308e-001 -4.3415e+000  1.9765e-001 65621 72842,72738,72983
 1.1000e+000 73032 -1.2295e+000 -4.4698e+000  4.8254e-002 65621 72842,72983,72686
 1.1000e+000 73361 -6.8545e+000 -1.1027e+001 -8.9161e-001 65281 73456,73384,73188
 1.1000e+000 73338 -1.2586e+001 -1.1832e+001 -4.6132e-002 65281 73384,73162,73136
 1.1000e+000 73315 -4.5674e+000 -1.3516e+001 -2.3910e+000 65281 73188,73240,73214
 1.1000e+000 73292 -7.6527e+000 -1.1339e+001  3.9459e-001 65281 73136,73266,73240
 1.1000e+000 73410 -5.8989e+000 -1.2453e+001 -3.7261e-001 65281 73240,73188,73384
 1.1000e+000 73433 -8.3822e+000 -1.0970e+001 -1.2228e+000 65281 73240,73384,73136
 1.1000e+000 73482 -7.5815e+000 -1.1864e+001 -1.7616e-001 65281 73162,73384,73456
 1.1000e+000 73711  4.6728e+000 -5.8246e+000 -1.7297e+000 64820 73734,73610,73584
 1.1000e+000 73688  3.6888e+000 -7.5890e+000 -3.3333e+000 64820 73734,73584,73662
 1.1000e+000 73760  5.6588e+000 -5.5087e+000 -2.8997e+000 64820 73636,73610,73734
 1.1000e+000 73783  2.5087e+000 -6.7647e+000 -1.9538e+000 64820 73806,73734,73662
 1.1000e+000 73832  6.4051e+000 -1.7608e-001 -4.4766e+000 64820 73636,73734,73806
 1.1000e+000 74112 -1.2680e-001 -2.1135e+001  8.2765e-001 64622 74278,74135,73988
 1.1000e+000 74089 -5.5558e-001 -2.0008e+001  8.2648e-001 64622 74135,73936,74040
 1.1000e+000 74066  2.9367e-001 -2.0983e+001  2.3161e+000 64622 74278,73988,73962
 1.1000e+000 74161  1.7167e-001 -2.0765e+001  6.5185e-001 64622 74014,73988,74135
 1.1000e+000 74184  4.5856e-001 -1.9723e+001  7.5948e-001 64622 74207,74135,74040
 1.1000e+000 74233 -8.1420e-002 -2.1106e+001  4.8745e-001 64622 74014,74135,74207
 1.1000e+000 74304  9.1481e-001 -1.8736e+001  1.4192e+000 64622 73936,74135,74278
 1.1000e+000 74327  1.4698e+000 -1.8922e+001  2.9806e+000 64622 73936,74278,73962
 1.1000e+000 74526 -1.5748e+000 -1.4949e+001  1.1216e+000 64424 74621,74549,74402
 1.1000e+000 74503 -2.8280e-002 -1.6697e+001  2.0242e-001 64424 74549,74350,74454
 1.1000e+000 74480 -2.4125e+000 -1.4281e+001 -7.1257e-001 64424 74621,74402,74376
 1.1000e+000 74575 -1.0421e+000 -1.6119e+001  1.4477e+000 64424 74428,74402,74549
 1.1000e+000 74598 -4.6769e-001 -1.6340e+001  9.7699e-002 64424 74693,74549,74454
 1.1000e+000 74647 -2.4115e+000 -1.7918e+001 -3.2632e-001 64424 74350,74549,74621
 1.1000e+000 74670 -3.8897e+000 -1.8008e+001 -2.2481e+000 64424 74350,74621,74376
 1.1000e+000 74719 -1.3902e+000 -1.7871e+001  9.4603e-001 64424 74428,74549,74693
 1.1000e+000 75123 -6.1609e+000 -2.4111e+001  1.7529e+000 64126 74875,74953,74927
 1.1000e+000 75100  3.8283e-001 -9.4703e+000  3.7495e-001 64126 74875,74979,74953
 1.1000e+000 75077  2.5150e+000 -1.2344e+001  1.1087e+000 64126 74875,75005,74979
 1.1000e+000 75054  1.9967e+000 -2.7352e+001  8.2076e+000 64126 74875,74927,74901
 1.1000e+000 75031 -9.5588e+000 -1.1209e+001  1.5944e+000 64126 74849,75005,74875
 1.1000e+000 75224 -1.0917e+000 -7.1653e+000  1.4044e+000 63836 75146,75198,75172
 1.1000e+000 75472 -2.5598e+000 -6.3192e+000  7.0849e-001 63375 75273,75351,75325
 1.1000e+000 75449 -3.3086e+000 -6.2630e+000  2.3128e-001 63375 75273,75377,75351
 1.1000e+000 75426 -4.2332e+000 -6.2218e+000  4.5306e-001 63375 75247,75377,75273
 1.1000e+000 75403 -2.4934e+000 -5.1373e+000  8.8059e-001 63375 75273,75325,75299
 1.1000e+000 75673 -9.6970e-001 -5.1996e+000  6.5791e-001 63063 75523,75575,75549
 1.1000e+000 75650 -1.3878e-001 -6.2106e+000  1.2217e-001 63063 75497,75575,75523
 1.1000e+000 75627 -1.4292e+000 -7.0967e+000  9.0844e-001 63063 75497,75601,75575
 1.1000e+000 75874 -5.0315e+000 -2.7809e+001  2.6875e-001 62716 75897,75750,75724
 1.1000e+000 75851 -6.5150e+000 -2.7242e+001  3.1057e-001 62716 75897,75724,75698
 1.1000e+000 75828 -5.4100e+000 -2.4762e+001 -3.6264e+000 62716 75698,75802,75776
 1.1000e+000 75923 -1.9590e+000 -2.6990e+001 -1.0686e-001 62716 75776,75750,75897
 1.1000e+000 75946 -5.0911e+000 -2.7627e+001  1.1008e-001 62716 75776,75897,75698
 1.1000e+000 76328 -3.3397e-001 -2.4738e+001 -3.3853e-001 62198 76495,76351,76158
 1.1000e+000 76305 -2.4652e+000 -2.3046e+001  1.3393e+000 62198 76351,76080,76054
 1.1000e+000 76282 -1.4097e-001 -2.8523e+001 -9.0545e-001 62198 76423,76184,76158
 1.1000e+000 76259 -7.3322e-001 -2.5318e+001 -1.6392e-001 62198 76495,76158,76106
 1.1000e+000 76236  2.3679e+000 -2.8183e+001  1.3499e+000 62198 76106,76158,76132
 1.1000e+000 76377 -3.7235e-001 -2.4814e+001 -7.9568e-001 62198 76423,76158,76351
 1.1000e+000 76400 -5.6439e-001 -1.8531e+001  1.4052e+000 62198 76210,76351,76054
 1.1000e+000 76449  7.5985e-001 -2.4492e+001 -1.0914e+000 62198 76210,76184,76423
 1.1000e+000 76472 -1.5300e-001 -2.1968e+001 -1.4751e+000 62198 76210,76423,76351
 1.1000e+000 76521 -1.5684e+000 -2.2588e+001  1.1806e+000 62198 76080,76351,76495
 1.1000e+000 76544 -3.4284e+000 -2.5353e+001  2.0279e+000 62198 76080,76495,76106
 1.1000e+000 76841 -5.5424e+000 -2.0743e+001 -7.3148e-001 61751 76936,76864,76645
 1.1000e+000 76818 -6.7301e+000 -2.0015e+001 -1.2768e+000 61751 76864,76567,76723
 1.1000e+000 76795 -5.3172e+000 -2.0552e+001 -8.4378e-001 61751 76936,76645,76593
 1.1000e+000 76772 -1.4239e+000 -1.6969e+001 -4.5295e+000 61751 77008,76697,76671
 1.1000e+000 76749 -5.2717e+000 -2.0488e+001 -8.9415e-001 61751 76593,76645,76619
 1.1000e+000 76890 -6.9544e+000 -2.4281e+001  1.5620e-001 61751 76671,76645,76864
 1.1000e+000 76913 -5.1670e+000 -2.1488e+001 -2.8194e+000 61751 77008,76671,76864
 1.1000e+000 76962 -5.1151e+000 -2.1142e+001 -8.6752e-001 61751 76567,76864,76936
 1.1000e+000 76985 -4.9899e+000 -2.1067e+001 -9.5265e-001 61751 76567,76936,76593
 1.1000e+000 77034 -6.7054e+000 -2.0126e+001 -1.3741e+000 61751 76723,76697,77008
 1.1000e+000 77057 -6.5408e+000 -1.9576e+001 -1.4401e+000 61751 76723,77008,76864
 1.1000e+000 77207 -2.0423e+000 -6.3269e+000  8.2229e-001 61418 77106,77158,77132
 1.1000e+000 77184 -1.7551e+000 -7.8614e+000  7.6701e-001 61418 77080,77158,77106
 1.1000e+000 77638 -1.6784e+000 -8.2065e+000  4.6912e-001 60814 77733,77661,77471
 1.1000e+000 77615 -4.0742e+000 -9.0282e+000  3.6777e-001 60814 77661,77393,77315
 1.1000e+000 77592 -9.7068e-001 -8.1601e+000  4.8360e-001 60814 77733,77471,77445
 1.1000e+000 77569 -5.8187e+000 -6.6399e+000 -2.1888e+000 60814 77315,77367,77341
 1.1000e+000 77546 -4.7372e+000 -8.6764e+000  8.0273e-001 60814 77315,77393,77367
 1.1000e+000 77523  1.5807e+000 -6.3465e+000  1.0789e+000 60814 77393,77445,77419
 1.1000e+000 77687 -2.1797e+000 -8.4682e+000  1.4483e+000 60814 77497,77471,77661
 1.1000e+000 77710 -2.8398e+000 -1.0009e+001  1.4505e+000 60814 77497,77661,77315
 1.1000e+000 77759 -2.9706e+000 -7.8841e+000  9.4239e-001 60814 77393,77661,77733
 1.1000e+000 77782 -1.8846e+000 -7.5771e+000  9.8015e-001 60814 77393,77733,77445
 1.1000e+000 78337 -8.1521e+000 -1.4557e+001  7.2291e-001 60210 78360,78017,77965
 1.1000e+000 78314 -6.4086e+000 -1.1041e+001  5.4645e-002 60210 78360,77965,78173
 1.1000e+000 78291 -6.1231e+000 -1.7274e+001 -2.5266e+000 60210 78432,78043,78017
 1.1000e+000 78268 -1.1235e+001 -2.3892e+001  1.1401e+000 60210 77965,78017,77991
 1.1000e+000 78245 -1.7704e+000 -1.5067e+001 -3.1452e+000 60210 78043,78095,78069
 1.1000e+000 78222 -5.7390e+000 -1.2803e+001 -1.4146e+000 60210 78095,78173,78121
 1.1000e+000 78199 -5.5134e+000 -1.2322e+001 -1.9711e+000 60210 78121,78173,78147
 1.1000e+000 78386 -7.0922e+000 -1.7043e+001 -1.0645e-001 60210 78432,78017,78360
 1.1000e+000 78409 -7.3884e+000 -1.4114e+001 -3.1329e-001 60210 78095,78360,78173
 1.1000e+000 78458 -4.9381e+000 -1.3905e+001 -3.1373e+000 60210 78095,78043,78432
 1.1000e+000 78481 -5.3939e+000 -1.2906e+001 -8.1959e-001 60210 78095,78432,78360
 1.1000e+000 78680 -3.7383e+000 -6.0167e+000  1.3461e+000 59848 78703,78556,78530
 1.1000e+000 78657 -3.9297e+000 -6.7796e+000  6.3994e-001 59848 78703,78530,78504
 1.1000e+000 78634 -3.8732e+000 -8.2539e+000  5.2398e-001 59848 78504,78608,78582
 1.1000e+000 78729 -3.1042e+000 -7.4799e+000  1.3204e+000 59848 78582,78556,78703
 1.1000e+000 78752 -3.4781e+000 -7.8819e+000  3.5249e-001 59848 78582,78703,78504
 1.1000e+000 78951 -1.0749e+000 -1.6079e+001 -3.6296e+000 59344 78974,78801,78775
 1.1000e+000 78928 -2.5871e+000 -1.7789e+001  9.7242e-001 59344 79046,78974,78775
 1.1000e+000 78905 -1.8892e+000 -1.9065e+001  8.3963e-001 59344 79046,78775,78879
 1.1000e+000 79000 -8.8651e+000 -1.9648e+001 -4.7524e+000 59344 78827,78801,78974
 1.1000e+000 79023 -3.7399e+000 -1.6766e+001  3.6067e-001 59344 78827,78974,78853
 1.1000e+000 79072 -1.6648e+000 -1.6673e+001  1.4250e+000 59344 78853,78974,79046
 1.1000e+000 79095 -5.2500e-001 -1.7493e+001  1.4538e+000 59344 78853,79046,78879
 1.1000e+000 79296 -7.2815e+000 -3.4619e+001 -1.6997e+000 58711 79319,79172,79146
 1.1000e+000 79273 -4.1728e+000 -3.2301e+001 -6.7439e-001 58711 79319,79146,79120
 1.1000e+000 79250 -8.3800e+000 -2.8790e+001  2.1413e+000 58711 79172,79224,79198
 1.1000e+000 79345 -9.8290e+000 -3.1417e+001 -1.4303e+000 58711 79224,79172,79319
 1.1000e+000 79368 -8.0045e+000 -3.0126e+001 -8.0216e-001 58711 79224,79319,79120
 1.1000e+000 79667 -1.5850e+000 -5.5638e+000 -3.9806e-001 58285 79690,79471,79393
 1.1000e+000 79644 -1.5274e+000 -6.9855e+000 -8.9847e-001 58285 79690,79393,79549
 1.1000e+000 79621 -1.5267e+000 -6.0844e+000 -2.5064e-001 58285 79393,79471,79419
 1.1000e+000 79598 -2.2205e+000 -7.1794e+000 -1.3536e-001 58285 79497,79549,79523
 1.1000e+000 79575 -1.2145e+000 -6.5036e+000 -3.5400e-001 58285 79419,79471,79445
 1.1000e+000 79716 -1.5050e+000 -4.2001e+000  4.0780e-001 58285 79497,79471,79690
 1.1000e+000 79739 -1.6112e+000 -6.3311e+000  1.3152e-001 58285 79497,79690,79549
 1.1000e+000 80249 -4.2862e+000 -1.8292e+001 -2.2267e+000 57831 80272,79978,79952
 1.1000e+000 80226 -2.6628e+000 -1.8606e+001 -8.6675e-001 57831 80272,79952,80108
 1.1000e+000 80203  1.8787e+000 -1.8223e+001 -8.7864e-001 57831 79926,80108,79952
 1.1000e+000 80180 -5.4282e+000 -2.2777e+001  7.8564e-001 57831 80004,80082,80030
 1.1000e+000 80157 -3.3630e+000 -1.8294e+001  1.3899e+000 57831 80004,80108,80082
 1.1000e+000 80134 -5.2725e+000 -1.8596e+001  2.7673e+000 57831 80030,80082,80056
 1.1000e+000 80298 -3.0039e+000 -1.5734e+001 -1.3797e+000 57831 80004,79978,80272
 1.1000e+000 80321 -1.8516e+000 -1.7817e+001 -3.1442e-001 57831 80004,80272,80108
 1.1000e+000 80618 -1.6576e+000 -9.6709e+000  1.0442e+000 57077 80344,80448,80422
 1.1000e+000 80595 -2.7021e+000 -9.6020e+000  2.3178e-001 57077 80344,80500,80448
 1.1000e+000 80572 -1.9699e+000 -7.7231e+000  3.2741e+000 57077 80344,80422,80370
 1.1000e+000 80549  3.8685e+000 -1.2404e+001  2.2733e+000 57077 80370,80422,80396
 1.1000e+000 80526 -3.4230e+000 -1.1516e+001  6.2541e-001 57077 80448,80500,80474
 1.1000e+000 80768 -2.6851e+000 -8.8133e+000 -8.1707e-001 56787 80791,80693,80667
 1.1000e+000 80745 -2.4458e+000 -8.7367e+000 -8.2677e-001 56787 80791,80667,80641
 1.1000e+000 80817 -2.9122e+000 -8.7649e+000 -5.8812e-001 56787 80719,80693,80791
 1.1000e+000 80840 -1.9745e+000 -8.3616e+000 -3.2689e-001 56787 80719,80791,80641
 1.1000e+000 81429 -1.1648e+001 -1.3930e+001 -6.3384e-002 56497 81452,81158,81132
 1.1000e+000 81406 -6.5822e+000 -1.1999e+001 -1.7609e+000 56497 81452,81132,81288
 1.1000e+000 81383 -8.0944e+000 -1.3501e+001 -1.4185e+000 56497 81524,81184,81158
 1.1000e+000 81360 -3.5391e+000 -1.1631e+001 -5.1720e+000 56497 81210,81288,81236
 1.1000e+000 81337 -9.6786e+000 -1.2121e+001 -2.8040e-001 56497 81106,81288,81132
 1.1000e+000 81314 -8.2745e+000 -7.7482e+000 -4.9752e+000 56497 81236,81288,81262
 1.1000e+000 81478 -7.7590e+000 -1.3516e+001 -1.3111e+000 56497 81524,81158,81452
 1.1000e+000 81501 -3.7525e+000 -1.3660e+001 -1.3016e+000 56497 81210,81452,81288
 1.1000e+000 81550 -7.9798e+000 -1.3482e+001 -9.9088e-001 56497 81210,81184,81524
 1.1000e+000 81573 -7.4359e+000 -1.3290e+001 -8.4816e-001 56497 81210,81524,81452
 1.1000e+000 81870 -6.6645e+000 -1.7591e+001 -1.6360e+000 55979 81893,81674,81648
 1.1000e+000 81847 -5.0110e+000 -1.6519e+001 -4.5706e-001 55979 81893,81648,81752
 1.1000e+000 81824 -4.6209e+000 -1.6626e+001 -3.0394e-001 55979 81596,81752,81648
 1.1000e+000 81801 -6.1438e+000 -2.2017e+001  2.4174e+000 55979 81674,81726,81700
 1.1000e+000 81778 -6.1297e+000 -1.8951e+001 -5.3589e+000 55979 81596,81648,81622
 1.1000e+000 81919 -7.5675e+000 -1.6378e+001  4.2817e-002 55979 81726,81674,81893
 1.1000e+000 81942 -4.9847e+000 -1.4615e+001  1.3545e+000 55979 81726,81893,81752
 1.1000e+000 82371 -6.3875e+000 -1.4322e+001  7.3159e-001 55631 82100,82204,82152
 1.1000e+000 82348 -3.3568e+000 -1.2693e+001  1.4498e+000 55631 82100,82230,82204
 1.1000e+000 82325 -4.8781e+000 -1.4162e+001  1.7770e+000 55631 82100,82152,82126
 1.1000e+000 82302 -4.6317e+000 -1.4355e+001  4.0716e+000 55631 82074,82230,82100
 1.1000e+000 82279 -6.7443e+000 -1.5818e+001 -1.5596e-001 55631 82152,82204,82178
 1.1000e+000 82256 -3.5436e-001  5.6602e-001  6.0339e+000 55631 82048,82230,82074
 1.1000e+000 82521 -1.7214e+000 -9.8232e+000 -5.5528e-001 55227 82544,82420,82394
 1.1000e+000 82498 -1.7680e+000 -1.1092e+001 -3.9555e-001 55227 82544,82394,82472
 1.1000e+000 82570 -2.1477e+000 -8.8620e+000 -5.1947e-001 55227 82446,82420,82544
 1.1000e+000 82593 -2.0030e+000 -9.7916e+000 -2.4054e-002 55227 82446,82544,82472
 1.1000e+000 82875 -8.2679e-001 -1.9474e+001 -3.2000e+000 54979 82699,82777,82725
 1.1000e+000 82852 -5.7866e+000 -1.3210e+001 -2.1091e+000 54979 82699,82803,82777
 1.1000e+000 82829  1.1396e+001 -1.7378e+001 -2.8018e+000 54979 82725,82777,82751
 1.1000e+000 83204 -6.4586e+000 -1.3362e+001 -1.6824e+000 54475 83005,83083,83057
 1.1000e+000 83181 -7.6325e+000 -1.5004e+001 -5.5341e-001 54475 82979,83083,83005
 1.1000e+000 83158 -9.6187e+000 -2.2151e+001 -8.0308e-001 54475 83005,83057,83031
 1.1000e+000 83135 -7.9297e+000 -1.5903e+001  2.6449e+000 54475 82979,83109,83083
 1.1000e+000 83582 -7.5958e+000 -1.4226e+001 -5.1549e-001 54071 83605,83438,83412
 1.1000e+000 83559 -7.9278e+000 -1.5688e+001 -9.5320e-001 54071 83749,83605,83412
 1.1000e+000 83536 -9.9254e+000 -1.8186e+001  4.5735e-001 54071 83677,83360,83334
 1.1000e+000 83513 -7.7855e+000 -1.6521e+001 -9.3578e-001 54071 83749,83412,83677
 1.1000e+000 83490 -4.0482e+000 -1.2276e+001 -1.2886e+000 54071 83308,83464,83334
 1.1000e+000 83631 -7.7109e+000 -1.4398e+001 -2.3171e-001 54071 83464,83438,83605
 1.1000e+000 83654 -7.3972e+000 -1.2599e+001 -9.8609e-001 54071 83464,83605,83334
 1.1000e+000 83703 -8.7014e+000 -1.6238e+001 -1.1633e+000 54071 83386,83360,83677
 1.1000e+000 83726 -8.7313e+000 -1.6414e+001 -1.0718e+000 54071 83386,83677,83412
 1.1000e+000 83775 -8.2886e+000 -1.3876e+001 -2.4338e-001 54071 83334,83605,83749
 1.1000e+000 83798 -8.2525e+000 -1.4890e+001 -1.4023e-001 54071 83334,83749,83677
 1.1000e+000 84068 -2.4726e+000 -7.2060e+000 -1.6956e-001 53524 83869,83921,83895
 1.1000e+000 84045 -1.8982e+000 -8.2506e+000  6.3696e-002 53524 83869,83947,83921
 1.1000e+000 84022 -1.5593e+000 -7.9074e+000  2.0012e-001 53524 83843,83947,83869
 1.1000e+000 83999 -2.4674e+000 -8.1902e+000  2.8712e-001 53524 83843,83973,83947
 1.1000e+000 84497 -6.5665e+000 -2.4159e+001  6.7724e-001 53184 84200,84330,84252
 1.1000e+000 84474 -4.6556e+000 -1.9666e+001  5.1062e-001 53184 84200,84356,84330
 1.1000e+000 84451 -5.5045e+000 -2.9074e+001  1.3025e+000 53184 84200,84252,84226
 1.1000e+000 84428 -7.3084e+000 -2.1737e+001 -2.2579e+000 53184 84252,84330,84278
 1.1000e+000 84405 -2.8387e+000 -1.8777e+001  1.8032e-001 53184 84174,84356,84200
 1.1000e+000 84382 -8.3918e+000 -2.1881e+001 -3.8097e+000 53184 84278,84330,84304
 1.1000e+000 84954 -1.0734e+001 -2.4370e+001  1.9243e+000 52680 84706,84836,84784
 1.1000e+000 84931 -1.0375e+001 -2.2483e+001 -3.0095e+000 52680 84680,84836,84706
 1.1000e+000 84908 -7.8014e+000 -3.4040e+001  2.0664e-001 52680 84784,84836,84810
 1.1000e+000 84885 -1.7375e+001 -3.6450e+001  4.4981e+000 52680 84706,84784,84732
 1.1000e+000 84862 -1.0782e+001 -3.3777e+001  4.1029e+000 52680 84732,84784,84758
 1.1000e+000 85202 -3.8285e+000 -1.0466e+001 -3.1285e-001 52226 85029,85081,85055
 1.1000e+000 85179 -3.2365e+000 -1.0408e+001 -2.1228e-001 52226 85225,85081,85029
 1.1000e+000 85156 -3.2822e+000 -1.0629e+001 -1.2956e+000 52226 85225,85029,85003
 1.1000e+000 85133  3.3491e+000 -1.4709e+001 -2.1813e+000 52226 84977,85107,85003
 1.1000e+000 85251 -2.7493e+000 -1.0199e+001 -3.5887e-001 52226 85107,85081,85225
 1.1000e+000 85274 -7.8727e-001 -9.4332e+000 -1.6568e+000 52226 85107,85225,85003
 1.1000e+000 85522 -1.8483e+000 -7.0691e+000  6.1618e-001 51764 85297,85349,85323
 1.1000e+000 85499 -2.1134e+000 -8.3950e+000 -1.4748e-001 51764 85545,85297,85427
 1.1000e+000 85476 -2.7369e+000 -8.7569e+000 -4.3498e-001 51764 85545,85427,85375
 1.1000e+000 85453 -3.5906e+000 -1.0236e+001 -5.3749e-002 51764 85375,85427,85401
 1.1000e+000 85571 -1.4070e+000 -8.6501e+000  2.5915e-001 51764 85349,85297,85545
 1.1000e+000 85594 -2.0297e+000 -9.1538e+000 -8.9133e-002 51764 85349,85545,85375
 1.1000e+000 85746 -2.5510e+000 -9.5283e+000 -9.1226e-001 51374 85645,85697,85671
 1.1000e+000 85723 -2.5645e+000 -1.2346e+001  2.2017e-001 51374 85619,85697,85645
 1.1000e+000 86256 -5.2643e+000 -1.0124e+001 -1.7446e+000 50970 86279,86011,85959
 1.1000e+000 86233 -5.9389e+000 -1.5532e+001 -4.0831e-001 50970 86279,85959,86115
 1.1000e+000 86210 -5.2582e+000 -9.2367e+000  1.1085e+000 50970 85959,86011,85985
 1.1000e+000 86187 -8.5548e+000 -9.0507e+000  2.7168e-001 50970 86037,86115,86089
 1.1000e+000 86164 -1.2585e+001 -1.8142e+001  1.6728e+000 50970 85933,86115,85959
 1.1000e+000 86141 -3.3851e+000 -2.2762e+000  2.5268e+000 50970 86037,86089,86063
 1.1000e+000 86305 -7.6819e+000 -3.6656e+000 -1.5332e+000 50970 86037,86011,86279
 1.1000e+000 86328 -8.7696e+000 -9.5555e+000 -8.9309e-002 50970 86037,86279,86115
 1.1000e+000 86478 -8.7358e-001 -3.3031e+001 -3.6626e-001 50451 86351,86403,86377
 1.1000e+000 86455  6.0793e-001 -5.4719e+001 -5.5576e+000 50451 86351,86429,86403
 1.1000e+000 86907 -7.0688e+000 -1.7377e+001  1.5534e+000 50047 86930,86714,86662
 1.1000e+000 86884 -9.6713e+000 -1.5911e+001  1.2672e+000 50047 86930,86662,86610
 1.1000e+000 86861 -8.5349e+000 -1.5459e+001  2.1599e+000 50047 87002,86740,86714
 1.1000e+000 86838 -8.6497e+000 -1.7904e+001  3.0153e-001 50047 86662,86714,86688
 1.1000e+000 86815 -9.6590e+000 -1.8901e+001 -1.8566e+000 50047 86610,86662,86636
 1.1000e+000 86792 -5.0009e+000 -1.2651e+001  1.7170e+000 50047 86584,86766,86610
 1.1000e+000 86956 -7.7877e+000 -1.6833e+001  1.5230e+000 50047 87002,86714,86930
 1.1000e+000 86979 -6.6882e+000 -1.3581e+001  2.4274e-001 50047 86766,86930,86610
 1.1000e+000 87028 -6.9467e+000 -1.6335e+001  2.4121e+000 50047 86766,86740,87002
 1.1000e+000 87051 -6.5547e+000 -1.6601e+001  1.9479e+000 50047 86766,87002,86930
 1.1000e+000 87250 -7.6138e+000 -2.2774e+001 -8.3469e-001 49543 87273,87126,87100
 1.1000e+000 87227 -7.1607e+000 -1.9094e+001  1.7563e+000 49543 87273,87100,87074
 1.1000e+000 87204 -7.1591e+000 -2.0769e+001 -5.7584e-001 49543 87126,87178,87152
 1.1000e+000 87299 -6.4585e+000 -1.7274e+001 -1.8978e-001 49543 87178,87126,87273
 1.1000e+000 87322 -7.0195e+000 -1.6329e+001  2.8709e+000 49543 87178,87273,87074
 1.1000e+000 87570 -2.3461e+000 -9.8061e+000  1.1324e-001 49146 87593,87449,87397
 1.1000e+000 87547 -1.8467e+000 -8.1462e+000  1.0568e+000 49146 87593,87397,87371
 1.1000e+000 87524 -5.7762e+000 -6.4714e+000  9.8829e-002 49146 87345,87475,87371
 1.1000e+000 87501 -3.5943e+000 -1.0635e+001 -2.6310e-001 49146 87397,87449,87423
 1.1000e+000 87619 -3.4916e+000 -9.4653e+000 -1.1270e+000 49146 87475,87449,87593
 1.1000e+000 87642 -2.7592e+000 -8.3995e+000 -2.0442e-001 49146 87475,87593,87371
 1.1000e+000 88073 -1.1161e+001 -2.4269e+001  8.0208e-001 48706 87854,87932,87880
 1.1000e+000 88050 -1.1556e+001 -2.8057e+001  6.2084e-002 48706 87828,87932,87854
 1.1000e+000 88027 -1.0320e+001 -2.3731e+001  3.5726e-001 48706 87750,87932,87828
 1.1000e+000 88004 -5.8860e+000 -4.2769e+001  3.5084e+000 48706 87750,87802,87776
 1.1000e+000 87981 -1.5316e+001 -4.3274e+001 -2.7578e+000 48706 87750,87828,87802
 1.1000e+000 87958 -9.5565e+000 -2.1861e+001 -2.1559e+000 48706 87880,87932,87906
 1.1000e+000 88402 -5.2774e+000 -1.3956e+001 -1.5087e+000 48145 88203,88281,88255
 1.1000e+000 88379 -5.4510e+000 -1.4252e+001 -2.3194e+000 48145 88203,88307,88281
 1.1000e+000 88356 -3.9179e+000 -1.2727e+001 -2.0329e+000 48145 88203,88255,88229
 1.1000e+000 88333 -7.1974e+000 -2.2130e+001 -8.2719e-001 48145 88177,88307,88203
 1.1000e+000 88601 -1.5482e+000 -9.0688e+000  2.9309e+000 47805 88696,88624,88477
 1.1000e+000 88578 -8.1072e+000 -1.5886e+001 -1.0793e+000 47805 88826,88624,88451
 1.1000e+000 88555 -9.0041e+000 -1.7243e+001 -3.1021e+000 47805 88826,88451,88425
 1.1000e+000 88650 -4.2171e+000 -1.4116e+001 -2.1604e+000 47805 88503,88477,88624
 1.1000e+000 88673 -1.0061e+001 -1.5480e+001 -2.2974e+000 47805 88503,88624,88529
 1.1000e+000 88722 -1.0007e+001 -1.7214e+001 -4.9732e-001 47805 88451,88624,88696
 1.1000e+000 88852 -8.7039e+000 -1.8929e+001 -2.6097e+000 47805 88529,88624,88826
 1.1000e+000 88875 -9.5741e+000 -2.0027e+001 -4.6597e+000 47805 88529,88826,88425
 1.1000e+000 89172 -3.6248e+000 -9.6097e+000 -5.2551e-001 47401 89195,88976,88898
 1.1000e+000 89149 -3.9359e+000 -9.6002e+000 -1.4858e+000 47401 89195,88898,89054
 1.1000e+000 89126 -2.8395e+000 -9.9068e+000 -5.2789e-001 47401 88898,88976,88950
 1.1000e+000 89103 -3.6019e+000 -1.0231e+001 -6.3853e-001 47401 88976,89028,89002
 1.1000e+000 89080 -3.4533e+000 -1.1378e+001 -5.9859e-001 47401 88898,88950,88924
 1.1000e+000 89221 -3.9282e+000 -1.0625e+001 -7.7887e-001 47401 89028,88976,89195
 1.1000e+000 89244 -4.4202e+000 -1.0486e+001 -1.8004e+000 47401 89028,89195,89054
 1.1000e+000 89575 -5.5433e+000 -1.5269e+001 -2.6542e+000 47111 89350,89454,89376
 1.1000e+000 89552 -1.0175e+001 -2.3247e+001  1.2465e+000 47111 89350,89480,89454
 1.1000e+000 89529 -1.1228e+001 -1.2684e+001  1.3045e+000 47111 89376,89454,89402
 1.1000e+000 89506 -1.1036e+001 -1.1672e+001  7.1416e-001 47111 89402,89454,89428
 1.1000e+000 89904 -1.1408e+001 -2.4108e+001 -7.9933e-001 46707 89705,89757,89731
 1.1000e+000 89881 -9.2812e+000 -2.5354e+001  1.9123e-001 46707 89705,89783,89757
 1.1000e+000 89858 -1.0557e+001 -2.5403e+001  1.5036e+000 46707 89679,89783,89705
 1.1000e+000 89835 -6.6414e+000 -2.1038e+001 -2.9660e-001 46707 89679,89809,89783
 1.1000e+000 90233 -8.3725e+000 -1.9998e+001 -9.9316e-001 46360 90034,90112,90086
 1.1000e+000 90210 -1.0173e+001 -1.7840e+001  1.3718e+000 46360 90034,90138,90112
 1.1000e+000 90187 -1.0082e+001 -2.5722e+001  7.1721e-001 46360 90034,90086,90060
 1.1000e+000 90164 -1.3152e+001 -2.1188e+001 -9.3270e-001 46360 90008,90138,90034
 1.1000e+000 90530 -4.0186e+000 -1.0502e+001 -1.5781e-001 45662 90256,90360,90308
 1.1000e+000 90507 -3.1046e+000 -9.9433e+000 -3.9263e-001 45662 90256,90412,90360
 1.1000e+000 90484 -2.1345e+000 -1.0450e+001 -1.2834e+000 45662 90256,90308,90282
 1.1000e+000 90461 -2.8982e+000 -7.7116e+000  7.1194e-001 45662 90360,90412,90386
 1.1000e+000 90438 -3.4995e+000 -9.7200e+000  2.2594e-001 45662 90308,90360,90334
 1.1000e+000 90910 -9.6086e+000 -1.7141e+001 -8.7962e-001 45108 90688,90766,90714
 1.1000e+000 90887 -1.1657e+001 -2.1044e+001 -1.6373e+000 45108 90662,90766,90688
 1.1000e+000 90864 -1.0385e+001 -1.4254e+001  1.6152e+000 45108 90636,90766,90662
 1.1000e+000 90841 -1.2484e+001 -7.9172e+000  2.2571e+000 45108 90714,90766,90740
 1.1000e+000 90818 -7.6181e+000 -1.9400e+001  4.1791e+000 45108 90636,90792,90766
 1.1000e+000 91158 -3.7662e+000 -1.2601e+001 -1.4497e+000 44604 91181,91011,90959
 1.1000e+000 91135 -2.7857e+000 -1.2510e+001 -1.6633e+000 44604 91181,90959,90933
 1.1000e+000 91112 -5.7552e+000 -1.3701e+001 -1.0086e+000 44604 90959,91011,90985
 1.1000e+000 91089 -4.2395e+000 -1.3713e+001  8.1364e-001 44604 90933,91063,91037
 1.1000e+000 91207 -4.2911e+000 -1.2368e+001 -1.0813e+000 44604 91037,91011,91181
 1.1000e+000 91230 -3.5401e+000 -1.2743e+001 -1.0467e+000 44604 91037,91181,90933
 1.1000e+000 91429 -4.2815e+000 -1.1111e+001 -8.1443e-001 44264 91452,91279,91253
 1.1000e+000 91406 -4.1465e+000 -1.1550e+001 -8.6528e-001 44264 91452,91253,91357
 1.1000e+000 91383 -5.6637e+000 -1.1759e+001 -1.1963e+000 44264 91279,91331,91305
 1.1000e+000 91478 -4.2608e+000 -1.0918e+001 -7.9408e-001 44264 91331,91279,91452
 1.1000e+000 91501 -3.9296e+000 -1.1148e+001 -7.5375e-001 44264 91331,91452,91357
 1.1000e+000 92060 -7.0508e+000 -1.4667e+001  2.0916e-001 43860 92083,91740,91688
 1.1000e+000 92037 -6.8401e+000 -1.4630e+001  2.3338e-001 43860 92083,91688,91896
 1.1000e+000 92014 -1.1268e+001 -1.7428e+001 -2.1133e+000 43860 91766,91870,91844
 1.1000e+000 91991 -3.7519e+000 -1.2177e+001  1.5909e+000 43860 91740,91870,91766
 1.1000e+000 91968 -4.6437e+000 -1.1576e+001  1.4719e+000 43860 91766,91844,91792
 1.1000e+000 91945 -6.8112e+000 -1.1991e+001  9.4621e-001 43860 91688,91740,91714
 1.1000e+000 91922 -1.2820e+001 -1.7256e+001 -1.2059e+000 43860 91792,91844,91818
 1.1000e+000 92109 -6.8619e+000 -1.4728e+001  3.1806e-001 43860 91870,91740,92083
 1.1000e+000 92132 -6.6523e+000 -1.4680e+001  3.5478e-001 43860 91870,92083,91896
 1.1000e+000 92353 -1.6049e+001 -2.9621e+001  1.3984e+000 43662 92203,92255,92229
 1.1000e+000 92330 -1.3364e+001 -2.7850e+001  7.0994e-001 43662 92376,92203,92281
 1.1000e+000 92307 -8.5895e+000 -2.3270e+001  2.7805e+000 43662 92177,92281,92203
 1.1000e+000 92402 -1.5368e+001 -2.8701e+001  1.0834e+000 43662 92255,92203,92376
 1.1000e+000 92682 -4.0095e+000 -1.2100e+001 -9.2775e-001 43464 92532,92584,92558
 1.1000e+000 92659 -4.2885e+000 -1.0589e+001 -4.0600e-001 43464 92506,92584,92532
 1.1000e+000 92636 -2.7048e+000 -9.9931e+000 -4.3453e-001 43464 92506,92610,92584
 1.1000e+000 93013 -1.2274e+001 -3.0081e+001  1.0956e+000 42960 92866,92918,92892
 1.1000e+000 92990 -1.1691e+001 -3.1238e+001  2.8821e-001 42960 93036,92918,92866
 1.1000e+000 92967 -1.0275e+001 -3.4932e+001  2.4048e+000 42960 93036,92866,92840
 1.1000e+000 92944 -1.2871e+001 -2.3532e+001  1.3439e+000 42960 92788,92918,92814
 1.1000e+000 93062 -1.1125e+001 -2.7574e+001 -2.1056e-001 42960 92814,92918,93036
 1.1000e+000 93085 -9.8526e+000 -3.0352e+001  3.0538e+000 42960 92814,93036,92840
 1.1000e+000 93186 -3.5844e+000 -1.2544e+001 -3.0469e+000 42556 93108,93160,93134
 1.1000e+000 93554 -3.5042e+000 -1.0773e+001 -2.3068e-001 42052 93231,93387,93361
 1.1000e+000 93531 -2.6675e+000 -9.6052e+000  1.2378e+000 42052 93231,93413,93387
 1.1000e+000 93508 -4.8999e+000 -1.1337e+001  1.8425e-001 42052 93231,93361,93257
 1.1000e+000 93485 -3.6484e+000 -1.0269e+001 -1.6038e-001 42052 93283,93361,93335
 1.1000e+000 93462 -2.9742e+000 -1.0611e+001  2.6561e-001 42052 93257,93361,93283
 1.1000e+000 93439 -3.6213e-001 -8.4929e+000 -2.0481e+000 42052 93283,93335,93309
 1.1000e+000 94162 -6.1053e+000 -1.3695e+001 -3.3346e+000 41498 93767,93975,93793
 1.1000e+000 94139 -3.2042e+000 -1.1743e+001  1.1031e+000 41498 93741,93975,93767
 1.1000e+000 94116 -5.7885e+000 -1.0296e+001 -2.2795e+000 41498 93793,93975,93923
 1.1000e+000 94093 -6.8548e+000 -1.2860e+001 -6.5939e-001 41498 93923,93975,93949
 1.1000e+000 94070 -7.8695e+000 -1.0777e+001 -2.5537e+000 41498 93871,93923,93897
 1.1000e+000 94047 -6.1885e+000 -1.0649e+001 -2.0574e+000 41498 93793,93923,93871
 1.1000e+000 94024 -6.3532e+000 -9.9022e+000  3.6960e-001 41498 93819,93871,93845
 1.1000e+000 94001 -7.0804e+000 -9.0371e+000 -1.2654e+000 41498 93793,93871,93819
 1.1000e+000 94619 -7.8474e+000 -1.2871e+001 -1.4541e+000 40930 94642,94423,94371
 1.1000e+000 94596 -8.8092e+000 -1.3523e+001 -7.8977e-001 40930 94642,94371,94345
 1.1000e+000 94573 -1.0112e+001 -1.8351e+001 -1.4938e+000 40930 94345,94501,94475
 1.1000e+000 94550 -3.5994e+000 -9.6928e+000 -3.1127e+000 40930 94371,94423,94397
 1.1000e+000 94527 -9.9787e+000 -8.9219e+000  4.0490e-001 40930 94423,94475,94449
 1.1000e+000 94668 -7.8944e+000 -1.1634e+001 -2.4636e+000 40930 94475,94423,94642
 1.1000e+000 94691 -8.7246e+000 -1.2693e+001 -1.8314e+000 40930 94475,94642,94345
 1.1000e+000 95148 -3.9420e+000 -1.5051e+001  3.5664e+000 40362 95171,94952,94926
 1.1000e+000 95125 -7.7532e+000 -1.7505e+001  7.1603e-002 40362 95171,94926,95004
 1.1000e+000 95102 -5.5845e+000 -1.4031e+001  1.3831e+000 40362 94874,95004,94926
 1.1000e+000 95079 -8.7572e+000 -1.4236e+001 -2.4035e-001 40362 94874,95030,95004
 1.1000e+000 95056 -8.3697e+000 -1.8860e+001  3.2325e+000 40362 94874,94926,94900
 1.1000e+000 95197 -7.8825e+000 -1.7896e+001  1.4812e+000 40362 94978,94952,95171
 1.1000e+000 95220 -1.0996e+001 -1.9902e+001 -1.9297e+000 40362 94978,95171,95004
 1.1000e+000 95549 -6.9677e+000 -1.2216e+001 -3.0320e-002 39586 95350,95402,95376
 1.1000e+000 95526 -4.8716e+000 -1.1587e+001 -2.1625e-001 39586 95324,95402,95350
 1.1000e+000 95503 -4.9733e+000 -1.0622e+001  5.0412e-001 39586 95324,95454,95402
 1.1000e+000 95480 -5.9488e+000 -1.4279e+001  1.2422e-001 39586 95402,95454,95428
 1.1000e+000 96055 -5.6877e+000 -1.1249e+001 -4.0168e-001 38968 96078,95862,95810
 1.1000e+000 96032 -6.8335e+000 -1.0522e+001 -7.9078e-001 38968 96078,95810,95758
 1.1000e+000 96009 -5.4780e+000 -1.1071e+001 -1.3604e+000 38968 96150,95732,95888
 1.1000e+000 95986 -5.6494e+000 -1.0971e+001 -4.9471e-002 38968 95810,95862,95836
 1.1000e+000 95963 -3.8578e+000 -1.0358e+001 -1.4988e+000 38968 95732,95914,95888
 1.1000e+000 95940 -7.7885e+000 -1.1857e+001 -2.9229e-001 38968 95758,95810,95784
 1.1000e+000 96104 -5.0653e+000 -1.0855e+001 -5.7341e-001 38968 95888,95862,96078
 1.1000e+000 96127 -6.1352e+000 -1.0854e+001 -7.4166e-001 38968 96150,95888,96078
 1.1000e+000 96176 -4.5950e+000 -1.0071e+001 -1.7935e+000 38968 95758,95732,96150
 1.1000e+000 96199 -5.2678e+000 -9.6833e+000 -1.2018e+000 38968 95758,96150,96078
 1.1000e+000 96545 -1.0726e+001 -1.7984e+001 -4.8474e-001 38507 96640,96568,96352
 1.1000e+000 96522 -1.2133e+001 -1.9634e+001 -1.1185e+000 38507 96568,96300,96222
 1.1000e+000 96499 -1.3814e+001 -1.8150e+001 -2.9687e+000 38507 96640,96352,96326
 1.1000e+000 96476 -1.0304e+001 -1.4114e+001  2.1384e+000 38507 96352,96404,96378
 1.1000e+000 96453 -1.4375e+001 -2.1923e+001 -2.3168e+000 38507 96222,96300,96248
 1.1000e+000 96430 -1.3277e+001 -2.7649e+001 -5.2463e+000 38507 96248,96300,96274
 1.1000e+000 96594 -9.7740e+000 -1.8582e+001 -3.6600e-001 38507 96404,96352,96568
 1.1000e+000 96617 -1.0520e+001 -1.3590e+001 -1.3437e+000 38507 96404,96568,96222
 1.1000e+000 96666 -1.2366e+001 -2.2587e+001 -3.2404e+000 38507 96300,96568,96640
 1.1000e+000 96689 -1.3574e+001 -2.2066e+001 -5.5410e+000 38507 96300,96640,96326
 1.1000e+000 97069 -6.9930e+000 -1.0157e+001  8.5918e-001 37760 97092,96873,96821
 1.1000e+000 97046 -7.0436e+000 -9.9820e+000 -1.0996e+000 37760 97092,96821,96795
 1.1000e+000 97023 -6.6449e+000 -1.0125e+001  8.0500e-001 37760 96821,96873,96847
 1.1000e+000 97000 -1.2808e+001 -9.2158e+000 -1.1471e+000 37760 96873,96925,96899
 1.1000e+000 96977 -1.1868e+001 -1.4858e+001  1.4482e+000 37760 96795,96951,96925
 1.1000e+000 97118 -7.9072e+000 -1.2146e+001  1.1186e+000 37760 96925,96873,97092
 1.1000e+000 97141 -7.6473e+000 -1.1746e+001 -1.0477e+000 37760 96925,97092,96795
 1.1000e+000 97647 -9.5617e+000 -1.6442e+001 -7.9898e-001 37356 97324,97480,97376
 1.1000e+000 97624 -1.5307e+001 -1.8529e+001 -1.0913e+000 37356 97324,97506,97480
 1.1000e+000 97601 -1.5020e+001 -1.6490e+001 -1.9735e+000 37356 97376,97480,97454
 1.1000e+000 97578 -1.1063e+001 -1.2256e+001  1.6846e+000 37356 97324,97376,97350
 1.1000e+000 97555 -6.6920e+000 -1.0221e+001  3.7857e+000 37356 97376,97454,97402
 1.1000e+000 97532 -2.1492e+001 -1.6751e+001 -1.1704e+000 37356 97402,97454,97428
 1.1000e+000 98232 -7.8710e+000 -1.0024e+001 -1.7265e+000 36902 97935,98065,98013
 1.1000e+000 98209 -4.2726e+000 -1.0900e+001 -3.7585e+000 36902 97935,98091,98065
 1.1000e+000 98186 -2.3641e-001 -6.9583e+000 -2.6042e+000 36902 97935,98013,97987
 1.1000e+000 98163  3.8386e+000 -1.0095e+001 -5.9298e-001 36902 97909,98091,97935
 1.1000e+000 98140 -5.7912e-001 -6.8280e+000 -2.2439e+000 36902 97935,97987,97961
 1.1000e+000 98117 -8.6284e+000 -1.0458e+001 -3.0859e+000 36902 98013,98065,98039
 1.1000e+000 98659 -1.5067e+001 -2.2270e+001 -2.8677e-001 36604 98682,98414,98388
 1.1000e+000 98636 -1.3411e+001 -2.1427e+001  3.3836e-001 36604 98682,98388,98336
 1.1000e+000 98613 -1.5066e+001 -1.8738e+001  3.7944e-001 36604 98754,98518,98466
 1.1000e+000 98590 -1.9144e+001 -2.1971e+001  4.1124e-001 36604 98414,98466,98440
 1.1000e+000 98567 -1.6231e+001 -2.3855e+001 -7.9169e-001 36604 98336,98388,98362
 1.1000e+000 98544 -1.2249e+001 -2.0455e+001  8.4072e+000 36604 98466,98518,98492
 1.1000e+000 98708 -1.4606e+001 -2.2428e+001  1.1735e+000 36604 98466,98414,98682
 1.1000e+000 98731 -1.4534e+001 -2.2174e+001  5.6495e-001 36604 98754,98466,98682
 1.1000e+000 98780 -1.5240e+001 -1.7024e+001  7.6356e-001 36604 98336,98518,98754
 1.1000e+000 98803 -1.3227e+001 -1.8710e+001  1.4864e+000 36604 98336,98754,98682
 1.1000e+000 99309 -4.3699e+000 -1.2462e+001  5.9283e-001 36200 99332,99116,99012
 1.1000e+000 99286 -4.3292e+000 -1.0178e+001 -4.8781e-001 36200 99332,99012,98986
 1.1000e+000 99263 -5.0217e+000 -1.1325e+001  1.4562e+000 36200 99012,99116,99064
 1.1000e+000 99240 -4.8278e+000 -1.4000e+001 -3.5762e-001 36200 98986,99168,99142
 1.1000e+000 99217  2.0530e+000 -1.4026e+001  3.0757e+000 36200 99064,99116,99090
 1.1000e+000 99194 -6.4404e+000 -1.0892e+001  3.4302e-001 36200 99012,99064,99038
 1.1000e+000 99358 -4.6217e+000 -1.3999e+001  1.2014e+000 36200 99142,99116,99332
 1.1000e+000 99381 -4.8153e+000 -1.2555e+001 -1.0502e-001 36200 99142,99332,98986
 1.1000e+000 99887 -1.3848e+001 -1.6337e+001  1.6056e+000 35488 99564,99720,99590
 1.1000e+000 99864 -1.3139e+001 -1.4592e+001  1.4135e+000 35488 99564,99746,99720
 1.1000e+000 99841 -1.0649e+001 -1.7421e+001  2.8171e-001 35488 99642,99694,99668
 1.1000e+000 99818 -1.1706e+001 -1.8773e+001  1.7986e+000 35488 99590,99694,99642
 1.1000e+000 99795 -9.7096e+000 -1.4508e+001  1.0237e+000 35488 99590,99720,99694
 1.1000e+000 99772 -5.6874e+000 -2.2553e+001  3.1035e+000 35488 99590,99642,99616
 1.1000e+000 99988 -4.2661e+000 -1.4985e+001  1.5109e+000 35198 99910,99962,99936
 1.1000e+000 100138 -1.2192e+001 -2.3579e+001  1.5805e+000 34794 100233,100161,100063
 1.1000e+000 100115 -1.1564e+001 -1.9559e+001 -3.7082e-001 34794 100365,100161,100037
 1.1000e+000 100187 -1.5919e+001 -1.7460e+001  8.0606e-001 34794 100089,100063,100161
 1.1000e+000 100210 -9.1753e+000 -1.2536e+001  3.0520e+000 34794 100089,100161,100011
 1.1000e+000 100259 -1.3098e+001 -2.3063e+001 -2.6165e+000 34794 100037,100161,100233
 1.1000e+000 100391 -5.7325e+000 -1.0724e+001 -4.5041e+000 34794 100011,100161,100365
 1.1000e+000 100927 -6.6661e+000 -1.4589e+001 -1.7275e-001 34404 100679,100809,100783
 1.1000e+000 100904 -6.2942e+000 -1.3566e+001  1.7217e-001 34404 100653,100809,100679
 1.1000e+000 100881 -8.4859e+000 -1.6594e+001 -5.2117e-002 34404 100705,100783,100731
 1.1000e+000 100858 -8.6671e+000 -1.5707e+001  4.4589e-001 34404 100679,100783,100705
 1.1000e+000 100835 -8.2216e+000 -1.6783e+001  3.8306e-001 34404 100731,100783,100757
 1.1000e+000 101354 -8.3129e+000 -1.5859e+001  1.1984e+000 34000 101377,101109,101057
 1.1000e+000 101331 -1.1166e+001 -1.7899e+001  1.0076e-001 34000 101449,101377,101057
 1.1000e+000 101308 -1.1279e+001 -1.7726e+001  8.8705e-002 34000 101449,101057,101031
 1.1000e+000 101285 -1.5329e+001 -1.9540e+001 -5.4177e+000 34000 101031,101213,101187
 1.1000e+000 101262 -1.2567e+001 -2.6235e+001 -4.6885e+000 34000 101135,101187,101161
 1.1000e+000 101239 -1.0071e+001 -5.1435e+000 -1.1748e+000 34000 101057,101109,101083
 1.1000e+000 101403 -1.0341e+001 -1.6191e+001 -1.6369e+000 34000 101135,101109,101377
 1.1000e+000 101426 -1.4650e+001 -1.7876e+001 -2.2237e+000 34000 101135,101377,101187
 1.1000e+000 101475 -1.0928e+001 -1.7694e+001  8.4397e-003 34000 101187,101377,101449
 1.1000e+000 101498 -1.1121e+001 -1.7620e+001  3.7189e-002 34000 101187,101449,101031
 1.1000e+000 102083 -6.1133e+000 -1.4143e+001  5.4613e-001 33472 102106,101812,101786
 1.1000e+000 102060 -6.8161e+000 -1.4022e+001 -1.0234e-001 33472 102106,101786,101916
 1.1000e+000 102037 -7.5265e+000 -1.5995e+001 -4.8901e-001 33472 101812,101864,101838
 1.1000e+000 102014 -6.3049e+000 -1.5884e+001 -3.9331e-001 33472 101864,101916,101890
 1.1000e+000 101991 -8.1812e+000 -1.3046e+001 -2.1644e-001 33472 101786,101942,101916
 1.1000e+000 101968 -8.9245e+000 -1.2917e+001  1.6460e+000 33472 101760,101942,101786
 1.1000e+000 102132 -6.6792e+000 -1.4760e+001  2.7195e-001 33472 101864,101812,102106
 1.1000e+000 102155 -7.0903e+000 -1.4551e+001 -3.3937e-001 33472 101864,102106,101916
 1.1000e+000 102612 -1.1096e+001 -1.8210e+001 -2.8305e+000 33038 102635,102468,102390
 1.1000e+000 102589 -9.9890e+000 -1.7068e+001 -1.7997e+000 33038 102635,102390,102364
 1.1000e+000 102566 -1.0357e+001 -1.3854e+001 -1.2656e+000 33038 102390,102468,102442
 1.1000e+000 102543 -6.6168e+000 -1.7687e+001 -6.2258e-001 33038 102338,102494,102364
 1.1000e+000 102520 -9.1585e+000 -1.3257e+001 -1.0480e+000 33038 102390,102442,102416
 1.1000e+000 102661 -1.1412e+001 -1.8578e+001 -3.4079e+000 33038 102494,102468,102635
 1.1000e+000 102684 -1.1476e+001 -1.8146e+001 -2.5233e+000 33038 102494,102635,102364
 1.1000e+000 103318 -8.3153e+000 -1.3859e+001  4.6776e-001 32402 102972,103128,103076
 1.1000e+000 103295 -8.4109e+000 -1.3961e+001  4.2564e-001 32402 102946,103128,102972
 1.1000e+000 103272 -1.0120e+001 -1.8293e+001  7.7595e-001 32402 103076,103128,103102
 1.1000e+000 103249 -8.6270e+000 -1.4022e+001  8.5769e-001 32402 102946,103154,103128
 1.1000e+000 103226 -8.7824e+000 -1.3445e+001 -4.3359e-002 32402 102972,103076,102998
 1.1000e+000 103203 -8.6358e+000 -1.2820e+001  3.6963e-001 32402 102998,103076,103050
 1.1000e+000 103180 -7.3017e+000 -1.0881e+001 -3.6609e-001 32402 102998,103050,103024
 1.1000e+000 103696 -4.4860e+000 -1.5154e+001 -1.2492e+000 31924 103448,103526,103500
 1.1000e+000 103673 -6.2209e+000 -1.6600e+001 -4.1165e+000 31924 103448,103578,103526
 1.1000e+000 103650 -7.5323e+000 -1.1987e+001 -7.0560e-001 31924 103448,103500,103474
 1.1000e+000 103627 -3.6217e+000 -1.8674e+001 -3.4492e+000 31924 103422,103578,103448
 1.1000e+000 103604 -2.1811e+000 -2.3436e+001 -3.3820e+000 31924 103526,103578,103552
 1.1000e+000 104281 -4.5648e+000 -9.9680e+000  5.4584e-001 31520 104304,104062,104036
 1.1000e+000 104258 -6.6972e+000 -1.1272e+001 -8.3306e-002 31520 104304,104036,103984
 1.1000e+000 104235 -4.8634e+000 -1.1873e+001 -7.8135e-001 31520 104062,104114,104088
 1.1000e+000 104212 -3.2518e-001 -9.5564e+000 -1.6475e+000 31520 103958,104114,103984
 1.1000e+000 104189 -6.6728e+000 -1.1249e+001 -1.0377e+000 31520 103984,104036,104010
 1.1000e+000 104166 -2.2599e+000 -1.3979e+001 -7.3199e-001 31520 103958,104140,104114
 1.1000e+000 104330 -4.3522e+000 -1.1527e+001 -4.5766e-001 31520 104114,104062,104304
 1.1000e+000 104353 -5.1063e+000 -1.1824e+001 -6.0224e-001 31520 104114,104304,103984
 1.1000e+000 104704 -7.6120e+000 -1.2991e+001 -7.4401e-001 31066 104479,104583,104505
 1.1000e+000 104681 -3.7333e+000 -1.1767e+001 -9.6287e-001 31066 104479,104609,104583
 1.1000e+000 104658 -4.6707e+000 -1.4379e+001  6.8771e-001 31066 104505,104557,104531
 1.1000e+000 104635 -4.1971e+000 -1.1001e+001  8.7238e-002 31066 104505,104583,104557
 1.1000e+000 104925 -1.5763e+001 -2.4014e+001 -1.1393e-001 30754 104775,104827,104801
 1.1000e+000 104902 -1.4968e+001 -2.4157e+001 -4.5835e-001 30754 104775,104853,104827
 1.1000e+000 104879 -1.5831e+001 -2.4535e+001 -5.7585e-001 30754 104749,104853,104775
 1.1000e+000 105482 -1.6020e+001 -2.3802e+001  1.3510e-001 30164 105505,105136,105110
 1.1000e+000 105459 -1.7717e+001 -2.3118e+001 -3.7437e-002 30164 105649,105505,105110
 1.1000e+000 105436 -1.9374e+001 -2.6580e+001 -1.5687e-001 30164 105577,105188,105136
 1.1000e+000 105413 -1.7329e+001 -2.3151e+001  1.2225e+000 30164 105649,105110,105318
 1.1000e+000 105390 -1.5491e+001 -2.3387e+001  2.9032e+000 30164 105214,105292,105240
 1.1000e+000 105367 -1.6989e+001 -2.3136e+001  2.4687e+000 30164 105240,105292,105266
 1.1000e+000 105344 -1.9568e+001 -3.1682e+001  1.3860e+000 30164 105136,105188,105162
 1.1000e+000 105531 -1.7158e+001 -2.5699e+001 -6.1088e-001 30164 105577,105136,105505
 1.1000e+000 105554 -1.5098e+001 -2.3414e+001  1.3218e-001 30164 105214,105505,105292
 1.1000e+000 105603 -1.8445e+001 -2.7067e+001  2.0476e+000 30164 105214,105188,105577
 1.1000e+000 105626 -1.7221e+001 -2.6644e+001  1.6279e+000 30164 105214,105577,105505
 1.1000e+000 105675 -1.6919e+001 -2.1085e+001  6.3241e-001 30164 105292,105505,105649
 1.1000e+000 105698 -1.6758e+001 -2.0497e+001  1.6751e+000 30164 105292,105649,105318
 1.1000e+000 106027 -1.3478e+001 -1.7467e+001 -2.2455e+000 29868 106322,106050,105880
 1.1000e+000 106004 -1.2080e+001 -1.5239e+001 -3.7396e+000 29868 106250,106050,105828
 1.1000e+000 105981 -1.0440e+001 -1.6226e+001 -6.9741e+000 29868 106250,105828,105802
 1.1000e+000 105958 -1.3193e+001 -1.7207e+001 -2.4093e+000 29868 106322,105880,106122
 1.1000e+000 106076 -1.3999e+001 -2.0084e+001 -1.3358e+000 29868 105906,105880,106050
 1.1000e+000 106099 -1.4961e+001 -1.8195e+001 -1.5589e+000 29868 105906,106050,105932
 1.1000e+000 106148 -1.3287e+001 -1.6386e+001 -4.5442e+000 29868 105854,105828,106122
 1.1000e+000 106276 -1.3601e+001 -2.0115e+001 -1.5826e+000 29868 105932,106050,106250
 1.1000e+000 106299 -1.0696e+001 -2.2041e+001 -5.0573e+000 29868 105932,106250,105802
 1.1000e+000 106348 -1.2928e+001 -1.7843e+001 -2.4762e+000 29868 105828,106050,106322
 1.1000e+000 106371 -1.2715e+001 -1.7682e+001 -2.6153e+000 29868 105828,106322,106122
 1.1000e+000 106828 -1.1923e+001 -1.5223e+001 -4.2188e-001 29521 106580,106710,106684
 1.1000e+000 106805 -8.8359e+000 -1.1833e+001  1.6339e+000 29521 106554,106710,106580
 1.1000e+000 106782 -6.3658e+000 -9.6783e+000  1.9175e+000 29521 106580,106684,106606
 1.1000e+000 106759 -1.1421e+001 -1.5734e+001 -2.8263e+000 29521 106606,106684,106658
 1.1000e+000 106736 -6.9535e+000 -1.1502e+001 -1.0301e+000 29521 106606,106658,106632
 1.1000e+000 107027 -7.2150e+000 -1.5456e+001  2.3659e-001 29117 106877,106929,106903
 1.1000e+000 107004 -9.0424e+000 -1.6208e+001  2.2068e+000 29117 106851,106929,106877
 1.1000e+000 106981 -8.7942e+000 -1.3750e+001  1.8246e+000 29117 106851,106955,106929
 1.1000e+000 107456 -8.9263e+000 -1.5205e+001 -5.7820e-001 28656 107237,107315,107263
 1.1000e+000 107433 -7.3903e+000 -1.3561e+001  5.6020e-002 28656 107133,107315,107237
 1.1000e+000 107410 -6.7387e+000 -1.3752e+001 -7.4256e-001 28656 107133,107237,107159
 1.1000e+000 107387 -7.6490e+000 -1.2888e+001 -7.2959e-001 28656 107159,107237,107185
 1.1000e+000 107364 -5.8662e+000 -1.2440e+001 -1.8052e+000 28656 107185,107237,107211
 1.1000e+000 107341 -7.9303e+000 -1.2980e+001 -3.5579e-001 28656 107263,107315,107289
 1.1000e+000 107704 -9.4237e+000 -1.6738e+001 -3.9912e-001 27902 107727,107557,107531
 1.1000e+000 107681 -9.7993e+000 -1.7841e+001 -4.8757e-001 27902 107727,107531,107505
 1.1000e+000 107658 -8.8047e+000 -1.7401e+001 -3.4633e-002 27902 107557,107609,107583
 1.1000e+000 107635 -1.1373e+001 -2.1013e+001 -2.0136e+000 27902 107479,107609,107505
 1.1000e+000 107753 -8.9970e+000 -1.7658e+001  7.5989e-002 27902 107609,107557,107727
 1.1000e+000 107776 -9.2562e+000 -1.8570e+001  2.0993e-002 27902 107609,107727,107505
 1.1000e+000 108333 -7.5298e+000 -1.5559e+001 -1.0784e-001 27341 108356,108065,108013
 1.1000e+000 108310 -7.5874e+000 -1.5362e+001 -1.0846e+000 27341 108356,108013,108143
 1.1000e+000 108287 -6.8772e+000 -1.6402e+001 -8.8222e-001 27341 108428,108117,108091
 1.1000e+000 108264 -8.5499e+000 -1.5906e+001  2.2621e-001 27341 108013,108065,108039
 1.1000e+000 108241 -9.8644e+000 -1.4517e+001 -1.2330e+000 27341 107987,108143,108013
 1.1000e+000 108218 -7.7687e+000 -1.3610e+001 -1.4079e+000 27341 107987,108169,108143
 1.1000e+000 108195 -6.5427e+000 -1.2603e+001 -9.5994e-001 27341 107961,108169,107987
 1.1000e+000 108382 -7.9302e+000 -1.6635e+001  6.8332e-002 27341 108091,108065,108356
 1.1000e+000 108405 -7.4080e+000 -1.5503e+001 -5.3228e-001 27341 108428,108091,108356
 1.1000e+000 108454 -7.8310e+000 -1.7970e+001 -1.3404e+000 27341 108143,108117,108428
 1.1000e+000 108477 -8.1817e+000 -1.6754e+001 -9.6458e-001 27341 108143,108428,108356
 1.1000e+000 108725 -1.7845e+001 -2.1041e+001  1.1532e+000 27029 108748,108526,108500
 1.1000e+000 108702 -1.7394e+001 -2.4929e+001  7.8176e-001 27029 108748,108500,108630
 1.1000e+000 108679 -1.7621e+001 -2.1988e+001  5.2716e+000 27029 108578,108630,108604
 1.1000e+000 108656 -2.1284e+001 -2.3059e+001 -3.1715e+000 27029 108526,108578,108552
 1.1000e+000 108774 -1.7345e+001 -1.8638e+001  1.2297e+000 27029 108578,108526,108748
 1.1000e+000 108797 -1.6084e+001 -2.1448e+001  1.2271e+000 27029 108578,108748,108630
 1.1000e+000 109045 -8.1884e+000 -1.6122e+001 -3.4439e-001 26610 108872,108924,108898
 1.1000e+000 109022 -9.0476e+000 -1.5027e+001  1.7364e-001 26610 108872,108950,108924
 1.1000e+000 108999 -9.7708e+000 -1.6048e+001 -3.3719e-001 26610 108846,108950,108872
 1.1000e+000 108976 -1.0898e+001 -1.3486e+001 -1.3763e-001 26610 108820,108950,108846
 1.1000e+000 109366 -4.8961e+000 -1.5974e+001 -3.4277e-001 26006 109144,109222,109196
 1.1000e+000 109343 -4.3321e+000 -1.5049e+001  1.1454e-002 26006 109118,109222,109144
 1.1000e+000 109320 -5.7304e+000 -1.5843e+001  3.7365e-001 26006 109092,109222,109118
 1.1000e+000 109297 -6.0106e+000 -1.6438e+001 -4.6495e-001 26006 109144,109196,109170
 1.1000e+000 109274 -3.7340e+000 -1.1797e+001 -3.8051e-001 26006 109092,109248,109222
 1.1000e+000 109567 -8.4854e+000 -1.6487e+001  4.3781e-001 25659 109391,109469,109443
 1.1000e+000 109544 -8.7245e+000 -1.7133e+001  1.7832e+000 25659 109391,109495,109469
 1.1000e+000 109521 -8.3730e+000 -1.6684e+001  2.8835e-001 25659 109391,109443,109417
 1.1000e+000 109900 -1.1024e+001 -2.0437e+001 -1.3112e+000 25255 109923,109779,109753
 1.1000e+000 109877 -1.0271e+001 -1.7257e+001  1.0035e+000 25255 109923,109753,109701
 1.1000e+000 109854 -1.2489e+001 -2.1244e+001 -2.5944e+000 25255 109675,109805,109701
 1.1000e+000 109831 -5.9187e+000 -1.6839e+001  6.7914e-001 25255 109701,109753,109727
 1.1000e+000 109949 -1.3408e+001 -2.5274e+001 -4.4256e+000 25255 109805,109779,109923
 1.1000e+000 109972 -1.0791e+001 -1.9498e+001 -1.9053e+000 25255 109805,109923,109701
 1.1000e+000 110220 -9.6109e+000 -1.7559e+001  8.5924e-002 24701 110243,110021,109995
 1.1000e+000 110197 -9.6493e+000 -1.7812e+001 -2.3981e-001 24701 110243,109995,110099
 1.1000e+000 110174 -9.5000e+000 -1.6311e+001 -1.1973e-001 24701 110315,110073,110047
 1.1000e+000 110151 -9.3904e+000 -1.9174e+001  3.9429e-002 24701 109995,110125,110099
 1.1000e+000 110269 -1.0702e+001 -1.8950e+001 -9.4828e-001 24701 110047,110021,110243
 1.1000e+000 110292 -9.6074e+000 -1.6562e+001 -3.2431e-001 24701 110315,110047,110243
 1.1000e+000 110341 -8.1022e+000 -1.6750e+001  4.1632e-001 24701 110099,110073,110315
 1.1000e+000 110364 -8.7805e+000 -1.7439e+001 -2.6416e-002 24701 110099,110315,110243
 1.1000e+000 110661 -9.1560e+000 -1.6970e+001  6.5808e-001 24197 110684,110413,110387
 1.1000e+000 110638 -8.5973e+000 -1.6070e+001  2.0387e-001 24197 110684,110387,110543
 1.1000e+000 110615 -8.2292e+000 -1.7450e+001  3.0105e-001 24197 110756,110491,110465
 1.1000e+000 110592 -7.0157e+000 -1.6949e+001  3.8150e-001 24197 110413,110465,110439
 1.1000e+000 110569 -7.4698e+000 -1.8621e+001 -1.9942e+000 24197 110491,110543,110517
 1.1000e+000 110710 -8.4388e+000 -1.6729e+001  4.5614e-001 24197 110465,110413,110684
 1.1000e+000 110733 -8.6705e+000 -1.7093e+001  1.7830e-001 24197 110756,110465,110684
 1.1000e+000 110782 -7.8632e+000 -1.7057e+001  5.9504e-002 24197 110543,110491,110756
 1.1000e+000 110805 -8.1457e+000 -1.6536e+001 -1.0018e-001 24197 110543,110756,110684
 1.1000e+000 111315 -1.2380e+001 -1.7613e+001 -2.0635e-001 23593 111044,111148,111070
 1.1000e+000 111292 -1.4839e+001 -1.7016e+001  9.5938e-002 23593 111044,111174,111148
 1.1000e+000 111269 -1.3425e+001 -1.9508e+001  3.9455e-002 23593 111070,111122,111096
 1.1000e+000 111246 -1.3715e+001 -2.0784e+001 -3.6964e-001 23593 111070,111148,111122
 1.1000e+000 111223 -1.2610e+001 -1.1553e+001  4.6724e-001 23593 111018,111174,111044
 1.1000e+000 111200 -1.3506e+001 -6.2225e+000  1.1098e+000 23593 110992,111174,111018
 1.1000e+000 111821 -6.1261e+000 -1.5866e+001 -2.9058e-001 23089 111916,111844,111628
 1.1000e+000 111798 -8.3653e+000 -1.7106e+001 -6.9491e-001 23089 111844,111550,111524
 1.1000e+000 111775 -5.6192e+000 -1.5524e+001 -1.0042e-001 23089 111916,111628,111602
 1.1000e+000 111752 -8.1437e+000 -1.8837e+001  2.9432e-001 23089 111498,111680,111524
 1.1000e+000 111729 -7.0478e+000 -1.4769e+001 -2.5066e-001 23089 111550,111602,111576
 1.1000e+000 111706 -5.9373e+000 -1.3323e+001 -8.6176e-001 23089 111628,111680,111654
 1.1000e+000 111870 -7.6019e+000 -1.5705e+001  2.2106e-001 23089 111680,111628,111844
 1.1000e+000 111893 -7.9265e+000 -1.6402e+001  7.8763e-001 23089 111680,111844,111524
 1.1000e+000 111942 -7.4159e+000 -1.5078e+001 -4.3541e-001 23089 111550,111844,111916
 1.1000e+000 111965 -6.7429e+000 -1.4632e+001 -2.2270e-001 23089 111550,111916,111602
 1.1000e+000 112164 -1.3363e+001 -2.1109e+001 -6.5303e-002 22626 112187,112014,111988
 1.1000e+000 112141 -1.4288e+001 -1.9234e+001 -6.2819e-002 22626 112259,112187,111988
 1.1000e+000 112118 -1.5319e+001 -1.8277e+001 -2.2808e+000 22626 112259,111988,112092
 1.1000e+000 112213 -1.4845e+001 -2.1651e+001 -4.6203e-001 22626 112040,112014,112187
 1.1000e+000 112236 -1.5554e+001 -2.1457e+001  3.7416e-001 22626 112040,112187,112066
 1.1000e+000 112285 -1.5942e+001 -2.2607e+001 -5.9099e-001 22626 112066,112187,112259
 1.1000e+000 112308 -1.6969e+001 -2.1830e+001 -2.7055e+000 22626 112066,112259,112092
 1.1000e+000 112605 -9.0806e+000 -1.7187e+001  5.2946e-002 22286 112628,112383,112357
 1.1000e+000 112582 -9.9486e+000 -1.7750e+001  3.7390e-001 22286 112772,112628,112357
 1.1000e+000 112559 -1.0926e+001 -1.8147e+001  6.2930e-001 22286 112700,112435,112409
 1.1000e+000 112536 -1.1702e+001 -1.7898e+001  7.6616e-001 22286 112772,112357,112331
 1.1000e+000 112513 -1.1022e+001 -1.7284e+001  3.8269e-001 22286 112435,112487,112461
 1.1000e+000 112654 -9.2025e+000 -1.5333e+001 -5.8309e-001 22286 112409,112383,112628
 1.1000e+000 112677 -1.0316e+001 -1.7358e+001  9.4540e-002 22286 112700,112409,112628
 1.1000e+000 112726 -1.0048e+001 -1.7380e+001  1.5614e-002 22286 112487,112435,112700
 1.1000e+000 112749 -9.8012e+000 -1.7290e+001 -4.1979e-001 22286 112487,112700,112628
 1.1000e+000 112798 -9.1767e+000 -1.7381e+001  4.9526e-002 22286 112487,112628,112772
 1.1000e+000 112821 -9.7048e+000 -1.6787e+001  3.1503e-001 22286 112487,112772,112331
 1.1000e+000 112924 -1.7706e+001 -2.1803e+001  6.0413e-001 21974 112846,112898,112872
 1.1000e+000 113223 -1.0371e+001 -1.7875e+001 -2.2958e+000 21420 112949,113053,112975
 1.1000e+000 113200 -1.3613e+001 -2.0256e+001 -5.4857e-001 21420 112949,113079,113053
 1.1000e+000 113177 -1.6437e+001 -2.0407e+001 -2.1282e+000 21420 112975,113053,113001
 1.1000e+000 113154 -1.2358e+001 -1.6107e+001  1.2944e-001 21420 113001,113053,113027
 1.1000e+000 113131 -1.5515e+001 -2.1951e+001  3.0264e-001 21420 112949,113105,113079
 1.1000e+000 113605 -1.9876e+001 -2.5451e+001 -3.7265e-001 20716 113331,113435,113357
 1.1000e+000 113582 -1.9196e+001 -2.5434e+001 -6.9206e-001 20716 113331,113461,113435
 1.1000e+000 113559 -1.9565e+001 -2.5789e+001 -6.6554e-002 20716 113383,113435,113409
 1.1000e+000 113536 -1.8663e+001 -2.5288e+001  1.6021e-001 20716 113357,113435,113383
 1.1000e+000 113513 -2.0079e+001 -2.1226e+001 -4.3476e+000 20716 113331,113487,113461
 1.1000e+000 113853 -1.0437e+001 -1.6289e+001 -1.6459e-001 20290 113876,113680,113654
 1.1000e+000 113830 -9.4059e+000 -1.7751e+001 -9.8530e-001 20290 113876,113654,113628
 1.1000e+000 113807 -1.0401e+001 -1.7641e+001 -3.1434e-001 20290 113948,113732,113680
 1.1000e+000 113784 -7.6582e+000 -1.6941e+001 -5.7046e-001 20290 113680,113732,113706
 1.1000e+000 113902 -1.0408e+001 -1.7587e+001 -3.7454e-001 20290 113948,113680,113876
 1.1000e+000 113925 -9.9747e+000 -1.9879e+001 -3.6498e-001 20290 113758,113876,113628
 1.1000e+000 113974 -1.0341e+001 -1.7581e+001 -3.3962e-001 20290 113758,113732,113948
 1.1000e+000 113997 -1.0324e+001 -1.7531e+001 -4.0156e-001 20290 113758,113948,113876
 1.1000e+000 114365 -5.6128e+000 -1.6196e+001  5.5773e-002 19900 114146,114198,114172
 1.1000e+000 114342 -5.8798e+000 -1.6317e+001  9.1399e-003 19900 114042,114198,114146
 1.1000e+000 114319 -5.3754e+000 -1.6025e+001 -2.7007e-001 19900 114042,114224,114198
 1.1000e+000 114296 -7.7740e+000 -1.5960e+001 -4.3359e-002 19900 114094,114146,114120
 1.1000e+000 114273 -5.8550e+000 -1.5453e+001 -4.3815e-001 19900 114042,114146,114094
 1.1000e+000 114250 -5.1125e+000 -1.5527e+001 -8.9317e-001 19900 114042,114094,114068
 1.1000e+000 114566 -8.0153e+000 -1.6896e+001  3.7197e-001 19496 114442,114494,114468
 1.1000e+000 114543 -1.0062e+001 -1.7108e+001 -5.9978e-001 19496 114416,114494,114442
 1.1000e+000 114520 -7.0099e+000 -1.6715e+001 -8.7011e-001 19496 114390,114494,114416
 1.1000e+000 114767 -6.8014e+000 -1.5970e+001  9.8289e-003 19042 114790,114669,114643
 1.1000e+000 114744 -7.6244e+000 -1.5710e+001  1.2514e-001 19042 114790,114643,114591
 1.1000e+000 114721 -7.8776e+000 -1.7042e+001  4.2972e-001 19042 114591,114643,114617
 1.1000e+000 114816 -5.9930e+000 -1.5816e+001 -7.3931e-002 19042 114695,114669,114790
 1.1000e+000 114839 -6.9291e+000 -1.5572e+001 -8.8859e-002 19042 114695,114790,114591
 1.1000e+000 114991 -7.5168e+000 -1.5990e+001 -2.1441e-001 18488 114864,114916,114890
 1.1000e+000 114968 -7.3598e+000 -1.7816e+001 -6.2160e-002 18488 114864,114942,114916
 1.1000e+000 115192 -8.7302e+000 -1.6169e+001 -2.4582e-001 18098 115215,115042,115016
 1.1000e+000 115169 -8.0068e+000 -1.6004e+001 -2.7953e-001 18098 115215,115016,115120
 1.1000e+000 115146 -7.7783e+000 -1.6053e+001  4.9809e-002 18098 115287,115094,115068
 1.1000e+000 115241 -8.1537e+000 -1.6743e+001 -3.5913e-002 18098 115068,115042,115215
 1.1000e+000 115264 -7.8729e+000 -1.6379e+001 -1.5799e-001 18098 115287,115068,115215
 1.1000e+000 115313 -7.5834e+000 -1.5803e+001  3.7269e-001 18098 115120,115094,115287
 1.1000e+000 115336 -7.5641e+000 -1.6053e+001  1.8333e-001 18098 115120,115287,115215
 1.1000e+000 115846 -1.4470e+001 -1.9436e+001  9.4539e-001 17644 115653,115705,115679
 1.1000e+000 115823 -1.3291e+001 -1.9638e+001  2.4765e-001 17644 115627,115705,115653
 1.1000e+000 115800 -1.3902e+001 -2.0764e+001  1.3732e-002 17644 115549,115705,115627
 1.1000e+000 115777 -1.3418e+001 -1.9394e+001 -1.0031e-001 17644 115549,115627,115575
 1.1000e+000 115754 -1.4939e+001 -2.1684e+001 -7.1903e-001 17644 115523,115705,115549
 1.1000e+000 115731 -1.5411e+001 -1.9281e+001 -6.5000e-001 17644 115575,115627,115601
 1.1000e+000 116067 -1.1382e+001 -1.5280e+001  1.9763e-001 17116 115891,115943,115917
 1.1000e+000 116044 -1.0051e+001 -1.3870e+001 -3.5269e-001 17116 115891,115995,115943
 1.1000e+000 116021 -1.1115e+001 -1.7247e+001 -6.7431e-001 17116 115943,115995,115969
 1.1000e+000 116288 -8.1998e+000 -1.6765e+001  1.3512e+000 16704 116164,116216,116190
 1.1000e+000 116265 -9.5337e+000 -1.9173e+001  7.8790e-001 16704 116112,116216,116164
 1.1000e+000 116242 -1.0945e+001 -1.8796e+001 -1.2608e-001 16704 116112,116164,116138
 1.1000e+000 116489 -1.8694e+001 -2.4754e+001  5.6755e-001 16434 116339,116417,116365
 1.1000e+000 116466 -1.9134e+001 -2.5216e+001 -1.4164e-002 16434 116313,116417,116339
 1.1000e+000 116443 -2.0848e+001 -2.3985e+001  2.5562e+000 16434 116365,116417,116391
 1.1000e+000 116592 -1.0528e+001 -1.6304e+001 -9.4527e-001 15967 116514,116566,116540
 1.1000e+000 116695 -1.4342e+001 -2.0680e+001 -3.9263e-001 15552 116617,116669,116643
 1.1000e+000 116798 -5.1242e+000 -1.5212e+001  0.0000e+000 421 116720,116772,116746
 1.2000e+000 69066 -2.0319e+000 -3.1931e+001  4.7679e+000 68738 68965,69017,68991
 1.2000e+000 69043  9.1830e-001 -3.1744e+001  1.5553e+000 68738 68939,69017,68965
 1.2000e+000 69371  2.9364e+000 -7.6658e+000 -3.1631e+000 68426 69172,69250,69198
 1.2000e+000 69348  6.6799e-001 -1.3901e+001  7.7080e-002 68426 69146,69250,69172
 1.2000e+000 69325  9.3712e+000 -8.9420e+000 -5.4493e+000 68426 69198,69250,69224
 1.2000e+000 69302 -5.3949e-001 -1.6044e+001 -6.0968e-001 68426 69146,69276,69250
 1.2000e+000 69521 -4.5557e+000 -2.8671e+001  5.3965e+000 68228 69420,69472,69446
 1.2000e+000 69498 -2.6760e+000 -2.3809e+001  1.7047e+000 68228 69394,69472,69420
 1.2000e+000 69781 -1.6519e-002 -5.2087e+000  1.2845e-001 68030 69631,69683,69657
 1.2000e+000 69758 -8.9537e-001 -4.7420e+000  2.9666e-001 68030 69631,69709,69683
 1.2000e+000 69735  1.6251e+000 -1.0082e+000 -1.2651e+000 68030 69605,69709,69631
 1.2000e+000 70078 -2.8294e+000 -1.3564e+001 -3.3585e+000 67832 69882,69934,69908
 1.2000e+000 70055  6.1042e-001 -1.0449e+001 -4.8353e+000 67832 69856,69934,69882
 1.2000e+000 70032 -1.0620e+000 -1.8620e+001 -6.4193e+000 67832 69830,69934,69856
 1.2000e+000 70009 -2.7673e+000 -2.2541e+001 -5.4826e+000 67832 69804,69934,69830
 1.2000e+000 69986  6.6290e+000 -2.0335e+001 -4.6955e+000 67832 69804,69960,69934
 1.2000e+000 70586 -1.6033e+000 -1.5278e+001  1.7882e+000 67634 70609,70419,70341
 1.2000e+000 70563  1.7794e+000 -1.3884e+001  1.1148e+000 67634 70681,70609,70341
 1.2000e+000 70540  4.1027e+000 -1.3170e+001  2.2813e+000 67634 70681,70341,70315
 1.2000e+000 70517 -1.9040e+000 -1.6051e+001  1.8072e+000 67634 70341,70419,70367
 1.2000e+000 70494 -4.3935e+000 -1.2003e+001  4.1361e+000 67634 70263,70445,70289
 1.2000e+000 70471 -3.4859e+000 -1.0231e+001  8.4496e-001 67634 70367,70419,70393
 1.2000e+000 70635  1.1195e+000 -1.2420e+001  3.1630e+000 67634 70445,70419,70609
 1.2000e+000 70658 -4.6297e+000 -1.6220e+001  5.4388e+000 67634 70445,70609,70289
 1.2000e+000 70707  2.6385e+000 -1.4000e+001  5.9380e+000 67634 70289,70609,70681
 1.2000e+000 70730  8.1629e+000 -1.2225e+001  6.7951e+000 67634 70289,70681,70315
 1.2000e+000 71108  1.1749e-001 -1.6481e+001  8.6856e-001 67344 71131,70912,70886
 1.2000e+000 71085  2.4887e-001 -1.6653e+001  2.8144e+000 67344 71131,70886,70860
 1.2000e+000 71062 -2.9911e+000 -1.6922e+001  1.4785e+000 67344 71203,70938,70912
 1.2000e+000 71039 -2.9052e+000 -1.4616e+001  2.7394e+000 67344 70834,70990,70860
 1.2000e+000 71016 -1.6590e+000 -1.7612e+001  1.3190e+000 67344 70938,70990,70964
 1.2000e+000 71157 -2.5153e+000 -1.7061e+001  1.1391e+000 67344 71203,70912,71131
 1.2000e+000 71180 -6.3074e-001 -1.6738e+001  2.0128e+000 67344 70990,71131,70860
 1.2000e+000 71229 -1.8510e+000 -1.7770e+001  1.4648e+000 67344 70990,70938,71203
 1.2000e+000 71252 -7.8630e-001 -1.7372e+001  1.0343e+000 67344 70990,71203,71131
 1.2000e+000 71603 -1.4265e-002 -1.4401e+001  5.9466e-001 67032 71378,71482,71404
 1.2000e+000 71580  1.9358e+000 -1.1885e+001  1.4919e+000 67032 71378,71508,71482
 1.2000e+000 71557  2.2556e+000 -1.2711e+001  3.3590e-001 67032 71404,71456,71430
 1.2000e+000 71534  9.4702e-001 -1.2308e+001  3.5321e-001 67032 71404,71482,71456
 1.2000e+000 72003 -1.0387e+000 -1.4717e+001  6.9784e-002 66834 71755,71859,71781
 1.2000e+000 71980 -1.3776e+000 -1.3710e+001  6.9439e-002 66834 71755,71885,71859
 1.2000e+000 71957 -2.5897e+000 -1.3026e+001  4.0636e-001 66834 71781,71833,71807
 1.2000e+000 71934 -1.2952e+000 -1.4682e+001  7.4011e-001 66834 71781,71859,71833
 1.2000e+000 71911 -1.5911e+000 -1.2938e+001  2.3246e+000 66834 71729,71885,71755
 1.2000e+000 72430 -4.9641e-001 -1.3326e+001  3.8448e-001 66266 72237,72289,72263
 1.2000e+000 72407 -7.9302e-001 -1.4256e+001  1.4564e+000 66266 72133,72289,72237
 1.2000e+000 72384 -2.3674e+000 -1.3064e+001  1.3170e+000 66266 72133,72237,72211
 1.2000e+000 72361 -3.1499e+000 -1.3954e+001  2.2105e+000 66266 72107,72289,72133
 1.2000e+000 72338 -6.4423e+000 -2.3255e+001  4.9165e+000 66266 72133,72211,72185
 1.2000e+000 72315 -1.7970e+000 -2.7436e+001  4.7125e+000 66266 72133,72185,72159
 1.2000e+000 72580 -6.1154e+000 -3.8556e+001  3.7934e+000 65968 72479,72531,72505
 1.2000e+000 72557 -6.6519e-001 -2.6869e+001  1.6576e+000 65968 72453,72531,72479
 1.2000e+000 72960 -2.1845e+000 -1.6380e+001  1.5542e+000 65621 72983,72738,72712
 1.2000e+000 72937 -2.1648e+000 -1.6061e+001  1.6093e+000 65621 72983,72712,72686
 1.2000e+000 72914 -3.5294e+000 -1.9054e+001  1.4933e+000 65621 72738,72842,72764
 1.2000e+000 72891 -1.8861e+000 -1.5883e+001 -2.6708e+000 65621 72764,72842,72816
 1.2000e+000 72868  1.0015e+001 -3.1962e+001 -2.7601e+000 65621 72764,72816,72790
 1.2000e+000 73009 -2.4224e+000 -1.6026e+001  1.5035e+000 65621 72842,72738,72983
 1.2000e+000 73032 -2.1999e+000 -1.5417e+001  1.5818e+000 65621 72842,72983,72686
 1.2000e+000 73361 -1.0996e+001 -2.8240e+001 -2.7641e+000 65281 73456,73384,73188
 1.2000e+000 73338 -2.3028e+001 -2.8512e+001  3.2355e-001 65281 73384,73162,73136
 1.2000e+000 73315 -9.0647e+000 -3.4560e+001 -7.4778e+000 65281 73188,73240,73214
 1.2000e+000 73292 -1.1793e+001 -2.1980e+001 -1.6678e+000 65281 73136,73266,73240
 1.2000e+000 73410 -1.2293e+001 -3.0358e+001 -1.8950e+000 65281 73240,73188,73384
 1.2000e+000 73433 -1.4986e+001 -2.2935e+001 -2.5303e+000 65281 73240,73384,73136
 1.2000e+000 73482 -1.2946e+001 -3.0489e+001 -8.4171e-001 65281 73162,73384,73456
 1.2000e+000 73711  9.6105e+000 -9.3176e+000 -2.0791e+000 64820 73734,73610,73584
 1.2000e+000 73688  6.7402e+000 -1.4263e+001 -7.3440e+000 64820 73734,73584,73662
 1.2000e+000 73760  1.3757e+001 -7.7745e+000 -4.6577e+000 64820 73636,73610,73734
 1.2000e+000 73783  4.5302e+000 -1.1504e+001 -3.4129e+000 64820 73806,73734,73662
 1.2000e+000 73832  1.4545e+001  5.2601e+000 -9.8419e+000 64820 73636,73734,73806
 1.2000e+000 74112  4.5892e-001 -2.9002e+001  6.7953e-001 64622 74278,74135,73988
 1.2000e+000 74089 -8.5679e-002 -2.6681e+001  1.8194e+000 64622 74135,73936,74040
 1.2000e+000 74066  1.3338e+000 -2.8665e+001  2.6557e+000 64622 74278,73988,73962
 1.2000e+000 74161 -1.9371e-002 -2.7413e+001 -1.8195e-001 64622 74014,73988,74135
 1.2000e+000 74184 -1.2287e-001 -2.6138e+001  1.4985e+000 64622 74207,74135,74040
 1.2000e+000 74233  6.7761e-002 -2.6097e+001  5.1767e-001 64622 74014,74135,74207
 1.2000e+000 74304  1.7881e+000 -2.5975e+001  2.0507e+000 64622 73936,74135,74278
 1.2000e+000 74327  3.1861e+000 -2.5938e+001  4.0984e+000 64622 73936,74278,73962
 1.2000e+000 74526 -7.0807e-001 -2.2273e+001  2.6057e-001 64424 74621,74549,74402
 1.2000e+000 74503 -7.0118e-001 -2.5003e+001 -1.9911e-001 64424 74549,74350,74454
 1.2000e+000 74480 -1.4930e+000 -2.1152e+001 -2.3589e+000 64424 74621,74402,74376
 1.2000e+000 74575 -7.8449e-001 -2.4069e+001  8.4158e-001 64424 74428,74402,74549
 1.2000e+000 74598 -2.6143e-001 -2.4609e+001 -3.6738e-001 64424 74693,74549,74454
 1.2000e+000 74647 -2.1235e+000 -2.6344e+001 -7.8693e-001 64424 74350,74549,74621
 1.2000e+000 74670 -3.5610e+000 -2.6189e+001 -3.5212e+000 64424 74350,74621,74376
 1.2000e+000 74719 -7.3150e-001 -2.4944e+001  6.2419e-001 64424 74428,74549,74693
 1.2000e+000 75123 -7.0335e+000 -4.0917e+001  3.9712e+000 64126 74875,74953,74927
 1.2000e+000 75100  2.2927e+000 -2.0923e+001  1.5275e+000 64126 74875,74979,74953
 1.2000e+000 75077  8.6518e+000 -2.3416e+001  1.7607e+000 64126 74875,75005,74979
 1.2000e+000 75054  8.1676e+000 -4.7189e+001  1.6008e+001 64126 74875,74927,74901
 1.2000e+000 75031 -1.6350e+001 -2.3370e+001  1.7484e+000 64126 74849,75005,74875
 1.2000e+000 75224 -1.9933e+000 -2.1611e+001  2.7356e+000 63836 75146,75198,75172
 1.2000e+000 75472 -3.8402e+000 -1.7312e+001  1.4059e+000 63375 75273,75351,75325
 1.2000e+000 75449 -4.6447e+000 -1.7108e+001  6.9361e-001 63375 75273,75377,75351
 1.2000e+000 75426 -1.3259e+000 -1.6564e+001  4.2335e-001 63375 75247,75377,75273
 1.2000e+000 75403 -3.1981e+000 -9.4406e+000  2.4173e+000 63375 75273,75325,75299
 1.2000e+000 75673 -1.3193e+000 -1.5895e+001  1.7449e+000 63063 75523,75575,75549
 1.2000e+000 75650 -2.7014e-002 -1.9575e+001 -1.3474e-001 63063 75497,75575,75523
 1.2000e+000 75627 -2.4253e+000 -2.1673e+001  2.3086e+000 63063 75497,75601,75575
 1.2000e+000 75874 -6.0299e+000 -3.8278e+001  6.9995e-002 62716 75897,75750,75724
 1.2000e+000 75851 -7.7445e+000 -3.7508e+001  1.5459e-001 62716 75897,75724,75698
 1.2000e+000 75828 -6.6132e+000 -3.3294e+001 -6.0800e+000 62716 75698,75802,75776
 1.2000e+000 75923 -2.4047e+000 -3.7200e+001 -4.1997e-001 62716 75776,75750,75897
 1.2000e+000 75946 -6.0613e+000 -3.7866e+001 -1.0223e-001 62716 75776,75897,75698
 1.2000e+000 76328  8.2507e-001 -3.7139e+001 -6.7111e-001 62198 76495,76351,76158
 1.2000e+000 76305 -1.5431e+000 -3.4093e+001  7.7385e-001 62198 76351,76080,76054
 1.2000e+000 76282  7.6396e-001 -3.9657e+001 -2.0448e+000 62198 76423,76184,76158
 1.2000e+000 76259  6.0593e-001 -3.8288e+001 -5.5711e-001 62198 76495,76158,76106
 1.2000e+000 76236  5.2862e+000 -4.1538e+001  1.2013e+000 62198 76106,76158,76132
 1.2000e+000 76377  1.1214e+000 -3.6414e+001 -1.7435e+000 62198 76423,76158,76351
 1.2000e+000 76400 -4.2992e-001 -3.1022e+001  3.2223e-001 62198 76210,76351,76054
 1.2000e+000 76449  1.2348e+000 -3.5783e+001 -2.0069e+000 62198 76210,76184,76423
 1.2000e+000 76472  6.7728e-001 -3.3864e+001 -2.2394e+000 62198 76210,76423,76351
 1.2000e+000 76521 -5.3981e-001 -3.4285e+001  1.3123e+000 62198 76080,76351,76495
 1.2000e+000 76544 -2.4935e+000 -3.8170e+001  2.2951e+000 62198 76080,76495,76106
 1.2000e+000 76841 -6.7418e+000 -3.4364e+001 -3.2385e-001 61751 76936,76864,76645
 1.2000e+000 76818 -9.0927e+000 -3.1831e+001 -2.4675e+000 61751 76864,76567,76723
 1.2000e+000 76795 -6.9967e+000 -3.3226e+001 -6.7302e-002 61751 76936,76645,76593
 1.2000e+000 76772 -6.6667e-001 -2.9560e+001 -7.3070e+000 61751 77008,76697,76671
 1.2000e+000 76749 -4.9138e+000 -3.2413e+001 -2.1206e-001 61751 76593,76645,76619
 1.2000e+000 76890 -9.5358e+000 -4.1303e+001  1.1861e+000 61751 76671,76645,76864
 1.2000e+000 76913 -7.2312e+000 -3.6298e+001 -4.6174e+000 61751 77008,76671,76864
 1.2000e+000 76962 -6.9049e+000 -3.5873e+001 -9.0861e-001 61751 76567,76864,76936
 1.2000e+000 76985 -7.0553e+000 -3.4781e+001 -5.2070e-001 61751 76567,76936,76593
 1.2000e+000 77034 -9.9685e+000 -3.4874e+001 -2.5998e+000 61751 76723,76697,77008
 1.2000e+000 77057 -9.8799e+000 -3.3670e+001 -2.6208e+000 61751 76723,77008,76864
 1.2000e+000 77207 -1.9325e+000 -1.4621e+001  2.7187e+000 61418 77106,77158,77132
 1.2000e+000 77184 -3.8505e+000 -1.8509e+001  1.7453e+000 61418 77080,77158,77106
 1.2000e+000 77638 -8.3123e-001 -2.3006e+001  1.2860e+000 60814 77733,77661,77471
 1.2000e+000 77615 -6.3074e+000 -2.3398e+001  3.6536e-001 60814 77661,77393,77315
 1.2000e+000 77592 -5.1001e-001 -1.9739e+001  2.7504e+000 60814 77733,77471,77445
 1.2000e+000 77569 -6.7908e+000 -2.5768e+001 -5.8991e+000 60814 77315,77367,77341
 1.2000e+000 77546 -3.3359e+000 -2.3997e+001 -1.4854e+000 60814 77315,77393,77367
 1.2000e+000 77523  1.1682e+000 -1.5471e+001  6.5259e+000 60814 77393,77445,77419
 1.2000e+000 77687 -2.0821e+000 -2.3593e+001  2.3322e+000 60814 77497,77471,77661
 1.2000e+000 77710 -3.0390e+000 -2.5734e+001  3.0161e+000 60814 77497,77661,77315
 1.2000e+000 77759 -2.8608e+000 -1.7793e+001  1.8244e+000 60814 77393,77661,77733
 1.2000e+000 77782 -2.0651e+000 -1.4689e+001  3.8065e+000 60814 77393,77733,77445
 1.2000e+000 78337 -9.8055e+000 -2.7584e+001  3.0441e+000 60210 78360,78017,77965
 1.2000e+000 78314 -7.0518e+000 -1.9938e+001  2.1992e+000 60210 78360,77965,78173
 1.2000e+000 78291 -5.0260e+000 -3.0706e+001 -2.0068e+000 60210 78432,78043,78017
 1.2000e+000 78268 -1.4451e+001 -4.2171e+001  3.9071e+000 60210 77965,78017,77991
 1.2000e+000 78245  1.1622e+000 -2.7693e+001 -4.6528e+000 60210 78043,78095,78069
 1.2000e+000 78222 -1.0826e+001 -2.4810e+001 -7.0712e-001 60210 78095,78173,78121
 1.2000e+000 78199 -6.6497e+000 -2.4055e+001  3.5567e-001 60210 78121,78173,78147
 1.2000e+000 78386 -7.8450e+000 -3.0843e+001  1.9893e+000 60210 78432,78017,78360
 1.2000e+000 78409 -1.2152e+001 -2.6680e+001 -4.4043e-002 60210 78095,78360,78173
 1.2000e+000 78458 -3.7289e+000 -2.5453e+001 -4.5040e+000 60210 78095,78043,78432
 1.2000e+000 78481 -5.2322e+000 -2.4109e+001 -6.8349e-001 60210 78095,78432,78360
 1.2000e+000 78680 -1.8581e+000 -2.4145e+001 -4.0689e-001 59848 78703,78556,78530
 1.2000e+000 78657 -1.6054e+000 -2.2889e+001  7.7736e-001 59848 78703,78530,78504
 1.2000e+000 78634 -3.7755e+000 -2.0940e+001  1.0603e+000 59848 78504,78608,78582
 1.2000e+000 78729 -2.7651e+000 -2.1660e+001 -4.1193e-001 59848 78582,78556,78703
 1.2000e+000 78752 -2.2681e+000 -2.1043e+001  1.2117e+000 59848 78582,78703,78504
 1.2000e+000 78951  1.8817e+000 -2.6841e+001 -4.8662e+000 59344 78974,78801,78775
 1.2000e+000 78928 -1.3924e+000 -3.1896e+001  1.7492e+000 59344 79046,78974,78775
 1.2000e+000 78905 -1.0158e+000 -3.3974e+001  1.7859e+000 59344 79046,78775,78879
 1.2000e+000 79000 -8.5821e+000 -3.0872e+001 -3.2876e+000 59344 78827,78801,78974
 1.2000e+000 79023 -3.4049e+000 -3.0679e+001  3.1328e+000 59344 78827,78974,78853
 1.2000e+000 79072 -1.5560e+000 -2.9584e+001  2.5571e+000 59344 78853,78974,79046
 1.2000e+000 79095 -5.2830e-001 -3.0919e+001  2.7305e+000 59344 78853,79046,78879
 1.2000e+000 79296 -8.0434e+000 -5.1113e+001 -3.2618e+000 58711 79319,79172,79146
 1.2000e+000 79273 -3.4714e+000 -4.6812e+001 -1.4764e+000 58711 79319,79146,79120
 1.2000e+000 79250 -9.8416e+000 -4.1774e+001  2.0209e+000 58711 79172,79224,79198
 1.2000e+000 79345 -1.2005e+001 -4.5779e+001 -2.8892e+000 58711 79224,79172,79319
 1.2000e+000 79368 -9.3584e+000 -4.2997e+001 -1.8047e+000 58711 79224,79319,79120
 1.2000e+000 79667 -1.9918e+000 -1.4502e+001 -1.2190e+000 58285 79690,79471,79393
 1.2000e+000 79644 -2.0953e+000 -1.7212e+001 -1.9691e+000 58285 79690,79393,79549
 1.2000e+000 79621 -8.8642e-001 -1.8373e+001  3.7695e-001 58285 79393,79471,79419
 1.2000e+000 79598 -3.0860e+000 -1.4167e+001  3.2827e-002 58285 79497,79549,79523
 1.2000e+000 79575  1.8397e+000 -2.7110e+001 -2.9892e-001 58285 79419,79471,79445
 1.2000e+000 79716 -2.0602e+000 -1.1778e+001  4.1668e-001 58285 79497,79471,79690
 1.2000e+000 79739 -2.6544e+000 -1.6030e+001  1.2862e-001 58285 79497,79690,79549
 1.2000e+000 80249 -3.6762e+000 -2.6988e+001 -2.7855e+000 57831 80272,79978,79952
 1.2000e+000 80226 -2.3574e+000 -2.7425e+001 -1.4159e+000 57831 80272,79952,80108
 1.2000e+000 80203  4.4354e+000 -2.9310e+001 -2.6665e+000 57831 79926,80108,79952
 1.2000e+000 80180 -6.9588e+000 -3.5036e+001  1.1079e+000 57831 80004,80082,80030
 1.2000e+000 80157 -4.9795e+000 -2.9368e+001  1.3153e+000 57831 80004,80108,80082
 1.2000e+000 80134 -9.5158e+000 -3.3147e+001  5.6649e+000 57831 80030,80082,80056
 1.2000e+000 80298 -2.3369e+000 -2.4000e+001 -2.4630e+000 57831 80004,79978,80272
 1.2000e+000 80321 -1.8665e+000 -2.6409e+001 -1.2638e+000 57831 80004,80272,80108
 1.2000e+000 80618 -9.5719e+000 -2.5205e+001  3.5968e+000 57077 80344,80448,80422
 1.2000e+000 80595 -4.3250e+000 -2.1257e+001  4.3154e-001 57077 80344,80500,80448
 1.2000e+000 80572 -6.2497e+000 -1.8437e+001  2.4113e+000 57077 80344,80422,80370
 1.2000e+000 80549 -8.3205e+000 -1.8587e+001  3.0000e+000 57077 80370,80422,80396
 1.2000e+000 80526 -9.7775e+000 -3.7964e+001  3.6054e+000 57077 80448,80500,80474
 1.2000e+000 80768 -1.0560e+000 -9.7851e+000 -2.1842e+000 56787 80791,80693,80667
 1.2000e+000 80745  1.1172e+000 -1.0396e+001 -3.7720e+000 56787 80791,80667,80641
 1.2000e+000 80817 -2.1961e+000 -1.0314e+001 -1.2684e+000 56787 80719,80693,80791
 1.2000e+000 80840  4.9142e-001 -1.5297e+001 -1.8335e+000 56787 80719,80791,80641
 1.2000e+000 81429 -1.8351e+001 -2.6549e+001  1.5264e+000 56497 81452,81158,81132
 1.2000e+000 81406 -1.2544e+001 -2.4168e+001 -4.3926e-001 56497 81452,81132,81288
 1.2000e+000 81383 -1.4357e+001 -2.5718e+001 -6.1345e-001 56497 81524,81184,81158
 1.2000e+000 81360 -1.0616e+001 -2.7280e+001 -3.0110e+000 56497 81210,81288,81236
 1.2000e+000 81337 -8.2164e+000 -2.2787e+001 -8.0634e-001 56497 81106,81288,81132
 1.2000e+000 81314 -1.1202e+001 -3.5649e+001 -1.2468e+000 56497 81236,81288,81262
 1.2000e+000 81478 -1.4002e+001 -2.6233e+001 -5.1721e-002 56497 81524,81158,81452
 1.2000e+000 81501 -9.5438e+000 -2.5970e+001  4.0942e-002 56497 81210,81452,81288
 1.2000e+000 81550 -1.4056e+001 -2.5201e+001 -2.8289e-001 56497 81210,81184,81524
 1.2000e+000 81573 -1.3318e+001 -2.5063e+001  3.7208e-001 56497 81210,81524,81452
 1.2000e+000 81870 -7.9157e+000 -2.7186e+001 -2.6663e-002 55979 81893,81674,81648
 1.2000e+000 81847 -6.1462e+000 -2.6163e+001  8.5206e-001 55979 81893,81648,81752
 1.2000e+000 81824 -6.0745e+000 -2.8491e+001  8.1432e-001 55979 81596,81752,81648
 1.2000e+000 81801 -9.2024e+000 -3.6770e+001  3.7450e+000 55979 81674,81726,81700
 1.2000e+000 81778 -6.0221e+000 -2.6847e+001 -5.5947e+000 55979 81596,81648,81622
 1.2000e+000 81919 -8.8654e+000 -2.6104e+001  1.6502e+000 55979 81726,81674,81893
 1.2000e+000 81942 -6.2111e+000 -2.4481e+001  2.6638e+000 55979 81726,81893,81752
 1.2000e+000 82371 -3.4314e+000 -1.8327e+001  1.4204e+000 55631 82100,82204,82152
 1.2000e+000 82348  2.6120e-002 -1.6097e+001  2.3974e+000 55631 82100,82230,82204
 1.2000e+000 82325  8.8231e-001 -1.7813e+001  4.2722e+000 55631 82100,82152,82126
 1.2000e+000 82302 -2.1332e+000 -2.0645e+001  3.4624e+000 55631 82074,82230,82100
 1.2000e+000 82279 -4.0747e+000 -1.9840e+001  1.4482e+000 55631 82152,82204,82178
 1.2000e+000 82256  5.8963e+000 -2.8161e+001  6.7647e+000 55631 82048,82230,82074
 1.2000e+000 82521 -6.2652e-001 -1.3866e+001 -1.6053e+000 55227 82544,82420,82394
 1.2000e+000 82498 -9.0226e-001 -1.7922e+001 -1.0589e+000 55227 82544,82394,82472
 1.2000e+000 82570 -2.1265e+000 -1.0692e+001 -1.5089e+000 55227 82446,82420,82544
 1.2000e+000 82593 -1.9219e+000 -1.3753e+001  1.0534e-001 55227 82446,82544,82472
 1.2000e+000 82875  2.9602e+000 -2.4959e+001 -5.0734e+000 54979 82699,82777,82725
 1.2000e+000 82852 -5.9792e+000 -1.9302e+001 -2.6320e+000 54979 82699,82803,82777
 1.2000e+000 82829  2.2503e+001 -2.0587e+001 -3.9082e+000 54979 82725,82777,82751
 1.2000e+000 83204 -3.4145e+000 -2.3251e+001 -1.3595e+000 54475 83005,83083,83057
 1.2000e+000 83181 -7.6660e+000 -2.6123e+001  1.9491e-002 54475 82979,83083,83005
 1.2000e+000 83158 -4.6459e+000 -3.2406e+001 -1.7269e+000 54475 83005,83057,83031
 1.2000e+000 83135 -1.0066e+001 -3.2119e+001  6.0016e+000 54475 82979,83109,83083
 1.2000e+000 83582 -1.0570e+001 -2.5747e+001  1.0399e+000 54071 83605,83438,83412
 1.2000e+000 83559 -9.6575e+000 -2.6339e+001 -9.8209e-001 54071 83749,83605,83412
 1.2000e+000 83536 -1.0674e+001 -2.9140e+001  3.3978e+000 54071 83677,83360,83334
 1.2000e+000 83513 -8.4102e+000 -2.8189e+001 -1.2538e+000 54071 83749,83412,83677
 1.2000e+000 83490  1.9600e+000 -2.4110e+001 -6.5705e+000 54071 83308,83464,83334
 1.2000e+000 83631 -9.2175e+000 -2.4500e+001 -5.3968e-001 54071 83464,83438,83605
 1.2000e+000 83654 -8.1464e+000 -1.9781e+001 -2.0575e+000 54071 83464,83605,83334
 1.2000e+000 83703 -3.5444e+000 -2.6257e+001  2.9395e+000 54071 83386,83360,83677
 1.2000e+000 83726 -6.4399e+000 -2.9882e+001 -1.5026e-001 54071 83386,83677,83412
 1.2000e+000 83775 -8.1932e+000 -2.3178e+001  3.1535e-001 54071 83334,83605,83749
 1.2000e+000 83798 -6.8921e+000 -2.5150e+001  1.5486e-001 54071 83334,83749,83677
 1.2000e+000 84068 -2.2764e+000 -1.1711e+001  3.6026e-001 53524 83869,83921,83895
 1.2000e+000 84045 -3.4374e+000 -1.3297e+001  9.5355e-001 53524 83869,83947,83921
 1.2000e+000 84022 -6.4221e+000 -1.5160e+001 -3.7847e-002 53524 83843,83947,83869
 1.2000e+000 83999 -3.8710e+000 -1.4380e+001 -2.7417e-001 53524 83843,83973,83947
 1.2000e+000 84497 -9.8463e+000 -3.9401e+001  9.0693e-002 53184 84200,84330,84252
 1.2000e+000 84474 -7.8486e+000 -3.2669e+001  1.7688e+000 53184 84200,84356,84330
 1.2000e+000 84451 -4.1859e+000 -4.7732e+001  2.9715e+000 53184 84200,84252,84226
 1.2000e+000 84428 -2.0409e+000 -3.3895e+001 -2.9737e+000 53184 84252,84330,84278
 1.2000e+000 84405 -5.9749e+000 -3.1427e+001  7.3795e-001 53184 84174,84356,84200
 1.2000e+000 84382  1.2948e+001 -2.8293e+001  4.3369e-001 53184 84278,84330,84304
 1.2000e+000 84954 -1.1708e+001 -3.5150e+001  2.9454e+000 52680 84706,84836,84784
 1.2000e+000 84931 -1.4023e+001 -3.3732e+001 -3.8206e+000 52680 84680,84836,84706
 1.2000e+000 84908 -7.6824e+000 -4.7474e+001  8.0650e-001 52680 84784,84836,84810
 1.2000e+000 84885 -2.2762e+001 -5.2683e+001  7.8773e+000 52680 84706,84784,84732
 1.2000e+000 84862 -1.1267e+001 -4.7707e+001  6.8364e+000 52680 84732,84784,84758
 1.2000e+000 85202 -4.8374e+000 -1.9872e+001 -1.0878e+000 52226 85029,85081,85055
 1.2000e+000 85179 -7.3427e+000 -2.0923e+001 -1.7231e+000 52226 85225,85081,85029
 1.2000e+000 85156 -7.0641e+000 -2.0310e+001 -2.0787e+000 52226 85225,85029,85003
 1.2000e+000 85133 -8.0123e+000 -1.5115e+001 -2.7631e+000 52226 84977,85107,85003
 1.2000e+000 85251 -7.3194e+000 -2.0914e+001 -2.6091e+000 52226 85107,85081,85225
 1.2000e+000 85274 -5.8877e+000 -1.8770e+001 -3.2542e+000 52226 85107,85225,85003
 1.2000e+000 85522 -9.3170e-001 -1.4011e+001  1.4770e+000 51764 85297,85349,85323
 1.2000e+000 85499 -2.7596e+000 -1.9704e+001  1.3475e+000 51764 85545,85297,85427
 1.2000e+000 85476 -5.5131e+000 -1.8196e+001 -1.3827e-002 51764 85545,85427,85375
 1.2000e+000 85453 -5.5116e+000 -1.9383e+001 -5.2417e-001 51764 85375,85427,85401
 1.2000e+000 85571 -9.4542e-001 -1.8892e+001  1.1209e+000 51764 85349,85297,85545
 1.2000e+000 85594 -2.8274e+000 -1.6835e+001 -5.2549e-001 51764 85349,85545,85375
 1.2000e+000 85746 -3.6738e+000 -2.0095e+001 -1.5027e+000 51374 85645,85697,85671
 1.2000e+000 85723 -3.2145e+000 -2.4067e+001  6.4188e-001 51374 85619,85697,85645
 1.2000e+000 86256 -8.3747e+000 -1.6931e+001 -2.8997e+000 50970 86279,86011,85959
 1.2000e+000 86233 -7.8563e+000 -2.2043e+001 -1.8389e+000 50970 86279,85959,86115
 1.2000e+000 86210 -8.3845e+000 -1.5827e+001  7.8705e-001 50970 85959,86011,85985
 1.2000e+000 86187 -1.2757e+001 -2.4773e+001 -4.0361e+000 50970 86037,86115,86089
 1.2000e+000 86164 -1.2282e+001 -2.3923e+001 -1.7363e+000 50970 85933,86115,85959
 1.2000e+000 86141 -3.8371e+000 -8.8881e+000 -7.6658e-002 50970 86037,86089,86063
 1.2000e+000 86305 -9.5137e+000 -1.1257e+001 -2.4476e+000 50970 86037,86011,86279
 1.2000e+000 86328 -9.3382e+000 -1.6786e+001 -1.3203e+000 50970 86037,86279,86115
 1.2000e+000 86478  5.0742e+000 -4.3438e+001 -1.6454e+000 50451 86351,86403,86377
 1.2000e+000 86455  7.2798e+000 -7.6146e+001 -9.4238e+000 50451 86351,86429,86403
 1.2000e+000 86907 -6.4750e+000 -2.5185e+001  2.0136e+000 50047 86930,86714,86662
 1.2000e+000 86884 -7.5210e+000 -2.5264e+001  1.7745e+000 50047 86930,86662,86610
 1.2000e+000 86861 -6.9609e+000 -3.3006e+001  1.8270e+000 50047 87002,86740,86714
 1.2000e+000 86838 -6.7474e-001 -2.3472e+001  8.4777e+000 50047 86662,86714,86688
 1.2000e+000 86815 -6.3503e+000 -2.4382e+001 -2.4500e-001 50047 86610,86662,86636
 1.2000e+000 86792 -3.8939e+000 -2.0150e+001 -3.0615e-001 50047 86584,86766,86610
 1.2000e+000 86956 -6.5122e+000 -2.6518e+001  2.3566e+000 50047 87002,86714,86930
 1.2000e+000 86979 -6.8247e+000 -2.1265e+001  5.6458e-001 50047 86766,86930,86610
 1.2000e+000 87028 -8.4191e+000 -2.6875e+001 -3.9496e-001 50047 86766,86740,87002
 1.2000e+000 87051 -8.8948e+000 -2.6216e+001  2.7720e-001 50047 86766,87002,86930
 1.2000e+000 87250 -1.0585e+001 -3.4847e+001 -1.3587e+000 49543 87273,87126,87100
 1.2000e+000 87227 -8.4928e+000 -3.1534e+001  6.6036e-001 49543 87273,87100,87074
 1.2000e+000 87204 -1.6640e+001 -2.5967e+001 -1.0487e+000 49543 87126,87178,87152
 1.2000e+000 87299 -1.1345e+001 -3.0351e+001  8.3771e-001 49543 87178,87126,87273
 1.2000e+000 87322 -9.3386e+000 -2.8656e+001  3.0827e+000 49543 87178,87273,87074
 1.2000e+000 87570 -1.1174e+000 -1.7561e+001  1.0621e+000 49146 87593,87449,87397
 1.2000e+000 87547 -1.1326e+000 -1.6952e+001  2.3298e+000 49146 87593,87397,87371
 1.2000e+000 87524 -4.4397e+000 -2.0589e+001  4.6017e-001 49146 87345,87475,87371
 1.2000e+000 87501 -2.4517e+000 -2.0436e+001  5.2127e-003 49146 87397,87449,87423
 1.2000e+000 87619 -2.6966e+000 -1.7829e+001  5.1717e-001 49146 87475,87449,87593
 1.2000e+000 87642 -2.1039e+000 -1.7299e+001  1.7111e+000 49146 87475,87593,87371
 1.2000e+000 88073 -1.1259e+001 -3.3831e+001  5.9129e-001 48706 87854,87932,87880
 1.2000e+000 88050 -1.2244e+001 -3.7281e+001  4.9088e-001 48706 87828,87932,87854
 1.2000e+000 88027 -1.0667e+001 -3.2758e+001  9.6485e-001 48706 87750,87932,87828
 1.2000e+000 88004 -3.4009e+000 -6.0599e+001  5.4985e+000 48706 87750,87802,87776
 1.2000e+000 87981 -1.8075e+001 -6.2552e+001 -4.0659e+000 48706 87750,87828,87802
 1.2000e+000 87958 -1.2420e+001 -3.3007e+001 -1.5431e+000 48706 87880,87932,87906
 1.2000e+000 88402 -7.8467e+000 -2.7311e+001 -1.6936e+000 48145 88203,88281,88255
 1.2000e+000 88379 -7.7227e+000 -2.7588e+001 -2.8877e+000 48145 88203,88307,88281
 1.2000e+000 88356 -3.0382e+000 -2.6116e+001 -3.0340e+000 48145 88203,88255,88229
 1.2000e+000 88333 -6.1692e+000 -2.8872e+001 -2.9226e-001 48145 88177,88307,88203
 1.2000e+000 88601 -4.1747e+000 -2.0919e+001  3.1828e+000 47805 88696,88624,88477
 1.2000e+000 88578 -1.3710e+001 -2.8826e+001 -3.5388e+000 47805 88826,88624,88451
 1.2000e+000 88555 -1.3362e+001 -2.9432e+001 -5.0576e+000 47805 88826,88451,88425
 1.2000e+000 88650 -7.9924e+000 -2.8404e+001 -2.9505e+000 47805 88503,88477,88624
 1.2000e+000 88673 -1.5500e+001 -2.9729e+001 -3.4473e+000 47805 88503,88624,88529
 1.2000e+000 88722 -2.1791e+001 -3.2655e+001 -2.0508e+000 47805 88451,88624,88696
 1.2000e+000 88852 -1.4595e+001 -3.0893e+001 -3.4534e+000 47805 88529,88624,88826
 1.2000e+000 88875 -1.4142e+001 -3.1261e+001 -5.0008e+000 47805 88529,88826,88425
 1.2000e+000 89172 -4.5617e+000 -1.8943e+001 -6.2077e-001 47401 89195,88976,88898
 1.2000e+000 89149 -5.0069e+000 -1.8786e+001 -2.9514e+000 47401 89195,88898,89054
 1.2000e+000 89126 -6.3965e+000 -1.9049e+001 -3.8087e-001 47401 88898,88976,88950
 1.2000e+000 89103 -5.6111e+000 -1.9905e+001 -7.1629e-001 47401 88976,89028,89002
 1.2000e+000 89080 -8.6900e+000 -2.3200e+001  2.1098e+000 47401 88898,88950,88924
 1.2000e+000 89221 -5.5258e+000 -2.1477e+001 -7.8604e-001 47401 89028,88976,89195
 1.2000e+000 89244 -5.9740e+000 -2.0820e+001 -3.2832e+000 47401 89028,89195,89054
 1.2000e+000 89575 -6.3355e+000 -2.7592e+001 -3.5357e+000 47111 89350,89454,89376
 1.2000e+000 89552 -1.1579e+001 -3.6141e+001  6.2615e-001 47111 89350,89480,89454
 1.2000e+000 89529 -1.5385e+001 -2.5986e+001  4.9395e-001 47111 89376,89454,89402
 1.2000e+000 89506 -1.3659e+001 -2.3206e+001  2.0219e+000 47111 89402,89454,89428
 1.2000e+000 89904 -8.7082e+000 -3.2689e+001 -1.6394e+000 46707 89705,89757,89731
 1.2000e+000 89881 -1.2356e+001 -3.5268e+001 -4.9145e-001 46707 89705,89783,89757
 1.2000e+000 89858 -1.0468e+001 -3.4245e+001  1.6007e-001 46707 89679,89783,89705
 1.2000e+000 89835 -6.5666e+000 -3.1452e+001 -1.7404e+000 46707 89679,89809,89783
 1.2000e+000 90233 -4.8275e+000 -2.8000e+001 -2.3169e+000 46360 90034,90112,90086
 1.2000e+000 90210 -1.2743e+001 -2.7742e+001  1.8589e-002 46360 90034,90138,90112
 1.2000e+000 90187 -6.7531e+000 -3.5620e+001 -9.0679e-002 46360 90034,90086,90060
 1.2000e+000 90164 -3.6004e+000 -2.9213e+001  1.2943e+001 46360 90008,90138,90034
 1.2000e+000 90530 -4.9643e+000 -2.0321e+001 -1.9257e-001 45662 90256,90360,90308
 1.2000e+000 90507 -4.7277e+000 -2.0826e+001  1.5879e-001 45662 90256,90412,90360
 1.2000e+000 90484 -3.2086e+000 -2.0656e+001 -1.2839e+000 45662 90256,90308,90282
 1.2000e+000 90461 -3.6971e+000 -1.6338e+001  1.3648e+000 45662 90360,90412,90386
 1.2000e+000 90438 -5.8334e+000 -1.8509e+001  8.3955e-001 45662 90308,90360,90334
 1.2000e+000 90910 -1.6492e+001 -3.2541e+001 -2.7523e+000 45108 90688,90766,90714
 1.2000e+000 90887 -1.3708e+001 -3.2329e+001 -6.4631e-001 45108 90662,90766,90688
 1.2000e+000 90864 -1.8204e+001 -3.0804e+001  2.4841e-001 45108 90636,90766,90662
 1.2000e+000 90841 -1.2087e+001 -4.1158e+001 -6.7763e+000 45108 90714,90766,90740
 1.2000e+000 90818 -1.6523e+001 -2.7497e+001 -1.3059e+000 45108 90636,90792,90766
 1.2000e+000 91158 -4.6543e+000 -2.3842e+001 -2.3123e+000 44604 91181,91011,90959
 1.2000e+000 91135 -8.8431e-001 -2.3634e+001 -3.2682e+000 44604 91181,90959,90933
 1.2000e+000 91112 -6.7314e+000 -2.6667e+001 -8.4001e-001 44604 90959,91011,90985
 1.2000e+000 91089 -4.6215e+000 -2.6949e+001  2.9825e+000 44604 90933,91063,91037
 1.2000e+000 91207 -6.6521e+000 -2.3357e+001 -9.6365e-001 44604 91037,91011,91181
 1.2000e+000 91230 -3.9308e+000 -2.5222e+001 -9.5977e-001 44604 91037,91181,90933
 1.2000e+000 91429 -6.0442e+000 -2.2528e+001 -7.8671e-001 44264 91452,91279,91253
 1.2000e+000 91406 -6.2509e+000 -2.4382e+001 -6.7660e-001 44264 91452,91253,91357
 1.2000e+000 91383 -8.4937e+000 -2.2384e+001 -1.5573e+000 44264 91279,91331,91305
 1.2000e+000 91478 -6.6147e+000 -2.1153e+001 -8.9049e-001 44264 91331,91279,91452
 1.2000e+000 91501 -6.4793e+000 -2.2465e+001 -4.9236e-001 44264 91331,91452,91357
 1.2000e+000 92060 -1.2989e+001 -2.6955e+001 -4.0596e-001 43860 92083,91740,91688
 1.2000e+000 92037 -5.7897e+000 -2.6723e+001  1.3340e+000 43860 92083,91688,91896
 1.2000e+000 92014 -1.2902e+001 -3.2848e+001 -1.1064e-001 43860 91766,91870,91844
 1.2000e+000 91991 -4.0394e+000 -2.5261e+001  4.1526e+000 43860 91740,91870,91766
 1.2000e+000 91968 -3.8045e+000 -2.5099e+001  4.5331e+000 43860 91766,91844,91792
 1.2000e+000 91945 -8.1197e+000 -3.0712e+001 -7.0406e+000 43860 91688,91740,91714
 1.2000e+000 91922 -1.0158e+001 -3.5638e+001  9.7191e-001 43860 91792,91844,91818
 1.2000e+000 92109 -6.6926e+000 -2.7392e+001  3.0996e+000 43860 91870,91740,92083
 1.2000e+000 92132  7.0305e-001 -2.6378e+001  5.2960e+000 43860 91870,92083,91896
 1.2000e+000 92353 -1.3688e+001 -3.7817e+001 -7.0873e-001 43662 92203,92255,92229
 1.2000e+000 92330 -1.5066e+001 -3.9773e+001  4.8849e-002 43662 92376,92203,92281
 1.2000e+000 92307 -5.1997e+000 -3.0163e+001  4.3283e+000 43662 92177,92281,92203
 1.2000e+000 92402 -2.0990e+001 -4.2269e+001  1.7215e+000 43662 92255,92203,92376
 1.2000e+000 92682 -5.7103e+000 -2.3751e+001 -8.2029e-001 43464 92532,92584,92558
 1.2000e+000 92659 -6.3357e+000 -2.1816e+001 -1.6790e-001 43464 92506,92584,92532
 1.2000e+000 92636 -4.9746e+000 -2.1321e+001 -1.7182e-001 43464 92506,92610,92584
 1.2000e+000 93013 -1.3365e+001 -4.3987e+001 -3.9386e+000 42960 92866,92918,92892
 1.2000e+000 92990 -1.5269e+001 -4.1935e+001 -1.6837e+000 42960 93036,92918,92866
 1.2000e+000 92967 -1.0747e+001 -4.6933e+001  1.3774e+000 42960 93036,92866,92840
 1.2000e+000 92944 -1.2215e+001 -3.4478e+001  1.6931e+000 42960 92788,92918,92814
 1.2000e+000 93062 -1.2961e+001 -3.9473e+001 -3.1262e-001 42960 92814,92918,93036
 1.2000e+000 93085 -4.6199e+000 -4.0773e+001  3.8702e+000 42960 92814,93036,92840
 1.2000e+000 93186 -5.9716e+000 -2.4497e+001 -4.8374e+000 42556 93108,93160,93134
 1.2000e+000 93554 -4.8048e+000 -2.3065e+001  4.3318e-001 42052 93231,93387,93361
 1.2000e+000 93531 -4.8464e+000 -2.1307e+001  3.5520e+000 42052 93231,93413,93387
 1.2000e+000 93508 -7.4656e+000 -2.2980e+001  1.0235e+000 42052 93231,93361,93257
 1.2000e+000 93485 -4.3052e+000 -1.8889e+001 -3.1675e-001 42052 93283,93361,93335
 1.2000e+000 93462 -1.5145e+000 -2.0544e+001  1.4693e+000 42052 93257,93361,93283
 1.2000e+000 93439  3.2980e+000 -1.4739e+001 -4.8756e+000 42052 93283,93335,93309
 1.2000e+000 94162 -6.5644e+000 -2.5589e+001 -4.6925e+000 41498 93767,93975,93793
 1.2000e+000 94139 -1.0237e+000 -2.2210e+001  1.6087e+000 41498 93741,93975,93767
 1.2000e+000 94116 -8.3040e+000 -2.0965e+001 -3.4894e+000 41498 93793,93975,93923
 1.2000e+000 94093 -1.0104e+001 -2.5343e+001  3.5933e-001 41498 93923,93975,93949
 1.2000e+000 94070 -1.2736e+001 -1.8115e+001 -5.8496e+000 41498 93871,93923,93897
 1.2000e+000 94047 -7.0017e+000 -1.9648e+001 -4.3862e+000 41498 93793,93923,93871
 1.2000e+000 94024 -8.6815e+000 -1.9998e+001  2.4393e-002 41498 93819,93871,93845
 1.2000e+000 94001 -9.2365e+000 -1.8266e+001 -2.7624e+000 41498 93793,93871,93819
 1.2000e+000 94619 -1.3522e+001 -2.5880e+001 -3.8618e+000 40930 94642,94423,94371
 1.2000e+000 94596 -1.2984e+001 -2.6387e+001 -1.9548e+000 40930 94642,94371,94345
 1.2000e+000 94573 -1.4780e+001 -3.0962e+001 -1.6429e+000 40930 94345,94501,94475
 1.2000e+000 94550 -7.9030e+000 -2.7548e+001 -5.5605e+000 40930 94371,94423,94397
 1.2000e+000 94527 -1.4837e+001 -1.9288e+001 -6.1304e-001 40930 94423,94475,94449
 1.2000e+000 94668 -1.2362e+001 -2.2630e+001 -4.1243e+000 40930 94475,94423,94642
 1.2000e+000 94691 -1.2474e+001 -2.4881e+001 -2.4484e+000 40930 94475,94642,94345
 1.2000e+000 95148 -5.9677e+000 -2.8567e+001  6.0592e+000 40362 95171,94952,94926
 1.2000e+000 95125 -8.8785e+000 -3.0862e+001  1.6515e+000 40362 95171,94926,95004
 1.2000e+000 95102 -9.1696e+000 -2.7356e+001  2.7552e+000 40362 94874,95004,94926
 1.2000e+000 95079 -1.5050e+000 -2.6401e+001  5.9606e+000 40362 94874,95030,95004
 1.2000e+000 95056 -8.8380e+000 -3.2620e+001 -2.9722e+000 40362 94874,94926,94900
 1.2000e+000 95197 -9.2918e+000 -3.2428e+001  4.4733e+000 40362 94978,94952,95171
 1.2000e+000 95220 -1.1718e+001 -3.4317e+001  1.8686e-001 40362 94978,95171,95004
 1.2000e+000 95549 -1.0795e+001 -2.3744e+001  1.4931e+000 39586 95350,95402,95376
 1.2000e+000 95526 -7.4031e+000 -2.2357e+001  9.8986e-001 39586 95324,95402,95350
 1.2000e+000 95503 -7.7387e+000 -2.2099e+001  1.6506e+000 39586 95324,95454,95402
 1.2000e+000 95480 -1.0636e+001 -3.0556e+001  4.7364e-001 39586 95402,95454,95428
 1.2000e+000 96055 -7.2233e+000 -2.0071e+001 -7.3770e-001 38968 96078,95862,95810
 1.2000e+000 96032 -9.8910e+000 -1.9517e+001 -1.7001e+000 38968 96078,95810,95758
 1.2000e+000 96009 -6.2511e+000 -2.0539e+001 -2.5338e+000 38968 96150,95732,95888
 1.2000e+000 95986 -7.8122e+000 -1.9812e+001 -9.6402e-002 38968 95810,95862,95836
 1.2000e+000 95963 -4.7640e+000 -1.9630e+001 -3.0198e+000 38968 95732,95914,95888
 1.2000e+000 95940 -1.2440e+001 -2.2410e+001 -1.6149e-001 38968 95758,95810,95784
 1.2000e+000 96104 -7.4867e+000 -2.0038e+001 -8.1392e-001 38968 95888,95862,96078
 1.2000e+000 96127 -8.1420e+000 -2.0037e+001 -9.1684e-001 38968 96150,95888,96078
 1.2000e+000 96176 -3.4018e+000 -1.8178e+001 -4.0519e+000 38968 95758,95732,96150
 1.2000e+000 96199 -5.5280e+000 -1.7329e+001 -2.5488e+000 38968 95758,96150,96078
 1.2000e+000 96545 -1.0000e+001 -2.9989e+001 -8.2303e-001 38507 96640,96568,96352
 1.2000e+000 96522 -1.3174e+001 -3.3436e+001  3.3362e-001 38507 96568,96300,96222
 1.2000e+000 96499 -1.0630e+001 -2.8788e+001 -4.1335e+000 38507 96640,96352,96326
 1.2000e+000 96476 -1.0858e+001 -3.0737e+001  1.4583e+000 38507 96352,96404,96378
 1.2000e+000 96453 -1.8503e+001 -4.0628e+001 -2.1975e+000 38507 96222,96300,96248
 1.2000e+000 96430 -1.6505e+001 -4.8311e+001 -6.6308e+000 38507 96248,96300,96274
 1.2000e+000 96594 -1.0069e+001 -3.2211e+001 -8.4352e-002 38507 96404,96352,96568
 1.2000e+000 96617 -1.0748e+001 -2.9868e+001 -7.4017e-001 38507 96404,96568,96222
 1.2000e+000 96666 -1.2230e+001 -3.5323e+001 -1.2286e+000 38507 96300,96568,96640
 1.2000e+000 96689 -1.2604e+001 -3.4143e+001 -4.2519e+000 38507 96300,96640,96326
 1.2000e+000 97069 -8.1946e+000 -2.1554e+001  4.2228e-001 37760 97092,96873,96821
 1.2000e+000 97046 -8.1762e+000 -2.1427e+001 -7.6513e-001 37760 97092,96821,96795
 1.2000e+000 97023 -7.6248e+000 -2.4780e+001  1.2463e+000 37760 96821,96873,96847
 1.2000e+000 97000 -1.1956e+001 -2.1653e+001 -8.2682e-001 37760 96873,96925,96899
 1.2000e+000 96977 -1.5977e+001 -2.5549e+001  4.2154e+000 37760 96795,96951,96925
 1.2000e+000 97118 -8.7622e+000 -2.2747e+001  6.3856e-001 37760 96925,96873,97092
 1.2000e+000 97141 -8.4773e+000 -2.2451e+001 -6.7348e-001 37760 96925,97092,96795
 1.2000e+000 97647 -1.3356e+001 -3.1196e+001  1.7872e-001 37356 97324,97480,97376
 1.2000e+000 97624 -1.3348e+001 -3.2167e+001  1.8137e+000 37356 97324,97506,97480
 1.2000e+000 97601 -1.8243e+001 -3.0616e+001 -7.5830e-001 37356 97376,97480,97454
 1.2000e+000 97578 -1.6462e+001 -3.3575e+001  2.2804e+000 37356 97324,97376,97350
 1.2000e+000 97555 -7.4079e+000 -2.2756e+001  6.1362e+000 37356 97376,97454,97402
 1.2000e+000 97532 -2.4348e+001 -3.5528e+001 -1.9890e-001 37356 97402,97454,97428
 1.2000e+000 98232 -1.0260e+001 -1.8300e+001 -2.1645e+000 36902 97935,98065,98013
 1.2000e+000 98209 -1.5543e+000 -1.6386e+001 -3.1118e+000 36902 97935,98091,98065
 1.2000e+000 98186  1.7116e+000 -1.2965e+001 -3.8990e+000 36902 97935,98013,97987
 1.2000e+000 98163  7.8071e+000 -1.7065e+001  4.8141e-001 36902 97909,98091,97935
 1.2000e+000 98140 -6.7809e-001 -1.6290e+001 -2.6594e+000 36902 97935,97987,97961
 1.2000e+000 98117 -1.0550e+001 -1.8133e+001 -3.0061e+000 36902 98013,98065,98039
 1.2000e+000 98659 -1.3437e+001 -3.4924e+001 -5.2109e-001 36604 98682,98414,98388
 1.2000e+000 98636 -1.4768e+001 -3.4998e+001  1.6199e+000 36604 98682,98388,98336
 1.2000e+000 98613 -1.6673e+001 -3.1516e+001  4.0770e-003 36604 98754,98518,98466
 1.2000e+000 98590 -1.2391e+001 -3.0794e+001 -9.0173e-001 36604 98414,98466,98440
 1.2000e+000 98567 -1.4939e+001 -4.3441e+001  8.8827e-001 36604 98336,98388,98362
 1.2000e+000 98544 -1.3373e+001 -3.7958e+001  1.3561e+001 36604 98466,98518,98492
 1.2000e+000 98708 -1.2945e+001 -3.2927e+001 -1.4591e+000 36604 98466,98414,98682
 1.2000e+000 98731 -1.5418e+001 -3.4462e+001 -7.9613e-002 36604 98754,98466,98682
 1.2000e+000 98780 -1.5830e+001 -3.0458e+001  3.9446e-001 36604 98336,98518,98754
 1.2000e+000 98803 -1.3037e+001 -3.1729e+001  9.3756e-001 36604 98336,98754,98682
 1.2000e+000 99309 -4.3045e+000 -2.1997e+001  1.6394e+000 36200 99332,99116,99012
 1.2000e+000 99286 -4.5431e+000 -1.6650e+001 -8.9918e-001 36200 99332,99012,98986
 1.2000e+000 99263 -6.2755e+000 -1.8943e+001  4.1487e+000 36200 99012,99116,99064
 1.2000e+000 99240 -6.5337e+000 -2.7653e+001 -8.9132e-001 36200 98986,99168,99142
 1.2000e+000 99217  1.1921e+001 -2.5175e+001  7.9693e+000 36200 99064,99116,99090
 1.2000e+000 99194 -8.8021e+000 -1.8587e+001  2.2435e+000 36200 99012,99064,99038
 1.2000e+000 99358 -5.0155e+000 -2.5457e+001  2.7635e+000 36200 99142,99116,99332
 1.2000e+000 99381 -5.9587e+000 -2.2199e+001 -3.1727e-001 36200 99142,99332,98986
 1.2000e+000 99887 -2.0123e+001 -2.7797e+001  2.2637e+000 35488 99564,99720,99590
 1.2000e+000 99864 -1.8723e+001 -2.4546e+001  2.3683e+000 35488 99564,99746,99720
 1.2000e+000 99841 -1.4206e+001 -2.9477e+001  3.8584e-001 35488 99642,99694,99668
 1.2000e+000 99818 -1.6393e+001 -3.2220e+001  3.4392e+000 35488 99590,99694,99642
 1.2000e+000 99795 -1.2843e+001 -2.5661e+001  1.9885e+000 35488 99590,99720,99694
 1.2000e+000 99772 -9.3679e+000 -3.9517e+001  4.6275e+000 35488 99590,99642,99616
 1.2000e+000 99988 -5.3269e+000 -2.9833e+001  3.7963e+000 35198 99910,99962,99936
 1.2000e+000 100138 -1.3038e+001 -4.0366e+001  1.0183e+000 34794 100233,100161,100063
 1.2000e+000 100115 -1.7949e+001 -3.8928e+001 -4.0833e-001 34794 100365,100161,100037
 1.2000e+000 100187 -1.4353e+001 -3.4737e+001 -5.3301e-002 34794 100089,100063,100161
 1.2000e+000 100210 -9.4366e+000 -2.8819e+001  3.0734e+000 34794 100089,100161,100011
 1.2000e+000 100259 -1.6042e+001 -4.4026e+001 -4.4321e+000 34794 100037,100161,100233
 1.2000e+000 100391 -5.0648e+000 -2.6228e+001 -6.1666e+000 34794 100011,100161,100365
 1.2000e+000 100927 -7.2463e+000 -2.4185e+001 -3.7009e-001 34404 100679,100809,100783
 1.2000e+000 100904 -7.2667e+000 -2.3459e+001 -1.5638e-001 34404 100653,100809,100679
 1.2000e+000 100881 -1.1533e+001 -2.9035e+001  1.8041e-001 34404 100705,100783,100731
 1.2000e+000 100858 -1.1794e+001 -2.6894e+001  1.3687e+000 34404 100679,100783,100705
 1.2000e+000 100835 -1.1945e+001 -3.0990e+001  5.8937e-001 34404 100731,100783,100757
 1.2000e+000 101354 -1.0495e+001 -2.8611e+001  1.8517e+000 34000 101377,101109,101057
 1.2000e+000 101331 -1.2831e+001 -3.0736e+001  4.9020e-001 34000 101449,101377,101057
 1.2000e+000 101308 -1.2494e+001 -3.1862e+001  4.5517e-001 34000 101449,101057,101031
 1.2000e+000 101285 -1.7209e+001 -3.4401e+001  4.7375e+000 34000 101031,101213,101187
 1.2000e+000 101262 -1.3943e+001 -4.2489e+001 -5.5159e+000 34000 101135,101187,101161
 1.2000e+000 101239 -1.1955e+001 -2.0732e+001  1.2986e-001 34000 101057,101109,101083
 1.2000e+000 101403 -1.2762e+001 -2.9015e+001 -1.2984e+000 34000 101135,101109,101377
 1.2000e+000 101426 -1.7593e+001 -3.0982e+001 -1.6246e+000 34000 101135,101377,101187
 1.2000e+000 101475 -1.3649e+001 -3.2091e+001  8.8752e-001 34000 101187,101377,101449
 1.2000e+000 101498 -1.2826e+001 -3.2608e+001  6.8186e-001 34000 101187,101449,101031
 1.2000e+000 102083 -6.6726e+000 -2.5827e+001  1.3162e+000 33472 102106,101812,101786
 1.2000e+000 102060 -9.5945e+000 -2.6214e+001  7.4595e-002 33472 102106,101786,101916
 1.2000e+000 102037 -1.0621e+001 -2.8208e+001 -3.0038e-001 33472 101812,101864,101838
 1.2000e+000 102014 -8.5234e+000 -3.1262e+001 -9.8701e-001 33472 101864,101916,101890
 1.2000e+000 101991 -1.3332e+001 -2.5208e+001 -5.4555e-001 33472 101786,101942,101916
 1.2000e+000 101968 -1.4845e+001 -2.4661e+001  3.5228e+000 33472 101760,101942,101786
 1.2000e+000 102132 -8.7559e+000 -2.7067e+001  1.8544e-001 33472 101864,101812,102106
 1.2000e+000 102155 -1.0097e+001 -2.6813e+001 -1.1013e+000 33472 101864,102106,101916
 1.2000e+000 102612 -1.3898e+001 -3.1008e+001 -4.1383e+000 33038 102635,102468,102390
 1.2000e+000 102589 -1.6728e+001 -3.4730e+001 -6.2887e+000 33038 102635,102390,102364
 1.2000e+000 102566 -1.5133e+001 -2.4447e+001 -1.9393e+000 33038 102390,102468,102442
 1.2000e+000 102543 -6.5178e+000 -2.7625e+001 -9.4183e-001 33038 102338,102494,102364
 1.2000e+000 102520 -1.4026e+001 -2.3975e+001 -1.8857e+000 33038 102390,102442,102416
 1.2000e+000 102661 -1.3438e+001 -3.0003e+001 -2.1565e+000 33038 102494,102468,102635
 1.2000e+000 102684 -1.3752e+001 -3.1904e+001 -3.9043e+000 33038 102494,102635,102364
 1.2000e+000 103318 -1.4393e+001 -2.5647e+001  1.3937e+000 32402 102972,103128,103076
 1.2000e+000 103295 -1.4258e+001 -2.6772e+001  1.0006e+000 32402 102946,103128,102972
 1.2000e+000 103272 -1.9408e+001 -3.7566e+001  1.5206e+000 32402 103076,103128,103102
 1.2000e+000 103249 -1.4317e+001 -2.6731e+001  1.9180e+000 32402 102946,103154,103128
 1.2000e+000 103226 -1.4929e+001 -2.4959e+001  6.1336e-001 32402 102972,103076,102998
 1.2000e+000 103203 -1.3939e+001 -2.3759e+001  1.2855e+000 32402 102998,103076,103050
 1.2000e+000 103180 -1.2449e+001 -2.0231e+001  3.9188e-002 32402 102998,103050,103024
 1.2000e+000 103696 -4.1929e+000 -2.5171e+001 -1.5853e+000 31924 103448,103526,103500
 1.2000e+000 103673 -4.0118e+000 -2.6142e+001 -5.7945e+000 31924 103448,103578,103526
 1.2000e+000 103650 -8.8632e+000 -2.0049e+001 -7.8230e-001 31924 103448,103500,103474
 1.2000e+000 103627  1.2784e+000 -3.1846e+001 -4.5665e+000 31924 103422,103578,103448
 1.2000e+000 103604  2.2171e+000 -3.6451e+001 -4.7083e+000 31924 103526,103578,103552
 1.2000e+000 104281 -4.9719e+000 -1.5790e+001  1.1999e+000 31520 104304,104062,104036
 1.2000e+000 104258 -9.6875e+000 -1.9263e+001 -3.5843e-001 31520 104304,104036,103984
 1.2000e+000 104235 -5.8292e+000 -2.0400e+001 -1.8194e+000 31520 104062,104114,104088
 1.2000e+000 104212  4.8954e+000 -1.5500e+001 -4.0485e+000 31520 103958,104114,103984
 1.2000e+000 104189 -9.2540e+000 -1.8336e+001 -2.7062e+000 31520 103984,104036,104010
 1.2000e+000 104166 -8.0517e-001 -2.6760e+001 -1.4195e+000 31520 103958,104140,104114
 1.2000e+000 104330 -4.6712e+000 -1.9769e+001 -1.0525e+000 31520 104114,104062,104304
 1.2000e+000 104353 -6.1464e+000 -2.0769e+001 -1.4946e+000 31520 104114,104304,103984
 1.2000e+000 104704 -1.1656e+001 -2.3322e+001 -1.6974e+000 31066 104479,104583,104505
 1.2000e+000 104681 -3.4891e+000 -2.1291e+001 -1.7878e+000 31066 104479,104609,104583
 1.2000e+000 104658 -5.0890e+000 -2.5459e+001  1.4425e+000 31066 104505,104557,104531
 1.2000e+000 104635 -4.6975e+000 -1.8578e+001  3.6907e-001 31066 104505,104583,104557
 1.2000e+000 104925 -1.6417e+001 -3.6855e+001  1.3091e-001 30754 104775,104827,104801
 1.2000e+000 104902 -1.5849e+001 -3.6238e+001 -1.1659e-001 30754 104775,104853,104827
 1.2000e+000 104879 -1.6033e+001 -3.6311e+001 -3.2102e-002 30754 104749,104853,104775
 1.2000e+000 105482 -1.5256e+001 -3.4455e+001 -7.2654e-002 30164 105505,105136,105110
 1.2000e+000 105459 -1.5334e+001 -3.5678e+001  3.8574e-001 30164 105649,105505,105110
 1.2000e+000 105436 -1.4726e+001 -3.4542e+001 -6.6764e-001 30164 105577,105188,105136
 1.2000e+000 105413 -1.4984e+001 -3.6349e+001  5.7026e+000 30164 105649,105110,105318
 1.2000e+000 105390 -1.8212e+001 -3.6762e+001  5.1334e+000 30164 105214,105292,105240
 1.2000e+000 105367 -1.8310e+001 -2.9936e+001  3.5186e-001 30164 105240,105292,105266
 1.2000e+000 105344 -1.3359e+001 -4.0337e+001  9.1189e-001 30164 105136,105188,105162
 1.2000e+000 105531 -1.4091e+001 -3.4161e+001  1.0243e-001 30164 105577,105136,105505
 1.2000e+000 105554 -1.5611e+001 -3.2310e+001  3.1254e-001 30164 105214,105505,105292
 1.2000e+000 105603 -1.3917e+001 -3.3406e+001  2.0936e-002 30164 105214,105188,105577
 1.2000e+000 105626 -1.3527e+001 -3.3072e+001  7.5667e-001 30164 105214,105577,105505
 1.2000e+000 105675 -1.1882e+001 -2.7132e+001  2.2644e+000 30164 105292,105505,105649
 1.2000e+000 105698 -1.1633e+001 -2.4831e+001  6.6280e+000 30164 105292,105649,105318
 1.2000e+000 106027 -1.1346e+001 -2.9434e+001 -1.7023e+000 29868 106322,106050,105880
 1.2000e+000 106004 -1.1288e+001 -2.4240e+001 -3.8959e+000 29868 106250,106050,105828
 1.2000e+000 105981 -9.6648e+000 -2.5477e+001 -7.6101e+000 29868 106250,105828,105802
 1.2000e+000 105958 -1.2344e+001 -2.9548e+001 -9.7580e-001 29868 106322,105880,106122
 1.2000e+000 106076 -1.2790e+001 -3.4870e+001 -4.5223e-001 29868 105906,105880,106050
 1.2000e+000 106099 -1.2160e+001 -2.9564e+001 -1.7001e+000 29868 105906,106050,105932
 1.2000e+000 106148 -1.8484e+001 -3.6533e+001 -3.7109e+000 29868 105854,105828,106122
 1.2000e+000 106276 -1.3063e+001 -2.9616e+001 -1.9136e+000 29868 105932,106050,106250
 1.2000e+000 106299 -1.0414e+001 -3.2093e+001 -5.9278e+000 29868 105932,106250,105802
 1.2000e+000 106348 -1.3112e+001 -2.9227e+001 -1.4848e+000 29868 105828,106050,106322
 1.2000e+000 106371 -1.3901e+001 -2.9134e+001 -7.9608e-001 29868 105828,106322,106122
 1.2000e+000 106828 -9.6238e+000 -2.0080e+001  3.0729e+000 29521 106580,106710,106684
 1.2000e+000 106805 -9.9868e+000 -2.0220e+001  2.7354e+000 29521 106554,106710,106580
 1.2000e+000 106782 -4.3671e+000 -1.5298e+001  5.1107e+000 29521 106580,106684,106606
 1.2000e+000 106759 -1.2407e+001 -2.5109e+001 -2.3083e+000 29521 106606,106684,106658
 1.2000e+000 106736 -7.0387e+000 -2.3211e+001 -1.3560e+000 29521 106606,106658,106632
 1.2000e+000 107027 -8.1281e+000 -2.6966e+001  1.3313e+000 29117 106877,106929,106903
 1.2000e+000 107004 -1.2342e+001 -2.8727e+001  4.2423e+000 29117 106851,106929,106877
 1.2000e+000 106981 -1.1928e+001 -2.4151e+001  3.5456e+000 29117 106851,106955,106929
 1.2000e+000 107456 -1.3694e+001 -2.7666e+001 -1.1158e+000 28656 107237,107315,107263
 1.2000e+000 107433 -1.0151e+001 -2.4860e+001  1.7052e-001 28656 107133,107315,107237
 1.2000e+000 107410 -8.4248e+000 -2.3100e+001 -1.0610e+000 28656 107133,107237,107159
 1.2000e+000 107387 -9.0202e+000 -2.0839e+001 -1.3886e+000 28656 107159,107237,107185
 1.2000e+000 107364 -4.2902e+000 -1.9527e+001 -3.8049e+000 28656 107185,107237,107211
 1.2000e+000 107341 -1.1423e+001 -2.2906e+001 -8.9605e-002 28656 107263,107315,107289
 1.2000e+000 107704 -1.2805e+001 -3.0290e+001 -5.0486e-001 27902 107727,107557,107531
 1.2000e+000 107681 -1.3350e+001 -3.2082e+001 -6.0547e-001 27902 107727,107531,107505
 1.2000e+000 107658 -1.2054e+001 -3.1650e+001  1.6783e-001 27902 107557,107609,107583
 1.2000e+000 107635 -1.6230e+001 -3.6294e+001 -1.8353e+000 27902 107479,107609,107505
 1.2000e+000 107753 -1.2190e+001 -3.1784e+001  2.6330e-001 27902 107609,107557,107727
 1.2000e+000 107776 -1.2546e+001 -3.3270e+001  2.1351e-001 27902 107609,107727,107505
 1.2000e+000 108333 -1.1854e+001 -2.8837e+001 -2.4402e-001 27341 108356,108065,108013
 1.2000e+000 108310 -1.2002e+001 -2.8426e+001 -2.3395e+000 27341 108356,108013,108143
 1.2000e+000 108287 -1.0594e+001 -3.0599e+001 -1.9045e+000 27341 108428,108117,108091
 1.2000e+000 108264 -1.4211e+001 -2.8980e+001  4.4925e-001 27341 108013,108065,108039
 1.2000e+000 108241 -1.6525e+001 -2.5735e+001 -2.3871e+000 27341 107987,108143,108013
 1.2000e+000 108218 -1.2060e+001 -2.3785e+001 -3.0665e+000 27341 107987,108169,108143
 1.2000e+000 108195 -1.0802e+001 -2.1615e+001 -2.3784e+000 27341 107961,108169,107987
 1.2000e+000 108382 -1.2756e+001 -3.1240e+001  1.2482e-001 27341 108091,108065,108356
 1.2000e+000 108405 -1.1677e+001 -2.8771e+001 -1.1916e+000 27341 108428,108091,108356
 1.2000e+000 108454 -1.2515e+001 -3.3778e+001 -2.8294e+000 27341 108143,108117,108428
 1.2000e+000 108477 -1.3230e+001 -3.1303e+001 -2.0647e+000 27341 108143,108428,108356
 1.2000e+000 108725 -1.5510e+001 -3.7677e+001 -4.4359e-001 27029 108748,108526,108500
 1.2000e+000 108702 -1.6441e+001 -3.7650e+001  1.4962e-002 27029 108748,108500,108630
 1.2000e+000 108679 -1.8117e+001 -3.7379e+001  9.0979e-001 27029 108578,108630,108604
 1.2000e+000 108656 -1.7269e+001 -3.0899e+001  8.6721e+000 27029 108526,108578,108552
 1.2000e+000 108774 -1.6281e+001 -3.6813e+001 -9.5034e-001 27029 108578,108526,108748
 1.2000e+000 108797 -1.7455e+001 -3.6972e+001 -6.0165e-001 27029 108578,108748,108630
 1.2000e+000 109045 -1.1406e+001 -2.8043e+001 -1.7377e-001 26610 108872,108924,108898
 1.2000e+000 109022 -1.2103e+001 -2.6212e+001  6.8018e-001 26610 108872,108950,108924
 1.2000e+000 108999 -1.3242e+001 -2.8016e+001 -5.5734e-003 26610 108846,108950,108872
 1.2000e+000 108976 -1.4020e+001 -2.3929e+001  5.4039e-001 26610 108820,108950,108846
 1.2000e+000 109366 -5.9166e+000 -2.9515e+001 -7.4957e-001 26006 109144,109222,109196
 1.2000e+000 109343 -4.4245e+000 -2.7532e+001  3.1606e-002 26006 109118,109222,109144
 1.2000e+000 109320 -7.7054e+000 -2.9400e+001  8.8655e-001 26006 109092,109222,109118
 1.2000e+000 109297 -8.3202e+000 -3.0511e+001 -1.0724e+000 26006 109144,109196,109170
 1.2000e+000 109274 -3.3000e+000 -2.0648e+001 -7.9720e-001 26006 109092,109248,109222
 1.2000e+000 109567 -1.0740e+001 -2.9065e+001  1.1796e+000 25659 109391,109469,109443
 1.2000e+000 109544 -1.1851e+001 -3.0352e+001  3.2169e+000 25659 109391,109495,109469
 1.2000e+000 109521 -9.3966e+000 -2.8673e+001  1.1884e-001 25659 109391,109443,109417
 1.2000e+000 109900 -1.4211e+001 -3.5819e+001 -2.8508e+000 25255 109923,109779,109753
 1.2000e+000 109877 -1.3072e+001 -3.0945e+001  7.6207e-001 25255 109923,109753,109701
 1.2000e+000 109854 -1.8158e+001 -3.3474e+001 -4.5841e+000 25255 109675,109805,109701
 1.2000e+000 109831 -9.3613e+000 -2.9056e+001 -1.0803e-001 25255 109701,109753,109727
 1.2000e+000 109949 -1.7946e+001 -4.3260e+001 -7.6309e+000 25255 109805,109779,109923
 1.2000e+000 109972 -1.3923e+001 -3.4396e+001 -3.6954e+000 25255 109805,109923,109701
 1.2000e+000 110220 -1.1052e+001 -3.1216e+001 -5.1324e-001 24701 110243,110021,109995
 1.2000e+000 110197 -1.1115e+001 -3.1261e+001 -3.0292e-001 24701 110243,109995,110099
 1.2000e+000 110174 -1.0937e+001 -2.9785e+001 -5.8900e-001 24701 110315,110073,110047
 1.2000e+000 110151 -1.1192e+001 -3.5107e+001  6.1843e-001 24701 109995,110125,110099
 1.2000e+000 110269 -1.4649e+001 -3.4256e+001 -2.3651e+000 24701 110047,110021,110243
 1.2000e+000 110292 -1.0969e+001 -3.0023e+001 -8.0439e-001 24701 110315,110047,110243
 1.2000e+000 110341 -9.7858e+000 -3.0284e+001 -5.3375e-002 24701 110099,110073,110315
 1.2000e+000 110364 -1.0319e+001 -3.0920e+001 -4.9162e-001 24701 110099,110315,110243
 1.2000e+000 110661 -1.2075e+001 -2.9984e+001  1.0394e+000 24197 110684,110413,110387
 1.2000e+000 110638 -1.1019e+001 -2.8197e+001  2.6332e-001 24197 110684,110387,110543
 1.2000e+000 110615 -1.0548e+001 -3.2133e+001  8.6266e-001 24197 110756,110491,110465
 1.2000e+000 110592 -5.2482e+000 -2.8785e+001  8.1098e-001 24197 110413,110465,110439
 1.2000e+000 110569 -1.0058e+001 -3.5943e+001 -5.0932e+000 24197 110491,110543,110517
 1.2000e+000 110710 -1.0260e+001 -2.9111e+001  1.4124e+000 24197 110465,110413,110684
 1.2000e+000 110733 -1.1281e+001 -3.1057e+001  6.9462e-001 24197 110756,110465,110684
 1.2000e+000 110782 -1.0488e+001 -3.0911e+001 -1.6195e-001 24197 110543,110491,110756
 1.2000e+000 110805 -1.0737e+001 -2.9235e+001 -3.5017e-001 24197 110543,110756,110684
 1.2000e+000 111315 -1.6299e+001 -3.4010e+001 -2.3030e+000 23593 111044,111148,111070
 1.2000e+000 111292 -1.3024e+001 -2.7211e+001  7.4366e-001 23593 111044,111174,111148
 1.2000e+000 111269 -1.6639e+001 -3.0308e+001  1.9084e-001 23593 111070,111122,111096
 1.2000e+000 111246 -1.6643e+001 -3.6165e+001 -1.5428e+000 23593 111070,111148,111122
 1.2000e+000 111223 -2.0646e+001 -3.4637e+001 -4.6805e+000 23593 111018,111174,111044
 1.2000e+000 111200 -1.0645e+001 -2.8496e+001 -1.2820e+000 23593 110992,111174,111018
 1.2000e+000 111821 -6.9872e+000 -2.8306e+001 -6.1078e-001 23089 111916,111844,111628
 1.2000e+000 111798 -1.1790e+001 -3.1146e+001 -1.3344e+000 23089 111844,111550,111524
 1.2000e+000 111775 -5.9199e+000 -2.7412e+001 -1.9264e-001 23089 111916,111628,111602
 1.2000e+000 111752 -1.0426e+001 -3.6519e+001  1.1311e+000 23089 111498,111680,111524
 1.2000e+000 111729 -9.3236e+000 -2.5509e+001 -9.3851e-002 23089 111550,111602,111576
 1.2000e+000 111706 -7.4707e+000 -2.3522e+001 -1.2706e+000 23089 111628,111680,111654
 1.2000e+000 111870 -1.0364e+001 -2.7799e+001  6.7681e-001 23089 111680,111628,111844
 1.2000e+000 111893 -1.1238e+001 -2.9671e+001  2.2104e+000 23089 111680,111844,111524
 1.2000e+000 111942 -9.7833e+000 -2.6384e+001 -9.9450e-001 23089 111550,111844,111916
 1.2000e+000 111965 -8.3815e+000 -2.5289e+001 -5.0907e-001 23089 111550,111916,111602
 1.2000e+000 112164 -1.0886e+001 -3.1137e+001 -6.4936e-001 22626 112187,112014,111988
 1.2000e+000 112141 -1.3298e+001 -3.0780e+001 -4.1510e-002 22626 112259,112187,111988
 1.2000e+000 112118 -1.4327e+001 -3.0157e+001 -1.7128e+000 22626 112259,111988,112092
 1.2000e+000 112213 -1.3663e+001 -2.8719e+001 -6.7676e-001 22626 112040,112014,112187
 1.2000e+000 112236 -1.6447e+001 -3.1818e+001  1.1669e+000 22626 112040,112187,112066
 1.2000e+000 112285 -1.4746e+001 -3.3230e+001 -6.7575e-001 22626 112066,112187,112259
 1.2000e+000 112308 -1.5650e+001 -3.2685e+001 -2.2854e+000 22626 112066,112259,112092
 1.2000e+000 112605 -1.0238e+001 -2.9839e+001  7.9500e-001 22286 112628,112383,112357
 1.2000e+000 112582 -1.3068e+001 -3.0855e+001  7.3314e-001 22286 112772,112628,112357
 1.2000e+000 112559 -1.6206e+001 -3.2799e+001  1.5480e+000 22286 112700,112435,112409
 1.2000e+000 112536 -1.6306e+001 -3.1508e+001  1.0995e+000 22286 112772,112357,112331
 1.2000e+000 112513 -1.7631e+001 -3.1173e+001  1.0934e+000 22286 112435,112487,112461
 1.2000e+000 112654 -1.1319e+001 -2.6193e+001 -1.2183e+000 22286 112409,112383,112628
 1.2000e+000 112677 -1.4573e+001 -3.0394e+001  3.2903e-001 22286 112700,112409,112628
 1.2000e+000 112726 -1.4117e+001 -3.0726e+001 -2.6382e-001 22286 112487,112435,112700
 1.2000e+000 112749 -1.3517e+001 -3.0399e+001 -1.2347e+000 22286 112487,112700,112628
 1.2000e+000 112798 -1.1677e+001 -3.0729e+001  1.5870e-001 22286 112487,112628,112772
 1.2000e+000 112821 -1.2483e+001 -2.9896e+001  5.3138e-001 22286 112487,112772,112331
 1.2000e+000 112924 -1.2737e+001 -3.7230e+001 -1.7180e+000 21974 112846,112898,112872
 1.2000e+000 113223 -1.2881e+001 -3.1157e+001 -1.2575e+000 21420 112949,113053,112975
 1.2000e+000 113200 -1.5718e+001 -3.2407e+001  3.8099e-001 21420 112949,113079,113053
 1.2000e+000 113177 -1.5712e+001 -3.2713e+001 -4.4291e-001 21420 112975,113053,113001
 1.2000e+000 113154 -1.6233e+001 -3.1536e+001  4.2332e-001 21420 113001,113053,113027
 1.2000e+000 113131 -1.7379e+001 -3.4084e+001  1.2583e+000 21420 112949,113105,113079
 1.2000e+000 113605 -1.6002e+001 -3.7559e+001  1.2156e+000 20716 113331,113435,113357
 1.2000e+000 113582 -1.5226e+001 -3.1514e+001  9.9149e-001 20716 113331,113461,113435
 1.2000e+000 113559 -1.4968e+001 -3.9318e+001 -1.3781e+000 20716 113383,113435,113409
 1.2000e+000 113536 -1.5585e+001 -3.6491e+001 -3.1343e-001 20716 113357,113435,113383
 1.2000e+000 113513 -5.2715e+000 -3.0148e+001  2.2347e+000 20716 113331,113487,113461
 1.2000e+000 113853 -1.2771e+001 -3.0215e+001  1.8403e-001 20290 113876,113680,113654
 1.2000e+000 113830 -1.1572e+001 -3.1564e+001 -5.8695e-001 20290 113876,113654,113628
 1.2000e+000 113807 -1.2706e+001 -3.1223e+001 -4.6487e-001 20290 113948,113732,113680
 1.2000e+000 113784 -7.1970e+000 -3.0073e+001 -1.2604e+000 20290 113680,113732,113706
 1.2000e+000 113902 -1.2534e+001 -3.1214e+001 -1.1902e-001 20290 113948,113680,113876
 1.2000e+000 113925 -1.2447e+001 -3.3604e+001  5.7640e-002 20290 113758,113876,113628
 1.2000e+000 113974 -1.3078e+001 -3.1275e+001 -4.2821e-001 20290 113758,113732,113948
 1.2000e+000 113997 -1.3118e+001 -3.1416e+001 -1.0811e-001 20290 113758,113948,113876
 1.2000e+000 114365 -7.5511e+000 -2.9879e+001  1.0150e-001 19900 114146,114198,114172
 1.2000e+000 114342 -8.1169e+000 -3.0136e+001  5.5000e-003 19900 114042,114198,114146
 1.2000e+000 114319 -7.0322e+000 -2.9589e+001 -6.0525e-001 19900 114042,114224,114198
 1.2000e+000 114296 -1.2588e+001 -2.9265e+001 -1.8816e-001 19900 114094,114146,114120
 1.2000e+000 114273 -8.1242e+000 -2.8245e+001 -1.0638e+000 19900 114042,114146,114094
 1.2000e+000 114250 -6.2573e+000 -2.8456e+001 -2.2420e+000 19900 114042,114094,114068
 1.2000e+000 114566 -9.7576e+000 -3.0294e+001  6.2647e-001 19496 114442,114494,114468
 1.2000e+000 114543 -1.3902e+001 -3.0044e+001 -1.3621e+000 19496 114416,114494,114442
 1.2000e+000 114520 -6.4276e+000 -2.9410e+001 -2.2598e+000 19496 114390,114494,114416
 1.2000e+000 114767 -9.8009e+000 -2.9160e+001  1.3831e-002 19042 114790,114669,114643
 1.2000e+000 114744 -1.1354e+001 -2.8631e+001  2.4853e-001 19042 114790,114643,114591
 1.2000e+000 114721 -1.1939e+001 -3.2425e+001  1.2893e+000 19042 114591,114643,114617
 1.2000e+000 114816 -8.3195e+000 -2.8831e+001 -1.5831e-001 19042 114695,114669,114790
 1.2000e+000 114839 -1.0055e+001 -2.8298e+001 -1.6043e-001 19042 114695,114790,114591
 1.2000e+000 114991 -1.0157e+001 -2.9080e+001 -6.1824e-001 18488 114864,114916,114890
 1.2000e+000 114968 -1.0415e+001 -3.2935e+001 -1.2118e-001 18488 114864,114942,114916
 1.2000e+000 115192 -1.1672e+001 -2.8580e+001 -6.1091e-001 18098 115215,115042,115016
 1.2000e+000 115169 -1.0037e+001 -2.7798e+001 -9.1324e-001 18098 115215,115016,115120
 1.2000e+000 115146 -1.0421e+001 -2.8685e+001  4.5421e-001 18098 115287,115094,115068
 1.2000e+000 115241 -1.0478e+001 -2.9228e+001 -1.5933e-001 18098 115068,115042,115215
 1.2000e+000 115264 -1.0440e+001 -2.9046e+001 -1.8325e-001 18098 115287,115068,115215
 1.2000e+000 115313 -9.6009e+000 -2.8256e+001  6.4202e-001 18098 115120,115094,115287
 1.2000e+000 115336 -9.3121e+000 -2.8466e+001  4.2861e-002 18098 115120,115287,115215
 1.2000e+000 115846 -1.5871e+001 -3.6201e+001 -2.2213e+000 17644 115653,115705,115679
 1.2000e+000 115823 -1.6287e+001 -3.3166e+001 -1.6937e+000 17644 115627,115705,115653
 1.2000e+000 115800 -1.3913e+001 -3.2384e+001  2.1269e-001 17644 115549,115705,115627
 1.2000e+000 115777 -1.3981e+001 -3.3820e+001  3.0675e-002 17644 115549,115627,115575
 1.2000e+000 115754 -1.1972e+001 -3.0155e+001  2.2932e+000 17644 115523,115705,115549
 1.2000e+000 115731 -1.3219e+001 -3.2571e+001 -8.2073e-001 17644 115575,115627,115601
 1.2000e+000 116067 -1.5483e+001 -3.3451e+001 -4.5824e-001 17116 115891,115943,115917
 1.2000e+000 116044 -1.4543e+001 -3.5037e+001 -2.6480e-001 17116 115891,115995,115943
 1.2000e+000 116021 -1.2817e+001 -3.3000e+001  5.2650e-001 17116 115943,115995,115969
 1.2000e+000 116288 -9.4963e+000 -3.0178e+001  3.2484e+000 16704 116164,116216,116190
 1.2000e+000 116265 -1.2281e+001 -3.5437e+001  2.0809e+000 16704 116112,116216,116164
 1.2000e+000 116242 -1.4440e+001 -3.4010e+001 -2.1459e-001 16704 116112,116164,116138
 1.2000e+000 116489 -1.6565e+001 -3.7677e+001  1.0637e+000 16434 116339,116417,116365
 1.2000e+000 116466 -1.4584e+001 -3.7343e+001  1.1090e-001 16434 116313,116417,116339
 1.2000e+000 116443 -2.8722e+001 -3.9431e+001  1.0927e+001 16434 116365,116417,116391
 1.2000e+000 116592 -1.2225e+001 -3.0279e+001 -1.0717e+000 15967 116514,116566,116540
 1.2000e+000 116695 -4.8302e+000 -3.7215e+001 -3.9979e+000 15552 116617,116669,116643
 1.2000e+000 116798 -6.8516e+000 -2.8091e+001  0.0000e+000 421 116720,116772,116746
 1.3000e+000 69066 -2.2438e+000 -6.2657e+001  9.3052e+000 68738 68965,69017,68991
 1.3000e+000 69043  6.6357e-001 -6.3932e+001  1.6899e+000 68738 68939,69017,68965
 1.3000e+000 69371  4.9079e+000 -1.3532e+001 -5.0485e+000 68426 69172,69250,69198
 1.3000e+000 69348  1.2081e+000 -2.4152e+001  4.8165e-001 68426 69146,69250,69172
 1.3000e+000 69325  1.7848e+001 -1.4840e+001 -8.6986e+000 68426 69198,69250,69224
 1.3000e+000 69302  7.4296e-001 -2.9539e+001 -7.9201e-001 68426 69146,69276,69250
 1.3000e+000 69521 -5.5003e+000 -3.6610e+001  7.3800e+000 68228 69420,69472,69446
 1.3000e+000 69498 -2.3774e+000 -3.0883e+001  3.2672e+000 68228 69394,69472,69420
 1.3000e+000 69781 -2.6367e+000 -8.1612e+000  1.6518e+000 68030 69631,69683,69657
 1.3000e+000 69758 -2.6603e+000 -8.0847e+000  1.6841e+000 68030 69631,69709,69683
 1.3000e+000 69735  2.1537e+000 -1.7651e+000 -1.7393e+000 68030 69605,69709,69631
 1.3000e+000 70078 -3.2302e+000 -1.5624e+001 -4.8871e+000 67832 69882,69934,69908
 1.3000e+000 70055 -4.8946e+000 -1.6103e+001 -4.7721e+000 67832 69856,69934,69882
 1.3000e+000 70032  1.8963e+000 -2.1930e+001 -1.5605e+001 67832 69830,69934,69856
 1.3000e+000 70009 -3.0221e+000 -3.2967e+001 -9.3743e+000 67832 69804,69934,69830
 1.3000e+000 69986  9.6591e+000 -2.8782e+001 -7.7343e+000 67832 69804,69960,69934
 1.3000e+000 70586 -2.2325e+000 -2.3190e+001  2.0408e+000 67634 70609,70419,70341
 1.3000e+000 70563  2.7027e+000 -2.1775e+001  1.2930e+000 67634 70681,70609,70341
 1.3000e+000 70540  6.6845e+000 -2.0852e+001  4.5937e+000 67634 70681,70341,70315
 1.3000e+000 70517 -3.2637e+000 -2.5186e+001  2.4169e+000 67634 70341,70419,70367
 1.3000e+000 70494 -3.8703e+000 -1.8585e+001  6.7421e+000 67634 70263,70445,70289
 1.3000e+000 70471 -5.6179e+000 -1.6207e+001  9.2030e-001 67634 70367,70419,70393
 1.3000e+000 70635  2.1736e+000 -2.0268e+001  4.5079e+000 67634 70445,70419,70609
 1.3000e+000 70658 -5.1713e+000 -2.4008e+001  7.3488e+000 67634 70445,70609,70289
 1.3000e+000 70707  5.0753e+000 -1.9560e+001  8.8629e+000 67634 70289,70609,70681
 1.3000e+000 70730  1.3779e+001 -1.7574e+001  1.1764e+001 67634 70289,70681,70315
 1.3000e+000 71108  4.5689e-001 -2.6828e+001  1.7209e+000 67344 71131,70912,70886
 1.3000e+000 71085  1.3105e+000 -2.5587e+001  4.7730e+000 67344 71131,70886,70860
 1.3000e+000 71062 -2.7653e+000 -2.6732e+001  1.7745e+000 67344 71203,70938,70912
 1.3000e+000 71039 -2.1596e+000 -2.3487e+001  4.3458e+000 67344 70834,70990,70860
 1.3000e+000 71016 -4.0644e+000 -2.8306e+001  1.0609e+000 67344 70938,70990,70964
 1.3000e+000 71157 -2.4567e+000 -2.6487e+001  1.6050e+000 67344 71203,70912,71131
 1.3000e+000 71180 -1.0170e+000 -2.6071e+001  3.3959e+000 67344 70990,71131,70860
 1.3000e+000 71229 -1.9490e+000 -2.7815e+001  1.6517e+000 67344 70990,70938,71203
 1.3000e+000 71252 -1.2344e+000 -2.7142e+001  1.3494e+000 67344 70990,71203,71131
 1.3000e+000 71603 -1.5760e-001 -2.5013e+001  1.3354e+000 67032 71378,71482,71404
 1.3000e+000 71580  3.1051e+000 -1.9501e+001  3.1069e+000 67032 71378,71508,71482
 1.3000e+000 71557  2.0097e+000 -2.2052e+001  2.6934e-001 67032 71404,71456,71430
 1.3000e+000 71534  1.3364e+000 -2.2718e+001 -5.0715e-003 67032 71404,71482,71456
 1.3000e+000 72003 -1.6617e+000 -2.5031e+001 -1.9371e-001 66834 71755,71859,71781
 1.3000e+000 71980 -2.4417e+000 -2.2644e+001 -1.8652e-001 66834 71755,71885,71859
 1.3000e+000 71957 -3.6057e+000 -2.3310e+001  1.0744e+000 66834 71781,71833,71807
 1.3000e+000 71934 -1.9177e+000 -2.3883e+001  1.6180e+000 66834 71781,71859,71833
 1.3000e+000 71911 -3.2628e+000 -2.3134e+001  2.3809e+000 66834 71729,71885,71755
 1.3000e+000 72430 -2.3211e-001 -2.5023e+001  4.6337e-001 66266 72237,72289,72263
 1.3000e+000 72407  3.5391e-002 -2.4632e+001  1.4680e+000 66266 72133,72289,72237
 1.3000e+000 72384 -3.2629e+000 -2.3638e+001  1.5980e+000 66266 72133,72237,72211
 1.3000e+000 72361 -4.4222e+000 -2.3275e+001  3.5119e+000 66266 72107,72289,72133
 1.3000e+000 72338 -1.0186e+001 -4.0954e+001  7.6749e+000 66266 72133,72211,72185
 1.3000e+000 72315 -6.6662e-001 -4.6939e+001  7.8529e+000 66266 72133,72185,72159
 1.3000e+000 72580 -8.1281e+000 -4.7384e+001  4.6957e+000 65968 72479,72531,72505
 1.3000e+000 72557 -1.6337e+000 -3.4972e+001  2.0537e+000 65968 72453,72531,72479
 1.3000e+000 72960 -2.3503e+000 -2.8942e+001  2.2872e+000 65621 72983,72738,72712
 1.3000e+000 72937 -3.0284e+000 -2.7853e+001  2.2942e+000 65621 72983,72712,72686
 1.3000e+000 72914 -4.5014e+000 -3.1966e+001  2.9703e+000 65621 72738,72842,72764
 1.3000e+000 72891  1.7142e-001 -2.5485e+001 -4.6689e+000 65621 72764,72842,72816
 1.3000e+000 72868  2.0322e+001 -5.3888e+001 -4.6238e+000 65621 72764,72816,72790
 1.3000e+000 73009 -2.3898e+000 -2.8118e+001  2.0901e+000 65621 72842,72738,72983
 1.3000e+000 73032 -2.3882e+000 -2.6148e+001  1.9617e+000 65621 72842,72983,72686
 1.3000e+000 73361 -1.1616e+001 -4.1094e+001 -3.2465e+000 65281 73456,73384,73188
 1.3000e+000 73338 -2.1671e+001 -4.2275e+001  1.1603e+000 65281 73384,73162,73136
 1.3000e+000 73315 -1.2300e+001 -5.1727e+001 -1.1176e+001 65281 73188,73240,73214
 1.3000e+000 73292 -1.4729e+001 -3.3379e+001 -7.5226e-001 65281 73136,73266,73240
 1.3000e+000 73410 -1.6892e+001 -4.3292e+001 -2.1975e+000 65281 73240,73188,73384
 1.3000e+000 73433 -1.6271e+001 -3.3704e+001 -1.4943e+000 65281 73240,73384,73136
 1.3000e+000 73482 -1.5038e+001 -4.6664e+001 -1.0566e+000 65281 73162,73384,73456
 1.3000e+000 73711  1.5453e+001 -1.1451e+001 -5.0857e+000 64820 73734,73610,73584
 1.3000e+000 73688  1.6115e+001 -7.3303e+000 -1.2652e+001 64820 73734,73584,73662
 1.3000e+000 73760  2.7600e+001 -6.7868e+000 -1.1115e+001 64820 73636,73610,73734
 1.3000e+000 73783  8.1257e+000 -9.8453e+000 -1.2329e+001 64820 73806,73734,73662
 1.3000e+000 73832  2.6593e+001  1.0444e+001 -2.0585e+001 64820 73636,73734,73806
 1.3000e+000 74112  1.6103e+000 -3.7272e+001  3.4223e-001 64622 74278,74135,73988
 1.3000e+000 74089 -1.2419e+000 -3.6432e+001  3.3928e+000 64622 74135,73936,74040
 1.3000e+000 74066  3.0603e+000 -3.6676e+001  1.6727e+000 64622 74278,73988,73962
 1.3000e+000 74161 -9.5531e-001 -3.7495e+001  3.0348e-001 64622 74014,73988,74135
 1.3000e+000 74184  7.3704e-001 -3.3914e+001  2.1204e+000 64622 74207,74135,74040
 1.3000e+000 74233 -3.4895e-001 -3.7160e+001  4.4254e-001 64622 74014,74135,74207
 1.3000e+000 74304  2.3367e+000 -3.5750e+001  3.4520e+000 64622 73936,74135,74278
 1.3000e+000 74327  5.4321e+000 -3.4796e+001  4.7477e+000 64622 73936,74278,73962
 1.3000e+000 74526  9.3999e-001 -2.5997e+001 -4.5776e-001 64424 74621,74549,74402
 1.3000e+000 74503 -7.7411e-002 -3.2373e+001  1.0333e+000 64424 74549,74350,74454
 1.3000e+000 74480  9.1665e-001 -2.3124e+001 -5.7173e+000 64424 74621,74402,74376
 1.3000e+000 74575 -1.3761e+000 -3.0318e+001  1.1336e+000 64424 74428,74402,74549
 1.3000e+000 74598 -2.3695e-001 -3.1803e+001  8.3593e-001 64424 74693,74549,74454
 1.3000e+000 74647 -2.7517e+000 -3.4351e+001  1.6980e-001 64424 74350,74549,74621
 1.3000e+000 74670 -3.3811e+000 -3.3092e+001 -5.2946e+000 64424 74350,74621,74376
 1.3000e+000 74719 -5.2573e-001 -3.2635e+001  6.5933e-001 64424 74428,74549,74693
 1.3000e+000 75123 -1.4796e+001 -6.4827e+001  6.9898e+000 64126 74875,74953,74927
 1.3000e+000 75100 -1.3471e+000 -3.5351e+001  3.8208e+000 64126 74875,74979,74953
 1.3000e+000 75077 -5.4133e+000 -4.1218e+001  6.0681e+000 64126 74875,75005,74979
 1.3000e+000 75054  9.9711e+000 -7.9859e+001  2.7406e+001 64126 74875,74927,74901
 1.3000e+000 75031 -1.7254e+001 -3.1417e+001  1.0326e+001 64126 74849,75005,74875
 1.3000e+000 75224  6.2129e-001 -3.1771e+001  3.6299e+000 63836 75146,75198,75172
 1.3000e+000 75472 -6.0985e+000 -2.9195e+001  2.1145e+000 63375 75273,75351,75325
 1.3000e+000 75449 -6.0279e+000 -2.8521e+001  1.2098e+000 63375 75273,75377,75351
 1.3000e+000 75426  1.3684e+000 -2.7173e+001  7.0934e-001 63375 75247,75377,75273
 1.3000e+000 75403 -5.8191e+000 -1.5677e+001  4.4621e+000 63375 75273,75325,75299
 1.3000e+000 75673 -1.3717e+000 -2.6724e+001  2.3320e+000 63063 75523,75575,75549
 1.3000e+000 75650 -3.0500e-001 -3.1929e+001 -2.9560e-001 63063 75497,75575,75523
 1.3000e+000 75627 -1.7458e+000 -3.4017e+001  2.9747e+000 63063 75497,75601,75575
 1.3000e+000 75874 -6.1122e+000 -5.0150e+001  7.0966e-001 62716 75897,75750,75724
 1.3000e+000 75851 -8.2317e+000 -4.9504e+001  7.1757e-001 62716 75897,75724,75698
 1.3000e+000 75828 -6.6452e+000 -4.2917e+001 -9.1995e+000 62716 75698,75802,75776
 1.3000e+000 75923 -1.3846e+000 -4.9262e+001  2.8997e-001 62716 75776,75750,75897
 1.3000e+000 75946 -5.9655e+000 -5.0384e+001  4.5300e-001 62716 75776,75897,75698
 1.3000e+000 76328  3.2467e+000 -4.9148e+001 -1.0782e+000 62198 76495,76351,76158
 1.3000e+000 76305 -6.9363e-002 -4.3324e+001  1.1575e-002 62198 76351,76080,76054
 1.3000e+000 76282  3.0076e+000 -5.3673e+001 -3.1156e+000 62198 76423,76184,76158
 1.3000e+000 76259  2.3364e+000 -5.0251e+001 -6.8445e-001 62198 76495,76158,76106
 1.3000e+000 76236  8.4531e+000 -5.3769e+001  1.2553e+000 62198 76106,76158,76132
 1.3000e+000 76377  3.4815e+000 -4.8548e+001 -2.6716e+000 62198 76423,76158,76351
 1.3000e+000 76400  1.1429e-001 -4.2151e+001 -8.2929e-001 62198 76210,76351,76054
 1.3000e+000 76449  3.9730e+000 -4.7791e+001 -3.1943e+000 62198 76210,76184,76423
 1.3000e+000 76472  3.1968e+000 -4.4576e+001 -3.5147e+000 62198 76210,76423,76351
 1.3000e+000 76521  5.4704e-001 -4.4983e+001  1.9086e+000 62198 76080,76351,76495
 1.3000e+000 76544 -3.3517e+000 -5.0468e+001  3.6552e+000 62198 76080,76495,76106
 1.3000e+000 76841 -5.2035e+000 -4.6724e+001 -1.1274e+000 61751 76936,76864,76645
 1.3000e+000 76818 -7.8481e+000 -4.0002e+001 -6.5790e+000 61751 76864,76567,76723
 1.3000e+000 76795 -6.3604e+000 -4.4003e+001 -1.9607e-001 61751 76936,76645,76593
 1.3000e+000 76772  8.5758e+000 -4.1686e+001 -1.1553e+001 61751 77008,76697,76671
 1.3000e+000 76749 -5.2678e+000 -4.4988e+001  1.0230e+000 61751 76593,76645,76619
 1.3000e+000 76890 -9.8869e+000 -5.8579e+001  2.2295e+000 61751 76671,76645,76864
 1.3000e+000 76913 -5.0925e+000 -4.9843e+001 -7.4693e+000 61751 77008,76671,76864
 1.3000e+000 76962 -7.0869e+000 -5.0185e+001 -2.5292e+000 61751 76567,76864,76936
 1.3000e+000 76985 -7.7230e+000 -4.7330e+001 -1.3133e+000 61751 76567,76936,76593
 1.3000e+000 77034 -1.0015e+001 -5.1106e+001 -6.1684e+000 61751 76723,76697,77008
 1.3000e+000 77057 -1.1298e+001 -4.8042e+001 -5.5302e+000 61751 76723,77008,76864
 1.3000e+000 77207 -4.0825e-002 -2.3262e+001  4.4317e+000 61418 77106,77158,77132
 1.3000e+000 77184 -4.8337e+000 -2.9461e+001  2.3350e+000 61418 77080,77158,77106
 1.3000e+000 77638  1.4479e+000 -3.5545e+001  2.1841e+000 60814 77733,77661,77471
 1.3000e+000 77615 -1.0258e+001 -3.6524e+001  7.3348e-001 60814 77661,77393,77315
 1.3000e+000 77592  3.3577e+000 -3.1409e+001  4.0247e+000 60814 77733,77471,77445
 1.3000e+000 77569 -6.2627e+000 -3.7604e+001 -6.6216e+000 60814 77315,77367,77341
 1.3000e+000 77546 -4.7283e+000 -3.9621e+001 -2.9288e+000 60814 77315,77393,77367
 1.3000e+000 77523  7.4466e+000 -2.4205e+001  1.0715e+001 60814 77393,77445,77419
 1.3000e+000 77687 -2.1540e+000 -3.7173e+001  3.9246e+000 60814 77497,77471,77661
 1.3000e+000 77710 -3.0034e+000 -3.9080e+001  4.4853e+000 60814 77497,77661,77315
 1.3000e+000 77759 -3.8098e+000 -2.8497e+001  3.8656e+000 60814 77393,77661,77733
 1.3000e+000 77782 -5.1593e-001 -2.4017e+001  6.3905e+000 60814 77393,77733,77445
 1.3000e+000 78337 -1.2165e+001 -4.1725e+001  2.3665e+000 60210 78360,78017,77965
 1.3000e+000 78314 -8.8978e+000 -3.6307e+001  9.9758e-001 60210 78360,77965,78173
 1.3000e+000 78291 -4.4132e+000 -4.3262e+001 -2.8694e+000 60210 78432,78043,78017
 1.3000e+000 78268 -1.7432e+001 -5.9600e+001  3.9460e+000 60210 77965,78017,77991
 1.3000e+000 78245  4.9153e+000 -4.1115e+001 -7.8053e+000 60210 78043,78095,78069
 1.3000e+000 78222 -1.5993e+001 -4.1875e+001 -8.5241e-001 60210 78095,78173,78121
 1.3000e+000 78199 -6.9182e+000 -4.0127e+001  1.3424e+000 60210 78121,78173,78147
 1.3000e+000 78386 -9.2933e+000 -4.4129e+001  1.6707e+000 60210 78432,78017,78360
 1.3000e+000 78409 -1.4639e+001 -4.0412e+001 -1.6506e+000 60210 78095,78360,78173
 1.3000e+000 78458 -3.5720e+000 -3.7234e+001 -7.5457e+000 60210 78095,78043,78432
 1.3000e+000 78481 -6.3771e+000 -3.6162e+001 -3.2281e+000 60210 78095,78432,78360
 1.3000e+000 78680 -4.4657e-001 -4.0309e+001 -1.9166e+000 59848 78703,78556,78530
 1.3000e+000 78657 -5.7894e-001 -3.7447e+001  1.0255e+000 59848 78703,78530,78504
 1.3000e+000 78634 -4.4994e+000 -3.4064e+001  1.5770e+000 59848 78504,78608,78582
 1.3000e+000 78729 -8.5171e-001 -3.4456e+001 -2.4399e+000 59848 78582,78556,78703
 1.3000e+000 78752 -1.2092e+000 -3.3609e+001  1.5471e+000 59848 78582,78703,78504
 1.3000e+000 78951  3.9923e+000 -3.9103e+001 -4.3644e+000 59344 78974,78801,78775
 1.3000e+000 78928  1.0351e+000 -4.3027e+001  3.2504e+000 59344 79046,78974,78775
 1.3000e+000 78905  7.3592e-001 -4.3160e+001  3.3604e+000 59344 79046,78775,78879
 1.3000e+000 79000 -7.4224e+000 -4.3567e+001 -2.9109e+000 59344 78827,78801,78974
 1.3000e+000 79023 -1.7952e+000 -4.4382e+001  4.5328e+000 59344 78827,78974,78853
 1.3000e+000 79072  3.4238e-001 -4.2742e+001  3.3079e+000 59344 78853,78974,79046
 1.3000e+000 79095  4.9503e-002 -4.2836e+001  3.3759e+000 59344 78853,79046,78879
 1.3000e+000 79296 -9.2532e+000 -6.8418e+001 -4.7094e+000 58711 79319,79172,79146
 1.3000e+000 79273 -1.9809e+000 -6.2171e+001 -2.0544e+000 58711 79319,79146,79120
 1.3000e+000 79250 -1.3302e+001 -5.6725e+001  1.7752e+000 58711 79172,79224,79198
 1.3000e+000 79345 -1.5400e+001 -6.0359e+001 -4.1020e+000 58711 79224,79172,79319
 1.3000e+000 79368 -1.1160e+001 -5.6519e+001 -2.4825e+000 58711 79224,79319,79120
 1.3000e+000 79667 -1.9697e+000 -2.3529e+001 -2.3824e+000 58285 79690,79471,79393
 1.3000e+000 79644 -2.5919e+000 -2.7488e+001 -3.0269e+000 58285 79690,79393,79549
 1.3000e+000 79621 -4.7983e-001 -3.0191e+001  5.1472e-002 58285 79393,79471,79419
 1.3000e+000 79598 -4.4286e+000 -2.3696e+001  4.2444e-001 58285 79497,79549,79523
 1.3000e+000 79575  3.8867e+000 -4.6013e+001 -9.5757e-001 58285 79419,79471,79445
 1.3000e+000 79716 -2.5954e+000 -1.9235e+001  2.5271e-001 58285 79497,79471,79690
 1.3000e+000 79739 -4.3522e+000 -2.5906e+001  3.6981e-001 58285 79497,79690,79549
 1.3000e+000 80249 -1.4882e+000 -3.5184e+001 -3.9063e+000 57831 80272,79978,79952
 1.3000e+000 80226 -8.1876e-002 -3.6109e+001 -1.7792e+000 57831 80272,79952,80108
 1.3000e+000 80203  8.4694e+000 -4.1022e+001 -4.6298e+000 57831 79926,80108,79952
 1.3000e+000 80180 -7.1907e+000 -4.5806e+001  1.0839e+000 57831 80004,80082,80030
 1.3000e+000 80157 -4.6043e+000 -3.9585e+001  1.6765e+000 57831 80004,80108,80082
 1.3000e+000 80134 -1.1550e+001 -4.5631e+001  7.2538e+000 57831 80030,80082,80056
 1.3000e+000 80298  5.2419e-001 -3.0330e+001 -4.0747e+000 57831 80004,79978,80272
 1.3000e+000 80321  1.9472e-001 -3.4489e+001 -2.0483e+000 57831 80004,80272,80108
 1.3000e+000 80618 -1.3326e+001 -4.0791e+001  5.0487e+000 57077 80344,80448,80422
 1.3000e+000 80595 -4.1839e+000 -3.4947e+001  1.2818e+000 57077 80344,80500,80448
 1.3000e+000 80572 -7.4277e+000 -2.9426e+001  2.4047e+000 57077 80344,80422,80370
 1.3000e+000 80549 -1.1237e+001 -2.6282e+001  3.0523e+000 57077 80370,80422,80396
 1.3000e+000 80526 -1.4575e+001 -5.9785e+001  6.7488e+000 57077 80448,80500,80474
 1.3000e+000 80768  4.2530e-002 -1.4835e+001 -3.9935e+000 56787 80791,80693,80667
 1.3000e+000 80745  3.7060e+000 -1.5723e+001 -6.5093e+000 56787 80791,80667,80641
 1.3000e+000 80817 -2.0513e+000 -1.5639e+001 -2.2596e+000 56787 80719,80693,80791
 1.3000e+000 80840  3.2883e+000 -2.3018e+001 -2.8478e+000 56787 80719,80791,80641
 1.3000e+000 81429 -2.4166e+001 -3.8961e+001  1.2516e+000 56497 81452,81158,81132
 1.3000e+000 81406 -1.6625e+001 -3.7046e+001 -1.1656e+000 56497 81452,81132,81288
 1.3000e+000 81383 -1.9218e+001 -3.8098e+001 -8.3977e-001 56497 81524,81184,81158
 1.3000e+000 81360 -1.6936e+001 -4.9714e+001 -5.8762e-001 56497 81210,81288,81236
 1.3000e+000 81337 -6.9058e+000 -3.3653e+001 -1.5805e+000 56497 81106,81288,81132
 1.3000e+000 81314 -1.0085e+001 -5.1927e+001 -1.5485e+000 56497 81236,81288,81262
 1.3000e+000 81478 -1.8714e+001 -3.8355e+001 -4.6765e-001 56497 81524,81158,81452
 1.3000e+000 81501 -1.2225e+001 -3.8755e+001 -3.1980e-001 56497 81210,81452,81288
 1.3000e+000 81550 -1.8945e+001 -3.7823e+001 -2.0944e-001 56497 81210,81184,81524
 1.3000e+000 81573 -1.8038e+001 -3.7559e+001  2.4177e-001 56497 81210,81524,81452
 1.3000e+000 81870 -7.4401e+000 -3.8416e+001  1.3949e+000 55979 81893,81674,81648
 1.3000e+000 81847 -4.4700e+000 -3.7186e+001  1.3549e+000 55979 81893,81648,81752
 1.3000e+000 81824 -4.5585e+000 -4.1022e+001  1.2092e+000 55979 81596,81752,81648
 1.3000e+000 81801 -1.0242e+001 -4.9477e+001  5.6372e+000 55979 81674,81726,81700
 1.3000e+000 81778 -4.5892e+000 -3.8958e+001 -7.8231e+000 55979 81596,81648,81622
 1.3000e+000 81919 -9.2251e+000 -3.7863e+001  3.8716e+000 55979 81726,81674,81893
 1.3000e+000 81942 -5.1608e+000 -3.6165e+001  4.0192e+000 55979 81726,81893,81752
 1.3000e+000 82371 -2.0833e+000 -2.6643e+001  8.0177e-001 55631 82100,82204,82152
 1.3000e+000 82348  3.0439e+000 -2.3560e+001  2.1550e+000 55631 82100,82230,82204
 1.3000e+000 82325  5.7660e+000 -2.5657e+001  5.8705e+000 55631 82100,82152,82126
 1.3000e+000 82302 -3.0600e+000 -3.8407e+001  1.2699e+000 55631 82074,82230,82100
 1.3000e+000 82279 -3.6179e+000 -2.9966e+001  1.2644e+000 55631 82152,82204,82178
 1.3000e+000 82256  1.9059e+001 -4.3902e+001  1.0513e+001 55631 82048,82230,82074
 1.3000e+000 82521 -1.8212e+000 -2.1529e+001 -2.6010e+000 55227 82544,82420,82394
 1.3000e+000 82498 -1.6732e+000 -2.7896e+001 -1.9135e+000 55227 82544,82394,82472
 1.3000e+000 82570 -3.5517e+000 -1.7108e+001 -2.3750e+000 55227 82446,82420,82544
 1.3000e+000 82593 -2.0260e+000 -2.1480e+001  4.4883e-003 55227 82446,82544,82472
 1.3000e+000 82875  7.8564e+000 -3.0359e+001 -7.5708e+000 54979 82699,82777,82725
 1.3000e+000 82852 -6.1135e+000 -2.4954e+001 -3.4670e+000 54979 82699,82803,82777
 1.3000e+000 82829  3.4981e+001 -2.4262e+001 -5.9364e+000 54979 82725,82777,82751
 1.3000e+000 83204  8.5418e-001 -3.1252e+001 -1.4672e+000 54475 83005,83083,83057
 1.3000e+000 83181 -7.7082e+000 -3.5805e+001  2.2491e-001 54475 82979,83083,83005
 1.3000e+000 83158 -2.1525e+000 -4.6704e+001 -1.5081e+000 54475 83005,83057,83031
 1.3000e+000 83135 -1.2746e+001 -4.8038e+001  7.3225e+000 54475 82979,83109,83083
 1.3000e+000 83582 -1.2526e+001 -3.5971e+001  1.9545e+000 54071 83605,83438,83412
 1.3000e+000 83559 -1.0341e+001 -3.5525e+001 -1.5786e+000 54071 83749,83605,83412
 1.3000e+000 83536 -1.1851e+001 -3.9902e+001  5.6181e+000 54071 83677,83360,83334
 1.3000e+000 83513 -8.4111e+000 -3.8016e+001 -2.0262e+000 54071 83749,83412,83677
 1.3000e+000 83490  8.5233e+000 -3.4860e+001 -1.1764e+001 54071 83308,83464,83334
 1.3000e+000 83631 -9.4129e+000 -3.3346e+001 -1.1236e+000 54071 83464,83438,83605
 1.3000e+000 83654 -7.9884e+000 -2.6542e+001 -3.5376e+000 54071 83464,83605,83334
 1.3000e+000 83703 -6.3691e-002 -3.5149e+001  4.8742e+000 54071 83386,83360,83677
 1.3000e+000 83726 -4.4520e+000 -3.9388e+001 -9.3578e-001 54071 83386,83677,83412
 1.3000e+000 83775 -7.6474e+000 -3.1590e+001  6.1217e-002 54071 83334,83605,83749
 1.3000e+000 83798 -5.5534e+000 -3.4153e+001 -2.6414e-001 54071 83334,83749,83677
 1.3000e+000 84068 -3.6233e+000 -1.8074e+001  3.3819e-001 53524 83869,83921,83895
 1.3000e+000 84045 -5.3213e+000 -2.1006e+001  1.3823e+000 53524 83869,83947,83921
 1.3000e+000 84022 -1.0138e+001 -2.4005e+001 -2.1627e-001 53524 83843,83947,83869
 1.3000e+000 83999 -5.2468e+000 -2.2411e+001 -7.2310e-001 53524 83843,83973,83947
 1.3000e+000 84497 -1.0701e+001 -5.2222e+001  1.0310e+000 53184 84200,84330,84252
 1.3000e+000 84474 -8.0201e+000 -4.3557e+001  2.9444e+000 53184 84200,84356,84330
 1.3000e+000 84451 -3.7250e+000 -6.4540e+001  4.6321e+000 53184 84200,84252,84226
 1.3000e+000 84428  2.7916e-001 -4.6792e+001 -7.5240e-001 53184 84252,84330,84278
 1.3000e+000 84405 -3.8269e+000 -4.0499e+001  6.1397e-002 53184 84174,84356,84200
 1.3000e+000 84382  2.7920e+001 -3.5868e+001  2.8654e+000 53184 84278,84330,84304
 1.3000e+000 84954 -1.3476e+001 -4.8221e+001  3.9882e+000 52680 84706,84836,84784
 1.3000e+000 84931 -1.7204e+001 -4.6406e+001 -5.5752e+000 52680 84680,84836,84706
 1.3000e+000 84908 -7.7504e+000 -6.2975e+001  1.5833e+000 52680 84784,84836,84810
 1.3000e+000 84885 -2.8259e+001 -7.0292e+001  1.0929e+001 52680 84706,84784,84732
 1.3000e+000 84862 -1.4058e+001 -6.4473e+001  1.0021e+001 52680 84732,84784,84758
 1.3000e+000 85202 -5.4675e+000 -2.9128e+001 -2.6464e+000 52226 85029,85081,85055
 1.3000e+000 85179 -9.7811e+000 -3.1837e+001 -3.9711e+000 52226 85225,85081,85029
 1.3000e+000 85156 -9.3512e+000 -3.0888e+001 -4.4924e+000 52226 85225,85029,85003
 1.3000e+000 85133 -1.1817e+001 -2.3380e+001 -5.8890e+000 52226 84977,85107,85003
 1.3000e+000 85251 -9.7300e+000 -3.1816e+001 -5.3776e+000 52226 85107,85081,85225
 1.3000e+000 85274 -7.5427e+000 -2.8471e+001 -6.3500e+000 52226 85107,85225,85003
 1.3000e+000 85522 -6.0516e-001 -2.2987e+001  1.3935e+000 51764 85297,85349,85323
 1.3000e+000 85499 -3.9832e+000 -3.0938e+001  2.0362e+000 51764 85545,85297,85427
 1.3000e+000 85476 -8.2625e+000 -2.8071e+001 -9.4280e-002 51764 85545,85427,85375
 1.3000e+000 85453 -8.3674e+000 -2.9991e+001 -7.9206e-001 51764 85375,85427,85401
 1.3000e+000 85571 -1.3605e+000 -2.9329e+001  1.3325e+000 51764 85349,85297,85545
 1.3000e+000 85594 -4.1394e+000 -2.5410e+001 -1.2436e+000 51764 85349,85545,85375
 1.3000e+000 85746 -5.7075e+000 -3.1279e+001 -1.8762e+000 51374 85645,85697,85671
 1.3000e+000 85723 -5.3363e+000 -3.7325e+001  1.0120e+000 51374 85619,85697,85645
 1.3000e+000 86256 -1.0124e+001 -2.3994e+001 -4.7270e+000 50970 86279,86011,85959
 1.3000e+000 86233 -8.3156e+000 -2.9066e+001 -3.9009e+000 50970 86279,85959,86115
 1.3000e+000 86210 -9.6549e+000 -2.1763e+001 -1.0248e+000 50970 85959,86011,85985
 1.3000e+000 86187 -1.3837e+001 -3.7124e+001 -7.0898e+000 50970 86037,86115,86089
 1.3000e+000 86164 -5.2568e+000 -2.8047e+001 -6.5086e+000 50970 85933,86115,85959
 1.3000e+000 86141 -4.5142e+000 -2.0517e+001 -2.9519e+000 50970 86037,86089,86063
 1.3000e+000 86305 -9.8950e+000 -1.8911e+001 -3.9848e+000 50970 86037,86011,86279
 1.3000e+000 86328 -8.3681e+000 -2.4347e+001 -3.1341e+000 50970 86037,86279,86115
 1.3000e+000 86478  1.1108e+001 -5.4762e+001 -2.8975e+000 50451 86351,86403,86377
 1.3000e+000 86455  1.2126e+001 -1.0289e+002 -1.2674e+001 50451 86351,86429,86403
 1.3000e+000 86907 -6.5374e+000 -3.4154e+001  3.0907e+000 50047 86930,86714,86662
 1.3000e+000 86884 -7.1205e+000 -3.4963e+001  2.8156e+000 50047 86930,86662,86610
 1.3000e+000 86861 -5.4755e+000 -4.7933e+001  1.9337e+000 50047 87002,86740,86714
 1.3000e+000 86838  5.6196e+000 -3.0301e+001  1.4560e+001 50047 86662,86714,86688
 1.3000e+000 86815 -3.9657e+000 -3.0738e+001 -7.1017e-001 50047 86610,86662,86636
 1.3000e+000 86792 -1.3684e-002 -2.6625e+001 -8.6210e-001 50047 86584,86766,86610
 1.3000e+000 86956 -5.8706e+000 -3.6534e+001  3.5947e+000 50047 87002,86714,86930
 1.3000e+000 86979 -7.4297e+000 -2.9462e+001  1.3080e+000 50047 86766,86930,86610
 1.3000e+000 87028 -9.7767e+000 -3.7733e+001 -1.6821e+000 50047 86766,86740,87002
 1.3000e+000 87051 -1.1032e+001 -3.6400e+001 -4.0367e-002 50047 86766,87002,86930
 1.3000e+000 87250 -1.1761e+001 -4.7895e+001 -9.1076e-001 49543 87273,87126,87100
 1.3000e+000 87227 -8.8427e+000 -4.4517e+001  1.0021e+000 49543 87273,87100,87074
 1.3000e+000 87204 -2.1790e+001 -3.3082e+001 -8.4590e-001 49543 87126,87178,87152
 1.3000e+000 87299 -1.3325e+001 -4.3430e+001  2.0636e+000 49543 87178,87126,87273
 1.3000e+000 87322 -1.0111e+001 -4.1310e+001  4.1165e+000 49543 87178,87273,87074
 1.3000e+000 87570  1.3868e+000 -2.6413e+001  9.0556e-001 49146 87593,87449,87397
 1.3000e+000 87547  1.1104e+000 -2.6137e+001  2.7309e+000 49146 87593,87397,87371
 1.3000e+000 87524 -3.0392e+000 -3.2226e+001  2.1591e-001 49146 87345,87475,87371
 1.3000e+000 87501  1.9623e-001 -3.0906e+001 -6.7193e-001 49146 87397,87449,87423
 1.3000e+000 87619 -8.5855e-001 -2.7053e+001  5.3680e-001 49146 87475,87449,87593
 1.3000e+000 87642 -1.4850e-001 -2.6621e+001  2.2414e+000 49146 87475,87593,87371
 1.3000e+000 88073 -1.1811e+001 -4.4584e+001  9.2486e-001 48706 87854,87932,87880
 1.3000e+000 88050 -1.3283e+001 -4.7890e+001  1.3155e+000 48706 87828,87932,87854
 1.3000e+000 88027 -1.1667e+001 -4.3417e+001  1.8178e+000 48706 87750,87932,87828
 1.3000e+000 88004  1.7305e+000 -7.7202e+001  7.8252e+000 48706 87750,87802,87776
 1.3000e+000 87981 -1.9676e+001 -8.0482e+001 -6.0558e+000 48706 87750,87828,87802
 1.3000e+000 87958 -1.5197e+001 -4.5472e+001  1.7236e-001 48706 87880,87932,87906
 1.3000e+000 88402 -7.5778e+000 -4.0290e+001 -2.3792e+000 48145 88203,88281,88255
 1.3000e+000 88379 -9.3137e+000 -4.1507e+001 -4.1466e+000 48145 88203,88307,88281
 1.3000e+000 88356  3.0310e-002 -3.9029e+001 -4.3967e+000 48145 88203,88255,88229
 1.3000e+000 88333 -4.9837e+000 -3.8366e+001 -9.2482e-002 48145 88177,88307,88203
 1.3000e+000 88601 -4.8839e+000 -3.1904e+001  3.6593e+000 47805 88696,88624,88477
 1.3000e+000 88578 -1.8772e+001 -4.2047e+001 -5.4634e+000 47805 88826,88624,88451
 1.3000e+000 88555 -1.8425e+001 -4.2400e+001 -6.4654e+000 47805 88826,88451,88425
 1.3000e+000 88650 -1.0038e+001 -4.2036e+001 -4.4863e+000 47805 88503,88477,88624
 1.3000e+000 88673 -1.8731e+001 -4.3445e+001 -5.1556e+000 47805 88503,88624,88529
 1.3000e+000 88722 -3.1589e+001 -4.7464e+001 -3.4602e+000 47805 88451,88624,88696
 1.3000e+000 88852 -1.9383e+001 -4.3347e+001 -5.2829e+000 47805 88529,88624,88826
 1.3000e+000 88875 -1.8957e+001 -4.3538e+001 -6.3045e+000 47805 88529,88826,88425
 1.3000e+000 89172 -6.1477e+000 -2.9241e+001 -1.9988e+000 47401 89195,88976,88898
 1.3000e+000 89149 -6.4091e+000 -2.8837e+001 -5.4672e+000 47401 89195,88898,89054
 1.3000e+000 89126 -7.8928e+000 -2.9083e+001 -1.8466e+000 47401 88898,88976,88950
 1.3000e+000 89103 -8.3669e+000 -3.0628e+001 -1.6879e+000 47401 88976,89028,89002
 1.3000e+000 89080 -1.2065e+001 -3.6582e+001  2.8092e+000 47401 88898,88950,88924
 1.3000e+000 89221 -7.9073e+000 -3.3206e+001 -1.6890e+000 47401 89028,88976,89195
 1.3000e+000 89244 -7.6371e+000 -3.1826e+001 -5.4363e+000 47401 89028,89195,89054
 1.3000e+000 89575 -6.5054e+000 -4.2415e+001 -4.4516e+000 47111 89350,89454,89376
 1.3000e+000 89552 -1.1637e+001 -5.1309e+001 -1.0279e-001 47111 89350,89480,89454
 1.3000e+000 89529 -1.7704e+001 -4.0974e+001  4.0158e-002 47111 89376,89454,89402
 1.3000e+000 89506 -1.5007e+001 -3.7107e+001  2.9414e+000 47111 89402,89454,89428
 1.3000e+000 89904 -4.8905e+000 -4.1235e+001 -2.1122e+000 46707 89705,89757,89731
 1.3000e+000 89881 -1.3430e+001 -4.6425e+001  6.4761e-002 46707 89705,89783,89757
 1.3000e+000 89858 -1.0431e+001 -4.5412e+001 -5.7048e-001 46707 89679,89783,89705
 1.3000e+000 89835 -7.5765e+000 -4.2193e+001 -1.8813e+000 46707 89679,89809,89783
 1.3000e+000 90233 -2.6014e+000 -3.8523e+001 -2.0215e+000 46360 90034,90112,90086
 1.3000e+000 90210 -1.3634e+001 -4.0102e+001 -4.5828e-001 46360 90034,90138,90112
 1.3000e+000 90187 -2.5925e+000 -4.6681e+001  5.7385e-002 46360 90034,90086,90060
 1.3000e+000 90164  2.7879e+000 -4.1978e+001  2.2312e+001 46360 90008,90138,90034
 1.3000e+000 90530 -7.7827e+000 -3.1703e+001 -4.0694e-001 45662 90256,90360,90308
 1.3000e+000 90507 -7.3108e+000 -3.2895e+001  4.1072e-001 45662 90256,90412,90360
 1.3000e+000 90484 -5.2186e+000 -3.2419e+001 -2.0258e+000 45662 90256,90308,90282
 1.3000e+000 90461 -5.5883e+000 -2.6246e+001  1.8756e+000 45662 90360,90412,90386
 1.3000e+000 90438 -8.9024e+000 -2.8246e+001  1.5259e+000 45662 90308,90360,90334
 1.3000e+000 90910 -2.2438e+001 -4.8025e+001 -4.2275e+000 45108 90688,90766,90714
 1.3000e+000 90887 -1.6617e+001 -4.5000e+001 -3.6774e-001 45108 90662,90766,90688
 1.3000e+000 90864 -2.3999e+001 -4.3524e+001  6.0096e-001 45108 90636,90766,90662
 1.3000e+000 90841 -1.4797e+001 -6.2001e+001 -1.1057e+001 45108 90714,90766,90740
 1.3000e+000 90818 -2.0862e+001 -3.4119e+001 -3.8500e+000 45108 90636,90792,90766
 1.3000e+000 91158 -3.0984e+000 -3.6914e+001 -3.9145e+000 44604 91181,91011,90959
 1.3000e+000 91135  1.6496e+000 -3.6504e+001 -4.9785e+000 44604 91181,90959,90933
 1.3000e+000 91112 -5.2047e+000 -4.2432e+001 -8.2040e-001 44604 90959,91011,90985
 1.3000e+000 91089 -4.2562e+000 -4.0947e+001  3.8337e+000 44604 90933,91063,91037
 1.3000e+000 91207 -5.7411e+000 -3.6036e+001 -2.0983e+000 44604 91037,91011,91181
 1.3000e+000 91230 -2.1336e+000 -3.7949e+001 -1.9611e+000 44604 91037,91181,90933
 1.3000e+000 91429 -7.4580e+000 -3.4767e+001 -2.7836e+000 44264 91452,91279,91253
 1.3000e+000 91406 -8.0615e+000 -3.7625e+001 -2.4944e+000 44264 91452,91253,91357
 1.3000e+000 91383 -8.7870e+000 -3.4628e+001 -5.5302e+000 44264 91279,91331,91305
 1.3000e+000 91478 -8.5312e+000 -3.2454e+001 -2.9978e+000 44264 91331,91279,91452
 1.3000e+000 91501 -8.7803e+000 -3.4596e+001 -2.3023e+000 44264 91331,91452,91357
 1.3000e+000 92060 -1.7737e+001 -3.9675e+001 -3.6484e-001 43860 92083,91740,91688
 1.3000e+000 92037 -4.5856e+000 -3.9759e+001  3.2685e+000 43860 92083,91688,91896
 1.3000e+000 92014 -1.4247e+001 -4.7509e+001  1.4179e+000 43860 91766,91870,91844
 1.3000e+000 91991 -2.6246e+000 -3.7335e+001  6.9911e+000 43860 91740,91870,91766
 1.3000e+000 91968 -2.6042e+000 -3.7426e+001  7.5234e+000 43860 91766,91844,91792
 1.3000e+000 91945 -1.1411e+001 -4.9722e+001 -1.0880e+001 43860 91688,91740,91714
 1.3000e+000 91922 -6.4527e+000 -5.4578e+001  2.7597e+000 43860 91792,91844,91818
 1.3000e+000 92109 -6.3768e+000 -3.9785e+001  5.9076e+000 43860 91870,91740,92083
 1.3000e+000 92132  7.2408e+000 -3.8261e+001  1.0389e+001 43860 91870,92083,91896
 1.3000e+000 92353 -1.1408e+001 -4.7285e+001 -2.3855e+000 43662 92203,92255,92229
 1.3000e+000 92330 -1.6268e+001 -5.1180e+001 -4.9257e-001 43662 92376,92203,92281
 1.3000e+000 92307 -2.2673e+000 -3.6088e+001  5.5893e+000 43662 92177,92281,92203
 1.3000e+000 92402 -2.5531e+001 -5.5083e+001  2.1742e+000 43662 92255,92203,92376
 1.3000e+000 92682 -8.8307e+000 -3.5802e+001 -1.3132e+000 43464 92532,92584,92558
 1.3000e+000 92659 -9.4803e+000 -3.4211e+001 -7.8528e-001 43464 92506,92584,92532
 1.3000e+000 92636 -7.3062e+000 -3.3495e+001 -7.0087e-001 43464 92506,92610,92584
 1.3000e+000 93013 -1.1429e+001 -5.6595e+001 -8.2347e+000 42960 92866,92918,92892
 1.3000e+000 92990 -1.6583e+001 -5.3190e+001 -2.7545e+000 42960 93036,92918,92866
 1.3000e+000 92967 -1.0093e+001 -5.9217e+001  1.0159e+000 42960 93036,92866,92840
 1.3000e+000 92944 -1.1248e+001 -4.6020e+001  1.9506e+000 42960 92788,92918,92814
 1.3000e+000 93062 -1.3103e+001 -5.1283e+001 -1.9446e-001 42960 92814,92918,93036
 1.3000e+000 93085 -2.7300e-001 -5.1802e+001  4.7300e+000 42960 92814,93036,92840
 1.3000e+000 93186 -9.3046e+000 -3.7884e+001 -6.9191e+000 42556 93108,93160,93134
 1.3000e+000 93554 -7.2399e+000 -3.7384e+001  1.1989e+000 42052 93231,93387,93361
 1.3000e+000 93531 -8.4459e+000 -3.5004e+001  6.2196e+000 42052 93231,93413,93387
 1.3000e+000 93508 -1.2215e+001 -3.7782e+001  2.3999e+000 42052 93231,93361,93257
 1.3000e+000 93485 -4.8318e+000 -3.0880e+001  5.6597e-001 42052 93283,93361,93335
 1.3000e+000 93462 -3.0412e-001 -3.2812e+001  3.3878e+000 42052 93257,93361,93283
 1.3000e+000 93439  1.3149e+001 -2.1617e+001 -7.4689e+000 42052 93283,93335,93309
 1.3000e+000 94162 -5.9701e+000 -3.7251e+001 -6.2706e+000 41498 93767,93975,93793
 1.3000e+000 94139  2.8122e+000 -3.2214e+001  1.7118e+000 41498 93741,93975,93767
 1.3000e+000 94116 -7.9008e+000 -3.0820e+001 -4.5468e+000 41498 93793,93975,93923
 1.3000e+000 94093 -1.1363e+001 -3.9215e+001  2.3565e+000 41498 93923,93975,93949
 1.3000e+000 94070 -1.6460e+001 -2.3878e+001 -8.7085e+000 41498 93871,93923,93897
 1.3000e+000 94047 -6.4626e+000 -2.8534e+001 -6.3869e+000 41498 93793,93923,93871
 1.3000e+000 94024 -7.4105e+000 -2.7789e+001 -3.2677e-001 41498 93819,93871,93845
 1.3000e+000 94001 -9.7341e+000 -2.6142e+001 -3.9603e+000 41498 93793,93871,93819
 1.3000e+000 94619 -1.7544e+001 -3.8718e+001 -6.5835e+000 40930 94642,94423,94371
 1.3000e+000 94596 -1.5030e+001 -3.9001e+001 -3.1248e+000 40930 94642,94371,94345
 1.3000e+000 94573 -1.7647e+001 -4.4764e+001 -1.5224e+000 40930 94345,94501,94475
 1.3000e+000 94550 -9.5152e+000 -4.2840e+001 -8.8630e+000 40930 94371,94423,94397
 1.3000e+000 94527 -1.8350e+001 -2.8583e+001 -1.2261e+000 40930 94423,94475,94449
 1.3000e+000 94668 -1.4863e+001 -3.2954e+001 -5.8859e+000 40930 94475,94423,94642
 1.3000e+000 94691 -1.3989e+001 -3.6662e+001 -2.9142e+000 40930 94475,94642,94345
 1.3000e+000 95148 -6.5583e+000 -4.0631e+001  8.6524e+000 40362 95171,94952,94926
 1.3000e+000 95125 -9.2739e+000 -4.3201e+001  2.7671e+000 40362 95171,94926,95004
 1.3000e+000 95102 -9.8030e+000 -3.9203e+001  4.0085e+000 40362 94874,95004,94926
 1.3000e+000 95079  3.6032e+000 -3.8407e+001  1.1006e+001 40362 94874,95030,95004
 1.3000e+000 95056 -9.3001e+000 -5.2139e+001 -9.2942e+000 40362 94874,94926,94900
 1.3000e+000 95197 -1.0029e+001 -4.6074e+001  7.1648e+000 40362 94978,94952,95171
 1.3000e+000 95220 -1.2341e+001 -4.8200e+001  1.4538e+000 40362 94978,95171,95004
 1.3000e+000 95549 -1.8868e+001 -3.8786e+001  1.8782e+000 39586 95350,95402,95376
 1.3000e+000 95526 -1.2980e+001 -3.6050e+001  8.2611e-001 39586 95324,95402,95350
 1.3000e+000 95503 -1.4368e+001 -3.6325e+001  2.7711e+000 39586 95324,95454,95402
 1.3000e+000 95480 -1.7011e+001 -5.0788e+001  1.8312e+000 39586 95402,95454,95428
 1.3000e+000 96055 -5.0906e+000 -2.7135e+001 -2.1456e-001 38968 96078,95862,95810
 1.3000e+000 96032 -1.0558e+001 -2.6540e+001 -2.2154e+000 38968 96078,95810,95758
 1.3000e+000 96009 -2.9732e+000 -2.9821e+001 -3.9764e+000 38968 96150,95732,95888
 1.3000e+000 95986 -7.3147e+000 -2.6300e+001  2.0100e+000 38968 95810,95862,95836
 1.3000e+000 95963 -1.4686e+000 -2.7674e+001 -6.1923e+000 38968 95732,95914,95888
 1.3000e+000 95940 -1.4966e+001 -3.0866e+001  6.5489e-001 38968 95758,95810,95784
 1.3000e+000 96104 -4.4573e+000 -2.7499e+001  1.8142e-001 38968 95888,95862,96078
 1.3000e+000 96127 -6.7782e+000 -2.8609e+001 -4.5528e-001 38968 96150,95888,96078
 1.3000e+000 96176  2.4939e+000 -2.4393e+001 -6.7642e+000 38968 95758,95732,96150
 1.3000e+000 96199 -1.5658e+000 -2.2298e+001 -3.4347e+000 38968 95758,96150,96078
 1.3000e+000 96545 -8.7266e+000 -4.0563e+001 -1.1803e+000 38507 96640,96568,96352
 1.3000e+000 96522 -1.4364e+001 -4.6190e+001  1.7470e+000 38507 96568,96300,96222
 1.3000e+000 96499 -7.9984e+000 -3.8094e+001 -6.1066e+000 38507 96640,96352,96326
 1.3000e+000 96476 -1.0076e+001 -4.1836e+001  1.6312e+000 38507 96352,96404,96378
 1.3000e+000 96453 -2.1619e+001 -5.6496e+001 -1.6058e+000 38507 96222,96300,96248
 1.3000e+000 96430 -1.9778e+001 -6.6778e+001 -6.7177e+000 38507 96248,96300,96274
 1.3000e+000 96594 -9.8378e+000 -4.4534e+001  2.2179e-001 38507 96404,96352,96568
 1.3000e+000 96617 -1.0258e+001 -4.1936e+001 -3.0775e-001 38507 96404,96568,96222
 1.3000e+000 96666 -1.2127e+001 -4.8244e+001 -1.8237e-001 38507 96300,96568,96640
 1.3000e+000 96689 -1.2120e+001 -4.6268e+001 -4.6537e+000 38507 96300,96640,96326
 1.3000e+000 97069 -8.0105e+000 -3.0042e+001 -5.1346e-001 37760 97092,96873,96821
 1.3000e+000 97046 -7.8829e+000 -2.9966e+001 -7.2838e-001 37760 97092,96821,96795
 1.3000e+000 97023 -8.2484e+000 -3.6733e+001  1.3769e+000 37760 96821,96873,96847
 1.3000e+000 97000 -1.0083e+001 -2.9635e+001 -1.1762e+000 37760 96873,96925,96899
 1.3000e+000 96977 -1.9057e+001 -3.4526e+001  6.8472e+000 37760 96795,96951,96925
 1.3000e+000 97118 -8.1809e+000 -3.0292e+001 -3.0369e-001 37760 96925,96873,97092
 1.3000e+000 97141 -7.7807e+000 -3.0089e+001 -5.4518e-001 37760 96925,97092,96795
 1.3000e+000 97647 -1.5642e+001 -4.4090e+001  2.9755e-001 37356 97324,97480,97376
 1.3000e+000 97624 -9.8947e+000 -4.3326e+001  2.8140e+000 37356 97324,97506,97480
 1.3000e+000 97601 -2.0664e+001 -4.1867e+001 -3.6244e-001 37356 97376,97480,97454
 1.3000e+000 97578 -1.8557e+001 -4.9344e+001  1.4399e+000 37356 97324,97376,97350
 1.3000e+000 97555 -6.5850e+000 -3.1572e+001  8.7475e+000 37356 97376,97454,97402
 1.3000e+000 97532 -2.8303e+001 -5.3582e+001 -7.6440e-002 37356 97402,97454,97428
 1.3000e+000 98232 -1.1066e+001 -2.5871e+001 -2.9912e+000 36902 97935,98065,98013
 1.3000e+000 98209  2.3471e+000 -2.1337e+001 -2.8906e+000 36902 97935,98091,98065
 1.3000e+000 98186  5.7888e+000 -1.7376e+001 -6.1024e+000 36902 97935,98013,97987
 1.3000e+000 98163  1.4372e+001 -2.3221e+001  1.6860e+000 36902 97909,98091,97935
 1.3000e+000 98140  1.4446e+000 -2.4630e+001 -4.2124e+000 36902 97935,97987,97961
 1.3000e+000 98117 -1.0428e+001 -2.3756e+001 -3.5307e+000 36902 98013,98065,98039
 1.3000e+000 98659 -1.2160e+001 -4.8122e+001 -1.3136e+000 36604 98682,98414,98388
 1.3000e+000 98636 -1.5069e+001 -4.8439e+001  2.6800e+000 36604 98682,98388,98336
 1.3000e+000 98613 -1.8122e+001 -4.3200e+001 -1.6360e-001 36604 98754,98518,98466
 1.3000e+000 98590 -8.3729e+000 -3.9873e+001 -2.3559e+000 36604 98414,98466,98440
 1.3000e+000 98567 -1.2186e+001 -6.1627e+001  2.5842e+000 36604 98336,98388,98362
 1.3000e+000 98544 -1.1468e+001 -4.7142e+001  1.8713e+001 36604 98466,98518,98492
 1.3000e+000 98708 -1.1191e+001 -4.3722e+001 -3.7043e+000 36604 98466,98414,98682
 1.3000e+000 98731 -1.5942e+001 -4.6888e+001 -4.5224e-001 36604 98754,98466,98682
 1.3000e+000 98780 -1.6352e+001 -4.2282e+001  3.4317e-001 36604 98336,98518,98754
 1.3000e+000 98803 -1.2047e+001 -4.3746e+001  9.6729e-001 36604 98336,98754,98682
 1.3000e+000 99309 -1.0310e+001 -3.4118e+001  3.7953e+000 36200 99332,99116,99012
 1.3000e+000 99286 -7.0936e+000 -2.2759e+001 -1.5014e+000 36200 99332,99012,98986
 1.3000e+000 99263 -1.1042e+001 -2.6343e+001  6.4705e+000 36200 99012,99116,99064
 1.3000e+000 99240 -4.8091e+000 -4.4859e+001 -4.9502e-001 36200 98986,99168,99142
 1.3000e+000 99217 -1.7635e+001 -2.7380e+001  6.7178e+000 36200 99064,99116,99090
 1.3000e+000 99194 -1.7803e+001 -2.7747e+001  1.8077e+000 36200 99012,99064,99038
 1.3000e+000 99358 -1.0555e+001 -4.2916e+001  9.3267e+000 36200 99142,99116,99332
 1.3000e+000 99381 -7.1333e+000 -3.4627e+001  3.0369e+000 36200 99142,99332,98986
 1.3000e+000 99887 -2.4756e+001 -3.8486e+001  3.0076e+000 35488 99564,99720,99590
 1.3000e+000 99864 -2.2791e+001 -3.4005e+001  3.3569e+000 35488 99564,99746,99720
 1.3000e+000 99841 -1.7015e+001 -4.1017e+001  1.3197e-001 35488 99642,99694,99668
 1.3000e+000 99818 -1.9919e+001 -4.4788e+001  4.3923e+000 35488 99590,99694,99642
 1.3000e+000 99795 -1.4868e+001 -3.5171e+001  2.3481e+000 35488 99590,99720,99694
 1.3000e+000 99772 -1.2215e+001 -5.6493e+001  5.2645e+000 35488 99590,99642,99616
 1.3000e+000 99988 -2.6921e+000 -4.8705e+001  7.5449e+000 35198 99910,99962,99936
 1.3000e+000 100138 -1.2750e+001 -5.1674e+001  2.1486e+000 34794 100233,100161,100063
 1.3000e+000 100115 -2.2480e+001 -5.3217e+001  6.1335e-002 34794 100365,100161,100037
 1.3000e+000 100187 -1.1088e+001 -4.6161e+001  5.9730e-001 34794 100089,100063,100161
 1.3000e+000 100210 -8.4618e+000 -4.1477e+001  3.2417e+000 34794 100089,100161,100011
 1.3000e+000 100259 -1.8299e+001 -5.9940e+001 -5.5476e+000 34794 100037,100161,100233
 1.3000e+000 100391 -1.0545e+000 -3.3858e+001 -8.6430e+000 34794 100011,100161,100365
 1.3000e+000 100927 -5.7290e+000 -3.2650e+001 -6.6514e-001 34404 100679,100809,100783
 1.3000e+000 100904 -6.7354e+000 -3.1818e+001 -5.2798e-001 34404 100653,100809,100679
 1.3000e+000 100881 -1.2758e+001 -3.9605e+001 -2.0792e-001 34404 100705,100783,100731
 1.3000e+000 100858 -1.2513e+001 -3.6469e+001  1.4856e+000 34404 100679,100783,100705
 1.3000e+000 100835 -1.4294e+001 -4.2465e+001 -8.2479e-001 34404 100731,100783,100757
 1.3000e+000 101354 -1.2100e+001 -4.2059e+001  2.1457e+000 34000 101377,101109,101057
 1.3000e+000 101331 -1.5977e+001 -4.3927e+001  1.5715e+000 34000 101449,101377,101057
 1.3000e+000 101308 -1.6134e+001 -4.4684e+001  1.4374e+000 34000 101449,101057,101031
 1.3000e+000 101285 -1.9409e+001 -4.6743e+001  1.0362e+001 34000 101031,101213,101187
 1.3000e+000 101262 -1.5225e+001 -5.7979e+001 -7.1142e+000 34000 101135,101187,101161
 1.3000e+000 101239 -1.1610e+001 -3.8529e+001  1.1917e+000 34000 101057,101109,101083
 1.3000e+000 101403 -1.4478e+001 -4.0584e+001 -2.2429e+000 34000 101135,101109,101377
 1.3000e+000 101426 -2.0902e+001 -4.3471e+001 -1.5232e+000 34000 101135,101377,101187
 1.3000e+000 101475 -1.5893e+001 -4.5002e+001  1.6796e+000 34000 101187,101377,101449
 1.3000e+000 101498 -1.5757e+001 -4.5371e+001  1.5269e+000 34000 101187,101449,101031
 1.3000e+000 102083 -5.5981e+000 -3.4209e+001  1.2068e+000 33472 102106,101812,101786
 1.3000e+000 102060 -1.0655e+001 -3.5261e+001 -3.1517e-001 33472 102106,101786,101916
 1.3000e+000 102037 -1.3671e+001 -3.8805e+001 -2.1041e+000 33472 101812,101864,101838
 1.3000e+000 102014 -1.0282e+001 -4.3215e+001 -1.7742e+000 33472 101864,101916,101890
 1.3000e+000 101991 -1.6952e+001 -3.5114e+001 -1.6454e+000 33472 101786,101942,101916
 1.3000e+000 101968 -1.9677e+001 -3.4401e+001  5.4268e+000 33472 101760,101942,101786
 1.3000e+000 102132 -9.1179e+000 -3.5812e+001 -7.6183e-001 33472 101864,101812,102106
 1.3000e+000 102155 -1.1262e+001 -3.5633e+001 -2.4468e+000 33472 101864,102106,101916
 1.3000e+000 102612 -1.5094e+001 -4.2325e+001 -6.4971e+000 33038 102635,102468,102390
 1.3000e+000 102589 -2.1367e+001 -5.0780e+001 -1.1139e+001 33038 102635,102390,102364
 1.3000e+000 102566 -1.8770e+001 -3.3985e+001 -3.8434e+000 33038 102390,102468,102442
 1.3000e+000 102543 -4.4693e+000 -3.5971e+001 -1.2807e+000 33038 102338,102494,102364
 1.3000e+000 102520 -1.6789e+001 -3.3465e+001 -4.3488e+000 33038 102390,102442,102416
 1.3000e+000 102661 -1.4195e+001 -4.0076e+001 -1.9353e+000 33038 102494,102468,102635
 1.3000e+000 102684 -1.5002e+001 -4.4478e+001 -5.6773e+000 33038 102494,102635,102364
 1.3000e+000 103318 -1.7589e+001 -3.2007e+001  1.5054e+000 32402 102972,103128,103076
 1.3000e+000 103295 -1.6896e+001 -3.2507e+001  1.3692e+000 32402 102946,103128,102972
 1.3000e+000 103272 -1.8638e+001 -3.5350e+001  3.0834e+000 32402 103076,103128,103102
 1.3000e+000 103249 -1.5525e+001 -3.1453e+001  7.7814e+000 32402 102946,103154,103128
 1.3000e+000 103226 -1.7388e+001 -3.0263e+001 -2.4882e-002 32402 102972,103076,102998
 1.3000e+000 103203 -1.7421e+001 -3.0932e+001 -4.8839e-001 32402 102998,103076,103050
 1.3000e+000 103180 -1.7092e+001 -2.8308e+001 -1.3395e+000 32402 102998,103050,103024
 1.3000e+000 103696 -2.2414e+000 -3.4794e+001 -2.9419e+000 31924 103448,103526,103500
 1.3000e+000 103673 -1.0133e+000 -3.5694e+001 -8.6465e+000 31924 103448,103578,103526
 1.3000e+000 103650 -8.0782e+000 -2.6719e+001 -2.1251e+000 31924 103448,103500,103474
 1.3000e+000 103627  7.1300e+000 -4.3386e+001 -6.6666e+000 31924 103422,103578,103448
 1.3000e+000 103604  9.2850e+000 -4.9689e+001 -7.5070e+000 31924 103526,103578,103552
 1.3000e+000 104281 -1.0718e+001 -2.5117e+001  2.0676e-001 31520 104304,104062,104036
 1.3000e+000 104258 -1.7474e+001 -2.5426e+001 -7.0413e-001 31520 104304,104036,103984
 1.3000e+000 104235 -1.8572e+001 -3.1992e+001 -9.1163e+000 31520 104062,104114,104088
 1.3000e+000 104212 -1.4987e+001 -2.6089e+001 -3.4735e+000 31520 103958,104114,103984
 1.3000e+000 104189 -1.8153e+001 -2.7032e+001 -1.3102e+000 31520 103984,104036,104010
 1.3000e+000 104166 -1.3505e+001 -2.7355e+001 -3.9941e+000 31520 103958,104140,104114
 1.3000e+000 104330 -8.9282e+000 -2.6576e+001 -2.7598e+000 31520 104114,104062,104304
 1.3000e+000 104353 -1.2558e+001 -2.5304e+001 -2.4275e+000 31520 104114,104304,103984
 1.3000e+000 104704  2.0381e+000 -1.9624e+001  1.4511e+000 31066 104479,104583,104505
 1.3000e+000 104681  6.8962e+000 -1.4579e+001 -1.2117e+000 31066 104479,104609,104583
 1.3000e+000 104658  1.5582e+001 -3.5423e+001  1.4987e+000 31066 104505,104557,104531
 1.3000e+000 104635  9.8804e+000 -1.9821e+001  7.8235e-001 31066 104505,104583,104557
 1.3000e+000 104925 -1.4793e+001 -5.0806e+001  5.8359e-001 30754 104775,104827,104801
 1.3000e+000 104902 -1.3618e+001 -4.6969e+001  6.6542e-002 30754 104775,104853,104827
 1.3000e+000 104879 -1.3844e+001 -4.7010e+001  8.3189e-001 30754 104749,104853,104775
 1.3000e+000 105482 -1.5216e+001 -4.6831e+001 -1.2481e+000 30164 105505,105136,105110
 1.3000e+000 105459 -1.8562e+001 -5.2822e+001  1.1425e+000 30164 105649,105505,105110
 1.3000e+000 105436 -2.0846e+001 -4.7635e+001 -3.0755e+000 30164 105577,105188,105136
 1.3000e+000 105413 -1.8817e+001 -5.4473e+001  1.1238e+001 30164 105649,105110,105318
 1.3000e+000 105390 -2.2076e+001 -5.3467e+001  8.1205e+000 30164 105214,105292,105240
 1.3000e+000 105367 -1.6854e+001 -4.1108e+001  3.8081e-001 30164 105240,105292,105266
 1.3000e+000 105344  2.1156e+000 -4.8410e+001 -5.3278e+000 30164 105136,105188,105162
 1.3000e+000 105531 -1.7843e+001 -4.6076e+001 -1.1358e+000 30164 105577,105136,105505
 1.3000e+000 105554 -1.6628e+001 -4.2961e+001  1.4789e+000 30164 105214,105505,105292
 1.3000e+000 105603 -1.8193e+001 -4.4960e+001  1.1740e-002 30164 105214,105188,105577
 1.3000e+000 105626 -1.6405e+001 -4.3775e+001  1.8825e+000 30164 105214,105577,105505
 1.3000e+000 105675 -1.2148e+001 -3.7181e+001  3.6923e+000 30164 105292,105505,105649
 1.3000e+000 105698 -1.1687e+001 -3.2795e+001  1.2002e+001 30164 105292,105649,105318
 1.3000e+000 106027 -7.2596e+000 -3.7577e+001 -1.4628e+000 29868 106322,106050,105880
 1.3000e+000 106004 -8.4742e+000 -2.8679e+001 -5.8556e+000 29868 106250,106050,105828
 1.3000e+000 105981 -5.8411e+000 -3.0779e+001 -1.2067e+001 29868 106250,105828,105802
 1.3000e+000 105958 -1.0548e+001 -3.6690e+001  1.1867e+000 29868 106322,105880,106122
 1.3000e+000 106076 -1.0616e+001 -4.8934e+001  5.5361e-001 29868 105906,105880,106050
 1.3000e+000 106099 -8.1675e+000 -3.8514e+001 -2.1225e+000 29868 105906,106050,105932
 1.3000e+000 106148 -2.0911e+001 -4.5149e+001 -1.7620e+000 29868 105854,105828,106122
 1.3000e+000 106276 -1.1559e+001 -3.7808e+001 -2.7688e+000 29868 105932,106050,106250
 1.3000e+000 106299 -7.4034e+000 -4.2067e+001 -9.5112e+000 29868 105932,106250,105802
 1.3000e+000 106348 -1.3228e+001 -3.8085e+001 -1.3643e+000 29868 105828,106050,106322
 1.3000e+000 106371 -1.5851e+001 -3.6629e+001  1.2110e+000 29868 105828,106322,106122
 1.3000e+000 106828 -7.1825e+000 -2.4666e+001  4.5222e+000 29521 106580,106710,106684
 1.3000e+000 106805 -1.0313e+001 -2.6974e+001  2.0191e+000 29521 106554,106710,106580
 1.3000e+000 106782 -1.0420e+000 -1.9151e+001  6.8758e+000 29521 106580,106684,106606
 1.3000e+000 106759 -1.2809e+001 -3.4317e+001 -3.4044e+000 29521 106606,106684,106658
 1.3000e+000 106736 -4.4026e+000 -3.3570e+001 -2.7551e+000 29521 106606,106658,106632
 1.3000e+000 107027 -7.6775e+000 -3.6649e+001  1.4882e+000 29117 106877,106929,106903
 1.3000e+000 107004 -1.2929e+001 -3.8841e+001  5.2160e+000 29117 106851,106929,106877
 1.3000e+000 106981 -1.3135e+001 -3.2291e+001  4.4408e+000 29117 106851,106955,106929
 1.3000e+000 107456 -1.7084e+001 -3.9364e+001 -3.5545e+000 28656 107237,107315,107263
 1.3000e+000 107433 -1.0616e+001 -3.3525e+001 -1.0779e+000 28656 107133,107315,107237
 1.3000e+000 107410 -8.2357e+000 -3.0869e+001 -2.6864e+000 28656 107133,107237,107159
 1.3000e+000 107387 -8.4481e+000 -2.6855e+001 -3.4393e+000 28656 107159,107237,107185
 1.3000e+000 107364 -1.6250e-001 -2.4745e+001 -8.3479e+000 28656 107185,107237,107211
 1.3000e+000 107341 -1.3697e+001 -3.2745e+001 -1.2365e+000 28656 107263,107315,107289
 1.3000e+000 107704 -1.3837e+001 -4.2589e+001 -4.6803e-001 27902 107727,107557,107531
 1.3000e+000 107681 -1.4387e+001 -4.4455e+001 -5.6168e-001 27902 107727,107531,107505
 1.3000e+000 107658 -1.3324e+001 -4.3978e+001  4.8875e-001 27902 107557,107609,107583
 1.3000e+000 107635 -1.8416e+001 -5.0169e+001 -3.0599e+000 27902 107479,107609,107505
 1.3000e+000 107753 -1.3206e+001 -4.4112e+001  3.1544e-001 27902 107609,107557,107727
 1.3000e+000 107776 -1.3562e+001 -4.5664e+001  2.7315e-001 27902 107609,107727,107505
 1.3000e+000 108333 -1.7719e+001 -4.2734e+001 -2.8930e-001 27341 108356,108065,108013
 1.3000e+000 108310 -1.8992e+001 -4.2522e+001 -3.6135e+000 27341 108356,108013,108143
 1.3000e+000 108287 -1.6692e+001 -4.5492e+001 -3.5616e+000 27341 108428,108117,108091
 1.3000e+000 108264 -2.1883e+001 -4.3514e+001  9.9791e-001 27341 108013,108065,108039
 1.3000e+000 108241 -2.5883e+001 -3.9222e+001 -3.8824e+000 27341 107987,108143,108013
 1.3000e+000 108218 -1.8129e+001 -3.5855e+001 -4.7391e+000 27341 107987,108169,108143
 1.3000e+000 108195 -1.5382e+001 -3.3650e+001 -3.7473e+000 27341 107961,108169,107987
 1.3000e+000 108382 -1.9546e+001 -4.7071e+001 -3.0689e-001 27341 108091,108065,108356
 1.3000e+000 108405 -1.8257e+001 -4.2972e+001 -2.5396e+000 27341 108428,108091,108356
 1.3000e+000 108454 -1.9539e+001 -4.9721e+001 -4.8769e+000 27341 108143,108117,108428
 1.3000e+000 108477 -2.0643e+001 -4.6367e+001 -3.7554e+000 27341 108143,108428,108356
 1.3000e+000 108725 -1.3394e+001 -4.9803e+001 -1.1810e+000 27029 108748,108526,108500
 1.3000e+000 108702 -1.5288e+001 -4.6364e+001 -1.1806e-001 27029 108748,108500,108630
 1.3000e+000 108679 -1.6143e+001 -4.3409e+001 -1.1120e+000 27029 108578,108630,108604
 1.3000e+000 108656 -1.5875e+001 -4.0539e+001  1.3751e+001 27029 108526,108578,108552
 1.3000e+000 108774 -1.5121e+001 -5.0640e+001 -2.0799e+000 27029 108578,108526,108748
 1.3000e+000 108797 -1.8113e+001 -4.8439e+001 -1.5163e+000 27029 108578,108748,108630
 1.3000e+000 109045 -1.3109e+001 -3.8453e+001 -7.9307e-001 26610 108872,108924,108898
 1.3000e+000 109022 -1.3321e+001 -3.5495e+001  5.7152e-001 26610 108872,108950,108924
 1.3000e+000 108999 -1.4931e+001 -3.7995e+001 -4.2716e-001 26610 108846,108950,108872
 1.3000e+000 108976 -1.5819e+001 -3.3559e+001  1.5565e-001 26610 108820,108950,108846
 1.3000e+000 109366 -6.2392e+000 -4.3514e+001 -1.4935e+000 26006 109144,109222,109196
 1.3000e+000 109343 -4.5171e+000 -4.1793e+001 -7.8240e-001 26006 109118,109222,109144
 1.3000e+000 109320 -7.9259e+000 -4.3332e+001 -4.2973e-001 26006 109092,109222,109118
 1.3000e+000 109297 -9.9762e+000 -4.5088e+001 -1.7332e+000 26006 109144,109196,109170
 1.3000e+000 109274  5.9260e-001 -3.6634e+001 -4.8073e+000 26006 109092,109248,109222
 1.3000e+000 109567 -1.1222e+001 -3.9618e+001  1.4484e+000 25659 109391,109469,109443
 1.3000e+000 109544 -1.2795e+001 -4.1220e+001  3.7948e+000 25659 109391,109495,109469
 1.3000e+000 109521 -9.8204e+000 -4.0583e+001 -1.9912e-002 25659 109391,109443,109417
 1.3000e+000 109900 -1.6518e+001 -5.0967e+001 -4.2843e+000 25255 109923,109779,109753
 1.3000e+000 109877 -1.4764e+001 -4.3549e+001  1.1309e+000 25255 109923,109753,109701
 1.3000e+000 109854 -2.2597e+001 -4.4459e+001 -6.6264e+000 25255 109675,109805,109701
 1.3000e+000 109831 -1.1541e+001 -3.9245e+001 -6.5460e-001 25255 109701,109753,109727
 1.3000e+000 109949 -2.2083e+001 -6.2294e+001 -1.1583e+001 25255 109805,109779,109923
 1.3000e+000 109972 -1.5952e+001 -4.8779e+001 -5.6858e+000 25255 109805,109923,109701
 1.3000e+000 110220 -1.0580e+001 -4.3731e+001 -2.8254e-001 24701 110243,110021,109995
 1.3000e+000 110197 -1.0473e+001 -4.3190e+001  2.9749e-001 24701 110243,109995,110099
 1.3000e+000 110174 -9.8601e+000 -4.2348e+001 -8.4568e-001 24701 110315,110073,110047
 1.3000e+000 110151 -1.0665e+001 -4.8568e+001  1.6000e+000 24701 109995,110125,110099
 1.3000e+000 110269 -1.6646e+001 -4.8719e+001 -3.2667e+000 24701 110047,110021,110243
 1.3000e+000 110292 -1.0423e+001 -4.2429e+001 -7.5042e-001 24701 110315,110047,110243
 1.3000e+000 110341 -7.9858e+000 -4.2172e+001 -6.5780e-001 24701 110099,110073,110315
 1.3000e+000 110364 -9.1410e+000 -4.2622e+001 -7.3175e-001 24701 110099,110315,110243
 1.3000e+000 110661 -1.3610e+001 -4.2485e+001  5.3169e-001 24197 110684,110413,110387
 1.3000e+000 110638 -1.1530e+001 -3.8504e+001 -5.3734e-001 24197 110684,110387,110543
 1.3000e+000 110615 -1.0963e+001 -4.7015e+001  5.5817e-001 24197 110756,110491,110465
 1.3000e+000 110592 -1.9020e+000 -4.1386e+001  6.9399e-001 24197 110413,110465,110439
 1.3000e+000 110569 -1.0903e+001 -5.4260e+001 -1.0246e+001 24197 110491,110543,110517
 1.3000e+000 110710 -1.0253e+001 -4.0832e+001  1.3570e+000 24197 110465,110413,110684
 1.3000e+000 110733 -1.2246e+001 -4.4849e+001  2.8555e-001 24197 110756,110465,110684
 1.3000e+000 110782 -1.1217e+001 -4.4453e+001 -1.6852e+000 24197 110543,110491,110756
 1.3000e+000 110805 -1.1503e+001 -4.1011e+001 -1.9608e+000 24197 110543,110756,110684
 1.3000e+000 111315 -2.0241e+001 -4.9886e+001 -4.5032e+000 23593 111044,111148,111070
 1.3000e+000 111292 -2.0489e+001 -4.2574e+001 -1.1746e+000 23593 111044,111174,111148
 1.3000e+000 111269 -1.8983e+001 -3.9526e+001 -2.9646e-001 23593 111070,111122,111096
 1.3000e+000 111246 -2.0557e+001 -5.1507e+001 -4.0201e+000 23593 111070,111148,111122
 1.3000e+000 111223 -3.0141e+001 -5.4327e+001 -7.1696e+000 23593 111018,111174,111044
 1.3000e+000 111200  3.7585e+000 -4.2961e+001  2.8056e+000 23593 110992,111174,111018
 1.3000e+000 111821 -6.0415e+000 -4.2246e+001 -1.0175e+000 23089 111916,111844,111628
 1.3000e+000 111798 -1.4240e+001 -4.6885e+001 -2.5108e+000 23089 111844,111550,111524
 1.3000e+000 111775 -4.3655e+000 -4.0365e+001 -3.1237e-001 23089 111916,111628,111602
 1.3000e+000 111752 -1.0848e+001 -5.8284e+001  1.2560e+000 23089 111498,111680,111524
 1.3000e+000 111729 -1.1478e+001 -3.7366e+001 -3.5198e-001 23089 111550,111602,111576
 1.3000e+000 111706 -5.9498e+000 -3.3945e+001 -2.6713e+000 23089 111628,111680,111654
 1.3000e+000 111870 -1.1716e+001 -4.1728e+001  8.6048e-001 23089 111680,111628,111844
 1.3000e+000 111893 -1.2923e+001 -4.4270e+001  3.3775e+000 23089 111680,111844,111524
 1.3000e+000 111942 -1.0647e+001 -3.8526e+001 -1.8288e+000 23089 111550,111844,111916
 1.3000e+000 111965 -8.4900e+000 -3.6382e+001 -9.6401e-001 23089 111550,111916,111602
 1.3000e+000 112164 -7.7550e+000 -4.2270e+001 -1.5636e+000 22626 112187,112014,111988
 1.3000e+000 112141 -1.2394e+001 -4.4459e+001 -1.3891e-002 22626 112259,112187,111988
 1.3000e+000 112118 -1.3260e+001 -4.4844e+001  5.9781e-002 22626 112259,111988,112092
 1.3000e+000 112213 -1.2267e+001 -3.6656e+001 -1.2557e+000 22626 112040,112014,112187
 1.3000e+000 112236 -1.7052e+001 -4.2824e+001  1.5989e+000 22626 112040,112187,112066
 1.3000e+000 112285 -1.3122e+001 -4.4165e+001 -8.5216e-001 22626 112066,112187,112259
 1.3000e+000 112308 -1.3553e+001 -4.4347e+001 -8.3483e-001 22626 112066,112259,112092
 1.3000e+000 112605 -9.7733e+000 -4.2092e+001  1.1791e+000 22286 112628,112383,112357
 1.3000e+000 112582 -1.4400e+001 -4.3439e+001  6.5350e-001 22286 112772,112628,112357
 1.3000e+000 112559 -1.9882e+001 -4.7763e+001  2.2096e+000 22286 112700,112435,112409
 1.3000e+000 112536 -1.9290e+001 -4.4542e+001  1.0973e+000 22286 112772,112357,112331
 1.3000e+000 112513 -2.2030e+001 -4.2801e+001  8.4017e-001 22286 112435,112487,112461
 1.3000e+000 112654 -1.1645e+001 -3.6308e+001 -2.1582e+000 22286 112409,112383,112628
 1.3000e+000 112677 -1.7037e+001 -4.3166e+001  3.8006e-001 22286 112700,112409,112628
 1.3000e+000 112726 -1.6591e+001 -4.4122e+001 -1.1779e+000 22286 112487,112435,112700
 1.3000e+000 112749 -1.5625e+001 -4.3429e+001 -2.5984e+000 22286 112487,112700,112628
 1.3000e+000 112798 -1.2329e+001 -4.3498e+001 -1.9772e-001 22286 112487,112628,112772
 1.3000e+000 112821 -1.3464e+001 -4.2283e+001  3.4556e-001 22286 112487,112772,112331
 1.3000e+000 112924 -1.1411e+001 -5.0501e+001 -2.8167e+000 21974 112846,112898,112872
 1.3000e+000 113223 -1.3912e+001 -4.4445e+001 -8.9861e-001 21420 112949,113053,112975
 1.3000e+000 113200 -1.5846e+001 -4.2618e+001  5.7172e-001 21420 112949,113079,113053
 1.3000e+000 113177 -1.4590e+001 -4.5624e+001  8.8557e-001 21420 112975,113053,113001
 1.3000e+000 113154 -1.8257e+001 -4.5443e+001  1.5601e+000 21420 113001,113053,113027
 1.3000e+000 113131 -1.7112e+001 -4.6321e+001  2.9007e+000 21420 112949,113105,113079
 1.3000e+000 113605 -1.4661e+001 -4.9603e+001  2.1198e+000 20716 113331,113435,113357
 1.3000e+000 113582 -1.6569e+001 -4.2843e+001  3.1718e+000 20716 113331,113461,113435
 1.3000e+000 113559 -1.4852e+001 -5.2613e+001 -1.8813e+000 20716 113383,113435,113409
 1.3000e+000 113536 -1.4865e+001 -4.8301e+001 -2.2090e-001 20716 113357,113435,113383
 1.3000e+000 113513  1.2055e+001 -3.2889e+001  1.8105e+000 20716 113331,113487,113461
 1.3000e+000 113853 -1.3526e+001 -4.2223e+001  2.8740e-001 20290 113876,113680,113654
 1.3000e+000 113830 -1.1699e+001 -4.4188e+001 -8.4109e-001 20290 113876,113654,113628
 1.3000e+000 113807 -1.3587e+001 -4.3928e+001 -8.6263e-001 20290 113948,113732,113680
 1.3000e+000 113784 -4.1372e+000 -4.1740e+001 -1.9998e+000 20290 113680,113732,113706
 1.3000e+000 113902 -1.3169e+001 -4.3727e+001 -1.7013e-001 20290 113948,113680,113876
 1.3000e+000 113925 -1.3154e+001 -4.6947e+001  7.1373e-002 20290 113758,113876,113628
 1.3000e+000 113974 -1.4326e+001 -4.3737e+001 -9.0020e-001 20290 113758,113732,113948
 1.3000e+000 113997 -1.4405e+001 -4.4012e+001 -2.8455e-001 20290 113758,113948,113876
 1.3000e+000 114365 -1.0073e+001 -4.4220e+001  1.4554e-001 19900 114146,114198,114172
 1.3000e+000 114342 -1.0910e+001 -4.4618e+001 -1.1317e-001 19900 114042,114198,114146
 1.3000e+000 114319 -8.8760e+000 -4.4321e+001 -1.3502e+000 19900 114042,114224,114198
 1.3000e+000 114296 -1.8684e+001 -4.2969e+001 -5.4302e-001 19900 114094,114146,114120
 1.3000e+000 114273 -1.0976e+001 -4.1431e+001 -1.9951e+000 19900 114042,114146,114094
 1.3000e+000 114250 -9.0736e+000 -4.2757e+001 -4.6441e+000 19900 114042,114094,114068
 1.3000e+000 114566 -8.6504e+000 -4.3039e+001  1.2175e+000 19496 114442,114494,114468
 1.3000e+000 114543 -1.6187e+001 -4.3539e+001 -2.3721e+000 19496 114416,114494,114442
 1.3000e+000 114520 -3.7787e+000 -4.3082e+001 -4.2883e+000 19496 114390,114494,114416
 1.3000e+000 114767 -1.3298e+001 -4.2899e+001  1.1646e-001 19042 114790,114669,114643
 1.3000e+000 114744 -1.5107e+001 -4.1956e+001  5.3296e-001 19042 114790,114643,114591
 1.3000e+000 114721 -1.6123e+001 -4.8984e+001  2.5476e+000 19042 114591,114643,114617
 1.3000e+000 114816 -1.2062e+001 -4.2151e+001 -2.1625e-001 19042 114695,114669,114790
 1.3000e+000 114839 -1.3769e+001 -4.0860e+001  2.0429e-002 19042 114695,114790,114591
 1.3000e+000 114991 -1.1728e+001 -4.3105e+001 -1.0906e+000 18488 114864,114916,114890
 1.3000e+000 114968 -1.3380e+001 -4.9971e+001  1.5033e-001 18488 114864,114942,114916
 1.3000e+000 115192 -1.2620e+001 -4.1688e+001 -7.5934e-001 18098 115215,115042,115016
 1.3000e+000 115169 -1.0222e+001 -3.8926e+001 -2.0943e+000 18098 115215,115016,115120
 1.3000e+000 115146 -1.1563e+001 -4.2371e+001  8.5562e-001 18098 115287,115094,115068
 1.3000e+000 115241 -1.0922e+001 -4.3476e+001 -1.4397e-001 18098 115068,115042,115215
 1.3000e+000 115264 -1.1358e+001 -4.2341e+001 -5.0916e-002 18098 115287,115068,115215
 1.3000e+000 115313 -1.0187e+001 -4.2055e+001  4.1451e-001 18098 115120,115094,115287
 1.3000e+000 115336 -9.5833e+000 -4.1883e+001 -4.5275e-001 18098 115120,115287,115215
 1.3000e+000 115846 -1.4859e+001 -4.9323e+001 -4.5718e+000 17644 115653,115705,115679
 1.3000e+000 115823 -1.7326e+001 -4.4636e+001 -2.7064e+000 17644 115627,115705,115653
 1.3000e+000 115800 -1.2092e+001 -4.2211e+001  1.2995e+000 17644 115549,115705,115627
 1.3000e+000 115777 -1.2067e+001 -4.5771e+001  7.1767e-001 17644 115549,115627,115575
 1.3000e+000 115754 -7.0172e+000 -3.7678e+001  4.9389e+000 17644 115523,115705,115549
 1.3000e+000 115731 -9.3456e+000 -4.2396e+001 -1.3539e+000 17644 115575,115627,115601
 1.3000e+000 116067 -1.7973e+001 -4.9724e+001 -6.4826e-001 17116 115891,115943,115917
 1.3000e+000 116044 -1.6790e+001 -5.3622e+001  2.4447e-002 17116 115891,115995,115943
 1.3000e+000 116021 -1.3171e+001 -4.8679e+001  1.6309e+000 17116 115943,115995,115969
 1.3000e+000 116288 -8.7064e+000 -4.2779e+001  5.2470e+000 16704 116164,116216,116190
 1.3000e+000 116265 -1.3456e+001 -5.1712e+001  3.2550e+000 16704 116112,116216,116164
 1.3000e+000 116242 -1.7405e+001 -4.9694e+001 -3.1510e-001 16704 116112,116164,116138
 1.3000e+000 116489 -1.7325e+001 -4.9987e+001  3.7554e-001 16434 116339,116417,116365
 1.3000e+000 116466 -1.3616e+001 -4.8574e+001  1.8699e-001 16434 116313,116417,116339
 1.3000e+000 116443 -3.8317e+001 -5.3739e+001  1.7275e+001 16434 116365,116417,116391
 1.3000e+000 116592 -1.2629e+001 -4.3494e+001 -4.5669e-001 15967 116514,116566,116540
 1.3000e+000 116695  4.9765e+000 -4.9927e+001 -8.6135e+000 15552 116617,116669,116643
 1.3000e+000 116798 -9.1090e+000 -4.1559e+001  0.0000e+000 421 116720,116772,116746
 1.4000e+000 69066 -3.7321e+000 -1.6014e+002  2.0075e+001 68738 68965,69017,68991
 1.4000e+000 69043  1.0531e+000 -1.6310e+002  4.9115e+000 68738 68939,69017,68965
 1.4000e+000 69371  5.2028e-001 -2.1571e+001 -2.2094e+000 68426 69172,69250,69198
 1.4000e+000 69348 -3.4533e+000 -3.7294e+001  6.0855e+000 68426 69146,69250,69172
 1.4000e+000 69325 -1.8736e+000 -1.2619e+001  5.0919e+000 68426 69198,69250,69224
 1.4000e+000 69302  9.8108e+000 -6.1943e+001  2.9538e+000 68426 69146,69276,69250
 1.4000e+000 69521 -7.4289e+000 -5.1684e+001  8.9738e+000 68228 69420,69472,69446
 1.4000e+000 69498 -2.5863e+000 -4.5895e+001  5.2552e+000 68228 69394,69472,69420
 1.4000e+000 69781 -1.8321e+000 -3.9555e+000  2.2713e+000 68030 69631,69683,69657
 1.4000e+000 69758 -1.6537e+000 -7.3417e+000  9.1166e-001 68030 69631,69709,69683
 1.4000e+000 69735 -5.2820e-001 -5.5393e+000  2.8575e-001 68030 69605,69709,69631
 1.4000e+000 70078 -4.7242e+000 -1.6401e+001 -7.9783e+000 67832 69882,69934,69908
 1.4000e+000 70055 -6.9250e+000 -1.6922e+001 -7.8937e+000 67832 69856,69934,69882
 1.4000e+000 70032  3.2799e+000 -2.8058e+001 -2.5140e+001 67832 69830,69934,69856
 1.4000e+000 70009 -3.0438e+000 -4.1950e+001 -1.4183e+001 67832 69804,69934,69830
 1.4000e+000 69986  1.5582e+001 -3.8129e+001 -1.2870e+001 67832 69804,69960,69934
 1.4000e+000 70586 -3.7022e+000 -2.6936e+001  2.0374e+000 67634 70609,70419,70341
 1.4000e+000 70563  4.4338e+000 -2.6020e+001  1.3401e+000 67634 70681,70609,70341
 1.4000e+000 70540  9.5529e+000 -2.4771e+001  5.3168e+000 67634 70681,70341,70315
 1.4000e+000 70517 -4.8538e+000 -2.8819e+001  2.6215e+000 67634 70341,70419,70367
 1.4000e+000 70494 -4.7812e+000 -2.2321e+001  6.7034e+000 67634 70263,70445,70289
 1.4000e+000 70471 -6.3080e+000 -1.7078e+001  3.6878e-001 67634 70367,70419,70393
 1.4000e+000 70635  3.2076e+000 -2.1801e+001  5.8247e+000 67634 70445,70419,70609
 1.4000e+000 70658 -4.7389e+000 -2.8636e+001  9.0701e+000 67634 70445,70609,70289
 1.4000e+000 70707  7.3295e+000 -2.3439e+001  1.0827e+001 67634 70289,70609,70681
 1.4000e+000 70730  1.8386e+001 -2.0804e+001  1.4291e+001 67634 70289,70681,70315
 1.4000e+000 71108  2.9132e+000 -4.4502e+001  6.6808e+000 67344 71131,70912,70886
 1.4000e+000 71085  8.8428e+000 -3.1775e+001  1.1266e+001 67344 71131,70886,70860
 1.4000e+000 71062  1.9204e+000 -3.6838e+001  2.4903e+000 67344 71203,70938,70912
 1.4000e+000 71039 -3.8826e+000 -3.0350e+001  6.7468e+000 67344 70834,70990,70860
 1.4000e+000 71016 -7.9161e+000 -4.0459e+001  1.3548e-001 67344 70938,70990,70964
 1.4000e+000 71157  1.4654e+000 -3.5688e+001  2.9714e+000 67344 71203,70912,71131
 1.4000e+000 71180  1.7574e+000 -3.2857e+001  5.9940e+000 67344 70990,71131,70860
 1.4000e+000 71229  1.2556e+000 -3.7998e+001  2.1062e+000 67344 70990,70938,71203
 1.4000e+000 71252  4.0184e-001 -3.6998e+001  2.4099e+000 67344 70990,71203,71131
 1.4000e+000 71603 -4.6341e-001 -2.9864e+001  2.0491e+000 67032 71378,71482,71404
 1.4000e+000 71580  1.3807e+000 -2.1372e+001  4.1697e+000 67032 71378,71508,71482
 1.4000e+000 71557  1.2102e+000 -2.6405e+001 -3.2878e-001 67032 71404,71456,71430
 1.4000e+000 71534  2.1474e+000 -2.5510e+001  4.2798e-002 67032 71404,71482,71456
 1.4000e+000 72003 -6.8386e-001 -2.1755e+001 -5.2967e-001 66834 71755,71859,71781
 1.4000e+000 71980 -8.4385e-001 -2.4004e+001 -8.1092e-001 66834 71755,71885,71859
 1.4000e+000 71957  7.5867e-001 -1.8610e+001  4.2248e+000 66834 71781,71833,71807
 1.4000e+000 71934 -3.2950e+000 -2.5271e+001  2.3610e+000 66834 71781,71859,71833
 1.4000e+000 71911 -3.6045e+000 -2.7751e+001  4.1706e+000 66834 71729,71885,71755
 1.4000e+000 72430  3.9018e+000 -2.5709e+001  2.0792e-001 66266 72237,72289,72263
 1.4000e+000 72407  3.4476e+000 -2.7239e+001  2.3107e+000 66266 72133,72289,72237
 1.4000e+000 72384  6.5576e-001 -2.4369e+001  1.8520e+000 66266 72133,72237,72211
 1.4000e+000 72361  1.8549e+000 -2.7946e+001  2.1049e+000 66266 72107,72289,72133
 1.4000e+000 72338 -7.7603e+000 -4.5734e+001  1.0801e+001 66266 72133,72211,72185
 1.4000e+000 72315  1.3938e+000 -4.9822e+001  1.1358e+001 66266 72133,72185,72159
 1.4000e+000 72580 -9.4855e+000 -6.1064e+001  5.7002e+000 65968 72479,72531,72505
 1.4000e+000 72557 -7.5081e-001 -4.1022e+001  2.3647e+000 65968 72453,72531,72479
 1.4000e+000 72960 -6.9455e+000 -4.7179e+001  2.2457e+000 65621 72983,72738,72712
 1.4000e+000 72937 -8.1934e+000 -4.5832e+001  2.1562e+000 65621 72983,72712,72686
 1.4000e+000 72914 -1.1469e+001 -5.1522e+001  5.5338e+000 65621 72738,72842,72764
 1.4000e+000 72891  3.2813e+000 -4.2033e+001 -5.3792e-001 65621 72764,72842,72816
 1.4000e+000 72868 -2.6638e+001 -9.8935e+001  1.5927e+001 65621 72764,72816,72790
 1.4000e+000 73009 -6.7266e+000 -4.6236e+001  1.9797e+000 65621 72842,72738,72983
 1.4000e+000 73032 -7.0774e+000 -4.3780e+001  1.6335e+000 65621 72842,72983,72686
 1.4000e+000 73361 -1.8244e+001 -5.5210e+001 -3.9440e+000 65281 73456,73384,73188
 1.4000e+000 73338 -2.8269e+001 -5.3137e+001 -1.3761e+000 65281 73384,73162,73136
 1.4000e+000 73315 -1.3415e+001 -7.3413e+001 -1.8230e+001 65281 73188,73240,73214
 1.4000e+000 73292 -1.7460e+001 -4.2901e+001 -3.3371e+000 65281 73136,73266,73240
 1.4000e+000 73410 -1.9225e+001 -5.5454e+001 -3.8103e+000 65281 73240,73188,73384
 1.4000e+000 73433 -2.1975e+001 -4.4366e+001 -4.2840e+000 65281 73240,73384,73136
 1.4000e+000 73482 -1.9388e+001 -5.7917e+001 -3.8287e+000 65281 73162,73384,73456
 1.4000e+000 73711  1.8778e+001 -1.5516e+001 -6.0656e+000 64820 73734,73610,73584
 1.4000e+000 73688  2.0623e+001 -6.7801e+000 -1.9139e+001 64820 73734,73584,73662
 1.4000e+000 73760  3.9066e+001 -7.6370e+000 -1.5177e+001 64820 73636,73610,73734
 1.4000e+000 73783  1.1151e+001 -1.0788e+001 -1.9901e+001 64820 73806,73734,73662
 1.4000e+000 73832  3.5582e+001  1.5521e+001 -3.0645e+001 64820 73636,73734,73806
 1.4000e+000 74112  1.3628e+000 -4.7154e+001  7.2818e-001 64622 74278,74135,73988
 1.4000e+000 74089  5.8643e-002 -4.3764e+001  3.0549e+000 64622 74135,73936,74040
 1.4000e+000 74066  3.0821e+000 -4.6483e+001  4.1019e+000 64622 74278,73988,73962
 1.4000e+000 74161 -1.5323e+000 -4.5808e+001 -1.5201e-001 64622 74014,73988,74135
 1.4000e+000 74184  1.0885e+000 -4.1460e+001  1.8142e+000 64622 74207,74135,74040
 1.4000e+000 74233 -5.7409e-002 -4.4775e+001  3.0166e-001 64622 74014,74135,74207
 1.4000e+000 74304  3.6594e+000 -4.1967e+001  3.7516e+000 64622 73936,74135,74278
 1.4000e+000 74327  6.6712e+000 -4.1639e+001  7.2305e+000 64622 73936,74278,73962
 1.4000e+000 74526  4.8126e-001 -3.6406e+001  2.8666e-001 64424 74621,74549,74402
 1.4000e+000 74503  6.3828e-001 -4.3475e+001  1.0046e+000 64424 74549,74350,74454
 1.4000e+000 74480  2.2226e-001 -3.3603e+001 -5.0078e+000 64424 74621,74402,74376
 1.4000e+000 74575 -1.0206e+000 -4.1542e+001  2.0633e+000 64424 74428,74402,74549
 1.4000e+000 74598  1.5713e-001 -4.3954e+001  1.2042e+000 64424 74693,74549,74454
 1.4000e+000 74647 -3.0874e+000 -4.4782e+001  4.4749e-001 64424 74350,74549,74621
 1.4000e+000 74670 -4.0783e+000 -4.3660e+001 -5.0572e+000 64424 74350,74621,74376
 1.4000e+000 74719 -5.1908e-001 -4.5683e+001  1.0670e+000 64424 74428,74549,74693
 1.4000e+000 75123 -1.7871e+001 -8.7786e+001  7.0989e+000 64126 74875,74953,74927
 1.4000e+000 75100  2.3811e+000 -4.5843e+001  9.7898e-001 64126 74875,74979,74953
 1.4000e+000 75077 -7.8637e+000 -5.4949e+001  4.8195e+000 64126 74875,75005,74979
 1.4000e+000 75054  1.6976e+001 -1.0548e+002  3.5155e+001 64126 74875,74927,74901
 1.4000e+000 75031 -1.9417e+001 -3.9177e+001  1.1664e+001 64126 74849,75005,74875
 1.4000e+000 75224  2.0373e+000 -4.3189e+001  5.8861e+000 63836 75146,75198,75172
 1.4000e+000 75472 -1.0121e+001 -3.9239e+001  4.3176e-001 63375 75273,75351,75325
 1.4000e+000 75449 -7.9398e+000 -3.7284e+001 -1.1454e+000 63375 75273,75377,75351
 1.4000e+000 75426  2.1304e+000 -3.5838e+001 -2.1285e+000 63375 75247,75377,75273
 1.4000e+000 75403 -1.1145e+001 -1.8057e+001  5.1970e+000 63375 75273,75325,75299
 1.4000e+000 75673  1.4379e+000 -3.4132e+001  2.9843e+000 63063 75523,75575,75549
 1.4000e+000 75650  4.2348e+000 -4.1954e+001 -1.0176e+000 63063 75497,75575,75523
 1.4000e+000 75627  6.3160e-001 -4.5842e+001  4.2477e+000 63063 75497,75601,75575
 1.4000e+000 75874 -8.2843e+000 -6.1806e+001  6.3943e-001 62716 75897,75750,75724
 1.4000e+000 75851 -1.2141e+001 -6.0297e+001  7.6010e-001 62716 75897,75724,75698
 1.4000e+000 75828 -1.0433e+001 -5.4412e+001 -9.5289e+000 62716 75698,75802,75776
 1.4000e+000 75923 -1.6478e-001 -5.9795e+001 -2.8799e-001 62716 75776,75750,75897
 1.4000e+000 75946 -8.3811e+000 -6.1487e+001  2.6626e-001 62716 75776,75897,75698
 1.4000e+000 76328  4.2368e+000 -6.0837e+001 -4.1883e-001 62198 76495,76351,76158
 1.4000e+000 76305  5.4091e-001 -5.5424e+001  7.8709e-001 62198 76351,76080,76054
 1.4000e+000 76282  4.5582e+000 -6.6964e+001 -2.4021e+000 62198 76423,76184,76158
 1.4000e+000 76259  3.3113e+000 -6.1832e+001 -2.1263e-002 62198 76495,76158,76106
 1.4000e+000 76236  1.0992e+001 -6.7447e+001  2.9984e+000 62198 76106,76158,76132
 1.4000e+000 76377  4.2339e+000 -6.0783e+001 -2.1931e+000 62198 76423,76158,76351
 1.4000e+000 76400  8.5592e-001 -5.3567e+001 -4.7435e-001 62198 76210,76351,76054
 1.4000e+000 76449  6.1184e+000 -6.0214e+001 -2.7391e+000 62198 76210,76184,76423
 1.4000e+000 76472  4.6704e+000 -5.6006e+001 -3.3433e+000 62198 76210,76423,76351
 1.4000e+000 76521  1.5458e+000 -5.6775e+001  2.5032e+000 62198 76080,76351,76495
 1.4000e+000 76544 -2.3327e+000 -6.2078e+001  4.2259e+000 62198 76080,76495,76106
 1.4000e+000 76841 -4.2085e+000 -5.9511e+001  5.4106e-001 61751 76936,76864,76645
 1.4000e+000 76818 -1.0108e+001 -5.3014e+001 -7.5615e+000 61751 76864,76567,76723
 1.4000e+000 76795 -6.0497e+000 -5.4095e+001  2.1286e+000 61751 76936,76645,76593
 1.4000e+000 76772  1.6323e+001 -5.4349e+001 -1.5738e+001 61751 77008,76697,76671
 1.4000e+000 76749 -5.6409e+000 -5.5756e+001  3.7689e+000 61751 76593,76645,76619
 1.4000e+000 76890 -1.1700e+001 -7.8096e+001  4.4893e+000 61751 76671,76645,76864
 1.4000e+000 76913 -4.6714e+000 -6.5149e+001 -9.9082e+000 61751 77008,76671,76864
 1.4000e+000 76962 -7.0582e+000 -6.6510e+001 -2.2554e+000 61751 76567,76864,76936
 1.4000e+000 76985 -8.0591e+000 -6.0992e+001 -9.2125e-002 61751 76567,76936,76593
 1.4000e+000 77034 -1.2321e+001 -6.8494e+001 -8.6804e+000 61751 76723,76697,77008
 1.4000e+000 77057 -1.4587e+001 -6.3466e+001 -7.5579e+000 61751 76723,77008,76864
 1.4000e+000 77207 -4.3703e-001 -2.2270e+001  4.2485e+000 61418 77106,77158,77132
 1.4000e+000 77184 -7.8506e+000 -3.2399e+001  9.5278e-001 61418 77080,77158,77106
 1.4000e+000 77638 -1.2456e+001 -5.4361e+001  1.2470e+000 60814 77733,77661,77471
 1.4000e+000 77615 -1.3648e+001 -5.5144e+001 -2.0596e+000 60814 77661,77393,77315
 1.4000e+000 77592 -1.5811e+001 -4.8423e+001  3.9539e+000 60814 77733,77471,77445
 1.4000e+000 77569  2.9152e+000 -4.9389e+001 -1.1258e+001 60814 77315,77367,77341
 1.4000e+000 77546 -4.2792e+000 -7.0808e+001 -9.4106e+000 60814 77315,77393,77367
 1.4000e+000 77523 -8.9468e+000 -3.6340e+001 -2.2054e+000 60814 77393,77445,77419
 1.4000e+000 77687 -7.1694e+000 -5.2268e+001  4.5929e+000 60814 77497,77471,77661
 1.4000e+000 77710 -1.0898e+001 -6.1131e+001  3.4147e+000 60814 77497,77661,77315
 1.4000e+000 77759 -9.0951e+000 -4.6257e+001 -3.7510e-001 60814 77393,77661,77733
 1.4000e+000 77782 -1.3660e+001 -4.2082e+001  3.1852e+000 60814 77393,77733,77445
 1.4000e+000 78337 -1.8579e+001 -5.5770e+001 -3.2706e-001 60210 78360,78017,77965
 1.4000e+000 78314 -2.0646e+001 -5.6527e+001  8.0626e-001 60210 78360,77965,78173
 1.4000e+000 78291 -2.2053e+001 -6.0945e+001 -8.3738e+000 60210 78432,78043,78017
 1.4000e+000 78268 -2.7155e+001 -8.3385e+001  1.5763e+000 60210 77965,78017,77991
 1.4000e+000 78245 -1.7037e+001 -4.9262e+001 -7.0145e+000 60210 78043,78095,78069
 1.4000e+000 78222 -2.9745e+001 -6.5127e+001  3.7541e+000 60210 78095,78173,78121
 1.4000e+000 78199 -5.1394e+000 -5.6521e+001  4.5591e+000 60210 78121,78173,78147
 1.4000e+000 78386 -2.2899e+001 -5.9606e+001 -1.9572e+000 60210 78432,78017,78360
 1.4000e+000 78409 -2.1824e+001 -5.2840e+001  1.0080e-001 60210 78095,78360,78173
 1.4000e+000 78458 -1.8327e+001 -5.2260e+001 -8.0556e+000 60210 78095,78043,78432
 1.4000e+000 78481 -1.8421e+001 -4.9151e+001 -1.8864e+000 60210 78095,78432,78360
 1.4000e+000 78680  1.1747e+001 -3.5564e+001 -2.9533e+000 59848 78703,78556,78530
 1.4000e+000 78657  1.4468e+001 -3.4387e+001 -2.6869e+000 59848 78703,78530,78504
 1.4000e+000 78634  3.0287e+000 -4.1088e+001  3.3487e+000 59848 78504,78608,78582
 1.4000e+000 78729  5.9876e+000 -3.4342e+001 -1.3757e+000 59848 78582,78556,78703
 1.4000e+000 78752  1.1284e+001 -3.1994e+001 -9.3066e-001 59848 78582,78703,78504
 1.4000e+000 78951  1.0716e+001 -4.5902e+001 -5.7985e+000 59344 78974,78801,78775
 1.4000e+000 78928  5.5494e+000 -5.3718e+001  5.0812e+000 59344 79046,78974,78775
 1.4000e+000 78905  7.9112e+000 -5.6863e+001  4.5360e+000 59344 79046,78775,78879
 1.4000e+000 79000 -5.1274e+000 -5.1759e+001 -2.4153e+000 59344 78827,78801,78974
 1.4000e+000 79023  2.6695e+000 -5.5343e+001  9.0396e+000 59344 78827,78974,78853
 1.4000e+000 79072  8.9159e+000 -5.1066e+001  6.2309e+000 59344 78853,78974,79046
 1.4000e+000 79095  1.2467e+001 -5.3040e+001  6.1728e+000 59344 78853,79046,78879
 1.4000e+000 79296 -1.2740e+001 -8.3748e+001 -5.3233e+000 58711 79319,79172,79146
 1.4000e+000 79273 -2.6831e+000 -7.7099e+001 -2.2695e+000 58711 79319,79146,79120
 1.4000e+000 79250 -1.8040e+001 -6.9941e+001  4.1892e+000 58711 79172,79224,79198
 1.4000e+000 79345 -2.0811e+001 -7.4566e+001 -4.3419e+000 58711 79224,79172,79319
 1.4000e+000 79368 -1.4786e+001 -7.1112e+001 -2.4231e+000 58711 79224,79319,79120
 1.4000e+000 79667 -5.0809e-001 -3.0472e+001 -5.0370e+000 58285 79690,79471,79393
 1.4000e+000 79644 -1.5778e+000 -3.7089e+001 -6.0875e+000 58285 79690,79393,79549
 1.4000e+000 79621  1.1617e+000 -3.6256e+001 -2.6463e+000 58285 79393,79471,79419
 1.4000e+000 79598 -2.8289e+000 -3.0243e+001  4.1406e-001 58285 79497,79549,79523
 1.4000e+000 79575  5.6827e+000 -6.1994e+001 -3.3058e+000 58285 79419,79471,79445
 1.4000e+000 79716 -1.5807e+000 -2.3312e+001 -6.3625e-001 58285 79497,79471,79690
 1.4000e+000 79739 -4.5578e+000 -3.4462e+001 -4.1279e-001 58285 79497,79690,79549
 1.4000e+000 80249 -7.8233e-001 -4.2236e+001 -5.7630e+000 57831 80272,79978,79952
 1.4000e+000 80226  1.6058e+000 -4.3750e+001 -2.2338e+000 57831 80272,79952,80108
 1.4000e+000 80203  1.3731e+001 -5.1257e+001 -6.5510e+000 57831 79926,80108,79952
 1.4000e+000 80180 -7.6270e+000 -5.2919e+001  2.6360e+000 57831 80004,80082,80030
 1.4000e+000 80157 -5.1705e+000 -4.7745e+001  3.3980e+000 57831 80004,80108,80082
 1.4000e+000 80134 -1.4418e+001 -5.6077e+001  1.0443e+001 57831 80030,80082,80056
 1.4000e+000 80298  2.6050e+000 -3.4065e+001 -6.0472e+000 57831 80004,79978,80272
 1.4000e+000 80321  2.0934e+000 -4.0968e+001 -2.6831e+000 57831 80004,80272,80108
 1.4000e+000 80618 -1.8700e+001 -5.2345e+001  8.6694e+000 57077 80344,80448,80422
 1.4000e+000 80595 -8.9544e+000 -4.4996e+001  2.7857e+000 57077 80344,80500,80448
 1.4000e+000 80572 -1.3931e+001 -4.0707e+001  8.5540e+000 57077 80344,80422,80370
 1.4000e+000 80549 -1.1036e+001 -3.4089e+001  6.9062e+000 57077 80370,80422,80396
 1.4000e+000 80526 -1.7030e+001 -7.0140e+001  7.5079e+000 57077 80448,80500,80474
 1.4000e+000 80768  2.6328e+000 -1.7286e+001 -6.0289e+000 56787 80791,80693,80667
 1.4000e+000 80745  6.9848e+000 -1.8485e+001 -9.1879e+000 56787 80791,80667,80641
 1.4000e+000 80817  3.0151e-001 -1.8346e+001 -4.1470e+000 56787 80719,80693,80791
 1.4000e+000 80840  5.8569e+000 -2.8152e+001 -5.2200e+000 56787 80719,80791,80641
 1.4000e+000 81429 -1.5998e+001 -3.8666e+001 -3.1338e+000 56497 81452,81158,81132
 1.4000e+000 81406 -1.5918e+001 -4.5557e+001 -2.3658e+000 56497 81452,81132,81288
 1.4000e+000 81383 -2.0414e+001 -4.0098e+001 -2.1545e+000 56497 81524,81184,81158
 1.4000e+000 81360 -1.5923e+001 -5.4029e+001  1.6204e+000 56497 81210,81288,81236
 1.4000e+000 81337  9.9109e+000 -3.4316e+001 -3.3617e-001 56497 81106,81288,81132
 1.4000e+000 81314 -1.0092e+001 -4.6725e+001 -1.0040e+000 56497 81236,81288,81262
 1.4000e+000 81478 -1.8670e+001 -3.9147e+001 -2.5201e+000 56497 81524,81158,81452
 1.4000e+000 81501 -1.1056e+001 -4.1732e+001 -5.6775e-001 56497 81210,81452,81288
 1.4000e+000 81550 -2.0225e+001 -4.1078e+001  2.7422e-001 56497 81210,81184,81524
 1.4000e+000 81573 -1.7750e+001 -3.9955e+001 -2.4775e-002 56497 81210,81524,81452
 1.4000e+000 81870 -7.1553e+000 -4.4801e+001  5.4848e-001 55979 81893,81674,81648
 1.4000e+000 81847 -4.8915e+000 -4.3120e+001  2.8272e+000 55979 81893,81648,81752
 1.4000e+000 81824 -2.8948e+000 -4.9247e+001  3.4422e+000 55979 81596,81752,81648
 1.4000e+000 81801 -1.3357e+001 -5.9179e+001  2.6283e+000 55979 81674,81726,81700
 1.4000e+000 81778 -9.7909e-002 -4.0178e+001 -7.2502e+000 55979 81596,81648,81622
 1.4000e+000 81919 -8.3110e+000 -4.2670e+001  2.9638e+000 55979 81726,81674,81893
 1.4000e+000 81942 -4.6223e+000 -3.9818e+001  5.4363e+000 55979 81726,81893,81752
 1.4000e+000 82371 -4.2072e+000 -3.6613e+001 -8.6926e-001 55631 82100,82204,82152
 1.4000e+000 82348 -2.3124e+000 -4.3924e+001 -3.9558e+000 55631 82100,82230,82204
 1.4000e+000 82325 -1.4146e+000 -3.7781e+001  4.3892e+000 55631 82100,82152,82126
 1.4000e+000 82302 -3.1115e+000 -5.0529e+001 -1.3231e+001 55631 82074,82230,82100
 1.4000e+000 82279 -6.4340e+000 -4.1238e+001  7.5235e-002 55631 82152,82204,82178
 1.4000e+000 82256  4.3823e+000 -4.8760e+001 -1.0042e+001 55631 82048,82230,82074
 1.4000e+000 82521 -1.0546e+000 -2.6299e+001 -4.0488e+000 55227 82544,82420,82394
 1.4000e+000 82498 -1.9818e-001 -3.5616e+001 -3.2312e+000 55227 82544,82394,82472
 1.4000e+000 82570 -2.8637e+000 -2.0420e+001 -3.6224e+000 55227 82446,82420,82544
 1.4000e+000 82593  7.0156e-001 -2.6339e+001 -3.1200e-001 55227 82446,82544,82472
 1.4000e+000 82875  1.1603e+001 -3.4230e+001 -1.0952e+001 54979 82699,82777,82725
 1.4000e+000 82852 -9.8128e+000 -2.8996e+001 -4.4068e+000 54979 82699,82803,82777
 1.4000e+000 82829 -9.9839e-001 -1.0579e+001  1.8810e+000 54979 82725,82777,82751
 1.4000e+000 83204  1.5883e+001 -2.4056e+001 -6.6391e+000 54475 83005,83083,83057
 1.4000e+000 83181 -2.9732e+000 -3.5347e+001 -1.7995e+000 54475 82979,83083,83005
 1.4000e+000 83158  5.7076e+000 -5.1446e+001 -3.6935e+000 54475 83005,83057,83031
 1.4000e+000 83135 -2.0288e+000 -3.3435e+001  2.6130e+000 54475 82979,83109,83083
 1.4000e+000 83582 -1.5133e+001 -4.1802e+001 -2.0070e+000 54071 83605,83438,83412
 1.4000e+000 83559 -1.7098e+001 -4.5706e+001 -1.2760e+000 54071 83749,83605,83412
 1.4000e+000 83536 -1.8968e+001 -5.6622e+001  1.1905e+001 54071 83677,83360,83334
 1.4000e+000 83513 -1.2971e+001 -5.0490e+001 -2.2744e+000 54071 83749,83412,83677
 1.4000e+000 83490 -1.5106e+001 -3.2100e+001 -7.8376e-001 54071 83308,83464,83334
 1.4000e+000 83631 -2.0419e+001 -4.2819e+001 -4.6376e+000 54071 83464,83438,83605
 1.4000e+000 83654 -1.5599e+001 -3.4167e+001 -2.1084e+000 54071 83464,83605,83334
 1.4000e+000 83703  6.8191e-001 -4.6151e+001  7.9581e+000 54071 83386,83360,83677
 1.4000e+000 83726 -5.1681e+000 -4.8471e+001 -2.7547e+000 54071 83386,83677,83412
 1.4000e+000 83775 -1.0826e+001 -3.8519e+001  1.7589e+000 54071 83334,83605,83749
 1.4000e+000 83798 -6.2481e+000 -4.3309e+001  9.5841e-001 54071 83334,83749,83677
 1.4000e+000 84068 -3.7349e+000 -2.3036e+001  6.7442e-002 53524 83869,83921,83895
 1.4000e+000 84045 -5.5038e+000 -2.6779e+001  1.3535e+000 53524 83869,83947,83921
 1.4000e+000 84022 -1.1542e+001 -3.0745e+001 -6.8794e-001 53524 83843,83947,83869
 1.4000e+000 83999 -4.3797e+000 -2.8416e+001 -1.4269e+000 53524 83843,83973,83947
 1.4000e+000 84497 -1.3654e+001 -6.2863e+001  2.4689e-001 53184 84200,84330,84252
 1.4000e+000 84474 -1.1436e+001 -5.2597e+001  4.6447e+000 53184 84200,84356,84330
 1.4000e+000 84451 -1.6506e+000 -7.4775e+001  6.2102e+000 53184 84200,84252,84226
 1.4000e+000 84428  1.1432e+000 -5.2829e+001 -5.1063e+000 53184 84252,84330,84278
 1.4000e+000 84405 -6.7953e+000 -4.9432e+001  1.9225e+000 53184 84174,84356,84200
 1.4000e+000 84382  1.4370e+001 -4.6267e+001 -9.6658e+000 53184 84278,84330,84304
 1.4000e+000 84954 -1.1441e+001 -5.4509e+001  5.5147e+000 52680 84706,84836,84784
 1.4000e+000 84931 -1.5819e+001 -5.0948e+001 -9.7904e+000 52680 84680,84836,84706
 1.4000e+000 84908 -8.1023e+000 -7.7377e+001  8.4628e-001 52680 84784,84836,84810
 1.4000e+000 84885 -2.7445e+001 -8.4668e+001  1.1455e+001 52680 84706,84784,84732
 1.4000e+000 84862 -2.1357e+001 -7.9104e+001  7.5553e+000 52680 84732,84784,84758
 1.4000e+000 85202 -5.9375e+000 -3.9797e+001 -4.5650e+000 52226 85029,85081,85055
 1.4000e+000 85179 -1.2825e+001 -4.3736e+001 -6.5804e+000 52226 85225,85081,85029
 1.4000e+000 85156 -1.2311e+001 -4.2749e+001 -8.6164e+000 52226 85225,85029,85003
 1.4000e+000 85133 -1.4282e+001 -3.1079e+001 -1.1153e+001 52226 84977,85107,85003
 1.4000e+000 85251 -1.2220e+001 -4.3477e+001 -8.6347e+000 52226 85107,85081,85225
 1.4000e+000 85274 -6.8933e+000 -3.8086e+001 -1.1529e+001 52226 85107,85225,85003
 1.4000e+000 85522  1.2123e+000 -3.0316e+001  2.0841e+000 51764 85297,85349,85323
 1.4000e+000 85499 -3.6590e+000 -4.3229e+001  3.0427e+000 51764 85545,85297,85427
 1.4000e+000 85476 -1.0786e+001 -3.8161e+001 -5.1285e-001 51764 85545,85427,85375
 1.4000e+000 85453 -1.0536e+001 -4.0286e+001 -1.7198e+000 51764 85375,85427,85401
 1.4000e+000 85571  5.7844e-001 -4.0363e+001  1.6757e+000 51764 85349,85297,85545
 1.4000e+000 85594 -3.9672e+000 -3.3432e+001 -2.6222e+000 51764 85349,85545,85375
 1.4000e+000 85746 -6.8539e+000 -4.2869e+001 -2.1291e+000 51374 85645,85697,85671
 1.4000e+000 85723 -6.7653e+000 -5.0601e+001  1.1213e+000 51374 85619,85697,85645
 1.4000e+000 86256 -7.6771e+000 -2.7382e+001 -4.2178e+000 50970 86279,86011,85959
 1.4000e+000 86233 -6.0424e+000 -3.3139e+001 -3.2074e+000 50970 86279,85959,86115
 1.4000e+000 86210 -8.0230e+000 -2.7415e+001 -1.6742e+000 50970 85959,86011,85985
 1.4000e+000 86187 -1.2638e+001 -4.1719e+001 -5.8763e+000 50970 86037,86115,86089
 1.4000e+000 86164  4.4872e+000 -2.9127e+001 -7.6504e+000 50970 85933,86115,85959
 1.4000e+000 86141 -5.7373e+000 -2.2315e+001 -2.6942e+000 50970 86037,86089,86063
 1.4000e+000 86305 -7.8912e+000 -2.1424e+001 -3.4775e+000 50970 86037,86011,86279
 1.4000e+000 86328 -6.5965e+000 -2.7611e+001 -2.4252e+000 50970 86037,86279,86115
 1.4000e+000 86478  3.4299e+001 -7.1213e+001  8.2907e+000 50451 86351,86403,86377
 1.4000e+000 86455  9.7081e+000 -1.3499e+002  1.4216e+001 50451 86351,86429,86403
 1.4000e+000 86907 -2.3838e+000 -4.1152e+001  3.5133e+000 50047 86930,86714,86662
 1.4000e+000 86884 -5.3478e+000 -4.3177e+001  2.5013e+000 50047 86930,86662,86610
 1.4000e+000 86861 -3.9971e+000 -6.1337e+001  4.1892e+000 50047 87002,86740,86714
 1.4000e+000 86838  1.4724e+001 -3.5866e+001  2.0943e+001 50047 86662,86714,86688
 1.4000e+000 86815 -1.2495e+000 -3.6545e+001 -9.0096e-001 50047 86610,86662,86636
 1.4000e+000 86792  2.7867e+000 -3.5050e+001 -6.4620e+000 50047 86584,86766,86610
 1.4000e+000 86956 -1.7293e+000 -4.6088e+001  4.6668e+000 50047 87002,86714,86930
 1.4000e+000 86979 -2.8241e+000 -3.6446e+001  2.9726e-001 50047 86766,86930,86610
 1.4000e+000 87028 -5.7886e+000 -4.6543e+001 -1.2621e+000 50047 86766,86740,87002
 1.4000e+000 87051 -6.4038e+000 -4.5036e+001 -1.8532e-001 50047 86766,87002,86930
 1.4000e+000 87250 -9.6566e+000 -5.3715e+001 -3.4410e+000 49543 87273,87126,87100
 1.4000e+000 87227 -5.0128e+000 -5.0935e+001 -2.2818e+000 49543 87273,87100,87074
 1.4000e+000 87204 -2.3515e+001 -3.8404e+001 -2.2405e+000 49543 87126,87178,87152
 1.4000e+000 87299 -1.3363e+001 -5.0361e+001  1.2711e+000 49543 87178,87126,87273
 1.4000e+000 87322 -7.3345e+000 -4.7474e+001  2.2912e+000 49543 87178,87273,87074
 1.4000e+000 87570  3.9321e+000 -3.4062e+001  9.4505e-001 49146 87593,87449,87397
 1.4000e+000 87547  3.9279e+000 -3.2540e+001  3.9551e+000 49146 87593,87397,87371
 1.4000e+000 87524 -9.2145e+000 -3.8061e+001 -9.9672e-002 49146 87345,87475,87371
 1.4000e+000 87501  4.1982e+000 -4.0715e+001 -1.2235e+000 49146 87397,87449,87423
 1.4000e+000 87619  1.6568e-001 -3.4660e+001 -4.2034e-001 49146 87475,87449,87593
 1.4000e+000 87642  1.5865e+000 -3.3372e+001  2.4152e+000 49146 87475,87593,87371
 1.4000e+000 88073 -9.6289e+000 -5.1985e+001  2.4752e-001 48706 87854,87932,87880
 1.4000e+000 88050 -1.3147e+001 -5.9676e+001  1.2413e+000 48706 87828,87932,87854
 1.4000e+000 88027 -1.2593e+001 -5.1873e+001  7.9892e-001 48706 87750,87932,87828
 1.4000e+000 88004 -3.5837e+000 -1.1042e+002  9.3630e+000 48706 87750,87802,87776
 1.4000e+000 87981 -2.5117e+001 -1.0025e+002 -6.6715e+000 48706 87750,87828,87802
 1.4000e+000 87958 -1.3163e+001 -5.1983e+001 -2.0722e+000 48706 87880,87932,87906
 1.4000e+000 88402 -7.9457e+000 -5.3201e+001 -3.3065e+000 48145 88203,88281,88255
 1.4000e+000 88379 -1.3109e+001 -5.5933e+001 -5.3344e+000 48145 88203,88307,88281
 1.4000e+000 88356  8.7395e-002 -5.2189e+001 -5.3847e+000 48145 88203,88255,88229
 1.4000e+000 88333 -6.2140e+000 -5.2032e+001  1.6326e+000 48145 88177,88307,88203
 1.4000e+000 88601 -6.6341e+000 -4.3297e+001  3.1209e+000 47805 88696,88624,88477
 1.4000e+000 88578 -2.3905e+001 -5.5905e+001 -9.4359e+000 47805 88826,88624,88451
 1.4000e+000 88555 -2.2290e+001 -5.5578e+001 -1.0096e+001 47805 88826,88451,88425
 1.4000e+000 88650 -1.3783e+001 -5.7891e+001 -5.8580e+000 47805 88503,88477,88624
 1.4000e+000 88673 -2.2568e+001 -5.8177e+001 -7.3851e+000 47805 88503,88624,88529
 1.4000e+000 88722 -4.3838e+001 -6.4066e+001 -6.4653e+000 47805 88451,88624,88696
 1.4000e+000 88852 -2.4908e+001 -5.6434e+001 -7.5947e+000 47805 88529,88624,88826
 1.4000e+000 88875 -2.3124e+001 -5.5939e+001 -8.2789e+000 47805 88529,88826,88425
 1.4000e+000 89172 -6.4031e+000 -4.0050e+001 -3.6339e+000 47401 89195,88976,88898
 1.4000e+000 89149 -6.8206e+000 -3.9421e+001 -9.0570e+000 47401 89195,88898,89054
 1.4000e+000 89126 -9.5872e+000 -4.0759e+001 -3.0644e+000 47401 88898,88976,88950
 1.4000e+000 89103 -1.0595e+001 -4.3707e+001 -3.4349e+000 47401 88976,89028,89002
 1.4000e+000 89080 -1.4952e+001 -5.0227e+001  3.2816e+000 47401 88898,88950,88924
 1.4000e+000 89221 -9.1755e+000 -4.6241e+001 -3.0939e+000 47401 89028,88976,89195
 1.4000e+000 89244 -8.7069e+000 -4.4062e+001 -8.9536e+000 47401 89028,89195,89054
 1.4000e+000 89575 -2.9711e+000 -5.6020e+001 -5.6391e+000 47111 89350,89454,89376
 1.4000e+000 89552 -1.0403e+001 -6.7739e+001  4.8506e-002 47111 89350,89480,89454
 1.4000e+000 89529 -2.0943e+001 -5.6200e+001 -6.8537e-001 47111 89376,89454,89402
 1.4000e+000 89506 -1.5569e+001 -4.8057e+001  4.6010e+000 47111 89402,89454,89428
 1.4000e+000 89904 -9.0872e-001 -4.9298e+001 -2.4650e+000 46707 89705,89757,89731
 1.4000e+000 89881 -9.2419e+000 -5.3378e+001 -9.3549e-001 46707 89705,89783,89757
 1.4000e+000 89858 -4.3314e+000 -5.1291e+001 -8.0657e-001 46707 89679,89783,89705
 1.4000e+000 89835  2.8690e+000 -4.9999e+001 -4.5761e+000 46707 89679,89809,89783
 1.4000e+000 90233 -5.8447e-001 -4.8488e+001 -5.4235e+000 46360 90034,90112,90086
 1.4000e+000 90210 -1.6370e+001 -5.1026e+001 -3.4330e+000 46360 90034,90138,90112
 1.4000e+000 90187 -6.8937e+000 -6.0620e+001 -1.4007e+000 46360 90034,90086,90060
 1.4000e+000 90164 -9.9785e+000 -5.4689e+001  6.9376e+000 46360 90008,90138,90034
 1.4000e+000 90530 -8.9158e+000 -4.3180e+001 -1.8628e+000 45662 90256,90360,90308
 1.4000e+000 90507 -9.3904e+000 -4.6746e+001  3.3795e-001 45662 90256,90412,90360
 1.4000e+000 90484 -5.8342e+000 -4.6316e+001 -4.0588e+000 45662 90256,90308,90282
 1.4000e+000 90461 -6.7590e+000 -3.6987e+001  2.3180e+000 45662 90360,90412,90386
 1.4000e+000 90438 -1.3852e+001 -3.8170e+001  1.1664e+000 45662 90308,90360,90334
 1.4000e+000 90910 -2.6934e+001 -6.3994e+001 -6.7598e+000 45108 90688,90766,90714
 1.4000e+000 90887 -1.8238e+001 -5.6478e+001 -1.6275e+000 45108 90662,90766,90688
 1.4000e+000 90864 -2.7272e+001 -5.6649e+001 -1.4011e+000 45108 90636,90766,90662
 1.4000e+000 90841 -1.6158e+001 -8.5389e+001 -1.6600e+001 45108 90714,90766,90740
 1.4000e+000 90818 -2.4902e+001 -4.5243e+001 -6.8438e+000 45108 90636,90792,90766
 1.4000e+000 91158 -1.2959e+000 -4.9318e+001 -5.3321e+000 44604 91181,91011,90959
 1.4000e+000 91135  5.1308e+000 -4.9002e+001 -6.9997e+000 44604 91181,90959,90933
 1.4000e+000 91112 -4.3322e+000 -5.6783e+001 -1.1663e+000 44604 90959,91011,90985
 1.4000e+000 91089 -2.9977e+000 -5.6455e+001  6.1159e+000 44604 90933,91063,91037
 1.4000e+000 91207 -4.6402e+000 -4.8565e+001 -3.0819e+000 44604 91037,91011,91181
 1.4000e+000 91230 -5.3162e-002 -5.1863e+001 -3.1139e+000 44604 91037,91181,90933
 1.4000e+000 91429 -7.5290e+000 -4.7007e+001 -3.7181e+000 44264 91452,91279,91253
 1.4000e+000 91406 -7.3064e+000 -5.1959e+001 -3.7482e+000 44264 91452,91253,91357
 1.4000e+000 91383 -1.1243e+001 -4.7642e+001 -6.5660e+000 44264 91279,91331,91305
 1.4000e+000 91478 -8.0719e+000 -4.4144e+001 -3.7106e+000 44264 91331,91279,91452
 1.4000e+000 91501 -6.3954e+000 -4.7263e+001 -2.8929e+000 44264 91331,91452,91357
 1.4000e+000 92060 -2.3081e+001 -5.1383e+001 -5.7402e-001 43860 92083,91740,91688
 1.4000e+000 92037 -4.9016e+000 -5.1503e+001  4.4611e+000 43860 92083,91688,91896
 1.4000e+000 92014 -1.6118e+001 -6.0949e+001  2.3550e+000 43860 91766,91870,91844
 1.4000e+000 91991 -1.8904e+000 -4.8737e+001  9.1926e+000 43860 91740,91870,91766
 1.4000e+000 91968 -1.6573e+000 -4.8798e+001  9.5774e+000 43860 91766,91844,91792
 1.4000e+000 91945 -1.4334e+001 -6.3180e+001 -1.4316e+001 43860 91688,91740,91714
 1.4000e+000 91922 -4.6817e+000 -7.2121e+001  3.4451e+000 43860 91792,91844,91818
 1.4000e+000 92109 -7.2540e+000 -5.1522e+001  8.1620e+000 43860 91870,91740,92083
 1.4000e+000 92132  1.1539e+001 -4.9438e+001  1.4369e+001 43860 91870,92083,91896
 1.4000e+000 92353 -1.1121e+001 -5.8110e+001 -4.1707e+000 43662 92203,92255,92229
 1.4000e+000 92330 -1.7142e+001 -5.9123e+001 -9.9222e-001 43662 92376,92203,92281
 1.4000e+000 92307 -2.5073e+000 -4.0931e+001  5.3813e+000 43662 92177,92281,92203
 1.4000e+000 92402 -2.9898e+001 -6.4535e+001  1.2080e+000 43662 92255,92203,92376
 1.4000e+000 92682 -6.6629e+000 -5.1335e+001 -2.4420e+000 43464 92532,92584,92558
 1.4000e+000 92659 -1.0979e+001 -4.8115e+001 -1.5544e+000 43464 92506,92584,92532
 1.4000e+000 92636 -7.8311e+000 -4.6656e+001 -1.9392e+000 43464 92506,92610,92584
 1.4000e+000 93013 -1.0155e+001 -6.8447e+001 -1.3095e+001 42960 92866,92918,92892
 1.4000e+000 92990 -1.7827e+001 -6.4227e+001 -5.1842e+000 42960 93036,92918,92866
 1.4000e+000 92967 -9.6117e+000 -7.0705e+001 -1.0368e+000 42960 93036,92866,92840
 1.4000e+000 92944 -1.3104e+001 -5.7366e+001  8.4395e-001 42960 92788,92918,92814
 1.4000e+000 93062 -1.3372e+001 -6.3258e+001 -1.5062e+000 42960 92814,92918,93036
 1.4000e+000 93085  3.4740e+000 -6.2702e+001  3.6980e+000 42960 92814,93036,92840
 1.4000e+000 93186 -1.3633e+001 -5.2433e+001 -8.4436e+000 42556 93108,93160,93134
 1.4000e+000 93554 -1.0145e+001 -5.5231e+001  1.5512e+000 42052 93231,93387,93361
 1.4000e+000 93531 -1.2008e+001 -5.1682e+001  9.0791e+000 42052 93231,93413,93387
 1.4000e+000 93508 -1.9446e+001 -5.4834e+001  3.6004e+000 42052 93231,93361,93257
 1.4000e+000 93485  2.9444e+000 -4.7602e+001  1.2976e+001 42052 93283,93361,93335
 1.4000e+000 93462 -7.5106e+000 -4.7562e+001  6.9055e+000 42052 93257,93361,93283
 1.4000e+000 93439  7.2155e+001 -1.2074e+001 -1.6425e+001 42052 93283,93335,93309
 1.4000e+000 94162 -5.8000e+000 -4.9897e+001 -8.4444e+000 41498 93767,93975,93793
 1.4000e+000 94139  5.9299e+000 -4.3087e+001  2.7033e+000 41498 93741,93975,93767
 1.4000e+000 94116 -8.5235e+000 -4.0191e+001 -5.8229e+000 41498 93793,93975,93923
 1.4000e+000 94093 -1.3658e+001 -5.2613e+001  3.8082e+000 41498 93923,93975,93949
 1.4000e+000 94070 -2.0962e+001 -3.0748e+001 -1.2353e+001 41498 93871,93923,93897
 1.4000e+000 94047 -5.7584e+000 -3.6484e+001 -8.6583e+000 41498 93793,93923,93871
 1.4000e+000 94024 -9.0146e+000 -3.5603e+001 -1.7099e+000 41498 93819,93871,93845
 1.4000e+000 94001 -1.0546e+001 -3.3741e+001 -5.2101e+000 41498 93793,93871,93819
 1.4000e+000 94619 -2.1064e+001 -5.0559e+001 -1.0567e+001 40930 94642,94423,94371
 1.4000e+000 94596 -1.6189e+001 -5.0317e+001 -5.9248e+000 40930 94642,94371,94345
 1.4000e+000 94573 -1.9212e+001 -5.7123e+001 -2.7033e+000 40930 94345,94501,94475
 1.4000e+000 94550 -1.1902e+001 -5.7909e+001 -1.2945e+001 40930 94371,94423,94397
 1.4000e+000 94527 -2.1404e+001 -3.7287e+001 -2.2820e+000 40930 94423,94475,94449
 1.4000e+000 94668 -1.6880e+001 -4.3027e+001 -8.3908e+000 40930 94475,94423,94642
 1.4000e+000 94691 -1.4693e+001 -4.7657e+001 -4.4625e+000 40930 94475,94642,94345
 1.4000e+000 95148 -9.1610e+000 -5.4248e+001  1.0991e+001 40362 95171,94952,94926
 1.4000e+000 95125 -1.0681e+001 -5.6471e+001  4.4446e+000 40362 95171,94926,95004
 1.4000e+000 95102 -1.2423e+001 -5.1334e+001  5.9462e+000 40362 94874,95004,94926
 1.4000e+000 95079  8.9047e+000 -4.9323e+001  1.5916e+001 40362 94874,95030,95004
 1.4000e+000 95056 -9.6453e+000 -6.9015e+001 -1.6926e+001 40362 94874,94926,94900
 1.4000e+000 95197 -1.1789e+001 -6.0529e+001  1.0120e+001 40362 94978,94952,95171
 1.4000e+000 95220 -1.3158e+001 -6.2376e+001  3.7798e+000 40362 94978,95171,95004
 1.4000e+000 95549 -2.2829e+001 -4.9592e+001  2.5611e+000 39586 95350,95402,95376
 1.4000e+000 95526 -1.3558e+001 -4.6489e+001  1.5622e+000 39586 95324,95402,95350
 1.4000e+000 95503 -1.6310e+001 -4.6228e+001  5.8924e+000 39586 95324,95454,95402
 1.4000e+000 95480 -1.9644e+001 -5.9604e+001  4.6087e+000 39586 95402,95454,95428
 1.4000e+000 96055 -3.6364e+000 -3.4318e+001 -7.6894e-001 38968 96078,95862,95810
 1.4000e+000 96032 -1.0854e+001 -3.3771e+001 -3.4231e+000 38968 96078,95810,95758
 1.4000e+000 96009 -7.3182e-001 -3.8040e+001 -5.6818e+000 38968 96150,95732,95888
 1.4000e+000 95986 -6.6112e+000 -3.3740e+001  1.4860e+000 38968 95810,95862,95836
 1.4000e+000 95963  8.3887e-001 -3.5807e+001 -7.9837e+000 38968 95732,95914,95888
 1.4000e+000 95940 -1.7372e+001 -4.0041e+001  8.5897e-001 38968 95758,95810,95784
 1.4000e+000 96104 -3.1200e+000 -3.4943e+001 -2.0053e-001 38968 95888,95862,96078
 1.4000e+000 96127 -5.8256e+000 -3.6435e+001 -9.9083e-001 38968 96150,95888,96078
 1.4000e+000 96176  6.6369e+000 -3.0875e+001 -9.4603e+000 38968 95758,95732,96150
 1.4000e+000 96199  1.1721e+000 -2.8108e+001 -5.0334e+000 38968 95758,96150,96078
 1.4000e+000 96545 -7.8850e+000 -5.1447e+001 -1.5732e+000 38507 96640,96568,96352
 1.4000e+000 96522 -1.6630e+001 -5.8789e+001  3.2460e+000 38507 96568,96300,96222
 1.4000e+000 96499 -5.5465e+000 -4.7790e+001 -7.6978e+000 38507 96640,96352,96326
 1.4000e+000 96476 -9.5698e+000 -5.3832e+001  7.6563e-001 38507 96352,96404,96378
 1.4000e+000 96453 -2.6198e+001 -7.4177e+001 -8.4955e-001 38507 96222,96300,96248
 1.4000e+000 96430 -2.2734e+001 -8.4315e+001 -7.4985e+000 38507 96248,96300,96274
 1.4000e+000 96594 -1.0151e+001 -5.6565e+001  3.0242e-001 38507 96404,96352,96568
 1.4000e+000 96617 -1.0092e+001 -5.2543e+001 -9.4639e-002 38507 96404,96568,96222
 1.4000e+000 96666 -1.2147e+001 -6.0707e+001  9.9247e-001 38507 96300,96568,96640
 1.4000e+000 96689 -1.1614e+001 -5.8040e+001 -4.5481e+000 38507 96300,96640,96326
 1.4000e+000 97069 -8.4165e+000 -3.9092e+001 -1.7367e-001 37760 97092,96873,96821
 1.4000e+000 97046 -8.5490e+000 -3.9163e+001 -3.5225e-002 37760 97092,96821,96795
 1.4000e+000 97023 -1.0221e+001 -4.8144e+001  2.5711e+000 37760 96821,96873,96847
 1.4000e+000 97000 -9.5708e+000 -3.9668e+001 -1.0759e+000 37760 96873,96925,96899
 1.4000e+000 96977 -2.2151e+001 -4.2485e+001  8.9091e+000 37760 96795,96951,96925
 1.4000e+000 97118 -8.1662e+000 -3.8702e+001 -4.5069e-001 37760 96925,96873,97092
 1.4000e+000 97141 -8.6539e+000 -3.8934e+001 -2.7026e-001 37760 96925,97092,96795
 1.4000e+000 97647 -1.7699e+001 -5.4721e+001  1.5818e-001 37356 97324,97480,97376
 1.4000e+000 97624 -6.7324e+000 -5.2847e+001  4.2693e+000 37356 97324,97506,97480
 1.4000e+000 97601 -2.2570e+001 -5.3072e+001 -5.7714e-001 37356 97376,97480,97454
 1.4000e+000 97578 -2.2091e+001 -6.4015e+001  1.5037e+000 37356 97324,97376,97350
 1.4000e+000 97555 -7.1972e+000 -4.1802e+001  9.4215e+000 37356 97376,97454,97402
 1.4000e+000 97532 -3.1320e+001 -6.6530e+001 -4.1468e-001 37356 97402,97454,97428
 1.4000e+000 98232 -1.1004e+001 -3.1948e+001 -4.1294e+000 36902 97935,98065,98013
 1.4000e+000 98209  6.1894e+000 -2.5713e+001 -3.5836e+000 36902 97935,98091,98065
 1.4000e+000 98186  1.0998e+001 -2.0288e+001 -8.5794e+000 36902 97935,98013,97987
 1.4000e+000 98163  2.1248e+001 -2.8683e+001  2.1213e+000 36902 97909,98091,97935
 1.4000e+000 98140  3.3199e+000 -3.3696e+001 -5.4158e+000 36902 97935,97987,97961
 1.4000e+000 98117 -1.0247e+001 -2.9852e+001 -4.3728e+000 36902 98013,98065,98039
 1.4000e+000 98659 -1.3658e+001 -6.2430e+001 -3.8965e+000 36604 98682,98414,98388
 1.4000e+000 98636 -1.8062e+001 -6.2561e+001  3.6611e+000 36604 98682,98388,98336
 1.4000e+000 98613 -1.9387e+001 -5.4917e+001 -5.2811e-001 36604 98754,98518,98466
 1.4000e+000 98590 -6.0814e+000 -4.5452e+001 -4.3844e+000 36604 98414,98466,98440
 1.4000e+000 98567 -1.3299e+001 -8.1772e+001  3.7099e+000 36604 98336,98388,98362
 1.4000e+000 98544 -1.0166e+001 -5.8765e+001  2.4126e+001 36604 98466,98518,98492
 1.4000e+000 98708 -1.1438e+001 -5.4195e+001 -7.2417e+000 36604 98466,98414,98682
 1.4000e+000 98731 -1.7165e+001 -5.8935e+001 -7.9330e-001 36604 98754,98466,98682
 1.4000e+000 98780 -1.7692e+001 -5.3757e+001  2.4587e-002 36604 98336,98518,98754
 1.4000e+000 98803 -1.3199e+001 -5.5377e+001  7.1830e-001 36604 98336,98754,98682
 1.4000e+000 99309 -1.2538e+001 -4.5955e+001  6.7145e+000 36200 99332,99116,99012
 1.4000e+000 99286 -1.1374e+001 -3.1937e+001  1.0410e-001 36200 99332,99012,98986
 1.4000e+000 99263 -1.2817e+001 -3.4016e+001  1.0091e+001 36200 99012,99116,99064
 1.4000e+000 99240  9.3785e+000 -4.7720e+001 -1.3462e+001 36200 98986,99168,99142
 1.4000e+000 99217 -2.2851e+001 -3.4988e+001  1.0170e+001 36200 99064,99116,99090
 1.4000e+000 99194 -2.2306e+001 -3.7022e+001  3.7389e+000 36200 99012,99064,99038
 1.4000e+000 99358 -1.3775e+001 -5.5758e+001  1.1232e+001 36200 99142,99116,99332
 1.4000e+000 99381 -1.3608e+001 -4.6535e+001  3.2711e+000 36200 99142,99332,98986
 1.4000e+000 99887 -2.8220e+001 -4.8377e+001  3.4510e+000 35488 99564,99720,99590
 1.4000e+000 99864 -2.5983e+001 -4.3240e+001  3.7617e+000 35488 99564,99746,99720
 1.4000e+000 99841 -1.8823e+001 -5.2464e+001 -5.5740e-001 35488 99642,99694,99668
 1.4000e+000 99818 -2.2872e+001 -5.7395e+001  4.8540e+000 35488 99590,99694,99642
 1.4000e+000 99795 -1.6114e+001 -4.3650e+001  2.1803e+000 35488 99590,99720,99694
 1.4000e+000 99772 -1.3203e+001 -7.2681e+001  5.8777e+000 35488 99590,99642,99616
 1.4000e+000 99988  7.7023e+000 -4.9918e+001  1.4922e+001 35198 99910,99962,99936
 1.4000e+000 100138 -1.4146e+001 -6.2671e+001  3.0205e+000 34794 100233,100161,100063
 1.4000e+000 100115 -3.0542e+001 -6.9604e+001  6.1843e-001 34794 100365,100161,100037
 1.4000e+000 100187 -8.7004e+000 -5.9586e+001  1.3814e+000 34794 100089,100063,100161
 1.4000e+000 100210 -9.2279e+000 -5.5093e+001  4.3291e+000 34794 100089,100161,100011
 1.4000e+000 100259 -2.3697e+001 -7.8766e+001 -7.2419e+000 34794 100037,100161,100233
 1.4000e+000 100391 -3.5624e-001 -4.5928e+001 -9.8620e+000 34794 100011,100161,100365
 1.4000e+000 100927 -3.8827e+000 -4.3147e+001 -1.2813e+000 34404 100679,100809,100783
 1.4000e+000 100904 -5.9031e+000 -4.1400e+001 -9.8338e-001 34404 100653,100809,100679
 1.4000e+000 100881 -1.4581e+001 -5.1829e+001 -7.2950e-001 34404 100705,100783,100731
 1.4000e+000 100858 -1.2869e+001 -4.8029e+001  1.2164e+000 34404 100679,100783,100705
 1.4000e+000 100835 -1.7486e+001 -5.6825e+001 -2.0957e+000 34404 100731,100783,100757
 1.4000e+000 101354 -1.0836e+001 -5.4212e+001  1.4247e+000 34000 101377,101109,101057
 1.4000e+000 101331 -1.7369e+001 -5.5908e+001  1.9348e+000 34000 101449,101377,101057
 1.4000e+000 101308 -1.8409e+001 -5.5958e+001  1.6298e+000 34000 101449,101057,101031
 1.4000e+000 101285 -2.0672e+001 -5.7899e+001  1.5023e+001 34000 101031,101213,101187
 1.4000e+000 101262 -1.6659e+001 -7.1596e+001 -8.8460e+000 34000 101135,101187,101161
 1.4000e+000 101239 -2.6047e+000 -5.2357e+001 -3.2271e-001 34000 101057,101109,101083
 1.4000e+000 101403 -1.3544e+001 -4.9916e+001 -5.0613e+000 34000 101135,101109,101377
 1.4000e+000 101426 -2.2413e+001 -5.4197e+001 -2.8177e+000 34000 101135,101377,101187
 1.4000e+000 101475 -1.5663e+001 -5.6450e+001  1.5188e+000 34000 101187,101377,101449
 1.4000e+000 101498 -1.6769e+001 -5.6529e+001  1.4723e+000 34000 101187,101449,101031
 1.4000e+000 102083 -2.4538e+000 -4.3917e+001  1.4309e+000 33472 102106,101812,101786
 1.4000e+000 102060 -1.0282e+001 -4.5674e+001 -7.1285e-001 33472 102106,101786,101916
 1.4000e+000 102037 -1.5062e+001 -5.0115e+001 -3.1270e+000 33472 101812,101864,101838
 1.4000e+000 102014 -9.4952e+000 -5.7272e+001 -3.0699e+000 33472 101864,101916,101890
 1.4000e+000 101991 -2.0128e+001 -4.6942e+001 -3.0682e+000 33472 101786,101942,101916
 1.4000e+000 101968 -2.4744e+001 -4.6834e+001  7.8782e+000 33472 101760,101942,101786
 1.4000e+000 102132 -7.8298e+000 -4.6162e+001 -1.5997e+000 33472 101864,101812,102106
 1.4000e+000 102155 -1.1111e+001 -4.5979e+001 -4.0286e+000 33472 101864,102106,101916
 1.4000e+000 102612 -1.8451e+001 -5.4184e+001 -7.6090e+000 33038 102635,102468,102390
 1.4000e+000 102589 -2.7703e+001 -6.6104e+001 -1.4781e+001 33038 102635,102390,102364
 1.4000e+000 102566 -2.3088e+001 -4.3981e+001 -4.3687e+000 33038 102390,102468,102442
 1.4000e+000 102543 -6.6518e+000 -4.6173e+001 -2.5039e+000 33038 102338,102494,102364
 1.4000e+000 102520 -1.9670e+001 -4.2717e+001 -4.5598e+000 33038 102390,102442,102416
 1.4000e+000 102661 -1.6870e+001 -5.0954e+001 -1.3379e+000 33038 102494,102468,102635
 1.4000e+000 102684 -1.7747e+001 -5.6930e+001 -7.2002e+000 33038 102494,102635,102364
 1.4000e+000 103318 -2.2911e+001 -4.2474e+001  2.0920e+000 32402 102972,103128,103076
 1.4000e+000 103295 -2.1655e+001 -4.3787e+001  1.7003e+000 32402 102946,103128,102972
 1.4000e+000 103272 -2.4594e+001 -4.7567e+001  4.1286e+000 32402 103076,103128,103102
 1.4000e+000 103249 -2.0168e+001 -4.2503e+001  1.0563e+001 32402 102946,103154,103128
 1.4000e+000 103226 -2.2642e+001 -4.0079e+001 -1.2246e-002 32402 102972,103076,102998
 1.4000e+000 103203 -2.2381e+001 -4.0307e+001 -2.1645e-001 32402 102998,103076,103050
 1.4000e+000 103180 -2.1981e+001 -3.6487e+001 -1.4466e+000 32402 102998,103050,103024
 1.4000e+000 103696  8.5426e-001 -4.4317e+001 -4.5339e+000 31924 103448,103526,103500
 1.4000e+000 103673  3.4781e+000 -4.5050e+001 -1.1940e+001 31924 103448,103578,103526
 1.4000e+000 103650 -5.3935e+000 -3.3614e+001 -3.8898e+000 31924 103448,103500,103474
 1.4000e+000 103627  1.5055e+001 -5.6585e+001 -9.1854e+000 31924 103422,103578,103448
 1.4000e+000 103604  1.7703e+001 -6.3264e+001 -1.0604e+001 31924 103526,103578,103552
 1.4000e+000 104281 -1.2703e+001 -3.2230e+001 -1.1042e-001 31520 104304,104062,104036
 1.4000e+000 104258 -2.2127e+001 -3.2759e+001 -1.4083e+000 31520 104304,104036,103984
 1.4000e+000 104235 -2.4682e+001 -4.2214e+001 -1.3854e+001 31520 104062,104114,104088
 1.4000e+000 104212 -1.9428e+001 -3.4069e+001 -5.2698e+000 31520 103958,104114,103984
 1.4000e+000 104189 -2.2857e+001 -3.4494e+001 -2.2520e+000 31520 103984,104036,104010
 1.4000e+000 104166 -1.7477e+001 -3.6212e+001 -5.9350e+000 31520 103958,104140,104114
 1.4000e+000 104330 -1.0231e+001 -3.4366e+001 -4.2650e+000 31520 104114,104062,104304
 1.4000e+000 104353 -1.5244e+001 -3.2636e+001 -3.8173e+000 31520 104114,104304,103984
 1.4000e+000 104704  7.4638e+000 -2.4705e+001  1.7488e+000 31066 104479,104583,104505
 1.4000e+000 104681  1.5393e+001 -1.7245e+001 -2.0714e+000 31066 104479,104609,104583
 1.4000e+000 104658  2.7277e+001 -4.7079e+001  1.9062e+000 31066 104505,104557,104531
 1.4000e+000 104635  1.8858e+001 -2.4702e+001  9.3453e-001 31066 104505,104583,104557
 1.4000e+000 104925 -1.2844e+001 -6.9280e+001 -1.1291e-001 30754 104775,104827,104801
 1.4000e+000 104902 -1.2397e+001 -5.9257e+001 -3.2491e-001 30754 104775,104853,104827
 1.4000e+000 104879 -1.1138e+001 -5.8555e+001  1.9450e+000 30754 104749,104853,104775
 1.4000e+000 105482 -2.0885e+001 -5.8917e+001 -1.5159e+000 30164 105505,105136,105110
 1.4000e+000 105459 -2.1246e+001 -6.7600e+001  1.7310e+000 30164 105649,105505,105110
 1.4000e+000 105436 -2.5253e+001 -5.7925e+001 -1.6988e+000 30164 105577,105188,105136
 1.4000e+000 105413 -2.0524e+001 -6.9121e+001  1.3750e+001 30164 105649,105110,105318
 1.4000e+000 105390 -2.7301e+001 -7.5333e+001  1.1524e+001 30164 105214,105292,105240
 1.4000e+000 105367 -1.9163e+001 -5.9104e+001  1.5873e+000 30164 105240,105292,105266
 1.4000e+000 105344 -1.6881e+001 -5.0208e+001 -4.9165e+000 30164 105136,105188,105162
 1.4000e+000 105531 -2.1284e+001 -5.6063e+001 -5.1884e-001 30164 105577,105136,105505
 1.4000e+000 105554 -1.7416e+001 -5.4843e+001  3.6255e+000 30164 105214,105505,105292
 1.4000e+000 105603 -2.2443e+001 -5.6225e+001  2.4588e+000 30164 105214,105188,105577
 1.4000e+000 105626 -2.0207e+001 -5.5015e+001  3.6111e+000 30164 105214,105577,105505
 1.4000e+000 105675 -1.3650e+001 -4.8801e+001  5.8400e+000 30164 105292,105505,105649
 1.4000e+000 105698 -1.3038e+001 -4.3555e+001  1.5731e+001 30164 105292,105649,105318
 1.4000e+000 106027  8.8154e-001 -3.9057e+001 -1.8900e+000 29868 106322,106050,105880
 1.4000e+000 106004 -2.1231e+000 -3.0084e+001 -9.7675e+000 29868 106250,106050,105828
 1.4000e+000 105981  1.7527e+000 -3.3447e+001 -1.9454e+001 29868 106250,105828,105802
 1.4000e+000 105958 -5.5850e+000 -3.4358e+001  3.9131e+000 29868 106322,105880,106122
 1.4000e+000 106076 -5.8647e+000 -5.9377e+001  4.2073e-001 29868 105906,105880,106050
 1.4000e+000 106099 -9.7886e-001 -4.3261e+001 -3.9234e+000 29868 105906,106050,105932
 1.4000e+000 106148 -2.2613e+001 -4.6697e+001 -3.2697e+000 29868 105854,105828,106122
 1.4000e+000 106276 -7.0271e+000 -4.4240e+001 -5.4644e+000 29868 105932,106050,106250
 1.4000e+000 106299 -1.2108e+000 -5.1140e+001 -1.6017e+001 29868 105932,106250,105802
 1.4000e+000 106348 -1.0732e+001 -4.3432e+001 -3.4759e+000 29868 105828,106050,106322
 1.4000e+000 106371 -1.5998e+001 -3.7987e+001  2.3285e+000 29868 105828,106322,106122
 1.4000e+000 106828 -7.0767e+000 -3.1014e+001  8.2958e+000 29521 106580,106710,106684
 1.4000e+000 106805 -1.3755e+001 -3.4846e+001  2.5507e+000 29521 106554,106710,106580
 1.4000e+000 106782  7.2717e-001 -2.6193e+001  1.0458e+001 29521 106580,106684,106606
 1.4000e+000 106759 -1.4892e+001 -4.6094e+001 -3.3464e+000 29521 106606,106684,106658
 1.4000e+000 106736 -1.0316e+000 -5.0126e+001 -4.2715e+000 29521 106606,106658,106632
 1.4000e+000 107027 -6.8618e+000 -4.6545e+001  1.0915e+000 29117 106877,106929,106903
 1.4000e+000 107004 -1.2946e+001 -4.9075e+001  6.0824e+000 29117 106851,106929,106877
 1.4000e+000 106981 -1.4440e+001 -4.1156e+001  5.4913e+000 29117 106851,106955,106929
 1.4000e+000 107456 -2.0750e+001 -5.1592e+001 -5.2640e+000 28656 107237,107315,107263
 1.4000e+000 107433 -1.1083e+001 -4.3827e+001 -1.7344e+000 28656 107133,107315,107237
 1.4000e+000 107410 -7.7744e+000 -3.9441e+001 -3.6997e+000 28656 107133,107237,107159
 1.4000e+000 107387 -7.0837e+000 -3.3462e+001 -5.0248e+000 28656 107159,107237,107185
 1.4000e+000 107364  4.2196e+000 -3.0829e+001 -1.2599e+001 28656 107185,107237,107211
 1.4000e+000 107341 -1.5603e+001 -4.1531e+001 -1.7385e+000 28656 107263,107315,107289
 1.4000e+000 107704 -1.5782e+001 -5.1422e+001 -2.8765e+000 27902 107727,107557,107531
 1.4000e+000 107681 -1.8102e+001 -5.6233e+001 -3.7080e+000 27902 107727,107531,107505
 1.4000e+000 107658 -1.3682e+001 -5.5754e+001 -2.0855e-001 27902 107557,107609,107583
 1.4000e+000 107635 -1.9266e+001 -6.4727e+001 -5.7704e+000 27902 107479,107609,107505
 1.4000e+000 107753 -1.3173e+001 -5.5600e+001 -6.9124e-001 27902 107609,107557,107727
 1.4000e+000 107776 -1.4967e+001 -5.9519e+001 -1.3368e+000 27902 107609,107727,107505
 1.4000e+000 108333 -2.1966e+001 -5.6411e+001 -3.8409e-001 27341 108356,108065,108013
 1.4000e+000 108310 -2.3719e+001 -5.6090e+001 -5.0978e+000 27341 108356,108013,108143
 1.4000e+000 108287 -2.0610e+001 -6.0331e+001 -4.9922e+000 27341 108428,108117,108091
 1.4000e+000 108264 -2.7785e+001 -5.7222e+001  1.3805e+000 27341 108013,108065,108039
 1.4000e+000 108241 -3.3531e+001 -5.1561e+001 -5.5241e+000 27341 107987,108143,108013
 1.4000e+000 108218 -2.2322e+001 -4.6687e+001 -6.8888e+000 27341 107987,108169,108143
 1.4000e+000 108195 -1.8846e+001 -4.3593e+001 -5.5733e+000 27341 107961,108169,107987
 1.4000e+000 108382 -2.4526e+001 -6.2468e+001 -4.3602e-001 27341 108091,108065,108356
 1.4000e+000 108405 -2.2792e+001 -5.6740e+001 -3.5627e+000 27341 108428,108091,108356
 1.4000e+000 108454 -2.4572e+001 -6.6392e+001 -6.8425e+000 27341 108143,108117,108428
 1.4000e+000 108477 -2.6082e+001 -6.1594e+001 -5.2826e+000 27341 108143,108428,108356
 1.4000e+000 108725 -9.5597e+000 -5.2853e+001 -1.9542e+000 27029 108748,108526,108500
 1.4000e+000 108702 -1.1576e+001 -4.6894e+001 -7.3415e-001 27029 108748,108500,108630
 1.4000e+000 108679 -1.5903e+001 -5.2690e+001 -1.9417e+000 27029 108578,108630,108604
 1.4000e+000 108656 -1.5661e+001 -4.2457e+001  1.8879e+001 27029 108526,108578,108552
 1.4000e+000 108774 -1.1508e+001 -5.5153e+001 -2.8522e+000 27029 108578,108526,108748
 1.4000e+000 108797 -1.5103e+001 -5.1098e+001 -2.3505e+000 27029 108578,108748,108630
 1.4000e+000 109045 -1.4592e+001 -4.8647e+001 -1.2520e+000 26610 108872,108924,108898
 1.4000e+000 109022 -1.3925e+001 -4.5478e+001  1.9514e-001 26610 108872,108950,108924
 1.4000e+000 108999 -1.6076e+001 -4.8621e+001 -1.2597e+000 26610 108846,108950,108872
 1.4000e+000 108976 -1.6614e+001 -4.2731e+001 -3.4249e-001 26610 108820,108950,108846
 1.4000e+000 109366 -5.5238e+000 -5.7545e+001 -2.1349e+000 26006 109144,109222,109196
 1.4000e+000 109343 -3.5731e+000 -5.5430e+001 -1.2739e+000 26006 109118,109222,109144
 1.4000e+000 109320 -7.6452e+000 -5.7145e+001 -1.0182e+000 26006 109092,109222,109118
 1.4000e+000 109297 -1.1125e+001 -5.9903e+001 -2.5194e+000 26006 109144,109196,109170
 1.4000e+000 109274  4.1959e+000 -4.9113e+001 -7.2414e+000 26006 109092,109248,109222
 1.4000e+000 109567 -1.1236e+001 -5.0313e+001  1.2241e+000 25659 109391,109469,109443
 1.4000e+000 109544 -1.3264e+001 -5.2283e+001  4.0116e+000 25659 109391,109495,109469
 1.4000e+000 109521 -8.5063e+000 -5.0036e+001 -1.0693e+000 25659 109391,109443,109417
 1.4000e+000 109900 -3.1634e+001 -6.4687e+001 -2.0671e-001 25255 109923,109779,109753
 1.4000e+000 109877 -2.8020e+001 -5.4965e+001  1.7161e+000 25255 109923,109753,109701
 1.4000e+000 109854 -3.0811e+001 -5.4691e+001 -8.6360e+000 25255 109675,109805,109701
 1.4000e+000 109831 -2.9946e+001 -4.3544e+001 -2.6282e+000 25255 109701,109753,109727
 1.4000e+000 109949 -3.2374e+001 -7.8210e+001 -1.0065e+001 25255 109805,109779,109923
 1.4000e+000 109972 -2.4699e+001 -6.0564e+001 -8.0709e+000 25255 109805,109923,109701
 1.4000e+000 110220 -1.8473e+000 -4.4794e+001 -4.8203e+000 24701 110243,110021,109995
 1.4000e+000 110197 -3.7560e+000 -4.7672e+001 -1.5481e+000 24701 110243,109995,110099
 1.4000e+000 110174 -4.6885e+000 -4.5030e+001  1.0293e-001 24701 110315,110073,110047
 1.4000e+000 110151 -4.8642e+000 -5.5761e+001  5.4351e-001 24701 109995,110125,110099
 1.4000e+000 110269 -1.5607e+001 -4.9428e+001 -4.8430e+000 24701 110047,110021,110243
 1.4000e+000 110292 -2.8939e+000 -4.5595e+001 -9.8019e-001 24701 110315,110047,110243
 1.4000e+000 110341 -6.8319e+000 -4.7383e+001  1.3782e+000 24701 110099,110073,110315
 1.4000e+000 110364 -4.8452e+000 -4.8136e+001  6.6791e-002 24701 110099,110315,110243
 1.4000e+000 110661 -1.4182e+001 -5.3837e+001  7.4165e-002 24197 110684,110413,110387
 1.4000e+000 110638 -1.1171e+001 -4.8173e+001 -1.5709e+000 24197 110684,110387,110543
 1.4000e+000 110615 -1.0192e+001 -6.1773e+001  5.9468e-001 24197 110756,110491,110465
 1.4000e+000 110592  3.2654e+000 -5.2058e+001  8.7805e-001 24197 110413,110465,110439
 1.4000e+000 110569 -1.0565e+001 -7.1961e+001 -1.4693e+001 24197 110491,110543,110517
 1.4000e+000 110710 -8.9941e+000 -5.1144e+001  1.8187e+000 24197 110465,110413,110684
 1.4000e+000 110733 -1.2403e+001 -5.8105e+001  1.2015e-001 24197 110756,110465,110684
 1.4000e+000 110782 -1.0515e+001 -5.7516e+001 -3.1055e+000 24197 110543,110491,110756
 1.4000e+000 110805 -1.1058e+001 -5.1731e+001 -3.5981e+000 24197 110543,110756,110684
 1.4000e+000 111315 -2.3647e+001 -6.1802e+001 -7.2755e+000 23593 111044,111148,111070
 1.4000e+000 111292 -2.6281e+001 -5.2793e+001 -3.1440e+000 23593 111044,111174,111148
 1.4000e+000 111269 -2.2618e+001 -4.9297e+001 -2.7658e-001 23593 111070,111122,111096
 1.4000e+000 111246 -2.4830e+001 -6.7249e+001 -5.8422e+000 23593 111070,111148,111122
 1.4000e+000 111223 -3.6673e+001 -6.3084e+001 -1.0478e+001 23593 111018,111174,111044
 1.4000e+000 111200 -1.5929e+001 -4.8347e+001 -3.1104e+000 23593 110992,111174,111018
 1.4000e+000 111821 -4.6672e+000 -5.4985e+001 -1.4966e+000 23089 111916,111844,111628
 1.4000e+000 111798 -1.5993e+001 -6.1291e+001 -3.5893e+000 23089 111844,111550,111524
 1.4000e+000 111775 -2.3624e+000 -5.2240e+001 -5.1084e-001 23089 111916,111628,111602
 1.4000e+000 111752 -1.1042e+001 -7.9065e+001  1.2183e+000 23089 111498,111680,111524
 1.4000e+000 111729 -1.2264e+001 -4.7852e+001 -3.9867e-001 23089 111550,111602,111576
 1.4000e+000 111706 -4.3717e+000 -4.3972e+001 -3.8263e+000 23089 111628,111680,111654
 1.4000e+000 111870 -1.2581e+001 -5.4483e+001  9.3341e-001 23089 111680,111628,111844
 1.4000e+000 111893 -1.4117e+001 -5.7678e+001  4.4793e+000 23089 111680,111844,111524
 1.4000e+000 111942 -1.1024e+001 -4.9643e+001 -2.6839e+000 23089 111550,111844,111916
 1.4000e+000 111965 -8.0751e+000 -4.6555e+001 -1.4613e+000 23089 111550,111916,111602
 1.4000e+000 112164  1.5197e+000 -4.7818e+001 -2.6544e+000 22626 112187,112014,111988
 1.4000e+000 112141 -7.1495e+000 -5.2966e+001  3.8155e-001 22626 112259,112187,111988
 1.4000e+000 112118 -9.9679e+000 -5.6818e+001  4.8572e+000 22626 112259,111988,112092
 1.4000e+000 112213 -6.4299e+000 -4.6217e+001 -3.8415e+000 22626 112040,112014,112187
 1.4000e+000 112236 -6.8257e+000 -4.4551e+001 -2.7948e+000 22626 112040,112187,112066
 1.4000e+000 112285 -8.0277e+000 -4.5288e+001 -3.1250e+000 22626 112066,112187,112259
 1.4000e+000 112308 -8.5283e+000 -4.7718e+001  8.5996e-001 22626 112066,112259,112092
 1.4000e+000 112605 -5.9804e+000 -5.2816e+001  3.6306e+000 22286 112628,112383,112357
 1.4000e+000 112582 -1.5397e+001 -5.5182e+001  2.0558e+000 22286 112772,112628,112357
 1.4000e+000 112559 -2.3877e+001 -6.1860e+001  3.8061e+000 22286 112700,112435,112409
 1.4000e+000 112536 -2.4340e+001 -5.6101e+001  3.9024e+000 22286 112772,112357,112331
 1.4000e+000 112513 -2.7292e+001 -5.5497e+001  1.1873e+000 22286 112435,112487,112461
 1.4000e+000 112654 -1.0169e+001 -4.5246e+001 -2.3166e+000 22286 112409,112383,112628
 1.4000e+000 112677 -1.9343e+001 -5.4014e+001  1.2697e+000 22286 112700,112409,112628
 1.4000e+000 112726 -1.9116e+001 -5.6023e+001 -1.9071e+000 22286 112487,112435,112700
 1.4000e+000 112749 -1.7690e+001 -5.4786e+001 -3.8243e+000 22286 112487,112700,112628
 1.4000e+000 112798 -1.1509e+001 -5.3543e+001  4.2494e-001 22286 112487,112628,112772
 1.4000e+000 112821 -1.4156e+001 -5.0645e+001  1.7210e+000 22286 112487,112772,112331
 1.4000e+000 112924 -4.7285e+000 -6.4924e+001 -4.0979e+000 21974 112846,112898,112872
 1.4000e+000 113223 -2.8281e+001 -6.1932e+001  1.6141e+000 21420 112949,113053,112975
 1.4000e+000 113200 -2.1353e+001 -5.3053e+001 -1.6212e+000 21420 112949,113079,113053
 1.4000e+000 113177 -2.3098e+001 -5.9032e+001  1.6580e-002 21420 112975,113053,113001
 1.4000e+000 113154 -2.5149e+001 -5.5419e+001  2.7369e+000 21420 113001,113053,113027
 1.4000e+000 113131 -2.8894e+001 -5.1950e+001 -3.6016e+000 21420 112949,113105,113079
 1.4000e+000 113605 -1.5519e+001 -6.5670e+001  4.6352e+000 20716 113331,113435,113357
 1.4000e+000 113582 -1.6860e+001 -5.1663e+001  5.5883e+000 20716 113331,113461,113435
 1.4000e+000 113559 -1.4223e+001 -6.6208e+001 -1.6166e+000 20716 113383,113435,113409
 1.4000e+000 113536 -1.4534e+001 -6.2441e+001 -1.7760e-001 20716 113357,113435,113383
 1.4000e+000 113513  1.4204e+001 -4.3189e+001  6.0214e+000 20716 113331,113487,113461
 1.4000e+000 113853 -1.2979e+001 -5.7983e+001  1.3339e+000 20290 113876,113680,113654
 1.4000e+000 113830 -1.1037e+001 -5.8820e+001  7.8586e-001 20290 113876,113654,113628
 1.4000e+000 113807 -1.3168e+001 -5.8429e+001 -5.2551e-001 20290 113948,113732,113680
 1.4000e+000 113784  3.0391e+000 -5.5726e+001 -3.6020e+000 20290 113680,113732,113706
 1.4000e+000 113902 -1.2351e+001 -5.8117e+001  8.9869e-001 20290 113948,113680,113876
 1.4000e+000 113925 -1.3052e+001 -6.0144e+001  1.4221e+000 20290 113758,113876,113628
 1.4000e+000 113974 -1.4724e+001 -5.8319e+001 -4.9592e-001 20290 113758,113732,113948
 1.4000e+000 113997 -1.4860e+001 -5.8822e+001  7.8708e-001 20290 113758,113948,113876
 1.4000e+000 114365 -1.1484e+001 -5.8476e+001  1.9278e-001 19900 114146,114198,114172
 1.4000e+000 114342 -1.2567e+001 -5.8999e+001 -1.9916e-001 19900 114042,114198,114146
 1.4000e+000 114319 -9.7381e+000 -5.8833e+001 -1.9501e+000 19900 114042,114224,114198
 1.4000e+000 114296 -2.3447e+001 -5.6597e+001 -8.4686e-001 19900 114094,114146,114120
 1.4000e+000 114273 -1.2676e+001 -5.4561e+001 -2.8456e+000 19900 114042,114146,114094
 1.4000e+000 114250 -9.8939e+000 -5.6433e+001 -6.6316e+000 19900 114042,114094,114068
 1.4000e+000 114566 -6.8124e+000 -5.5119e+001  1.6207e+000 19496 114442,114494,114468
 1.4000e+000 114543 -1.7344e+001 -5.4980e+001 -3.4229e+000 19496 114416,114494,114442
 1.4000e+000 114520  8.0608e-001 -5.4246e+001 -6.1751e+000 19496 114390,114494,114416
 1.4000e+000 114767 -1.5383e+001 -5.6195e+001  1.4848e-001 19042 114790,114669,114643
 1.4000e+000 114744 -1.7769e+001 -5.4849e+001  7.4256e-001 19042 114790,114643,114591
 1.4000e+000 114721 -1.9064e+001 -6.4452e+001  3.6137e+000 19042 114591,114643,114617
 1.4000e+000 114816 -1.3899e+001 -5.5100e+001 -3.2921e-001 19042 114695,114669,114790
 1.4000e+000 114839 -1.6058e+001 -5.3193e+001  5.5818e-002 19042 114695,114790,114591
 1.4000e+000 114991 -1.2382e+001 -5.5902e+001 -1.5133e+000 18488 114864,114916,114890
 1.4000e+000 114968 -1.4825e+001 -6.5484e+001  2.5937e-001 18488 114864,114942,114916
 1.4000e+000 115192 -1.3089e+001 -5.3516e+001 -1.1732e+000 18098 115215,115042,115016
 1.4000e+000 115169 -9.6123e+000 -4.9555e+001 -3.0843e+000 18098 115215,115016,115120
 1.4000e+000 115146 -1.1735e+001 -5.4586e+001  1.2479e+000 18098 115287,115094,115068
 1.4000e+000 115241 -1.0638e+001 -5.5718e+001 -2.7290e-001 18098 115068,115042,115215
 1.4000e+000 115264 -1.1395e+001 -5.4440e+001 -7.2110e-002 18098 115287,115068,115215
 1.4000e+000 115313 -9.6908e+000 -5.4181e+001  4.7066e-001 18098 115120,115094,115287
 1.4000e+000 115336 -8.7759e+000 -5.3843e+001 -7.9491e-001 18098 115120,115287,115215
 1.4000e+000 115846 -1.5884e+001 -6.4755e+001 -7.6388e+000 17644 115653,115705,115679
 1.4000e+000 115823 -2.2451e+001 -5.9427e+001 -3.3513e+000 17644 115627,115705,115653
 1.4000e+000 115800 -1.4851e+001 -5.3032e+001  1.6663e+000 17644 115549,115705,115627
 1.4000e+000 115777 -1.5868e+001 -6.0024e+001  1.2496e+000 17644 115549,115627,115575
 1.4000e+000 115754 -9.1127e+000 -4.7391e+001  6.5006e+000 17644 115523,115705,115549
 1.4000e+000 115731 -1.3009e+001 -5.5173e+001 -1.9222e+000 17644 115575,115627,115601
 1.4000e+000 116067 -1.7194e+001 -6.4961e+001 -7.2084e-001 17116 115891,115943,115917
 1.4000e+000 116044 -1.5925e+001 -7.5492e+001  1.4349e+000 17116 115891,115995,115943
 1.4000e+000 116021 -5.7380e+000 -5.8801e+001  5.7388e+000 17116 115943,115995,115969
 1.4000e+000 116288 -6.0095e+000 -5.5407e+001  8.2106e+000 16704 116164,116216,116190
 1.4000e+000 116265 -1.3372e+001 -6.9663e+001  5.1386e+000 16704 116112,116216,116164
 1.4000e+000 116242 -1.8454e+001 -6.6214e+001 -3.5825e-001 16704 116112,116164,116138
 1.4000e+000 116489 -1.7974e+001 -6.3845e+001  1.2727e+000 16434 116339,116417,116365
 1.4000e+000 116466 -1.3308e+001 -6.2461e+001  2.4527e-001 16434 116313,116417,116339
 1.4000e+000 116443 -4.0624e+001 -6.1678e+001  2.1108e+001 16434 116365,116417,116391
 1.4000e+000 116592 -1.5722e+001 -5.8141e+001 -3.7522e+000 15967 116514,116566,116540
 1.4000e+000 116695  4.1646e+000 -6.2973e+001 -1.0135e+001 15552 116617,116669,116643
 1.4000e+000 116798 -1.0347e+001 -5.4977e+001  0.0000e+000 421 116720,116772,116746
 1.5000e+000 69066 -3.9288e+000 -2.1531e+002  2.5451e+001 68738 68965,69017,68991
 1.5000e+000 69043  4.5629e+000 -2.1788e+002  6.7718e+000 68738 68939,69017,68965
 1.5000e+000 69371  1.7179e+000 -2.8766e+001 -2.2906e+000 68426 69172,69250,69198
 1.5000e+000 69348 -6.0166e+000 -4.9656e+001  8.5380e+000 68426 69146,69250,69172
 1.5000e+000 69325 -3.2558e+000 -1.7736e+001  7.1246e+000 68426 69198,69250,69224
 1.5000e+000 69302  1.4277e+001 -8.3740e+001  4.5215e+000 68426 69146,69276,69250
 1.5000e+000 69521 -8.4034e+000 -6.1716e+001  1.0143e+001 68228 69420,69472,69446
 1.5000e+000 69498 -3.4564e+000 -5.5232e+001  5.8527e+000 68228 69394,69472,69420
 1.5000e+000 69781 -2.8111e+000 -3.9400e+000  3.7980e+000 68030 69631,69683,69657
 1.5000e+000 69758 -2.0989e+000 -9.5336e+000  1.5577e+000 68030 69631,69709,69683
 1.5000e+000 69735  8.6438e-001 -5.3058e+000 -3.7127e-001 68030 69605,69709,69631
 1.5000e+000 70078 -6.4509e+000 -1.8623e+001 -9.7833e+000 67832 69882,69934,69908
 1.5000e+000 70055 -9.3808e+000 -1.9709e+001 -9.4410e+000 67832 69856,69934,69882
 1.5000e+000 70032  4.2586e+000 -3.5041e+001 -3.2641e+001 67832 69830,69934,69856
 1.5000e+000 70009 -3.8594e+000 -5.2786e+001 -1.8244e+001 67832 69804,69934,69830
 1.5000e+000 69986  1.8522e+001 -4.5877e+001 -1.5561e+001 67832 69804,69960,69934
 1.5000e+000 70586 -3.8110e+000 -3.5435e+001  3.2972e+000 67634 70609,70419,70341
 1.5000e+000 70563  5.5446e+000 -3.4901e+001  2.6898e+000 67634 70681,70609,70341
 1.5000e+000 70540  1.2522e+001 -3.3425e+001  9.0801e+000 67634 70681,70341,70315
 1.5000e+000 70517 -6.0934e+000 -3.8614e+001  4.7186e+000 67634 70341,70419,70367
 1.5000e+000 70494 -5.5522e+000 -2.7568e+001  9.4525e+000 67634 70263,70445,70289
 1.5000e+000 70471 -7.8378e+000 -2.2197e+001  1.5250e+000 67634 70367,70419,70393
 1.5000e+000 70635  4.5264e+000 -2.8973e+001  7.8257e+000 67634 70445,70419,70609
 1.5000e+000 70658 -6.2547e+000 -3.6976e+001  1.2154e+001 67634 70445,70609,70289
 1.5000e+000 70707  1.0237e+001 -2.9333e+001  1.4886e+001 67634 70289,70609,70681
 1.5000e+000 70730  2.4567e+001 -2.6616e+001  2.0697e+001 67634 70289,70681,70315
 1.5000e+000 71108  5.3219e+000 -5.7482e+001  8.2683e+000 67344 71131,70912,70886
 1.5000e+000 71085  1.3039e+001 -4.0922e+001  1.4216e+001 67344 71131,70886,70860
 1.5000e+000 71062  5.2782e+000 -4.7693e+001  2.4731e+000 67344 71203,70938,70912
 1.5000e+000 71039 -3.1907e+000 -3.9950e+001  8.6172e+000 67344 70834,70990,70860
 1.5000e+000 71016 -6.8917e+000 -5.1519e+001 -5.8637e-001 67344 70938,70990,70964
 1.5000e+000 71157  4.3224e+000 -4.5901e+001  3.3900e+000 67344 71203,70912,71131
 1.5000e+000 71180  3.2408e+000 -4.2716e+001  7.7901e+000 67344 70990,71131,70860
 1.5000e+000 71229  3.6426e+000 -4.8846e+001  1.9322e+000 67344 70990,70938,71203
 1.5000e+000 71252  1.7390e+000 -4.7607e+001  2.6419e+000 67344 70990,71203,71131
 1.5000e+000 71603 -5.3532e-001 -4.0582e+001  2.9261e+000 67032 71378,71482,71404
 1.5000e+000 71580  2.9070e+000 -2.9408e+001  5.9156e+000 67032 71378,71508,71482
 1.5000e+000 71557  7.7809e-001 -3.6065e+001 -1.5123e+000 67032 71404,71456,71430
 1.5000e+000 71534  3.6018e+000 -3.4020e+001 -6.0460e-001 67032 71404,71482,71456
 1.5000e+000 72003 -1.3387e+000 -2.9161e+001 -8.4590e-001 66834 71755,71859,71781
 1.5000e+000 71980 -1.9635e-001 -3.1713e+001 -7.6338e-001 66834 71755,71885,71859
 1.5000e+000 71957  1.6482e+000 -2.4440e+001  5.8388e+000 66834 71781,71833,71807
 1.5000e+000 71934 -4.6884e+000 -3.3534e+001  3.0169e+000 66834 71781,71859,71833
 1.5000e+000 71911 -3.5792e+000 -3.7210e+001  3.7375e+000 66834 71729,71885,71755
 1.5000e+000 72430  3.8180e+000 -3.3049e+001 -1.4403e+000 66266 72237,72289,72263
 1.5000e+000 72407  3.1020e+000 -3.5698e+001  3.1386e+000 66266 72133,72289,72237
 1.5000e+000 72384  1.4254e+000 -3.1232e+001  2.0943e+000 66266 72133,72237,72211
 1.5000e+000 72361  1.5398e+000 -3.6689e+001  2.7014e+000 66266 72107,72289,72133
 1.5000e+000 72338 -9.8141e+000 -5.9649e+001  1.3333e+001 66266 72133,72211,72185
 1.5000e+000 72315  1.9594e+000 -6.3866e+001  1.4287e+001 66266 72133,72185,72159
 1.5000e+000 72580 -1.1519e+001 -7.0947e+001  7.5635e+000 65968 72479,72531,72505
 1.5000e+000 72557 -8.2587e-001 -4.9685e+001  3.2696e+000 65968 72453,72531,72479
 1.5000e+000 72960 -8.2247e+000 -6.2497e+001  2.5892e+000 65621 72983,72738,72712
 1.5000e+000 72937 -9.8033e+000 -6.0317e+001  2.5527e+000 65621 72983,72712,72686
 1.5000e+000 72914 -1.4092e+001 -6.6616e+001  7.1173e+000 65621 72738,72842,72764
 1.5000e+000 72891  3.9537e+000 -5.5094e+001 -1.5215e-001 65621 72764,72842,72816
 1.5000e+000 72868 -3.4982e+001 -1.3014e+002  2.1431e+001 65621 72764,72816,72790
 1.5000e+000 73009 -8.1242e+000 -6.0923e+001  2.1868e+000 65621 72842,72738,72983
 1.5000e+000 73032 -8.3276e+000 -5.6989e+001  1.8244e+000 65621 72842,72983,72686
 1.5000e+000 73361 -2.5827e+001 -6.5612e+001 -2.0350e+000 65281 73456,73384,73188
 1.5000e+000 73338 -3.7149e+001 -6.5086e+001 -6.1540e-001 65281 73384,73162,73136
 1.5000e+000 73315 -1.6134e+001 -9.3295e+001 -1.9905e+001 65281 73188,73240,73214
 1.5000e+000 73292 -2.2082e+001 -5.3817e+001 -3.9359e+000 65281 73136,73266,73240
 1.5000e+000 73410 -2.2365e+001 -6.7201e+001 -1.5517e+000 65281 73240,73188,73384
 1.5000e+000 73433 -2.9605e+001 -5.6996e+001 -3.7298e+000 65281 73240,73384,73136
 1.5000e+000 73482 -2.7201e+001 -7.1650e+001 -3.9369e+000 65281 73162,73384,73456
 1.5000e+000 73711  2.4637e+001 -1.8578e+001 -9.7066e+000 64820 73734,73610,73584
 1.5000e+000 73688  2.7553e+001 -6.7981e+000 -2.4408e+001 64820 73734,73584,73662
 1.5000e+000 73760  4.8620e+001 -9.2587e+000 -2.0426e+001 64820 73636,73610,73734
 1.5000e+000 73783  1.6081e+001 -1.2473e+001 -2.6241e+001 64820 73806,73734,73662
 1.5000e+000 73832  4.4324e+001  1.6502e+001 -3.8176e+001 64820 73636,73734,73806
 1.5000e+000 74112  2.3713e+000 -5.7827e+001  8.9865e-001 64622 74278,74135,73988
 1.5000e+000 74089  2.6137e-001 -5.4286e+001  5.0348e+000 64622 74135,73936,74040
 1.5000e+000 74066  4.6148e+000 -5.6935e+001  4.4234e+000 64622 74278,73988,73962
 1.5000e+000 74161 -2.3437e+000 -5.6971e+001  1.6595e-001 64622 74014,73988,74135
 1.5000e+000 74184  1.6663e+000 -5.0193e+001  2.7924e+000 64622 74207,74135,74040
 1.5000e+000 74233 -5.3715e-001 -5.6363e+001  3.6884e-001 64622 74014,74135,74207
 1.5000e+000 74304  4.5777e+000 -5.2939e+001  5.4050e+000 64622 73936,74135,74278
 1.5000e+000 74327  8.9693e+000 -5.2059e+001  8.9797e+000 64622 73936,74278,73962
 1.5000e+000 74526  3.6606e-001 -4.2887e+001 -1.2143e+000 64424 74621,74549,74402
 1.5000e+000 74503  1.2572e+000 -5.3874e+001  3.9628e-001 64424 74549,74350,74454
 1.5000e+000 74480  6.0806e-001 -3.8780e+001 -8.5255e+000 64424 74621,74402,74376
 1.5000e+000 74575 -2.7677e+000 -5.0829e+001  1.6084e+000 64424 74428,74402,74549
 1.5000e+000 74598 -2.9270e-001 -5.5743e+001  1.1581e+000 64424 74693,74549,74454
 1.5000e+000 74647 -4.8757e+000 -5.4391e+001  2.0724e-001 64424 74350,74549,74621
 1.5000e+000 74670 -5.3321e+000 -5.2462e+001 -7.3830e+000 64424 74350,74621,74376
 1.5000e+000 74719 -8.1561e-001 -5.7853e+001  7.8605e-002 64424 74428,74549,74693
 1.5000e+000 75123 -2.2245e+001 -1.1059e+002  7.1062e+000 64126 74875,74953,74927
 1.5000e+000 75100  3.9165e+000 -5.5429e+001 -2.5838e-001 64126 74875,74979,74953
 1.5000e+000 75077 -9.4354e+000 -6.6065e+001  4.3513e+000 64126 74875,75005,74979
 1.5000e+000 75054  2.3926e+001 -1.2850e+002  4.3235e+001 64126 74875,74927,74901
 1.5000e+000 75031 -2.2924e+001 -4.6265e+001  1.2936e+001 64126 74849,75005,74875
 1.5000e+000 75224  5.1851e+000 -5.3029e+001  6.7279e+000 63836 75146,75198,75172
 1.5000e+000 75472 -1.2284e+001 -5.0028e+001 -2.1715e-001 63375 75273,75351,75325
 1.5000e+000 75449 -8.8170e+000 -4.7214e+001 -2.3122e+000 63375 75273,75377,75351
 1.5000e+000 75426  4.3136e+000 -4.5497e+001 -3.7275e+000 63375 75247,75377,75273
 1.5000e+000 75403 -1.2739e+001 -2.1035e+001  5.6284e+000 63375 75273,75325,75299
 1.5000e+000 75673  1.6928e+000 -4.3471e+001  3.1736e+000 63063 75523,75575,75549
 1.5000e+000 75650  7.0649e+000 -5.2840e+001 -1.7082e+000 63063 75497,75575,75523
 1.5000e+000 75627  1.6108e+000 -5.8248e+001  5.2141e+000 63063 75497,75601,75575
 1.5000e+000 75874 -8.4542e+000 -7.3793e+001  8.9533e-001 62716 75897,75750,75724
 1.5000e+000 75851 -1.1853e+001 -7.2285e+001  1.0581e+000 62716 75897,75724,75698
 1.5000e+000 75828 -1.0389e+001 -6.3103e+001 -1.2996e+001 62716 75698,75802,75776
 1.5000e+000 75923 -1.2554e+000 -7.1936e+001  4.1535e-002 62716 75776,75750,75897
 1.5000e+000 75946 -8.5532e+000 -7.3329e+001  6.2424e-001 62716 75776,75897,75698
 1.5000e+000 76328  5.2290e+000 -7.2027e+001  6.6688e-002 62198 76495,76351,76158
 1.5000e+000 76305  1.2871e+000 -6.6303e+001  1.1123e+000 62198 76351,76080,76054
 1.5000e+000 76282  7.7599e+000 -7.8292e+001 -2.0312e+000 62198 76423,76184,76158
 1.5000e+000 76259  3.9540e+000 -7.2956e+001  6.0504e-001 62198 76495,76158,76106
 1.5000e+000 76236  1.2330e+001 -8.0067e+001  4.3790e+000 62198 76106,76158,76132
 1.5000e+000 76377  5.2264e+000 -7.1941e+001 -2.6208e+000 62198 76423,76158,76351
 1.5000e+000 76400 -1.4287e-001 -6.6773e+001 -2.2990e+000 62198 76210,76351,76054
 1.5000e+000 76449  1.0788e+001 -7.2056e+001 -3.2123e+000 62198 76210,76184,76423
 1.5000e+000 76472  8.2187e+000 -6.6832e+001 -4.2947e+000 62198 76210,76423,76351
 1.5000e+000 76521  1.9040e+000 -6.8003e+001  3.0484e+000 62198 76080,76351,76495
 1.5000e+000 76544 -2.6443e+000 -7.3519e+001  5.0024e+000 62198 76080,76495,76106
 1.5000e+000 76841 -1.2081e+001 -7.4329e+001 -1.6101e+000 61751 76936,76864,76645
 1.5000e+000 76818 -1.6160e+001 -6.6916e+001 -1.1421e+001 61751 76864,76567,76723
 1.5000e+000 76795 -1.1404e+001 -6.7477e+001 -1.3470e+000 61751 76936,76645,76593
 1.5000e+000 76772  1.8754e+001 -6.7721e+001 -2.0391e+001 61751 77008,76697,76671
 1.5000e+000 76749  1.0321e+001 -6.4373e+001  2.1505e+000 61751 76593,76645,76619
 1.5000e+000 76890 -2.2243e+001 -1.0034e+002  6.8247e+000 61751 76671,76645,76864
 1.5000e+000 76913 -8.5952e+000 -8.0999e+001 -1.2997e+001 61751 77008,76671,76864
 1.5000e+000 76962 -9.9987e+000 -8.3406e+001 -5.0031e+000 61751 76567,76864,76936
 1.5000e+000 76985 -9.4958e+000 -7.7435e+001 -3.9771e+000 61751 76567,76936,76593
 1.5000e+000 77034 -1.8216e+001 -8.5823e+001 -1.1808e+001 61751 76723,76697,77008
 1.5000e+000 77057 -2.1447e+001 -7.9246e+001 -1.0216e+001 61751 76723,77008,76864
 1.5000e+000 77207  1.1860e+000 -2.6842e+001  5.0906e+000 61418 77106,77158,77132
 1.5000e+000 77184 -9.1195e+000 -3.9784e+001  6.1871e-001 61418 77080,77158,77106
 1.5000e+000 77638 -1.3557e+001 -6.8646e+001  1.7340e+000 60814 77733,77661,77471
 1.5000e+000 77615 -1.5991e+001 -6.9865e+001 -2.4995e+000 60814 77661,77393,77315
 1.5000e+000 77592 -1.7389e+001 -6.1354e+001  5.0605e+000 60814 77733,77471,77445
 1.5000e+000 77569  1.1135e+001 -5.9457e+001 -1.0672e+001 60814 77315,77367,77341
 1.5000e+000 77546 -4.3069e+000 -9.6300e+001 -1.2433e+001 60814 77315,77393,77367
 1.5000e+000 77523 -9.7647e+000 -4.5616e+001 -3.5598e+000 60814 77393,77445,77419
 1.5000e+000 77687 -7.1651e+000 -6.6141e+001  6.1887e+000 60814 77497,77471,77661
 1.5000e+000 77710 -1.1906e+001 -7.7425e+001  4.5453e+000 60814 77497,77661,77315
 1.5000e+000 77759 -9.8411e+000 -5.8594e+001 -1.0372e-001 60814 77393,77661,77733
 1.5000e+000 77782 -1.5028e+001 -5.3377e+001  4.2722e+000 60814 77393,77733,77445
 1.5000e+000 78337 -2.6778e+001 -7.1146e+001  2.5986e+000 60210 78360,78017,77965
 1.5000e+000 78314 -2.9526e+001 -7.4117e+001  3.9086e+000 60210 78360,77965,78173
 1.5000e+000 78291 -3.2155e+001 -7.7364e+001 -6.5499e+000 60210 78432,78043,78017
 1.5000e+000 78268 -3.9820e+001 -1.0275e+002  7.6628e-001 60210 77965,78017,77991
 1.5000e+000 78245 -2.3856e+001 -6.6835e+001 -4.6705e+000 60210 78043,78095,78069
 1.5000e+000 78222 -4.3677e+001 -9.1664e+001  1.0791e+001 60210 78095,78173,78121
 1.5000e+000 78199 -2.6581e+000 -7.6545e+001  1.1110e+001 60210 78121,78173,78147
 1.5000e+000 78386 -3.2346e+001 -7.5531e+001  6.9788e-001 60210 78432,78017,78360
 1.5000e+000 78409 -2.8701e+001 -6.7703e+001  4.0818e+000 60210 78095,78360,78173
 1.5000e+000 78458 -2.7641e+001 -6.7581e+001 -5.3016e+000 60210 78095,78043,78432
 1.5000e+000 78481 -2.7264e+001 -6.3873e+001  1.6757e+000 60210 78095,78432,78360
 1.5000e+000 78680  1.7409e+001 -4.4476e+001 -4.7563e+000 59848 78703,78556,78530
 1.5000e+000 78657  2.1281e+001 -4.2848e+001 -4.4243e+000 59848 78703,78530,78504
 1.5000e+000 78634  5.8401e+000 -5.2341e+001  4.2096e+000 59848 78504,78608,78582
 1.5000e+000 78729  9.1356e+000 -4.2799e+001 -2.4784e+000 59848 78582,78556,78703
 1.5000e+000 78752  1.6713e+001 -3.9456e+001 -1.9032e+000 59848 78582,78703,78504
 1.5000e+000 78951  1.7042e+001 -4.7836e+001 -1.2158e+001 59344 78974,78801,78775
 1.5000e+000 78928  7.8830e+000 -6.2862e+001  4.1918e+000 59344 79046,78974,78775
 1.5000e+000 78905  1.1143e+001 -7.0661e+001  3.7080e+000 59344 79046,78775,78879
 1.5000e+000 79000 -8.2174e+000 -5.7061e+001 -6.3451e+000 59344 78827,78801,78974
 1.5000e+000 79023  3.8050e+000 -6.0043e+001  1.0164e+001 59344 78827,78974,78853
 1.5000e+000 79072  1.1420e+001 -5.5109e+001  7.1605e+000 59344 78853,78974,79046
 1.5000e+000 79095  1.7302e+001 -6.0096e+001  7.4915e+000 59344 78853,79046,78879
 1.5000e+000 79296 -1.4311e+001 -9.7414e+001 -6.2530e+000 58711 79319,79172,79146
 1.5000e+000 79273 -1.8262e+000 -9.0428e+001 -2.8556e+000 58711 79319,79146,79120
 1.5000e+000 79250 -2.0268e+001 -8.1111e+001  5.7858e+000 58711 79172,79224,79198
 1.5000e+000 79345 -2.4004e+001 -8.7511e+001 -4.9280e+000 58711 79224,79172,79319
 1.5000e+000 79368 -1.6369e+001 -8.4350e+001 -2.7287e+000 58711 79224,79319,79120
 1.5000e+000 79667  4.0251e-001 -3.7678e+001 -7.7183e+000 58285 79690,79471,79393
 1.5000e+000 79644 -1.4073e+000 -4.6032e+001 -8.6038e+000 58285 79690,79393,79549
 1.5000e+000 79621  2.3285e+000 -4.5165e+001 -4.8039e+000 58285 79393,79471,79419
 1.5000e+000 79598 -3.7911e+000 -3.7705e+001 -2.6040e-002 58285 79497,79549,79523
 1.5000e+000 79575  9.3239e+000 -8.0125e+001 -6.0251e+000 58285 79419,79471,79445
 1.5000e+000 79716 -1.4662e+000 -2.8328e+001 -1.9186e+000 58285 79497,79471,79690
 1.5000e+000 79739 -6.0944e+000 -4.2854e+001 -1.1097e+000 58285 79497,79690,79549
 1.5000e+000 80249  1.0731e+000 -4.8550e+001 -6.2515e+000 57831 80272,79978,79952
 1.5000e+000 80226  3.7826e+000 -5.0672e+001 -1.6601e+000 57831 80272,79952,80108
 1.5000e+000 80203  1.6999e+001 -6.0803e+001 -7.3456e+000 57831 79926,80108,79952
 1.5000e+000 80180 -6.7015e+000 -5.5353e+001  4.0812e+000 57831 80004,80082,80030
 1.5000e+000 80157 -6.2291e+000 -5.7889e+001  5.1846e+000 57831 80004,80108,80082
 1.5000e+000 80134 -1.0980e+001 -4.8165e+001  1.3849e+001 57831 80030,80082,80056
 1.5000e+000 80298  5.5034e+000 -3.7524e+001 -7.2271e+000 57831 80004,79978,80272
 1.5000e+000 80321  4.0246e+000 -4.6858e+001 -2.7076e+000 57831 80004,80272,80108
 1.5000e+000 80618 -2.2806e+001 -6.6324e+001  1.0914e+001 57077 80344,80448,80422
 1.5000e+000 80595 -9.2416e+000 -5.6502e+001  3.4220e+000 57077 80344,80500,80448
 1.5000e+000 80572 -1.6380e+001 -5.0933e+001  1.0519e+001 57077 80344,80422,80370
 1.5000e+000 80549 -1.3896e+001 -4.2309e+001  8.7315e+000 57077 80370,80422,80396
 1.5000e+000 80526 -2.2494e+001 -9.1143e+001  1.0623e+001 57077 80448,80500,80474
 1.5000e+000 80768  5.9716e+000 -1.9636e+001 -7.9324e+000 56787 80791,80693,80667
 1.5000e+000 80745  1.1191e+001 -2.1354e+001 -1.2047e+001 56787 80791,80667,80641
 1.5000e+000 80817  3.4663e+000 -2.1086e+001 -6.0043e+000 56787 80719,80693,80791
 1.5000e+000 80840  8.6628e+000 -3.4813e+001 -7.9899e+000 56787 80719,80791,80641
 1.5000e+000 81429 -1.0140e+001 -4.3543e+001 -6.8275e+000 56497 81452,81158,81132
 1.5000e+000 81406 -1.5058e+001 -5.6236e+001 -3.9383e+000 56497 81452,81132,81288
 1.5000e+000 81383 -2.1349e+001 -4.6305e+001 -4.6173e+000 56497 81524,81184,81158
 1.5000e+000 81360 -1.7291e+001 -6.8552e+001  3.9033e+000 56497 81210,81288,81236
 1.5000e+000 81337  2.2728e+001 -3.8361e+001  1.0445e+000 56497 81106,81288,81132
 1.5000e+000 81314 -8.9938e+000 -5.6254e+001 -2.0248e-001 56497 81236,81288,81262
 1.5000e+000 81478 -1.8687e+001 -4.5130e+001 -4.9265e+000 56497 81524,81158,81452
 1.5000e+000 81501 -9.6662e+000 -4.8530e+001 -1.4220e+000 56497 81210,81452,81288
 1.5000e+000 81550 -2.0955e+001 -4.7606e+001 -8.1287e-001 56497 81210,81184,81524
 1.5000e+000 81573 -1.7036e+001 -4.5906e+001 -9.9335e-001 56497 81210,81524,81452
 1.5000e+000 81870 -8.6670e+000 -4.1869e+001  6.4190e+000 55979 81893,81674,81648
 1.5000e+000 81847 -1.2258e+001 -4.3405e+001  6.3131e+000 55979 81893,81648,81752
 1.5000e+000 81824  8.5215e+000 -4.7648e+001  1.4412e+001 55979 81596,81752,81648
 1.5000e+000 81801 -1.2188e+000 -4.4452e+001  8.1942e+000 55979 81674,81726,81700
 1.5000e+000 81778  9.4995e+000 -3.9113e+001 -1.1787e+001 55979 81596,81648,81622
 1.5000e+000 81919 -6.5590e+000 -4.2451e+001  3.5265e+000 55979 81726,81674,81893
 1.5000e+000 81942 -1.1441e+001 -4.4575e+001  3.2020e+000 55979 81726,81893,81752
 1.5000e+000 82371 -3.0849e+000 -4.4105e+001 -1.4897e+000 55631 82100,82204,82152
 1.5000e+000 82348 -1.8426e+000 -5.3491e+001 -5.4657e+000 55631 82100,82230,82204
 1.5000e+000 82325 -8.9953e-001 -4.6171e+001  5.2408e+000 55631 82100,82152,82126
 1.5000e+000 82302 -2.7786e+000 -6.2859e+001 -1.9538e+001 55631 82074,82230,82100
 1.5000e+000 82279 -6.4223e+000 -5.0775e+001  2.9170e-001 55631 82152,82204,82178
 1.5000e+000 82256  9.6369e+000 -6.0909e+001 -1.4269e+001 55631 82048,82230,82074
 1.5000e+000 82521 -1.6983e+000 -3.2030e+001 -6.1176e+000 55227 82544,82420,82394
 1.5000e+000 82498 -6.1789e-001 -4.3596e+001 -5.1085e+000 55227 82544,82394,82472
 1.5000e+000 82570 -3.9374e+000 -2.4777e+001 -5.5924e+000 55227 82446,82420,82544
 1.5000e+000 82593  5.2799e-001 -3.2106e+001 -1.4900e+000 55227 82446,82544,82472
 1.5000e+000 82875  1.3061e+001 -3.8715e+001 -1.2854e+001 54979 82699,82777,82725
 1.5000e+000 82852 -1.1255e+001 -3.3064e+001 -5.4006e+000 54979 82699,82803,82777
 1.5000e+000 82829 -5.1999e-001 -1.0729e+001  2.2368e+000 54979 82725,82777,82751
 1.5000e+000 83204 -9.0671e+000 -3.8868e+001  1.6902e+000 54475 83005,83083,83057
 1.5000e+000 83181 -1.2389e+001 -4.3688e+001  5.0416e+000 54475 82979,83083,83005
 1.5000e+000 83158 -4.9859e+000 -4.7007e+001 -1.8557e+000 54475 83005,83057,83031
 1.5000e+000 83135 -1.4394e+001 -4.9019e+001  1.5261e+001 54475 82979,83109,83083
 1.5000e+000 83582 -1.5223e+001 -4.6191e+001 -2.3755e+000 54071 83605,83438,83412
 1.5000e+000 83559 -1.5683e+001 -4.6745e+001 -1.9556e+000 54071 83749,83605,83412
 1.5000e+000 83536 -1.5634e+001 -5.2478e+001  1.2326e+001 54071 83677,83360,83334
 1.5000e+000 83513 -1.1488e+001 -5.0902e+001 -3.0236e+000 54071 83749,83412,83677
 1.5000e+000 83490 -1.4219e+001 -3.3332e+001 -4.0226e+000 54071 83308,83464,83334
 1.5000e+000 83631 -2.0883e+001 -4.6026e+001 -8.0676e+000 54071 83464,83438,83605
 1.5000e+000 83654 -1.4671e+001 -3.4741e+001 -4.9092e+000 54071 83464,83605,83334
 1.5000e+000 83703  9.6497e+000 -4.4949e+001  1.3567e+001 54071 83386,83360,83677
 1.5000e+000 83726 -4.1487e-001 -5.4152e+001 -2.8368e-001 54071 83386,83677,83412
 1.5000e+000 83775 -8.6512e+000 -4.1018e+001  5.2288e-001 54071 83334,83605,83749
 1.5000e+000 83798 -3.8738e+000 -4.4997e+001 -4.2635e-001 54071 83334,83749,83677
 1.5000e+000 84068 -1.8546e+001 -2.4104e+001  4.6359e-001 53524 83869,83921,83895
 1.5000e+000 84045 -7.1499e+000 -3.2277e+001  1.4636e+000 53524 83869,83947,83921
 1.5000e+000 84022 -1.5385e+001 -3.7752e+001 -1.3326e+000 53524 83843,83947,83869
 1.5000e+000 83999 -4.7964e+000 -3.4261e+001 -2.4512e+000 53524 83843,83973,83947
 1.5000e+000 84497 -1.5274e+001 -7.3154e+001 -1.9641e-001 53184 84200,84330,84252
 1.5000e+000 84474 -1.1591e+001 -5.9250e+001  4.2467e+000 53184 84200,84356,84330
 1.5000e+000 84451 -6.5067e-001 -8.7087e+001  7.0532e+000 53184 84200,84252,84226
 1.5000e+000 84428  2.9563e+000 -6.1950e+001 -5.5276e+000 53184 84252,84330,84278
 1.5000e+000 84405 -7.9740e+000 -5.5800e+001  3.6259e-002 53184 84174,84356,84200
 1.5000e+000 84382  2.1208e+001 -5.3376e+001 -9.5641e+000 53184 84278,84330,84304
 1.5000e+000 84954 -1.1109e+001 -6.2634e+001  5.7897e+000 52680 84706,84836,84784
 1.5000e+000 84931 -1.7462e+001 -5.9210e+001 -1.1455e+001 52680 84680,84836,84706
 1.5000e+000 84908 -8.7061e+000 -8.7722e+001  4.5283e-001 52680 84784,84836,84810
 1.5000e+000 84885 -3.0247e+001 -9.7985e+001  1.3072e+001 52680 84706,84784,84732
 1.5000e+000 84862 -2.2065e+001 -9.1807e+001  9.3184e+000 52680 84732,84784,84758
 1.5000e+000 85202 -5.5506e+000 -4.8511e+001 -6.2307e+000 52226 85029,85081,85055
 1.5000e+000 85179 -1.4733e+001 -5.4467e+001 -9.0983e+000 52226 85225,85081,85029
 1.5000e+000 85156 -1.4030e+001 -5.3087e+001 -1.1594e+001 52226 85225,85029,85003
 1.5000e+000 85133 -1.5130e+001 -3.6778e+001 -1.4376e+001 52226 84977,85107,85003
 1.5000e+000 85251 -1.4003e+001 -5.4154e+001 -1.1829e+001 52226 85107,85081,85225
 1.5000e+000 85274 -7.2744e+000 -4.7070e+001 -1.5434e+001 52226 85107,85225,85003
 1.5000e+000 85522  1.4463e+000 -3.9133e+001  9.6013e-001 51764 85297,85349,85323
 1.5000e+000 85499 -4.1625e+000 -5.3237e+001  2.6896e+000 51764 85545,85297,85427
 1.5000e+000 85476 -1.3152e+001 -4.6126e+001 -1.8173e+000 51764 85545,85427,85375
 1.5000e+000 85453 -1.3652e+001 -4.8653e+001 -2.3044e+000 51764 85375,85427,85401
 1.5000e+000 85571  8.8848e-001 -4.9183e+001  5.0928e-001 51764 85349,85297,85545
 1.5000e+000 85594 -4.6496e+000 -3.9460e+001 -4.9379e+000 51764 85349,85545,85375
 1.5000e+000 85746 -9.9192e+000 -5.2581e+001 -2.9514e+000 51374 85645,85697,85671
 1.5000e+000 85723 -1.6326e+001 -6.0802e+001 -6.9508e+000 51374 85619,85697,85645
 1.5000e+000 86256 -7.4264e+000 -3.0899e+001 -4.7144e+000 50970 86279,86011,85959
 1.5000e+000 86233 -4.8544e+000 -3.6596e+001 -3.8816e+000 50970 86279,85959,86115
 1.5000e+000 86210 -8.0849e+000 -3.1714e+001 -2.3341e+000 50970 85959,86011,85985
 1.5000e+000 86187 -1.1932e+001 -4.9090e+001 -6.7990e+000 50970 86037,86115,86089
 1.5000e+000 86164  1.1288e+001 -3.0376e+001 -1.0078e+001 50970 85933,86115,85959
 1.5000e+000 86141 -6.6956e+000 -2.6234e+001 -4.2501e+000 50970 86037,86089,86063
 1.5000e+000 86305 -6.6504e+000 -2.5354e+001 -3.7622e+000 50970 86037,86011,86279
 1.5000e+000 86328 -4.3746e+000 -3.1443e+001 -2.9175e+000 50970 86037,86279,86115
 1.5000e+000 86478  4.3530e+001 -8.1560e+001  9.4906e+000 50451 86351,86403,86377
 1.5000e+000 86455  1.2321e+001 -1.5916e+002  1.7646e+001 50451 86351,86429,86403
 1.5000e+000 86907 -1.4624e+001 -5.4478e+001  5.7329e+000 50047 86930,86714,86662
 1.5000e+000 86884 -1.0572e+001 -5.6547e+001  6.2221e+000 50047 86930,86662,86610
 1.5000e+000 86861 -6.0642e-001 -7.1818e+001 -2.4138e+000 50047 87002,86740,86714
 1.5000e+000 86838  1.3838e+001 -4.4548e+001  2.5150e+001 50047 86662,86714,86688
 1.5000e+000 86815 -6.4541e+000 -4.9578e+001  3.1148e+000 50047 86610,86662,86636
 1.5000e+000 86792  8.5981e+000 -4.0510e+001  5.8853e+000 50047 86584,86766,86610
 1.5000e+000 86956 -1.0125e+001 -5.5991e+001  5.4489e+000 50047 87002,86714,86930
 1.5000e+000 86979 -1.7830e+001 -5.1785e+001  5.7865e+000 50047 86766,86930,86610
 1.5000e+000 87028 -1.9205e+001 -6.0876e+001 -5.6719e+000 50047 86766,86740,87002
 1.5000e+000 87051 -2.4505e+001 -5.8531e+001  2.0430e-001 50047 86766,87002,86930
 1.5000e+000 87250 -8.6434e+000 -6.4135e+001 -7.2148e+000 49543 87273,87126,87100
 1.5000e+000 87227 -6.1587e+000 -6.0392e+001 -4.9581e+000 49543 87273,87100,87074
 1.5000e+000 87204 -2.1584e+001 -4.5694e+001 -8.9032e+000 49543 87126,87178,87152
 1.5000e+000 87299 -9.5450e+000 -5.9073e+001 -4.7001e+000 49543 87178,87126,87273
 1.5000e+000 87322 -7.1186e+000 -5.7105e+001 -2.2037e+000 49543 87178,87273,87074
 1.5000e+000 87570  8.9661e+000 -4.0545e+001  1.8686e+000 49146 87593,87449,87397
 1.5000e+000 87547  9.0950e+000 -3.8268e+001  5.7446e+000 49146 87593,87397,87371
 1.5000e+000 87524 -8.4169e+000 -4.5530e+001  2.1350e-001 49146 87345,87475,87371
 1.5000e+000 87501  8.9243e+000 -4.9079e+001 -9.4493e-001 49146 87397,87449,87423
 1.5000e+000 87619  4.1392e+000 -4.1170e+001 -1.0521e-001 49146 87475,87449,87593
 1.5000e+000 87642  6.0485e+000 -3.9330e+001  3.5562e+000 49146 87475,87593,87371
 1.5000e+000 88073 -9.5477e+000 -5.9088e+001 -1.7259e-001 48706 87854,87932,87880
 1.5000e+000 88050 -1.2989e+001 -6.7089e+001  6.6032e-001 48706 87828,87932,87854
 1.5000e+000 88027 -1.1814e+001 -6.0844e+001  7.3201e-001 48706 87750,87932,87828
 1.5000e+000 88004 -3.3431e+000 -1.2847e+002  9.5297e+000 48706 87750,87802,87776
 1.5000e+000 87981 -2.6778e+001 -1.1795e+002 -7.8414e+000 48706 87750,87828,87802
 1.5000e+000 87958 -1.3439e+001 -5.9232e+001 -2.4858e+000 48706 87880,87932,87906
 1.5000e+000 88402 -7.2558e+000 -6.5445e+001 -3.5073e+000 48145 88203,88281,88255
 1.5000e+000 88379 -1.4435e+001 -6.9294e+001 -6.5099e+000 48145 88203,88307,88281
 1.5000e+000 88356  2.6058e+000 -6.2852e+001 -6.2783e+000 48145 88203,88255,88229
 1.5000e+000 88333 -4.3927e+000 -5.9951e+001  1.9083e+000 48145 88177,88307,88203
 1.5000e+000 88601 -5.6106e+000 -5.4540e+001  4.7565e+000 47805 88696,88624,88477
 1.5000e+000 88578 -2.7426e+001 -6.6843e+001 -9.8751e+000 47805 88826,88624,88451
 1.5000e+000 88555 -2.5933e+001 -6.6257e+001 -9.9114e+000 47805 88826,88451,88425
 1.5000e+000 88650 -1.3518e+001 -7.0386e+001 -6.3825e+000 47805 88503,88477,88624
 1.5000e+000 88673 -2.4435e+001 -7.1036e+001 -8.0581e+000 47805 88503,88624,88529
 1.5000e+000 88722 -5.1784e+001 -7.7238e+001 -6.0158e+000 47805 88451,88624,88696
 1.5000e+000 88852 -2.8068e+001 -6.6517e+001 -8.0605e+000 47805 88529,88624,88826
 1.5000e+000 88875 -2.6449e+001 -6.5862e+001 -8.1094e+000 47805 88529,88826,88425
 1.5000e+000 89172 -6.3669e+000 -4.9784e+001 -5.1735e+000 47401 89195,88976,88898
 1.5000e+000 89149 -7.5179e+000 -4.9258e+001 -1.2006e+001 47401 89195,88898,89054
 1.5000e+000 89126 -1.1136e+001 -5.2904e+001 -3.7185e+000 47401 88898,88976,88950
 1.5000e+000 89103 -1.2780e+001 -5.6869e+001 -6.5950e+000 47401 88976,89028,89002
 1.5000e+000 89080 -1.7295e+001 -6.2560e+001  6.0129e+000 47401 88898,88950,88924
 1.5000e+000 89221 -9.3458e+000 -5.7320e+001 -5.4101e+000 47401 89028,88976,89195
 1.5000e+000 89244 -1.0269e+001 -5.5223e+001 -1.2748e+001 47401 89028,89195,89054
 1.5000e+000 89575  9.7508e-002 -6.8706e+001 -5.9558e+000 47111 89350,89454,89376
 1.5000e+000 89552 -8.3696e+000 -8.1125e+001  3.4655e-002 47111 89350,89480,89454
 1.5000e+000 89529 -2.1765e+001 -7.0294e+001 -1.1689e+000 47111 89376,89454,89402
 1.5000e+000 89506 -1.4479e+001 -5.8616e+001  5.2957e+000 47111 89402,89454,89428
 1.5000e+000 89904  3.3904e+000 -5.8918e+001 -3.5683e+000 46707 89705,89757,89731
 1.5000e+000 89881 -8.7613e+000 -6.3605e+001 -2.1001e+000 46707 89705,89783,89757
 1.5000e+000 89858 -3.0467e+000 -6.0925e+001 -1.2633e+000 46707 89679,89783,89705
 1.5000e+000 89835  7.3998e+000 -5.9896e+001 -6.7900e+000 46707 89679,89809,89783
 1.5000e+000 90233  9.9644e+000 -5.6089e+001 -8.4000e+000 46360 90034,90112,90086
 1.5000e+000 90210 -1.6463e+001 -6.0651e+001 -5.3392e+000 46360 90034,90138,90112
 1.5000e+000 90187 -2.4085e+000 -7.4590e+001 -1.8620e+000 46360 90034,90086,90060
 1.5000e+000 90164 -8.7198e+000 -6.6229e+001  7.7877e+000 46360 90008,90138,90034
 1.5000e+000 90530 -1.2072e+001 -5.2273e+001 -4.7886e+000 45662 90256,90360,90308
 1.5000e+000 90507 -1.3845e+001 -5.9552e+001 -4.0238e-001 45662 90256,90412,90360
 1.5000e+000 90484 -9.1864e+000 -6.1614e+001 -7.5490e+000 45662 90256,90308,90282
 1.5000e+000 90461 -1.0174e+001 -4.5862e+001  2.4072e+000 45662 90360,90412,90386
 1.5000e+000 90438 -2.3085e+001 -4.5907e+001 -6.1450e-001 45662 90308,90360,90334
 1.5000e+000 90910 -3.8857e+001 -7.8844e+001 -7.0280e+000 45108 90688,90766,90714
 1.5000e+000 90887 -2.7900e+001 -7.4794e+001  5.7980e-001 45108 90662,90766,90688
 1.5000e+000 90864 -3.9442e+001 -7.3816e+001  1.4547e+000 45108 90636,90766,90662
 1.5000e+000 90841 -2.2055e+001 -1.0128e+002 -2.0872e+001 45108 90714,90766,90740
 1.5000e+000 90818 -3.5688e+001 -6.2412e+001 -3.9395e+000 45108 90636,90792,90766
 1.5000e+000 91158  1.7183e+000 -6.0538e+001 -5.7765e+000 44604 91181,91011,90959
 1.5000e+000 91135  9.7228e+000 -6.0294e+001 -7.9964e+000 44604 91181,90959,90933
 1.5000e+000 91112 -3.4358e+000 -6.9712e+001 -8.1520e-001 44604 90959,91011,90985
 1.5000e+000 91089  1.3825e+000 -6.9517e+001  8.9438e+000 44604 90933,91063,91037
 1.5000e+000 91207 -2.3136e+000 -5.9764e+001 -3.0817e+000 44604 91037,91011,91181
 1.5000e+000 91230  3.2340e+000 -6.4299e+001 -3.2510e+000 44604 91037,91181,90933
 1.5000e+000 91429 -7.0623e+000 -5.7120e+001 -3.1891e+000 44264 91452,91279,91253
 1.5000e+000 91406 -4.3481e+000 -6.4332e+001 -4.2333e+000 44264 91452,91253,91357
 1.5000e+000 91383 -1.2847e+001 -5.9104e+001 -4.0742e+000 44264 91279,91331,91305
 1.5000e+000 91478 -5.4009e+000 -5.5083e+001 -2.4736e+000 44264 91331,91279,91452
 1.5000e+000 91501  1.0027e+000 -5.8519e+001 -2.0107e+000 44264 91331,91452,91357
 1.5000e+000 92060 -2.6556e+001 -6.5545e+001 -4.5438e-001 43860 92083,91740,91688
 1.5000e+000 92037 -2.3819e+000 -6.7375e+001  7.7309e+000 43860 92083,91688,91896
 1.5000e+000 92014 -1.5372e+001 -7.5146e+001  4.5078e+000 43860 91766,91870,91844
 1.5000e+000 91991  1.2620e-001 -6.0898e+001  1.1885e+001 43860 91740,91870,91766
 1.5000e+000 91968  3.9547e+000 -6.0253e+001  1.2848e+001 43860 91766,91844,91792
 1.5000e+000 91945 -1.4090e+001 -8.3190e+001 -2.0297e+001 43860 91688,91740,91714
 1.5000e+000 91922  9.1016e-001 -9.1667e+001  4.7404e+000 43860 91792,91844,91818
 1.5000e+000 92109 -5.8009e+000 -6.3828e+001  1.0852e+001 43860 91870,91740,92083
 1.5000e+000 92132  1.9531e+001 -6.2140e+001  2.0655e+001 43860 91870,92083,91896
 1.5000e+000 92353 -8.2617e+000 -6.6439e+001 -6.6952e+000 43662 92203,92255,92229
 1.5000e+000 92330 -1.8948e+001 -7.0737e+001 -1.5269e+000 43662 92376,92203,92281
 1.5000e+000 92307 -8.6892e-001 -5.0397e+001  6.3320e+000 43662 92177,92281,92203
 1.5000e+000 92402 -3.4811e+001 -7.7467e+001  1.2442e+000 43662 92255,92203,92376
 1.5000e+000 92682 -1.1273e+000 -6.8680e+001 -5.0660e+000 43464 92532,92584,92558
 1.5000e+000 92659 -1.2763e+001 -6.1453e+001 -3.1903e+000 43464 92506,92584,92532
 1.5000e+000 92636 -9.6607e+000 -6.0274e+001 -3.2583e+000 43464 92506,92610,92584
 1.5000e+000 93013 -5.3515e+000 -7.9989e+001 -1.8379e+001 42960 92866,92918,92892
 1.5000e+000 92990 -1.6998e+001 -7.5542e+001 -6.9138e+000 42960 93036,92918,92866
 1.5000e+000 92967 -6.8442e+000 -8.4330e+001 -1.3619e+000 42960 93036,92866,92840
 1.5000e+000 92944 -1.3321e+001 -6.5903e+001  9.0504e-002 42960 92788,92918,92814
 1.5000e+000 93062 -1.1611e+001 -7.3239e+001 -2.7777e+000 42960 92814,92918,93036
 1.5000e+000 93085  8.6060e+000 -7.3479e+001  4.3897e+000 42960 92814,93036,92840
 1.5000e+000 93186 -2.1943e+001 -6.3878e+001 -8.7776e+000 42556 93108,93160,93134
 1.5000e+000 93554 -2.0285e+001 -7.6103e+001  1.1818e+000 42052 93231,93387,93361
 1.5000e+000 93531 -2.2326e+001 -7.1253e+001  1.1109e+001 42052 93231,93413,93387
 1.5000e+000 93508 -3.3425e+001 -7.1912e+001  3.4526e+000 42052 93231,93361,93257
 1.5000e+000 93485 -8.2410e+000 -5.3289e+001  1.1831e+001 42052 93283,93361,93335
 1.5000e+000 93462 -1.8341e+001 -6.3393e+001  6.9531e+000 42052 93257,93361,93283
 1.5000e+000 93439  7.0662e-001 -4.6455e+001 -2.8128e+000 42052 93283,93335,93309
 1.5000e+000 94162 -3.6555e+000 -5.9635e+001 -1.0129e+001 41498 93767,93975,93793
 1.5000e+000 94139  1.0799e+001 -5.1384e+001  2.7336e+000 41498 93741,93975,93767
 1.5000e+000 94116 -7.5304e+000 -4.7651e+001 -6.9481e+000 41498 93793,93975,93923
 1.5000e+000 94093 -1.3921e+001 -6.3144e+001  5.6649e+000 41498 93923,93975,93949
 1.5000e+000 94070 -2.1987e+001 -3.5841e+001 -1.6130e+001 41498 93871,93923,93897
 1.5000e+000 94047 -2.7310e+000 -4.1785e+001 -1.1290e+001 41498 93793,93923,93871
 1.5000e+000 94024 -7.7221e+000 -4.1736e+001 -2.7270e+000 41498 93819,93871,93845
 1.5000e+000 94001 -8.9323e+000 -3.9239e+001 -6.9596e+000 41498 93793,93871,93819
 1.5000e+000 94619 -2.2589e+001 -6.1799e+001 -1.3730e+001 40930 94642,94423,94371
 1.5000e+000 94596 -1.5760e+001 -6.1553e+001 -6.9906e+000 40930 94642,94371,94345
 1.5000e+000 94573 -1.9477e+001 -6.6918e+001 -2.5061e+000 40930 94345,94501,94475
 1.5000e+000 94550 -1.1030e+001 -7.1982e+001 -1.6655e+001 40930 94371,94423,94397
 1.5000e+000 94527 -2.3194e+001 -4.4351e+001 -3.5021e+000 40930 94423,94475,94449
 1.5000e+000 94668 -1.6563e+001 -5.0761e+001 -1.0739e+001 40930 94475,94423,94642
 1.5000e+000 94691 -1.3568e+001 -5.7545e+001 -5.0281e+000 40930 94475,94642,94345
 1.5000e+000 95148 -1.2098e+001 -6.5918e+001  1.2507e+001 40362 95171,94952,94926
 1.5000e+000 95125 -1.3369e+001 -6.8224e+001  5.1579e+000 40362 95171,94926,95004
 1.5000e+000 95102 -1.5901e+001 -6.3167e+001  6.5661e+000 40362 94874,95004,94926
 1.5000e+000 95079  1.1169e+001 -6.1015e+001  1.9855e+001 40362 94874,95030,95004
 1.5000e+000 95056 -1.3682e+001 -8.6495e+001 -2.0309e+001 40362 94874,94926,94900
 1.5000e+000 95197 -1.4700e+001 -7.3070e+001  1.1756e+001 40362 94978,94952,95171
 1.5000e+000 95220 -1.5888e+001 -7.4990e+001  4.6412e+000 40362 94978,95171,95004
 1.5000e+000 95549 -2.4146e+001 -5.4880e+001  3.2547e+000 39586 95350,95402,95376
 1.5000e+000 95526 -1.0778e+001 -5.1645e+001  2.4897e+000 39586 95324,95402,95350
 1.5000e+000 95503 -1.5626e+001 -5.0471e+001  1.0545e+001 39586 95324,95454,95402
 1.5000e+000 95480 -1.6108e+001 -6.2439e+001  1.0551e+001 39586 95402,95454,95428
 1.5000e+000 96055 -9.5501e-001 -3.9344e+001 -1.4912e+000 38968 96078,95862,95810
 1.5000e+000 96032 -9.8090e+000 -3.9451e+001 -4.7855e+000 38968 96078,95810,95758
 1.5000e+000 96009  2.6007e+000 -4.3416e+001 -6.6639e+000 38968 96150,95732,95888
 1.5000e+000 95986 -4.4550e+000 -3.9206e+001  4.4047e-001 38968 95810,95862,95836
 1.5000e+000 95963  4.8426e+000 -4.0806e+001 -9.1379e+000 38968 95732,95914,95888
 1.5000e+000 95940 -1.7255e+001 -4.6879e+001  2.3075e-002 38968 95758,95810,95784
 1.5000e+000 96104 -1.3806e+000 -4.0499e+001 -7.1309e-001 38968 95888,95862,96078
 1.5000e+000 96127 -3.4493e+000 -4.1689e+001 -1.3295e+000 38968 96150,95888,96078
 1.5000e+000 96176  1.1620e+001 -3.5604e+001 -1.1422e+001 38968 95758,95732,96150
 1.5000e+000 96199  4.9169e+000 -3.2674e+001 -6.4428e+000 38968 95758,96150,96078
 1.5000e+000 96545 -6.6103e+000 -6.1515e+001 -1.3832e+000 38507 96640,96568,96352
 1.5000e+000 96522 -1.6255e+001 -7.1460e+001  4.2351e+000 38507 96568,96300,96222
 1.5000e+000 96499 -4.1869e+000 -5.6797e+001 -9.8175e+000 38507 96640,96352,96326
 1.5000e+000 96476 -1.0695e+001 -6.3463e+001  4.9733e+000 38507 96352,96404,96378
 1.5000e+000 96453 -2.8840e+001 -9.4696e+001 -6.0706e-001 38507 96222,96300,96248
 1.5000e+000 96430 -2.3627e+001 -1.0592e+002 -9.3177e+000 38507 96248,96300,96274
 1.5000e+000 96594 -9.3252e+000 -6.8644e+001  1.1928e+000 38507 96404,96352,96568
 1.5000e+000 96617 -9.5976e+000 -6.5859e+001  7.3144e-001 38507 96404,96568,96222
 1.5000e+000 96666 -1.2372e+001 -7.4201e+001  1.4888e+000 38507 96300,96568,96640
 1.5000e+000 96689 -1.1975e+001 -7.0650e+001 -6.1639e+000 38507 96300,96640,96326
 1.5000e+000 97069 -1.3484e+001 -4.8277e+001 -3.3065e+000 37760 97092,96873,96821
 1.5000e+000 97046 -1.1248e+001 -4.7556e+001 -9.7557e-001 37760 97092,96821,96795
 1.5000e+000 97023 -1.3358e+001 -6.0365e+001  3.5938e-002 37760 96821,96873,96847
 1.5000e+000 97000  8.4742e+000 -4.5574e+001  9.4797e+000 37760 96873,96925,96899
 1.5000e+000 96977 -2.3046e+001 -5.2650e+001  1.1435e+001 37760 96795,96951,96925
 1.5000e+000 97118 -1.3791e+001 -4.6975e+001 -5.7548e-001 37760 96925,96873,97092
 1.5000e+000 97141 -7.9483e+000 -4.4812e+001  1.8791e+000 37760 96925,97092,96795
 1.5000e+000 97647 -2.3044e+001 -6.6381e+001  4.5431e-001 37356 97324,97480,97376
 1.5000e+000 97624 -1.0267e+001 -6.3773e+001  4.5230e+000 37356 97324,97506,97480
 1.5000e+000 97601 -2.8604e+001 -6.4738e+001 -4.2765e-001 37356 97376,97480,97454
 1.5000e+000 97578 -2.9379e+001 -8.0140e+001  2.2987e+000 37356 97324,97376,97350
 1.5000e+000 97555 -9.6787e+000 -5.1301e+001  1.1028e+001 37356 97376,97454,97402
 1.5000e+000 97532 -3.7173e+001 -8.5130e+001 -8.8349e-001 37356 97402,97454,97428
 1.5000e+000 98232 -1.0382e+001 -3.9084e+001 -6.3259e+000 36902 97935,98065,98013
 1.5000e+000 98209  1.2959e+001 -2.9996e+001 -4.9722e+000 36902 97935,98091,98065
 1.5000e+000 98186  1.8416e+001 -2.1224e+001 -1.3917e+001 36902 97935,98013,97987
 1.5000e+000 98163  3.2798e+001 -3.1962e+001  2.6114e+000 36902 97909,98091,97935
 1.5000e+000 98140  1.0220e+001 -3.3259e+001 -9.8527e+000 36902 97935,97987,97961
 1.5000e+000 98117 -8.6905e+000 -3.4946e+001 -6.3420e+000 36902 98013,98065,98039
 1.5000e+000 98659 -1.1751e+001 -7.6740e+001 -5.1432e+000 36604 98682,98414,98388
 1.5000e+000 98636 -1.7133e+001 -7.6854e+001  4.2812e+000 36604 98682,98388,98336
 1.5000e+000 98613 -1.8465e+001 -6.7120e+001 -9.5641e-001 36604 98754,98518,98466
 1.5000e+000 98590 -1.1736e+000 -5.6722e+001 -5.5774e+000 36604 98414,98466,98440
 1.5000e+000 98567 -9.0438e+000 -9.9537e+001  5.1594e+000 36604 98336,98388,98362
 1.5000e+000 98544 -6.1577e+000 -7.1866e+001  3.1523e+001 36604 98466,98518,98492
 1.5000e+000 98708 -8.9734e+000 -6.6603e+001 -9.1390e+000 36604 98466,98414,98682
 1.5000e+000 98731 -1.5848e+001 -7.2356e+001 -1.2151e+000 36604 98754,98466,98682
 1.5000e+000 98780 -1.6515e+001 -6.5519e+001 -2.5671e-001 36604 98336,98518,98754
 1.5000e+000 98803 -1.1044e+001 -6.7699e+001  6.7992e-001 36604 98336,98754,98682
 1.5000e+000 99309 -1.3428e+001 -5.5602e+001  1.1172e+001 36200 99332,99116,99012
 1.5000e+000 99286 -1.4224e+001 -3.4840e+001  1.3304e+000 36200 99332,99012,98986
 1.5000e+000 99263 -1.2652e+001 -3.9697e+001  1.4682e+001 36200 99012,99116,99064
 1.5000e+000 99240 -1.1862e+001 -4.9226e+001 -3.6478e-001 36200 98986,99168,99142
 1.5000e+000 99217 -2.8518e+001 -4.2192e+001  1.5285e+001 36200 99064,99116,99090
 1.5000e+000 99194 -2.6008e+001 -4.4904e+001  5.9279e+000 36200 99012,99064,99038
 1.5000e+000 99358 -1.6090e+001 -6.9169e+001  1.5789e+001 36200 99142,99116,99332
 1.5000e+000 99381 -1.9478e+001 -5.6393e+001  3.8304e+000 36200 99142,99332,98986
 1.5000e+000 99887 -3.0621e+001 -5.6979e+001  2.7051e+000 35488 99564,99720,99590
 1.5000e+000 99864 -2.7465e+001 -4.9879e+001  3.5051e+000 35488 99564,99746,99720
 1.5000e+000 99841 -2.0512e+001 -6.2931e+001 -1.3747e+000 35488 99642,99694,99668
 1.5000e+000 99818 -2.6369e+001 -6.9625e+001  5.7468e+000 35488 99590,99694,99642
 1.5000e+000 99795 -1.7048e+001 -5.2605e+001  1.9229e+000 35488 99590,99720,99694
 1.5000e+000 99772 -1.3129e+001 -8.9666e+001  7.2484e+000 35488 99590,99642,99616
 1.5000e+000 99988  7.0230e+001 -4.9905e+001  5.0417e+000 35198 99910,99962,99936
 1.5000e+000 100138 -1.3197e+001 -7.7416e+001  4.3396e+000 34794 100233,100161,100063
 1.5000e+000 100115 -3.6704e+001 -8.5178e+001  1.8642e+000 34794 100365,100161,100037
 1.5000e+000 100187 -3.2541e+000 -7.1637e+001  1.3105e+000 34794 100089,100063,100161
 1.5000e+000 100210 -7.3526e+000 -6.5632e+001  5.7151e+000 34794 100089,100161,100011
 1.5000e+000 100259 -2.5434e+001 -9.7713e+001 -9.2427e+000 34794 100037,100161,100233
 1.5000e+000 100391  4.3555e+000 -5.2987e+001 -1.2385e+001 34794 100011,100161,100365
 1.5000e+000 100927 -1.5777e+000 -5.0516e+001 -2.0851e+000 34404 100679,100809,100783
 1.5000e+000 100904 -4.2744e+000 -4.9316e+001 -2.0239e+000 34404 100653,100809,100679
 1.5000e+000 100881 -1.4621e+001 -6.2534e+001 -1.6549e+000 34404 100705,100783,100731
 1.5000e+000 100858 -1.2721e+001 -5.6745e+001  1.3623e+000 34404 100679,100783,100705
 1.5000e+000 100835 -1.8715e+001 -6.9277e+001 -3.7257e+000 34404 100731,100783,100757
 1.5000e+000 101354 -1.4934e+001 -6.8719e+001 -8.5758e-001 34000 101377,101109,101057
 1.5000e+000 101331 -2.2172e+001 -6.8658e+001  1.6901e+000 34000 101449,101377,101057
 1.5000e+000 101308 -2.3428e+001 -6.8948e+001  1.2953e+000 34000 101449,101057,101031
 1.5000e+000 101285 -2.5177e+001 -7.1013e+001  1.9168e+001 34000 101031,101213,101187
 1.5000e+000 101262 -2.1892e+001 -8.7406e+001 -1.0603e+001 34000 101135,101187,101161
 1.5000e+000 101239  1.3083e+000 -7.0488e+001 -2.9704e+000 34000 101057,101109,101083
 1.5000e+000 101403 -1.6780e+001 -6.0022e+001 -8.5484e+000 34000 101135,101109,101377
 1.5000e+000 101426 -2.7818e+001 -6.5796e+001 -3.8881e+000 34000 101135,101377,101187
 1.5000e+000 101475 -2.0080e+001 -6.9544e+001  1.2056e+000 34000 101187,101377,101449
 1.5000e+000 101498 -2.1315e+001 -6.9748e+001  1.1054e+000 34000 101187,101449,101031
 1.5000e+000 102083  2.2886e+000 -5.2022e+001  1.6841e+000 33472 102106,101812,101786
 1.5000e+000 102060 -8.1287e+000 -5.4405e+001 -1.0922e+000 33472 102106,101786,101916
 1.5000e+000 102037 -1.4698e+001 -6.0013e+001 -4.1539e+000 33472 101812,101864,101838
 1.5000e+000 102014 -6.4955e+000 -6.9137e+001 -4.4488e+000 33472 101864,101916,101890
 1.5000e+000 101991 -2.1658e+001 -5.5368e+001 -4.1834e+000 33472 101786,101942,101916
 1.5000e+000 101968 -2.7304e+001 -5.4723e+001  9.7179e+000 33472 101760,101942,101786
 1.5000e+000 102132 -4.8169e+000 -5.4954e+001 -2.3250e+000 33472 101864,101812,102106
 1.5000e+000 102155 -9.2102e+000 -5.4763e+001 -5.4849e+000 33472 101864,102106,101916
 1.5000e+000 102612 -2.1788e+001 -6.3925e+001 -8.8037e+000 33038 102635,102468,102390
 1.5000e+000 102589 -3.1987e+001 -7.6975e+001 -1.6759e+001 33038 102635,102390,102364
 1.5000e+000 102566 -1.8502e+001 -5.1033e+001 -4.0903e+000 33038 102390,102468,102442
 1.5000e+000 102543 -8.7137e+000 -5.5595e+001 -3.3156e+000 33038 102338,102494,102364
 1.5000e+000 102520 -1.0807e+001 -5.0641e+001 -9.0890e+000 33038 102390,102442,102416
 1.5000e+000 102661 -1.9984e+001 -6.0363e+001 -1.9407e+000 33038 102494,102468,102635
 1.5000e+000 102684 -2.0901e+001 -6.6859e+001 -8.4540e+000 33038 102494,102635,102364
 1.5000e+000 103318 -2.7024e+001 -5.2299e+001  2.9045e+000 32402 102972,103128,103076
 1.5000e+000 103295 -2.5731e+001 -5.4163e+001  2.3178e+000 32402 102946,103128,102972
 1.5000e+000 103272 -3.0096e+001 -6.0886e+001  5.3270e+000 32402 103076,103128,103102
 1.5000e+000 103249 -2.3442e+001 -5.2392e+001  1.3183e+001 32402 102946,103154,103128
 1.5000e+000 103226 -2.6813e+001 -4.9557e+001  4.6977e-001 32402 102972,103076,102998
 1.5000e+000 103203 -2.6542e+001 -4.9661e+001  3.5067e-001 32402 102998,103076,103050
 1.5000e+000 103180 -2.5947e+001 -4.4366e+001 -1.3568e+000 32402 102998,103050,103024
 1.5000e+000 103696  3.6897e+000 -5.3490e+001 -8.1298e+000 31924 103448,103526,103500
 1.5000e+000 103673  1.1479e+001 -5.2381e+001 -1.6903e+001 31924 103448,103578,103526
 1.5000e+000 103650 -5.2719e+000 -3.4297e+001 -7.6304e+000 31924 103448,103500,103474
 1.5000e+000 103627 -9.1867e+000 -6.5114e+001 -2.4718e+001 31924 103422,103578,103448
 1.5000e+000 103604  2.7822e+001 -7.6150e+001 -1.4745e+001 31924 103526,103578,103552
 1.5000e+000 104281 -1.4621e+001 -3.8337e+001 -3.5031e-002 31520 104304,104062,104036
 1.5000e+000 104258 -2.6649e+001 -3.9182e+001 -1.7394e+000 31520 104304,104036,103984
 1.5000e+000 104235 -3.0250e+001 -5.1245e+001 -1.7791e+001 31520 104062,104114,104088
 1.5000e+000 104212 -2.4514e+001 -4.1526e+001 -6.4889e+000 31520 103958,104114,103984
 1.5000e+000 104189 -2.7372e+001 -4.0898e+001 -2.5185e+000 31520 103984,104036,104010
 1.5000e+000 104166 -2.1483e+001 -4.6036e+001 -7.4733e+000 31520 103958,104140,104114
 1.5000e+000 104330 -1.1526e+001 -4.1213e+001 -5.3310e+000 31520 104114,104062,104304
 1.5000e+000 104353 -1.7886e+001 -3.9113e+001 -4.7996e+000 31520 104114,104304,103984
 1.5000e+000 104704  1.2789e+001 -2.7637e+001  3.3545e+000 31066 104479,104583,104505
 1.5000e+000 104681  1.9054e+001 -1.9394e+001 -1.2615e+000 31066 104479,104609,104583
 1.5000e+000 104658  3.7596e+001 -5.6597e+001  2.5085e+000 31066 104505,104557,104531
 1.5000e+000 104635  2.5405e+001 -2.8909e+001  1.7634e+000 31066 104505,104583,104557
 1.5000e+000 104925 -9.3989e+000 -8.4687e+001 -7.7835e-002 30754 104775,104827,104801
 1.5000e+000 104902 -8.4697e+000 -6.9834e+001 -5.0648e-001 30754 104775,104853,104827
 1.5000e+000 104879 -5.8861e+000 -6.8491e+001  2.8351e+000 30754 104749,104853,104775
 1.5000e+000 105482 -2.0017e+001 -7.0338e+001 -1.7350e+000 30164 105505,105136,105110
 1.5000e+000 105459 -2.0703e+001 -8.2891e+001  2.9661e+000 30164 105649,105505,105110
 1.5000e+000 105436 -2.6205e+001 -6.8222e+001 -1.6000e+000 30164 105577,105188,105136
 1.5000e+000 105413 -2.0007e+001 -8.5049e+001  1.9188e+001 30164 105649,105110,105318
 1.5000e+000 105390 -3.0408e+001 -9.5984e+001  1.6267e+001 30164 105214,105292,105240
 1.5000e+000 105367 -1.8361e+001 -7.3633e+001  2.7437e+000 30164 105240,105292,105266
 1.5000e+000 105344 -2.1637e+001 -5.8571e+001 -4.9794e+000 30164 105136,105188,105162
 1.5000e+000 105531 -2.0933e+001 -6.5767e+001 -1.5416e-001 30164 105577,105136,105505
 1.5000e+000 105554 -1.5592e+001 -6.4874e+001  5.5499e+000 30164 105214,105505,105292
 1.5000e+000 105603 -2.2597e+001 -6.6213e+001  3.8721e+000 30164 105214,105188,105577
 1.5000e+000 105626 -1.9616e+001 -6.4628e+001  5.2899e+000 30164 105214,105577,105505
 1.5000e+000 105675 -1.0469e+001 -5.7624e+001  8.2728e+000 30164 105292,105505,105649
 1.5000e+000 105698 -9.7139e+000 -5.0571e+001  2.1616e+001 30164 105292,105649,105318
 1.5000e+000 106027  8.6539e+000 -4.1836e+001 -2.1035e+000 29868 106322,106050,105880
 1.5000e+000 106004  4.5729e+000 -2.9716e+001 -1.2527e+001 29868 106250,106050,105828
 1.5000e+000 105981  9.9522e+000 -3.4076e+001 -2.5379e+001 29868 106250,105828,105802
 1.5000e+000 105958 -1.8016e-001 -3.5624e+001  5.7852e+000 29868 106322,105880,106122
 1.5000e+000 106076  1.2430e-001 -6.6992e+001  4.4616e-001 29868 105906,105880,106050
 1.5000e+000 106099  4.7007e+000 -4.7234e+001 -4.6132e+000 29868 105906,106050,105932
 1.5000e+000 106148 -2.2234e+001 -5.0179e+001 -3.1743e+000 29868 105854,105828,106122
 1.5000e+000 106276 -1.8225e+000 -4.8535e+001 -6.3166e+000 29868 105932,106050,106250
 1.5000e+000 106299  6.5778e+000 -5.7398e+001 -2.0290e+001 29868 105932,106250,105802
 1.5000e+000 106348 -7.2124e+000 -4.7549e+001 -4.1326e+000 29868 105828,106050,106322
 1.5000e+000 106371 -1.4404e+001 -4.0291e+001  3.7488e+000 29868 105828,106322,106122
 1.5000e+000 106828 -1.0397e+001 -3.2701e+001  6.1704e+000 29521 106580,106710,106684
 1.5000e+000 106805 -2.2678e+001 -4.4097e+001 -2.7718e+000 29521 106554,106710,106580
 1.5000e+000 106782 -1.6715e+001 -3.7347e+001  4.1385e+000 29521 106580,106684,106606
 1.5000e+000 106759 -2.0701e+001 -4.8577e+001  4.9908e+000 29521 106606,106684,106658
 1.5000e+000 106736  3.4223e+001 -4.4399e+001  8.8180e+000 29521 106606,106658,106632
 1.5000e+000 107027 -7.0700e+000 -5.5426e+001  1.5724e+000 29117 106877,106929,106903
 1.5000e+000 107004 -1.1265e+001 -5.7155e+001  5.9180e+000 29117 106851,106929,106877
 1.5000e+000 106981 -1.5049e+001 -4.8655e+001  5.8894e+000 29117 106851,106955,106929
 1.5000e+000 107456 -2.3360e+001 -6.3672e+001 -6.7625e+000 28656 107237,107315,107263
 1.5000e+000 107433 -1.0871e+001 -5.3747e+001 -2.2210e+000 28656 107133,107315,107237
 1.5000e+000 107410 -5.5516e+000 -4.6204e+001 -5.1878e+000 28656 107133,107237,107159
 1.5000e+000 107387 -4.7583e+000 -3.9061e+001 -6.7651e+000 28656 107159,107237,107185
 1.5000e+000 107364  9.6432e+000 -3.5749e+001 -1.6573e+001 28656 107185,107237,107211
 1.5000e+000 107341 -1.6292e+001 -5.0059e+001 -1.5817e+000 28656 107263,107315,107289
 1.5000e+000 107704 -1.5130e+001 -6.5361e+001  1.1783e+000 27902 107727,107557,107531
 1.5000e+000 107681 -1.5186e+001 -6.1670e+001  6.1244e-001 27902 107727,107531,107505
 1.5000e+000 107658 -1.5695e+001 -6.5177e+001 -5.6557e-001 27902 107557,107609,107583
 1.5000e+000 107635 -1.9586e+001 -7.3787e+001 -1.6644e+001 27902 107479,107609,107505
 1.5000e+000 107753 -1.5073e+001 -6.2490e+001 -2.4578e-001 27902 107609,107557,107727
 1.5000e+000 107776 -1.5494e+001 -5.9339e+001 -8.4905e-001 27902 107609,107727,107505
 1.5000e+000 108333 -2.5865e+001 -6.9216e+001 -2.7968e-001 27341 108356,108065,108013
 1.5000e+000 108310 -2.8283e+001 -6.8888e+001 -6.2724e+000 27341 108356,108013,108143
 1.5000e+000 108287 -2.4621e+001 -7.4108e+001 -6.2440e+000 27341 108428,108117,108091
 1.5000e+000 108264 -3.3397e+001 -7.0548e+001  2.0375e+000 27341 108013,108065,108039
 1.5000e+000 108241 -4.0384e+001 -6.2865e+001 -6.6922e+000 27341 107987,108143,108013
 1.5000e+000 108218 -2.5982e+001 -5.6586e+001 -8.7740e+000 27341 107987,108169,108143
 1.5000e+000 108195 -2.2102e+001 -5.2689e+001 -7.2168e+000 27341 107961,108169,107987
 1.5000e+000 108382 -2.9189e+001 -7.6946e+001 -5.3904e-001 27341 108091,108065,108356
 1.5000e+000 108405 -2.7260e+001 -6.9714e+001 -4.5121e+000 27341 108428,108091,108356
 1.5000e+000 108454 -2.9396e+001 -8.1563e+001 -8.4911e+000 27341 108143,108117,108428
 1.5000e+000 108477 -3.1198e+001 -7.5674e+001 -6.6090e+000 27341 108143,108428,108356
 1.5000e+000 108725 -4.6070e+000 -6.0265e+001 -2.4879e+000 27029 108748,108526,108500
 1.5000e+000 108702 -7.4066e+000 -5.2435e+001 -8.1078e-001 27029 108748,108500,108630
 1.5000e+000 108679 -1.3234e+001 -6.0197e+001 -2.7226e+000 27029 108578,108630,108604
 1.5000e+000 108656 -1.1833e+001 -4.5556e+001  2.5676e+001 27029 108526,108578,108552
 1.5000e+000 108774 -7.2623e+000 -6.3198e+001 -3.7294e+000 27029 108578,108526,108748
 1.5000e+000 108797 -1.2176e+001 -5.7899e+001 -3.0138e+000 27029 108578,108748,108630
 1.5000e+000 109045 -1.5168e+001 -5.8439e+001 -1.5931e+000 26610 108872,108924,108898
 1.5000e+000 109022 -1.4424e+001 -5.5129e+001 -8.2169e-002 26610 108872,108950,108924
 1.5000e+000 108999 -1.6287e+001 -5.6455e+001 -2.1922e+000 26610 108846,108950,108872
 1.5000e+000 108976 -1.6878e+001 -5.0613e+001 -1.2954e+000 26610 108820,108950,108846
 1.5000e+000 109366 -5.3464e+000 -7.0486e+001 -2.6315e+000 26006 109144,109222,109196
 1.5000e+000 109343 -2.3649e+000 -6.7872e+001 -1.5234e+000 26006 109118,109222,109144
 1.5000e+000 109320 -8.0289e+000 -7.0262e+001 -1.1612e+000 26006 109092,109222,109118
 1.5000e+000 109297 -1.1970e+001 -7.3275e+001 -3.0741e+000 26006 109144,109196,109170
 1.5000e+000 109274  6.9039e+000 -6.0823e+001 -9.0829e+000 26006 109092,109248,109222
 1.5000e+000 109567 -1.1576e+001 -6.0957e+001  1.6898e+000 25659 109391,109469,109443
 1.5000e+000 109544 -1.2957e+001 -6.2716e+001  4.6171e+000 25659 109391,109495,109469
 1.5000e+000 109521 -8.7548e+000 -5.9085e+001 -2.6280e-001 25659 109391,109443,109417
 1.5000e+000 109900 -3.2385e+001 -7.0587e+001 -4.1518e+000 25255 109923,109779,109753
 1.5000e+000 109877 -2.9374e+001 -6.1380e+001 -7.1182e-001 25255 109923,109753,109701
 1.5000e+000 109854 -3.4459e+001 -6.1118e+001 -1.0436e+001 25255 109675,109805,109701
 1.5000e+000 109831 -3.3232e+001 -4.9375e+001 -5.2049e+000 25255 109701,109753,109727
 1.5000e+000 109949 -3.5124e+001 -8.3831e+001 -1.3417e+001 25255 109805,109779,109923
 1.5000e+000 109972 -2.7733e+001 -6.7079e+001 -9.7356e+000 25255 109805,109923,109701
 1.5000e+000 110220 -1.8896e+001 -5.7440e+001 -2.1615e+000 24701 110243,110021,109995
 1.5000e+000 110197 -1.9771e+001 -6.1694e+001 -6.5540e+000 24701 110243,109995,110099
 1.5000e+000 110174 -1.5432e+001 -5.7451e+001 -4.2073e+000 24701 110315,110073,110047
 1.5000e+000 110151  1.6867e+001 -7.4480e+001 -9.4812e+000 24701 109995,110125,110099
 1.5000e+000 110269 -1.9810e+001 -5.7051e+001 -1.4588e+000 24701 110047,110021,110243
 1.5000e+000 110292 -2.2460e+001 -5.7629e+001 -2.2334e+000 24701 110315,110047,110243
 1.5000e+000 110341  4.1924e+000 -5.3439e+001 -3.7346e+000 24701 110099,110073,110315
 1.5000e+000 110364 -8.5325e+000 -5.6861e+001 -3.1097e+000 24701 110099,110315,110243
 1.5000e+000 110661 -1.4118e+001 -6.5593e+001 -1.2116e-001 24197 110684,110413,110387
 1.5000e+000 110638 -1.0372e+001 -5.8373e+001 -1.9975e+000 24197 110684,110387,110543
 1.5000e+000 110615 -9.2496e+000 -7.7087e+001  1.2157e+000 24197 110756,110491,110465
 1.5000e+000 110592  8.6336e+000 -6.4617e+001  1.9293e+000 24197 110413,110465,110439
 1.5000e+000 110569 -1.0238e+001 -9.1066e+001 -1.9476e+001 24197 110491,110543,110517
 1.5000e+000 110710 -7.4047e+000 -6.1941e+001  2.6986e+000 24197 110465,110413,110684
 1.5000e+000 110733 -1.2199e+001 -7.1928e+001  6.0273e-001 24197 110756,110465,110684
 1.5000e+000 110782 -9.9227e+000 -7.1152e+001 -3.9968e+000 24197 110543,110491,110756
 1.5000e+000 110805 -1.0545e+001 -6.3021e+001 -4.6180e+000 24197 110543,110756,110684
 1.5000e+000 111315 -2.5162e+001 -7.4830e+001 -1.0181e+001 23593 111044,111148,111070
 1.5000e+000 111292 -2.7944e+001 -6.2029e+001 -4.3233e+000 23593 111044,111174,111148
 1.5000e+000 111269 -2.2219e+001 -5.7763e+001 -8.0692e-001 23593 111070,111122,111096
 1.5000e+000 111246 -2.5953e+001 -8.0558e+001 -7.9799e+000 23593 111070,111148,111122
 1.5000e+000 111223 -4.0711e+001 -7.3924e+001 -1.3617e+001 23593 111018,111174,111044
 1.5000e+000 111200 -1.8182e+001 -5.9889e+001 -5.9296e+000 23593 110992,111174,111018
 1.5000e+000 111821 -2.2007e+000 -6.7518e+001 -1.7510e+000 23089 111916,111844,111628
 1.5000e+000 111798 -1.6979e+001 -7.5898e+001 -4.4620e+000 23089 111844,111550,111524
 1.5000e+000 111775  7.7534e-001 -6.3877e+001 -4.6826e-001 23089 111916,111628,111602
 1.5000e+000 111752 -1.0212e+001 -9.9891e+001  1.9889e+000 23089 111498,111680,111524
 1.5000e+000 111729 -1.2601e+001 -5.8308e+001 -2.9902e-001 23089 111550,111602,111576
 1.5000e+000 111706 -2.4295e+000 -5.2895e+001 -4.6255e+000 23089 111628,111680,111654
 1.5000e+000 111870 -1.2519e+001 -6.6630e+001  1.6125e+000 23089 111680,111628,111844
 1.5000e+000 111893 -1.4687e+001 -7.1169e+001  6.2971e+000 23089 111680,111844,111524
 1.5000e+000 111942 -1.0455e+001 -6.0502e+001 -3.3175e+000 23089 111550,111844,111916
 1.5000e+000 111965 -6.6564e+000 -5.6432e+001 -1.7186e+000 23089 111550,111916,111602
 1.5000e+000 112164  9.4150e+000 -5.5531e+001 -4.0879e+000 22626 112187,112014,111988
 1.5000e+000 112141 -1.6562e+000 -6.2099e+001 -2.1109e-001 22626 112259,112187,111988
 1.5000e+000 112118 -5.5306e+000 -6.7334e+001  5.8427e+000 22626 112259,111988,112092
 1.5000e+000 112213 -7.3559e-001 -5.4649e+001 -5.8457e+000 22626 112040,112014,112187
 1.5000e+000 112236 -1.5734e-001 -5.0871e+001 -5.0611e+000 22626 112040,112187,112066
 1.5000e+000 112285 -2.9169e+000 -5.1720e+001 -5.0252e+000 22626 112066,112187,112259
 1.5000e+000 112308 -3.6161e+000 -5.5010e+001  3.6012e-001 22626 112066,112259,112092
 1.5000e+000 112605 -5.8619e+000 -6.6562e+001  3.1512e+000 22286 112628,112383,112357
 1.5000e+000 112582 -1.4575e+001 -6.9182e+001  2.2741e+000 22286 112772,112628,112357
 1.5000e+000 112559 -2.6986e+001 -7.7331e+001  5.4721e+000 22286 112700,112435,112409
 1.5000e+000 112536 -2.3127e+001 -6.9630e+001  4.4424e+000 22286 112772,112357,112331
 1.5000e+000 112513 -3.1126e+001 -6.6811e+001  2.5452e+000 22286 112435,112487,112461
 1.5000e+000 112654 -9.3667e+000 -5.4863e+001 -3.3571e+000 22286 112409,112383,112628
 1.5000e+000 112677 -2.1147e+001 -6.7928e+001  1.7058e+000 22286 112700,112409,112628
 1.5000e+000 112726 -2.0226e+001 -6.9863e+001 -1.4828e+000 22286 112487,112435,112700
 1.5000e+000 112749 -1.8252e+001 -6.8480e+001 -4.4071e+000 22286 112487,112700,112628
 1.5000e+000 112798 -1.0835e+001 -6.6986e+001  6.9516e-001 22286 112487,112628,112772
 1.5000e+000 112821 -1.3579e+001 -6.3929e+001  2.0605e+000 22286 112487,112772,112331
 1.5000e+000 112924  3.1422e+000 -7.7309e+001 -5.4032e+000 21974 112846,112898,112872
 1.5000e+000 113223 -3.6699e+001 -7.8752e+001  3.7015e+000 21420 112949,113053,112975
 1.5000e+000 113200 -2.9554e+001 -6.5831e+001  8.5892e-001 21420 112949,113079,113053
 1.5000e+000 113177 -2.8363e+001 -7.3397e+001 -2.2998e-001 21420 112975,113053,113001
 1.5000e+000 113154 -3.3712e+001 -6.8807e+001  3.6381e+000 21420 113001,113053,113027
 1.5000e+000 113131 -3.9527e+001 -6.5826e+001 -7.6013e-001 21420 112949,113105,113079
 1.5000e+000 113605 -1.2072e+001 -7.6413e+001  6.6895e+000 20716 113331,113435,113357
 1.5000e+000 113582 -1.4517e+001 -5.9128e+001  8.2333e+000 20716 113331,113461,113435
 1.5000e+000 113559 -1.0462e+001 -7.7583e+001 -2.5796e+000 20716 113383,113435,113409
 1.5000e+000 113536 -1.1285e+001 -7.1908e+001 -4.2450e-001 20716 113357,113435,113383
 1.5000e+000 113513  2.5415e+001 -4.8294e+001  8.8442e+000 20716 113331,113487,113461
 1.5000e+000 113853 -1.5010e+001 -6.9175e+001  1.3265e+000 20290 113876,113680,113654
 1.5000e+000 113830 -1.6929e+001 -7.1001e+001  4.8852e-001 20290 113876,113654,113628
 1.5000e+000 113807 -1.5504e+001 -7.2807e+001 -5.7282e-001 20290 113948,113732,113680
 1.5000e+000 113784  6.6164e+000 -6.8826e+001 -4.4621e+000 20290 113680,113732,113706
 1.5000e+000 113902 -1.4313e+001 -7.1229e+001  5.6435e-001 20290 113948,113680,113876
 1.5000e+000 113925 -1.5775e+001 -7.0572e+001  2.0695e-001 20290 113758,113876,113628
 1.5000e+000 113974 -1.6835e+001 -7.1354e+001 -1.0579e+000 20290 113758,113732,113948
 1.5000e+000 113997 -1.6733e+001 -7.1244e+001 -1.8653e-001 20290 113758,113948,113876
 1.5000e+000 114365 -1.2619e+001 -7.1672e+001  2.3536e-001 19900 114146,114198,114172
 1.5000e+000 114342 -1.3978e+001 -7.2325e+001 -2.4123e-001 19900 114042,114198,114146
 1.5000e+000 114319 -1.0441e+001 -7.2073e+001 -2.4243e+000 19900 114042,114224,114198
 1.5000e+000 114296 -2.7709e+001 -6.9263e+001 -1.0663e+000 19900 114094,114146,114120
 1.5000e+000 114273 -1.4112e+001 -6.6713e+001 -3.5835e+000 19900 114042,114146,114094
 1.5000e+000 114250 -1.0719e+001 -6.9224e+001 -8.4971e+000 19900 114042,114094,114068
 1.5000e+000 114566 -4.3475e+000 -6.8451e+001  2.4547e+000 19496 114442,114494,114468
 1.5000e+000 114543 -1.8602e+001 -6.8784e+001 -4.3604e+000 19496 114416,114494,114442
 1.5000e+000 114520  5.4322e+000 -6.7375e+001 -7.6849e+000 19496 114390,114494,114416
 1.5000e+000 114767 -1.7093e+001 -6.8938e+001  3.5092e-001 19042 114790,114669,114643
 1.5000e+000 114744 -1.9750e+001 -6.7232e+001  1.1029e+000 19042 114790,114643,114591
 1.5000e+000 114721 -2.1505e+001 -8.0341e+001  5.0371e+000 19042 114591,114643,114617
 1.5000e+000 114816 -1.5753e+001 -6.7476e+001 -2.6910e-001 19042 114695,114669,114790
 1.5000e+000 114839 -1.7953e+001 -6.4925e+001  3.1285e-001 19042 114695,114790,114591
 1.5000e+000 114991 -1.2359e+001 -6.9188e+001 -1.8891e+000 18488 114864,114916,114890
 1.5000e+000 114968 -1.6022e+001 -8.1350e+001  5.2816e-001 18488 114864,114942,114916
 1.5000e+000 115192 -1.2628e+001 -6.5984e+001 -1.1847e+000 18098 115215,115042,115016
 1.5000e+000 115169 -8.3504e+000 -6.0436e+001 -3.9087e+000 18098 115215,115016,115120
 1.5000e+000 115146 -1.1401e+001 -6.7463e+001  1.9424e+000 18098 115287,115094,115068
 1.5000e+000 115241 -9.6890e+000 -6.9173e+001 -1.2163e-001 18098 115068,115042,115215
 1.5000e+000 115264 -1.0902e+001 -6.7149e+001  2.0153e-001 18098 115287,115068,115215
 1.5000e+000 115313 -8.6409e+000 -6.6989e+001  7.5347e-001 18098 115120,115094,115287
 1.5000e+000 115336 -7.3928e+000 -6.6440e+001 -9.1881e-001 18098 115120,115287,115215
 1.5000e+000 115846 -1.2761e+001 -7.9531e+001 -1.1334e+001 17644 115653,115705,115679
 1.5000e+000 115823 -2.2515e+001 -7.1268e+001 -4.9340e+000 17644 115627,115705,115653
 1.5000e+000 115800 -1.2779e+001 -6.2727e+001  1.3931e+000 17644 115549,115705,115627
 1.5000e+000 115777 -1.4609e+001 -7.2415e+001  1.1008e+000 17644 115549,115627,115575
 1.5000e+000 115754 -5.5206e+000 -5.4378e+001  9.2006e+000 17644 115523,115705,115549
 1.5000e+000 115731 -1.2481e+001 -6.6146e+001 -3.3016e+000 17644 115575,115627,115601
 1.5000e+000 116067 -1.6278e+001 -8.1917e+001 -1.0501e+000 17116 115891,115943,115917
 1.5000e+000 116044 -1.4777e+001 -9.7419e+001  2.1892e+000 17116 115891,115995,115943
 1.5000e+000 116021  3.2108e-001 -7.2145e+001  8.5253e+000 17116 115943,115995,115969
 1.5000e+000 116288 -3.1834e+000 -6.8171e+001  1.0896e+001 16704 116164,116216,116190
 1.5000e+000 116265 -1.3168e+001 -8.6914e+001  6.7099e+000 16704 116112,116216,116164
 1.5000e+000 116242 -2.1828e+001 -8.3253e+001 -3.1505e-001 16704 116112,116164,116138
 1.5000e+000 116489 -1.5427e+001 -7.4749e+001  1.3429e+000 16434 116339,116417,116365
 1.5000e+000 116466 -9.3364e+000 -7.2788e+001  3.1606e-001 16434 116313,116417,116339
 1.5000e+000 116443 -4.7160e+001 -7.5276e+001  2.8273e+001 16434 116365,116417,116391
 1.5000e+000 116592 -2.1762e+001 -7.1347e+001 -4.0950e+000 15967 116514,116566,116540
 1.5000e+000 116695  1.1660e+001 -7.6612e+001 -1.3307e+001 15552 116617,116669,116643
 1.5000e+000 116798 -1.1333e+001 -6.7394e+001  0.0000e+000 421 116720,116772,116746
 1.6000e+000 69066  5.3514e+000 -2.8834e+002  2.4688e+001 68738 68965,69017,68991
 1.6000e+000 69043  1.1875e+000 -2.9543e+002  8.2828e+000 68738 68939,69017,68965
 1.6000e+000 69371  1.3070e+000 -3.8597e+001 -3.7276e+000 68426 69172,69250,69198
 1.6000e+000 69348 -7.5263e+000 -6.5648e+001  1.0373e+001 68426 69146,69250,69172
 1.6000e+000 69325 -4.2941e+000 -2.3492e+001  8.9303e+000 68426 69198,69250,69224
 1.6000e+000 69302  1.0378e+001 -9.8030e+001  6.3155e+000 68426 69146,69276,69250
 1.6000e+000 69521 -1.2793e+001 -6.5744e+001  9.1058e+000 68228 69420,69472,69446
 1.6000e+000 69498 -4.5239e+000 -5.5593e+001  2.5168e+000 68228 69394,69472,69420
 1.6000e+000 69781 -3.6207e+000  1.3745e-002  3.5399e+000 68030 69631,69683,69657
 1.6000e+000 69758  3.5555e-001 -4.6765e+000  1.7333e+000 68030 69631,69709,69683
 1.6000e+000 69735  2.1360e+000 -2.1664e+000  5.5344e-001 68030 69605,69709,69631
 1.6000e+000 70078 -5.0130e+000 -1.5012e+001 -9.8436e+000 67832 69882,69934,69908
 1.6000e+000 70055 -9.2006e+000 -2.0326e+001 -7.1511e+000 67832 69856,69934,69882
 1.6000e+000 70032 -6.2984e-001 -3.6191e+001 -2.4537e+001 67832 69830,69934,69856
 1.6000e+000 70009 -6.8664e+000 -5.0391e+001 -1.9928e+001 67832 69804,69934,69830
 1.6000e+000 69986  1.9029e+001 -3.8625e+001 -1.5039e+001 67832 69804,69960,69934
 1.6000e+000 70586 -3.6415e+000 -4.6099e+001  4.9025e+000 67634 70609,70419,70341
 1.6000e+000 70563  8.7701e+000 -4.5712e+001  4.2056e+000 67634 70681,70609,70341
 1.6000e+000 70540  1.7889e+001 -4.3760e+001  1.2358e+001 67634 70681,70341,70315
 1.6000e+000 70517 -6.3178e+000 -4.9310e+001  6.8217e+000 67634 70341,70419,70367
 1.6000e+000 70494 -7.3863e+000 -3.5662e+001  1.2484e+001 67634 70263,70445,70289
 1.6000e+000 70471 -9.1957e+000 -2.9821e+001  3.2116e+000 67634 70367,70419,70393
 1.6000e+000 70635  7.6565e+000 -3.5858e+001  1.0815e+001 67634 70445,70419,70609
 1.6000e+000 70658 -7.5083e+000 -4.8382e+001  1.6988e+001 67634 70445,70609,70289
 1.6000e+000 70707  1.4809e+001 -3.8811e+001  2.0197e+001 67634 70289,70609,70681
 1.6000e+000 70730  3.3592e+001 -3.5157e+001  2.7564e+001 67634 70289,70681,70315
 1.6000e+000 71108  5.4502e+000 -6.9182e+001  9.2776e+000 67344 71131,70912,70886
 1.6000e+000 71085  1.3761e+001 -5.1386e+001  1.5663e+001 67344 71131,70886,70860
 1.6000e+000 71062  5.8974e+000 -5.9198e+001  2.7288e+000 67344 71203,70938,70912
 1.6000e+000 71039  1.1050e-001 -5.0109e+001  9.5445e+000 67344 70834,70990,70860
 1.6000e+000 71016 -7.0474e+000 -6.2796e+001 -2.4684e+000 67344 70938,70990,70964
 1.6000e+000 71157  4.5778e+000 -5.6645e+001  4.0128e+000 67344 71203,70912,71131
 1.6000e+000 71180  3.3263e+000 -5.3150e+001  8.4821e+000 67344 70990,71131,70860
 1.6000e+000 71229  3.9064e+000 -6.1099e+001  1.9518e+000 67344 70990,70938,71203
 1.6000e+000 71252  1.3589e+000 -5.9204e+001  2.8994e+000 67344 70990,71203,71131
 1.6000e+000 71603  3.4623e-001 -5.2597e+001  3.7554e+000 67032 71378,71482,71404
 1.6000e+000 71580  4.8947e+000 -3.9593e+001  7.3491e+000 67032 71378,71508,71482
 1.6000e+000 71557  9.7218e-001 -4.8763e+001 -2.1626e+000 67032 71404,71456,71430
 1.6000e+000 71534  4.7979e+000 -4.6551e+001 -1.1160e+000 67032 71404,71482,71456
 1.6000e+000 72003 -9.8838e-001 -3.6643e+001 -1.6017e+000 66834 71755,71859,71781
 1.6000e+000 71980  2.6957e-001 -4.3256e+001 -1.9127e+000 66834 71755,71885,71859
 1.6000e+000 71957  1.9598e+000 -3.1619e+001  7.4684e+000 66834 71781,71833,71807
 1.6000e+000 71934 -6.4178e+000 -4.4730e+001  3.6584e+000 66834 71781,71859,71833
 1.6000e+000 71911 -3.7830e+000 -4.9240e+001  4.6553e+000 66834 71729,71885,71755
 1.6000e+000 72430  6.3120e+000 -4.2073e+001 -8.7184e-001 66266 72237,72289,72263
 1.6000e+000 72407  5.3040e+000 -4.5344e+001  3.2932e+000 66266 72133,72289,72237
 1.6000e+000 72384  1.1392e+000 -3.8858e+001  1.9931e+000 66266 72133,72237,72211
 1.6000e+000 72361  4.6357e+000 -4.5951e+001  2.9626e+000 66266 72107,72289,72133
 1.6000e+000 72338 -1.3505e+001 -7.5611e+001  1.5041e+001 66266 72133,72211,72185
 1.6000e+000 72315  7.9550e-001 -7.9805e+001  1.6408e+001 66266 72133,72185,72159
 1.6000e+000 72580 -1.3632e+001 -8.5757e+001  8.8100e+000 65968 72479,72531,72505
 1.6000e+000 72557 -2.2041e+000 -6.6211e+001  4.0148e+000 65968 72453,72531,72479
 1.6000e+000 72960 -1.2407e+001 -7.5940e+001  2.3336e+000 65621 72983,72738,72712
 1.6000e+000 72937 -1.4414e+001 -7.4505e+001  2.0780e+000 65621 72983,72712,72686
 1.6000e+000 72914 -1.9598e+001 -8.3609e+001  8.4867e+000 65621 72738,72842,72764
 1.6000e+000 72891  1.0578e+000 -6.9933e+001 -5.9544e-001 65621 72764,72842,72816
 1.6000e+000 72868 -4.6383e+001 -1.6990e+002  2.7088e+001 65621 72764,72816,72790
 1.6000e+000 73009 -1.1477e+001 -7.5288e+001  2.0281e+000 65621 72842,72738,72983
 1.6000e+000 73032 -1.2541e+001 -7.2768e+001  1.3047e+000 65621 72842,72983,72686
 1.6000e+000 73361 -1.8354e+001 -9.3336e+001 -3.9799e+000 65281 73456,73384,73188
 1.6000e+000 73338 -3.2016e+001 -9.4617e+001  5.5309e+000 65281 73384,73162,73136
 1.6000e+000 73315 -2.0015e+001 -1.1549e+002 -2.4199e+001 65281 73188,73240,73214
 1.6000e+000 73292 -2.3956e+001 -6.4201e+001 -3.1599e-001 65281 73136,73266,73240
 1.6000e+000 73410 -3.1405e+001 -9.5981e+001 -2.4528e+000 65281 73240,73188,73384
 1.6000e+000 73433 -2.8199e+001 -6.6173e+001  2.3590e-001 65281 73240,73384,73136
 1.6000e+000 73482 -2.7020e+001 -1.1579e+002 -4.5377e+000 65281 73162,73384,73456
 1.6000e+000 73711  2.2386e+001 -2.3163e+001 -1.4402e+001 64820 73734,73610,73584
 1.6000e+000 73688  2.6145e+001 -1.0294e+001 -2.6537e+001 64820 73734,73584,73662
 1.6000e+000 73760  4.4250e+001 -1.5065e+001 -2.8587e+001 64820 73636,73610,73734
 1.6000e+000 73783  8.4425e+000 -1.8653e+001 -2.8924e+001 64820 73806,73734,73662
 1.6000e+000 73832  4.4628e+001  1.9840e+001 -4.4680e+001 64820 73636,73734,73806
 1.6000e+000 74112  1.9436e+000 -7.0249e+001  1.1347e+000 64622 74278,74135,73988
 1.6000e+000 74089  7.6556e-002 -6.7693e+001  4.9958e+000 64622 74135,73936,74040
 1.6000e+000 74066  4.6624e+000 -6.9164e+001  5.3520e+000 64622 74278,73988,73962
 1.6000e+000 74161 -1.1128e+000 -7.0396e+001  1.0260e+000 64622 74014,73988,74135
 1.6000e+000 74184  1.8132e+000 -6.5406e+001  3.8348e+000 64622 74207,74135,74040
 1.6000e+000 74233 -2.1883e-001 -7.1634e+001  3.0287e-001 64622 74014,74135,74207
 1.6000e+000 74304  4.5196e+000 -6.4535e+001  6.3949e+000 64622 73936,74135,74278
 1.6000e+000 74327  9.7291e+000 -6.3496e+001  1.0667e+001 64622 73936,74278,73962
 1.6000e+000 74526  2.5580e+000 -4.7002e+001 -4.8060e+000 64424 74621,74549,74402
 1.6000e+000 74503  4.1675e+000 -6.0801e+001 -3.2104e+000 64424 74549,74350,74454
 1.6000e+000 74480  2.6754e+000 -4.1836e+001 -1.4181e+001 64424 74621,74402,74376
 1.6000e+000 74575  9.7926e-001 -5.5972e+001 -1.7871e+000 64424 74428,74402,74549
 1.6000e+000 74598 -8.9806e-001 -6.8119e+001 -2.7772e-001 64424 74693,74549,74454
 1.6000e+000 74647 -3.9817e+000 -6.1714e+001 -3.5690e+000 64424 74350,74549,74621
 1.6000e+000 74670 -4.9118e+000 -5.9409e+001 -1.3305e+001 64424 74350,74621,74376
 1.6000e+000 74719  2.8065e+000 -6.1353e+001 -2.9024e+000 64424 74428,74549,74693
 1.6000e+000 75123 -3.7568e+001 -1.2148e+002  2.7580e+001 64126 74875,74953,74927
 1.6000e+000 75100 -1.7609e+001 -8.9088e+001  1.6608e+001 64126 74875,74979,74953
 1.6000e+000 75077 -1.7150e+001 -8.3401e+001  1.4742e+001 64126 74875,75005,74979
 1.6000e+000 75054 -1.4124e+001 -1.4718e+002  4.8895e+001 64126 74875,74927,74901
 1.6000e+000 75031 -4.4312e+001 -6.4358e+001  2.2974e+001 64126 74849,75005,74875
 1.6000e+000 75224  6.4802e+000 -6.7777e+001  8.6468e+000 63836 75146,75198,75172
 1.6000e+000 75472 -1.5286e+001 -5.9933e+001 -1.8595e+000 63375 75273,75351,75325
 1.6000e+000 75449 -1.1306e+001 -5.7017e+001 -3.8219e+000 63375 75273,75377,75351
 1.6000e+000 75426  3.3526e+000 -5.5743e+001 -5.9055e+000 63375 75247,75377,75273
 1.6000e+000 75403 -1.5607e+001 -2.6146e+001  4.8295e+000 63375 75273,75325,75299
 1.6000e+000 75673  2.7784e+000 -5.2007e+001  4.1506e+000 63063 75523,75575,75549
 1.6000e+000 75650  8.7133e+000 -6.5846e+001 -2.9827e+000 63063 75497,75575,75523
 1.6000e+000 75627  2.6975e+000 -7.2720e+001  6.6138e+000 63063 75497,75601,75575
 1.6000e+000 75874 -1.0578e+001 -7.8246e+001  1.6147e+000 62716 75897,75750,75724
 1.6000e+000 75851 -1.4229e+001 -7.8768e+001  1.1100e+000 62716 75897,75724,75698
 1.6000e+000 75828 -9.2675e+000 -6.9164e+001 -1.4631e+001 62716 75698,75802,75776
 1.6000e+000 75923 -1.8117e+000 -7.8418e+001  1.6082e+000 62716 75776,75750,75897
 1.6000e+000 75946 -9.6768e+000 -8.1665e+001  8.0956e-001 62716 75776,75897,75698
 1.6000e+000 76328  1.3375e+001 -7.7152e+001 -1.8736e+000 62198 76495,76351,76158
 1.6000e+000 76305  3.2475e+000 -7.0998e+001 -3.2442e-001 62198 76351,76080,76054
 1.6000e+000 76282  1.1714e+001 -9.0981e+001 -8.8442e+000 62198 76423,76184,76158
 1.6000e+000 76259  9.9892e+000 -7.7272e+001 -4.9501e-001 62198 76495,76158,76106
 1.6000e+000 76236  1.8534e+001 -8.4402e+001  3.2973e+000 62198 76106,76158,76132
 1.6000e+000 76377  1.2448e+001 -7.9129e+001 -7.9535e+000 62198 76423,76158,76351
 1.6000e+000 76400  3.6868e+000 -6.6021e+001 -4.8483e+000 62198 76210,76351,76054
 1.6000e+000 76449  1.3800e+001 -7.7336e+001 -8.9441e+000 62198 76210,76184,76423
 1.6000e+000 76472  1.1582e+001 -6.9956e+001 -9.8685e+000 62198 76210,76423,76351
 1.6000e+000 76521  6.5488e+000 -7.2269e+001  2.0990e+000 62198 76080,76351,76495
 1.6000e+000 76544 -2.4115e+000 -7.9371e+001  5.5913e+000 62198 76080,76495,76106
 1.6000e+000 76841 -1.2215e+001 -7.0453e+001 -6.2042e+000 61751 76936,76864,76645
 1.6000e+000 76818 -9.8639e+000 -6.7529e+001 -1.5587e+001 61751 76864,76567,76723
 1.6000e+000 76795 -1.0798e+001 -6.2415e+001 -6.2589e+000 61751 76936,76645,76593
 1.6000e+000 76772  2.4733e+001 -7.4615e+001 -1.2956e+001 61751 77008,76697,76671
 1.6000e+000 76749 -1.0685e+001 -5.6270e+001 -1.1898e+001 61751 76593,76645,76619
 1.6000e+000 76890 -2.0063e+001 -9.1625e+001  4.5267e+000 61751 76671,76645,76864
 1.6000e+000 76913 -1.6722e+000 -7.4976e+001 -9.0511e+000 61751 77008,76671,76864
 1.6000e+000 76962 -9.0511e+000 -8.1138e+001 -1.0163e+001 61751 76567,76864,76936
 1.6000e+000 76985 -8.0569e+000 -7.4296e+001 -9.3354e+000 61751 76567,76936,76593
 1.6000e+000 77034 -9.5587e+000 -8.8683e+001 -1.4032e+001 61751 76723,76697,77008
 1.6000e+000 77057 -1.5691e+001 -8.1084e+001 -1.1099e+001 61751 76723,77008,76864
 1.6000e+000 77207  1.0817e+000 -3.1503e+001  5.9060e+000 61418 77106,77158,77132
 1.6000e+000 77184 -1.1195e+001 -4.6297e+001  6.3887e-001 61418 77080,77158,77106
 1.6000e+000 77638 -1.5446e+001 -7.9185e+001  1.6734e+000 60814 77733,77661,77471
 1.6000e+000 77615 -1.5348e+001 -8.0035e+001 -4.5681e+000 60814 77661,77393,77315
 1.6000e+000 77592 -2.2315e+001 -6.8467e+001  6.5980e+000 60814 77733,77471,77445
 1.6000e+000 77569  1.2889e+001 -7.9959e+001 -1.9139e+001 60814 77315,77367,77341
 1.6000e+000 77546  3.4541e+000 -1.0499e+002 -1.8679e+001 60814 77315,77393,77367
 1.6000e+000 77523 -1.3087e+001 -5.0392e+001 -2.9457e+000 60814 77393,77445,77419
 1.6000e+000 77687 -4.6881e+000 -7.4892e+001  7.3174e+000 60814 77497,77471,77661
 1.6000e+000 77710 -1.1215e+001 -9.0448e+001  4.7537e+000 60814 77497,77661,77315
 1.6000e+000 77759 -7.7803e+000 -6.4762e+001 -1.8442e+000 60814 77393,77661,77733
 1.6000e+000 77782 -1.7280e+001 -5.7555e+001  4.5978e+000 60814 77393,77733,77445
 1.6000e+000 78337 -1.3280e+001 -6.0009e+001  6.4394e+000 60210 78360,78017,77965
 1.6000e+000 78314 -1.8650e+001 -4.8108e+001  1.0772e+001 60210 78360,77965,78173
 1.6000e+000 78291 -2.5797e+001 -6.9686e+001 -3.0724e+000 60210 78432,78043,78017
 1.6000e+000 78268 -1.9809e+001 -7.2445e+001  3.9798e+000 60210 77965,78017,77991
 1.6000e+000 78245 -1.9607e+001 -6.0906e+001  1.7731e+000 60210 78043,78095,78069
 1.6000e+000 78222 -4.0659e+001 -7.7503e+001  1.3427e+001 60210 78095,78173,78121
 1.6000e+000 78199 -4.4451e+000 -5.6936e+001  4.0094e+000 60210 78121,78173,78147
 1.6000e+000 78386 -2.2685e+001 -6.6623e+001  3.5127e+000 60210 78432,78017,78360
 1.6000e+000 78409 -2.7036e+001 -5.6876e+001  7.0019e+000 60210 78095,78360,78173
 1.6000e+000 78458 -2.0297e+001 -6.0610e+001  1.7851e+000 60210 78095,78043,78432
 1.6000e+000 78481 -1.7845e+001 -5.6369e+001  8.1577e+000 60210 78095,78432,78360
 1.6000e+000 78680  1.9638e+001 -4.8747e+001 -4.9158e+000 59848 78703,78556,78530
 1.6000e+000 78657  2.5349e+001 -4.7238e+001 -5.3347e+000 59848 78703,78530,78504
 1.6000e+000 78634  6.5121e+000 -5.9045e+001  5.6062e+000 59848 78504,78608,78582
 1.6000e+000 78729  7.7117e+000 -4.8108e+001 -1.4268e+000 59848 78582,78556,78703
 1.6000e+000 78752  1.8897e+001 -4.3477e+001 -1.8162e+000 59848 78582,78703,78504
 1.6000e+000 78951 -1.3934e+001 -6.2661e+001  5.1400e+000 59344 78974,78801,78775
 1.6000e+000 78928 -1.4407e+001 -6.2361e+001  8.6098e+000 59344 79046,78974,78775
 1.6000e+000 78905 -1.3303e+001 -5.9465e+001  8.0107e+000 59344 79046,78775,78879
 1.6000e+000 79000 -1.6318e+001 -6.3090e+001  7.4471e+000 59344 78827,78801,78974
 1.6000e+000 79023 -1.5906e+001 -7.1134e+001  1.1709e+001 59344 78827,78974,78853
 1.6000e+000 79072 -1.1313e+001 -6.6483e+001  7.3550e+000 59344 78853,78974,79046
 1.6000e+000 79095 -1.0910e+001 -6.4565e+001  6.8130e+000 59344 78853,79046,78879
 1.6000e+000 79296 -1.4846e+001 -9.8822e+001 -5.4634e+000 58711 79319,79172,79146
 1.6000e+000 79273 -5.1411e+000 -9.1666e+001 -2.2866e+000 58711 79319,79146,79120
 1.6000e+000 79250 -1.9934e+001 -8.5557e+001  7.9736e+000 58711 79172,79224,79198
 1.6000e+000 79345 -2.2782e+001 -8.9472e+001 -4.5403e+000 58711 79224,79172,79319
 1.6000e+000 79368 -1.6987e+001 -8.5398e+001 -2.5512e+000 58711 79224,79319,79120
 1.6000e+000 79667 -9.0096e-002 -4.3642e+001 -9.6846e+000 58285 79690,79471,79393
 1.6000e+000 79644 -2.2611e+000 -5.4710e+001 -1.1082e+001 58285 79690,79393,79549
 1.6000e+000 79621  1.3893e+000 -5.1879e+001 -6.9636e+000 58285 79393,79471,79419
 1.6000e+000 79598 -3.4328e+000 -4.1878e+001  7.7906e-001 58285 79497,79549,79523
 1.6000e+000 79575  8.1847e+000 -8.7122e+001 -8.1193e+000 58285 79419,79471,79445
 1.6000e+000 79716 -2.3538e+000 -3.1454e+001 -2.1339e+000 58285 79497,79471,79690
 1.6000e+000 79739 -8.0486e+000 -5.0461e+001 -1.3268e+000 58285 79497,79690,79549
 1.6000e+000 80249  1.2118e+001 -4.0396e+001 -1.1962e+001 57831 80272,79978,79952
 1.6000e+000 80226  1.4273e+001 -4.5349e+001 -3.5810e+000 57831 80272,79952,80108
 1.6000e+000 80203  2.3085e+001 -5.3911e+001 -8.2777e+000 57831 79926,80108,79952
 1.6000e+000 80180  2.9465e+000 -4.8765e+001 -2.9130e+000 57831 80004,80082,80030
 1.6000e+000 80157  4.8738e+000 -4.4472e+001 -2.3791e+000 57831 80004,80108,80082
 1.6000e+000 80134 -8.2791e-001 -5.1698e+001  7.8742e-001 57831 80030,80082,80056
 1.6000e+000 80298  2.0301e+001 -1.7894e+001 -1.7542e+001 57831 80004,79978,80272
 1.6000e+000 80321  1.2259e+001 -3.7209e+001 -8.3754e+000 57831 80004,80272,80108
 1.6000e+000 80618 -2.6298e+001 -7.3365e+001  1.2447e+001 57077 80344,80448,80422
 1.6000e+000 80595 -1.4017e+001 -6.2984e+001  3.2153e+000 57077 80344,80500,80448
 1.6000e+000 80572 -1.9709e+001 -5.6806e+001  1.2698e+001 57077 80344,80422,80370
 1.6000e+000 80549 -1.5138e+001 -4.8052e+001  1.0318e+001 57077 80370,80422,80396
 1.6000e+000 80526 -2.5437e+001 -1.0397e+002  1.0307e+001 57077 80448,80500,80474
 1.6000e+000 80768  6.9754e+000 -2.0699e+001 -8.5920e+000 56787 80791,80693,80667
 1.6000e+000 80745  1.2016e+001 -2.2956e+001 -1.3270e+001 56787 80791,80667,80641
 1.6000e+000 80817  5.0681e+000 -2.2482e+001 -7.3296e+000 56787 80719,80693,80791
 1.6000e+000 80840  7.2453e+000 -3.9788e+001 -1.0656e+001 56787 80719,80791,80641
 1.6000e+000 81429  7.6472e-001 -3.8913e+001 -3.5919e+000 56497 81452,81158,81132
 1.6000e+000 81406 -1.1908e+001 -5.0685e+001  1.4522e+000 56497 81452,81132,81288
 1.6000e+000 81383 -1.7381e+001 -4.6241e+001  2.0681e+000 56497 81524,81184,81158
 1.6000e+000 81360 -1.9303e+001 -7.4368e+001  9.4459e+000 56497 81210,81288,81236
 1.6000e+000 81337  2.9745e+001 -3.5779e+001  1.6600e-001 56497 81106,81288,81132
 1.6000e+000 81314 -1.0753e+001 -5.3465e+001  3.6101e+000 56497 81236,81288,81262
 1.6000e+000 81478 -1.3530e+001 -4.1868e+001 -7.8934e-001 56497 81524,81158,81452
 1.6000e+000 81501 -7.6531e+000 -4.4605e+001  3.4382e+000 56497 81210,81452,81288
 1.6000e+000 81550 -1.7863e+001 -5.0907e+001  8.1111e+000 56497 81210,81184,81524
 1.6000e+000 81573 -1.3099e+001 -4.8116e+001  5.1374e+000 56497 81210,81524,81452
 1.6000e+000 81870 -2.8809e+001 -6.2519e+001  1.3802e+000 55979 81893,81674,81648
 1.6000e+000 81847 -2.8998e+001 -6.1714e+001  4.1165e+000 55979 81893,81648,81752
 1.6000e+000 81824 -1.9888e+001 -6.6933e+001  7.5854e+000 55979 81596,81752,81648
 1.6000e+000 81801 -2.6961e+001 -5.0064e+001  6.5694e-001 55979 81674,81726,81700
 1.6000e+000 81778 -1.6086e+001 -5.5519e+001 -2.9016e+000 55979 81596,81648,81622
 1.6000e+000 81919 -2.8403e+001 -6.0444e+001  1.8204e+000 55979 81726,81674,81893
 1.6000e+000 81942 -2.7967e+001 -5.8706e+001  4.6072e+000 55979 81726,81893,81752
 1.6000e+000 82371 -3.4519e+000 -4.6050e+001 -1.7073e+000 55631 82100,82204,82152
 1.6000e+000 82348 -1.3329e+000 -5.6988e+001 -6.3475e+000 55631 82100,82230,82204
 1.6000e+000 82325 -1.1561e+000 -4.8037e+001  4.9158e+000 55631 82100,82152,82126
 1.6000e+000 82302 -2.8345e+000 -6.9399e+001 -2.3924e+001 55631 82074,82230,82100
 1.6000e+000 82279 -7.1695e+000 -5.0787e+001  4.0562e+000 55631 82152,82204,82178
 1.6000e+000 82256  1.2794e+001 -6.1291e+001 -1.7240e+001 55631 82048,82230,82074
 1.6000e+000 82521 -4.8164e+000 -3.5506e+001 -7.8243e+000 55227 82544,82420,82394
 1.6000e+000 82498 -3.6921e+000 -5.0498e+001 -6.4425e+000 55227 82544,82394,82472
 1.6000e+000 82570 -8.0190e+000 -2.5860e+001 -7.1770e+000 55227 82446,82420,82544
 1.6000e+000 82593 -2.7939e+000 -3.5557e+001 -1.7950e+000 55227 82446,82544,82472
 1.6000e+000 82875  8.0147e+000 -3.9830e+001 -1.0958e+001 54979 82699,82777,82725
 1.6000e+000 82852 -1.4524e+001 -2.9807e+001 -4.4477e+000 54979 82699,82803,82777
 1.6000e+000 82829  6.7414e+000  9.9875e+000  1.4654e+001 54979 82725,82777,82751
 1.6000e+000 83204 -8.1589e+000 -4.2287e+001 -1.6837e+000 54475 83005,83083,83057
 1.6000e+000 83181 -9.6345e+000 -4.5435e+001  6.9930e-001 54475 82979,83083,83005
 1.6000e+000 83158 -5.3573e+000 -4.8200e+001 -4.1509e+000 54475 83005,83057,83031
 1.6000e+000 83135 -1.4342e+001 -5.6921e+001  9.2954e+000 54475 82979,83109,83083
 1.6000e+000 83582 -1.5861e+001 -5.2248e+001 -4.1865e+000 54071 83605,83438,83412
 1.6000e+000 83559 -1.6546e+001 -5.3904e+001 -4.1360e+000 54071 83749,83605,83412
 1.6000e+000 83536 -1.8784e+001 -6.3077e+001  1.5602e+001 54071 83677,83360,83334
 1.6000e+000 83513 -1.1374e+001 -5.9138e+001 -5.4308e+000 54071 83749,83412,83677
 1.6000e+000 83490 -1.5902e+001 -4.1096e+001 -6.2594e+000 54071 83308,83464,83334
 1.6000e+000 83631 -2.0862e+001 -5.2017e+001 -9.4545e+000 54071 83464,83438,83605
 1.6000e+000 83654 -1.4783e+001 -4.0973e+001 -6.3534e+000 54071 83464,83605,83334
 1.6000e+000 83703  1.5414e+001 -5.1547e+001  1.5867e+001 54071 83386,83360,83677
 1.6000e+000 83726  2.8541e+000 -6.1547e+001 -2.8725e+000 54071 83386,83677,83412
 1.6000e+000 83775 -7.8856e+000 -4.6798e+001 -1.0637e+000 54071 83334,83605,83749
 1.6000e+000 83798 -1.9959e+000 -5.1813e+001 -2.2082e+000 54071 83334,83749,83677
 1.6000e+000 84068 -2.1823e+001 -2.7672e+001 -1.8420e-002 53524 83869,83921,83895
 1.6000e+000 84045 -1.2245e+001 -3.5284e+001  1.0373e+000 53524 83869,83947,83921
 1.6000e+000 84022 -1.9743e+001 -4.2497e+001 -1.9124e+000 53524 83843,83947,83869
 1.6000e+000 83999 -7.2801e+000 -3.9305e+001 -2.7302e+000 53524 83843,83973,83947
 1.6000e+000 84497 -1.1013e+001 -8.3828e+001  8.8398e-001 53184 84200,84330,84252
 1.6000e+000 84474 -8.4033e+000 -7.1403e+001  6.3685e+000 53184 84200,84356,84330
 1.6000e+000 84451  4.1203e+000 -1.0890e+002  8.6423e+000 53184 84200,84252,84226
 1.6000e+000 84428  1.1338e+001 -6.9565e+001 -6.2192e+000 53184 84252,84330,84278
 1.6000e+000 84405 -6.4170e-001 -6.8498e+001  6.8870e+000 53184 84174,84356,84200
 1.6000e+000 84382  3.3434e+001 -5.8361e+001 -1.4897e+001 53184 84278,84330,84304
 1.6000e+000 84954 -2.8213e+000 -6.4065e+001  4.5422e+000 52680 84706,84836,84784
 1.6000e+000 84931 -1.3497e+001 -6.0016e+001 -1.9578e+001 52680 84680,84836,84706
 1.6000e+000 84908  5.3913e+000 -9.3179e+001 -7.1887e-001 52680 84784,84836,84810
 1.6000e+000 84885 -2.2312e+001 -9.8980e+001  1.2231e+001 52680 84706,84784,84732
 1.6000e+000 84862 -3.9426e+000 -8.9897e+001  9.2861e+000 52680 84732,84784,84758
 1.6000e+000 85202 -6.4252e+000 -4.5027e+001 -9.7230e+000 52226 85029,85081,85055
 1.6000e+000 85179 -8.5656e+000 -5.5774e+001 -1.2801e+001 52226 85225,85081,85029
 1.6000e+000 85156 -7.6453e+000 -5.3392e+001 -1.0414e+001 52226 85225,85029,85003
 1.6000e+000 85133 -1.5735e+001 -3.5332e+001 -9.1938e+000 52226 84977,85107,85003
 1.6000e+000 85251 -1.0006e+001 -5.6387e+001 -1.4879e+001 52226 85107,85081,85225
 1.6000e+000 85274 -1.2088e+001 -5.2726e+001 -1.2635e+001 52226 85107,85225,85003
 1.6000e+000 85522 -1.0260e+000 -3.8285e+001  8.1189e-001 51764 85297,85349,85323
 1.6000e+000 85499 -8.2857e+000 -5.5833e+001  3.1680e+000 51764 85545,85297,85427
 1.6000e+000 85476 -1.8410e+001 -4.7854e+001 -1.9038e+000 51764 85545,85427,85375
 1.6000e+000 85453 -1.8785e+001 -5.1634e+001 -3.0765e+000 51764 85375,85427,85401
 1.6000e+000 85571 -2.6502e+000 -5.1289e+001  7.1823e-001 51764 85349,85297,85545
 1.6000e+000 85594 -8.8900e+000 -4.0371e+001 -5.4090e+000 51764 85349,85545,85375
 1.6000e+000 85746 -1.4955e+001 -5.4818e+001 -1.0269e+000 51374 85645,85697,85671
 1.6000e+000 85723 -2.2470e+001 -6.3958e+001 -5.9220e+000 51374 85619,85697,85645
 1.6000e+000 86256 -5.2142e-001 -3.2089e+001 -1.5129e+000 50970 86279,86011,85959
 1.6000e+000 86233  6.4417e-001 -3.1731e+001 -1.7978e+000 50970 86279,85959,86115
 1.6000e+000 86210 -7.1872e-001 -3.1937e+001  4.8626e-001 50970 85959,86011,85985
 1.6000e+000 86187 -4.1290e+000 -4.6532e+001 -5.3773e+000 50970 86037,86115,86089
 1.6000e+000 86164  2.3308e+001 -2.3122e+001 -1.1737e+001 50970 85933,86115,85959
 1.6000e+000 86141 -7.8218e+000 -3.7297e+001 -6.7398e+000 50970 86037,86089,86063
 1.6000e+000 86305  6.5350e-001 -3.2921e+001 -1.3073e+000 50970 86037,86011,86279
 1.6000e+000 86328  1.8872e+000 -3.2495e+001 -1.6316e+000 50970 86037,86279,86115
 1.6000e+000 86478 -3.8325e+000 -1.1126e+002 -3.4613e-001 50451 86351,86403,86377
 1.6000e+000 86455 -2.7561e+001 -1.9679e+002  8.9875e-001 50451 86351,86429,86403
 1.6000e+000 86907 -2.7648e+001 -6.9611e+001  1.3666e+000 50047 86930,86714,86662
 1.6000e+000 86884 -2.6096e+001 -7.1666e+001  1.3227e+000 50047 86930,86662,86610
 1.6000e+000 86861 -9.5233e-001 -8.9077e+001 -1.2930e+001 50047 87002,86740,86714
 1.6000e+000 86838  9.2324e+000 -5.6362e+001  2.3580e+001 50047 86662,86714,86688
 1.6000e+000 86815 -2.3035e+001 -5.8950e+001  6.7786e+000 50047 86610,86662,86636
 1.6000e+000 86792 -1.1337e+001 -5.5796e+001 -2.3415e+000 50047 86584,86766,86610
 1.6000e+000 86956 -1.8866e+001 -7.0847e+001  3.8249e-001 50047 87002,86714,86930
 1.6000e+000 86979 -3.2561e+001 -6.4477e+001  9.9450e-002 50047 86766,86930,86610
 1.6000e+000 87028 -3.2450e+001 -7.9074e+001 -1.5300e+001 50047 86766,86740,87002
 1.6000e+000 87051 -4.1264e+001 -7.5994e+001 -5.8147e+000 50047 86766,87002,86930
 1.6000e+000 87250 -1.6796e+001 -7.4623e+001 -5.2743e+000 49543 87273,87126,87100
 1.6000e+000 87227 -1.5038e+001 -6.4868e+001  1.4758e+000 49543 87273,87100,87074
 1.6000e+000 87204 -2.6145e+001 -5.2821e+001 -7.4076e+000 49543 87126,87178,87152
 1.6000e+000 87299 -1.4327e+001 -6.0406e+001 -3.1008e+000 49543 87178,87126,87273
 1.6000e+000 87322 -1.5011e+001 -5.7632e+001  4.8203e+000 49543 87178,87273,87074
 1.6000e+000 87570 -9.2049e+000 -4.4051e+001  9.4964e+000 49146 87593,87449,87397
 1.6000e+000 87547 -6.9553e+000 -4.4318e+001 -1.7393e+000 49146 87593,87397,87371
 1.6000e+000 87524 -7.7805e+000 -3.9287e+001  1.7469e-001 49146 87345,87475,87371
 1.6000e+000 87501  4.9460e+001 -3.1569e+001  1.8310e+001 49146 87397,87449,87423
 1.6000e+000 87619  4.8373e+000 -3.9454e+001  1.0825e+001 49146 87475,87449,87593
 1.6000e+000 87642  8.0880e-001 -4.1239e+001  4.0174e-001 49146 87475,87593,87371
 1.6000e+000 88073 -2.8804e+000 -6.8989e+001 -1.5101e+000 48706 87854,87932,87880
 1.6000e+000 88050 -5.1127e+000 -7.3261e+001 -7.0186e-001 48706 87828,87932,87854
 1.6000e+000 88027 -1.2504e+001 -7.4592e+001 -4.8670e+000 48706 87750,87932,87828
 1.6000e+000 88004  9.3986e-001 -1.0626e+002 -6.9349e-001 48706 87750,87802,87776
 1.6000e+000 87981 -2.2233e+001 -1.1939e+002 -1.4287e+001 48706 87750,87828,87802
 1.6000e+000 87958 -5.1079e+000 -7.0383e+001 -6.7851e-001 48706 87880,87932,87906
 1.6000e+000 88402  8.9822e+000 -6.6286e+001 -5.8348e+000 48145 88203,88281,88255
 1.6000e+000 88379 -9.0822e+000 -7.4649e+001 -8.5825e+000 48145 88203,88307,88281
 1.6000e+000 88356  1.2700e+001 -6.6489e+001 -6.6872e+000 48145 88203,88255,88229
 1.6000e+000 88333  2.1155e+000 -6.7484e+001  2.3360e+000 48145 88177,88307,88203
 1.6000e+000 88601 -4.2987e+000 -6.7940e+001  4.9284e+000 47805 88696,88624,88477
 1.6000e+000 88578 -3.0242e+001 -8.0568e+001 -1.3507e+001 47805 88826,88624,88451
 1.6000e+000 88555 -2.5852e+001 -7.7969e+001 -1.1844e+001 47805 88826,88451,88425
 1.6000e+000 88650 -1.2525e+001 -8.3952e+001 -8.7199e+000 47805 88503,88477,88624
 1.6000e+000 88673 -3.2990e+001 -8.7547e+001 -1.0085e+001 47805 88503,88624,88529
 1.6000e+000 88722 -6.3351e+001 -9.4964e+001 -8.1223e+000 47805 88451,88624,88696
 1.6000e+000 88852 -3.1290e+001 -7.7234e+001 -7.8703e+000 47805 88529,88624,88826
 1.6000e+000 88875 -2.6627e+001 -7.4699e+001 -6.2170e+000 47805 88529,88826,88425
 1.6000e+000 89172 -9.2252e+000 -5.1632e+001 -5.0863e+000 47401 89195,88976,88898
 1.6000e+000 89149 -1.0894e+001 -5.1174e+001 -1.2932e+001 47401 89195,88898,89054
 1.6000e+000 89126 -1.6993e+001 -4.4389e+001 -6.3169e+000 47401 88898,88976,88950
 1.6000e+000 89103 -1.6935e+001 -5.9471e+001 -7.5215e+000 47401 88976,89028,89002
 1.6000e+000 89080 -2.3103e+000 -1.1416e+001 -9.6550e+000 47401 88898,88950,88924
 1.6000e+000 89221 -1.2332e+001 -6.0145e+001 -5.9373e+000 47401 89028,88976,89195
 1.6000e+000 89244 -1.4303e+001 -5.8126e+001 -1.4337e+001 47401 89028,89195,89054
 1.6000e+000 89575  1.6397e+001 -7.1620e+001 -5.3110e+000 47111 89350,89454,89376
 1.6000e+000 89552  1.3801e+000 -8.6371e+001  1.5030e+000 47111 89350,89480,89454
 1.6000e+000 89529 -1.7583e+001 -7.9082e+001 -2.3988e+000 47111 89376,89454,89402
 1.6000e+000 89506 -7.6841e+000 -6.4438e+001  7.6986e+000 47111 89402,89454,89428
 1.6000e+000 89904  1.1806e+001 -6.5905e+001 -2.6558e+000 46707 89705,89757,89731
 1.6000e+000 89881 -1.0388e+000 -7.3282e+001  3.5968e-001 46707 89705,89783,89757
 1.6000e+000 89858  4.3952e+000 -7.1305e+001 -4.1233e-001 46707 89679,89783,89705
 1.6000e+000 89835  1.9228e+001 -7.1292e+001 -8.3633e+000 46707 89679,89809,89783
 1.6000e+000 90233  5.6119e+000 -6.7662e+001 -7.5284e+000 46360 90034,90112,90086
 1.6000e+000 90210 -2.4039e+001 -7.4595e+001 -5.6706e+000 46360 90034,90138,90112
 1.6000e+000 90187 -1.0247e+001 -8.7947e+001 -2.3506e-002 46360 90034,90086,90060
 1.6000e+000 90164 -1.2756e+001 -7.9290e+001  1.1699e+001 46360 90008,90138,90034
 1.6000e+000 90530 -1.6427e+001 -5.8799e+001 -3.4430e+000 45662 90256,90360,90308
 1.6000e+000 90507 -1.8831e+001 -6.5269e+001  3.4727e-001 45662 90256,90412,90360
 1.6000e+000 90484 -1.5168e+001 -6.6601e+001 -5.0581e+000 45662 90256,90308,90282
 1.6000e+000 90461 -1.3630e+001 -5.1394e+001  7.4991e-001 45662 90360,90412,90386
 1.6000e+000 90438 -2.6518e+001 -5.2946e+001  3.9303e-001 45662 90308,90360,90334
 1.6000e+000 90910 -5.0249e+001 -9.1040e+001 -8.3624e+000 45108 90688,90766,90714
 1.6000e+000 90887 -3.7205e+001 -8.7794e+001  1.0307e+000 45108 90662,90766,90688
 1.6000e+000 90864 -5.1190e+001 -8.7560e+001  1.6289e+000 45108 90636,90766,90662
 1.6000e+000 90841 -2.7569e+001 -1.1395e+002 -2.6015e+001 45108 90714,90766,90740
 1.6000e+000 90818 -4.8755e+001 -7.8892e+001 -2.4914e+000 45108 90636,90792,90766
 1.6000e+000 91158 -3.9782e+000 -7.3663e+001 -4.0365e+000 44604 91181,91011,90959
 1.6000e+000 91135 -2.9927e+001 -7.9813e+001 -1.9387e+000 44604 91181,90959,90933
 1.6000e+000 91112 -5.4884e+000 -8.1011e+001  2.3166e-001 44604 90959,91011,90985
 1.6000e+000 91089  6.5665e+001 -5.9085e+001 -3.8281e+000 44604 90933,91063,91037
 1.6000e+000 91207  1.3496e+001 -8.4132e+001 -1.6615e+001 44604 91037,91011,91181
 1.6000e+000 91230 -1.0502e+001 -8.4862e+001 -2.0793e+001 44604 91037,91181,90933
 1.6000e+000 91429 -9.6175e+000 -7.6924e+001  8.3059e-002 44264 91452,91279,91253
 1.6000e+000 91406 -1.1488e+001 -7.4962e+001  8.3865e-001 44264 91452,91253,91357
 1.6000e+000 91383 -3.5168e+001 -8.2186e+001  3.0197e+000 44264 91279,91331,91305
 1.6000e+000 91478 -1.1296e+001 -7.6409e+001 -4.6611e-001 44264 91331,91279,91452
 1.6000e+000 91501 -1.4930e+001 -7.6010e+001 -2.4576e-001 44264 91331,91452,91357
 1.6000e+000 92060 -3.8551e+001 -8.1184e+001 -5.6603e+000 43860 92083,91740,91688
 1.6000e+000 92037 -2.9330e+000 -8.5368e+001  7.7699e+000 43860 92083,91688,91896
 1.6000e+000 92014 -1.7836e+001 -8.5695e+001  6.1339e+000 43860 91766,91870,91844
 1.6000e+000 91991 -7.4053e+000 -7.6214e+001  1.1105e+001 43860 91740,91870,91766
 1.6000e+000 91968 -2.6780e+001 -8.4885e+001  9.8099e+000 43860 91766,91844,91792
 1.6000e+000 91945 -2.0964e+001 -1.0869e+002 -3.4487e+001 43860 91688,91740,91714
 1.6000e+000 91922  4.5091e+001 -9.1278e+001  1.9543e+001 43860 91792,91844,91818
 1.6000e+000 92109 -8.2167e+000 -7.6938e+001  1.0730e+001 43860 91870,91740,92083
 1.6000e+000 92132  2.9342e+001 -7.5456e+001  2.6587e+001 43860 91870,92083,91896
 1.6000e+000 92353 -2.9398e+000 -7.3954e+001 -8.5478e+000 43662 92203,92255,92229
 1.6000e+000 92330 -1.7018e+001 -8.1320e+001 -3.1282e+000 43662 92376,92203,92281
 1.6000e+000 92307  5.5549e+000 -5.2093e+001  6.7103e+000 43662 92177,92281,92203
 1.6000e+000 92402 -3.6498e+001 -8.9546e+001  1.7722e+000 43662 92255,92203,92376
 1.6000e+000 92682 -8.2879e+000 -8.8172e+001 -6.6307e+000 43464 92532,92584,92558
 1.6000e+000 92659 -9.8535e+000 -7.1244e+001 -6.9429e-001 43464 92506,92584,92532
 1.6000e+000 92636 -1.8215e+001 -7.2334e+001 -3.0200e+000 43464 92506,92610,92584
 1.6000e+000 93013  9.6094e-002 -9.3710e+001 -2.0782e+001 42960 92866,92918,92892
 1.6000e+000 92990 -1.2751e+001 -8.7321e+001 -7.7280e+000 42960 93036,92918,92866
 1.6000e+000 92967 -7.9467e-001 -9.8864e+001 -5.4317e-001 42960 93036,92866,92840
 1.6000e+000 92944 -8.7704e+000 -7.5959e+001 -4.5855e-001 42960 92788,92918,92814
 1.6000e+000 93062 -6.5156e+000 -8.3296e+001 -3.3145e+000 42960 92814,92918,93036
 1.6000e+000 93085  1.6684e+001 -8.4811e+001  6.1664e+000 42960 92814,93036,92840
 1.6000e+000 93186 -2.6317e+001 -7.2031e+001 -8.5530e+000 42556 93108,93160,93134
 1.6000e+000 93554 -2.6330e+001 -8.6676e+001  2.1637e+000 42052 93231,93387,93361
 1.6000e+000 93531 -2.8266e+001 -8.1360e+001  1.2839e+001 42052 93231,93413,93387
 1.6000e+000 93508 -3.7245e+001 -8.4454e+001  4.2673e+000 42052 93231,93361,93257
 1.6000e+000 93485 -1.2221e+001 -6.8017e+001  1.3352e+001 42052 93283,93361,93335
 1.6000e+000 93462 -2.5125e+001 -7.7862e+001  6.8234e+000 42052 93257,93361,93283
 1.6000e+000 93439  2.0409e-001 -5.9117e+001 -4.0662e+000 42052 93283,93335,93309
 1.6000e+000 94162  3.5483e-001 -7.8579e+001 -1.1114e+001 41498 93767,93975,93793
 1.6000e+000 94139  1.9478e+001 -6.7996e+001  3.8575e+000 41498 93741,93975,93767
 1.6000e+000 94116 -6.1305e+000 -5.7137e+001 -5.3827e+000 41498 93793,93975,93923
 1.6000e+000 94093 -1.1873e+001 -7.1277e+001  1.1656e+001 41498 93923,93975,93949
 1.6000e+000 94070 -2.5168e+001 -3.9032e+001 -1.8477e+001 41498 93871,93923,93897
 1.6000e+000 94047  4.0577e-002 -4.8305e+001 -1.2295e+001 41498 93793,93923,93871
 1.6000e+000 94024 -4.1053e+000 -4.7654e+001 -3.6211e+000 41498 93819,93871,93845
 1.6000e+000 94001 -7.3806e+000 -4.6352e+001 -7.2662e+000 41498 93793,93871,93819
 1.6000e+000 94619 -2.3846e+001 -7.2175e+001 -2.0805e+001 40930 94642,94423,94371
 1.6000e+000 94596 -1.1300e+001 -6.9755e+001 -1.3539e+001 40930 94642,94371,94345
 1.6000e+000 94573 -1.6518e+001 -8.2260e+001 -4.4088e+000 40930 94345,94501,94475
 1.6000e+000 94550 -5.2736e+000 -7.4644e+001 -2.6668e+001 40930 94371,94423,94397
 1.6000e+000 94527 -2.5006e+001 -5.1688e+001 -3.2360e+000 40930 94423,94475,94449
 1.6000e+000 94668 -1.5362e+001 -6.0753e+001 -1.3536e+001 40930 94475,94423,94642
 1.6000e+000 94691 -8.5511e+000 -6.6819e+001 -7.6023e+000 40930 94475,94642,94345
 1.6000e+000 95148 -1.7178e+001 -7.7971e+001  1.4527e+001 40362 95171,94952,94926
 1.6000e+000 95125 -1.7965e+001 -8.1076e+001  3.0651e+000 40362 95171,94926,95004
 1.6000e+000 95102 -2.2491e+001 -7.5241e+001  4.5453e+000 40362 94874,95004,94926
 1.6000e+000 95079  1.2910e+001 -7.0940e+001  1.9618e+001 40362 94874,95030,95004
 1.6000e+000 95056 -2.0053e+001 -1.0080e+002 -2.4799e+001 40362 94874,94926,94900
 1.6000e+000 95197 -2.0128e+001 -8.9249e+001  1.4055e+001 40362 94978,94952,95171
 1.6000e+000 95220 -2.1044e+001 -9.1853e+001  2.9652e+000 40362 94978,95171,95004
 1.6000e+000 95549 -3.2525e+001 -6.6612e+001  1.3146e+000 39586 95350,95402,95376
 1.6000e+000 95526 -9.4752e+000 -5.7633e+001 -1.8483e+000 39586 95324,95402,95350
 1.6000e+000 95503 -1.9622e+001 -5.8476e+001  1.3023e+001 39586 95324,95454,95402
 1.6000e+000 95480 -2.2649e+001 -7.8833e+001  1.2015e+001 39586 95402,95454,95428
 1.6000e+000 96055 -5.5827e-001 -4.3237e+001  6.3779e-001 38968 96078,95862,95810
 1.6000e+000 96032 -1.0309e+001 -4.5289e+001 -3.0901e+000 38968 96078,95810,95758
 1.6000e+000 96009  4.5742e+000 -5.0612e+001 -4.9660e+000 38968 96150,95732,95888
 1.6000e+000 95986 -3.7562e+000 -4.1631e+001  4.3638e+000 38968 95810,95862,95836
 1.6000e+000 95963  1.1261e+001 -4.3709e+001 -1.1105e+001 38968 95732,95914,95888
 1.6000e+000 95940 -1.9034e+001 -5.3633e+001  2.6477e+000 38968 95758,95810,95784
 1.6000e+000 96104 -3.4869e+000 -4.6187e+001  2.2658e+000 38968 95888,95862,96078
 1.6000e+000 96127 -3.1768e+000 -4.8473e+001  1.7592e+000 38968 96150,95888,96078
 1.6000e+000 96176  1.6204e+001 -4.0803e+001 -1.1135e+001 38968 95758,95732,96150
 1.6000e+000 96199  7.5586e+000 -3.7179e+001 -4.8764e+000 38968 95758,96150,96078
 1.6000e+000 96545 -7.5441e+000 -7.0413e+001 -5.1089e-001 38507 96640,96568,96352
 1.6000e+000 96522 -1.9155e+001 -8.2863e+001  7.4314e+000 38507 96568,96300,96222
 1.6000e+000 96499 -3.4224e+000 -6.4015e+001 -1.1175e+001 38507 96640,96352,96326
 1.6000e+000 96476 -1.4394e+001 -6.9538e+001  6.3041e+000 38507 96352,96404,96378
 1.6000e+000 96453 -3.0849e+001 -1.0850e+002  3.6666e+000 38507 96222,96300,96248
 1.6000e+000 96430 -2.5766e+001 -1.2125e+002 -5.4136e+000 38507 96248,96300,96274
 1.6000e+000 96594 -1.4537e+001 -7.8464e+001  2.7204e+000 38507 96404,96352,96568
 1.6000e+000 96617 -1.1405e+001 -7.2150e+001  3.9108e+000 38507 96404,96568,96222
 1.6000e+000 96666 -1.4901e+001 -8.6360e+001  4.0601e+000 38507 96300,96568,96640
 1.6000e+000 96689 -1.3981e+001 -8.1701e+001 -5.5980e+000 38507 96300,96640,96326
 1.6000e+000 97069 -1.2335e+001 -4.9809e+001 -2.2189e+000 37760 97092,96873,96821
 1.6000e+000 97046 -1.0138e+001 -4.8707e+001 -3.8703e+000 37760 97092,96821,96795
 1.6000e+000 97023 -1.5836e+001 -5.6993e+001  2.2362e-001 37760 96821,96873,96847
 1.6000e+000 97000 -1.0195e+001 -3.1934e+001  2.8985e+000 37760 96873,96925,96899
 1.6000e+000 96977 -2.8635e+001 -6.0416e+001  1.2288e+001 37760 96795,96951,96925
 1.6000e+000 97118 -1.4568e+001 -5.2579e+001  1.1859e+000 37760 96925,96873,97092
 1.6000e+000 97141 -7.9343e+000 -4.9489e+001 -7.6515e-001 37760 96925,97092,96795
 1.6000e+000 97647 -2.9442e+001 -7.4371e+001  1.0653e-001 37356 97324,97480,97376
 1.6000e+000 97624 -1.4819e+001 -7.0688e+001  3.5956e+000 37356 97324,97506,97480
 1.6000e+000 97601 -3.5855e+001 -7.0008e+001 -4.5411e-001 37356 97376,97480,97454
 1.6000e+000 97578 -3.6508e+001 -8.6629e+001  3.0120e+000 37356 97324,97376,97350
 1.6000e+000 97555 -1.6664e+001 -5.6947e+001  1.0031e+001 37356 97376,97454,97402
 1.6000e+000 97532 -4.6262e+001 -8.2447e+001 -1.4398e+000 37356 97402,97454,97428
 1.6000e+000 98232 -9.0394e+000 -3.6340e+001 -7.1448e+000 36902 97935,98065,98013
 1.6000e+000 98209  2.9072e+001 -2.7719e+001 -1.1003e+001 36902 97935,98091,98065
 1.6000e+000 98186 -3.0204e+000 -2.8899e+001 -1.1266e+001 36902 97935,98013,97987
 1.6000e+000 98163  9.4343e+000 -3.8342e+001 -1.9006e+001 36902 97909,98091,97935
 1.6000e+000 98140  2.8656e+001 -1.3906e+001 -3.6243e+001 36902 97935,97987,97961
 1.6000e+000 98117 -8.7628e+000 -4.4100e+001  1.0546e+000 36902 98013,98065,98039
 1.6000e+000 98659 -9.3515e+000 -8.9720e+001 -5.7103e+000 36604 98682,98414,98388
 1.6000e+000 98636 -1.4441e+001 -8.9131e+001  6.2194e+000 36604 98682,98388,98336
 1.6000e+000 98613 -1.8930e+001 -7.8646e+001  9.3432e-001 36604 98754,98518,98466
 1.6000e+000 98590  4.5962e+000 -6.4342e+001 -6.5691e+000 36604 98414,98466,98440
 1.6000e+000 98567 -3.8281e+000 -1.1835e+002  7.4140e+000 36604 98336,98388,98362
 1.6000e+000 98544 -4.1712e+000 -8.3722e+001  3.9315e+001 36604 98466,98518,98492
 1.6000e+000 98708 -5.1887e+000 -7.5353e+001 -1.0746e+001 36604 98466,98414,98682
 1.6000e+000 98731 -1.4876e+001 -8.3367e+001  1.8798e-001 36604 98754,98466,98682
 1.6000e+000 98780 -1.5232e+001 -7.8031e+001  1.6833e+000 36604 98336,98518,98754
 1.6000e+000 98803 -8.0263e+000 -7.9618e+001  2.3613e+000 36604 98336,98754,98682
 1.6000e+000 99309 -2.0019e+001 -5.6269e+001  7.8774e+000 36200 99332,99116,99012
 1.6000e+000 99286 -2.1072e+001 -3.6882e+001 -1.3263e+000 36200 99332,99012,98986
 1.6000e+000 99263 -1.7680e+001 -4.7377e+001  8.1863e+000 36200 99012,99116,99064
 1.6000e+000 99240 -1.9413e+001 -4.9997e+001 -2.8702e+000 36200 98986,99168,99142
 1.6000e+000 99217 -2.4643e+001 -4.9539e+001  8.9718e+000 36200 99064,99116,99090
 1.6000e+000 99194 -3.0429e+001 -5.1495e+001 -3.4548e-001 36200 99012,99064,99038
 1.6000e+000 99358 -2.2598e+001 -6.8816e+001  1.1953e+001 36200 99142,99116,99332
 1.6000e+000 99381 -2.6208e+001 -5.7003e+001  7.5906e-001 36200 99142,99332,98986
 1.6000e+000 99887 -2.7527e+001 -6.4255e+001  3.0641e+000 35488 99564,99720,99590
 1.6000e+000 99864 -2.4157e+001 -5.6550e+001  3.6166e+000 35488 99564,99746,99720
 1.6000e+000 99841 -1.5610e+001 -6.7977e+001 -1.5276e+000 35488 99642,99694,99668
 1.6000e+000 99818 -2.2865e+001 -7.5202e+001  5.5733e+000 35488 99590,99694,99642
 1.6000e+000 99795 -1.2217e+001 -5.7712e+001  1.0681e+000 35488 99590,99720,99694
 1.6000e+000 99772 -1.0315e+001 -1.1501e+002  4.5551e+000 35488 99590,99642,99616
 1.6000e+000 99988  6.4973e+001 -4.9273e+001  4.5590e+000 35198 99910,99962,99936
 1.6000e+000 100138 -1.1646e+001 -8.4337e+001  5.1745e+000 34794 100233,100161,100063
 1.6000e+000 100115 -4.1836e+001 -9.9204e+001  3.3762e+000 34794 100365,100161,100037
 1.6000e+000 100187 -1.6511e+000 -8.2396e+001  3.0136e+000 34794 100089,100063,100161
 1.6000e+000 100210 -5.0116e+000 -7.5506e+001  7.8875e+000 34794 100089,100161,100011
 1.6000e+000 100259 -2.8218e+001 -1.1401e+002 -9.7988e+000 34794 100037,100161,100233
 1.6000e+000 100391  7.7363e+000 -6.2536e+001 -1.2739e+001 34794 100011,100161,100365
 1.6000e+000 100927  3.7376e+000 -5.6032e+001 -1.3518e+000 34404 100679,100809,100783
 1.6000e+000 100904 -1.2735e+000 -5.5259e+001 -1.6730e+000 34404 100653,100809,100679
 1.6000e+000 100881 -1.2765e+001 -6.8816e+001 -1.3874e+000 34404 100705,100783,100731
 1.6000e+000 100858 -1.0934e+001 -6.3362e+001  1.4518e+000 34404 100679,100783,100705
 1.6000e+000 100835 -1.7568e+001 -7.4878e+001 -4.7131e+000 34404 100731,100783,100757
 1.6000e+000 101354 -1.6662e+001 -7.9034e+001 -2.4846e+000 34000 101377,101109,101057
 1.6000e+000 101331 -2.5312e+001 -7.7955e+001  1.5863e+000 34000 101449,101377,101057
 1.6000e+000 101308 -2.6507e+001 -7.7735e+001  1.2692e+000 34000 101449,101057,101031
 1.6000e+000 101285 -3.2160e+001 -8.0856e+001  2.1091e+001 34000 101031,101213,101187
 1.6000e+000 101262 -2.8347e+001 -9.1091e+001 -1.2714e+001 34000 101135,101187,101161
 1.6000e+000 101239  3.2795e+000 -8.5248e+001 -4.0824e+000 34000 101057,101109,101083
 1.6000e+000 101403 -1.8316e+001 -6.5560e+001 -1.2615e+001 34000 101135,101109,101377
 1.6000e+000 101426 -3.4686e+001 -7.3965e+001 -6.3482e+000 34000 101135,101377,101187
 1.6000e+000 101475 -2.3259e+001 -7.8114e+001  1.0245e+000 34000 101187,101377,101449
 1.6000e+000 101498 -2.4649e+001 -7.8081e+001  1.0218e+000 34000 101187,101449,101031
 1.6000e+000 102083  1.6815e+000 -5.7145e+001  1.5922e+000 33472 102106,101812,101786
 1.6000e+000 102060 -1.0661e+001 -6.0612e+001 -6.4813e-001 33472 102106,101786,101916
 1.6000e+000 102037 -1.8047e+001 -6.6904e+001 -6.3255e+000 33472 101812,101864,101838
 1.6000e+000 102014 -9.2963e+000 -7.7727e+001 -4.3882e+000 33472 101864,101916,101890
 1.6000e+000 101991 -2.5169e+001 -6.3422e+001 -4.2939e+000 33472 101786,101942,101916
 1.6000e+000 101968 -3.0942e+001 -6.1480e+001  1.1146e+001 33472 101760,101942,101786
 1.6000e+000 102132 -6.5760e+000 -5.9667e+001 -3.1737e+000 33472 101864,101812,102106
 1.6000e+000 102155 -1.1479e+001 -5.9872e+001 -6.0157e+000 33472 101864,102106,101916
 1.6000e+000 102612 -2.5484e+001 -6.3880e+001 -1.5877e+001 33038 102635,102468,102390
 1.6000e+000 102589 -3.6909e+001 -8.1068e+001 -2.3249e+001 33038 102635,102390,102364
 1.6000e+000 102566 -1.9297e+001 -5.9942e+001 -1.4089e+001 33038 102390,102468,102442
 1.6000e+000 102543 -1.3217e+001 -6.1851e+001 -6.2111e+000 33038 102338,102494,102364
 1.6000e+000 102520 -1.8681e+001 -5.7036e+001 -9.1443e+000 33038 102390,102442,102416
 1.6000e+000 102661 -2.4698e+001 -5.9589e+001 -6.2419e+000 33038 102494,102468,102635
 1.6000e+000 102684 -2.7198e+001 -6.9309e+001 -1.1914e+001 33038 102494,102635,102364
 1.6000e+000 103318 -2.6313e+001 -5.3911e+001  3.5392e+000 32402 102972,103128,103076
 1.6000e+000 103295 -2.4098e+001 -5.5110e+001  3.2464e+000 32402 102946,103128,102972
 1.6000e+000 103272 -2.7068e+001 -5.6440e+001  4.9081e+000 32402 103076,103128,103102
 1.6000e+000 103249 -2.1542e+001 -5.2886e+001  1.8422e+001 32402 102946,103154,103128
 1.6000e+000 103226 -2.5163e+001 -4.8304e+001 -1.2369e+000 32402 102972,103076,102998
 1.6000e+000 103203 -2.5195e+001 -5.1425e+001 -3.4214e+000 32402 102998,103076,103050
 1.6000e+000 103180 -2.7778e+001 -4.5185e+001 -5.1088e+000 32402 102998,103050,103024
 1.6000e+000 103696 -9.2856e+000 -7.6244e+001 -1.0435e+000 31924 103448,103526,103500
 1.6000e+000 103673  1.9958e+001 -6.7521e+001 -1.6020e+001 31924 103448,103578,103526
 1.6000e+000 103650 -3.3248e+000 -5.8568e+001 -4.7645e+000 31924 103448,103500,103474
 1.6000e+000 103627 -6.1764e+000 -6.1723e+001 -2.3960e+001 31924 103422,103578,103448
 1.6000e+000 103604 -2.0923e+001 -1.2445e+002  3.7632e+000 31924 103526,103578,103552
 1.6000e+000 104281 -1.1171e+001 -3.8294e+001  1.6760e+000 31520 104304,104062,104036
 1.6000e+000 104258 -2.6345e+001 -3.9922e+001 -6.2856e-001 31520 104304,104036,103984
 1.6000e+000 104235 -2.2949e+001 -4.1887e+001 -1.7282e+001 31520 104062,104114,104088
 1.6000e+000 104212 -1.8357e+001 -4.1523e+001 -3.9843e+000 31520 103958,104114,103984
 1.6000e+000 104189 -2.8388e+001 -4.4771e+001 -2.9616e+000 31520 103984,104036,104010
 1.6000e+000 104166 -1.1944e+001 -4.5968e+001 -6.2655e+000 31520 103958,104140,104114
 1.6000e+000 104330 -7.4282e+000 -4.2420e+001 -5.0439e+000 31520 104114,104062,104304
 1.6000e+000 104353 -1.5258e+001 -4.0095e+001 -4.4865e+000 31520 104114,104304,103984
 1.6000e+000 104704 -1.4426e+001 -3.5901e+001 -1.4073e+000 31066 104479,104583,104505
 1.6000e+000 104681  1.0149e+000 -2.6748e+001 -5.1898e+000 31066 104479,104609,104583
 1.6000e+000 104658 -4.1209e+000 -4.6639e+001  1.3422e+000 31066 104505,104557,104531
 1.6000e+000 104635 -1.9703e+000 -3.3612e+001 -1.0599e+000 31066 104505,104583,104557
 1.6000e+000 104925 -4.9573e+000 -9.7103e+001 -6.0475e-002 30754 104775,104827,104801
 1.6000e+000 104902 -4.8269e+000 -7.9655e+001 -1.4528e-001 30754 104775,104853,104827
 1.6000e+000 104879 -9.9755e-002 -7.7347e+001  3.8858e+000 30754 104749,104853,104775
 1.6000e+000 105482 -1.9094e+001 -7.9730e+001 -1.7254e+000 30164 105505,105136,105110
 1.6000e+000 105459 -2.0256e+001 -9.6052e+001  4.4001e+000 30164 105649,105505,105110
 1.6000e+000 105436 -2.7260e+001 -7.6265e+001 -1.6853e+000 30164 105577,105188,105136
 1.6000e+000 105413 -1.9434e+001 -9.8634e+001  2.3885e+001 30164 105649,105110,105318
 1.6000e+000 105390 -3.2376e+001 -1.0965e+002  1.9427e+001 30164 105214,105292,105240
 1.6000e+000 105367 -1.8769e+001 -8.5448e+001  4.8801e+000 30164 105240,105292,105266
 1.6000e+000 105344 -2.2851e+001 -6.1895e+001 -6.4520e+000 30164 105136,105188,105162
 1.6000e+000 105531 -2.1107e+001 -7.3337e+001  4.4240e-001 30164 105577,105136,105505
 1.6000e+000 105554 -1.5060e+001 -7.3012e+001  7.7243e+000 30164 105214,105505,105292
 1.6000e+000 105603 -2.2814e+001 -7.3378e+001  4.7293e+000 30164 105214,105188,105577
 1.6000e+000 105626 -1.9320e+001 -7.1427e+001  6.8052e+000 30164 105214,105577,105505
 1.6000e+000 105675 -7.8772e+000 -6.5505e+001  1.0746e+001 30164 105292,105505,105649
 1.6000e+000 105698 -6.9754e+000 -5.7040e+001  2.6753e+001 30164 105292,105649,105318
 1.6000e+000 106027  1.6342e+001 -4.3728e+001 -3.5550e+000 29868 106322,106050,105880
 1.6000e+000 106004  1.0282e+001 -2.9604e+001 -1.6118e+001 29868 106250,106050,105828
 1.6000e+000 105981  1.6336e+001 -3.4225e+001 -3.0017e+001 29868 106250,105828,105802
 1.6000e+000 105958  5.2007e+000 -3.5904e+001  6.3936e+000 29868 106322,105880,106122
 1.6000e+000 106076  5.6214e+000 -7.5105e+001 -5.1646e-001 29868 105906,105880,106050
 1.6000e+000 106099  1.1942e+001 -5.0001e+001 -7.0371e+000 29868 105906,106050,105932
 1.6000e+000 106148 -2.1768e+001 -5.3312e+001 -4.0009e+000 29868 105854,105828,106122
 1.6000e+000 106276  3.3903e+000 -5.0138e+001 -8.9962e+000 29868 105932,106050,106250
 1.6000e+000 106299  1.3067e+001 -5.9490e+001 -2.4092e+001 29868 105932,106250,105802
 1.6000e+000 106348 -3.6714e+000 -5.0887e+001 -6.0916e+000 29868 105828,106050,106322
 1.6000e+000 106371 -1.2746e+001 -4.1740e+001  3.8485e+000 29868 105828,106322,106122
 1.6000e+000 106828 -1.5869e+001 -4.3517e+001 -1.5040e-001 29521 106580,106710,106684
 1.6000e+000 106805 -2.5208e+001 -5.3210e+001 -6.5750e+000 29521 106554,106710,106580
 1.6000e+000 106782 -1.9523e+001 -4.5658e+001 -1.1190e+000 29521 106580,106684,106606
 1.6000e+000 106759 -2.7457e+001 -5.9961e+001 -5.1297e+000 29521 106606,106684,106658
 1.6000e+000 106736 -1.6182e+001 -4.9836e+001 -8.0349e-001 29521 106606,106658,106632
 1.6000e+000 107027 -1.2675e+001 -6.4639e+001 -1.3136e+000 29117 106877,106929,106903
 1.6000e+000 107004 -1.9633e+001 -6.7621e+001 -1.3315e+000 29117 106851,106929,106877
 1.6000e+000 106981 -1.6775e+001 -6.7805e+001 -2.1038e+000 29117 106851,106955,106929
 1.6000e+000 107456 -2.4647e+001 -7.5834e+001 -1.0148e+001 28656 107237,107315,107263
 1.6000e+000 107433 -1.0031e+001 -5.8707e+001 -3.8481e+000 28656 107133,107315,107237
 1.6000e+000 107410 -5.8019e+000 -5.3596e+001 -6.5488e+000 28656 107133,107237,107159
 1.6000e+000 107387 -2.8603e+000 -4.2564e+001 -9.3327e+000 28656 107159,107237,107185
 1.6000e+000 107364  1.6011e+001 -3.8214e+001 -2.2151e+001 28656 107185,107237,107211
 1.6000e+000 107341 -1.4063e+001 -5.4137e+001 -4.5627e+000 28656 107263,107315,107289
 1.6000e+000 107704 -1.0933e+001 -6.6188e+001  2.7477e-001 27902 107727,107557,107531
 1.6000e+000 107681 -5.7444e+000 -6.6256e+001  3.6788e+000 27902 107727,107531,107505
 1.6000e+000 107658 -1.7856e+001 -7.1429e+001 -1.4447e+000 27902 107557,107609,107583
 1.6000e+000 107635 -1.4723e+001 -7.3964e+001 -5.9634e+000 27902 107479,107609,107505
 1.6000e+000 107753 -1.6703e+001 -6.5274e+001 -4.2355e-001 27902 107609,107557,107727
 1.6000e+000 107776 -1.1615e+001 -6.5747e+001  2.6878e+000 27902 107609,107727,107505
 1.6000e+000 108333 -2.9874e+001 -8.4076e+001 -3.9978e-001 27341 108356,108065,108013
 1.6000e+000 108310 -3.1142e+001 -8.2726e+001 -8.7444e+000 27341 108356,108013,108143
 1.6000e+000 108287 -2.2943e+001 -9.2102e+001 -7.7884e+000 27341 108428,108117,108091
 1.6000e+000 108264 -3.7972e+001 -8.6012e+001  2.1523e+000 27341 108013,108065,108039
 1.6000e+000 108241 -4.7625e+001 -7.5548e+001 -9.5631e+000 27341 107987,108143,108013
 1.6000e+000 108218 -2.8317e+001 -6.7134e+001 -1.2274e+001 27341 107987,108169,108143
 1.6000e+000 108195 -2.4460e+001 -6.2046e+001 -1.0483e+001 27341 107961,108169,107987
 1.6000e+000 108382 -3.3373e+001 -9.3282e+001  8.6109e-001 27341 108091,108065,108356
 1.6000e+000 108405 -2.8271e+001 -8.3450e+001 -4.3056e+000 27341 108428,108091,108356
 1.6000e+000 108454 -3.2664e+001 -1.0654e+002 -1.2278e+001 27341 108143,108117,108428
 1.6000e+000 108477 -3.6409e+001 -9.5030e+001 -8.4536e+000 27341 108143,108428,108356
 1.6000e+000 108725  4.7134e-001 -6.5876e+001 -3.0748e+000 27029 108748,108526,108500
 1.6000e+000 108702 -3.1660e+000 -5.6210e+001 -9.1519e-001 27029 108748,108500,108630
 1.6000e+000 108679 -1.0776e+001 -6.6863e+001 -3.8986e+000 27029 108578,108630,108604
 1.6000e+000 108656 -7.9284e+000 -4.7598e+001  3.1516e+001 27029 108526,108578,108552
 1.6000e+000 108774 -2.9701e+000 -6.9637e+001 -4.6875e+000 27029 108578,108526,108748
 1.6000e+000 108797 -9.2627e+000 -6.3127e+001 -3.7366e+000 27029 108578,108748,108630
 1.6000e+000 109045 -1.3961e+001 -6.6862e+001 -3.7207e+000 26610 108872,108924,108898
 1.6000e+000 109022 -1.3160e+001 -6.2783e+001 -1.8575e+000 26610 108872,108950,108924
 1.6000e+000 108999 -1.6573e+001 -6.8170e+001 -3.9225e+000 26610 108846,108950,108872
 1.6000e+000 108976 -1.3997e+001 -6.5682e+001 -2.9049e+000 26610 108820,108950,108846
 1.6000e+000 109366 -2.0744e+001 -8.8790e+001 -1.3139e+000 26006 109144,109222,109196
 1.6000e+000 109343 -1.3032e+001 -8.6075e+001  1.9376e-001 26006 109118,109222,109144
 1.6000e+000 109320 -2.8381e+001 -9.4681e+001  4.0128e+000 26006 109092,109222,109118
 1.6000e+000 109297 -2.6579e+001 -9.0981e+001 -4.3640e+000 26006 109144,109196,109170
 1.6000e+000 109274 -9.4931e+000 -7.2707e+001 -4.9162e+000 26006 109092,109248,109222
 1.6000e+000 109567 -1.4470e+001 -6.9022e+001  2.1661e-001 25659 109391,109469,109443
 1.6000e+000 109544 -1.6013e+001 -6.9843e+001  6.7320e-001 25659 109391,109495,109469
 1.6000e+000 109521 -1.3848e+001 -6.3482e+001  1.1357e+000 25659 109391,109443,109417
 1.6000e+000 109900 -3.1409e+001 -7.3703e+001 -1.1625e+001 25255 109923,109779,109753
 1.6000e+000 109877 -2.9821e+001 -6.7233e+001 -7.1115e+000 25255 109923,109753,109701
 1.6000e+000 109854 -3.6755e+001 -6.5870e+001 -1.3692e+001 25255 109675,109805,109701
 1.6000e+000 109831 -3.5707e+001 -5.6874e+001 -1.0886e+001 25255 109701,109753,109727
 1.6000e+000 109949 -3.5985e+001 -8.3567e+001 -1.8038e+001 25255 109805,109779,109923
 1.6000e+000 109972 -3.0639e+001 -7.1758e+001 -1.3130e+001 25255 109805,109923,109701
 1.6000e+000 110220 -3.3295e+001 -7.2870e+001 -1.5842e-001 24701 110243,110021,109995
 1.6000e+000 110197 -3.4050e+001 -7.7183e+001 -5.2833e+000 24701 110243,109995,110099
 1.6000e+000 110174 -2.9976e+001 -7.3844e+001 -2.2877e+000 24701 110315,110073,110047
 1.6000e+000 110151 -2.9817e+001 -7.7976e+001 -5.7953e+000 24701 109995,110125,110099
 1.6000e+000 110269 -2.8826e+001 -6.8624e+001  2.6213e+000 24701 110047,110021,110243
 1.6000e+000 110292 -3.6908e+001 -7.3917e+001 -2.3808e-001 24701 110315,110047,110243
 1.6000e+000 110341 -1.1183e+001 -6.9579e+001 -2.1353e+000 24701 110099,110073,110315
 1.6000e+000 110364 -2.3477e+001 -7.2639e+001 -1.2935e+000 24701 110099,110315,110243
 1.6000e+000 110661 -1.5134e+001 -7.6341e+001 -1.5123e+000 24197 110684,110413,110387
 1.6000e+000 110638 -1.0599e+001 -6.8435e+001 -4.6121e+000 24197 110684,110387,110543
 1.6000e+000 110615 -8.4534e+000 -9.2141e+001  5.5371e-001 24197 110756,110491,110465
 1.6000e+000 110592  1.3739e+001 -7.5394e+001  2.1630e+000 24197 110413,110465,110439
 1.6000e+000 110569 -7.9481e+000 -1.0662e+002 -2.5853e+001 24197 110491,110543,110517
 1.6000e+000 110710 -6.1169e+000 -7.1264e+001  2.8586e+000 24197 110465,110413,110684
 1.6000e+000 110733 -1.2903e+001 -8.5183e+001 -4.3364e-001 24197 110756,110465,110684
 1.6000e+000 110782 -8.6111e+000 -8.4103e+001 -6.3126e+000 24197 110543,110491,110756
 1.6000e+000 110805 -9.9124e+000 -7.3197e+001 -7.3736e+000 24197 110543,110756,110684
 1.6000e+000 111315 -2.5410e+001 -8.5885e+001 -1.3251e+001 23593 111044,111148,111070
 1.6000e+000 111292 -2.9395e+001 -6.9690e+001 -5.8299e+000 23593 111044,111174,111148
 1.6000e+000 111269 -2.0442e+001 -6.5049e+001 -2.7749e+000 23593 111070,111122,111096
 1.6000e+000 111246 -2.5610e+001 -9.0396e+001 -1.0868e+001 23593 111070,111148,111122
 1.6000e+000 111223 -4.5045e+001 -8.4465e+001 -1.7156e+001 23593 111018,111174,111044
 1.6000e+000 111200 -1.9526e+001 -6.8004e+001 -8.3572e+000 23593 110992,111174,111018
 1.6000e+000 111821  4.4332e-001 -8.1323e+001 -3.0006e+000 23089 111916,111844,111628
 1.6000e+000 111798 -1.7670e+001 -9.1678e+001 -6.1216e+000 23089 111844,111550,111524
 1.6000e+000 111775  4.2014e+000 -7.7112e+001 -1.4202e+000 23089 111916,111628,111602
 1.6000e+000 111752 -8.8080e+000 -1.2216e+002  1.8242e+000 23089 111498,111680,111524
 1.6000e+000 111729 -1.2364e+001 -7.0432e+001 -6.7524e-001 23089 111550,111602,111576
 1.6000e+000 111706  2.5681e+000 -5.9842e+001 -7.8816e+000 23089 111628,111680,111654
 1.6000e+000 111870 -1.2301e+001 -8.0053e+001  1.2980e+000 23089 111680,111628,111844
 1.6000e+000 111893 -1.5116e+001 -8.5973e+001  7.1153e+000 23089 111680,111844,111524
 1.6000e+000 111942 -9.8317e+000 -7.3072e+001 -4.7925e+000 23089 111550,111844,111916
 1.6000e+000 111965 -4.9975e+000 -6.8277e+001 -2.8570e+000 23089 111550,111916,111602
 1.6000e+000 112164  1.8373e+001 -6.1846e+001 -7.2804e+000 22626 112187,112014,111988
 1.6000e+000 112141  5.9444e+000 -6.8757e+001 -2.9882e+000 22626 112259,112187,111988
 1.6000e+000 112118  1.1952e+000 -7.4932e+001  4.0317e+000 22626 112259,111988,112092
 1.6000e+000 112213  6.9239e+000 -6.3072e+001 -9.7246e+000 22626 112040,112014,112187
 1.6000e+000 112236  9.2321e+000 -5.5881e+001 -9.5303e+000 22626 112040,112187,112066
 1.6000e+000 112285  4.2860e+000 -5.6675e+001 -8.7816e+000 22626 112066,112187,112259
 1.6000e+000 112308  3.3306e+000 -6.0540e+001 -2.5513e+000 22626 112066,112259,112092
 1.6000e+000 112605 -5.9658e+000 -7.8412e+001  4.1686e+000 22286 112628,112383,112357
 1.6000e+000 112582 -1.6787e+001 -8.0611e+001  1.6568e+000 22286 112772,112628,112357
 1.6000e+000 112559 -3.1756e+001 -9.2321e+001  5.3078e+000 22286 112700,112435,112409
 1.6000e+000 112536 -2.2720e+001 -8.4252e+001  2.5830e-002 22286 112772,112357,112331
 1.6000e+000 112513 -3.7961e+001 -7.8862e+001  2.0989e+000 22286 112435,112487,112461
 1.6000e+000 112654 -1.1496e+001 -6.5474e+001 -4.5328e+000 22286 112409,112383,112628
 1.6000e+000 112677 -2.5304e+001 -8.1372e+001  1.5502e+000 22286 112700,112409,112628
 1.6000e+000 112726 -2.4788e+001 -8.4034e+001 -2.7069e+000 22286 112487,112435,112700
 1.6000e+000 112749 -2.2722e+001 -8.2350e+001 -5.5671e+000 22286 112487,112700,112628
 1.6000e+000 112798 -1.4486e+001 -8.4367e+001  7.7728e-001 22286 112487,112628,112772
 1.6000e+000 112821 -1.4645e+001 -8.4299e+001  8.0821e-001 22286 112487,112772,112331
 1.6000e+000 112924  1.0401e+001 -8.6438e+001 -6.6716e+000 21974 112846,112898,112872
 1.6000e+000 113223 -4.5637e+001 -9.5764e+001  5.3813e+000 21420 112949,113053,112975
 1.6000e+000 113200 -4.1491e+001 -7.9454e+001  4.8915e+000 21420 112949,113079,113053
 1.6000e+000 113177 -3.4309e+001 -8.7928e+001 -1.0542e+000 21420 112975,113053,113001
 1.6000e+000 113154 -4.6230e+001 -8.2000e+001  4.6968e+000 21420 113001,113053,113027
 1.6000e+000 113131 -4.8096e+001 -7.6494e+001  1.7978e+000 21420 112949,113105,113079
 1.6000e+000 113605 -8.6127e+000 -8.6425e+001  7.9053e+000 20716 113331,113435,113357
 1.6000e+000 113582 -1.2243e+001 -6.6066e+001  1.0074e+001 20716 113331,113461,113435
 1.6000e+000 113559 -6.1946e+000 -8.8432e+001 -3.4135e+000 20716 113383,113435,113409
 1.6000e+000 113536 -7.4935e+000 -8.0977e+001 -5.8978e-001 20716 113357,113435,113383
 1.6000e+000 113513  3.5674e+001 -5.3724e+001  1.1351e+001 20716 113331,113487,113461
 1.6000e+000 113853 -2.3865e+001 -8.3522e+001  1.3906e+000 20290 113876,113680,113654
 1.6000e+000 113830 -2.1819e+001 -8.3515e+001  1.2757e+000 20290 113876,113654,113628
 1.6000e+000 113807 -2.6922e+001 -8.8150e+001 -2.1983e+000 20290 113948,113732,113680
 1.6000e+000 113784  3.4475e+000 -8.0643e+001 -5.3604e+000 20290 113680,113732,113706
 1.6000e+000 113902 -2.3463e+001 -8.3580e+001  1.1158e+000 20290 113948,113680,113876
 1.6000e+000 113925 -2.5663e+001 -7.9925e+001  9.5355e-001 20290 113758,113876,113628
 1.6000e+000 113974 -3.0806e+001 -8.3974e+001 -3.5892e+000 20290 113758,113732,113948
 1.6000e+000 113997 -3.0504e+001 -8.3644e+001 -1.0447e+000 20290 113758,113948,113876
 1.6000e+000 114365 -2.2990e+001 -8.5268e+001  2.8249e-001 19900 114146,114198,114172
 1.6000e+000 114342 -2.3303e+001 -8.5468e+001 -1.3982e-001 19900 114042,114198,114146
 1.6000e+000 114319 -2.2059e+001 -8.5710e+001 -9.4981e-001 19900 114042,114224,114198
 1.6000e+000 114296 -3.3849e+001 -8.3098e+001 -9.9367e-001 19900 114094,114146,114120
 1.6000e+000 114273 -2.3637e+001 -8.1674e+001 -2.7526e+000 19900 114042,114146,114094
 1.6000e+000 114250 -1.4539e+001 -8.0758e+001 -5.9621e+000 19900 114042,114094,114068
 1.6000e+000 114566 -2.4790e+000 -8.1928e+001  2.7019e+000 19496 114442,114494,114468
 1.6000e+000 114543 -2.0434e+001 -8.1629e+001 -5.9088e+000 19496 114416,114494,114442
 1.6000e+000 114520  8.6200e+000 -8.0601e+001 -1.0407e+001 19496 114390,114494,114416
 1.6000e+000 114767 -1.9577e+001 -8.3640e+001  7.4508e-001 19042 114790,114669,114643
 1.6000e+000 114744 -2.1451e+001 -8.2418e+001  1.2837e+000 19042 114790,114643,114591
 1.6000e+000 114721 -2.3717e+001 -9.8380e+001  5.9076e+000 19042 114591,114643,114617
 1.6000e+000 114816 -1.8663e+001 -8.2586e+001  2.9927e-001 19042 114695,114669,114790
 1.6000e+000 114839 -2.0195e+001 -8.0746e+001  7.2425e-001 19042 114695,114790,114591
 1.6000e+000 114991 -1.1794e+001 -8.4240e+001 -2.8513e+000 18488 114864,114916,114890
 1.6000e+000 114968 -1.6554e+001 -9.9723e+001  2.5455e-001 18488 114864,114942,114916
 1.6000e+000 115192 -1.2398e+001 -7.9333e+001 -1.9609e+000 18098 115215,115042,115016
 1.6000e+000 115169 -6.7048e+000 -7.1857e+001 -5.6367e+000 18098 115215,115016,115120
 1.6000e+000 115146 -1.0463e+001 -8.1381e+001  1.8868e+000 18098 115287,115094,115068
 1.6000e+000 115241 -8.3749e+000 -8.3509e+001 -4.9993e-001 18098 115068,115042,115215
 1.6000e+000 115264 -9.7884e+000 -8.0795e+001 -1.4308e-001 18098 115287,115068,115215
 1.6000e+000 115313 -7.1639e+000 -8.0961e+001  1.8903e-001 18098 115120,115094,115287
 1.6000e+000 115336 -5.6324e+000 -8.0133e+001 -1.7668e+000 18098 115120,115287,115215
 1.6000e+000 115846 -8.4462e+000 -9.4616e+001 -1.5266e+001 17644 115653,115705,115679
 1.6000e+000 115823 -2.1515e+001 -8.3255e+001 -6.6645e+000 17644 115627,115705,115653
 1.6000e+000 115800 -9.4602e+000 -7.1583e+001  8.6146e-001 17644 115549,115705,115627
 1.6000e+000 115777 -1.3145e+001 -8.5036e+001  1.2326e+000 17644 115549,115627,115575
 1.6000e+000 115754 -1.8527e+000 -6.1674e+001  1.0666e+001 17644 115523,115705,115549
 1.6000e+000 115731 -8.4821e+000 -7.6134e+001 -4.6545e+000 17644 115575,115627,115601
 1.6000e+000 116067 -1.3015e+001 -9.8220e+001 -1.5068e+000 17116 115891,115943,115917
 1.6000e+000 116044 -1.1524e+001 -1.1928e+002  2.9911e+000 17116 115891,115995,115943
 1.6000e+000 116021  7.8799e+000 -8.6837e+001  1.1137e+001 17116 115943,115995,115969
 1.6000e+000 116288 -3.4261e+000 -8.1075e+001  1.2912e+001 16704 116164,116216,116190
 1.6000e+000 116265 -1.5627e+001 -1.0402e+002  7.7989e+000 16704 116112,116216,116164
 1.6000e+000 116242 -2.5704e+001 -9.8543e+001 -1.6630e+000 16704 116112,116164,116138
 1.6000e+000 116489 -1.3568e+001 -8.5984e+001  2.6586e-001 16434 116339,116417,116365
 1.6000e+000 116466 -4.6617e+000 -8.2286e+001  4.4056e-001 16434 116313,116417,116339
 1.6000e+000 116443 -5.2378e+001 -8.8225e+001  3.2848e+001 16434 116365,116417,116391
 1.6000e+000 116592 -2.9426e+001 -8.5578e+001 -6.1481e+000 15967 116514,116566,116540
 1.6000e+000 116695  2.0490e+001 -8.9102e+001 -1.7358e+001 15552 116617,116669,116643
 1.6000e+000 116798 -2.0875e+001 -8.0096e+001  0.0000e+000 421 116720,116772,116746
 1.7000e+000 69066  4.8460e+000 -3.3745e+002  2.8055e+001 68738 68965,69017,68991
 1.7000e+000 69043  2.1738e+000 -3.4483e+002  8.8594e+000 68738 68939,69017,68965
 1.7000e+000 69371  1.6789e+000 -4.4753e+001 -3.9008e+000 68426 69172,69250,69198
 1.7000e+000 69348 -8.4530e+000 -7.5964e+001  1.2361e+001 68426 69146,69250,69172
 1.7000e+000 69325 -6.8533e+000 -2.8484e+001  1.0261e+001 68426 69198,69250,69224
 1.7000e+000 69302  1.3041e+001 -1.1510e+002  7.4030e+000 68426 69146,69276,69250
 1.7000e+000 69521 -1.3821e+000 -6.3203e+001 -2.2770e+000 68228 69420,69472,69446
 1.7000e+000 69498 -6.9692e+000 -5.9886e+001 -6.6504e+000 68228 69394,69472,69420
 1.7000e+000 69781 -6.0528e+000  1.5437e+000  8.0255e+000 68030 69631,69683,69657
 1.7000e+000 69758 -1.8258e+000 -1.2315e+001  2.5150e+000 68030 69631,69709,69683
 1.7000e+000 69735  1.9366e+000 -2.8717e+000  2.2783e+000 68030 69605,69709,69631
 1.7000e+000 70078 -4.5473e+000 -6.9797e+000 -7.4056e+000 67832 69882,69934,69908
 1.7000e+000 70055 -8.2879e+000 -1.5652e+001 -2.6937e+000 67832 69856,69934,69882
 1.7000e+000 70032 -5.8937e+000 -3.8362e+001 -1.5555e+001 67832 69830,69934,69856
 1.7000e+000 70009 -6.1691e+000 -3.9219e+001 -1.7873e+001 67832 69804,69934,69830
 1.7000e+000 69986  1.6734e+001 -2.3125e+001 -1.0854e+001 67832 69804,69960,69934
 1.7000e+000 70586 -6.6747e+000 -5.3723e+001  3.6274e+000 67634 70609,70419,70341
 1.7000e+000 70563  8.2684e+000 -5.8418e+001  4.7252e+000 67634 70681,70609,70341
 1.7000e+000 70540  1.9214e+001 -5.6651e+001  1.6986e+001 67634 70681,70341,70315
 1.7000e+000 70517 -5.1989e+000 -5.0002e+001  3.5021e+000 67634 70341,70419,70367
 1.7000e+000 70494 -9.9361e+000 -3.7145e+001  1.2859e+001 67634 70263,70445,70289
 1.7000e+000 70471 -1.0885e+001 -3.0119e+001  3.5014e-001 67634 70367,70419,70393
 1.7000e+000 70635  7.6796e+000 -3.3517e+001  1.0124e+001 67634 70445,70419,70609
 1.7000e+000 70658 -1.1395e+001 -5.6357e+001  1.8310e+001 67634 70445,70609,70289
 1.7000e+000 70707  1.7354e+001 -4.4913e+001  2.1893e+001 67634 70289,70609,70681
 1.7000e+000 70730  3.7913e+001 -4.2796e+001  3.3524e+001 67634 70289,70681,70315
 1.7000e+000 71108 -1.9962e+001 -6.2455e+001  2.3186e+001 67344 71131,70912,70886
 1.7000e+000 71085 -2.7039e+001 -7.0876e+001 -4.8287e+000 67344 71131,70886,70860
 1.7000e+000 71062  2.9120e+001 -7.3601e+001  1.3182e+001 67344 71203,70938,70912
 1.7000e+000 71039 -3.9813e+000 -5.6301e+001  9.6553e+000 67344 70834,70990,70860
 1.7000e+000 71016 -5.6860e+000 -7.7160e+001  5.0872e+000 67344 70938,70990,70964
 1.7000e+000 71157  1.9055e+001 -6.1169e+001  2.2006e+001 67344 71203,70912,71131
 1.7000e+000 71180 -1.0284e+001 -6.7519e+001  5.0707e+000 67344 70990,71131,70860
 1.7000e+000 71229  8.5048e+000 -7.4334e+001  9.7028e+000 67344 70990,70938,71203
 1.7000e+000 71252 -1.2685e+001 -6.9939e+001  1.8004e+001 67344 70990,71203,71131
 1.7000e+000 71603 -2.7243e+000 -5.0801e+001  2.1675e+000 67032 71378,71482,71404
 1.7000e+000 71580  3.7774e+000 -3.5716e+001  6.5781e+000 67032 71378,71508,71482
 1.7000e+000 71557  5.2512e+000 -4.3071e+001  3.8843e+000 67032 71404,71456,71430
 1.7000e+000 71534 -7.2981e-001 -4.5592e+001  2.5600e+000 67032 71404,71482,71456
 1.7000e+000 72003 -3.0863e-001 -4.1640e+001  3.9356e-001 66834 71755,71859,71781
 1.7000e+000 71980  5.0764e-001 -5.2008e+001 -4.5721e-001 66834 71755,71885,71859
 1.7000e+000 71957 -4.5263e-001 -3.6650e+001  6.8427e+000 66834 71781,71833,71807
 1.7000e+000 71934 -6.6780e+000 -5.4135e+001  3.4534e+000 66834 71781,71859,71833
 1.7000e+000 71911 -2.0514e+000 -4.8935e+001  1.6673e+001 66834 71729,71885,71755
 1.7000e+000 72430  8.7621e+000 -4.4554e+001 -2.6975e-003 66266 72237,72289,72263
 1.7000e+000 72407  7.3065e+000 -4.8700e+001  3.1203e+000 66266 72133,72289,72237
 1.7000e+000 72384  1.8794e+000 -3.9973e+001  1.3502e+000 66266 72133,72237,72211
 1.7000e+000 72361  4.7013e+000 -5.1015e+001  1.8704e+000 66266 72107,72289,72133
 1.7000e+000 72338 -1.4765e+001 -8.1628e+001  1.5441e+001 66266 72133,72211,72185
 1.7000e+000 72315  4.4111e-001 -8.5666e+001  1.6989e+001 66266 72133,72185,72159
 1.7000e+000 72580 -1.3114e+001 -8.6221e+001  8.6432e+000 65968 72479,72531,72505
 1.7000e+000 72557 -1.2708e+000 -6.4872e+001  3.7446e+000 65968 72453,72531,72479
 1.7000e+000 72960 -4.5967e+000 -7.7760e+001 -3.2212e+000 65621 72983,72738,72712
 1.7000e+000 72937  4.6835e+000 -8.2990e+001 -1.8218e+000 65621 72983,72712,72686
 1.7000e+000 72914 -2.1776e+001 -9.1023e+001  7.8987e+000 65621 72738,72842,72764
 1.7000e+000 72891  2.7552e+000 -7.6289e+001 -4.2512e-001 65621 72764,72842,72816
 1.7000e+000 72868 -4.9929e+001 -1.8655e+002  3.0182e+001 65621 72764,72816,72790
 1.7000e+000 73009 -9.7384e+000 -7.9388e+001 -2.0166e+000 65621 72842,72738,72983
 1.7000e+000 73032 -3.9661e+000 -8.8436e+001  1.6004e+000 65621 72842,72983,72686
 1.7000e+000 73361 -1.5393e+001 -1.0031e+002 -4.3300e-001 65281 73456,73384,73188
 1.7000e+000 73338 -2.4984e+001 -1.0457e+002  9.8763e+000 65281 73384,73162,73136
 1.7000e+000 73315 -1.7899e+001 -1.2080e+002 -1.9815e+001 65281 73188,73240,73214
 1.7000e+000 73292 -1.9550e+001 -6.7534e+001  5.7460e+000 65281 73136,73266,73240
 1.7000e+000 73410 -3.0167e+001 -1.0431e+002  1.6840e+000 65281 73240,73188,73384
 1.7000e+000 73433 -2.6223e+001 -6.9914e+001  4.8722e+000 65281 73240,73384,73136
 1.7000e+000 73482 -2.7091e+001 -1.3482e+002 -4.2558e+000 65281 73162,73384,73456
 1.7000e+000 73711  1.4380e+001  6.2955e+000 -3.6550e+001 64820 73734,73610,73584
 1.7000e+000 73688  6.7841e+000 -1.8619e+001 -1.3493e+001 64820 73734,73584,73662
 1.7000e+000 73760 -7.4152e+000 -1.0438e+000 -1.8580e+001 64820 73636,73610,73734
 1.7000e+000 73783 -1.2769e+001 -1.5457e+001 -2.5292e+000 64820 73806,73734,73662
 1.7000e+000 73832 -1.6194e+000 -1.8524e+001 -2.2602e+000 64820 73636,73734,73806
 1.7000e+000 74112  3.2660e+000 -6.8315e+001  1.3004e-001 64622 74278,74135,73988
 1.7000e+000 74089  1.3055e-001 -6.9912e+001  5.6015e+000 64622 74135,73936,74040
 1.7000e+000 74066  6.3718e+000 -6.7027e+001  2.4032e+000 64622 74278,73988,73962
 1.7000e+000 74161 -1.1367e+000 -7.2143e+001  1.8694e+000 64622 74014,73988,74135
 1.7000e+000 74184  2.6798e+000 -6.7980e+001  4.7265e+000 64622 74207,74135,74040
 1.7000e+000 74233  1.6984e-001 -7.5923e+001 -2.4145e-001 64622 74014,74135,74207
 1.7000e+000 74304  4.2228e+000 -6.6478e+001  7.1912e+000 64622 73936,74135,74278
 1.7000e+000 74327  1.1173e+001 -6.4128e+001  9.3217e+000 64622 73936,74278,73962
 1.7000e+000 74526  4.9477e+000 -3.1369e+001 -3.3859e+000 64424 74621,74549,74402
 1.7000e+000 74503  1.8603e+000 -6.3026e+001 -1.3707e+000 64424 74549,74350,74454
 1.7000e+000 74480  5.2148e+000 -2.0842e+001 -2.2472e+001 64424 74621,74402,74376
 1.7000e+000 74575  7.8278e+000 -5.5282e+001  4.0603e+000 64424 74428,74402,74549
 1.7000e+000 74598  1.6207e+000 -7.5064e+001  3.0049e+000 64424 74693,74549,74454
 1.7000e+000 74647 -8.5087e+000 -6.1498e+001 -6.3616e-001 64424 74350,74549,74621
 1.7000e+000 74670 -1.0305e+001 -5.6755e+001 -2.0480e+001 64424 74350,74621,74376
 1.7000e+000 74719  2.4789e+000 -7.7356e+001 -2.3614e+000 64424 74428,74549,74693
 1.7000e+000 75123 -2.9224e+001 -1.3178e+002  1.8462e+001 64126 74875,74953,74927
 1.7000e+000 75100 -1.6463e+001 -9.7733e+001  1.8770e+001 64126 74875,74979,74953
 1.7000e+000 75077 -8.7048e+000 -8.6180e+001  1.4359e+001 64126 74875,75005,74979
 1.7000e+000 75054 -1.6508e+001 -1.7649e+002  3.5731e+001 64126 74875,74927,74901
 1.7000e+000 75031 -3.0526e+001 -6.5581e+001  2.3217e+001 64126 74849,75005,74875
 1.7000e+000 75224  5.7486e+000 -7.4290e+001  9.9220e+000 63836 75146,75198,75172
 1.7000e+000 75472 -2.0770e+001 -6.4277e+001  3.6955e-001 63375 75273,75351,75325
 1.7000e+000 75449 -1.2618e+001 -5.7791e+001 -4.3670e+000 63375 75273,75377,75351
 1.7000e+000 75426  4.7238e+000 -5.8257e+001 -8.3527e+000 63375 75247,75377,75273
 1.7000e+000 75403 -2.2397e+001 -3.2127e+001  7.6987e+000 63375 75273,75325,75299
 1.7000e+000 75673  3.5164e+000 -5.8443e+001  5.1100e+000 63063 75523,75575,75549
 1.7000e+000 75650  7.9612e+000 -7.3046e+001 -2.3424e+000 63063 75497,75575,75523
 1.7000e+000 75627  2.4361e+000 -7.9744e+001  7.3012e+000 63063 75497,75601,75575
 1.7000e+000 75874 -7.2760e+000 -8.8333e+001  1.8262e-001 62716 75897,75750,75724
 1.7000e+000 75851 -1.3188e+001 -8.4421e+001  8.7626e-001 62716 75897,75724,75698
 1.7000e+000 75828 -8.0701e+000 -7.1718e+001 -1.6436e+001 62716 75698,75802,75776
 1.7000e+000 75923  4.5279e+000 -8.3547e+001 -1.9562e+000 62716 75776,75750,75897
 1.7000e+000 75946 -8.0683e+000 -8.4839e+001 -4.1402e-002 62716 75776,75897,75698
 1.7000e+000 76328  1.9595e+001 -8.1985e+001 -6.2792e+000 62198 76495,76351,76158
 1.7000e+000 76305  4.0452e+000 -7.7032e+001 -2.7052e+000 62198 76351,76080,76054
 1.7000e+000 76282  1.9494e+001 -1.1154e+002 -1.4385e+001 62198 76423,76184,76158
 1.7000e+000 76259  1.4636e+001 -8.1687e+001 -4.2653e+000 62198 76495,76158,76106
 1.7000e+000 76236  2.4902e+001 -9.3582e+001  1.9008e+000 62198 76106,76158,76132
 1.7000e+000 76377  1.6556e+001 -8.8801e+001 -1.4245e+001 62198 76423,76158,76351
 1.7000e+000 76400  7.3258e+000 -6.3204e+001 -9.5403e+000 62198 76210,76351,76054
 1.7000e+000 76449  2.6209e+001 -8.7076e+001 -1.6174e+001 62198 76210,76184,76423
 1.7000e+000 76472  1.9859e+001 -7.1045e+001 -1.8815e+001 62198 76210,76423,76351
 1.7000e+000 76521  1.0161e+001 -7.6246e+001 -1.4147e+000 62198 76080,76351,76495
 1.7000e+000 76544 -2.1717e+000 -8.4886e+001  3.2873e+000 62198 76080,76495,76106
 1.7000e+000 76841 -1.7530e+001 -9.0937e+001 -4.4607e+000 61751 76936,76864,76645
 1.7000e+000 76818  1.5916e+001 -6.4254e+001 -3.0978e+001 61751 76864,76567,76723
 1.7000e+000 76795 -1.4950e+001 -7.6075e+001 -4.5217e+000 61751 76936,76645,76593
 1.7000e+000 76772 -6.4641e+001 -1.4652e+002  2.0486e+001 61751 77008,76697,76671
 1.7000e+000 76749 -1.8177e+001 -7.4542e+001 -6.8756e+000 61751 76593,76645,76619
 1.7000e+000 76890 -2.4178e+001 -1.1164e+002  1.4429e+001 61751 76671,76645,76864
 1.7000e+000 76913 -2.4187e+001 -1.0391e+002  3.6666e+000 61751 77008,76671,76864
 1.7000e+000 76962 -1.1730e+001 -1.1057e+002 -1.1779e+001 61751 76567,76864,76936
 1.7000e+000 76985 -9.8904e+000 -9.7867e+001 -1.0210e+001 61751 76567,76936,76593
 1.7000e+000 77034 -7.2579e+000 -1.1312e+002 -9.5215e+000 61751 76723,76697,77008
 1.7000e+000 77057 -8.1905e+000 -1.2080e+002 -9.2457e+000 61751 76723,77008,76864
 1.7000e+000 77207  5.4811e+000 -3.7527e+001  9.1993e+000 61418 77106,77158,77132
 1.7000e+000 77184 -4.2010e+000 -3.3614e+001  6.5560e+000 61418 77080,77158,77106
 1.7000e+000 77638 -1.2127e+001 -8.0847e+001  6.1967e+000 60814 77733,77661,77471
 1.7000e+000 77615 -1.0997e+001 -8.2091e+001 -5.9553e+000 60814 77661,77393,77315
 1.7000e+000 77592 -2.2661e+001 -6.9528e+001  1.1462e+001 60814 77733,77471,77445
 1.7000e+000 77569  2.2637e+001 -8.4921e+001 -1.9437e+001 60814 77315,77367,77341
 1.7000e+000 77546  7.8443e+000 -1.1971e+002 -2.1495e+001 60814 77315,77393,77367
 1.7000e+000 77523 -1.3218e+001 -5.2418e+001 -3.4317e+000 60814 77393,77445,77419
 1.7000e+000 77687  7.1850e+000 -7.3069e+001  1.4619e+001 60814 77497,77471,77661
 1.7000e+000 77710 -2.7791e-001 -9.1749e+001  4.2623e+000 60814 77497,77661,77315
 1.7000e+000 77759  1.7790e+000 -6.6670e+001  3.0802e-001 60814 77393,77661,77733
 1.7000e+000 77782 -1.3219e+001 -6.0255e+001  7.1083e+000 60814 77393,77733,77445
 1.7000e+000 78337 -6.1311e+000 -6.5207e+001  5.5632e+000 60210 78360,78017,77965
 1.7000e+000 78314 -1.5368e+001 -5.2585e+001  1.2207e+001 60210 78360,77965,78173
 1.7000e+000 78291 -2.7283e+001 -7.9017e+001 -7.2592e+000 60210 78432,78043,78017
 1.7000e+000 78268 -1.6885e+001 -8.8102e+001  2.6151e+000 60210 77965,78017,77991
 1.7000e+000 78245 -2.3232e+001 -6.8223e+001  6.4320e-001 60210 78043,78095,78069
 1.7000e+000 78222 -4.4160e+001 -8.7336e+001  1.9207e+001 60210 78095,78173,78121
 1.7000e+000 78199 -6.2602e-001 -6.2552e+001  7.8081e+000 60210 78121,78173,78147
 1.7000e+000 78386 -2.1166e+001 -7.4090e+001  1.4864e+000 60210 78432,78017,78360
 1.7000e+000 78409 -2.3743e+001 -6.0692e+001  8.4169e+000 60210 78095,78360,78173
 1.7000e+000 78458 -1.9162e+001 -6.6909e+001  1.4719e+000 60210 78095,78043,78432
 1.7000e+000 78481 -1.4651e+001 -6.0750e+001  9.9525e+000 60210 78095,78432,78360
 1.7000e+000 78680  3.2311e+000 -4.8408e+001 -9.0115e+000 59848 78703,78556,78530
 1.7000e+000 78657 -4.0383e+000 -5.0126e+001 -8.2748e+000 59848 78703,78530,78504
 1.7000e+000 78634  3.5701e+001 -6.7349e+001 -3.9005e+000 59848 78504,78608,78582
 1.7000e+000 78729  1.8388e+001 -4.8845e+001 -1.3468e+001 59848 78582,78556,78703
 1.7000e+000 78752  4.1637e+000 -5.4662e+001 -1.2709e+001 59848 78582,78703,78504
 1.7000e+000 78951 -2.3880e+001 -7.0348e+001  6.7545e-001 59344 78974,78801,78775
 1.7000e+000 78928 -2.8381e+001 -8.0944e+001  6.2800e-001 59344 79046,78974,78775
 1.7000e+000 78905 -2.5222e+001 -8.7044e+001  5.9090e-002 59344 79046,78775,78879
 1.7000e+000 79000 -2.1380e+001 -6.6817e+001  1.0640e+001 59344 78827,78801,78974
 1.7000e+000 79023 -2.7151e+001 -8.0369e+001  9.6484e+000 59344 78827,78974,78853
 1.7000e+000 79072 -2.4720e+001 -7.5006e+001  2.9555e+000 59344 78853,78974,79046
 1.7000e+000 79095 -1.9417e+001 -7.8863e+001  3.1053e+000 59344 78853,79046,78879
 1.7000e+000 79296 -1.5390e+001 -1.2092e+002 -8.7377e+000 58711 79319,79172,79146
 1.7000e+000 79273 -3.3481e+000 -1.0802e+002 -3.5483e+000 58711 79319,79146,79120
 1.7000e+000 79250 -2.0283e+001 -9.3867e+001  4.0529e+000 58711 79172,79224,79198
 1.7000e+000 79345 -2.6243e+001 -1.0515e+002 -7.8590e+000 58711 79224,79172,79319
 1.7000e+000 79368 -1.9439e+001 -9.6413e+001 -4.7673e+000 58711 79224,79319,79120
 1.7000e+000 79667 -1.7165e+000 -5.5119e+001 -8.6783e+000 58285 79690,79471,79393
 1.7000e+000 79644 -3.2686e+000 -6.5791e+001 -1.0548e+001 58285 79690,79393,79549
 1.7000e+000 79621  7.0554e+000 -6.5445e+001 -1.2319e-001 58285 79393,79471,79419
 1.7000e+000 79598  7.2725e-002 -4.9487e+001  1.9522e+000 58285 79497,79549,79523
 1.7000e+000 79575 -2.6363e+001 -1.2162e+002  1.4896e+001 58285 79419,79471,79445
 1.7000e+000 79716 -3.2321e+000 -4.3678e+001 -1.6542e+000 58285 79497,79471,79690
 1.7000e+000 79739 -7.6990e+000 -6.1490e+001 -1.5006e+000 58285 79497,79690,79549
 1.7000e+000 80249  1.3593e+001 -4.5341e+001 -2.0236e+001 57831 80272,79978,79952
 1.7000e+000 80226  1.8362e+001 -5.2114e+001 -7.7991e+000 57831 80272,79952,80108
 1.7000e+000 80203  3.2545e+001 -6.4313e+001 -1.4587e+001 57831 79926,80108,79952
 1.7000e+000 80180  6.8088e+000 -4.6994e+001 -1.1139e+000 57831 80004,80082,80030
 1.7000e+000 80157  4.3252e+000 -5.0653e+001 -2.3110e+000 57831 80004,80108,80082
 1.7000e+000 80134 -9.5452e+000 -7.2325e+001  8.3252e+000 57831 80030,80082,80056
 1.7000e+000 80298  2.5599e+001 -1.3391e+001 -2.6460e+001 57831 80004,79978,80272
 1.7000e+000 80321  1.6632e+001 -4.0795e+001 -1.3377e+001 57831 80004,80272,80108
 1.7000e+000 80618 -1.8739e+001 -7.2658e+001  1.4040e+001 57077 80344,80448,80422
 1.7000e+000 80595 -1.0856e+001 -6.3948e+001  4.6959e+000 57077 80344,80500,80448
 1.7000e+000 80572 -1.2660e+001 -6.5717e+001  7.3458e+000 57077 80344,80422,80370
 1.7000e+000 80549 -1.5124e+001 -4.3783e+001  5.2379e+000 57077 80370,80422,80396
 1.7000e+000 80526 -2.1367e+001 -8.8357e+001  1.0144e+001 57077 80448,80500,80474
 1.7000e+000 80768 -3.2752e+000 -2.7468e+001 -2.2564e+000 56787 80791,80693,80667
 1.7000e+000 80745 -6.8839e+000 -2.6990e+001 -2.3231e-001 56787 80791,80667,80641
 1.7000e+000 80817 -8.6831e-001 -2.6924e+001 -4.3677e+000 56787 80719,80693,80791
 1.7000e+000 80840 -8.0024e+000 -2.2310e+001 -4.7116e+000 56787 80719,80791,80641
 1.7000e+000 81429  8.1996e+000 -3.9720e+001 -4.3139e+000 56497 81452,81158,81132
 1.7000e+000 81406 -6.9253e+000 -5.2736e+001  1.5862e+000 56497 81452,81132,81288
 1.7000e+000 81383 -1.5353e+001 -4.9252e+001  8.4472e-001 56497 81524,81184,81158
 1.7000e+000 81360 -1.6485e+001 -8.7183e+001  1.2582e+001 56497 81210,81288,81236
 1.7000e+000 81337  4.4135e+001 -3.3834e+001  9.0744e-001 56497 81106,81288,81132
 1.7000e+000 81314 -6.9779e+000 -6.1236e+001  5.5686e+000 56497 81236,81288,81262
 1.7000e+000 81478 -9.7797e+000 -4.4387e+001 -1.9722e+000 56497 81524,81158,81452
 1.7000e+000 81501 -5.2977e-001 -4.6345e+001  4.1561e+000 56497 81210,81452,81288
 1.7000e+000 81550 -1.5499e+001 -5.4451e+001  9.1857e+000 56497 81210,81184,81524
 1.7000e+000 81573 -8.1407e+000 -5.0607e+001  6.3673e+000 56497 81210,81524,81452
 1.7000e+000 81870 -3.1361e+001 -7.0435e+001  4.9313e-002 55979 81893,81674,81648
 1.7000e+000 81847 -3.1060e+001 -6.8796e+001  4.7345e+000 55979 81893,81648,81752
 1.7000e+000 81824 -1.9891e+001 -7.2335e+001  9.0707e+000 55979 81596,81752,81648
 1.7000e+000 81801 -3.1410e+001 -5.1597e+001 -2.3060e+000 55979 81674,81726,81700
 1.7000e+000 81778 -8.5915e+000 -4.4844e+001  4.8763e+000 55979 81596,81648,81622
 1.7000e+000 81919 -3.1060e+001 -6.6782e+001  1.3427e+000 55979 81726,81674,81893
 1.7000e+000 81942 -2.9454e+001 -6.3444e+001  6.1532e+000 55979 81726,81893,81752
 1.7000e+000 82371 -4.8203e+000 -5.2662e+001 -5.8287e+000 55631 82100,82204,82152
 1.7000e+000 82348 -8.7036e+000 -6.3963e+001 -1.0665e+001 55631 82100,82230,82204
 1.7000e+000 82325 -6.8282e+000 -5.6007e+001 -1.0970e-001 55631 82100,82152,82126
 1.7000e+000 82302 -1.4472e+001 -8.5993e+001 -2.7229e+001 55631 82074,82230,82100
 1.7000e+000 82279 -6.7677e+000 -5.6444e+001 -4.6355e+000 55631 82152,82204,82178
 1.7000e+000 82256  1.2142e+001 -8.2556e+001 -1.5961e+001 55631 82048,82230,82074
 1.7000e+000 82521  8.4612e+000 -3.1225e+001 -3.0153e+000 55227 82544,82420,82394
 1.7000e+000 82498  6.1903e+000 -3.6747e+001 -1.7207e+000 55227 82544,82394,82472
 1.7000e+000 82570  4.4024e+000 -2.5189e+001 -3.1337e+000 55227 82446,82420,82544
 1.7000e+000 82593  7.7930e-001 -3.0741e+001 -4.4725e-001 55227 82446,82544,82472
 1.7000e+000 82875  1.4207e+001 -4.3003e+001 -1.3177e+001 54979 82699,82777,82725
 1.7000e+000 82852 -1.3261e+001 -3.1817e+001 -5.1576e+000 54979 82699,82803,82777
 1.7000e+000 82829  1.3698e+001  2.4342e+001  2.1288e+001 54979 82725,82777,82751
 1.7000e+000 83204 -1.0025e+001 -4.4013e+001 -5.2182e+000 54475 83005,83083,83057
 1.7000e+000 83181 -1.2790e+001 -4.6032e+001 -4.1859e+000 54475 82979,83083,83005
 1.7000e+000 83158 -8.2654e+000 -4.9604e+001 -6.9971e+000 54475 83005,83057,83031
 1.7000e+000 83135 -2.0052e+001 -6.3317e+001  1.7679e+000 54475 82979,83109,83083
 1.7000e+000 83582 -2.0474e+001 -5.6488e+001 -7.4712e+000 54071 83605,83438,83412
 1.7000e+000 83559 -1.9755e+001 -5.7072e+001 -9.1244e+000 54071 83749,83605,83412
 1.7000e+000 83536 -1.9664e+001 -6.5748e+001  1.2405e+001 54071 83677,83360,83334
 1.7000e+000 83513 -1.3560e+001 -6.2680e+001 -1.0723e+001 54071 83749,83412,83677
 1.7000e+000 83490 -1.8653e+001 -4.5079e+001 -1.0816e+001 54071 83308,83464,83334
 1.7000e+000 83631 -2.2000e+001 -5.4640e+001 -1.3193e+001 54071 83464,83438,83605
 1.7000e+000 83654 -1.6923e+001 -4.4915e+001 -1.0976e+001 54071 83464,83605,83334
 1.7000e+000 83703  1.8475e+001 -5.4197e+001  1.4104e+001 54071 83386,83360,83677
 1.7000e+000 83726  4.0597e+000 -6.5525e+001 -7.6172e+000 54071 83386,83677,83412
 1.7000e+000 83775 -8.8269e+000 -4.9999e+001 -5.9945e+000 54071 83334,83605,83749
 1.7000e+000 83798 -1.6637e+000 -5.5182e+001 -7.4866e+000 54071 83334,83749,83677
 1.7000e+000 84068 -1.9983e+001 -2.5898e+001  5.0537e-001 53524 83869,83921,83895
 1.7000e+000 84045 -8.5224e+000 -3.3070e+001  1.2115e+000 53524 83869,83947,83921
 1.7000e+000 84022 -2.1598e+001 -4.2955e+001 -3.4440e+000 53524 83843,83947,83869
 1.7000e+000 83999 -3.0464e-001 -3.6132e+001 -5.5834e+000 53524 83843,83973,83947
 1.7000e+000 84497 -2.2879e+001 -9.3548e+001  3.8082e+000 53184 84200,84330,84252
 1.7000e+000 84474 -2.4795e+001 -8.6897e+001  1.4110e+001 53184 84200,84356,84330
 1.7000e+000 84451 -9.3461e+000 -1.3213e+002  1.1147e+001 53184 84200,84252,84226
 1.7000e+000 84428 -2.0168e+001 -7.8220e+001 -1.1873e+001 53184 84252,84330,84278
 1.7000e+000 84405 -1.3181e+001 -8.1619e+001  1.2919e+001 53184 84174,84356,84200
 1.7000e+000 84382 -3.7710e-002 -7.0943e+001 -6.2428e+000 53184 84278,84330,84304
 1.7000e+000 84954  7.2689e+000 -7.3976e+001  4.3867e+000 52680 84706,84836,84784
 1.7000e+000 84931 -8.2000e+000 -6.9579e+001 -2.6384e+001 52680 84680,84836,84706
 1.7000e+000 84908  8.5016e+000 -1.1148e+002 -3.9813e+000 52680 84784,84836,84810
 1.7000e+000 84885 -1.9500e+001 -1.1876e+002  1.5738e+001 52680 84706,84784,84732
 1.7000e+000 84862  1.8206e+000 -1.0969e+002  1.4015e+001 52680 84732,84784,84758
 1.7000e+000 85202 -1.4285e+001 -5.2368e+001 -1.3003e+001 52226 85029,85081,85055
 1.7000e+000 85179 -1.8841e+001 -6.8692e+001 -1.7864e+001 52226 85225,85081,85029
 1.7000e+000 85156 -1.8681e+001 -6.8232e+001 -1.6998e+001 52226 85225,85029,85003
 1.7000e+000 85133 -2.2945e+001 -5.6783e+001 -1.4804e+001 52226 84977,85107,85003
 1.7000e+000 85251 -1.9219e+001 -6.8854e+001 -1.8092e+001 52226 85107,85081,85225
 1.7000e+000 85274 -2.0449e+001 -6.8680e+001 -1.7152e+001 52226 85107,85225,85003
 1.7000e+000 85522  5.1818e+000 -3.9048e+001  1.5846e+000 51764 85297,85349,85323
 1.7000e+000 85499  5.8099e-001 -5.7101e+001  3.0478e+000 51764 85545,85297,85427
 1.7000e+000 85476 -1.0999e+001 -4.7281e+001 -2.7834e+000 51764 85545,85427,85375
 1.7000e+000 85453 -1.2517e+001 -4.5313e+001 -1.4136e-001 51764 85375,85427,85401
 1.7000e+000 85571  6.7691e+000 -5.1446e+001 -2.1809e-001 51764 85349,85297,85545
 1.7000e+000 85594 -1.7513e-001 -3.8006e+001 -7.2593e+000 51764 85349,85545,85375
 1.7000e+000 85746 -1.3009e+001 -5.9321e+001 -3.0367e-001 51374 85645,85697,85671
 1.7000e+000 85723 -1.7120e+001 -5.5567e+001 -6.5569e+000 51374 85619,85697,85645
 1.7000e+000 86256  2.4792e+000 -3.4271e+001  1.5448e+000 50970 86279,86011,85959
 1.7000e+000 86233  4.8470e+000 -3.2069e+001  6.3379e-001 50970 86279,85959,86115
 1.7000e+000 86210  8.7372e-001 -3.6764e+001  5.6520e+000 50970 85959,86011,85985
 1.7000e+000 86187  2.3353e+000 -4.8871e+001 -4.2970e+000 50970 86037,86115,86089
 1.7000e+000 86164  3.1429e+001 -2.1752e+001 -8.9155e+000 50970 85933,86115,85959
 1.7000e+000 86141 -4.4927e+000 -3.7348e+001 -6.9229e+000 50970 86037,86089,86063
 1.7000e+000 86305  5.5511e+000 -3.7715e+001  1.9136e+000 50970 86037,86011,86279
 1.7000e+000 86328  8.1760e+000 -3.5238e+001  8.9442e-001 50970 86037,86279,86115
 1.7000e+000 86478 -1.0949e+001 -1.3136e+002  3.6428e+000 50451 86351,86403,86377
 1.7000e+000 86455 -3.7021e+001 -2.4566e+002  1.2151e+000 50451 86351,86429,86403
 1.7000e+000 86907 -2.8668e+001 -7.9602e+001  3.3935e-001 50047 86930,86714,86662
 1.7000e+000 86884 -2.7578e+001 -7.9680e+001  5.6105e-001 50047 86930,86662,86610
 1.7000e+000 86861  1.0475e+001 -1.0224e+002 -2.1316e+001 50047 87002,86740,86714
 1.7000e+000 86838  1.8652e+001 -6.2761e+001  3.1087e+001 50047 86662,86714,86688
 1.7000e+000 86815 -2.3578e+001 -6.0922e+001  9.8621e+000 50047 86610,86662,86636
 1.7000e+000 86792 -1.5716e+001 -5.8131e+001 -6.1486e+000 50047 86584,86766,86610
 1.7000e+000 86956 -1.6861e+001 -7.8744e+001 -1.6183e+000 50047 87002,86714,86930
 1.7000e+000 86979 -3.5953e+001 -6.6169e+001 -2.2149e+000 50047 86766,86930,86610
 1.7000e+000 87028 -3.6176e+001 -9.0906e+001 -2.3588e+001 50047 86766,86740,87002
 1.7000e+000 87051 -4.9204e+001 -8.6704e+001 -9.7075e+000 50047 86766,87002,86930
 1.7000e+000 87250 -1.1945e+001 -7.4370e+001 -7.0771e+000 49543 87273,87126,87100
 1.7000e+000 87227 -7.0197e+000 -6.5951e+001 -1.8851e+000 49543 87273,87100,87074
 1.7000e+000 87204 -2.5780e+001 -5.2324e+001 -6.2172e+000 49543 87126,87178,87152
 1.7000e+000 87299 -1.3501e+001 -6.2813e+001 -1.8277e+000 49543 87178,87126,87273
 1.7000e+000 87322 -8.9783e+000 -5.8698e+001  3.9831e+000 49543 87178,87273,87074
 1.7000e+000 87570 -9.4788e+000 -4.8016e+001  1.1534e+001 49146 87593,87449,87397
 1.7000e+000 87547 -7.7749e+000 -5.0851e+001 -2.3019e+000 49146 87593,87397,87371
 1.7000e+000 87524 -1.4083e+001 -4.6960e+001  3.9778e-001 49146 87345,87475,87371
 1.7000e+000 87501  5.4549e+001 -3.6991e+001  2.0267e+001 49146 87397,87449,87423
 1.7000e+000 87619  7.8337e+000 -4.3442e+001  1.4872e+001 49146 87475,87449,87593
 1.7000e+000 87642  2.2780e+000 -4.7031e+001  1.9750e+000 49146 87475,87593,87371
 1.7000e+000 88073  1.4928e+001 -6.1947e+001 -8.1966e+000 48706 87854,87932,87880
 1.7000e+000 88050  3.9565e+000 -7.1252e+001 -8.0703e-001 48706 87828,87932,87854
 1.7000e+000 88027 -6.2948e+000 -7.2474e+001 -6.6375e+000 48706 87750,87932,87828
 1.7000e+000 88004 -9.2533e-001 -1.0628e+002 -8.8610e+000 48706 87750,87802,87776
 1.7000e+000 87981 -1.8413e+001 -1.2658e+002 -1.7536e+001 48706 87750,87828,87802
 1.7000e+000 87958 -3.9473e+000 -7.1278e+001 -5.0526e+000 48706 87880,87932,87906
 1.7000e+000 88402  1.1499e+001 -7.6019e+001 -6.7937e+000 48145 88203,88281,88255
 1.7000e+000 88379 -1.3094e+001 -8.7131e+001 -9.5364e+000 48145 88203,88307,88281
 1.7000e+000 88356  1.2572e+001 -7.6813e+001 -6.9199e+000 48145 88203,88255,88229
 1.7000e+000 88333  1.6882e+000 -7.9868e+001  5.9065e+000 48145 88177,88307,88203
 1.7000e+000 88601 -3.5136e+000 -8.4036e+001  1.0544e+001 47805 88696,88624,88477
 1.7000e+000 88578 -3.6351e+001 -9.2874e+001 -1.0594e+001 47805 88826,88624,88451
 1.7000e+000 88555 -3.2832e+001 -9.0732e+001 -9.1426e+000 47805 88826,88451,88425
 1.7000e+000 88650 -1.2326e+001 -1.0051e+002 -6.8612e+000 47805 88503,88477,88624
 1.7000e+000 88673 -3.8693e+001 -1.0466e+002 -8.9724e+000 47805 88503,88624,88529
 1.7000e+000 88722 -7.2062e+001 -1.1142e+002 -3.1448e+000 47805 88451,88624,88696
 1.7000e+000 88852 -3.7130e+001 -8.9985e+001 -6.0097e+000 47805 88529,88624,88826
 1.7000e+000 88875 -3.3395e+001 -8.7911e+001 -4.5629e+000 47805 88529,88826,88425
 1.7000e+000 89172 -1.1132e+001 -5.6567e+001 -9.0821e+000 47401 89195,88976,88898
 1.7000e+000 89149 -1.4118e+001 -5.6143e+001 -2.0543e+001 47401 89195,88898,89054
 1.7000e+000 89126 -2.1439e+001 -4.7856e+001 -1.0461e+001 47401 88898,88976,88950
 1.7000e+000 89103 -1.6734e+001 -6.8602e+001 -1.1521e+001 47401 88976,89028,89002
 1.7000e+000 89080 -5.3409e+000 -1.1716e+001 -1.4129e+001 47401 88898,88950,88924
 1.7000e+000 89221 -1.5285e+001 -6.8828e+001 -1.1023e+001 47401 89028,88976,89195
 1.7000e+000 89244 -1.9397e+001 -6.6421e+001 -2.3263e+001 47401 89028,89195,89054
 1.7000e+000 89575  3.1003e+001 -8.3037e+001 -5.0023e+000 47111 89350,89454,89376
 1.7000e+000 89552  8.5682e+000 -1.0157e+002  3.3468e+000 47111 89350,89480,89454
 1.7000e+000 89529 -1.4883e+001 -9.5700e+001 -3.4181e+000 47111 89376,89454,89402
 1.7000e+000 89506 -1.5478e+000 -7.4861e+001  8.9686e+000 47111 89402,89454,89428
 1.7000e+000 89904 -3.8050e+000 -8.2788e+001 -1.4887e+000 46707 89705,89757,89731
 1.7000e+000 89881 -2.6048e+001 -8.9850e+001  2.8658e-001 46707 89705,89783,89757
 1.7000e+000 89858 -3.3225e+001 -9.0069e+001  7.8504e+000 46707 89679,89783,89705
 1.7000e+000 89835 -1.4232e+001 -7.6488e+001 -1.3910e+000 46707 89679,89809,89783
 1.7000e+000 90233  1.1020e+001 -7.7953e+001 -1.0192e+001 46360 90034,90112,90086
 1.7000e+000 90210 -1.9349e+001 -7.9374e+001 -3.3606e+000 46360 90034,90138,90112
 1.7000e+000 90187 -2.6824e+000 -9.6120e+001 -3.5421e+000 46360 90034,90086,90060
 1.7000e+000 90164 -9.0821e+000 -7.5752e+001  8.5885e+000 46360 90008,90138,90034
 1.7000e+000 90530 -1.4528e+001 -6.6762e+001 -6.1408e+000 45662 90256,90360,90308
 1.7000e+000 90507 -1.6500e+001 -7.5624e+001 -7.7441e-001 45662 90256,90412,90360
 1.7000e+000 90484 -9.0680e+000 -7.5304e+001 -1.0357e+001 45662 90256,90308,90282
 1.7000e+000 90461 -9.2402e+000 -5.2822e+001  2.0119e+000 45662 90360,90412,90386
 1.7000e+000 90438 -2.7729e+001 -5.8708e+001 -9.1484e-001 45662 90308,90360,90334
 1.7000e+000 90910 -5.6553e+001 -1.0067e+002 -7.9799e+000 45108 90688,90766,90714
 1.7000e+000 90887 -4.3468e+001 -1.0036e+002  2.0811e+000 45108 90662,90766,90688
 1.7000e+000 90864 -5.7114e+001 -9.8593e+001  3.4055e+000 45108 90636,90766,90662
 1.7000e+000 90841 -2.9994e+001 -1.3140e+002 -2.9100e+001 45108 90714,90766,90740
 1.7000e+000 90818 -5.2606e+001 -8.5946e+001 -2.5727e+000 45108 90636,90792,90766
 1.7000e+000 91158 -1.7656e+000 -8.2499e+001 -5.9427e+000 44604 91181,91011,90959
 1.7000e+000 91135 -3.3834e+001 -8.9943e+001 -3.2139e+000 44604 91181,90959,90933
 1.7000e+000 91112 -4.4455e+000 -9.0542e+001 -1.3823e+000 44604 90959,91011,90985
 1.7000e+000 91089  7.4618e+001 -6.7590e+001 -6.1159e+000 44604 90933,91063,91037
 1.7000e+000 91207  1.9724e+001 -9.5247e+001 -2.1367e+001 44604 91037,91011,91181
 1.7000e+000 91230 -9.7205e+000 -9.5698e+001 -2.6414e+001 44604 91037,91181,90933
 1.7000e+000 91429 -1.4513e+001 -8.8016e+001 -1.9422e+000 44264 91452,91279,91253
 1.7000e+000 91406 -1.4845e+001 -8.5022e+001 -1.8456e+000 44264 91452,91253,91357
 1.7000e+000 91383 -4.0908e+001 -9.4509e+001  3.5597e+000 44264 91279,91331,91305
 1.7000e+000 91478 -1.4423e+001 -8.9523e+001 -2.0120e+000 44264 91331,91279,91452
 1.7000e+000 91501 -1.5769e+001 -8.7734e+001 -2.4475e+000 44264 91331,91452,91357
 1.7000e+000 92060 -5.9787e+001 -1.0186e+002 -1.1608e+001 43860 92083,91740,91688
 1.7000e+000 92037 -1.6835e+001 -1.0807e+002  5.6603e+000 43860 92083,91688,91896
 1.7000e+000 92014 -3.4783e+001 -1.0939e+002  8.5802e+000 43860 91766,91870,91844
 1.7000e+000 91991 -3.2550e+001 -9.6363e+001  8.8414e+000 43860 91740,91870,91766
 1.7000e+000 91968  7.7443e+000 -9.9242e+001  4.7335e+000 43860 91766,91844,91792
 1.7000e+000 91945 -3.2571e+001 -1.4426e+002 -5.5912e+001 43860 91688,91740,91714
 1.7000e+000 91922 -1.4099e+001 -1.0241e+002  5.3364e-001 43860 91792,91844,91818
 1.7000e+000 92109 -2.3367e+001 -9.5267e+001  7.9519e+000 43860 91870,91740,92083
 1.7000e+000 92132  2.2114e+001 -9.4261e+001  2.8178e+001 43860 91870,92083,91896
 1.7000e+000 92353  1.3261e+000 -8.4154e+001 -9.7847e+000 43662 92203,92255,92229
 1.7000e+000 92330 -1.4226e+001 -9.5332e+001 -3.8095e+000 43662 92376,92203,92281
 1.7000e+000 92307  7.2667e+000 -6.3566e+001  5.5853e+000 43662 92177,92281,92203
 1.7000e+000 92402 -3.8012e+001 -1.0536e+002  2.8188e+000 43662 92255,92203,92376
 1.7000e+000 92682 -4.5554e+000 -1.0246e+002 -1.0721e+001 43464 92532,92584,92558
 1.7000e+000 92659 -9.1549e+000 -8.2847e+001 -4.0211e+000 43464 92506,92584,92532
 1.7000e+000 92636 -1.4989e+001 -8.1051e+001 -8.7254e+000 43464 92506,92610,92584
 1.7000e+000 93013 -2.1936e+000 -1.0012e+002 -1.1453e+001 42960 92866,92918,92892
 1.7000e+000 92990 -1.1002e+001 -1.0045e+002 -3.7736e+000 42960 93036,92918,92866
 1.7000e+000 92967 -4.4329e-001 -1.0821e+002  1.2541e+000 42960 93036,92866,92840
 1.7000e+000 92944 -7.3857e+000 -1.0214e+002  5.8172e-001 42960 92788,92918,92814
 1.7000e+000 93062 -5.0682e+000 -1.0021e+002  1.4147e+000 42960 92814,92918,93036
 1.7000e+000 93085  1.7271e+001 -9.8687e+001  7.5172e+000 42960 92814,93036,92840
 1.7000e+000 93186 -2.6697e+001 -8.3623e+001 -1.1970e+001 42556 93108,93160,93134
 1.7000e+000 93554 -2.6370e+001 -1.0172e+002  1.4960e+000 42052 93231,93387,93361
 1.7000e+000 93531 -2.8368e+001 -9.4741e+001  1.5121e+001 42052 93231,93413,93387
 1.7000e+000 93508 -3.9480e+001 -9.7964e+001  3.8348e+000 42052 93231,93361,93257
 1.7000e+000 93485 -9.0387e+000 -7.8654e+001  1.6443e+001 42052 93283,93361,93335
 1.7000e+000 93462 -2.6813e+001 -9.0320e+001  7.2697e+000 42052 93257,93361,93283
 1.7000e+000 93439  8.9314e-001 -7.0010e+001 -4.6687e+000 42052 93283,93335,93309
 1.7000e+000 94162  3.9786e+000 -8.5764e+001 -1.2817e+001 41498 93767,93975,93793
 1.7000e+000 94139  2.3736e+001 -7.4731e+001  3.2714e+000 41498 93741,93975,93767
 1.7000e+000 94116 -2.6885e+000 -6.0005e+001 -5.8117e+000 41498 93793,93975,93923
 1.7000e+000 94093 -9.7552e+000 -7.7257e+001  1.2017e+001 41498 93923,93975,93949
 1.7000e+000 94070 -2.4899e+001 -4.1044e+001 -2.1069e+001 41498 93871,93923,93897
 1.7000e+000 94047  5.7186e+000 -4.9892e+001 -1.3266e+001 41498 93793,93923,93871
 1.7000e+000 94024 -2.7684e+000 -5.1777e+001 -4.7144e+000 41498 93819,93871,93845
 1.7000e+000 94001 -3.3956e+000 -5.0096e+001 -7.4440e+000 41498 93793,93871,93819
 1.7000e+000 94619 -2.0079e+001 -7.2497e+001 -2.7791e+001 40930 94642,94423,94371
 1.7000e+000 94596 -1.3616e+000 -6.7086e+001 -2.1630e+001 40930 94642,94371,94345
 1.7000e+000 94573 -1.2225e+001 -8.7761e+001 -4.5813e+000 40930 94345,94501,94475
 1.7000e+000 94550  7.4122e+000 -6.7700e+001 -3.7166e+001 40930 94371,94423,94397
 1.7000e+000 94527 -2.5666e+001 -5.5135e+001 -3.7454e+000 40930 94423,94475,94449
 1.7000e+000 94668 -9.7908e+000 -6.3686e+001 -1.5214e+001 40930 94475,94423,94642
 1.7000e+000 94691  1.5339e+000 -6.6898e+001 -1.0525e+001 40930 94475,94642,94345
 1.7000e+000 95148 -1.2626e+001 -8.4873e+001  1.8491e+001 40362 95171,94952,94926
 1.7000e+000 95125 -9.9383e+000 -8.5457e+001  1.1413e+001 40362 95171,94926,95004
 1.7000e+000 95102 -1.7473e+001 -8.4020e+001  1.1204e+001 40362 94874,95004,94926
 1.7000e+000 95079  3.6314e+001 -7.4549e+001  2.9542e+001 40362 94874,95030,95004
 1.7000e+000 95056 -1.0806e+001 -1.0455e+002 -2.2902e+001 40362 94874,94926,94900
 1.7000e+000 95197 -1.1862e+001 -9.2326e+001  1.9851e+001 40362 94978,94952,95171
 1.7000e+000 95220 -9.8779e+000 -9.2851e+001  1.3028e+001 40362 94978,95171,95004
 1.7000e+000 95549 -3.5411e+001 -7.4244e+001  6.3977e-001 39586 95350,95402,95376
 1.7000e+000 95526 -7.1890e+000 -6.2028e+001 -3.8971e+000 39586 95324,95402,95350
 1.7000e+000 95503 -2.0317e+001 -6.5370e+001  1.4002e+001 39586 95324,95454,95402
 1.7000e+000 95480 -2.2543e+001 -8.9313e+001  1.3436e+001 39586 95402,95454,95428
 1.7000e+000 96055  2.1445e+000 -4.5775e+001  6.3209e-001 38968 96078,95862,95810
 1.7000e+000 96032 -7.5269e+000 -4.7385e+001 -3.0489e+000 38968 96078,95810,95758
 1.7000e+000 96009  7.6181e+000 -5.4620e+001 -6.0954e+000 38968 96150,95732,95888
 1.7000e+000 95986  2.6490e-001 -4.2193e+001  6.3196e+000 38968 95810,95862,95836
 1.7000e+000 95963  1.7065e+001 -4.6890e+001 -1.1930e+001 38968 95732,95914,95888
 1.7000e+000 95940 -1.8921e+001 -5.7387e+001  4.7158e+000 38968 95758,95810,95784
 1.7000e+000 96104 -7.0353e-001 -4.8792e+001  2.3270e+000 38968 95888,95862,96078
 1.7000e+000 96127 -8.0837e-001 -5.2059e+001  1.5173e+000 38968 96150,95888,96078
 1.7000e+000 96176  1.9991e+001 -4.3189e+001 -1.2519e+001 38968 95758,95732,96150
 1.7000e+000 96199  1.0830e+001 -3.8809e+001 -5.3720e+000 38968 95758,96150,96078
 1.7000e+000 96545 -1.2148e+001 -7.5808e+001 -4.0118e+000 38507 96640,96568,96352
 1.7000e+000 96522 -2.5815e+001 -9.4483e+001  5.1175e+000 38507 96568,96300,96222
 1.7000e+000 96499 -7.7332e+000 -6.7117e+001 -1.9583e+001 38507 96640,96352,96326
 1.7000e+000 96476 -1.9226e+001 -7.9057e+001  6.7938e+000 38507 96352,96404,96378
 1.7000e+000 96453 -3.5447e+001 -1.1753e+002  2.3689e+000 38507 96222,96300,96248
 1.7000e+000 96430 -3.5595e+001 -1.4103e+002 -5.0527e+000 38507 96248,96300,96274
 1.7000e+000 96594 -1.7755e+001 -8.9129e+001  8.4909e-001 38507 96404,96352,96568
 1.7000e+000 96617 -1.7927e+001 -8.9341e+001  7.7032e-001 38507 96404,96568,96222
 1.7000e+000 96666 -2.2785e+001 -9.9307e+001  1.0070e+000 38507 96300,96568,96640
 1.7000e+000 96689 -2.1896e+001 -9.2667e+001 -1.3135e+001 38507 96300,96640,96326
 1.7000e+000 97069 -1.3470e+001 -5.5459e+001 -1.6125e+000 37760 97092,96873,96821
 1.7000e+000 97046 -1.7829e+001 -5.7567e+001  8.8076e-001 37760 97092,96821,96795
 1.7000e+000 97023 -9.4524e+000 -6.6645e+001  1.0065e+000 37760 96821,96873,96847
 1.7000e+000 97000  5.0151e-001 -3.2903e+001 -4.0679e+000 37760 96873,96925,96899
 1.7000e+000 96977 -2.2870e+000 -3.1162e+001 -1.5027e+001 37760 96795,96951,96925
 1.7000e+000 97118 -9.2183e+000 -5.0333e+001 -8.2566e+000 37760 96925,96873,97092
 1.7000e+000 97141 -2.2220e+001 -5.6274e+001 -5.2141e+000 37760 96925,97092,96795
 1.7000e+000 97647 -3.8115e+001 -8.4960e+001  2.1341e+000 37356 97324,97480,97376
 1.7000e+000 97624 -1.9019e+001 -7.9622e+001  5.8196e+000 37356 97324,97506,97480
 1.7000e+000 97601 -4.0340e+001 -8.3411e+001  1.9452e+000 37356 97376,97480,97454
 1.7000e+000 97578 -4.4317e+001 -9.1901e+001  5.7268e+000 37356 97324,97376,97350
 1.7000e+000 97555 -1.3243e+001 -6.3985e+001  1.8653e+001 37356 97376,97454,97402
 1.7000e+000 97532 -4.7602e+001 -1.0710e+002  3.6668e+000 37356 97402,97454,97428
 1.7000e+000 98232 -1.1188e+001 -3.9138e+001 -1.0191e+001 36902 97935,98065,98013
 1.7000e+000 98209  1.8972e+001 -3.3110e+001 -1.4009e+001 36902 97935,98091,98065
 1.7000e+000 98186 -5.1163e+000 -3.1999e+001 -1.4100e+001 36902 97935,98013,97987
 1.7000e+000 98163  1.6396e+001 -1.4345e+001 -1.4349e+001 36902 97909,98091,97935
 1.7000e+000 98140  3.1570e+001 -1.5271e+001 -4.3165e+001 36902 97935,97987,97961
 1.7000e+000 98117 -1.1894e+001 -4.9809e+001 -1.4711e+000 36902 98013,98065,98039
 1.7000e+000 98659 -1.1031e+001 -1.0108e+002 -4.9911e+000 36604 98682,98414,98388
 1.7000e+000 98636 -1.5363e+001 -1.0011e+002  7.1595e+000 36604 98682,98388,98336
 1.7000e+000 98613 -3.1079e+001 -9.0654e+001  2.3785e+000 36604 98754,98518,98466
 1.7000e+000 98590 -2.8546e+001 -7.0898e+001 -1.4498e+001 36604 98414,98466,98440
 1.7000e+000 98567 -5.8881e-001 -1.3752e+002  9.0904e+000 36604 98336,98388,98362
 1.7000e+000 98544 -1.4120e+001 -1.0280e+002  5.2396e+001 36604 98466,98518,98492
 1.7000e+000 98708 -6.2381e+000 -8.2926e+001 -1.2707e+001 36604 98466,98414,98682
 1.7000e+000 98731 -2.2882e+001 -9.4554e+001  2.9698e-001 36604 98754,98466,98682
 1.7000e+000 98780 -2.2338e+001 -9.2706e+001  3.3180e+000 36604 98336,98518,98754
 1.7000e+000 98803 -9.9146e+000 -9.2959e+001  3.4133e+000 36604 98336,98754,98682
 1.7000e+000 99309 -2.0638e+001 -6.3689e+001  8.9988e+000 36200 99332,99116,99012
 1.7000e+000 99286 -2.1695e+001 -3.9456e+001 -2.5042e+000 36200 99332,99012,98986
 1.7000e+000 99263 -1.7696e+001 -5.3056e+001  9.2400e+000 36200 99012,99116,99064
 1.7000e+000 99240 -1.9206e+001 -5.3978e+001 -4.0448e+000 36200 98986,99168,99142
 1.7000e+000 99217 -2.6630e+001 -5.6372e+001  1.0515e+001 36200 99064,99116,99090
 1.7000e+000 99194 -3.3105e+001 -5.8252e+001 -1.0420e+000 36200 99012,99064,99038
 1.7000e+000 99358 -2.3793e+001 -7.9482e+001  1.4292e+001 36200 99142,99116,99332
 1.7000e+000 99381 -2.7923e+001 -6.4609e+001  3.1147e-001 36200 99142,99332,98986
 1.7000e+000 99887 -3.0511e+001 -7.3345e+001  2.0204e+000 35488 99564,99720,99590
 1.7000e+000 99864 -2.5995e+001 -6.3107e+001  2.9800e+000 35488 99564,99746,99720
 1.7000e+000 99841 -1.7989e+001 -7.8097e+001 -3.4999e+000 35488 99642,99694,99668
 1.7000e+000 99818 -2.6869e+001 -8.6506e+001  4.4914e+000 35488 99590,99694,99642
 1.7000e+000 99795 -1.5338e+001 -6.6361e+001 -3.0360e-001 35488 99590,99720,99694
 1.7000e+000 99772 -1.2302e+001 -1.3218e+002  3.3666e+000 35488 99590,99642,99616
 1.7000e+000 99988  8.5966e+001 -5.2826e+001  4.4588e+000 35198 99910,99962,99936
 1.7000e+000 100138 -6.7213e+000 -8.4134e+001  6.7241e+000 34794 100233,100161,100063
 1.7000e+000 100115 -3.2852e+001 -9.9026e+001  1.2046e+000 34794 100365,100161,100037
 1.7000e+000 100187  2.3733e+000 -8.2175e+001  4.7192e+000 34794 100089,100063,100161
 1.7000e+000 100210  1.6352e+000 -7.9351e+001  6.6269e+000 34794 100089,100161,100011
 1.7000e+000 100259 -2.2978e+001 -1.1204e+002 -9.9618e+000 34794 100037,100161,100233
 1.7000e+000 100391  1.8226e+001 -5.9249e+001 -1.6393e+001 34794 100011,100161,100365
 1.7000e+000 100927  8.5235e+000 -6.4516e+001 -2.7701e+000 34404 100679,100809,100783
 1.7000e+000 100904  3.0677e+000 -6.4593e+001 -3.3928e+000 34404 100653,100809,100679
 1.7000e+000 100881 -1.1231e+001 -7.7065e+001 -2.8157e+000 34404 100705,100783,100731
 1.7000e+000 100858 -7.6145e+000 -7.2204e+001 -4.3439e-001 34404 100679,100783,100705
 1.7000e+000 100835 -1.8867e+001 -8.4786e+001 -9.0375e+000 34404 100731,100783,100757
 1.7000e+000 101354 -2.8916e+001 -8.9769e+001  8.4868e+000 34000 101377,101109,101057
 1.7000e+000 101331 -4.6289e+001 -9.7283e+001  6.7898e+000 34000 101449,101377,101057
 1.7000e+000 101308 -5.1085e+001 -9.2418e+001  5.9867e+000 34000 101449,101057,101031
 1.7000e+000 101285 -4.4608e+001 -9.0363e+001  1.9523e+001 34000 101031,101213,101187
 1.7000e+000 101262 -3.7703e+001 -1.1267e+002 -1.2418e+001 34000 101135,101187,101161
 1.7000e+000 101239 -3.7790e+001 -1.0391e+002  1.3325e+001 34000 101057,101109,101083
 1.7000e+000 101403 -3.6389e+001 -8.8647e+001 -3.2621e+000 34000 101135,101109,101377
 1.7000e+000 101426 -4.8506e+001 -9.3842e+001 -2.9678e+000 34000 101135,101377,101187
 1.7000e+000 101475 -3.7290e+001 -9.2684e+001  3.6812e+000 34000 101187,101377,101449
 1.7000e+000 101498 -4.4498e+001 -9.0662e+001  4.4399e+000 34000 101187,101449,101031
 1.7000e+000 102083  7.0720e+000 -6.3221e+001  1.4558e+000 33472 102106,101812,101786
 1.7000e+000 102060 -9.2574e+000 -6.8080e+001 -1.0658e+000 33472 102106,101786,101916
 1.7000e+000 102037 -1.9917e+001 -7.4943e+001 -8.2289e+000 33472 101812,101864,101838
 1.7000e+000 102014 -8.9701e+000 -9.0270e+001 -5.6204e+000 33472 101864,101916,101890
 1.7000e+000 101991 -2.5763e+001 -7.3655e+001 -5.6526e+000 33472 101786,101942,101916
 1.7000e+000 101968 -3.3828e+001 -7.3862e+001  1.3123e+001 33472 101760,101942,101786
 1.7000e+000 102132 -3.8244e+000 -6.6210e+001 -4.8772e+000 33472 101864,101812,102106
 1.7000e+000 102155 -1.0168e+001 -6.6661e+001 -8.2531e+000 33472 101864,102106,101916
 1.7000e+000 102612 -2.0555e+001 -6.9071e+001 -2.0880e+001 33038 102635,102468,102390
 1.7000e+000 102589 -3.7799e+001 -9.4392e+001 -3.2378e+001 33038 102635,102390,102364
 1.7000e+000 102566 -1.4735e+001 -6.6123e+001 -1.9463e+001 33038 102390,102468,102442
 1.7000e+000 102543 -4.6576e-001 -6.8542e+001 -6.8258e+000 33038 102338,102494,102364
 1.7000e+000 102520 -1.5015e+001 -6.0968e+001 -9.6669e+000 33038 102390,102442,102416
 1.7000e+000 102661 -1.9127e+001 -6.2664e+001 -6.7463e+000 33038 102494,102468,102635
 1.7000e+000 102684 -2.2507e+001 -7.6688e+001 -1.5695e+001 33038 102494,102635,102364
 1.7000e+000 103318 -2.7290e+001 -5.8945e+001  4.5379e+000 32402 102972,103128,103076
 1.7000e+000 103295 -2.3565e+001 -6.0791e+001  4.1082e+000 32402 102946,103128,102972
 1.7000e+000 103272 -2.8069e+001 -6.1953e+001  6.6889e+000 32402 103076,103128,103102
 1.7000e+000 103249 -2.2213e+001 -5.8822e+001  2.2501e+001 32402 102946,103154,103128
 1.7000e+000 103226 -2.4822e+001 -5.1727e+001 -1.3335e+000 32402 102972,103076,102998
 1.7000e+000 103203 -2.5074e+001 -5.6451e+001 -4.6039e+000 32402 102998,103076,103050
 1.7000e+000 103180 -2.8567e+001 -4.7219e+001 -7.1312e+000 32402 102998,103050,103024
 1.7000e+000 103696 -1.0204e+001 -8.5658e+001 -7.0623e-001 31924 103448,103526,103500
 1.7000e+000 103673  2.5266e+001 -7.4991e+001 -1.8611e+001 31924 103448,103578,103526
 1.7000e+000 103650 -4.5836e-001 -6.9480e+001 -5.3820e+000 31924 103448,103500,103474
 1.7000e+000 103627 -3.5750e+000 -6.7838e+001 -2.7289e+001 31924 103422,103578,103448
 1.7000e+000 103604 -2.3459e+001 -1.4085e+002  4.5337e+000 31924 103526,103578,103552
 1.7000e+000 104281 -7.8977e+000 -4.1534e+001  1.5356e+000 31520 104304,104062,104036
 1.7000e+000 104258 -2.6683e+001 -4.2605e+001 -1.0504e+000 31520 104304,104036,103984
 1.7000e+000 104235 -2.0640e+001 -4.3857e+001 -2.0922e+001 31520 104062,104114,104088
 1.7000e+000 104212 -1.7100e+001 -4.4137e+001 -5.7002e+000 31520 103958,104114,103984
 1.7000e+000 104189 -2.9494e+001 -4.9252e+001 -3.3990e+000 31520 103984,104036,104010
 1.7000e+000 104166 -1.0772e+001 -4.7427e+001 -7.9918e+000 31520 103958,104140,104114
 1.7000e+000 104330 -3.0074e+000 -4.5806e+001 -6.7153e+000 31520 104114,104062,104304
 1.7000e+000 104353 -1.3012e+001 -4.2376e+001 -5.8323e+000 31520 104114,104304,103984
 1.7000e+000 104704 -1.2451e+001 -3.7730e+001 -2.5453e+000 31066 104479,104583,104505
 1.7000e+000 104681  7.4028e+000 -2.6245e+001 -7.2155e+000 31066 104479,104609,104583
 1.7000e+000 104658 -3.0815e+000 -5.1257e+001  5.7932e-001 31066 104505,104557,104531
 1.7000e+000 104635  2.0416e-001 -3.5889e+001 -2.4525e+000 31066 104505,104583,104557
 1.7000e+000 104925 -5.6835e+000 -1.0188e+002  6.6990e-002 30754 104775,104827,104801
 1.7000e+000 104902 -5.2732e+000 -7.7499e+001 -1.4638e-001 30754 104775,104853,104827
 1.7000e+000 104879  7.3057e-001 -7.4537e+001  5.4572e+000 30754 104749,104853,104775
 1.7000e+000 105482 -9.8558e+000 -7.1604e+001  4.8088e+000 30164 105505,105136,105110
 1.7000e+000 105459 -3.1345e+001 -8.8133e+001  1.1998e+001 30164 105649,105505,105110
 1.7000e+000 105436 -2.9911e+001 -7.4554e+001 -1.9306e+000 30164 105577,105188,105136
 1.7000e+000 105413 -4.6317e+001 -9.5805e+001  2.0131e+001 30164 105649,105110,105318
 1.7000e+000 105390 -3.6217e+001 -1.1013e+002  1.7083e+001 30164 105214,105292,105240
 1.7000e+000 105367 -1.4986e+001 -9.9279e+001  1.3073e+001 30164 105240,105292,105266
 1.7000e+000 105344 -2.3706e+001 -6.7862e+001 -4.6055e+000 30164 105136,105188,105162
 1.7000e+000 105531 -2.9383e+001 -7.3648e+001  2.9285e+000 30164 105577,105136,105505
 1.7000e+000 105554 -1.6622e+001 -6.8400e+001  4.6855e+000 30164 105214,105505,105292
 1.7000e+000 105603 -2.6864e+001 -6.8128e+001 -1.0350e+000 30164 105214,105188,105577
 1.7000e+000 105626 -2.6394e+001 -6.6879e+001  3.6045e+000 30164 105214,105577,105505
 1.7000e+000 105675 -2.6475e+001 -7.9589e+001  2.7363e-001 30164 105292,105505,105649
 1.7000e+000 105698 -2.8417e+001 -7.7003e+001  6.9595e+000 30164 105292,105649,105318
 1.7000e+000 106027  2.2484e+000 -5.2055e+001  5.6356e+000 29868 106322,106050,105880
 1.7000e+000 106004 -1.4905e+001 -4.7732e+001 -3.2949e+000 29868 106250,106050,105828
 1.7000e+000 105981 -1.5729e+001 -4.9055e+001 -5.2293e+000 29868 106250,105828,105802
 1.7000e+000 105958 -9.2113e+000 -4.3476e+001  1.5964e+001 29868 106322,105880,106122
 1.7000e+000 106076 -1.0948e+001 -7.9963e+001  1.9005e+000 29868 105906,105880,106050
 1.7000e+000 106099 -5.4505e+000 -5.5706e+001 -4.3078e+000 29868 105906,106050,105932
 1.7000e+000 106148 -3.8577e+001 -7.0742e+001  8.3016e+000 29868 105854,105828,106122
 1.7000e+000 106276 -1.6433e+001 -4.9882e+001 -5.8023e+000 29868 105932,106050,106250
 1.7000e+000 106299 -1.9776e+001 -5.3070e+001 -8.1208e+000 29868 105932,106250,105802
 1.7000e+000 106348 -1.8364e+001 -6.0024e+001  2.7083e+000 29868 105828,106050,106322
 1.7000e+000 106371 -2.7714e+001 -5.0145e+001  1.3053e+001 29868 105828,106322,106122
 1.7000e+000 106828 -1.0313e+001 -4.3543e+001 -2.2259e+000 29521 106580,106710,106684
 1.7000e+000 106805 -2.0553e+001 -4.7047e+001 -1.1908e+001 29521 106554,106710,106580
 1.7000e+000 106782 -1.7252e+001 -4.3935e+001 -2.6718e+000 29521 106580,106684,106606
 1.7000e+000 106759 -2.7314e+001 -6.3288e+001 -6.8974e+000 29521 106606,106684,106658
 1.7000e+000 106736 -1.3639e+001 -4.8894e+001 -8.5008e-001 29521 106606,106658,106632
 1.7000e+000 107027 -1.5504e+001 -7.1639e+001 -2.7529e+000 29117 106877,106929,106903
 1.7000e+000 107004 -2.0193e+001 -7.3639e+001 -2.1632e+000 29117 106851,106929,106877
 1.7000e+000 106981 -1.7960e+001 -7.4024e+001 -2.7364e+000 29117 106851,106955,106929
 1.7000e+000 107456 -2.6826e+001 -9.2230e+001 -1.2845e+001 28656 107237,107315,107263
 1.7000e+000 107433 -1.1071e+001 -6.6701e+001 -4.7949e+000 28656 107133,107315,107237
 1.7000e+000 107410 -4.6880e+000 -5.8988e+001 -8.8657e+000 28656 107133,107237,107159
 1.7000e+000 107387  8.3126e-001 -4.1550e+001 -1.3448e+001 28656 107159,107237,107185
 1.7000e+000 107364 -6.4016e+000 -4.0756e+001 -2.3151e-002 28656 107185,107237,107211
 1.7000e+000 107341 -1.0757e+001 -5.7833e+001 -6.7651e+000 28656 107263,107315,107289
 1.7000e+000 107704 -8.6273e+000 -7.0658e+001  1.9675e+000 27902 107727,107557,107531
 1.7000e+000 107681 -3.4584e+000 -6.8479e+001  5.0384e+000 27902 107727,107531,107505
 1.7000e+000 107658 -1.5032e+001 -7.2535e+001 -6.0597e-001 27902 107557,107609,107583
 1.7000e+000 107635 -1.4117e+001 -7.4501e+001 -4.5274e+000 27902 107479,107609,107505
 1.7000e+000 107753 -1.4421e+001 -6.7998e+001  4.0131e-001 27902 107609,107557,107727
 1.7000e+000 107776 -9.5760e+000 -6.6555e+001  3.1546e+000 27902 107609,107727,107505
 1.7000e+000 108333 -3.1255e+001 -9.6370e+001 -8.2534e-001 27341 108356,108065,108013
 1.7000e+000 108310 -3.2990e+001 -9.4724e+001 -1.1353e+001 27341 108356,108013,108143
 1.7000e+000 108287 -2.1185e+001 -1.0677e+002 -1.0290e+001 27341 108428,108117,108091
 1.7000e+000 108264 -4.1685e+001 -9.8419e+001  2.4082e+000 27341 108013,108065,108039
 1.7000e+000 108241 -5.5082e+001 -8.7519e+001 -1.3044e+001 27341 107987,108143,108013
 1.7000e+000 108218 -2.9998e+001 -7.6625e+001 -1.5871e+001 27341 107987,108169,108143
 1.7000e+000 108195 -2.5699e+001 -7.1793e+001 -1.4043e+001 27341 107961,108169,107987
 1.7000e+000 108382 -3.5782e+001 -1.0851e+002  1.1320e+000 27341 108091,108065,108356
 1.7000e+000 108405 -2.8359e+001 -9.5516e+001 -5.6294e+000 27341 108428,108091,108356
 1.7000e+000 108454 -3.4390e+001 -1.2506e+002 -1.6236e+001 27341 108143,108117,108428
 1.7000e+000 108477 -3.9641e+001 -1.1026e+002 -1.1047e+001 27341 108143,108428,108356
 1.7000e+000 108725  1.1600e+001 -7.8523e+001 -9.8062e+000 27029 108748,108526,108500
 1.7000e+000 108702  6.7917e-001 -5.8685e+001 -3.6847e+000 27029 108748,108500,108630
 1.7000e+000 108679 -1.9898e+001 -7.3696e+001 -2.4118e+000 27029 108578,108630,108604
 1.7000e+000 108656 -7.0803e+000 -6.6820e+001  1.5199e+001 27029 108526,108578,108552
 1.7000e+000 108774  1.5976e+000 -8.3538e+001 -1.5010e+001 27029 108578,108526,108748
 1.7000e+000 108797 -1.5692e+001 -7.0853e+001 -1.1772e+001 27029 108578,108748,108630
 1.7000e+000 109045 -1.2797e+001 -7.2693e+001 -5.0838e+000 26610 108872,108924,108898
 1.7000e+000 109022 -1.2986e+001 -7.0345e+001 -4.0003e+000 26610 108872,108950,108924
 1.7000e+000 108999 -1.5329e+001 -7.2355e+001 -6.4470e+000 26610 108846,108950,108872
 1.7000e+000 108976 -1.4455e+001 -7.0170e+001 -5.8645e+000 26610 108820,108950,108846
 1.7000e+000 109366 -2.1090e+001 -1.0318e+002 -1.5745e+000 26006 109144,109222,109196
 1.7000e+000 109343 -1.1815e+001 -1.0069e+002 -2.2679e-002 26006 109118,109222,109144
 1.7000e+000 109320 -3.0160e+001 -1.1160e+002  5.3667e+000 26006 109092,109222,109118
 1.7000e+000 109297 -2.8302e+001 -1.0585e+002 -5.6552e+000 26006 109144,109196,109170
 1.7000e+000 109274 -8.6736e+000 -8.3066e+001 -4.4028e+000 26006 109092,109248,109222
 1.7000e+000 109567 -1.5047e+001 -7.3030e+001 -3.5969e-001 25659 109391,109469,109443
 1.7000e+000 109544 -1.6317e+001 -7.3434e+001 -6.5311e-001 25659 109391,109495,109469
 1.7000e+000 109521 -1.7101e+001 -6.7458e+001  2.8889e+000 25659 109391,109443,109417
 1.7000e+000 109900 -2.7241e+001 -7.4185e+001 -1.1119e+001 25255 109923,109779,109753
 1.7000e+000 109877 -2.6254e+001 -7.1102e+001 -9.8836e+000 25255 109923,109753,109701
 1.7000e+000 109854 -2.7103e+001 -5.9610e+001 -1.1094e+001 25255 109675,109805,109701
 1.7000e+000 109831 -3.3261e+001 -5.9535e+001 -1.4092e+001 25255 109701,109753,109727
 1.7000e+000 109949 -2.8274e+001 -7.8631e+001 -1.4205e+001 25255 109805,109779,109923
 1.7000e+000 109972 -2.5802e+001 -7.3036e+001 -1.2880e+001 25255 109805,109923,109701
 1.7000e+000 110220 -3.2455e+001 -7.6729e+001  3.1045e+000 24701 110243,110021,109995
 1.7000e+000 110197 -3.3094e+001 -8.1411e+001 -3.3066e+000 24701 110243,109995,110099
 1.7000e+000 110174 -2.7877e+001 -7.7570e+001 -2.1661e-001 24701 110315,110073,110047
 1.7000e+000 110151 -2.8909e+001 -8.0690e+001 -4.1683e+000 24701 109995,110125,110099
 1.7000e+000 110269 -2.6839e+001 -7.2246e+001  5.7354e+000 24701 110047,110021,110243
 1.7000e+000 110292 -3.6613e+001 -7.7599e+001  2.4260e+000 24701 110315,110047,110243
 1.7000e+000 110341 -4.5802e+000 -7.2076e+001 -1.7064e-001 24701 110099,110073,110315
 1.7000e+000 110364 -1.9911e+001 -7.5745e+001  1.0151e+000 24701 110099,110315,110243
 1.7000e+000 110661 -1.5259e+001 -8.3637e+001 -3.1720e+000 24197 110684,110413,110387
 1.7000e+000 110638 -7.7837e+000 -6.9665e+001 -7.3489e+000 24197 110684,110387,110543
 1.7000e+000 110615 -3.0345e+000 -1.1059e+002  1.6047e+000 24197 110756,110491,110465
 1.7000e+000 110592  1.9095e+001 -8.6192e+001  2.9433e+000 24197 110413,110465,110439
 1.7000e+000 110569 -2.6374e+001 -1.6817e+002 -1.3676e+001 24197 110491,110543,110517
 1.7000e+000 110710 -3.1785e+000 -7.6952e+001  2.2943e+000 24197 110465,110413,110684
 1.7000e+000 110733 -1.3059e+001 -9.8317e+001 -8.6346e-001 24197 110756,110465,110684
 1.7000e+000 110782  4.5555e-001 -9.6590e+001 -9.3676e+000 24197 110543,110491,110756
 1.7000e+000 110805 -4.0685e+000 -7.7794e+001 -1.2294e+001 24197 110543,110756,110684
 1.7000e+000 111315 -3.9111e+001 -9.3447e+001 -7.4647e+000 23593 111044,111148,111070
 1.7000e+000 111292 -3.9778e+001 -8.2129e+001 -2.2981e+000 23593 111044,111174,111148
 1.7000e+000 111269 -3.5926e+001 -7.4430e+001  1.5429e+000 23593 111070,111122,111096
 1.7000e+000 111246 -4.2037e+001 -1.0150e+002 -7.1673e+000 23593 111070,111148,111122
 1.7000e+000 111223 -4.8636e+001 -8.7745e+001 -9.7038e+000 23593 111018,111174,111044
 1.7000e+000 111200 -2.4990e+001 -8.2214e+001 -3.1297e+000 23593 110992,111174,111018
 1.7000e+000 111821  6.3298e+000 -9.0429e+001 -4.1685e+000 23089 111916,111844,111628
 1.7000e+000 111798 -1.5928e+001 -1.0199e+002 -8.7115e+000 23089 111844,111550,111524
 1.7000e+000 111775  1.1158e+001 -8.6432e+001 -2.2816e+000 23089 111916,111628,111602
 1.7000e+000 111752 -1.1516e+001 -1.4710e+002 -4.4015e+000 23089 111498,111680,111524
 1.7000e+000 111729 -9.9017e+000 -8.0110e+001 -1.1249e+000 23089 111550,111602,111576
 1.7000e+000 111706  1.1959e+001 -6.4772e+001 -1.1213e+001 23089 111628,111680,111654
 1.7000e+000 111870 -8.2065e+000 -8.9743e+001  8.3713e-002 23089 111680,111628,111844
 1.7000e+000 111893 -1.0647e+001 -9.4836e+001  5.3961e+000 23089 111680,111844,111524
 1.7000e+000 111942 -6.2822e+000 -8.1930e+001 -5.8411e+000 23089 111550,111844,111916
 1.7000e+000 111965  6.5013e-002 -7.7024e+001 -3.6577e+000 23089 111550,111916,111602
 1.7000e+000 112164  1.7493e+001 -6.7942e+001 -8.5873e+000 22626 112187,112014,111988
 1.7000e+000 112141  7.1462e+000 -7.2747e+001 -5.1414e+000 22626 112259,112187,111988
 1.7000e+000 112118 -3.2410e-001 -7.8459e+001 -6.0320e-001 22626 112259,111988,112092
 1.7000e+000 112213  7.1334e+000 -7.2855e+001 -1.1595e+001 22626 112040,112014,112187
 1.7000e+000 112236  1.3355e+001 -6.1822e+001 -1.4184e+001 22626 112040,112187,112066
 1.7000e+000 112285  2.3002e+000 -6.4120e+001 -1.3007e+001 22626 112066,112187,112259
 1.7000e+000 112308 -6.3134e-001 -6.7393e+001 -9.2311e+000 22626 112066,112259,112092
 1.7000e+000 112605  3.9784e-001 -8.7464e+001  7.3947e+000 22286 112628,112383,112357
 1.7000e+000 112582 -1.5300e+001 -9.0854e+001  4.0212e+000 22286 112772,112628,112357
 1.7000e+000 112559 -3.2975e+001 -1.0357e+002  6.7876e+000 22286 112700,112435,112409
 1.7000e+000 112536 -2.3608e+001 -9.4461e+001  3.1439e+000 22286 112772,112357,112331
 1.7000e+000 112513 -4.0233e+001 -8.5898e+001  2.5061e+000 22286 112435,112487,112461
 1.7000e+000 112654 -7.8130e+000 -7.2895e+001 -4.2143e+000 22286 112409,112383,112628
 1.7000e+000 112677 -2.5501e+001 -9.0334e+001  2.8366e+000 22286 112700,112409,112628
 1.7000e+000 112726 -2.5406e+001 -9.3948e+001 -2.8102e+000 22286 112487,112435,112700
 1.7000e+000 112749 -2.3122e+001 -9.1830e+001 -5.7548e+000 22286 112487,112700,112628
 1.7000e+000 112798 -1.1957e+001 -9.3749e+001  2.6960e+000 22286 112487,112628,112772
 1.7000e+000 112821 -1.2969e+001 -9.2738e+001  3.1493e+000 22286 112487,112772,112331
 1.7000e+000 112924  6.7022e+001 -4.8406e+001 -1.7294e+001 21974 112846,112898,112872
 1.7000e+000 113223 -5.3586e+001 -1.1380e+002  6.9715e+000 21420 112949,113053,112975
 1.7000e+000 113200 -4.8530e+001 -9.5419e+001  6.1736e+000 21420 112949,113079,113053
 1.7000e+000 113177 -4.1859e+001 -1.0507e+002 -9.0758e-001 21420 112975,113053,113001
 1.7000e+000 113154 -5.3539e+001 -9.6331e+001  6.6773e+000 21420 113001,113053,113027
 1.7000e+000 113131 -5.5296e+001 -9.0784e+001  1.9075e+000 21420 112949,113105,113079
 1.7000e+000 113605 -3.3588e+001 -1.1973e+002  2.1474e+001 20716 113331,113435,113357
 1.7000e+000 113582 -3.2769e+001 -7.6948e+001  2.2067e+001 20716 113331,113461,113435
 1.7000e+000 113559 -2.0410e+001 -1.0825e+002 -1.3694e+000 20716 113383,113435,113409
 1.7000e+000 113536 -9.6500e+000 -9.9137e+001  2.5492e+000 20716 113357,113435,113383
 1.7000e+000 113513 -8.5770e+000 -5.7855e+001  1.2176e+001 20716 113331,113487,113461
 1.7000e+000 113853 -2.1738e+001 -9.7592e+001  3.1640e+000 20290 113876,113680,113654
 1.7000e+000 113830 -1.7127e+001 -9.6980e+001  3.2150e+000 20290 113876,113654,113628
 1.7000e+000 113807 -2.5383e+001 -1.0153e+002 -1.4582e+000 20290 113948,113732,113680
 1.7000e+000 113784  1.1643e+001 -9.3042e+001 -6.0176e+000 20290 113680,113732,113706
 1.7000e+000 113902 -2.1209e+001 -9.6528e+001  2.9705e+000 20290 113948,113680,113876
 1.7000e+000 113925 -2.3686e+001 -9.3322e+001  3.2850e+000 20290 113758,113876,113628
 1.7000e+000 113974 -3.0504e+001 -9.7053e+001 -2.9086e+000 20290 113758,113732,113948
 1.7000e+000 113997 -3.0284e+001 -9.7058e+001  6.1675e-001 20290 113758,113948,113876
 1.7000e+000 114365 -2.3584e+001 -9.8314e+001  3.2876e-001 19900 114146,114198,114172
 1.7000e+000 114342 -2.3926e+001 -9.8539e+001 -1.7621e-001 19900 114042,114198,114146
 1.7000e+000 114319 -2.2494e+001 -9.8908e+001 -1.1196e+000 19900 114042,114224,114198
 1.7000e+000 114296 -3.6415e+001 -9.5686e+001 -1.1504e+000 19900 114094,114146,114120
 1.7000e+000 114273 -2.4263e+001 -9.3905e+001 -3.2664e+000 19900 114042,114146,114094
 1.7000e+000 114250 -1.2706e+001 -9.2570e+001 -7.1212e+000 19900 114042,114094,114068
 1.7000e+000 114566  1.2985e+000 -9.3857e+001  2.8655e+000 19496 114442,114494,114468
 1.7000e+000 114543 -1.9384e+001 -9.2607e+001 -7.0854e+000 19496 114416,114494,114442
 1.7000e+000 114520  1.3524e+001 -9.1281e+001 -1.2056e+001 19496 114390,114494,114416
 1.7000e+000 114767 -1.8276e+001 -9.6241e+001  1.0825e+000 19042 114790,114669,114643
 1.7000e+000 114744 -2.0636e+001 -9.4634e+001  1.7907e+000 19042 114790,114643,114591
 1.7000e+000 114721 -2.3635e+001 -1.1371e+002  6.9447e+000 19042 114591,114643,114617
 1.7000e+000 114816 -1.7223e+001 -9.4850e+001  4.9874e-001 19042 114695,114669,114790
 1.7000e+000 114839 -1.9092e+001 -9.2400e+001  1.0812e+000 19042 114695,114790,114591
 1.7000e+000 114991 -9.8981e+000 -9.6000e+001 -3.5226e+000 18488 114864,114916,114890
 1.7000e+000 114968 -1.4988e+001 -1.1599e+002  1.7264e-001 18488 114864,114942,114916
 1.7000e+000 115192 -1.1690e+001 -9.0137e+001 -1.4395e+000 18098 115215,115042,115016
 1.7000e+000 115169 -8.1920e+000 -8.2609e+001 -5.3158e+000 18098 115215,115016,115120
 1.7000e+000 115146 -1.1418e+001 -9.2512e+001  4.7761e-001 18098 115287,115094,115068
 1.7000e+000 115241 -9.1371e+000 -9.3862e+001 -5.4592e-001 18098 115068,115042,115215
 1.7000e+000 115264 -1.0557e+001 -9.0821e+001 -2.0530e-001 18098 115287,115068,115215
 1.7000e+000 115313 -9.7121e+000 -9.3179e+001 -2.0629e+000 18098 115120,115094,115287
 1.7000e+000 115336 -8.6657e+000 -9.1608e+001 -2.7623e+000 18098 115120,115287,115215
 1.7000e+000 115846 -1.8389e+001 -1.1047e+002 -1.5408e+001 17644 115653,115705,115679
 1.7000e+000 115823 -3.4364e+001 -9.9744e+001 -5.2036e+000 17644 115627,115705,115653
 1.7000e+000 115800 -2.1168e+001 -8.8017e+001  3.3270e+000 17644 115549,115705,115627
 1.7000e+000 115777 -2.3958e+001 -1.0299e+002  2.8482e+000 17644 115549,115627,115575
 1.7000e+000 115754 -7.2340e+000 -7.3111e+001  1.6751e+001 17644 115523,115705,115549
 1.7000e+000 115731 -2.1485e+001 -9.3089e+001 -4.2531e+000 17644 115575,115627,115601
 1.7000e+000 116067 -1.7737e+001 -1.1524e+002 -9.1379e-001 17116 115891,115943,115917
 1.7000e+000 116044 -1.3282e+001 -1.3841e+002  3.5507e+000 17116 115891,115995,115943
 1.7000e+000 116021  1.0454e+001 -1.0057e+002  1.3661e+001 17116 115943,115995,115969
 1.7000e+000 116288  1.0959e+000 -9.3643e+001  1.5670e+001 16704 116164,116216,116190
 1.7000e+000 116265 -1.3231e+001 -1.2083e+002  9.6760e+000 16704 116112,116216,116164
 1.7000e+000 116242 -2.4533e+001 -1.1439e+002 -1.2611e+000 16704 116112,116164,116138
 1.7000e+000 116489 -2.6588e+001 -1.0460e+002  1.6385e+000 16434 116339,116417,116365
 1.7000e+000 116466 -9.6233e+000 -9.8123e+001  8.5282e-001 16434 116313,116417,116339
 1.7000e+000 116443 -6.8138e+001 -1.0515e+002  3.7005e+001 16434 116365,116417,116391
 1.7000e+000 116592 -2.9432e+001 -9.9799e+001 -7.9833e+000 15967 116514,116566,116540
 1.7000e+000 116695  8.9437e+000 -1.0689e+002 -1.7579e+001 15552 116617,116669,116643
 1.7000e+000 116798 -2.1365e+001 -9.2397e+001  0.0000e+000 421 116720,116772,116746
 1.8000e+000 69066  7.0466e+000 -3.8680e+002  3.1431e+001 68738 68965,69017,68991
 1.8000e+000 69043  1.5095e-001 -3.9622e+002  1.1377e+001 68738 68939,69017,68965
 1.8000e+000 69371  2.8667e+000 -5.1096e+001 -4.4299e+000 68426 69172,69250,69198
 1.8000e+000 69348 -9.5470e+000 -8.6931e+001  1.4166e+001 68426 69146,69250,69172
 1.8000e+000 69325 -6.0305e+000 -3.1527e+001  1.2341e+001 68426 69198,69250,69224
 1.8000e+000 69302  1.5521e+001 -1.3079e+002  8.7513e+000 68426 69146,69276,69250
 1.8000e+000 69521 -3.0168e+000 -7.3018e+001 -1.9426e+000 68228 69420,69472,69446
 1.8000e+000 69498 -8.6993e+000 -6.8613e+001 -7.3072e+000 68228 69394,69472,69420
 1.8000e+000 69781 -7.7173e+000  4.5757e+000  7.5308e+000 68030 69631,69683,69657
 1.8000e+000 69758  2.3553e-001 -7.8774e+000  2.6777e+000 68030 69631,69709,69683
 1.8000e+000 69735  2.6867e+000 -1.7394e+000  2.5151e+000 68030 69605,69709,69631
 1.8000e+000 70078 -3.6199e+000 -4.5742e+000 -9.8017e+000 67832 69882,69934,69908
 1.8000e+000 70055 -8.9263e+000 -1.6321e+001 -3.4372e+000 67832 69856,69934,69882
 1.8000e+000 70032 -6.4165e+000 -4.2898e+001 -1.8082e+001 67832 69830,69934,69856
 1.8000e+000 70009 -6.6929e+000 -4.3927e+001 -2.2090e+001 67832 69804,69934,69830
 1.8000e+000 69986  1.9909e+001 -2.5341e+001 -1.3989e+001 67832 69804,69960,69934
 1.8000e+000 70586 -4.2641e+000 -5.9362e+001  3.7140e+000 67634 70609,70419,70341
 1.8000e+000 70563  1.1401e+001 -6.5568e+001  5.3462e+000 67634 70681,70609,70341
 1.8000e+000 70540  2.4147e+001 -6.3683e+001  2.0379e+001 67634 70681,70341,70315
 1.8000e+000 70517 -3.7334e+000 -5.5646e+001  4.8114e+000 67634 70341,70419,70367
 1.8000e+000 70494 -9.0935e+000 -4.0539e+001  1.4135e+001 67634 70263,70445,70289
 1.8000e+000 70471 -1.0704e+001 -3.2319e+001  1.1835e+000 67634 70367,70419,70393
 1.8000e+000 70635  1.1371e+001 -3.6128e+001  1.0619e+001 67634 70445,70419,70609
 1.8000e+000 70658 -1.0760e+001 -6.1671e+001  2.0060e+001 67634 70445,70609,70289
 1.8000e+000 70707  2.2595e+001 -4.8009e+001  2.4453e+001 67634 70289,70609,70681
 1.8000e+000 70730  4.5717e+001 -4.6336e+001  3.8870e+001 67634 70289,70681,70315
 1.8000e+000 71108 -2.2809e+001 -7.0267e+001  2.4804e+001 67344 71131,70912,70886
 1.8000e+000 71085 -3.0612e+001 -7.9587e+001 -5.5741e+000 67344 71131,70886,70860
 1.8000e+000 71062  2.8384e+001 -8.1736e+001  1.4747e+001 67344 71203,70938,70912
 1.8000e+000 71039 -3.0086e+000 -6.1859e+001  1.0719e+001 67344 70834,70990,70860
 1.8000e+000 71016 -9.5049e+000 -8.5364e+001  5.5636e+000 67344 70938,70990,70964
 1.8000e+000 71157  1.8206e+001 -6.9252e+001  2.3678e+001 67344 71203,70912,71131
 1.8000e+000 71180 -1.1802e+001 -7.5652e+001  5.0430e+000 67344 70990,71131,70860
 1.8000e+000 71229  7.2064e+000 -8.2202e+001  1.1253e+001 67344 70990,70938,71203
 1.8000e+000 71252 -1.4318e+001 -7.7956e+001  1.9709e+001 67344 70990,71203,71131
 1.8000e+000 71603 -6.6935e-001 -5.4913e+001  1.6741e+000 67032 71378,71482,71404
 1.8000e+000 71580  6.7666e+000 -3.8113e+001  6.6273e+000 67032 71378,71508,71482
 1.8000e+000 71557  7.5618e+000 -4.7263e+001  4.0897e+000 67032 71404,71456,71430
 1.8000e+000 71534  1.4119e+000 -4.8401e+001  3.2100e+000 67032 71404,71482,71456
 1.8000e+000 72003  5.1604e-001 -4.8048e+001  1.1908e+000 66834 71755,71859,71781
 1.8000e+000 71980 -8.5537e-001 -5.7407e+001 -2.1904e-001 66834 71755,71885,71859
 1.8000e+000 71957  2.1052e-001 -4.1170e+001  7.6037e+000 66834 71781,71833,71807
 1.8000e+000 71934 -6.2316e+000 -6.1797e+001  3.9053e+000 66834 71781,71859,71833
 1.8000e+000 71911 -3.4793e+000 -5.4585e+001  1.6866e+001 66834 71729,71885,71755
 1.8000e+000 72430  9.3325e+000 -5.1621e+001 -3.8535e-002 66266 72237,72289,72263
 1.8000e+000 72407  7.3319e+000 -5.7414e+001  4.7563e+000 66266 72133,72289,72237
 1.8000e+000 72384  3.3482e+000 -4.7289e+001  2.4173e+000 66266 72133,72237,72211
 1.8000e+000 72361  5.6068e+000 -5.9997e+001  3.1014e+000 66266 72107,72289,72133
 1.8000e+000 72338 -1.5573e+001 -9.4864e+001  1.9362e+001 66266 72133,72211,72185
 1.8000e+000 72315  8.0901e-001 -9.7608e+001  2.1400e+001 66266 72133,72185,72159
 1.8000e+000 72580 -1.6316e+001 -1.0207e+002  1.0550e+001 65968 72479,72531,72505
 1.8000e+000 72557 -2.8535e+000 -7.6377e+001  5.0761e+000 65968 72453,72531,72479
 1.8000e+000 72960 -6.9994e+000 -8.5313e+001 -1.6203e+000 65621 72983,72738,72712
 1.8000e+000 72937  4.0038e+000 -9.1269e+001  6.9413e-002 65621 72983,72712,72686
 1.8000e+000 72914 -2.7375e+001 -1.0277e+002  1.0456e+001 65621 72738,72842,72764
 1.8000e+000 72891  3.1373e+000 -8.4551e+001  2.9589e-001 65621 72764,72842,72816
 1.8000e+000 72868 -5.5460e+001 -2.1472e+002  3.5563e+001 65621 72764,72816,72790
 1.8000e+000 73009 -1.3209e+001 -8.6977e+001 -2.3737e-001 65621 72842,72738,72983
 1.8000e+000 73032 -6.2134e+000 -9.7250e+001  4.0893e+000 65621 72842,72983,72686
 1.8000e+000 73361 -1.7834e+001 -1.1892e+002 -1.8290e+000 65281 73456,73384,73188
 1.8000e+000 73338 -2.5921e+001 -1.2063e+002  9.6206e+000 65281 73384,73162,73136
 1.8000e+000 73315 -2.1886e+001 -1.4035e+002 -2.5429e+001 65281 73188,73240,73214
 1.8000e+000 73292 -2.2258e+001 -7.7589e+001  4.2626e+000 65281 73136,73266,73240
 1.8000e+000 73410 -3.6130e+001 -1.2087e+002 -3.6733e-001 65281 73240,73188,73384
 1.8000e+000 73433 -2.9152e+001 -8.0414e+001  4.2416e+000 65281 73240,73384,73136
 1.8000e+000 73482 -2.9638e+001 -1.5422e+002 -6.0153e+000 65281 73162,73384,73456
 1.8000e+000 73711  1.5304e+001  6.4667e+000 -4.1352e+001 64820 73734,73610,73584
 1.8000e+000 73688  6.3663e+000 -2.1892e+001 -1.6736e+001 64820 73734,73584,73662
 1.8000e+000 73760 -7.5833e+000 -9.8941e-001 -2.0903e+001 64820 73636,73610,73734
 1.8000e+000 73783 -1.5434e+001 -1.7797e+001 -3.9590e+000 64820 73806,73734,73662
 1.8000e+000 73832 -2.1566e+000 -2.0533e+001 -3.9337e+000 64820 73636,73734,73806
 1.8000e+000 74112  1.8895e+000 -7.8391e+001  1.7679e-001 64622 74278,74135,73988
 1.8000e+000 74089  1.5836e-001 -8.0156e+001  5.5045e+000 64622 74135,73936,74040
 1.8000e+000 74066  5.5505e+000 -7.6882e+001  3.4652e+000 64622 74278,73988,73962
 1.8000e+000 74161 -2.6754e+000 -8.2629e+001  2.1214e+000 64622 74014,73988,74135
 1.8000e+000 74184  1.7803e+000 -7.9764e+001  5.4333e+000 64622 74207,74135,74040
 1.8000e+000 74233 -4.2726e-001 -8.7434e+001 -6.0149e-001 64622 74014,74135,74207
 1.8000e+000 74304  3.6190e+000 -7.4804e+001  8.2551e+000 64622 73936,74135,74278
 1.8000e+000 74327  1.1571e+001 -7.2316e+001  1.1439e+001 64622 73936,74278,73962
 1.8000e+000 74526  5.5399e+000 -3.3471e+001 -3.9277e+000 64424 74621,74549,74402
 1.8000e+000 74503  1.7307e+000 -7.2144e+001 -1.9223e+000 64424 74549,74350,74454
 1.8000e+000 74480  5.8997e+000 -2.0782e+001 -2.6934e+001 64424 74621,74402,74376
 1.8000e+000 74575  1.0049e+001 -6.2599e+001  5.0775e+000 64424 74428,74402,74549
 1.8000e+000 74598  1.2541e+000 -8.8514e+001  4.0439e+000 64424 74693,74549,74454
 1.8000e+000 74647 -1.0556e+001 -6.9558e+001 -7.1334e-001 64424 74350,74549,74621
 1.8000e+000 74670 -1.2704e+001 -6.3848e+001 -2.4636e+001 64424 74350,74621,74376
 1.8000e+000 74719  3.2636e+000 -8.9184e+001 -2.6911e+000 64424 74428,74549,74693
 1.8000e+000 75123 -3.2740e+001 -1.5342e+002  2.2273e+001 64126 74875,74953,74927
 1.8000e+000 75100 -1.6896e+001 -1.1431e+002  2.0916e+001 64126 74875,74979,74953
 1.8000e+000 75077 -9.2846e+000 -1.0032e+002  1.5727e+001 64126 74875,75005,74979
 1.8000e+000 75054 -1.8774e+001 -2.0470e+002  4.1660e+001 64126 74875,74927,74901
 1.8000e+000 75031 -3.1973e+001 -7.5426e+001  2.6404e+001 64126 74849,75005,74875
 1.8000e+000 75224  6.6076e+000 -8.4981e+001  1.1206e+001 63836 75146,75198,75172
 1.8000e+000 75472 -2.3206e+001 -7.3463e+001  4.1112e+000 63375 75273,75351,75325
 1.8000e+000 75449 -1.4657e+001 -6.6240e+001 -1.4325e+000 63375 75273,75377,75351
 1.8000e+000 75426  5.8689e+000 -6.6491e+001 -5.9363e+000 63375 75247,75377,75273
 1.8000e+000 75403 -2.4995e+001 -3.6594e+001  1.2490e+001 63375 75273,75325,75299
 1.8000e+000 75673  5.6383e+000 -6.6938e+001  6.5728e+000 63063 75523,75575,75549
 1.8000e+000 75650  9.4494e+000 -8.2978e+001 -1.5733e+000 63063 75497,75575,75523
 1.8000e+000 75627  3.0143e+000 -9.0357e+001  8.7260e+000 63063 75497,75601,75575
 1.8000e+000 75874 -1.0797e+001 -9.7517e+001  2.3999e-001 62716 75897,75750,75724
 1.8000e+000 75851 -1.6889e+001 -9.4474e+001  6.4035e-001 62716 75897,75724,75698
 1.8000e+000 75828 -1.3535e+001 -8.3015e+001 -1.7345e+001 62716 75698,75802,75776
 1.8000e+000 75923  2.0169e+000 -9.3609e+001 -1.5356e+000 62716 75776,75750,75897
 1.8000e+000 75946 -1.1033e+001 -9.5786e+001 -2.3880e-001 62716 75776,75897,75698
 1.8000e+000 76328  2.1665e+001 -9.4008e+001 -8.1260e+000 62198 76495,76351,76158
 1.8000e+000 76305  4.1086e+000 -8.7696e+001 -2.9492e+000 62198 76351,76080,76054
 1.8000e+000 76282  2.2899e+001 -1.2627e+002 -1.6914e+001 62198 76423,76184,76158
 1.8000e+000 76259  1.6469e+001 -9.4230e+001 -6.0036e+000 62198 76495,76158,76106
 1.8000e+000 76236  2.9015e+001 -1.0620e+002  2.7957e-001 62198 76106,76158,76132
 1.8000e+000 76377  1.8720e+001 -1.0057e+002 -1.7067e+001 62198 76423,76158,76351
 1.8000e+000 76400  8.2195e+000 -7.0777e+001 -1.1059e+001 62198 76210,76351,76054
 1.8000e+000 76449  3.1085e+001 -9.8900e+001 -1.9283e+001 62198 76210,76184,76423
 1.8000e+000 76472  2.3507e+001 -8.0424e+001 -2.2434e+001 62198 76210,76423,76351
 1.8000e+000 76521  1.1197e+001 -8.6340e+001 -1.9046e+000 62198 76080,76351,76495
 1.8000e+000 76544 -2.6373e+000 -9.7425e+001  3.5010e+000 62198 76080,76495,76106
 1.8000e+000 76841 -1.8536e+001 -1.0277e+002 -5.0711e+000 61751 76936,76864,76645
 1.8000e+000 76818  2.1289e+001 -7.1393e+001 -3.7261e+001 61751 76864,76567,76723
 1.8000e+000 76795 -1.5475e+001 -8.4339e+001 -5.0673e+000 61751 76936,76645,76593
 1.8000e+000 76772 -7.8329e+001 -1.7244e+002  2.5356e+001 61751 77008,76697,76671
 1.8000e+000 76749 -1.9460e+001 -8.3520e+001 -6.9866e+000 61751 76593,76645,76619
 1.8000e+000 76890 -2.6518e+001 -1.2742e+002  1.6814e+001 61751 76671,76645,76864
 1.8000e+000 76913 -2.7973e+001 -1.1897e+002  4.3082e+000 61751 77008,76671,76864
 1.8000e+000 76962 -1.1502e+001 -1.2716e+002 -1.4172e+001 61751 76567,76864,76936
 1.8000e+000 76985 -9.3036e+000 -1.1137e+002 -1.2141e+001 61751 76567,76936,76593
 1.8000e+000 77034 -6.6448e+000 -1.3060e+002 -1.2328e+001 61751 76723,76697,77008
 1.8000e+000 77057 -7.9689e+000 -1.4015e+002 -1.1917e+001 61751 76723,77008,76864
 1.8000e+000 77207  2.7926e+000 -4.5240e+001  1.2700e+001 61418 77106,77158,77132
 1.8000e+000 77184 -9.7248e+000 -4.1522e+001  9.1597e+000 61418 77080,77158,77106
 1.8000e+000 77638 -1.3618e+001 -9.0804e+001  6.0487e+000 60814 77733,77661,77471
 1.8000e+000 77615 -1.2103e+001 -9.2794e+001 -7.5226e+000 60814 77661,77393,77315
 1.8000e+000 77592 -2.5413e+001 -7.8424e+001  1.1818e+001 60814 77733,77471,77445
 1.8000e+000 77569  2.7771e+001 -9.9598e+001 -2.4865e+001 60814 77315,77367,77341
 1.8000e+000 77546  1.2905e+001 -1.3418e+002 -2.7185e+001 60814 77315,77393,77367
 1.8000e+000 77523 -1.2338e+001 -5.9696e+001 -3.8478e+000 60814 77393,77445,77419
 1.8000e+000 77687  8.6396e+000 -8.1871e+001  1.6195e+001 60814 77497,77471,77661
 1.8000e+000 77710 -4.2450e-001 -1.0445e+002  4.5143e+000 60814 77497,77661,77315
 1.8000e+000 77759  2.1108e+000 -7.5453e+001 -5.8549e-001 60814 77393,77661,77733
 1.8000e+000 77782 -1.4717e+001 -6.8547e+001  6.8518e+000 60814 77393,77733,77445
 1.8000e+000 78337 -5.7640e+000 -7.5319e+001  5.8788e+000 60210 78360,78017,77965
 1.8000e+000 78314 -1.5403e+001 -5.8506e+001  1.3147e+001 60210 78360,77965,78173
 1.8000e+000 78291 -2.8812e+001 -9.1450e+001 -8.9913e+000 60210 78432,78043,78017
 1.8000e+000 78268 -1.7538e+001 -1.0236e+002  3.5657e+000 60210 77965,78017,77991
 1.8000e+000 78245 -2.4547e+001 -7.8030e+001 -2.2126e-001 60210 78043,78095,78069
 1.8000e+000 78222 -4.8236e+001 -9.8207e+001  2.0230e+001 60210 78095,78173,78121
 1.8000e+000 78199  7.6450e-001 -6.8505e+001  4.9697e+000 60210 78121,78173,78147
 1.8000e+000 78386 -2.2078e+001 -8.5874e+001  1.1258e+000 60210 78432,78017,78360
 1.8000e+000 78409 -2.6130e+001 -7.0175e+001  8.3366e+000 60210 78095,78360,78173
 1.8000e+000 78458 -1.9603e+001 -7.7346e+001  5.1499e-001 60210 78095,78043,78432
 1.8000e+000 78481 -1.4546e+001 -7.0271e+001  1.0319e+001 60210 78095,78432,78360
 1.8000e+000 78680 -2.8321e-001 -5.5469e+001 -8.3091e+000 59848 78703,78556,78530
 1.8000e+000 78657 -6.3984e+000 -5.7871e+001 -8.6606e+000 59848 78703,78530,78504
 1.8000e+000 78634  3.6128e+001 -7.5855e+001 -3.4130e+000 59848 78504,78608,78582
 1.8000e+000 78729  1.2642e+001 -5.7776e+001 -1.1896e+001 59848 78582,78556,78703
 1.8000e+000 78752  7.2203e-001 -6.2980e+001 -1.2573e+001 59848 78582,78703,78504
 1.8000e+000 78951 -2.6446e+001 -8.0931e+001  1.0060e+000 59344 78974,78801,78775
 1.8000e+000 78928 -3.2486e+001 -9.5528e+001 -6.4322e-003 59344 79046,78974,78775
 1.8000e+000 78905 -2.9296e+001 -1.0426e+002 -3.7361e-001 59344 79046,78775,78879
 1.8000e+000 79000 -2.2424e+001 -7.5906e+001  1.4351e+001 59344 78827,78801,78974
 1.8000e+000 79023 -3.0752e+001 -9.2415e+001  1.1502e+001 59344 78827,78974,78853
 1.8000e+000 79072 -2.9475e+001 -8.6547e+001  3.3508e+000 59344 78853,78974,79046
 1.8000e+000 79095 -2.3406e+001 -9.2133e+001  3.8205e+000 59344 78853,79046,78879
 1.8000e+000 79296 -1.6112e+001 -1.3366e+002 -9.6282e+000 58711 79319,79172,79146
 1.8000e+000 79273 -4.0850e+000 -1.1946e+002 -4.0354e+000 58711 79319,79146,79120
 1.8000e+000 79250 -2.2644e+001 -1.0853e+002  5.1715e+000 58711 79172,79224,79198
 1.8000e+000 79345 -2.7352e+001 -1.1639e+002 -8.8409e+000 58711 79224,79172,79319
 1.8000e+000 79368 -2.0724e+001 -1.0650e+002 -5.5647e+000 58711 79224,79319,79120
 1.8000e+000 79667  4.9181e-001 -6.0631e+001 -8.1989e+000 58285 79690,79471,79393
 1.8000e+000 79644 -9.1277e-001 -7.2800e+001 -1.0690e+001 58285 79690,79393,79549
 1.8000e+000 79621  1.1461e+001 -7.4022e+001  2.5660e+000 58285 79393,79471,79419
 1.8000e+000 79598  1.2370e+000 -5.4761e+001  2.4415e+000 58285 79497,79549,79523
 1.8000e+000 79575 -2.8436e+001 -1.4566e+002  2.0666e+001 58285 79419,79471,79445
 1.8000e+000 79716 -8.5204e-001 -4.7762e+001 -3.2804e-001 58285 79497,79471,79690
 1.8000e+000 79739 -5.2800e+000 -6.7769e+001 -5.6663e-001 58285 79497,79690,79549
 1.8000e+000 80249  1.7821e+001 -4.8799e+001 -2.2603e+001 57831 80272,79978,79952
 1.8000e+000 80226  2.3638e+001 -5.6263e+001 -8.5915e+000 57831 80272,79952,80108
 1.8000e+000 80203  3.5737e+001 -7.1132e+001 -1.6625e+001 57831 79926,80108,79952
 1.8000e+000 80180  1.0883e+001 -4.8698e+001 -1.9321e+000 57831 80004,80082,80030
 1.8000e+000 80157  8.5976e+000 -5.4623e+001 -2.3416e+000 57831 80004,80108,80082
 1.8000e+000 80134 -8.8466e+000 -8.0370e+001  8.8642e+000 57831 80030,80082,80056
 1.8000e+000 80298  3.1327e+001 -1.3195e+001 -2.9001e+001 57831 80004,79978,80272
 1.8000e+000 80321  2.2087e+001 -4.3696e+001 -1.4412e+001 57831 80004,80272,80108
 1.8000e+000 80618 -2.7497e+001 -8.4221e+001  1.9450e+001 57077 80344,80448,80422
 1.8000e+000 80595 -1.7722e+001 -7.3262e+001  7.6219e+000 57077 80344,80500,80448
 1.8000e+000 80572 -1.8437e+001 -7.3949e+001  9.4072e+000 57077 80344,80422,80370
 1.8000e+000 80549 -2.3882e+001 -6.1607e+001  9.3415e+000 57077 80370,80422,80396
 1.8000e+000 80526 -2.1516e+001 -9.5585e+001  1.0665e+001 57077 80448,80500,80474
 1.8000e+000 80768 -2.2271e+000 -3.4802e+001 -4.1600e-001 56787 80791,80693,80667
 1.8000e+000 80745 -7.8382e+000 -3.3871e+001  2.9566e+000 56787 80791,80667,80641
 1.8000e+000 80817  1.3519e+000 -3.3824e+001 -3.5099e+000 56787 80719,80693,80791
 1.8000e+000 80840 -8.8340e+000 -2.5355e+001 -3.5928e+000 56787 80719,80791,80641
 1.8000e+000 81429  1.1034e+001 -4.6039e+001 -6.3168e+000 56497 81452,81158,81132
 1.8000e+000 81406 -7.5417e+000 -6.1359e+001  8.4899e-001 56497 81452,81132,81288
 1.8000e+000 81383 -1.7134e+001 -5.7731e+001  6.3700e-001 56497 81524,81184,81158
 1.8000e+000 81360 -1.9894e+001 -1.0451e+002  1.5309e+001 56497 81210,81288,81236
 1.8000e+000 81337  5.1159e+001 -4.0480e+001 -1.1102e+000 56497 81106,81288,81132
 1.8000e+000 81314 -7.8426e+000 -6.9303e+001  5.9663e+000 56497 81236,81288,81262
 1.8000e+000 81478 -1.0473e+001 -5.1373e+001 -3.2293e+000 56497 81524,81158,81452
 1.8000e+000 81501 -3.1141e-001 -5.3953e+001  3.7820e+000 56497 81210,81452,81288
 1.8000e+000 81550 -1.7617e+001 -6.4567e+001  1.0526e+001 56497 81210,81184,81524
 1.8000e+000 81573 -9.0649e+000 -5.9935e+001  6.5979e+000 56497 81210,81524,81452
 1.8000e+000 81870 -3.5052e+001 -7.9808e+001  2.3097e-001 55979 81893,81674,81648
 1.8000e+000 81847 -3.4604e+001 -7.8014e+001  5.1882e+000 55979 81893,81648,81752
 1.8000e+000 81824 -2.1624e+001 -8.2508e+001  1.0221e+001 55979 81596,81752,81648
 1.8000e+000 81801 -3.4710e+001 -5.4779e+001 -2.6176e+000 55979 81674,81726,81700
 1.8000e+000 81778 -7.1953e+000 -4.8224e+001  8.2703e+000 55979 81596,81648,81622
 1.8000e+000 81919 -3.4931e+001 -7.5828e+001  1.8933e+000 55979 81726,81674,81893
 1.8000e+000 81942 -3.2965e+001 -7.2176e+001  7.0020e+000 55979 81726,81893,81752
 1.8000e+000 82371 -1.6035e+001 -5.9936e+001 -6.2464e+000 55631 82100,82204,82152
 1.8000e+000 82348 -1.3464e+001 -7.3377e+001 -1.1936e+001 55631 82100,82230,82204
 1.8000e+000 82325 -1.6745e+001 -6.1714e+001 -2.8684e+000 55631 82100,82152,82126
 1.8000e+000 82302 -1.9950e+001 -1.0083e+002 -3.5717e+001 55631 82074,82230,82100
 1.8000e+000 82279 -2.0666e+001 -6.3235e+001  4.5235e+000 55631 82152,82204,82178
 1.8000e+000 82256  1.5913e+001 -9.4278e+001 -2.0494e+001 55631 82048,82230,82074
 1.8000e+000 82521  1.4523e+001 -3.8143e+001 -3.9884e+000 55227 82544,82420,82394
 1.8000e+000 82498  1.1251e+001 -4.6360e+001 -2.0949e+000 55227 82544,82394,82472
 1.8000e+000 82570  8.4375e+000 -2.9265e+001 -4.1872e+000 55227 82446,82420,82544
 1.8000e+000 82593  3.2247e+000 -3.7472e+001 -2.0855e-001 55227 82446,82544,82472
 1.8000e+000 82875  1.7872e+001 -4.6578e+001 -1.4082e+001 54979 82699,82777,82725
 1.8000e+000 82852 -1.1138e+001 -3.2182e+001 -5.8309e+000 54979 82699,82803,82777
 1.8000e+000 82829  1.5955e+001  3.1004e+001  2.5627e+001 54979 82725,82777,82751
 1.8000e+000 83204 -1.0693e+001 -4.9423e+001 -5.2455e+000 54475 83005,83083,83057
 1.8000e+000 83181 -1.0730e+001 -4.9943e+001 -4.7938e+000 54475 82979,83083,83005
 1.8000e+000 83158 -7.6441e+000 -5.2293e+001 -7.4865e+000 54475 83005,83057,83031
 1.8000e+000 83135 -1.9700e+001 -7.1195e+001  1.2757e+000 54475 82979,83109,83083
 1.8000e+000 83582 -2.1913e+001 -6.3718e+001 -8.6583e+000 54071 83605,83438,83412
 1.8000e+000 83559 -2.1340e+001 -6.3538e+001 -9.5258e+000 54071 83749,83605,83412
 1.8000e+000 83536 -1.9876e+001 -7.3492e+001  1.5431e+001 54071 83677,83360,83334
 1.8000e+000 83513 -1.3932e+001 -6.9597e+001 -1.1475e+001 54071 83749,83412,83677
 1.8000e+000 83490 -2.1404e+001 -5.3905e+001 -1.1741e+001 54071 83308,83464,83334
 1.8000e+000 83631 -2.4408e+001 -6.1857e+001 -1.5379e+001 54071 83464,83438,83605
 1.8000e+000 83654 -1.8501e+001 -5.2545e+001 -1.1277e+001 54071 83464,83605,83334
 1.8000e+000 83703  2.4162e+001 -6.0049e+001  1.7301e+001 54071 83386,83360,83677
 1.8000e+000 83726  8.0794e+000 -7.0525e+001 -9.0424e+000 54071 83386,83677,83412
 1.8000e+000 83775 -7.4993e+000 -5.6734e+001 -6.4063e+000 54071 83334,83605,83749
 1.8000e+000 83798  1.2033e+000 -6.2085e+001 -8.3152e+000 54071 83334,83749,83677
 1.8000e+000 84068 -2.0805e+001 -2.7151e+001 -2.1493e-001 53524 83869,83921,83895
 1.8000e+000 84045 -7.5711e+000 -3.8860e+001  1.5792e+000 53524 83869,83947,83921
 1.8000e+000 84022 -2.0345e+001 -4.9001e+001 -3.0565e+000 53524 83843,83947,83869
 1.8000e+000 83999 -2.7655e-001 -4.2910e+001 -4.8889e+000 53524 83843,83973,83947
 1.8000e+000 84497 -2.4799e+001 -1.0348e+002  5.6014e+000 53184 84200,84330,84252
 1.8000e+000 84474 -2.8442e+001 -1.0012e+002  1.6741e+001 53184 84200,84356,84330
 1.8000e+000 84451 -9.7726e+000 -1.4896e+002  1.3816e+001 53184 84200,84252,84226
 1.8000e+000 84428 -2.2604e+001 -8.6119e+001 -1.2499e+001 53184 84252,84330,84278
 1.8000e+000 84405 -1.4961e+001 -9.3979e+001  1.5323e+001 53184 84174,84356,84200
 1.8000e+000 84382  1.3367e+000 -7.7495e+001 -5.6459e+000 53184 84278,84330,84304
 1.8000e+000 84954  1.1542e+001 -7.9906e+001  4.6286e+000 52680 84706,84836,84784
 1.8000e+000 84931 -7.4196e+000 -7.5428e+001 -3.0520e+001 52680 84680,84836,84706
 1.8000e+000 84908  1.1668e+001 -1.2105e+002 -4.7524e+000 52680 84784,84836,84810
 1.8000e+000 84885 -1.8945e+001 -1.3002e+002  1.7773e+001 52680 84706,84784,84732
 1.8000e+000 84862  6.6377e+000 -1.1876e+002  1.5259e+001 52680 84732,84784,84758
 1.8000e+000 85202 -2.8482e+000 -9.0266e+001  1.4724e+000 52226 85029,85081,85055
 1.8000e+000 85179 -2.5032e+001 -8.3155e+001  8.6832e-002 52226 85225,85081,85029
 1.8000e+000 85156 -2.1653e+001 -7.5145e+001  1.2606e+000 52226 85225,85029,85003
 1.8000e+000 85133 -2.2196e+001 -4.9185e+001 -7.7812e+000 52226 84977,85107,85003
 1.8000e+000 85251 -2.7209e+001 -8.4082e+001 -9.5772e+000 52226 85107,85081,85225
 1.8000e+000 85274 -2.0231e+001 -6.3033e+001 -1.0682e+001 52226 85107,85225,85003
 1.8000e+000 85522  1.0856e+001 -5.7340e+001 -7.4027e+000 51764 85297,85349,85323
 1.8000e+000 85499  2.3472e+000 -7.0593e+001  2.2179e+000 51764 85545,85297,85427
 1.8000e+000 85476 -9.7858e+000 -5.4261e+001 -4.0656e+000 51764 85545,85427,85375
 1.8000e+000 85453 -1.1300e+001 -5.2597e+001 -1.5584e+000 51764 85375,85427,85401
 1.8000e+000 85571  6.2185e+000 -6.0901e+001 -5.1267e+000 51764 85349,85297,85545
 1.8000e+000 85594  5.9466e-001 -3.8542e+001 -1.2702e+001 51764 85349,85545,85375
 1.8000e+000 85746 -1.1175e+001 -6.2282e+001 -2.1576e+000 51374 85645,85697,85671
 1.8000e+000 85723 -1.7443e+001 -6.5959e+001 -7.8544e+000 51374 85619,85697,85645
 1.8000e+000 86256  2.1664e+000 -4.0830e+001  1.6550e+000 50970 86279,86011,85959
 1.8000e+000 86233  4.7778e+000 -3.6367e+001  1.8968e-001 50970 86279,85959,86115
 1.8000e+000 86210  1.6750e+000 -4.0885e+001  5.1368e+000 50970 85959,86011,85985
 1.8000e+000 86187  3.3089e+000 -5.6033e+001 -6.2179e+000 50970 86037,86115,86089
 1.8000e+000 86164  3.8352e+001 -2.3376e+001 -1.2031e+001 50970 85933,86115,85959
 1.8000e+000 86141 -1.0468e+001 -5.4146e+001 -1.1892e+001 50970 86037,86089,86063
 1.8000e+000 86305  6.2439e+000 -4.6991e+001  1.9399e+000 50970 86037,86011,86279
 1.8000e+000 86328  9.2903e+000 -4.2043e+001  3.2145e-001 50970 86037,86279,86115
 1.8000e+000 86478 -1.0846e+001 -1.4753e+002  4.0914e+000 50451 86351,86403,86377
 1.8000e+000 86455 -3.9139e+001 -2.7529e+002  7.8237e-001 50451 86351,86429,86403
 1.8000e+000 86907 -3.1769e+001 -8.8758e+001  1.6388e+000 50047 86930,86714,86662
 1.8000e+000 86884 -3.1224e+001 -8.9313e+001  1.6551e+000 50047 86930,86662,86610
 1.8000e+000 86861  1.4781e+001 -1.1438e+002 -2.3518e+001 50047 87002,86740,86714
 1.8000e+000 86838  2.1202e+001 -6.9826e+001  3.5902e+001 50047 86662,86714,86688
 1.8000e+000 86815 -2.6187e+001 -6.6082e+001  1.2936e+001 50047 86610,86662,86636
 1.8000e+000 86792 -1.5967e+001 -6.5364e+001 -6.4050e+000 50047 86584,86766,86610
 1.8000e+000 86956 -1.7318e+001 -8.8172e+001 -6.3238e-001 50047 87002,86714,86930
 1.8000e+000 86979 -4.0021e+001 -7.4859e+001 -1.3439e+000 50047 86766,86930,86610
 1.8000e+000 87028 -3.9574e+001 -1.0248e+002 -2.5732e+001 50047 86766,86740,87002
 1.8000e+000 87051 -5.4691e+001 -9.7584e+001 -9.6515e+000 50047 86766,87002,86930
 1.8000e+000 87250 -1.2026e+001 -8.1537e+001 -7.1790e+000 49543 87273,87126,87100
 1.8000e+000 87227 -6.1766e+000 -7.1568e+001 -1.0396e+000 49543 87273,87100,87074
 1.8000e+000 87204 -2.6544e+001 -5.6306e+001 -5.6342e+000 49543 87126,87178,87152
 1.8000e+000 87299 -1.3775e+001 -6.7934e+001 -1.0895e+000 49543 87178,87126,87273
 1.8000e+000 87322 -8.4326e+000 -6.3068e+001  5.7754e+000 49543 87178,87273,87074
 1.8000e+000 87570 -2.5779e+001 -6.5036e+001  5.9882e+000 49146 87593,87449,87397
 1.8000e+000 87547 -2.5376e+001 -6.7226e+001 -2.5511e-001 49146 87593,87397,87371
 1.8000e+000 87524 -2.9173e+001 -5.9309e+001  3.3437e+000 49146 87345,87475,87371
 1.8000e+000 87501 -1.0058e+001 -6.5796e+001  7.0156e+000 49146 87397,87449,87423
 1.8000e+000 87619 -1.7998e+001 -6.3358e+001  8.0985e+000 49146 87475,87449,87593
 1.8000e+000 87642 -2.0724e+001 -6.5512e+001  2.2460e+000 49146 87475,87593,87371
 1.8000e+000 88073  1.7741e+001 -6.8554e+001 -9.2716e+000 48706 87854,87932,87880
 1.8000e+000 88050  6.3961e+000 -7.5315e+001 -7.9417e-001 48706 87828,87932,87854
 1.8000e+000 88027 -5.8579e+000 -7.8203e+001 -7.6241e+000 48706 87750,87932,87828
 1.8000e+000 88004 -1.5365e+000 -1.1902e+002 -1.1831e+001 48706 87750,87802,87776
 1.8000e+000 87981 -1.9018e+001 -1.3914e+002 -2.0535e+001 48706 87750,87828,87802
 1.8000e+000 87958  1.2759e+000 -7.7642e+001 -4.9641e+000 48706 87880,87932,87906
 1.8000e+000 88402 -1.8794e+001 -8.2190e+001 -1.7317e+000 48145 88203,88281,88255
 1.8000e+000 88379 -2.4149e+001 -8.4457e+001 -1.7787e+000 48145 88203,88307,88281
 1.8000e+000 88356 -1.2611e+001 -6.9814e+001 -5.2222e+000 48145 88203,88255,88229
 1.8000e+000 88333 -1.6642e+001 -8.9199e+001  1.0054e+001 48145 88177,88307,88203
 1.8000e+000 88601 -1.2186e+001 -9.4862e+001  6.9947e+000 47805 88696,88624,88477
 1.8000e+000 88578 -4.1971e+001 -1.0280e+002 -1.1776e+001 47805 88826,88624,88451
 1.8000e+000 88555 -3.7205e+001 -9.9720e+001 -9.4638e+000 47805 88826,88451,88425
 1.8000e+000 88650 -1.8492e+001 -1.0581e+002 -8.9832e+000 47805 88503,88477,88624
 1.8000e+000 88673 -3.9557e+001 -1.1345e+002 -7.4353e+000 47805 88503,88624,88529
 1.8000e+000 88722 -8.5543e+001 -1.1946e+002 -5.9487e+000 47805 88451,88624,88696
 1.8000e+000 88852 -4.2902e+001 -9.8498e+001 -5.5266e+000 47805 88529,88624,88826
 1.8000e+000 88875 -3.7867e+001 -9.5566e+001 -3.2160e+000 47805 88529,88826,88425
 1.8000e+000 89172  8.4101e+000 -5.1469e+001 -1.2330e+001 47401 89195,88976,88898
 1.8000e+000 89149  7.8183e+000 -4.9724e+001 -2.5777e+001 47401 89195,88898,89054
 1.8000e+000 89126  2.4955e+000 -4.6719e+001 -1.3050e+001 47401 88898,88976,88950
 1.8000e+000 89103 -1.0435e+001 -7.0511e+001 -1.4823e+001 47401 88976,89028,89002
 1.8000e+000 89080  2.6561e-001 -4.8448e+001 -6.0190e+000 47401 88898,88950,88924
 1.8000e+000 89221  1.2624e+000 -6.6910e+001 -1.0458e+001 47401 89028,88976,89195
 1.8000e+000 89244  3.3876e+000 -6.1095e+001 -2.5018e+001 47401 89028,89195,89054
 1.8000e+000 89575  3.2254e+001 -9.0125e+001 -3.6928e+000 47111 89350,89454,89376
 1.8000e+000 89552  1.4660e+001 -1.0804e+002  4.6265e+000 47111 89350,89480,89454
 1.8000e+000 89529 -8.0897e-001 -1.0192e+002 -4.9830e+000 47111 89376,89454,89402
 1.8000e+000 89506  1.7349e+001 -6.6647e+001  4.3769e+000 47111 89402,89454,89428
 1.8000e+000 89904 -2.5372e-001 -9.0098e+001 -1.1180e+000 46707 89705,89757,89731
 1.8000e+000 89881 -2.7255e+001 -9.9597e+001  1.5978e+000 46707 89705,89783,89757
 1.8000e+000 89858 -3.5029e+001 -9.9634e+001  1.0344e+001 46707 89679,89783,89705
 1.8000e+000 89835 -1.3879e+001 -7.9985e+001  3.6021e-001 46707 89679,89809,89783
 1.8000e+000 90233  1.3985e+001 -8.5468e+001 -1.1639e+001 46360 90034,90112,90086
 1.8000e+000 90210 -2.2563e+001 -8.7826e+001 -3.9870e+000 46360 90034,90138,90112
 1.8000e+000 90187 -4.4984e+000 -1.0832e+002 -3.0904e+000 46360 90034,90086,90060
 1.8000e+000 90164 -1.2170e+001 -8.7186e+001  9.6349e+000 46360 90008,90138,90034
 1.8000e+000 90530 -1.2925e+001 -6.5874e+001 -8.0296e+000 45662 90256,90360,90308
 1.8000e+000 90507 -1.8562e+001 -7.8405e+001 -8.1654e-001 45662 90256,90412,90360
 1.8000e+000 90484 -1.4173e+001 -8.4154e+001 -9.2911e+000 45662 90256,90308,90282
 1.8000e+000 90461 -1.2267e+001 -5.8985e+001  1.3689e+000 45662 90360,90412,90386
 1.8000e+000 90438 -3.3750e+001 -5.8484e+001 -2.6354e+000 45662 90308,90360,90334
 1.8000e+000 90910 -6.3009e+001 -1.0938e+002 -8.2820e+000 45108 90688,90766,90714
 1.8000e+000 90887 -4.9341e+001 -1.0966e+002  2.3554e+000 45108 90662,90766,90688
 1.8000e+000 90864 -6.3565e+001 -1.0766e+002  3.8111e+000 45108 90636,90766,90662
 1.8000e+000 90841 -3.2964e+001 -1.4426e+002 -3.2147e+001 45108 90714,90766,90740
 1.8000e+000 90818 -6.1069e+001 -9.5339e+001 -2.0762e+000 45108 90636,90792,90766
 1.8000e+000 91158 -9.2090e+000 -7.9831e+001 -3.2644e+000 44604 91181,91011,90959
 1.8000e+000 91135 -3.2571e+001 -8.4859e+001 -8.8602e-001 44604 91181,90959,90933
 1.8000e+000 91112  4.9105e+000 -9.3547e+001  6.6149e+000 44604 90959,91011,90985
 1.8000e+000 91089 -1.3637e+000 -8.4579e+001 -1.0397e+001 44604 90933,91063,91037
 1.8000e+000 91207  6.1059e+000 -8.8501e+001 -1.4240e+001 44604 91037,91011,91181
 1.8000e+000 91230 -1.4930e+001 -8.7686e+001 -1.7548e+001 44604 91037,91181,90933
 1.8000e+000 91429 -6.3101e+000 -9.4338e+001 -5.8653e+000 44264 91452,91279,91253
 1.8000e+000 91406 -4.1023e+000 -1.0231e+002 -6.6762e+000 44264 91452,91253,91357
 1.8000e+000 91383 -3.4927e+001 -9.1252e+001  7.9014e+000 44264 91279,91331,91305
 1.8000e+000 91478 -5.2424e+000 -9.1433e+001 -5.2978e+000 44264 91331,91279,91452
 1.8000e+000 91501  5.2781e-001 -9.5588e+001 -4.5368e+000 44264 91331,91452,91357
 1.8000e+000 92060 -6.3588e+001 -1.1133e+002 -1.3908e+001 43860 92083,91740,91688
 1.8000e+000 92037 -1.4667e+001 -1.1979e+002  7.0877e+000 43860 92083,91688,91896
 1.8000e+000 92014 -3.3238e+001 -1.1816e+002  9.7361e+000 43860 91766,91870,91844
 1.8000e+000 91991 -3.3367e+001 -1.0407e+002  8.6335e+000 43860 91740,91870,91766
 1.8000e+000 91968  1.3091e+001 -1.1008e+002  2.6128e+000 43860 91766,91844,91792
 1.8000e+000 91945 -3.3319e+001 -1.6092e+002 -6.3849e+001 43860 91688,91740,91714
 1.8000e+000 91922 -1.4410e+001 -1.1697e+002 -3.3790e+000 43860 91792,91844,91818
 1.8000e+000 92109 -2.2391e+001 -1.0203e+002  8.1009e+000 43860 91870,91740,92083
 1.8000e+000 92132  2.9663e+001 -1.0179e+002  3.2504e+001 43860 91870,92083,91896
 1.8000e+000 92353  4.6374e+000 -9.3796e+001 -1.1145e+001 43662 92203,92255,92229
 1.8000e+000 92330 -1.3210e+001 -1.0291e+002 -4.0686e+000 43662 92376,92203,92281
 1.8000e+000 92307  9.7790e+000 -6.6094e+001  6.0002e+000 43662 92177,92281,92203
 1.8000e+000 92402 -4.0153e+001 -1.1430e+002  2.5726e+000 43662 92255,92203,92376
 1.8000e+000 92682  5.8156e+000 -1.1400e+002 -1.2151e+001 43464 92532,92584,92558
 1.8000e+000 92659 -1.0671e+000 -8.9448e+001 -3.8263e+000 43464 92506,92584,92532
 1.8000e+000 92636 -1.5554e+001 -9.3043e+001 -5.8133e+000 43464 92506,92610,92584
 1.8000e+000 93013  1.3940e+000 -1.0875e+002 -1.2711e+001 42960 92866,92918,92892
 1.8000e+000 92990 -7.7463e+000 -1.0830e+002 -4.5272e+000 42960 93036,92918,92866
 1.8000e+000 92967  3.8790e+000 -1.1583e+002  4.5681e-001 42960 93036,92866,92840
 1.8000e+000 92944 -6.4267e+000 -1.1305e+002 -2.4605e-001 42960 92788,92918,92814
 1.8000e+000 93062 -1.3735e+000 -1.0930e+002  1.3872e+000 42960 92814,92918,93036
 1.8000e+000 93085  2.3499e+001 -1.0668e+002  7.2350e+000 42960 92814,93036,92840
 1.8000e+000 93186 -3.1658e+001 -8.4648e+001 -8.8075e+000 42556 93108,93160,93134
 1.8000e+000 93554 -3.4059e+001 -1.1665e+002  1.9345e+000 42052 93231,93387,93361
 1.8000e+000 93531 -3.7232e+001 -1.0926e+002  1.7095e+001 42052 93231,93413,93387
 1.8000e+000 93508 -4.8189e+001 -1.1016e+002  4.0366e+000 42052 93231,93361,93257
 1.8000e+000 93485 -2.3027e+001 -8.6056e+001  1.0598e+001 42052 93283,93361,93335
 1.8000e+000 93462 -3.0570e+001 -1.0069e+002  7.6416e+000 42052 93257,93361,93283
 1.8000e+000 93439  7.2446e+000 -7.0899e+001 -6.0277e-001 42052 93283,93335,93309
 1.8000e+000 94162 -1.2991e+001 -9.9726e+001 -5.8155e+000 41498 93767,93975,93793
 1.8000e+000 94139 -4.9265e-001 -9.2658e+001  5.3223e+000 41498 93741,93975,93767
 1.8000e+000 94116 -2.8653e+001 -7.6722e+001 -5.4401e-001 41498 93793,93975,93923
 1.8000e+000 94093 -3.9050e+001 -1.0117e+002  3.5519e+000 41498 93923,93975,93949
 1.8000e+000 94070 -3.6213e+001 -4.5916e+001 -1.2645e+001 41498 93871,93923,93897
 1.8000e+000 94047 -1.0780e+001 -6.3927e+001 -7.4543e+000 41498 93793,93923,93871
 1.8000e+000 94024 -4.7503e+000 -5.7396e+001 -1.8495e+000 41498 93819,93871,93845
 1.8000e+000 94001 -1.5726e+001 -6.0217e+001 -3.7648e+000 41498 93793,93871,93819
 1.8000e+000 94619 -2.4068e+001 -8.3722e+001 -3.1268e+001 40930 94642,94423,94371
 1.8000e+000 94596 -2.1603e+000 -7.7112e+001 -2.4827e+001 40930 94642,94371,94345
 1.8000e+000 94573 -5.0364e+000 -8.6663e+001 -8.9442e+000 40930 94345,94501,94475
 1.8000e+000 94550 -9.3273e-001 -8.7494e+001 -3.8510e+001 40930 94371,94423,94397
 1.8000e+000 94527 -2.2155e+001 -6.3056e+001 -3.8609e+000 40930 94423,94475,94449
 1.8000e+000 94668 -1.2392e+001 -7.4626e+001 -1.6385e+001 40930 94475,94423,94642
 1.8000e+000 94691  1.0897e+000 -7.7429e+001 -1.1595e+001 40930 94475,94642,94345
 1.8000e+000 95148 -1.5701e+001 -8.9161e+001  2.1227e+001 40362 95171,94952,94926
 1.8000e+000 95125 -8.8408e+000 -8.7911e+001  1.4470e+001 40362 95171,94926,95004
 1.8000e+000 95102 -1.5985e+001 -8.9730e+001  1.3248e+001 40362 94874,95004,94926
 1.8000e+000 95079  4.3670e+001 -8.0111e+001  3.5062e+001 40362 94874,95030,95004
 1.8000e+000 95056 -9.2853e+000 -1.1230e+002 -2.2734e+001 40362 94874,94926,94900
 1.8000e+000 95197 -1.1349e+001 -9.7067e+001  2.4855e+001 40362 94978,94952,95171
 1.8000e+000 95220 -6.0466e+000 -9.6116e+001  1.8379e+001 40362 94978,95171,95004
 1.8000e+000 95549 -2.8522e+001 -7.8500e+001  1.5402e+000 39586 95350,95402,95376
 1.8000e+000 95526  4.8300e-001 -6.7129e+001 -2.4743e+000 39586 95324,95402,95350
 1.8000e+000 95503 -1.4119e+001 -6.9772e+001  1.8077e+001 39586 95324,95454,95402
 1.8000e+000 95480 -1.6169e+001 -9.3286e+001  1.7577e+001 39586 95402,95454,95428
 1.8000e+000 96055 -3.1744e+000 -5.2060e+001 -4.4381e+000 38968 96078,95862,95810
 1.8000e+000 96032 -1.4046e+001 -5.6901e+001 -8.7196e+000 38968 96078,95810,95758
 1.8000e+000 96009  5.5176e+000 -6.9452e+001 -1.3124e+001 38968 96150,95732,95888
 1.8000e+000 95986 -5.4700e+000 -4.9819e+001 -3.2016e-001 38968 95810,95862,95836
 1.8000e+000 95963  9.9713e+000 -6.5354e+001 -1.6508e+001 38968 95732,95914,95888
 1.8000e+000 95940 -2.2893e+001 -5.6922e+001 -2.8946e-001 38968 95758,95810,95784
 1.8000e+000 96104 -9.5020e+000 -5.8610e+001 -7.8716e-001 38968 95888,95862,96078
 1.8000e+000 96127 -6.4589e+000 -6.5613e+001 -2.0058e+000 38968 96150,95888,96078
 1.8000e+000 96176  2.2795e+001 -5.2443e+001 -2.1959e+001 38968 95758,95732,96150
 1.8000e+000 96199  1.0029e+001 -4.5805e+001 -1.1463e+001 38968 95758,96150,96078
 1.8000e+000 96545 -1.2552e+001 -8.2016e+001 -4.9281e+000 38507 96640,96568,96352
 1.8000e+000 96522 -2.7240e+001 -1.0404e+002  5.6463e+000 38507 96568,96300,96222
 1.8000e+000 96499 -7.2238e+000 -7.1748e+001 -2.3217e+001 38507 96640,96352,96326
 1.8000e+000 96476 -2.0897e+001 -8.4390e+001  6.9884e+000 38507 96352,96404,96378
 1.8000e+000 96453 -3.7398e+001 -1.2609e+002  2.3387e+000 38507 96222,96300,96248
 1.8000e+000 96430 -4.0508e+001 -1.5480e+002 -3.8638e+000 38507 96248,96300,96274
 1.8000e+000 96594 -2.0296e+001 -9.7456e+001  8.0947e-001 38507 96404,96352,96568
 1.8000e+000 96617 -1.9493e+001 -9.8662e+001  1.4208e+000 38507 96404,96568,96222
 1.8000e+000 96666 -2.5060e+001 -1.0959e+002  1.1652e+000 38507 96300,96568,96640
 1.8000e+000 96689 -2.3997e+001 -1.0178e+002 -1.5446e+001 38507 96300,96640,96326
 1.8000e+000 97069 -8.5342e+000 -4.6624e+001 -6.1002e+000 37760 97092,96873,96821
 1.8000e+000 97046 -1.3491e+001 -4.9266e+001 -7.1825e-001 37760 97092,96821,96795
 1.8000e+000 97023 -8.4766e+000 -6.3708e+001 -1.3358e+000 37760 96821,96873,96847
 1.8000e+000 97000  5.0796e+000 -3.0297e+001 -1.0742e+001 37760 96873,96925,96899
 1.8000e+000 96977  2.6948e+000 -1.9938e+001 -1.7968e+001 37760 96795,96951,96925
 1.8000e+000 97118 -2.5206e+000 -3.8318e+001 -1.4100e+001 37760 96925,96873,97092
 1.8000e+000 97141 -1.7841e+001 -4.5657e+001 -7.8379e+000 37760 96925,97092,96795
 1.8000e+000 97647 -4.1590e+001 -9.0778e+001  2.2158e+000 37356 97324,97480,97376
 1.8000e+000 97624 -2.3026e+001 -8.5379e+001  5.4515e+000 37356 97324,97506,97480
 1.8000e+000 97601 -4.6750e+001 -8.7563e+001  1.7042e+000 37356 97376,97480,97454
 1.8000e+000 97578 -4.7708e+001 -9.6157e+001  6.1602e+000 37356 97324,97376,97350
 1.8000e+000 97555 -1.2771e+001 -6.6526e+001  1.6109e+001 37356 97376,97454,97402
 1.8000e+000 97532 -6.3827e+001 -1.1472e+002 -4.2094e+000 37356 97402,97454,97428
 1.8000e+000 98232 -1.0432e+001 -4.2511e+001 -4.2595e+000 36902 97935,98065,98013
 1.8000e+000 98209  1.4493e+001 -3.5319e+001 -5.2766e+000 36902 97935,98091,98065
 1.8000e+000 98186 -2.6633e+000 -4.0953e+001 -4.0860e+000 36902 97935,98013,97987
 1.8000e+000 98163  7.3385e+000 -8.4118e+000 -7.0903e+000 36902 97909,98091,97935
 1.8000e+000 98140  2.7027e+000 -3.1072e+001 -6.1471e+000 36902 97935,97987,97961
 1.8000e+000 98117 -1.4030e+001 -5.7693e+001  1.9339e+000 36902 98013,98065,98039
 1.8000e+000 98659 -9.4569e+000 -1.1153e+002 -4.6698e+000 36604 98682,98414,98388
 1.8000e+000 98636 -1.3853e+001 -1.1044e+002  8.0276e+000 36604 98682,98388,98336
 1.8000e+000 98613 -3.4169e+001 -1.0090e+002  3.1209e+000 36604 98754,98518,98466
 1.8000e+000 98590 -3.1027e+001 -7.9007e+001 -1.6353e+001 36604 98414,98466,98440
 1.8000e+000 98567  3.2797e+000 -1.5359e+002  1.0290e+001 36604 98336,98388,98362
 1.8000e+000 98544 -1.4802e+001 -1.1256e+002  5.8228e+001 36604 98466,98518,98492
 1.8000e+000 98708 -4.3109e+000 -9.1363e+001 -1.3761e+001 36604 98466,98414,98682
 1.8000e+000 98731 -2.4214e+001 -1.0479e+002  5.1170e-001 36604 98754,98466,98682
 1.8000e+000 98780 -2.3241e+001 -1.0404e+002  4.1641e+000 36604 98336,98518,98754
 1.8000e+000 98803 -8.5023e+000 -1.0392e+002  4.0999e+000 36604 98336,98754,98682
 1.8000e+000 99309 -1.6925e+001 -6.4552e+001  1.0962e+001 36200 99332,99116,99012
 1.8000e+000 99286 -1.5969e+001 -3.5557e+001 -2.7315e+000 36200 99332,99012,98986
 1.8000e+000 99263 -1.2282e+001 -5.2550e+001  1.0093e+001 36200 99012,99116,99064
 1.8000e+000 99240 -9.8208e+000 -5.3050e+001 -3.5280e+000 36200 98986,99168,99142
 1.8000e+000 99217 -2.5750e+001 -5.9821e+001  1.3138e+001 36200 99064,99116,99090
 1.8000e+000 99194 -2.8968e+001 -5.8610e+001 -9.6039e-001 36200 99012,99064,99038
 1.8000e+000 99358 -1.9948e+001 -8.4436e+001  1.9239e+001 36200 99142,99116,99332
 1.8000e+000 99381 -2.1600e+001 -6.5776e+001  2.6651e+000 36200 99142,99332,98986
 1.8000e+000 99887 -3.2186e+001 -7.2458e+001  3.4749e+000 35488 99564,99720,99590
 1.8000e+000 99864 -2.8230e+001 -6.4480e+001  6.7555e+000 35488 99564,99746,99720
 1.8000e+000 99841 -6.3888e+000 -7.5816e+001  3.2684e+000 35488 99642,99694,99668
 1.8000e+000 99818 -2.1333e+001 -8.4782e+001  8.3181e+000 35488 99590,99694,99642
 1.8000e+000 99795 -1.0048e+001 -6.7175e+001  3.4779e+000 35488 99590,99720,99694
 1.8000e+000 99772  2.8125e+000 -1.1105e+002  1.2219e+001 35488 99590,99642,99616
 1.8000e+000 99988 -4.2055e+000 -5.0776e+001  3.7866e+000 35198 99910,99962,99936
 1.8000e+000 100138 -6.3193e+000 -9.3528e+001  7.3253e+000 34794 100233,100161,100063
 1.8000e+000 100115 -3.5329e+001 -1.1028e+002  1.2393e+000 34794 100365,100161,100037
 1.8000e+000 100187  3.5324e+000 -9.1014e+001  5.0629e+000 34794 100089,100063,100161
 1.8000e+000 100210  2.8240e+000 -8.7268e+001  7.5578e+000 34794 100089,100161,100011
 1.8000e+000 100259 -2.5140e+001 -1.2592e+002 -1.1865e+001 34794 100037,100161,100233
 1.8000e+000 100391  2.1201e+001 -6.5576e+001 -1.8577e+001 34794 100011,100161,100365
 1.8000e+000 100927 -3.2177e+000 -6.6741e+001 -2.4967e+000 34404 100679,100809,100783
 1.8000e+000 100904  3.6502e+000 -6.5578e+001 -1.3994e+000 34404 100653,100809,100679
 1.8000e+000 100881 -1.3609e+001 -7.8960e+001 -1.2844e+000 34404 100705,100783,100731
 1.8000e+000 100858 -1.1556e+001 -7.2428e+001  2.1266e+000 34404 100679,100783,100705
 1.8000e+000 100835 -2.5214e+001 -8.8946e+001 -1.1588e+001 34404 100731,100783,100757
 1.8000e+000 101354 -2.8771e+001 -9.6749e+001  9.4148e+000 34000 101377,101109,101057
 1.8000e+000 101331 -5.0643e+001 -1.0732e+002  6.1506e+000 34000 101449,101377,101057
 1.8000e+000 101308 -5.6689e+001 -1.0076e+002  5.1886e+000 34000 101449,101057,101031
 1.8000e+000 101285 -5.0800e+001 -9.8653e+001  1.8476e+001 34000 101031,101213,101187
 1.8000e+000 101262 -3.8955e+001 -1.1966e+002 -1.6767e+001 34000 101135,101187,101161
 1.8000e+000 101239 -4.1321e+001 -1.1254e+002  1.5228e+001 34000 101057,101109,101083
 1.8000e+000 101403 -3.8618e+001 -9.7830e+001 -4.6107e+000 34000 101135,101109,101377
 1.8000e+000 101426 -5.2756e+001 -1.0354e+002 -5.7652e+000 34000 101135,101377,101187
 1.8000e+000 101475 -3.9206e+001 -1.0074e+002  2.1098e+000 34000 101187,101377,101449
 1.8000e+000 101498 -4.8484e+001 -9.8016e+001  3.1363e+000 34000 101187,101449,101031
 1.8000e+000 102083  7.6106e+000 -6.4562e+001  1.0890e+000 33472 102106,101812,101786
 1.8000e+000 102060 -1.0847e+001 -6.9652e+001 -2.4195e+000 33472 102106,101786,101916
 1.8000e+000 102037 -2.2186e+001 -8.0045e+001 -1.1257e+001 33472 101812,101864,101838
 1.8000e+000 102014 -8.9999e+000 -8.7893e+001 -8.8893e+000 33472 101864,101916,101890
 1.8000e+000 101991 -2.6857e+001 -7.4286e+001 -6.7255e+000 33472 101786,101942,101916
 1.8000e+000 101968 -3.3132e+001 -7.4265e+001  8.0350e+000 33472 101760,101942,101786
 1.8000e+000 102132 -4.7494e+000 -6.8469e+001 -6.0357e+000 33472 101864,101812,102106
 1.8000e+000 102155 -1.2137e+001 -6.8721e+001 -1.0423e+001 33472 101864,102106,101916
 1.8000e+000 102612 -2.3407e+001 -8.1539e+001 -2.8376e+001 33038 102635,102468,102390
 1.8000e+000 102589 -3.8128e+001 -1.0343e+002 -3.8042e+001 33038 102635,102390,102364
 1.8000e+000 102566 -1.2533e+001 -7.6149e+001 -2.5768e+001 33038 102390,102468,102442
 1.8000e+000 102543  5.1899e+000 -7.2061e+001 -1.1114e+001 33038 102338,102494,102364
 1.8000e+000 102520 -1.0070e+001 -6.8041e+001 -1.2569e+001 33038 102390,102442,102416
 1.8000e+000 102661 -2.2304e+001 -7.6011e+001 -1.6092e+001 33038 102494,102468,102635
 1.8000e+000 102684 -2.5339e+001 -8.8247e+001 -2.3573e+001 33038 102494,102635,102364
 1.8000e+000 103318 -2.8224e+001 -6.2024e+001  9.0121e-001 32402 102972,103128,103076
 1.8000e+000 103295 -2.9468e+001 -6.5608e+001 -4.5038e-001 32402 102946,103128,102972
 1.8000e+000 103272 -3.1170e+001 -6.9730e+001  2.2734e+000 32402 103076,103128,103102
 1.8000e+000 103249 -2.5341e+001 -6.2659e+001  1.5231e+001 32402 102946,103154,103128
 1.8000e+000 103226 -2.6145e+001 -5.5435e+001 -4.5081e+000 32402 102972,103076,102998
 1.8000e+000 103203 -2.6087e+001 -6.0228e+001 -7.8806e+000 32402 102998,103076,103050
 1.8000e+000 103180 -2.9991e+001 -4.9705e+001 -1.0768e+001 32402 102998,103050,103024
 1.8000e+000 103696 -3.5144e+001 -9.9986e+001 -5.2913e-001 31924 103448,103526,103500
 1.8000e+000 103673 -1.3862e+001 -9.4447e+001 -1.4673e+001 31924 103448,103578,103526
 1.8000e+000 103650 -2.7279e+001 -9.3279e+001 -3.5986e+000 31924 103448,103500,103474
 1.8000e+000 103627 -1.9398e+001 -1.0177e+002 -1.7098e+001 31924 103422,103578,103448
 1.8000e+000 103604 -2.8050e+001 -1.3566e+002 -3.1985e+000 31924 103526,103578,103552
 1.8000e+000 104281 -8.5056e+000 -4.6740e+001  7.3175e-001 31520 104304,104062,104036
 1.8000e+000 104258 -3.0247e+001 -4.7294e+001 -2.0663e+000 31520 104304,104036,103984
 1.8000e+000 104235 -2.2421e+001 -4.7487e+001 -2.5024e+001 31520 104062,104114,104088
 1.8000e+000 104212 -2.0597e+001 -4.9260e+001 -7.7037e+000 31520 103958,104114,103984
 1.8000e+000 104189 -3.3624e+001 -5.5234e+001 -3.6858e+000 31520 103984,104036,104010
 1.8000e+000 104166 -1.2590e+001 -5.6585e+001 -1.0471e+001 31520 103958,104140,104114
 1.8000e+000 104330 -2.6381e+000 -5.1036e+001 -8.7794e+000 31520 104114,104062,104304
 1.8000e+000 104353 -1.4437e+001 -4.6672e+001 -7.6183e+000 31520 104114,104304,103984
 1.8000e+000 104704 -7.1437e+000 -3.7881e+001 -8.6232e-001 31066 104479,104583,104505
 1.8000e+000 104681  6.3650e+000 -2.7823e+001 -5.5674e+000 31066 104479,104609,104583
 1.8000e+000 104658 -9.6057e-001 -5.5748e+001  3.8421e-001 31066 104505,104557,104531
 1.8000e+000 104635  8.0707e-001 -3.9608e+001 -2.3611e+000 31066 104505,104583,104557
 1.8000e+000 104925 -7.9283e+000 -1.0745e+002  1.3223e-001 30754 104775,104827,104801
 1.8000e+000 104902 -6.8498e+000 -8.6407e+001 -3.6839e-001 30754 104775,104853,104827
 1.8000e+000 104879  1.7031e+000 -8.2409e+001  4.4208e+000 30754 104749,104853,104775
 1.8000e+000 105482 -1.3482e+001 -8.1273e+001  6.6743e+000 30164 105505,105136,105110
 1.8000e+000 105459 -3.4427e+001 -9.8335e+001  1.4032e+001 30164 105649,105505,105110
 1.8000e+000 105436 -2.9678e+001 -8.3333e+001 -3.3897e-001 30164 105577,105188,105136
 1.8000e+000 105413 -5.1560e+001 -1.0704e+002  2.2863e+001 30164 105649,105110,105318
 1.8000e+000 105390 -4.0052e+001 -1.2386e+002  1.9101e+001 30164 105214,105292,105240
 1.8000e+000 105367 -1.6900e+001 -1.1333e+002  1.5643e+001 30164 105240,105292,105266
 1.8000e+000 105344 -2.6936e+001 -7.3287e+001 -3.6267e+000 30164 105136,105188,105162
 1.8000e+000 105531 -3.1151e+001 -8.3224e+001  4.9377e+000 30164 105577,105136,105505
 1.8000e+000 105554 -1.8279e+001 -7.7612e+001  4.9804e+000 30164 105214,105505,105292
 1.8000e+000 105603 -2.7402e+001 -7.6215e+001 -1.4847e+000 30164 105214,105188,105577
 1.8000e+000 105626 -2.8004e+001 -7.5333e+001  3.5310e+000 30164 105214,105577,105505
 1.8000e+000 105675 -2.8836e+001 -8.8539e+001  5.7127e-001 30164 105292,105505,105649
 1.8000e+000 105698 -3.1170e+001 -8.5846e+001  7.7723e+000 30164 105292,105649,105318
 1.8000e+000 106027  2.2696e+000 -5.5482e+001  3.5233e+000 29868 106322,106050,105880
 1.8000e+000 106004 -1.6761e+001 -5.1458e+001 -5.4051e+000 29868 106250,106050,105828
 1.8000e+000 105981 -1.7758e+001 -5.2967e+001 -7.5640e+000 29868 106250,105828,105802
 1.8000e+000 105958 -9.2390e+000 -4.6834e+001  1.3888e+001 29868 106322,105880,106122
 1.8000e+000 106076 -1.1134e+001 -8.0506e+001 -2.6064e+000 29868 105906,105880,106050
 1.8000e+000 106099 -1.0453e+001 -5.8818e+001 -7.3802e+000 29868 105906,106050,105932
 1.8000e+000 106148 -3.8835e+001 -7.5984e+001  7.3072e+000 29868 105854,105828,106122
 1.8000e+000 106276 -1.8481e+001 -5.3814e+001 -8.3489e+000 29868 105932,106050,106250
 1.8000e+000 106299 -2.2416e+001 -5.7454e+001 -1.0945e+001 29868 105932,106250,105802
 1.8000e+000 106348 -1.8485e+001 -6.3518e+001  5.6595e-001 29868 105828,106050,106322
 1.8000e+000 106371 -2.7874e+001 -5.3564e+001  1.0947e+001 29868 105828,106322,106122
 1.8000e+000 106828 -9.0784e+000 -4.7121e+001 -3.7838e+000 29521 106580,106710,106684
 1.8000e+000 106805 -1.9809e+001 -4.9239e+001 -1.4518e+001 29521 106554,106710,106580
 1.8000e+000 106782 -1.4527e+001 -4.5152e+001 -3.2730e+000 29521 106580,106684,106606
 1.8000e+000 106759 -2.8407e+001 -7.0708e+001 -9.9196e+000 29521 106606,106684,106658
 1.8000e+000 106736 -9.1921e+000 -4.6580e+001  4.8237e-002 29521 106606,106658,106632
 1.8000e+000 107027 -2.2951e+001 -8.5216e+001 -5.9465e+000 29117 106877,106929,106903
 1.8000e+000 107004 -1.5039e+001 -8.1909e+001 -1.1394e+001 29117 106851,106929,106877
 1.8000e+000 106981 -1.9051e+001 -9.4877e+001 -8.6376e+000 29117 106851,106955,106929
 1.8000e+000 107456 -2.9132e+001 -1.0227e+002 -1.5437e+001 28656 107237,107315,107263
 1.8000e+000 107433 -1.1681e+001 -7.2020e+001 -6.1700e+000 28656 107133,107315,107237
 1.8000e+000 107410 -5.0523e+000 -6.1940e+001 -9.5958e+000 28656 107133,107237,107159
 1.8000e+000 107387  2.6688e+000 -4.5233e+001 -1.4475e+001 28656 107159,107237,107185
 1.8000e+000 107364 -4.9686e+000 -4.4137e+001  5.5262e-001 28656 107185,107237,107211
 1.8000e+000 107341 -1.1038e+001 -6.3029e+001 -9.4257e+000 28656 107263,107315,107289
 1.8000e+000 107704 -1.7919e+001 -7.9968e+001  2.3303e+000 27902 107727,107557,107531
 1.8000e+000 107681 -1.2431e+001 -7.3879e+001  5.0527e+000 27902 107727,107531,107505
 1.8000e+000 107658 -2.3706e+001 -8.1280e+001 -3.7704e+000 27902 107557,107609,107583
 1.8000e+000 107635 -3.4451e+001 -7.3148e+001  3.7401e+000 27902 107479,107609,107505
 1.8000e+000 107753 -2.4073e+001 -7.4197e+001 -7.9795e-001 27902 107609,107557,107727
 1.8000e+000 107776 -1.9302e+001 -6.9446e+001  1.5462e+000 27902 107609,107727,107505
 1.8000e+000 108333 -3.4399e+001 -1.0794e+002 -8.8344e-001 27341 108356,108065,108013
 1.8000e+000 108310 -3.6629e+001 -1.0617e+002 -1.2911e+001 27341 108356,108013,108143
 1.8000e+000 108287 -2.2049e+001 -1.2010e+002 -1.1920e+001 27341 108428,108117,108091
 1.8000e+000 108264 -4.6223e+001 -1.1050e+002  2.8099e+000 27341 108013,108065,108039
 1.8000e+000 108241 -6.1602e+001 -9.8192e+001 -1.4864e+001 27341 107987,108143,108013
 1.8000e+000 108218 -3.4262e+001 -8.6287e+001 -1.8540e+001 27341 107987,108169,108143
 1.8000e+000 108195 -2.8881e+001 -8.1880e+001 -1.6580e+001 27341 107961,108169,107987
 1.8000e+000 108382 -3.9683e+001 -1.2217e+002  1.4846e+000 27341 108091,108065,108356
 1.8000e+000 108405 -3.0587e+001 -1.0696e+002 -6.3922e+000 27341 108428,108091,108356
 1.8000e+000 108454 -3.7859e+001 -1.4111e+002 -1.8938e+001 27341 108143,108117,108428
 1.8000e+000 108477 -4.4247e+001 -1.2395e+002 -1.2733e+001 27341 108143,108428,108356
 1.8000e+000 108725 -3.4603e+000 -8.5681e+001 -5.5326e+000 27029 108748,108526,108500
 1.8000e+000 108702 -8.0430e+000 -6.7432e+001 -2.5778e+000 27029 108748,108500,108630
 1.8000e+000 108679 -1.9704e+001 -8.4907e+001 -2.0805e+000 27029 108578,108630,108604
 1.8000e+000 108656  2.2840e+000 -7.4861e+001  1.6496e+001 27029 108526,108578,108552
 1.8000e+000 108774 -8.0047e+000 -9.4523e+001 -7.3304e+000 27029 108578,108526,108748
 1.8000e+000 108797 -1.7010e+001 -8.1784e+001 -6.3933e+000 27029 108578,108748,108630
 1.8000e+000 109045 -1.3013e+001 -8.1044e+001 -4.9104e+000 26610 108872,108924,108898
 1.8000e+000 109022 -1.1833e+001 -7.6398e+001 -2.7936e+000 26610 108872,108950,108924
 1.8000e+000 108999 -1.4557e+001 -8.1442e+001 -3.9905e+000 26610 108846,108950,108872
 1.8000e+000 108976 -2.8476e+000 -8.3684e+001 -1.7607e+000 26610 108820,108950,108846
 1.8000e+000 109366 -2.4289e+001 -1.1653e+002 -1.7733e+000 26006 109144,109222,109196
 1.8000e+000 109343 -1.4511e+001 -1.1456e+002 -3.5578e-001 26006 109118,109222,109144
 1.8000e+000 109320 -3.4162e+001 -1.2661e+002  5.9094e+000 26006 109092,109222,109118
 1.8000e+000 109297 -3.3057e+001 -1.1977e+002 -6.9231e+000 26006 109144,109196,109170
 1.8000e+000 109274 -9.8954e+000 -9.4281e+001 -5.1111e+000 26006 109092,109248,109222
 1.8000e+000 109567 -1.8994e+001 -8.4152e+001 -3.3566e+000 25659 109391,109469,109443
 1.8000e+000 109544 -1.3675e+001 -8.1666e+001 -4.0793e+000 25659 109391,109495,109469
 1.8000e+000 109521 -2.1389e+001 -7.4967e+001  1.1346e+000 25659 109391,109443,109417
 1.8000e+000 109900 -3.0967e+001 -7.7123e+001 -9.5498e+000 25255 109923,109779,109753
 1.8000e+000 109877 -2.9263e+001 -7.2297e+001 -8.2495e+000 25255 109923,109753,109701
 1.8000e+000 109854 -3.1362e+001 -6.2819e+001 -1.1953e+001 25255 109675,109805,109701
 1.8000e+000 109831 -4.0157e+001 -6.7635e+001 -9.6559e+000 25255 109701,109753,109727
 1.8000e+000 109949 -3.1636e+001 -8.3827e+001 -1.4369e+001 25255 109805,109779,109923
 1.8000e+000 109972 -2.7819e+001 -7.5094e+001 -1.3006e+001 25255 109805,109923,109701
 1.8000e+000 110220 -3.6942e+001 -8.4587e+001  8.4648e+000 24701 110243,110021,109995
 1.8000e+000 110197 -3.6715e+001 -8.7942e+001  6.2234e-001 24701 110243,109995,110099
 1.8000e+000 110174 -3.0615e+001 -8.4114e+001  2.4828e+000 24701 110315,110073,110047
 1.8000e+000 110151 -3.1715e+001 -9.1304e+001  5.9483e-001 24701 109995,110125,110099
 1.8000e+000 110269 -2.8727e+001 -8.1168e+001  9.1355e+000 24701 110047,110021,110243
 1.8000e+000 110292 -4.0663e+001 -8.4050e+001  5.6142e+000 24701 110315,110047,110243
 1.8000e+000 110341 -4.2947e+000 -7.7552e+001  2.2883e+000 24701 110099,110073,110315
 1.8000e+000 110364 -2.1709e+001 -8.1497e+001  3.8432e+000 24701 110099,110315,110243
 1.8000e+000 110661 -1.3529e+001 -9.3009e+001 -5.7360e+000 24197 110684,110413,110387
 1.8000e+000 110638 -6.2334e+000 -7.8061e+001 -8.5007e+000 24197 110684,110387,110543
 1.8000e+000 110615 -1.7866e+000 -1.2434e+002  1.8599e+000 24197 110756,110491,110465
 1.8000e+000 110592  1.9150e+001 -9.5775e+001  1.7754e+000 24197 110413,110465,110439
 1.8000e+000 110569 -2.7924e+001 -1.8754e+002 -1.5274e+001 24197 110491,110543,110517
 1.8000e+000 110710 -2.2963e+000 -8.6312e+001  9.6715e-001 24197 110465,110413,110684
 1.8000e+000 110733 -1.2970e+001 -1.1045e+002 -8.8002e-001 24197 110756,110465,110684
 1.8000e+000 110782  1.8235e+000 -1.0843e+002 -1.0693e+001 24197 110543,110491,110756
 1.8000e+000 110805 -3.1257e+000 -8.7115e+001 -1.3919e+001 24197 110543,110756,110684
 1.8000e+000 111315 -3.5382e+001 -1.0074e+002 -7.5547e+000 23593 111044,111148,111070
 1.8000e+000 111292 -3.9275e+001 -9.2732e+001 -3.8588e+000 23593 111044,111174,111148
 1.8000e+000 111269 -2.2623e+001 -7.4936e+001  4.2524e+000 23593 111070,111122,111096
 1.8000e+000 111246 -4.2764e+001 -1.1565e+002 -1.0032e+001 23593 111070,111148,111122
 1.8000e+000 111223 -4.5850e+001 -9.1851e+001 -1.1235e+001 23593 111018,111174,111044
 1.8000e+000 111200 -2.4376e+001 -9.5723e+001 -6.6886e+000 23593 110992,111174,111018
 1.8000e+000 111821  8.9465e+000 -1.0122e+002 -4.5324e+000 23089 111916,111844,111628
 1.8000e+000 111798 -1.6140e+001 -1.1428e+002 -9.7579e+000 23089 111844,111550,111524
 1.8000e+000 111775  1.4327e+001 -9.6659e+001 -2.4182e+000 23089 111916,111628,111602
 1.8000e+000 111752 -1.0740e+001 -1.6470e+002 -4.6749e+000 23089 111498,111680,111524
 1.8000e+000 111729 -9.4571e+000 -8.9534e+001 -1.2177e+000 23089 111550,111602,111576
 1.8000e+000 111706  1.4454e+001 -7.2099e+001 -1.2487e+001 23089 111628,111680,111654
 1.8000e+000 111870 -7.3283e+000 -1.0034e+002  3.2014e-001 23089 111680,111628,111844
 1.8000e+000 111893 -1.0107e+001 -1.0615e+002  6.2320e+000 23089 111680,111844,111524
 1.8000e+000 111942 -5.1686e+000 -9.1543e+001 -6.4582e+000 23089 111550,111844,111916
 1.8000e+000 111965  1.8985e+000 -8.5975e+001 -4.0000e+000 23089 111550,111916,111602
 1.8000e+000 112164  2.6975e+001 -7.6362e+001 -2.1353e+001 22626 112187,112014,111988
 1.8000e+000 112141 -1.1932e+001 -8.1505e+001 -1.0161e+001 22626 112259,112187,111988
 1.8000e+000 112118 -1.3759e+001 -8.6056e+001 -3.8875e+000 22626 112259,111988,112092
 1.8000e+000 112213 -9.5262e+000 -6.8050e+001 -2.6757e+001 22626 112040,112014,112187
 1.8000e+000 112236 -2.9846e+001 -6.8963e+001 -5.4867e+000 22626 112040,112187,112066
 1.8000e+000 112285 -1.1317e+001 -7.1141e+001 -1.3082e+001 22626 112066,112187,112259
 1.8000e+000 112308 -1.0909e+001 -7.4159e+001 -7.3741e+000 22626 112066,112259,112092
 1.8000e+000 112605 -1.7923e+000 -9.5951e+001  8.5925e+000 22286 112628,112383,112357
 1.8000e+000 112582 -2.1147e+001 -1.0024e+002  4.5860e+000 22286 112772,112628,112357
 1.8000e+000 112559 -3.7669e+001 -1.1443e+002  6.1982e+000 22286 112700,112435,112409
 1.8000e+000 112536 -3.4858e+001 -1.0337e+002  5.7995e+000 22286 112772,112357,112331
 1.8000e+000 112513 -4.5704e+001 -9.3565e+001  9.5032e-002 22286 112435,112487,112461
 1.8000e+000 112654 -1.1128e+001 -8.0720e+001 -4.2359e+000 22286 112409,112383,112628
 1.8000e+000 112677 -2.9558e+001 -9.8515e+001  3.0156e+000 22286 112700,112409,112628
 1.8000e+000 112726 -3.0838e+001 -1.0387e+002 -5.1395e+000 22286 112487,112435,112700
 1.8000e+000 112749 -2.8678e+001 -1.0115e+002 -7.3215e+000 22286 112487,112700,112628
 1.8000e+000 112798 -1.5373e+001 -1.0052e+002  2.2122e+000 22286 112487,112628,112772
 1.8000e+000 112821 -1.8521e+001 -9.7117e+001  3.7359e+000 22286 112487,112772,112331
 1.8000e+000 112924  2.0261e+000 -3.1915e+001 -5.0312e+000 21974 112846,112898,112872
 1.8000e+000 113223 -5.5786e+001 -1.2382e+002  9.9070e+000 21420 112949,113053,112975
 1.8000e+000 113200 -5.1752e+001 -1.0355e+002  1.0011e+001 21420 112949,113079,113053
 1.8000e+000 113177 -3.3821e+001 -1.1435e+002  8.7022e+000 21420 112975,113053,113001
 1.8000e+000 113154 -6.1052e+001 -1.2230e+002  7.4949e+000 21420 113001,113053,113027
 1.8000e+000 113131 -6.0719e+001 -9.6384e+001  3.6680e+000 21420 112949,113105,113079
 1.8000e+000 113605 -2.3776e+001 -1.2757e+002  2.3205e+001 20716 113331,113435,113357
 1.8000e+000 113582 -3.0507e+001 -7.3551e+001  2.7504e+001 20716 113331,113461,113435
 1.8000e+000 113559 -1.9225e+001 -1.1930e+002 -4.4177e+000 20716 113383,113435,113409
 1.8000e+000 113536 -3.1903e+001 -1.1525e+002 -3.3398e+000 20716 113357,113435,113383
 1.8000e+000 113513 -6.8745e+000 -4.5327e+001  1.0009e+001 20716 113331,113487,113461
 1.8000e+000 113853 -2.4336e+001 -1.0943e+002  4.8069e+000 20290 113876,113680,113654
 1.8000e+000 113830 -1.6838e+001 -1.0820e+002  5.0129e+000 20290 113876,113654,113628
 1.8000e+000 113807 -2.7727e+001 -1.1091e+002 -1.0072e+000 20290 113948,113732,113680
 1.8000e+000 113784  1.2728e+001 -1.0227e+002 -6.6700e+000 20290 113680,113732,113706
 1.8000e+000 113902 -2.3335e+001 -1.0671e+002  4.5455e+000 20290 113948,113680,113876
 1.8000e+000 113925 -2.6109e+001 -1.0571e+002  5.7868e+000 20290 113758,113876,113628
 1.8000e+000 113974 -3.4022e+001 -1.0749e+002 -2.0076e+000 20290 113758,113732,113948
 1.8000e+000 113997 -3.4057e+001 -1.0826e+002  2.6545e+000 20290 113758,113948,113876
 1.8000e+000 114365 -2.6833e+001 -1.1020e+002  3.6721e-001 19900 114146,114198,114172
 1.8000e+000 114342 -2.7127e+001 -1.1042e+002 -2.1087e-001 19900 114042,114198,114146
 1.8000e+000 114319 -2.5665e+001 -1.1098e+002 -1.1972e+000 19900 114042,114224,114198
 1.8000e+000 114296 -4.0758e+001 -1.0729e+002 -1.2781e+000 19900 114094,114146,114120
 1.8000e+000 114273 -2.7493e+001 -1.0535e+002 -3.5856e+000 19900 114042,114146,114094
 1.8000e+000 114250 -1.3710e+001 -1.0335e+002 -7.6563e+000 19900 114042,114094,114068
 1.8000e+000 114566  2.4232e+000 -1.0458e+002  3.3699e+000 19496 114442,114494,114468
 1.8000e+000 114543 -2.1876e+001 -1.0316e+002 -8.3263e+000 19496 114416,114494,114442
 1.8000e+000 114520  1.2597e+001 -1.0280e+002 -1.4261e+001 19496 114390,114494,114416
 1.8000e+000 114767 -1.9513e+001 -1.0811e+002  1.2769e+000 19042 114790,114669,114643
 1.8000e+000 114744 -2.1953e+001 -1.0650e+002  1.9899e+000 19042 114790,114643,114591
 1.8000e+000 114721 -2.5406e+001 -1.2876e+002  8.0636e+000 19042 114591,114643,114617
 1.8000e+000 114816 -1.8378e+001 -1.0671e+002  6.8393e-001 19042 114695,114669,114790
 1.8000e+000 114839 -2.0340e+001 -1.0425e+002  1.2592e+000 19042 114695,114790,114591
 1.8000e+000 114991 -9.4173e+000 -1.0860e+002 -4.1377e+000 18488 114864,114916,114890
 1.8000e+000 114968 -1.5519e+001 -1.3129e+002  1.5287e-001 18488 114864,114942,114916
 1.8000e+000 115192 -1.2410e+001 -1.0133e+002 -1.8377e+000 18098 115215,115042,115016
 1.8000e+000 115169 -7.6331e+000 -9.2278e+001 -6.4523e+000 18098 115215,115016,115120
 1.8000e+000 115146 -1.1268e+001 -1.0418e+002  6.0644e-001 18098 115287,115094,115068
 1.8000e+000 115241 -8.8335e+000 -1.0585e+002 -5.6388e-001 18098 115068,115042,115215
 1.8000e+000 115264 -1.0275e+001 -1.0226e+002 -2.4646e-001 18098 115287,115068,115215
 1.8000e+000 115313 -9.2207e+000 -1.0490e+002 -2.2907e+000 18098 115120,115094,115287
 1.8000e+000 115336 -7.9831e+000 -1.0310e+002 -3.1588e+000 18098 115120,115287,115215
 1.8000e+000 115846 -1.8344e+000 -1.2505e+002 -2.6068e+001 17644 115653,115705,115679
 1.8000e+000 115823 -3.2349e+001 -1.1280e+002 -7.3784e+000 17644 115627,115705,115653
 1.8000e+000 115800 -1.8609e+001 -9.9806e+001  1.2831e+000 17644 115549,115705,115627
 1.8000e+000 115777 -2.3125e+001 -1.1307e+002  2.2491e+000 17644 115549,115627,115575
 1.8000e+000 115754 -3.1678e+000 -7.8366e+001  2.2995e+001 17644 115523,115705,115549
 1.8000e+000 115731 -1.8684e+001 -1.0335e+002 -4.3048e+000 17644 115575,115627,115601
 1.8000e+000 116067  7.6261e+000 -1.4523e+002 -4.8809e+000 17116 115891,115943,115917
 1.8000e+000 116044 -4.5284e+001 -1.6504e+002  8.8872e+000 17116 115891,115995,115943
 1.8000e+000 116021 -5.4816e+001 -1.3249e+002  1.1550e+000 17116 115943,115995,115969
 1.8000e+000 116288 -6.0712e-001 -1.0355e+002  1.7332e+001 16704 116164,116216,116190
 1.8000e+000 116265 -1.6309e+001 -1.3312e+002  1.0757e+001 16704 116112,116216,116164
 1.8000e+000 116242 -2.9369e+001 -1.2643e+002 -1.0894e+000 16704 116112,116164,116138
 1.8000e+000 116489 -2.7732e+001 -1.1443e+002  1.4074e+000 16434 116339,116417,116365
 1.8000e+000 116466 -2.8098e+001 -1.1527e+002  4.3057e-004 16434 116313,116417,116339
 1.8000e+000 116443 -8.2676e+001 -1.2519e+002  4.5670e+001 16434 116365,116417,116391
 1.8000e+000 116592 -2.9505e+001 -1.1391e+002 -4.9035e+000 15967 116514,116566,116540
 1.8000e+000 116695  2.0600e+001 -1.2133e+002 -2.1490e+001 15552 116617,116669,116643
 1.8000e+000 116798 -2.4310e+001 -1.0355e+002  0.0000e+000 421 116720,116772,116746
 1.9000e+000 69066  1.0009e+001 -4.6051e+002  3.6228e+001 68738 68965,69017,68991
 1.9000e+000 69043  1.7622e+000 -4.7165e+002  1.2615e+001 68738 68939,69017,68965
 1.9000e+000 69371  2.7678e+000 -5.7030e+001 -5.5258e+000 68426 69172,69250,69198
 1.9000e+000 69348 -1.3089e+001 -1.0136e+002  1.7432e+001 68426 69146,69250,69172
 1.9000e+000 69325 -6.7273e+000 -3.4994e+001  1.3270e+001 68426 69198,69250,69224
 1.9000e+000 69302  1.9998e+001 -1.5635e+002  1.0892e+001 68426 69146,69276,69250
 1.9000e+000 69521 -2.0371e+000 -8.1935e+001 -2.6462e+000 68228 69420,69472,69446
 1.9000e+000 69498 -1.0397e+001 -7.7734e+001 -8.5481e+000 68228 69394,69472,69420
 1.9000e+000 69781 -1.0786e+001  3.1461e+000  8.1378e+000 68030 69631,69683,69657
 1.9000e+000 69758 -1.5241e+000 -1.1216e+001  2.5344e+000 68030 69631,69709,69683
 1.9000e+000 69735  8.1234e-001 -5.5502e+000  2.2792e+000 68030 69605,69709,69631
 1.9000e+000 70078 -3.7154e+000 -6.7836e+000 -1.0520e+001 67832 69882,69934,69908
 1.9000e+000 70055 -9.8476e+000 -1.9502e+001 -3.6683e+000 67832 69856,69934,69882
 1.9000e+000 70032 -8.5146e+000 -4.9802e+001 -1.8514e+001 67832 69830,69934,69856
 1.9000e+000 70009 -8.1623e+000 -4.9480e+001 -2.3696e+001 67832 69804,69934,69830
 1.9000e+000 69986  2.2832e+001 -3.1082e+001 -1.5787e+001 67832 69804,69960,69934
 1.9000e+000 70586 -5.9899e+000 -6.5498e+001  3.5848e+000 67634 70609,70419,70341
 1.9000e+000 70563  1.1403e+001 -7.2170e+001  5.3070e+000 67634 70681,70609,70341
 1.9000e+000 70540  2.5189e+001 -7.0109e+001  2.1434e+001 67634 70681,70341,70315
 1.9000e+000 70517 -4.9998e+000 -6.0381e+001  4.7631e+000 67634 70341,70419,70367
 1.9000e+000 70494 -1.0717e+001 -4.3607e+001  1.5578e+001 67634 70263,70445,70289
 1.9000e+000 70471 -1.3053e+001 -3.5186e+001  9.5945e-001 67634 70367,70419,70393
 1.9000e+000 70635  1.1259e+001 -3.9346e+001  1.1128e+001 67634 70445,70419,70609
 1.9000e+000 70658 -1.3415e+001 -6.8261e+001  2.1680e+001 67634 70445,70609,70289
 1.9000e+000 70707  2.3367e+001 -5.3676e+001  2.6220e+001 67634 70289,70609,70681
 1.9000e+000 70730  4.8568e+001 -5.1718e+001  4.1640e+001 67634 70289,70681,70315
 1.9000e+000 71108 -2.5992e+001 -7.9639e+001  3.0541e+001 67344 71131,70912,70886
 1.9000e+000 71085 -3.5226e+001 -9.0210e+001 -5.8676e+000 67344 71131,70886,70860
 1.9000e+000 71062  3.4505e+001 -9.3155e+001  1.8371e+001 67344 71203,70938,70912
 1.9000e+000 71039 -4.5331e+000 -6.9127e+001  1.2574e+001 67344 70834,70990,70860
 1.9000e+000 71016 -1.0249e+001 -9.8481e+001  8.0099e+000 67344 70938,70990,70964
 1.9000e+000 71157  2.2556e+001 -7.8048e+001  2.8979e+001 67344 71203,70912,71131
 1.9000e+000 71180 -1.2165e+001 -8.5041e+001  6.1042e+000 67344 70990,71131,70860
 1.9000e+000 71229  9.6813e+000 -9.4342e+001  1.4142e+001 67344 70990,70938,71203
 1.9000e+000 71252 -1.5617e+001 -8.8841e+001  2.4105e+001 67344 70990,71203,71131
 1.9000e+000 71603 -1.2800e+000 -6.0088e+001  1.8436e+000 67032 71378,71482,71404
 1.9000e+000 71580  4.4797e+000 -4.0993e+001  6.9746e+000 67032 71378,71508,71482
 1.9000e+000 71557  8.2892e+000 -5.1072e+001  5.9311e+000 67032 71404,71456,71430
 1.9000e+000 71534  6.8940e-001 -5.2449e+001  4.8591e+000 67032 71404,71482,71456
 1.9000e+000 72003 -1.1918e+000 -5.4224e+001  8.0715e-001 66834 71755,71859,71781
 1.9000e+000 71980 -3.8685e-001 -6.4074e+001 -8.4528e-003 66834 71755,71885,71859
 1.9000e+000 71957  4.9270e-001 -4.4538e+001  9.9529e+000 66834 71781,71833,71807
 1.9000e+000 71934 -9.2946e+000 -7.0110e+001  4.7422e+000 66834 71781,71859,71833
 1.9000e+000 71911 -3.9357e+000 -6.1548e+001  2.0953e+001 66834 71729,71885,71755
 1.9000e+000 72430  1.0224e+001 -6.0957e+001 -3.9050e-001 66266 72237,72289,72263
 1.9000e+000 72407  8.7300e+000 -6.5670e+001  4.7096e+000 66266 72133,72289,72237
 1.9000e+000 72384  1.5044e+000 -5.5933e+001  2.8847e+000 66266 72133,72237,72211
 1.9000e+000 72361  6.9789e+000 -6.7067e+001  3.9956e+000 66266 72107,72289,72133
 1.9000e+000 72338 -1.9972e+001 -1.1016e+002  2.3017e+001 66266 72133,72211,72185
 1.9000e+000 72315  4.0379e-001 -1.1219e+002  2.5866e+001 66266 72133,72185,72159
 1.9000e+000 72580 -1.9371e+001 -1.1686e+002  1.3543e+001 65968 72479,72531,72505
 1.9000e+000 72557 -7.4227e-001 -8.2063e+001  5.9224e+000 65968 72453,72531,72479
 1.9000e+000 72960 -4.4759e+000 -9.5859e+001 -1.2838e+000 65621 72983,72738,72712
 1.9000e+000 72937  7.2963e+000 -1.0263e+002  4.4824e-001 65621 72983,72712,72686
 1.9000e+000 72914 -2.7998e+001 -1.1757e+002  1.3457e+001 65621 72738,72842,72764
 1.9000e+000 72891  5.2914e+000 -9.6964e+001  1.2312e+000 65621 72764,72842,72816
 1.9000e+000 72868 -6.5218e+001 -2.5523e+002  4.3895e+001 65621 72764,72816,72790
 1.9000e+000 73009 -1.0492e+001 -9.8072e+001  2.0469e-001 65621 72842,72738,72983
 1.9000e+000 73032 -3.3395e+000 -1.0990e+002  4.6976e+000 65621 72842,72983,72686
 1.9000e+000 73361 -1.7567e+001 -1.3019e+002 -3.0654e+000 65281 73456,73384,73188
 1.9000e+000 73338 -3.0877e+001 -1.3385e+002  1.1524e+001 65281 73384,73162,73136
 1.9000e+000 73315 -2.4929e+001 -1.5431e+002 -2.7515e+001 65281 73188,73240,73214
 1.9000e+000 73292 -2.4628e+001 -8.4809e+001  4.7719e+000 65281 73136,73266,73240
 1.9000e+000 73410 -4.0416e+001 -1.3412e+002 -6.6457e-001 65281 73240,73188,73384
 1.9000e+000 73433 -3.2066e+001 -8.7857e+001  4.7487e+000 65281 73240,73384,73136
 1.9000e+000 73482 -3.2375e+001 -1.7117e+002 -5.9141e+000 65281 73162,73384,73456
 1.9000e+000 73711  1.7810e+001  1.0539e+001 -4.7635e+001 64820 73734,73610,73584
 1.9000e+000 73688  6.4704e+000 -2.4462e+001 -1.9415e+001 64820 73734,73584,73662
 1.9000e+000 73760 -7.1874e+000  2.7626e+000 -2.2603e+001 64820 73636,73610,73734
 1.9000e+000 73783 -2.1242e+001 -1.9124e+001 -3.0632e+000 64820 73806,73734,73662
 1.9000e+000 73832 -1.8346e+000 -1.9646e+001 -4.2130e+000 64820 73636,73734,73806
 1.9000e+000 74112  5.3023e-001 -8.7064e+001  1.6638e+000 64622 74278,74135,73988
 1.9000e+000 74089 -1.6515e+000 -8.7824e+001  6.3371e+000 64622 74135,73936,74040
 1.9000e+000 74066  2.4155e+000 -8.6272e+001  2.3648e+000 64622 74278,73988,73962
 1.9000e+000 74161 -1.4203e+000 -9.0142e+001  3.1569e+000 64622 74014,73988,74135
 1.9000e+000 74184  7.2118e-001 -8.4475e+001  4.6231e+000 64622 74207,74135,74040
 1.9000e+000 74233 -2.9951e+000 -9.4767e+001  7.8493e-001 64622 74014,74135,74207
 1.9000e+000 74304  5.5876e-001 -8.7291e+001  6.4362e+000 64622 73936,74135,74278
 1.9000e+000 74327  5.1700e+000 -8.5500e+001  6.9873e+000 64622 73936,74278,73962
 1.9000e+000 74526  7.2518e+000 -3.4533e+001 -6.3366e+000 64424 74621,74549,74402
 1.9000e+000 74503  7.4095e-001 -8.1355e+001 -2.1392e+000 64424 74549,74350,74454
 1.9000e+000 74480  9.1314e+000 -1.9531e+001 -3.2401e+001 64424 74621,74402,74376
 1.9000e+000 74575  1.0149e+001 -7.0112e+001  4.8853e+000 64424 74428,74402,74549
 1.9000e+000 74598  1.2451e+000 -1.0119e+002  5.0110e+000 64424 74693,74549,74454
 1.9000e+000 74647 -1.2008e+001 -7.5711e+001  4.4474e-001 64424 74350,74549,74621
 1.9000e+000 74670 -1.2114e+001 -6.8197e+001 -2.6646e+001 64424 74350,74621,74376
 1.9000e+000 74719  3.8698e+000 -1.0243e+002 -4.2726e+000 64424 74428,74549,74693
 1.9000e+000 75123 -3.6158e+001 -1.6687e+002  2.4019e+001 64126 74875,74953,74927
 1.9000e+000 75100 -1.8819e+001 -1.2368e+002  2.2739e+001 64126 74875,74979,74953
 1.9000e+000 75077 -1.1321e+001 -1.0796e+002  1.6999e+001 64126 74875,75005,74979
 1.9000e+000 75054 -2.0269e+001 -2.2731e+002  4.6454e+001 64126 74875,74927,74901
 1.9000e+000 75031 -3.3995e+001 -8.2309e+001  2.7993e+001 64126 74849,75005,74875
 1.9000e+000 75224  1.0514e+001 -9.5929e+001  1.3325e+001 63836 75146,75198,75172
 1.9000e+000 75472 -2.5157e+001 -8.3542e+001  5.5999e+000 63375 75273,75351,75325
 1.9000e+000 75449 -1.5068e+001 -7.4881e+001 -1.1270e+000 63375 75273,75377,75351
 1.9000e+000 75426  8.7474e+000 -7.5078e+001 -6.2940e+000 63375 75247,75377,75273
 1.9000e+000 75403 -2.6293e+001 -4.1663e+001  1.4474e+001 63375 75273,75325,75299
 1.9000e+000 75673  1.0687e+001 -7.6086e+001  8.0666e+000 63063 75523,75575,75549
 1.9000e+000 75650  1.2333e+001 -9.4588e+001 -1.2175e+000 63063 75497,75575,75523
 1.9000e+000 75627  7.0263e+000 -1.0189e+002  9.8951e+000 63063 75497,75601,75575
 1.9000e+000 75874 -5.9067e+000 -1.2842e+002 -4.9368e+000 62716 75897,75750,75724
 1.9000e+000 75851 -1.2630e+001 -1.1448e+002 -1.1344e+000 62716 75897,75724,75698
 1.9000e+000 75828 -6.6707e+000 -8.8386e+001 -2.2405e+001 62716 75698,75802,75776
 1.9000e+000 75923  2.1134e+000 -1.1232e+002 -1.1818e+001 62716 75776,75750,75897
 1.9000e+000 75946 -1.1655e+001 -1.0569e+002 -3.1192e+000 62716 75776,75897,75698
 1.9000e+000 76328  3.6764e+001 -1.0393e+002 -2.6428e+000 62198 76495,76351,76158
 1.9000e+000 76305  3.8177e+000 -1.0416e+002  1.6976e+000 62198 76351,76080,76054
 1.9000e+000 76282  3.0666e+001 -1.3759e+002 -2.5020e+001 62198 76423,76184,76158
 1.9000e+000 76259  1.8502e+001 -9.5156e+001  4.7042e+000 62198 76495,76158,76106
 1.9000e+000 76236 -3.1520e+001 -1.2484e+002  1.7403e+001 62198 76106,76158,76132
 1.9000e+000 76377  3.2811e+001 -1.1226e+002 -2.2869e+001 62198 76423,76158,76351
 1.9000e+000 76400  7.0537e+000 -8.3158e+001 -1.3392e+001 62198 76210,76351,76054
 1.9000e+000 76449  3.4589e+001 -1.0847e+002 -2.4891e+001 62198 76210,76184,76423
 1.9000e+000 76472  3.0090e+001 -9.2914e+001 -2.6715e+001 62198 76210,76423,76351
 1.9000e+000 76521  8.6394e+000 -1.0271e+002  1.8667e+000 62198 76080,76351,76495
 1.9000e+000 76544 -2.6238e+001 -1.0920e+002  1.3548e+001 62198 76080,76495,76106
 1.9000e+000 76841 -2.1573e+001 -1.1208e+002 -7.9780e+000 61751 76936,76864,76645
 1.9000e+000 76818  2.3451e+001 -8.1557e+001 -4.3805e+001 61751 76864,76567,76723
 1.9000e+000 76795 -1.6089e+001 -8.9759e+001 -8.9979e+000 61751 76936,76645,76593
 1.9000e+000 76772 -9.4296e+001 -1.9635e+002  2.8334e+001 61751 77008,76697,76671
 1.9000e+000 76749 -1.7985e+001 -8.9067e+001 -1.0193e+001 61751 76593,76645,76619
 1.9000e+000 76890 -3.0710e+001 -1.4009e+002  1.6059e+001 61751 76671,76645,76864
 1.9000e+000 76913 -3.2928e+001 -1.3130e+002  2.7174e+000 61751 77008,76671,76864
 1.9000e+000 76962 -1.0036e+001 -1.4178e+002 -1.8972e+001 61751 76567,76864,76936
 1.9000e+000 76985 -6.3005e+000 -1.2322e+002 -1.7528e+001 61751 76567,76936,76593
 1.9000e+000 77034 -6.9488e+000 -1.4524e+002 -1.7645e+001 61751 76723,76697,77008
 1.9000e+000 77057 -8.6264e+000 -1.5712e+002 -1.7133e+001 61751 76723,77008,76864
 1.9000e+000 77207  4.5537e+000 -5.0532e+001  1.6014e+001 61418 77106,77158,77132
 1.9000e+000 77184 -9.9550e+000 -4.6983e+001  1.1844e+001 61418 77080,77158,77106
 1.9000e+000 77638 -1.6662e+001 -1.0233e+002  8.6217e+000 60814 77733,77661,77471
 1.9000e+000 77615 -1.5879e+001 -1.0405e+002 -7.9477e+000 60814 77661,77393,77315
 1.9000e+000 77592 -3.0146e+001 -8.8607e+001  1.5049e+001 60814 77733,77471,77445
 1.9000e+000 77569  2.6161e+001 -1.1147e+002 -2.8323e+001 60814 77315,77367,77341
 1.9000e+000 77546  1.0476e+001 -1.5070e+002 -2.9039e+001 60814 77315,77393,77367
 1.9000e+000 77523 -1.6824e+001 -6.8848e+001 -2.5506e+000 60814 77393,77445,77419
 1.9000e+000 77687  9.0148e+000 -9.2020e+001  1.9740e+001 60814 77497,77471,77661
 1.9000e+000 77710 -1.7914e-001 -1.1526e+002  4.6314e+000 60814 77497,77661,77315
 1.9000e+000 77759  1.5413e+000 -8.5482e+001  9.7537e-001 60814 77393,77661,77733
 1.9000e+000 77782 -1.7742e+001 -7.7986e+001  9.2385e+000 60814 77393,77733,77445
 1.9000e+000 78337 -3.3827e+000 -8.2030e+001  6.2051e+000 60210 78360,78017,77965
 1.9000e+000 78314 -1.5804e+001 -6.5111e+001  1.5106e+001 60210 78360,77965,78173
 1.9000e+000 78291 -3.0450e+001 -9.8972e+001 -1.0086e+001 60210 78432,78043,78017
 1.9000e+000 78268 -1.6377e+001 -1.1053e+002  3.0311e+000 60210 77965,78017,77991
 1.9000e+000 78245 -2.5857e+001 -8.2076e+001 -5.2583e-002 60210 78043,78095,78069
 1.9000e+000 78222 -5.3655e+001 -1.0786e+002  2.2069e+001 60210 78095,78173,78121
 1.9000e+000 78199  5.2552e-001 -7.5116e+001  5.3352e+000 60210 78121,78173,78147
 1.9000e+000 78386 -2.3280e+001 -9.2914e+001  1.1148e+000 60210 78432,78017,78360
 1.9000e+000 78409 -2.9055e+001 -7.5932e+001  9.0326e+000 60210 78095,78360,78173
 1.9000e+000 78458 -2.0275e+001 -8.3209e+001  2.0966e-001 60210 78095,78043,78432
 1.9000e+000 78481 -1.4894e+001 -7.5467e+001  1.1054e+001 60210 78095,78432,78360
 1.9000e+000 78680  1.2531e+000 -6.0927e+001 -8.2837e+000 59848 78703,78556,78530
 1.9000e+000 78657 -6.7611e+000 -6.4106e+001 -8.7742e+000 59848 78703,78530,78504
 1.9000e+000 78634  4.6121e+001 -8.6082e+001 -2.9389e+000 59848 78504,78608,78582
 1.9000e+000 78729  1.8196e+001 -6.3990e+001 -1.2988e+001 59848 78582,78556,78703
 1.9000e+000 78752  2.5816e+000 -7.0816e+001 -1.3914e+001 59848 78582,78703,78504
 1.9000e+000 78951 -3.1286e+001 -8.9062e+001 -1.2948e+000 59344 78974,78801,78775
 1.9000e+000 78928 -3.8929e+001 -1.0710e+002 -1.4944e+000 59344 79046,78974,78775
 1.9000e+000 78905 -3.5329e+001 -1.1806e+002 -1.8240e+000 59344 79046,78775,78879
 1.9000e+000 79000 -2.8653e+001 -8.4146e+001  1.3997e+001 59344 78827,78801,78974
 1.9000e+000 79023 -3.7138e+001 -1.0181e+002  1.1487e+001 59344 78827,78974,78853
 1.9000e+000 79072 -3.6100e+001 -9.5629e+001  2.7300e+000 59344 78853,78974,79046
 1.9000e+000 79095 -2.8915e+001 -1.0264e+002  3.3846e+000 59344 78853,79046,78879
 1.9000e+000 79296 -4.0885e+000 -1.4447e+002 -1.1450e+001 58711 79319,79172,79146
 1.9000e+000 79273  5.1429e+000 -1.2700e+002 -5.1150e+000 58711 79319,79146,79120
 1.9000e+000 79250 -2.4445e+001 -1.5161e+002  2.0735e+000 58711 79172,79224,79198
 1.9000e+000 79345 -1.4167e+001 -1.2455e+002 -1.1319e+001 58711 79224,79172,79319
 1.9000e+000 79368 -9.6553e+000 -1.1088e+002 -7.7586e+000 58711 79224,79319,79120
 1.9000e+000 79667  4.9943e+000 -6.8374e+001 -8.6007e+000 58285 79690,79471,79393
 1.9000e+000 79644  3.6917e+000 -8.1631e+001 -1.1542e+001 58285 79690,79393,79549
 1.9000e+000 79621  1.6622e+001 -8.4244e+001  3.1119e+000 58285 79393,79471,79419
 1.9000e+000 79598  6.2464e+000 -5.8223e+001  2.6473e+000 58285 79497,79549,79523
 1.9000e+000 79575 -3.2517e+001 -1.6845e+002  2.5239e+001 58285 79419,79471,79445
 1.9000e+000 79716  3.7898e+000 -5.4517e+001 -1.4273e-001 58285 79497,79471,79690
 1.9000e+000 79739 -5.9617e-001 -7.6085e+001 -6.7311e-001 58285 79497,79690,79549
 1.9000e+000 80249  1.7758e+001 -5.3448e+001 -4.0154e+001 57831 80272,79978,79952
 1.9000e+000 80226  3.0804e+001 -5.9732e+001 -2.3696e+001 57831 80272,79952,80108
 1.9000e+000 80203 -1.9785e+001 -8.7568e+001 -3.5368e+001 57831 79926,80108,79952
 1.9000e+000 80180  1.3923e+001 -5.8192e+001 -3.9429e+000 57831 80004,80082,80030
 1.9000e+000 80157  1.5241e+001 -5.6046e+001 -3.3636e+000 57831 80004,80108,80082
 1.9000e+000 80134 -7.4876e+000 -9.0211e+001  9.0111e+000 57831 80030,80082,80056
 1.9000e+000 80298  3.3350e+001 -1.7193e+001 -3.9067e+001 57831 80004,79978,80272
 1.9000e+000 80321  3.4529e+001 -4.7754e+001 -2.4005e+001 57831 80004,80272,80108
 1.9000e+000 80618 -2.9251e+001 -9.5687e+001  2.3645e+001 57077 80344,80448,80422
 1.9000e+000 80595 -1.7849e+001 -8.2648e+001  9.4564e+000 57077 80344,80500,80448
 1.9000e+000 80572 -2.0426e+001 -8.5407e+001  1.4069e+001 57077 80344,80422,80370
 1.9000e+000 80549 -2.2766e+001 -6.7560e+001  1.2451e+001 57077 80370,80422,80396
 1.9000e+000 80526 -2.2986e+001 -1.0831e+002  1.3202e+001 57077 80448,80500,80474
 1.9000e+000 80768  8.4635e-001 -3.7900e+001 -6.5137e-002 56787 80791,80693,80667
 1.9000e+000 80745 -6.1923e+000 -3.6549e+001  4.3805e+000 56787 80791,80667,80641
 1.9000e+000 80817  5.1164e+000 -3.6546e+001 -3.7015e+000 56787 80719,80693,80791
 1.9000e+000 80840 -6.6062e+000 -2.4578e+001 -3.3207e+000 56787 80719,80791,80641
 1.9000e+000 81429  1.0027e+001 -5.1959e+001 -4.7321e+000 56497 81452,81158,81132
 1.9000e+000 81406 -9.7749e+000 -6.8184e+001  2.8948e+000 56497 81452,81132,81288
 1.9000e+000 81383 -2.0404e+001 -6.4743e+001  2.3975e+000 56497 81524,81184,81158
 1.9000e+000 81360 -2.4014e+001 -1.1898e+002  1.9820e+001 56497 81210,81288,81236
 1.9000e+000 81337  5.6231e+001 -4.4914e+001  3.9372e-001 56497 81106,81288,81132
 1.9000e+000 81314 -9.9129e+000 -7.5423e+001  8.4416e+000 56497 81236,81288,81262
 1.9000e+000 81478 -1.3152e+001 -5.7946e+001 -1.6982e+000 56497 81524,81158,81452
 1.9000e+000 81501 -1.4198e+000 -6.0481e+001  6.1555e+000 56497 81210,81452,81288
 1.9000e+000 81550 -2.0794e+001 -7.2015e+001  1.3422e+001 56497 81210,81184,81524
 1.9000e+000 81573 -1.1354e+001 -6.6949e+001  9.2698e+000 56497 81210,81524,81452
 1.9000e+000 81870 -4.1426e+001 -9.4361e+001 -6.6348e+000 55979 81893,81674,81648
 1.9000e+000 81847 -3.8719e+001 -9.0694e+001  1.1673e+000 55979 81893,81648,81752
 1.9000e+000 81824 -2.0830e+001 -9.3177e+001  8.2169e+000 55979 81596,81752,81648
 1.9000e+000 81801 -4.7719e+001 -6.1513e+001 -1.3000e+001 55979 81674,81726,81700
 1.9000e+000 81778 -6.6738e+000 -5.9316e+001  5.3461e+000 55979 81596,81648,81622
 1.9000e+000 81919 -4.2173e+001 -8.7833e+001 -2.7297e+000 55979 81726,81674,81893
 1.9000e+000 81942 -3.6524e+001 -8.1011e+001  5.4152e+000 55979 81726,81893,81752
 1.9000e+000 82371 -1.5680e+001 -6.7288e+001 -5.8889e+000 55631 82100,82204,82152
 1.9000e+000 82348 -1.4788e+001 -8.4293e+001 -1.3116e+001 55631 82100,82230,82204
 1.9000e+000 82325 -1.7339e+001 -6.9158e+001 -3.1897e+000 55631 82100,82152,82126
 1.9000e+000 82302 -2.1736e+001 -1.1443e+002 -4.0130e+001 55631 82074,82230,82100
 1.9000e+000 82279 -2.0145e+001 -6.9186e+001  6.3264e+000 55631 82152,82204,82178
 1.9000e+000 82256  1.8527e+001 -1.0762e+002 -2.3057e+001 55631 82048,82230,82074
 1.9000e+000 82521  2.2453e+001 -4.0519e+001 -3.5407e+000 55227 82544,82420,82394
 1.9000e+000 82498  1.8587e+001 -4.9750e+001 -1.3593e+000 55227 82544,82394,82472
 1.9000e+000 82570  1.5551e+001 -3.0357e+001 -3.7481e+000 55227 82446,82420,82544
 1.9000e+000 82593  9.3388e+000 -3.9695e+001  7.6131e-001 55227 82446,82544,82472
 1.9000e+000 82875  3.2984e+001 -5.0361e+001 -1.6217e+001 54979 82699,82777,82725
 1.9000e+000 82852 -5.4479e+000 -4.3400e+001 -4.2641e+000 54979 82699,82803,82777
 1.9000e+000 82829  2.4466e+001  5.2942e+001  3.6735e+001 54979 82725,82777,82751
 1.9000e+000 83204 -1.2612e+001 -5.4420e+001 -7.3612e+000 54475 83005,83083,83057
 1.9000e+000 83181 -1.3086e+001 -5.4453e+001 -7.4613e+000 54475 82979,83083,83005
 1.9000e+000 83158 -1.0427e+001 -5.8065e+001 -9.1634e+000 54475 83005,83057,83031
 1.9000e+000 83135 -2.2595e+001 -7.6923e+001 -2.2416e+000 54475 82979,83109,83083
 1.9000e+000 83582 -2.5894e+001 -6.9681e+001 -6.2597e+000 54071 83605,83438,83412
 1.9000e+000 83559 -2.5289e+001 -7.0224e+001 -7.6794e+000 54071 83749,83605,83412
 1.9000e+000 83536 -2.9004e+001 -7.9070e+001  1.5788e+001 54071 83677,83360,83334
 1.9000e+000 83513 -1.9808e+001 -7.5577e+001 -9.0517e+000 54071 83749,83412,83677
 1.9000e+000 83490 -2.5189e+001 -5.9806e+001 -1.2362e+001 54071 83308,83464,83334
 1.9000e+000 83631 -2.8605e+001 -6.8116e+001 -1.2491e+001 54071 83464,83438,83605
 1.9000e+000 83654 -2.2831e+001 -5.6413e+001 -1.0450e+001 54071 83464,83605,83334
 1.9000e+000 83703  1.2915e+001 -6.6383e+001  1.7691e+001 54071 83386,83360,83677
 1.9000e+000 83726 -2.8563e+000 -7.9989e+001 -5.0989e+000 54071 83386,83677,83412
 1.9000e+000 83775 -1.5891e+001 -6.3045e+001 -4.5551e+000 54071 83334,83605,83749
 1.9000e+000 83798 -9.6187e+000 -6.8119e+001 -5.7893e+000 54071 83334,83749,83677
 1.9000e+000 84068 -1.4608e+001 -1.9349e+001 -4.8770e+000 53524 83869,83921,83895
 1.9000e+000 84045 -9.5858e+000 -4.3056e+001  1.3318e+000 53524 83869,83947,83921
 1.9000e+000 84022 -2.3155e+001 -5.4803e+001 -3.7692e+000 53524 83843,83947,83869
 1.9000e+000 83999  1.3202e+000 -4.7504e+001 -5.9327e+000 53524 83843,83973,83947
 1.9000e+000 84497 -2.8533e+001 -1.2243e+002  4.3505e+000 53184 84200,84330,84252
 1.9000e+000 84474 -3.3423e+001 -1.1813e+002  1.9028e+001 53184 84200,84356,84330
 1.9000e+000 84451 -1.6421e+001 -1.7734e+002  1.1489e+001 53184 84200,84252,84226
 1.9000e+000 84428 -2.8998e+001 -1.0641e+002 -1.3360e+001 53184 84252,84330,84278
 1.9000e+000 84405 -1.4465e+001 -1.0807e+002  1.4021e+001 53184 84174,84356,84200
 1.9000e+000 84382  1.6745e+000 -9.4485e+001 -8.5112e+000 53184 84278,84330,84304
 1.9000e+000 84954  1.4870e+001 -8.3694e+001  7.1407e+000 52680 84706,84836,84784
 1.9000e+000 84931 -1.7878e+001 -8.4315e+001 -3.0246e+001 52680 84680,84836,84706
 1.9000e+000 84908  2.8318e+001 -1.3542e+002 -2.3137e+000 52680 84784,84836,84810
 1.9000e+000 84885 -2.8286e+001 -1.5356e+002  2.5999e+001 52680 84706,84784,84732
 1.9000e+000 84862  8.1775e+000 -1.3418e+002  1.8618e+001 52680 84732,84784,84758
 1.9000e+000 85202  1.0794e+000 -1.0135e+002  1.9896e+000 52226 85029,85081,85055
 1.9000e+000 85179 -2.5830e+001 -9.3110e+001  2.1845e-001 52226 85225,85081,85029
 1.9000e+000 85156 -2.1937e+001 -8.3816e+001  2.2267e+000 52226 85225,85029,85003
 1.9000e+000 85133 -2.3708e+001 -5.4115e+001 -7.6633e+000 52226 84977,85107,85003
 1.9000e+000 85251 -2.8617e+001 -9.4292e+001 -1.0753e+001 52226 85107,85081,85225
 1.9000e+000 85274 -2.1831e+001 -7.0674e+001 -1.1217e+001 52226 85107,85225,85003
 1.9000e+000 85522  1.7946e+001 -6.2809e+001 -8.3921e+000 51764 85297,85349,85323
 1.9000e+000 85499  7.9775e+000 -7.7888e+001  2.4838e+000 51764 85545,85297,85427
 1.9000e+000 85476 -6.8641e+000 -5.8706e+001 -5.1718e+000 51764 85545,85427,85375
 1.9000e+000 85453 -4.7060e+000 -5.1326e+001 -4.5809e+000 51764 85375,85427,85401
 1.9000e+000 85571  1.3060e+001 -6.6511e+001 -5.9880e+000 51764 85349,85297,85545
 1.9000e+000 85594  5.9512e+000 -4.0267e+001 -1.5217e+001 51764 85349,85545,85375
 1.9000e+000 85746 -3.6411e+001 -8.2762e+001  2.3780e+000 51374 85645,85697,85671
 1.9000e+000 85723 -3.7831e+001 -7.2629e+001 -3.3806e+000 51374 85619,85697,85645
 1.9000e+000 86256  3.2324e+000 -4.5370e+001  3.5577e+000 50970 86279,86011,85959
 1.9000e+000 86233  7.3897e+000 -3.9403e+001  1.4831e+000 50970 86279,85959,86115
 1.9000e+000 86210  2.6359e+000 -4.5672e+001  7.0536e+000 50970 85959,86011,85985
 1.9000e+000 86187  8.0999e+000 -6.1052e+001 -6.5516e+000 50970 86037,86115,86089
 1.9000e+000 86164  4.7224e+001 -2.3910e+001 -1.2416e+001 50970 85933,86115,85959
 1.9000e+000 86141 -9.8086e+000 -6.0340e+001 -1.3953e+001 50970 86037,86089,86063
 1.9000e+000 86305  9.2633e+000 -5.3841e+001  4.0597e+000 50970 86037,86011,86279
 1.9000e+000 86328  1.4024e+001 -4.7204e+001  1.7617e+000 50970 86037,86279,86115
 1.9000e+000 86478 -1.9802e+001 -1.7211e+002  8.4767e+000 50451 86351,86403,86377
 1.9000e+000 86455 -5.2745e+001 -3.4563e+002  7.3032e-002 50451 86351,86429,86403
 1.9000e+000 86907 -4.8753e+001 -1.0042e+002 -1.0395e+001 50047 86930,86714,86662
 1.9000e+000 86884 -4.1926e+001 -1.0043e+002 -8.9117e+000 50047 86930,86662,86610
 1.9000e+000 86861 -2.5284e+001 -1.2361e+002 -2.5060e+001 50047 87002,86740,86714
 1.9000e+000 86838 -6.9834e+000 -8.4641e+001  8.7944e+000 50047 86662,86714,86688
 1.9000e+000 86815 -4.0016e+001 -8.8684e+001 -1.6811e+000 50047 86610,86662,86636
 1.9000e+000 86792 -3.4475e+001 -8.0935e+001 -1.5412e+001 50047 86584,86766,86610
 1.9000e+000 86956 -4.2642e+001 -9.9612e+001 -1.1496e+001 50047 87002,86714,86930
 1.9000e+000 86979 -5.4527e+001 -8.8761e+001 -1.0674e+001 50047 86766,86930,86610
 1.9000e+000 87028 -5.7800e+001 -1.0817e+002 -2.9519e+001 50047 86766,86740,87002
 1.9000e+000 87051 -6.6968e+001 -1.0447e+002 -1.9550e+001 50047 86766,87002,86930
 1.9000e+000 87250 -5.6920e+000 -1.0001e+002 -1.7924e+001 49543 87273,87126,87100
 1.9000e+000 87227  1.6583e+000 -8.6264e+001 -9.3468e+000 49543 87273,87100,87074
 1.9000e+000 87204 -3.2198e+001 -7.0720e+001 -1.9312e+001 49543 87126,87178,87152
 1.9000e+000 87299 -7.5096e+000 -8.1005e+001 -1.0052e+001 49543 87178,87126,87273
 1.9000e+000 87322 -1.1676e+000 -7.4626e+001 -3.8714e-001 49543 87178,87273,87074
 1.9000e+000 87570 -2.5995e+001 -7.0892e+001  6.2065e+000 49146 87593,87449,87397
 1.9000e+000 87547 -2.6133e+001 -7.4393e+001 -1.3955e-001 49146 87593,87397,87371
 1.9000e+000 87524 -2.9532e+001 -6.6316e+001  4.4198e+000 49146 87345,87475,87371
 1.9000e+000 87501 -1.0521e+001 -7.0434e+001  7.6121e+000 49146 87397,87449,87423
 1.9000e+000 87619 -1.8066e+001 -6.9760e+001  9.2548e+000 49146 87475,87449,87593
 1.9000e+000 87642 -2.1139e+001 -7.2636e+001  3.2756e+000 49146 87475,87593,87371
 1.9000e+000 88073  1.9229e+001 -6.6803e+001 -5.4972e+000 48706 87854,87932,87880
 1.9000e+000 88050  1.2326e+001 -7.0196e+001 -1.3348e-001 48706 87828,87932,87854
 1.9000e+000 88027 -1.8184e+000 -7.5663e+001 -7.8194e+000 48706 87750,87932,87828
 1.9000e+000 88004 -9.0978e+000 -1.3199e+002 -1.5792e+001 48706 87750,87802,87776
 1.9000e+000 87981 -1.5023e+001 -1.3428e+002 -1.9470e+001 48706 87750,87828,87802
 1.9000e+000 87958  1.1077e+001 -7.3695e+001  5.8641e-001 48706 87880,87932,87906
 1.9000e+000 88402 -1.7227e+001 -8.7595e+001 -6.9989e-001 48145 88203,88281,88255
 1.9000e+000 88379 -2.5120e+001 -9.1090e+001 -1.3246e+000 48145 88203,88307,88281
 1.9000e+000 88356 -1.3300e+001 -7.2072e+001 -4.1598e+000 48145 88203,88255,88229
 1.9000e+000 88333 -1.6896e+001 -9.6391e+001  1.1658e+001 48145 88177,88307,88203
 1.9000e+000 88601 -1.6991e+001 -9.7023e+001  9.2443e+000 47805 88696,88624,88477
 1.9000e+000 88578 -4.5371e+001 -1.0878e+002 -1.1592e+001 47805 88826,88624,88451
 1.9000e+000 88555 -3.9398e+001 -1.0485e+002 -8.5350e+000 47805 88826,88451,88425
 1.9000e+000 88650 -2.6324e+001 -1.1581e+002 -3.5494e+000 47805 88503,88477,88624
 1.9000e+000 88673 -4.2739e+001 -1.1759e+002 -5.4732e+000 47805 88503,88624,88529
 1.9000e+000 88722 -8.8332e+001 -1.2624e+002 -5.2767e+000 47805 88451,88624,88696
 1.9000e+000 88852 -4.6441e+001 -1.0314e+002 -3.7268e+000 47805 88529,88624,88826
 1.9000e+000 88875 -4.0141e+001 -9.9419e+001 -6.7066e-001 47805 88529,88826,88425
 1.9000e+000 89172  1.4898e+001 -5.5072e+001 -1.4891e+001 47401 89195,88976,88898
 1.9000e+000 89149  1.4146e+001 -5.2985e+001 -3.1064e+001 47401 89195,88898,89054
 1.9000e+000 89126  9.9146e+000 -4.9009e+001 -1.6102e+001 47401 88898,88976,88950
 1.9000e+000 89103 -5.9251e+000 -7.5759e+001 -1.7051e+001 47401 88976,89028,89002
 1.9000e+000 89080  6.9024e+000 -5.0317e+001 -4.4966e+000 47401 88898,88950,88924
 1.9000e+000 89221  6.2783e+000 -7.3655e+001 -1.2600e+001 47401 89028,88976,89195
 1.9000e+000 89244  8.8362e+000 -6.6652e+001 -3.0114e+001 47401 89028,89195,89054
 1.9000e+000 89575  3.9822e+001 -9.6248e+001 -1.8856e+000 47111 89350,89454,89376
 1.9000e+000 89552  1.8937e+001 -1.1355e+002  5.9092e+000 47111 89350,89480,89454
 1.9000e+000 89529  2.9920e+000 -1.1197e+002 -5.6569e+000 47111 89376,89454,89402
 1.9000e+000 89506  2.4648e+001 -6.9059e+001  4.5651e+000 47111 89402,89454,89428
 1.9000e+000 89904  5.5061e+000 -8.0230e+001 -3.0222e+000 46707 89705,89757,89731
 1.9000e+000 89881 -2.0448e+001 -8.9367e+001 -4.0848e-001 46707 89705,89783,89757
 1.9000e+000 89858 -3.1054e+001 -8.8806e+001  1.3164e+001 46707 89679,89783,89705
 1.9000e+000 89835 -9.8545e+000 -7.2267e+001  2.9533e+000 46707 89679,89809,89783
 1.9000e+000 90233  2.5273e+001 -7.4825e+001 -1.2413e+001 46360 90034,90112,90086
 1.9000e+000 90210 -1.5880e+001 -7.5924e+001 -2.4812e+000 46360 90034,90138,90112
 1.9000e+000 90187  2.9841e-001 -9.3271e+001 -4.0321e+000 46360 90034,90086,90060
 1.9000e+000 90164 -7.4970e+000 -7.6510e+001  9.1104e+000 46360 90008,90138,90034
 1.9000e+000 90530 -1.0865e+001 -7.0101e+001 -9.7115e+000 45662 90256,90360,90308
 1.9000e+000 90507 -1.8631e+001 -8.7044e+001  2.3297e-002 45662 90256,90412,90360
 1.9000e+000 90484 -1.0511e+001 -9.1160e+001 -1.2241e+001 45662 90256,90308,90282
 1.9000e+000 90461 -7.4996e+000 -5.0042e+001  5.6208e+000 45662 90360,90412,90386
 1.9000e+000 90438 -3.7529e+001 -6.2342e+001 -3.7208e+000 45662 90308,90360,90334
 1.9000e+000 90910 -5.0416e+001 -8.4090e+001 -7.4249e+000 45108 90688,90766,90714
 1.9000e+000 90887 -4.0592e+001 -1.0254e+002  4.0809e+000 45108 90662,90766,90688
 1.9000e+000 90864 -6.1056e+001 -9.1193e+001  1.0288e+001 45108 90636,90766,90662
 1.9000e+000 90841 -2.1930e+001 -9.8507e+001 -2.7605e+001 45108 90714,90766,90740
 1.9000e+000 90818 -5.0225e+001 -8.7330e+001  8.7566e+000 45108 90636,90792,90766
 1.9000e+000 91158 -7.6489e+000 -8.1613e+001 -2.8780e+000 44604 91181,91011,90959
 1.9000e+000 91135 -3.2309e+001 -8.8190e+001 -1.5684e+000 44604 91181,90959,90933
 1.9000e+000 91112  1.1037e+001 -9.5270e+001  7.4842e+000 44604 90959,91011,90985
 1.9000e+000 91089 -1.5097e+000 -9.3296e+001 -1.1426e+001 44604 90933,91063,91037
 1.9000e+000 91207  9.5558e+000 -9.2691e+001 -1.5382e+001 44604 91037,91011,91181
 1.9000e+000 91230 -1.4116e+001 -9.5512e+001 -1.9986e+001 44604 91037,91181,90933
 1.9000e+000 91429 -1.0462e+000 -1.0043e+002 -6.8131e+000 44264 91452,91279,91253
 1.9000e+000 91406  1.4557e+000 -1.0864e+002 -7.7409e+000 44264 91452,91253,91357
 1.9000e+000 91383 -3.2965e+001 -9.5684e+001  1.0715e+001 44264 91279,91331,91305
 1.9000e+000 91478  2.9073e-001 -9.7650e+001 -6.1603e+000 44264 91331,91279,91452
 1.9000e+000 91501  6.6074e+000 -1.0182e+002 -5.4452e+000 44264 91331,91452,91357
 1.9000e+000 92060 -5.9967e+001 -1.1287e+002 -1.0279e+001 43860 92083,91740,91688
 1.9000e+000 92037 -1.5115e+001 -1.1987e+002  8.2694e+000 43860 92083,91688,91896
 1.9000e+000 92014 -3.7302e+001 -1.2181e+002  1.0740e+001 43860 91766,91870,91844
 1.9000e+000 91991 -3.4202e+001 -1.0657e+002  1.1303e+001 43860 91740,91870,91766
 1.9000e+000 91968 -2.1413e+000 -1.1729e+002  3.7795e+000 43860 91766,91844,91792
 1.9000e+000 91945 -3.8319e+001 -1.4492e+002 -4.4941e+001 43860 91688,91740,91714
 1.9000e+000 91922 -1.4846e+001 -1.3118e+002 -1.6089e+000 43860 91792,91844,91818
 1.9000e+000 92109 -2.2190e+001 -1.0536e+002  9.9833e+000 43860 91870,91740,92083
 1.9000e+000 92132  2.5416e+001 -1.0463e+002  3.1635e+001 43860 91870,92083,91896
 1.9000e+000 92353  6.3261e+000 -8.9982e+001 -1.2661e+001 43662 92203,92255,92229
 1.9000e+000 92330 -1.3034e+001 -9.9380e+001 -4.4260e+000 43662 92376,92203,92281
 1.9000e+000 92307  7.5637e+000 -6.3822e+001  4.6127e+000 43662 92177,92281,92203
 1.9000e+000 92402 -4.1934e+001 -1.1161e+002  2.0359e+000 43662 92255,92203,92376
 1.9000e+000 92682  1.0394e+001 -1.2241e+002 -1.3608e+001 43464 92532,92584,92558
 1.9000e+000 92659  1.4224e+000 -9.6125e+001 -4.7998e+000 43464 92506,92584,92532
 1.9000e+000 92636 -1.1520e+001 -9.8741e+001 -7.2971e+000 43464 92506,92610,92584
 1.9000e+000 93013  5.9080e+000 -1.0349e+002 -1.6183e+001 42960 92866,92918,92892
 1.9000e+000 92990 -6.2452e+000 -1.0516e+002 -5.9252e+000 42960 93036,92918,92866
 1.9000e+000 92967  4.9535e+000 -1.1308e+002 -7.5535e-001 42960 93036,92866,92840
 1.9000e+000 92944 -5.6591e+000 -1.0830e+002 -1.9441e+000 42960 92788,92918,92814
 1.9000e+000 93062 -7.5664e-002 -1.0505e+002 -4.9137e-001 42960 92814,92918,93036
 1.9000e+000 93085  2.3474e+001 -1.0328e+002  5.7768e+000 42960 92814,93036,92840
 1.9000e+000 93186 -3.5270e+001 -9.1781e+001 -9.8073e+000 42556 93108,93160,93134
 1.9000e+000 93554 -3.6058e+001 -1.2687e+002  1.6080e+000 42052 93231,93387,93361
 1.9000e+000 93531 -4.0914e+001 -1.1932e+002  1.8189e+001 42052 93231,93413,93387
 1.9000e+000 93508 -5.2189e+001 -1.2026e+002  4.1481e+000 42052 93231,93361,93257
 1.9000e+000 93485 -2.2804e+001 -9.3768e+001  1.2180e+001 42052 93283,93361,93335
 1.9000e+000 93462 -3.2283e+001 -1.0957e+002  8.2133e+000 42052 93257,93361,93283
 1.9000e+000 93439  8.6895e+000 -7.7882e+001 -7.0607e-003 42052 93283,93335,93309
 1.9000e+000 94162 -1.0621e+001 -1.0412e+002 -4.8697e+000 41498 93767,93975,93793
 1.9000e+000 94139 -3.7383e-001 -9.8083e+001  5.9357e+000 41498 93741,93975,93767
 1.9000e+000 94116 -2.7185e+001 -7.7080e+001  1.5442e+000 41498 93793,93975,93923
 1.9000e+000 94093 -3.9215e+001 -1.0517e+002  2.0569e+000 41498 93923,93975,93949
 1.9000e+000 94070 -3.3859e+001 -4.2675e+001 -1.1761e+001 41498 93871,93923,93897
 1.9000e+000 94047 -4.9164e+000 -6.2404e+001 -5.7704e+000 41498 93793,93923,93871
 1.9000e+000 94024  1.1399e-001 -5.6421e+001  6.6003e-001 41498 93819,93871,93845
 1.9000e+000 94001 -1.1889e+001 -5.9854e+001 -9.2878e-001 41498 93793,93871,93819
 1.9000e+000 94619 -2.2581e+001 -8.2525e+001 -3.3587e+001 40930 94642,94423,94371
 1.9000e+000 94596  4.4934e+000 -7.3788e+001 -2.7127e+001 40930 94642,94371,94345
 1.9000e+000 94573  1.0288e+000 -8.5495e+001 -6.8621e+000 40930 94345,94501,94475
 1.9000e+000 94550  5.2336e-001 -9.0946e+001 -4.0429e+001 40930 94371,94423,94397
 1.9000e+000 94527 -1.7446e+001 -5.9366e+001  2.9544e-001 40930 94423,94475,94449
 1.9000e+000 94668 -8.8733e+000 -7.3985e+001 -1.4581e+001 40930 94475,94423,94642
 1.9000e+000 94691  8.1274e+000 -7.5607e+001 -9.9953e+000 40930 94475,94642,94345
 1.9000e+000 95148 -3.5413e+001 -9.7493e+001  1.8623e+001 40362 95171,94952,94926
 1.9000e+000 95125 -3.3013e+001 -9.8256e+001  1.1287e+001 40362 95171,94926,95004
 1.9000e+000 95102 -4.4009e+001 -9.5235e+001  1.1282e+001 40362 94874,95004,94926
 1.9000e+000 95079 -9.4209e+000 -8.6804e+001  1.9298e+001 40362 94874,95030,95004
 1.9000e+000 95056 -4.2475e+001 -1.1306e+002 -8.8378e+000 40362 94874,94926,94900
 1.9000e+000 95197 -3.4956e+001 -1.0522e+002  1.9826e+001 40362 94978,94952,95171
 1.9000e+000 95220 -3.3210e+001 -1.0589e+002  1.2752e+001 40362 94978,95171,95004
 1.9000e+000 95549 -2.5658e+001 -8.0494e+001  1.9283e+000 39586 95350,95402,95376
 1.9000e+000 95526  5.5654e+000 -6.8036e+001 -2.5054e+000 39586 95324,95402,95350
 1.9000e+000 95503 -1.3009e+001 -7.4145e+001  2.1991e+001 39586 95324,95454,95402
 1.9000e+000 95480 -1.3874e+001 -1.0093e+002  2.2103e+001 39586 95402,95454,95428
 1.9000e+000 96055  1.0689e+000 -5.0475e+001 -3.8284e+000 38968 96078,95862,95810
 1.9000e+000 96032 -8.8880e+000 -5.5387e+001 -7.7750e+000 38968 96078,95810,95758
 1.9000e+000 96009  1.0832e+001 -7.2441e+001 -1.4387e+001 38968 96150,95732,95888
 1.9000e+000 95986  1.9923e+000 -4.5051e+001  2.9071e+000 38968 95810,95862,95836
 1.9000e+000 95963  1.4339e+001 -6.9000e+001 -1.7353e+001 38968 95732,95914,95888
 1.9000e+000 95940 -2.0473e+001 -5.4144e+001  3.6539e+000 38968 95758,95810,95784
 1.9000e+000 96104 -5.7479e+000 -5.7994e+001  4.5404e-001 38968 95888,95862,96078
 1.9000e+000 96127 -2.5531e+000 -6.7724e+001 -1.3989e+000 38968 96150,95888,96078
 1.9000e+000 96176  2.9544e+001 -5.1923e+001 -2.3664e+001 38968 95758,95732,96150
 1.9000e+000 96199  1.5757e+001 -4.3678e+001 -1.1288e+001 38968 95758,96150,96078
 1.9000e+000 96545 -4.1272e+000 -8.0168e+001 -7.6166e+000 38507 96640,96568,96352
 1.9000e+000 96522 -2.3609e+001 -1.0570e+002  5.2711e+000 38507 96568,96300,96222
 1.9000e+000 96499  1.9994e+000 -6.8158e+001 -2.8984e+001 38507 96640,96352,96326
 1.9000e+000 96476 -9.9814e+000 -8.2616e+001  2.6938e+000 38507 96352,96404,96378
 1.9000e+000 96453 -3.4878e+001 -1.3172e+002  1.8788e+000 38507 96222,96300,96248
 1.9000e+000 96430 -3.4737e+001 -1.6152e+002 -7.8714e+000 38507 96248,96300,96274
 1.9000e+000 96594 -1.2450e+001 -9.8232e+001 -9.7250e-001 38507 96404,96352,96568
 1.9000e+000 96617 -1.2078e+001 -9.6795e+001 -9.0406e-001 38507 96404,96568,96222
 1.9000e+000 96666 -1.8722e+001 -1.1239e+002 -5.7177e-001 38507 96300,96568,96640
 1.9000e+000 96689 -1.7521e+001 -1.0322e+002 -1.9986e+001 38507 96300,96640,96326
 1.9000e+000 97069 -1.4981e+001 -5.1218e+001 -4.3404e+000 37760 97092,96873,96821
 1.9000e+000 97046 -2.1228e+001 -5.4190e+001 -1.3023e+000 37760 97092,96821,96795
 1.9000e+000 97023 -2.2773e+001 -6.7921e+001  1.2927e+000 37760 96821,96873,96847
 1.9000e+000 97000 -4.3556e+000 -3.7759e+001 -1.1605e+001 37760 96873,96925,96899
 1.9000e+000 96977 -1.3020e+001 -3.6364e+001 -1.7558e+001 37760 96795,96951,96925
 1.9000e+000 97118 -9.2179e+000 -4.4536e+001 -1.3730e+001 37760 96925,96873,97092
 1.9000e+000 97141 -2.7691e+001 -5.2907e+001 -9.9753e+000 37760 96925,97092,96795
 1.9000e+000 97647 -4.7570e+001 -9.8827e+001  6.9270e+000 37356 97324,97480,97376
 1.9000e+000 97624 -2.5258e+001 -9.5702e+001  1.6460e+001 37356 97324,97506,97480
 1.9000e+000 97601 -4.7444e+001 -8.8932e+001  8.7968e+000 37356 97376,97480,97454
 1.9000e+000 97578 -5.5326e+001 -1.0551e+002  1.1977e+001 37356 97324,97376,97350
 1.9000e+000 97555 -1.3532e+001 -6.9416e+001  2.0317e+001 37356 97376,97454,97402
 1.9000e+000 97532 -7.5997e+001 -1.2511e+002 -4.1272e+000 37356 97402,97454,97428
 1.9000e+000 98232 -1.3035e+001 -4.6719e+001 -9.1049e+000 36902 97935,98065,98013
 1.9000e+000 98209  1.3613e+001 -3.8584e+001 -9.7583e+000 36902 97935,98091,98065
 1.9000e+000 98186 -8.4160e+000 -4.7931e+001 -7.5465e+000 36902 97935,98013,97987
 1.9000e+000 98163  1.9673e+000 -1.3707e+001 -1.3383e+001 36902 97909,98091,97935
 1.9000e+000 98140  5.0498e-002 -3.6682e+001 -1.2096e+001 36902 97935,97987,97961
 1.9000e+000 98117 -1.8894e+001 -6.8596e+001 -1.7847e+000 36902 98013,98065,98039
 1.9000e+000 98659 -7.8043e+000 -1.1541e+002 -4.6633e+000 36604 98682,98414,98388
 1.9000e+000 98636 -1.5060e+001 -1.1552e+002  8.0918e+000 36604 98682,98388,98336
 1.9000e+000 98613 -3.1399e+001 -1.0313e+002  1.0764e+000 36604 98754,98518,98466
 1.9000e+000 98590 -3.4140e+001 -8.7564e+001 -1.7793e+001 36604 98414,98466,98440
 1.9000e+000 98567  5.2373e+000 -1.5702e+002  1.1535e+001 36604 98336,98388,98362
 1.9000e+000 98544 -9.6166e+000 -1.1465e+002  6.1340e+001 36604 98466,98518,98492
 1.9000e+000 98708 -3.6048e+000 -9.7362e+001 -1.3936e+001 36604 98466,98414,98682
 1.9000e+000 98731 -2.2345e+001 -1.0984e+002 -9.6834e-001 36604 98754,98466,98682
 1.9000e+000 98780 -2.2208e+001 -1.0410e+002  2.3471e+000 36604 98336,98518,98754
 1.9000e+000 98803 -7.6014e+000 -1.0566e+002  3.0097e+000 36604 98336,98754,98682
 1.9000e+000 99309 -1.3944e+001 -6.5822e+001  1.3515e+001 36200 99332,99116,99012
 1.9000e+000 99286 -1.2952e+001 -3.1132e+001 -2.8758e+000 36200 99332,99012,98986
 1.9000e+000 99263 -8.4911e+000 -5.4476e+001  1.1773e+001 36200 99012,99116,99064
 1.9000e+000 99240 -6.3819e+000 -5.0946e+001 -3.3937e+000 36200 98986,99168,99142
 1.9000e+000 99217 -2.4311e+001 -6.1679e+001  1.4687e+001 36200 99064,99116,99090
 1.9000e+000 99194 -2.7732e+001 -6.3542e+001 -5.9672e-001 36200 99012,99064,99038
 1.9000e+000 99358 -1.7626e+001 -8.9455e+001  2.3210e+001 36200 99142,99116,99332
 1.9000e+000 99381 -1.9833e+001 -6.7175e+001  3.3695e+000 36200 99142,99332,98986
 1.9000e+000 99887 -3.8944e+001 -8.3271e+001  2.1388e+000 35488 99564,99720,99590
 1.9000e+000 99864 -3.3422e+001 -7.2274e+001  7.0235e+000 35488 99564,99746,99720
 1.9000e+000 99841 -1.3799e+001 -8.5723e+001 -2.2365e-001 35488 99642,99694,99668
 1.9000e+000 99818 -2.7914e+001 -9.5225e+001  6.2096e+000 35488 99590,99694,99642
 1.9000e+000 99795 -1.7408e+001 -7.7628e+001  1.7891e+000 35488 99590,99720,99694
 1.9000e+000 99772 -3.0968e+000 -1.2751e+002  9.5779e+000 35488 99590,99642,99616
 1.9000e+000 99988 -7.8625e-001 -4.7335e+001  2.8876e+000 35198 99910,99962,99936
 1.9000e+000 100138  4.1641e+000 -9.1483e+001  8.6263e+000 34794 100233,100161,100063
 1.9000e+000 100115 -3.3013e+001 -1.1672e+002  2.4612e+000 34794 100365,100161,100037
 1.9000e+000 100187  2.2484e+001 -9.1578e+001  5.4933e+000 34794 100089,100063,100161
 1.9000e+000 100210  1.0752e+001 -9.3119e+001  6.0924e+000 34794 100089,100161,100011
 1.9000e+000 100259 -2.2513e+001 -1.3913e+002 -1.5606e+001 34794 100037,100161,100233
 1.9000e+000 100391  3.3882e+001 -6.1634e+001 -2.2069e+001 34794 100011,100161,100365
 1.9000e+000 100927 -1.9201e+000 -7.5222e+001 -2.8026e+000 34404 100679,100809,100783
 1.9000e+000 100904  8.5477e+000 -7.5458e+001 -1.7317e+000 34404 100653,100809,100679
 1.9000e+000 100881 -1.3411e+001 -8.4653e+001 -1.7171e+000 34404 100705,100783,100731
 1.9000e+000 100858 -1.0169e+001 -8.0198e+001  4.7223e-001 34404 100679,100783,100705
 1.9000e+000 100835 -2.7642e+001 -9.5952e+001 -1.4812e+001 34404 100731,100783,100757
 1.9000e+000 101354 -3.0498e+001 -1.1080e+002  1.3106e+001 34000 101377,101109,101057
 1.9000e+000 101331 -5.5870e+001 -1.2285e+002  9.5372e+000 34000 101449,101377,101057
 1.9000e+000 101308 -6.2996e+001 -1.1405e+002  8.5496e+000 34000 101449,101057,101031
 1.9000e+000 101285 -5.2775e+001 -1.0926e+002  2.6996e+001 34000 101031,101213,101187
 1.9000e+000 101262 -4.1241e+001 -1.3378e+002 -1.7554e+001 34000 101135,101187,101161
 1.9000e+000 101239 -4.6408e+001 -1.3241e+002  2.0862e+001 34000 101057,101109,101083
 1.9000e+000 101403 -4.1719e+001 -1.1190e+002 -2.8635e+000 34000 101135,101109,101377
 1.9000e+000 101426 -5.8165e+001 -1.1844e+002 -4.6021e+000 34000 101135,101377,101187
 1.9000e+000 101475 -4.2136e+001 -1.1374e+002  4.5289e+000 34000 101187,101377,101449
 1.9000e+000 101498 -5.3487e+001 -1.1001e+002  5.9710e+000 34000 101187,101449,101031
 1.9000e+000 102083  1.3211e+001 -6.8948e+001  1.4086e+000 33472 102106,101812,101786
 1.9000e+000 102060 -9.0678e+000 -7.5679e+001 -1.8653e+000 33472 102106,101786,101916
 1.9000e+000 102037 -2.1426e+001 -8.4971e+001 -1.2388e+001 33472 101812,101864,101838
 1.9000e+000 102014 -6.4976e+000 -9.8668e+001 -9.5544e+000 33472 101864,101916,101890
 1.9000e+000 101991 -2.5184e+001 -8.3134e+001 -6.7138e+000 33472 101786,101942,101916
 1.9000e+000 101968 -3.3046e+001 -8.2680e+001  1.2254e+001 33472 101760,101942,101786
 1.9000e+000 102132 -1.5855e+000 -7.2822e+001 -7.2173e+000 33472 101864,101812,102106
 1.9000e+000 102155 -1.0216e+001 -7.3516e+001 -1.1686e+001 33472 101864,102106,101916
 1.9000e+000 102612 -3.4037e+001 -9.5899e+001 -3.1970e+001 33038 102635,102468,102390
 1.9000e+000 102589 -4.8532e+001 -1.2067e+002 -3.9530e+001 33038 102635,102390,102364
 1.9000e+000 102566 -2.0199e+001 -8.8900e+001 -2.8607e+001 33038 102390,102468,102442
 1.9000e+000 102543  7.0894e-001 -8.7449e+001 -6.5358e+000 33038 102338,102494,102364
 1.9000e+000 102520 -1.8195e+001 -8.0568e+001 -1.4586e+001 33038 102390,102442,102416
 1.9000e+000 102661 -3.4394e+001 -9.0055e+001 -1.7391e+001 33038 102494,102468,102635
 1.9000e+000 102684 -3.9270e+001 -1.0518e+002 -2.2693e+001 33038 102494,102635,102364
 1.9000e+000 103318 -2.6565e+001 -6.4761e+001  2.4627e+000 32402 102972,103128,103076
 1.9000e+000 103295 -2.4932e+001 -6.8144e+001  1.3595e+000 32402 102946,103128,102972
 1.9000e+000 103272 -2.8508e+001 -7.0271e+001  4.1616e+000 32402 103076,103128,103102
 1.9000e+000 103249 -2.3722e+001 -6.6231e+001  1.9666e+001 32402 102946,103154,103128
 1.9000e+000 103226 -2.2594e+001 -5.5636e+001 -4.7190e+000 32402 102972,103076,102998
 1.9000e+000 103203 -2.2721e+001 -6.2162e+001 -9.2738e+000 32402 102998,103076,103050
 1.9000e+000 103180 -2.7888e+001 -4.7999e+001 -1.3164e+001 32402 102998,103050,103024
 1.9000e+000 103696 -3.9888e+001 -1.1223e+002 -4.1542e+000 31924 103448,103526,103500
 1.9000e+000 103673 -1.6762e+001 -1.0592e+002 -1.8476e+001 31924 103448,103578,103526
 1.9000e+000 103650 -3.0725e+001 -1.0510e+002 -7.6565e+000 31924 103448,103500,103474
 1.9000e+000 103627 -2.3028e+001 -1.1718e+002 -2.1486e+001 31924 103422,103578,103448
 1.9000e+000 103604 -3.3200e+001 -1.5469e+002 -4.9862e+000 31924 103526,103578,103552
 1.9000e+000 104281 -2.2010e+000 -4.6982e+001  4.6321e-001 31520 104304,104062,104036
 1.9000e+000 104258 -2.7455e+001 -4.6693e+001 -2.5223e+000 31520 104304,104036,103984
 1.9000e+000 104235 -1.7504e+001 -4.4961e+001 -2.9392e+001 31520 104062,104114,104088
 1.9000e+000 104212 -1.6542e+001 -4.8679e+001 -8.9349e+000 31520 103958,104114,103984
 1.9000e+000 104189 -3.1845e+001 -5.6978e+001 -3.6800e+000 31520 103984,104036,104010
 1.9000e+000 104166 -8.2326e+000 -5.5066e+001 -1.1852e+001 31520 103958,104140,104114
 1.9000e+000 104330  4.8748e+000 -5.1146e+001 -1.0528e+001 31520 104114,104062,104304
 1.9000e+000 104353 -9.1232e+000 -4.5526e+001 -8.9860e+000 31520 104114,104304,103984
 1.9000e+000 104704 -2.3785e+000 -3.5243e+001 -1.8202e+000 31066 104479,104583,104505
 1.9000e+000 104681  1.3399e+001 -2.3793e+001 -7.1139e+000 31066 104479,104609,104583
 1.9000e+000 104658  1.9664e+000 -5.4740e+001 -9.6331e-001 31066 104505,104557,104531
 1.9000e+000 104635  4.0008e+000 -3.8153e+001 -3.8439e+000 31066 104505,104583,104557
 1.9000e+000 104925 -5.2146e+000 -1.1166e+002  1.5703e+000 30754 104775,104827,104801
 1.9000e+000 104902 -3.8914e+000 -8.6409e+001  9.6281e-001 30754 104775,104853,104827
 1.9000e+000 104879  4.5841e+000 -8.2382e+001  6.6923e+000 30754 104749,104853,104775
 1.9000e+000 105482 -5.1782e+000 -8.3175e+001  1.2289e+001 30164 105505,105136,105110
 1.9000e+000 105459 -3.2249e+001 -9.8352e+001  1.9264e+001 30164 105649,105505,105110
 1.9000e+000 105436 -2.4630e+001 -8.9218e+001  4.7546e+000 30164 105577,105188,105136
 1.9000e+000 105413 -5.3775e+001 -1.0865e+002  2.6195e+001 30164 105649,105110,105318
 1.9000e+000 105390 -3.7599e+001 -1.4039e+002  2.1733e+001 30164 105214,105292,105240
 1.9000e+000 105367 -6.4283e+000 -1.3200e+002  2.1093e+001 30164 105240,105292,105266
 1.9000e+000 105344 -2.7010e+001 -7.8341e+001  1.7990e+000 30164 105136,105188,105162
 1.9000e+000 105531 -2.6309e+001 -8.9374e+001  8.8355e+000 30164 105577,105136,105505
 1.9000e+000 105554 -1.0102e+001 -8.0980e+001  6.5599e+000 30164 105214,105505,105292
 1.9000e+000 105603 -2.3197e+001 -8.3798e+001  3.3100e+000 30164 105214,105188,105577
 1.9000e+000 105626 -2.3958e+001 -8.3251e+001  7.1879e+000 30164 105214,105577,105505
 1.9000e+000 105675 -2.8192e+001 -9.3202e+001  9.5230e-001 30164 105292,105505,105649
 1.9000e+000 105698 -3.1126e+001 -9.1542e+001  6.6207e+000 30164 105292,105649,105318
 1.9000e+000 106027  1.2152e+001 -5.1653e+001  6.9918e+000 29868 106322,106050,105880
 1.9000e+000 106004 -1.1363e+001 -5.0117e+001 -4.5039e+000 29868 106250,106050,105828
 1.9000e+000 105981 -1.2345e+001 -5.1703e+001 -6.8287e+000 29868 106250,105828,105802
 1.9000e+000 105958 -8.4750e-001 -3.9391e+001  1.9210e+001 29868 106322,105880,106122
 1.9000e+000 106076 -5.1171e+000 -8.3669e+001 -1.0635e+000 29868 105906,105880,106050
 1.9000e+000 106099 -6.1501e+000 -5.6864e+001 -6.6107e+000 29868 105906,106050,105932
 1.9000e+000 106148 -3.3614e+001 -7.1687e+001  9.0938e+000 29868 105854,105828,106122
 1.9000e+000 106276 -1.3169e+001 -5.2649e+001 -7.4807e+000 29868 105932,106050,106250
 1.9000e+000 106299 -1.7148e+001 -5.6460e+001 -1.0261e+001 29868 105932,106250,105802
 1.9000e+000 106348 -1.1254e+001 -6.3495e+001  2.2044e+000 29868 105828,106050,106322
 1.9000e+000 106371 -2.1929e+001 -5.0042e+001  1.4562e+001 29868 105828,106322,106122
 1.9000e+000 106828 -6.8595e+000 -5.0744e+001 -3.4068e-001 29521 106580,106710,106684
 1.9000e+000 106805 -2.0993e+001 -5.1754e+001 -1.5088e+001 29521 106554,106710,106580
 1.9000e+000 106782 -1.8109e+001 -4.9292e+001 -2.6217e-001 29521 106580,106684,106606
 1.9000e+000 106759 -3.1618e+001 -7.4647e+001 -6.3710e+000 29521 106606,106684,106658
 1.9000e+000 106736 -1.0873e+001 -4.9063e+001  4.2260e+000 29521 106606,106658,106632
 1.9000e+000 107027 -3.1279e+001 -9.3147e+001 -1.4520e+001 29117 106877,106929,106903
 1.9000e+000 107004 -2.1293e+001 -8.8885e+001 -1.5825e+001 29117 106851,106929,106877
 1.9000e+000 106981 -2.6063e+001 -1.0473e+002 -1.2499e+001 29117 106851,106955,106929
 1.9000e+000 107456 -2.8093e+001 -1.1242e+002 -1.8376e+001 28656 107237,107315,107263
 1.9000e+000 107433 -1.0733e+001 -7.8368e+001 -8.4523e+000 28656 107133,107315,107237
 1.9000e+000 107410 -4.0960e+000 -6.7640e+001 -1.1637e+001 28656 107133,107237,107159
 1.9000e+000 107387  4.5212e+000 -4.6758e+001 -1.7529e+001 28656 107159,107237,107185
 1.9000e+000 107364 -3.6524e+000 -4.4989e+001  6.1179e-001 28656 107185,107237,107211
 1.9000e+000 107341 -6.7695e+000 -6.5229e+001 -1.2871e+001 28656 107263,107315,107289
 1.9000e+000 107704 -1.6175e+001 -9.0891e+001  3.3927e+000 27902 107727,107557,107531
 1.9000e+000 107681 -9.0276e+000 -7.8500e+001  6.2996e+000 27902 107727,107531,107505
 1.9000e+000 107658 -2.1113e+001 -8.2944e+001 -6.8201e+000 27902 107557,107609,107583
 1.9000e+000 107635 -3.6190e+001 -7.4003e+001  2.8397e+000 27902 107479,107609,107505
 1.9000e+000 107753 -2.4212e+001 -7.9885e+001 -2.4004e+000 27902 107609,107557,107727
 1.9000e+000 107776 -1.8445e+001 -6.9904e+001 -3.3706e-002 27902 107609,107727,107505
 1.9000e+000 108333 -3.4734e+001 -1.1929e+002 -3.6434e+000 27341 108356,108065,108013
 1.9000e+000 108310 -3.6200e+001 -1.1701e+002 -1.6459e+001 27341 108356,108013,108143
 1.9000e+000 108287 -1.7769e+001 -1.3330e+002 -1.5194e+001 27341 108428,108117,108091
 1.9000e+000 108264 -4.3635e+001 -1.1487e+002 -1.6157e+000 27341 108013,108065,108039
 1.9000e+000 108241 -6.5101e+001 -1.0845e+002 -1.8881e+001 27341 107987,108143,108013
 1.9000e+000 108218 -3.4661e+001 -9.5179e+001 -2.3244e+001 27341 107987,108169,108143
 1.9000e+000 108195 -2.9758e+001 -9.1687e+001 -2.1563e+001 27341 107961,108169,107987
 1.9000e+000 108382 -3.9725e+001 -1.3355e+002 -2.2330e-001 27341 108091,108065,108356
 1.9000e+000 108405 -2.8231e+001 -1.1738e+002 -8.4320e+000 27341 108428,108091,108356
 1.9000e+000 108454 -3.7205e+001 -1.5858e+002 -2.3757e+001 27341 108143,108117,108428
 1.9000e+000 108477 -4.5120e+001 -1.3784e+002 -1.6135e+001 27341 108143,108428,108356
 1.9000e+000 108725 -2.4913e+000 -9.4870e+001 -5.1206e+000 27029 108748,108526,108500
 1.9000e+000 108702 -6.9076e+000 -7.1892e+001 -2.0603e+000 27029 108748,108500,108630
 1.9000e+000 108679 -2.2107e+001 -9.7435e+001  2.2324e+000 27029 108578,108630,108604
 1.9000e+000 108656 -1.1685e-001 -8.7056e+001  1.9765e+001 27029 108526,108578,108552
 1.9000e+000 108774 -7.0903e+000 -1.0715e+002 -6.6555e+000 27029 108578,108526,108748
 1.9000e+000 108797 -1.6721e+001 -9.0833e+001 -5.9798e+000 27029 108578,108748,108630
 1.9000e+000 109045 -1.5304e+001 -8.4009e+001 -4.8654e+000 26610 108872,108924,108898
 1.9000e+000 109022 -1.8162e+001 -8.3855e+001 -4.7452e+000 26610 108872,108950,108924
 1.9000e+000 108999 -2.0995e+001 -8.6321e+001 -7.6762e+000 26610 108846,108950,108872
 1.9000e+000 108976 -1.0506e+001 -9.0384e+001 -6.0443e+000 26610 108820,108950,108846
 1.9000e+000 109366 -2.3505e+001 -1.2782e+002 -1.8607e+000 26006 109144,109222,109196
 1.9000e+000 109343 -1.1790e+001 -1.2744e+002 -8.2763e-001 26006 109118,109222,109144
 1.9000e+000 109320 -3.4438e+001 -1.4232e+002  7.7088e+000 26006 109092,109222,109118
 1.9000e+000 109297 -3.3010e+001 -1.3124e+002 -8.2669e+000 26006 109144,109196,109170
 1.9000e+000 109274 -7.8103e+000 -1.0335e+002 -4.0017e+000 26006 109092,109248,109222
 1.9000e+000 109567 -2.9364e+001 -8.9028e+001 -9.6410e+000 25659 109391,109469,109443
 1.9000e+000 109544 -2.3478e+001 -8.7739e+001 -6.8486e+000 25659 109391,109495,109469
 1.9000e+000 109521 -3.4889e+001 -9.2447e+001 -5.7476e+000 25659 109391,109443,109417
 1.9000e+000 109900 -3.4409e+001 -8.2709e+001 -6.0934e+000 25255 109923,109779,109753
 1.9000e+000 109877 -3.1968e+001 -7.7371e+001 -6.8319e+000 25255 109923,109753,109701
 1.9000e+000 109854 -2.9674e+001 -6.4741e+001 -1.0413e+001 25255 109675,109805,109701
 1.9000e+000 109831 -4.3796e+001 -7.3013e+001 -8.0807e+000 25255 109701,109753,109727
 1.9000e+000 109949 -3.2518e+001 -8.9672e+001 -1.1607e+001 25255 109805,109779,109923
 1.9000e+000 109972 -2.8432e+001 -8.0010e+001 -1.2505e+001 25255 109805,109923,109701
 1.9000e+000 110220 -3.7583e+001 -8.7911e+001  9.8839e+000 24701 110243,110021,109995
 1.9000e+000 110197 -3.7663e+001 -9.2356e+001  1.2546e+000 24701 110243,109995,110099
 1.9000e+000 110174 -3.1587e+001 -8.7096e+001  4.2752e+000 24701 110315,110073,110047
 1.9000e+000 110151 -3.2687e+001 -9.6638e+001  1.4454e+000 24701 109995,110125,110099
 1.9000e+000 110269 -2.7382e+001 -8.2807e+001  1.1587e+001 24701 110047,110021,110243
 1.9000e+000 110292 -4.1702e+001 -8.7250e+001  7.2265e+000 24701 110315,110047,110243
 1.9000e+000 110341 -4.0123e+000 -8.1054e+001  4.6420e+000 24701 110099,110073,110315
 1.9000e+000 110364 -2.2032e+001 -8.5642e+001  5.7794e+000 24701 110099,110315,110243
 1.9000e+000 110661 -2.6755e+001 -1.0329e+002 -5.0979e+000 24197 110684,110413,110387
 1.9000e+000 110638 -1.8518e+001 -8.8519e+001 -1.0346e+001 24197 110684,110387,110543
 1.9000e+000 110615 -7.6053e+000 -1.5252e+002  9.1995e+000 24197 110756,110491,110465
 1.9000e+000 110592 -3.1551e+001 -9.5616e+001  7.1450e+000 24197 110413,110465,110439
 1.9000e+000 110569 -2.7198e+001 -2.2042e+002 -1.7342e+001 24197 110491,110543,110517
 1.9000e+000 110710 -1.4120e+001 -9.4959e+001  5.1915e+000 24197 110465,110413,110684
 1.9000e+000 110733 -2.9688e+001 -1.3077e+002  3.4131e+000 24197 110756,110465,110684
 1.9000e+000 110782  5.7736e+000 -1.2793e+002 -8.1449e+000 24197 110543,110491,110756
 1.9000e+000 110805 -6.6250e+000 -9.5460e+001 -1.5366e+001 24197 110543,110756,110684
 1.9000e+000 111315 -3.3456e+001 -1.0754e+002 -9.1792e+000 23593 111044,111148,111070
 1.9000e+000 111292 -3.4840e+001 -9.9776e+001 -5.6258e+000 23593 111044,111174,111148
 1.9000e+000 111269 -1.9519e+001 -8.0415e+001  6.4705e+000 23593 111070,111122,111096
 1.9000e+000 111246 -4.1823e+001 -1.2774e+002 -1.0015e+001 23593 111070,111148,111122
 1.9000e+000 111223 -4.0857e+001 -9.3124e+001 -1.4540e+001 23593 111018,111174,111044
 1.9000e+000 111200 -1.9468e+001 -1.0335e+002 -1.1039e+001 23593 110992,111174,111018
 1.9000e+000 111821  1.7087e+001 -1.1168e+002 -4.3744e+000 23089 111916,111844,111628
 1.9000e+000 111798 -3.1127e+001 -1.3212e+002 -1.7417e+001 23089 111844,111550,111524
 1.9000e+000 111775  2.8246e+001 -1.0808e+002 -5.9285e-001 23089 111916,111628,111602
 1.9000e+000 111752 -7.4365e+000 -1.8898e+002 -8.5478e+000 23089 111498,111680,111524
 1.9000e+000 111729  3.5631e+001 -8.0764e+001 -1.4863e-001 23089 111550,111602,111576
 1.9000e+000 111706  2.4043e+001 -7.9111e+001 -1.4353e+001 23089 111628,111680,111654
 1.9000e+000 111870 -9.0600e+000 -1.1323e+002  9.2988e-001 23089 111680,111628,111844
 1.9000e+000 111893 -1.0347e+001 -1.1585e+002  4.3189e+000 23089 111680,111844,111524
 1.9000e+000 111942 -9.8574e+000 -1.0029e+002 -5.7060e+000 23089 111550,111844,111916
 1.9000e+000 111965  5.3935e+000 -9.3934e+001 -1.8724e+000 23089 111550,111916,111602
 1.9000e+000 112164  4.3724e+001 -8.0240e+001 -2.4094e+001 22626 112187,112014,111988
 1.9000e+000 112141 -6.8288e+000 -8.7608e+001 -9.4605e+000 22626 112259,112187,111988
 1.9000e+000 112118 -8.5209e+000 -9.3488e+001 -9.3295e-001 22626 112259,111988,112092
 1.9000e+000 112213 -3.4588e+000 -6.7481e+001 -3.0708e+001 22626 112040,112014,112187
 1.9000e+000 112236 -3.1354e+001 -7.1091e+001 -2.4473e+000 22626 112040,112187,112066
 1.9000e+000 112285 -5.3575e+000 -7.3731e+001 -1.2708e+001 22626 112066,112187,112259
 1.9000e+000 112308 -4.3764e+000 -7.7688e+001 -4.9047e+000 22626 112066,112259,112092
 1.9000e+000 112605  8.2793e+000 -9.5999e+001  6.8259e+000 22286 112628,112383,112357
 1.9000e+000 112582 -1.6753e+001 -1.0314e+002  3.8045e+000 22286 112772,112628,112357
 1.9000e+000 112559 -3.9477e+001 -1.1060e+002  5.1900e+000 22286 112700,112435,112409
 1.9000e+000 112536 -3.2358e+001 -1.0481e+002  6.9728e+000 22286 112772,112357,112331
 1.9000e+000 112513 -3.7604e+001 -8.7445e+001 -1.4147e+000 22286 112435,112487,112461
 1.9000e+000 112654 -5.0752e+000 -8.0397e+001 -9.7460e+000 22286 112409,112383,112628
 1.9000e+000 112677 -3.0531e+001 -9.7630e+001 -1.5965e+000 22286 112700,112409,112628
 1.9000e+000 112726 -2.7820e+001 -9.9234e+001 -4.6620e+000 22286 112487,112435,112700
 1.9000e+000 112749 -2.4533e+001 -9.7568e+001 -1.0066e+001 22286 112487,112700,112628
 1.9000e+000 112798 -1.0022e+001 -1.0047e+002  9.8094e-001 22286 112487,112628,112772
 1.9000e+000 112821 -1.4596e+001 -9.5425e+001  3.2400e+000 22286 112487,112772,112331
 1.9000e+000 112924  3.9323e-001 -7.6701e-002 -3.1036e+000 21974 112846,112898,112872
 1.9000e+000 113223 -5.6872e+001 -1.3418e+002  1.3019e+001 21420 112949,113053,112975
 1.9000e+000 113200 -5.1579e+001 -1.0812e+002  1.3089e+001 21420 112949,113079,113053
 1.9000e+000 113177 -2.5264e+001 -1.2123e+002  1.2611e+001 21420 112975,113053,113001
 1.9000e+000 113154 -6.3192e+001 -1.3353e+002  1.0100e+001 21420 113001,113053,113027
 1.9000e+000 113131 -6.3991e+001 -1.0090e+002  6.1765e+000 21420 112949,113105,113079
 1.9000e+000 113605 -2.1464e+001 -1.5221e+002  3.4274e+001 20716 113331,113435,113357
 1.9000e+000 113582 -2.5208e+001 -7.3535e+001  3.7581e+001 20716 113331,113461,113435
 1.9000e+000 113559 -1.2644e+001 -1.3223e+002 -4.1189e+000 20716 113383,113435,113409
 1.9000e+000 113536 -3.8595e+001 -1.3538e+002 -6.3256e+000 20716 113357,113435,113383
 1.9000e+000 113513 -2.4242e+000 -2.9842e+001  7.2211e+000 20716 113331,113487,113461
 1.9000e+000 113853 -2.0531e+001 -1.1956e+002  4.7175e+000 20290 113876,113680,113654
 1.9000e+000 113830 -1.2292e+001 -1.1650e+002  5.8293e+000 20290 113876,113654,113628
 1.9000e+000 113807 -2.7498e+001 -1.2501e+002 -3.7608e+000 20290 113948,113732,113680
 1.9000e+000 113784  3.1774e+001 -1.1071e+002 -1.0321e+001 20290 113680,113732,113706
 1.9000e+000 113902 -1.9633e+001 -1.1570e+002  4.6906e+000 20290 113948,113680,113876
 1.9000e+000 113925 -2.4647e+001 -1.0733e+002  5.3964e+000 20290 113758,113876,113628
 1.9000e+000 113974 -3.7294e+001 -1.1675e+002 -6.4165e+000 20290 113758,113732,113948
 1.9000e+000 113997 -3.6894e+001 -1.1683e+002  3.4165e-001 20290 113758,113948,113876
 1.9000e+000 114365 -2.6971e+001 -1.1961e+002  3.9673e-001 19900 114146,114198,114172
 1.9000e+000 114342 -2.6942e+001 -1.1971e+002 -3.3836e-001 19900 114042,114198,114146
 1.9000e+000 114319 -2.5602e+001 -1.2108e+002 -1.3507e+000 19900 114042,114224,114198
 1.9000e+000 114296 -4.1834e+001 -1.1634e+002 -1.1709e+000 19900 114094,114146,114120
 1.9000e+000 114273 -2.6993e+001 -1.1337e+002 -3.9701e+000 19900 114042,114146,114094
 1.9000e+000 114250 -1.1502e+001 -1.1207e+002 -9.7745e+000 19900 114042,114094,114068
 1.9000e+000 114566 -3.5004e+001 -1.1778e+002  1.0271e+000 19496 114442,114494,114468
 1.9000e+000 114543 -5.4785e+001 -1.1511e+002 -8.5284e+000 19496 114416,114494,114442
 1.9000e+000 114520 -3.7713e+001 -1.0583e+002 -4.9443e+000 19496 114390,114494,114416
 1.9000e+000 114767 -1.8883e+001 -1.1959e+002  2.7404e+000 19042 114790,114669,114643
 1.9000e+000 114744 -2.3970e+001 -1.1542e+002  4.5728e+000 19042 114790,114643,114591
 1.9000e+000 114721 -1.4940e+001 -1.2103e+002  1.8742e+001 19042 114591,114643,114617
 1.9000e+000 114816 -1.7656e+001 -1.1582e+002  1.2034e+000 19042 114695,114669,114790
 1.9000e+000 114839 -2.1019e+001 -1.0911e+002  2.9671e+000 19042 114695,114790,114591
 1.9000e+000 114991 -3.6937e+001 -1.2226e+002 -1.4844e+000 18488 114864,114916,114890
 1.9000e+000 114968  1.0563e+001 -1.3372e+002 -1.4293e+001 18488 114864,114942,114916
 1.9000e+000 115192  2.0153e+001 -9.6673e+001  5.2333e+000 18098 115215,115042,115016
 1.9000e+000 115169  5.8526e+000 -8.1717e+001 -4.1215e+000 18098 115215,115016,115120
 1.9000e+000 115146  8.1936e+000 -9.7753e+001 -6.3330e+000 18098 115287,115094,115068
 1.9000e+000 115241  9.3322e+000 -1.2234e+002  1.7344e-001 18098 115068,115042,115215
 1.9000e+000 115264  8.7198e+000 -9.3996e+001 -1.1980e+000 18098 115287,115068,115215
 1.9000e+000 115313  1.8930e+000 -1.0171e+002 -9.0312e+000 18098 115120,115094,115287
 1.9000e+000 115336 -1.1091e-001 -9.9275e+001 -4.2241e+000 18098 115120,115287,115215
 1.9000e+000 115846  8.6326e+000 -1.3951e+002 -2.9726e+001 17644 115653,115705,115679
 1.9000e+000 115823 -2.8292e+001 -1.2755e+002 -7.3990e+000 17644 115627,115705,115653
 1.9000e+000 115800 -1.2146e+001 -1.1148e+002  2.5541e+000 17644 115549,115705,115627
 1.9000e+000 115777 -1.7676e+001 -1.2826e+002  3.6499e+000 17644 115549,115627,115575
 1.9000e+000 115754  1.0734e+001 -8.0312e+001  3.3835e+001 17644 115523,115705,115549
 1.9000e+000 115731 -1.4508e+001 -1.1680e+002 -4.4934e+000 17644 115575,115627,115601
 1.9000e+000 116067  1.8806e+001 -1.6671e+002 -5.3405e+000 17116 115891,115943,115917
 1.9000e+000 116044 -4.8772e+001 -1.8859e+002  1.1495e+001 17116 115891,115995,115943
 1.9000e+000 116021 -6.3550e+001 -1.5114e+002  5.3336e-001 17116 115943,115995,115969
 1.9000e+000 116288 -7.1453e+000 -1.2017e+002  2.3237e+001 16704 116164,116216,116190
 1.9000e+000 116265 -2.7381e+001 -1.6452e+002  1.5006e+001 16704 116112,116216,116164
 1.9000e+000 116242 -2.6472e+001 -1.4692e+002 -3.3085e+000 16704 116112,116164,116138
 1.9000e+000 116489 -2.2106e+001 -1.2673e+002  2.0069e+000 16434 116339,116417,116365
 1.9000e+000 116466 -3.5058e+001 -1.3325e+002 -6.0954e-001 16434 116313,116417,116339
 1.9000e+000 116443 -8.5448e+001 -1.3657e+002  5.3773e+001 16434 116365,116417,116391
 1.9000e+000 116592 -2.6153e+001 -1.2637e+002 -5.8636e+000 15967 116514,116566,116540
 1.9000e+000 116695  2.9541e+001 -1.3737e+002 -2.5119e+001 15552 116617,116669,116643
 1.9000e+000 116798 -2.4391e+001 -1.1241e+002  0.0000e+000 421 116720,116772,116746
 2.0000e+000 69066  1.4509e+000 -1.8722e+002  5.0341e+000 68738 68965,69017,68991
 2.0000e+000 69043  1.1951e+001 -1.2728e+002  3.5124e+002 68738 68939,69017,68965
 2.0000e+000 69371 -3.1728e+000 -3.4118e+001 -1.3786e+001 68426 69172,69250,69198
 2.0000e+000 69348  1.4791e+000 -6.5976e+001  3.9272e+000 68426 69146,69250,69172
 2.0000e+000 69325  2.5361e+000 -6.0097e+000  6.4941e+000 68426 69198,69250,69224
 2.0000e+000 69302 -1.3964e+001 -6.7212e+001  9.1337e-001 68426 69146,69276,69250
 2.0000e+000 69521  2.0415e+000 -8.0295e+001 -2.9669e+000 68228 69420,69472,69446
 2.0000e+000 69498 -1.2730e+001 -6.6955e+001 -1.8473e+001 68228 69394,69472,69420
 2.0000e+000 69781  1.8632e+000 -1.2052e+001 -3.1645e+000 68030 69631,69683,69657
 2.0000e+000 69758 -9.8258e-001 -2.3149e+000  7.6416e-001 68030 69631,69709,69683
 2.0000e+000 69735  3.2304e-001 -1.0670e+001 -5.7146e+000 68030 69605,69709,69631
 2.0000e+000 70078 -8.3675e+000 -3.7960e+001 -8.1853e+000 67832 69882,69934,69908
 2.0000e+000 70055  1.1140e+001 -2.7421e+001 -1.2407e+001 67832 69856,69934,69882
 2.0000e+000 70032  2.5270e+001 -1.2770e+001 -2.3283e+001 67832 69830,69934,69856
 2.0000e+000 70009  3.5290e+000 -6.2740e+001 -2.0580e+000 67832 69804,69934,69830
 2.0000e+000 69986 -1.3708e+001 -3.1661e+001  1.3476e+001 67832 69804,69960,69934
 2.0000e+000 70586 -3.2686e+000 -6.8940e+001  8.3979e-002 67634 70609,70419,70341
 2.0000e+000 70563  1.3921e+001 -7.5063e+001  1.6050e+000 67634 70681,70609,70341
 2.0000e+000 70540  3.0860e+001 -7.2723e+001  2.2260e+001 67634 70681,70341,70315
 2.0000e+000 70517  3.6626e+000 -6.3331e+001 -6.2062e+000 67634 70341,70419,70367
 2.0000e+000 70494 -5.1861e+000 -4.7244e+001  2.0821e+001 67634 70263,70445,70289
 2.0000e+000 70471 -1.7486e+001 -3.4611e+001 -8.2959e+000 67634 70367,70419,70393
 2.0000e+000 70635  1.4659e+001 -4.5156e+001  8.3960e+000 67634 70445,70419,70609
 2.0000e+000 70658 -1.3771e+001 -7.0256e+001  2.0079e+001 67634 70445,70609,70289
 2.0000e+000 70707  2.9343e+001 -5.0573e+001  2.7000e+001 67634 70289,70609,70681
 2.0000e+000 70730  5.9851e+001 -4.8860e+001  4.6862e+001 67634 70289,70681,70315
 2.0000e+000 71108 -2.6609e+001 -9.7092e+001  7.1078e+000 67344 71131,70912,70886
 2.0000e+000 71085 -3.4037e+001 -1.1018e+002 -7.8571e+000 67344 71131,70886,70860
 2.0000e+000 71062 -1.4154e+001 -1.0460e+002  8.9216e+000 67344 71203,70938,70912
 2.0000e+000 71039 -1.5545e+001 -9.3624e+001  3.4710e+000 67344 70834,70990,70860
 2.0000e+000 71016 -2.3099e+001 -1.0501e+002  6.7458e+000 67344 70938,70990,70964
 2.0000e+000 71157 -1.5272e+001 -1.0398e+002  9.7846e+000 67344 71203,70912,71131
 2.0000e+000 71180 -1.8375e+001 -1.0601e+002 -1.4529e+000 67344 70990,71131,70860
 2.0000e+000 71229 -1.6340e+001 -1.0360e+002  8.8179e+000 67344 70990,70938,71203
 2.0000e+000 71252 -1.8669e+001 -1.0397e+002  9.7586e+000 67344 70990,71203,71131
 2.0000e+000 71603 -4.0125e+000 -2.8694e+001 -4.3742e+000 67032 71378,71482,71404
 2.0000e+000 71580  1.0097e+001 -2.4385e+001 -8.0674e-001 67032 71378,71508,71482
 2.0000e+000 71557  2.9492e+000 -2.4013e+001  4.6089e+000 67032 71404,71456,71430
 2.0000e+000 71534 -5.0995e+000 -2.3060e+001  4.2715e+000 67032 71404,71482,71456
 2.0000e+000 72003  2.1021e+000 -3.4181e+001  6.7591e+000 66834 71755,71859,71781
 2.0000e+000 71980  1.0142e+000 -3.9543e+001  5.8526e+000 66834 71755,71885,71859
 2.0000e+000 71957  1.1623e+001 -1.4474e+001  1.5354e+001 66834 71781,71833,71807
 2.0000e+000 71934 -4.9511e+000 -5.0986e+001  7.0154e+000 66834 71781,71859,71833
 2.0000e+000 71911 -4.5523e+000 -4.2653e+001  2.5342e+001 66834 71729,71885,71755
 2.0000e+000 72430  1.0984e+001 -6.3107e+001 -6.4159e-001 66266 72237,72289,72263
 2.0000e+000 72407  9.1921e+000 -6.8750e+001  5.4478e+000 66266 72133,72289,72237
 2.0000e+000 72384  1.0329e+000 -5.8118e+001  3.4917e+000 66266 72133,72237,72211
 2.0000e+000 72361 -1.9918e+001 -7.3092e+001  8.4166e+000 66266 72107,72289,72133
 2.0000e+000 72338 -2.2538e+001 -1.1845e+002  2.9249e+001 66266 72133,72211,72185
 2.0000e+000 72315  4.9569e+000 -1.2185e+002  3.2905e+001 66266 72133,72185,72159
 2.0000e+000 72580 -2.1799e+001 -1.1857e+002  1.3096e+001 65968 72479,72531,72505
 2.0000e+000 72557 -4.2540e+000 -7.2767e+001  6.7791e+000 65968 72453,72531,72479
 2.0000e+000 72960  1.2164e+000 -1.0579e+002  2.2447e+000 65621 72983,72738,72712
 2.0000e+000 72937  1.3039e+001 -1.1180e+002  4.0848e+000 65621 72983,72712,72686
 2.0000e+000 72914 -2.2364e+001 -1.2954e+002  1.4338e+001 65621 72738,72842,72764
 2.0000e+000 72891  9.2796e+000 -1.0939e+002  1.8670e+000 65621 72764,72842,72816
 2.0000e+000 72868 -7.4836e+001 -2.9528e+002  5.2201e+001 65621 72764,72816,72790
 2.0000e+000 73009 -5.8836e+000 -1.0720e+002  3.7174e+000 65621 72842,72738,72983
 2.0000e+000 73032  1.9285e+000 -1.1748e+002  8.4251e+000 65621 72842,72983,72686
 2.0000e+000 73361 -1.5675e+001 -1.3536e+002  1.0183e+000 65281 73456,73384,73188
 2.0000e+000 73338 -1.8384e+001 -1.3617e+002  1.7557e+001 65281 73384,73162,73136
 2.0000e+000 73315 -2.6743e+001 -1.6219e+002 -3.2392e+001 65281 73188,73240,73214
 2.0000e+000 73292 -3.8709e+001 -7.2747e+001 -6.6315e+000 65281 73136,73266,73240
 2.0000e+000 73410 -4.6562e+001 -1.3564e+002  2.3466e+000 65281 73240,73188,73384
 2.0000e+000 73433 -3.0208e+001 -7.6823e+001  1.1383e+001 65281 73240,73384,73136
 2.0000e+000 73482 -3.2376e+001 -1.8602e+002 -5.4470e+000 65281 73162,73384,73456
 2.0000e+000 73711 -1.4077e+001  3.6555e+000 -2.2929e+001 64820 73734,73610,73584
 2.0000e+000 73688 -1.4544e+001  5.4214e+000 -3.3314e+001 64820 73734,73584,73662
 2.0000e+000 73760 -6.5646e+000  7.1202e+000 -2.0751e+001 64820 73636,73610,73734
 2.0000e+000 73783  3.2912e+000  1.1099e+001 -3.3826e+001 64820 73806,73734,73662
 2.0000e+000 73832 -1.5703e+001 -4.7380e+000 -2.7034e+001 64820 73636,73734,73806
 2.0000e+000 74112  7.8370e+000 -6.1001e+001 -6.5203e+000 64622 74278,74135,73988
 2.0000e+000 74089 -1.7684e+000 -7.8065e+001  5.1963e+000 64622 74135,73936,74040
 2.0000e+000 74066  8.1982e+000 -6.0545e+001 -1.8651e+001 64622 74278,73988,73962
 2.0000e+000 74161 -8.7346e+000 -7.2231e+001 -1.6420e+000 64622 74014,73988,74135
 2.0000e+000 74184 -1.9103e+000 -7.4043e+001  2.8505e+000 64622 74207,74135,74040
 2.0000e+000 74233  6.4233e-001 -6.9535e+001 -8.4459e-001 64622 74014,74135,74207
 2.0000e+000 74304 -2.3168e+000 -8.5201e+001  1.1367e+000 64622 73936,74135,74278
 2.0000e+000 74327  4.4286e+000 -7.8672e+001 -1.2135e+001 64622 73936,74278,73962
 2.0000e+000 74526  9.2034e+000 -2.1366e+001  4.5164e+000 64424 74621,74549,74402
 2.0000e+000 74503 -9.0673e+000 -6.0885e+001  8.7699e+000 64424 74549,74350,74454
 2.0000e+000 74480  1.3044e+001 -1.0357e+001 -1.2645e+001 64424 74621,74402,74376
 2.0000e+000 74575  2.4155e+001 -5.6156e+001  1.4310e+001 64424 74428,74402,74549
 2.0000e+000 74598  5.2533e+000 -7.7107e+001  1.3765e+001 64424 74693,74549,74454
 2.0000e+000 74647 -5.0438e+000 -4.8815e+001  1.4144e+001 64424 74350,74549,74621
 2.0000e+000 74670 -1.1534e+000 -4.2104e+001 -3.6410e+000 64424 74350,74621,74376
 2.0000e+000 74719  1.7074e+000 -9.5930e+001  8.3597e-001 64424 74428,74549,74693
 2.0000e+000 75123 -4.1491e+001 -1.7493e+002  2.1840e+001 64126 74875,74953,74927
 2.0000e+000 75100 -2.3633e+001 -1.3048e+002  2.0503e+001 64126 74875,74979,74953
 2.0000e+000 75077 -7.8360e+000 -1.2370e+002  1.6934e+001 64126 74875,75005,74979
 2.0000e+000 75054 -2.4359e+001 -2.5502e+002  4.8682e+001 64126 74875,74927,74901
 2.0000e+000 75031 -3.6592e+001 -7.4430e+001  3.7894e+001 64126 74849,75005,74875
 2.0000e+000 75224  1.1495e+001 -1.0646e+002  1.5472e+001 63836 75146,75198,75172
 2.0000e+000 75472 -2.5279e+001 -8.9468e+001  5.7399e+000 63375 75273,75351,75325
 2.0000e+000 75449 -1.4584e+001 -8.0950e+001 -4.5928e-001 63375 75273,75377,75351
 2.0000e+000 75426  9.4971e+000 -8.2755e+001 -6.9458e+000 63375 75247,75377,75273
 2.0000e+000 75403 -2.9133e+001 -3.9518e+001  1.8242e+001 63375 75273,75325,75299
 2.0000e+000 75673  1.2349e+001 -8.1478e+001  9.0207e+000 63063 75523,75575,75549
 2.0000e+000 75650  1.5231e+001 -1.0255e+002 -1.6024e+000 63063 75497,75575,75523
 2.0000e+000 75627  8.4695e+000 -1.1125e+002  1.1253e+001 63063 75497,75601,75575
 2.0000e+000 75874  1.1206e+001 -1.4958e+002 -7.5665e+000 62716 75897,75750,75724
 2.0000e+000 75851 -2.7347e+000 -1.2639e+002 -1.4781e+000 62716 75897,75724,75698
 2.0000e+000 75828  5.7703e+000 -8.8537e+001 -3.4733e+001 62716 75698,75802,75776
 2.0000e+000 75923  3.1277e+001 -1.2247e+002 -1.9205e+001 62716 75776,75750,75897
 2.0000e+000 75946  2.3669e+000 -1.1364e+002 -5.0791e+000 62716 75776,75897,75698
 2.0000e+000 76328 -1.1335e+001 -1.2949e+002 -9.8268e+000 62198 76495,76351,76158
 2.0000e+000 76305 -2.8681e+001 -1.2725e+002 -1.9678e+000 62198 76351,76080,76054
 2.0000e+000 76282 -5.7123e+000 -1.7262e+002 -1.4902e+001 62198 76423,76184,76158
 2.0000e+000 76259 -1.6324e+001 -1.2972e+002 -7.7680e+000 62198 76495,76158,76106
 2.0000e+000 76236 -3.7889e+001 -1.5497e+002  3.7005e+000 62198 76106,76158,76132
 2.0000e+000 76377 -1.6122e+001 -1.4026e+002 -1.6809e+001 62198 76423,76158,76351
 2.0000e+000 76400 -2.0529e+001 -1.0070e+002 -9.7423e+000 62198 76210,76351,76054
 2.0000e+000 76449  7.9846e+000 -1.3955e+002 -1.9806e+001 62198 76210,76184,76423
 2.0000e+000 76472 -4.1287e+000 -1.1423e+002 -2.4714e+001 62198 76210,76423,76351
 2.0000e+000 76521 -2.1145e+001 -1.2260e+002 -4.1039e+000 62198 76080,76351,76495
 2.0000e+000 76544 -3.4140e+001 -1.3286e+002  9.7463e-001 62198 76080,76495,76106
 2.0000e+000 76841 -4.3943e+000 -1.1928e+002 -1.6872e+000 61751 76936,76864,76645
 2.0000e+000 76818  3.7619e+001 -1.0223e+002 -3.1880e+001 61751 76864,76567,76723
 2.0000e+000 76795  4.3555e+000 -9.6864e+001 -4.5587e+000 61751 76936,76645,76593
 2.0000e+000 76772 -1.0025e+002 -2.1416e+002  4.0527e+001 61751 77008,76697,76671
 2.0000e+000 76749  1.3703e+000 -5.8258e+001 -4.0165e+001 61751 76593,76645,76619
 2.0000e+000 76890 -1.0439e+001 -1.3845e+002  1.5256e+001 61751 76671,76645,76864
 2.0000e+000 76913 -2.1658e+001 -1.3863e+002  9.7077e+000 61751 77008,76671,76864
 2.0000e+000 76962  1.3036e+001 -1.4913e+002 -1.2716e+001 61751 76567,76864,76936
 2.0000e+000 76985  1.8707e+001 -1.3158e+002 -1.3097e+001 61751 76567,76936,76593
 2.0000e+000 77034  1.0592e+001 -1.5068e+002 -1.2382e+001 61751 76723,76697,77008
 2.0000e+000 77057  1.0454e+001 -1.6651e+002 -1.2727e+001 61751 76723,77008,76864
 2.0000e+000 77207  1.3867e+001 -4.2791e+001  1.5152e+001 61418 77106,77158,77132
 2.0000e+000 77184  4.5565e+000 -5.8500e+001  1.0713e+001 61418 77080,77158,77106
 2.0000e+000 77638 -9.5603e+000 -9.3958e+001  5.1144e+000 60814 77733,77661,77471
 2.0000e+000 77615 -1.2451e+001 -1.0404e+002 -1.0675e+001 60814 77661,77393,77315
 2.0000e+000 77592 -2.0201e+001 -8.5783e+001  9.0017e+000 60814 77733,77471,77445
 2.0000e+000 77569  3.3739e+001 -1.1224e+002 -2.7786e+001 60814 77315,77367,77341
 2.0000e+000 77546  1.2721e+001 -1.5954e+002 -3.2086e+001 60814 77315,77393,77367
 2.0000e+000 77523 -1.1715e+001 -7.4118e+001 -6.9052e+000 60814 77393,77445,77419
 2.0000e+000 77687  2.0219e+001 -8.2522e+001  2.6313e+001 60814 77497,77471,77661
 2.0000e+000 77710  2.6243e+000 -1.2555e+002  1.0023e+001 60814 77497,77661,77315
 2.0000e+000 77759  5.9495e+000 -8.4762e+001 -1.2048e+000 60814 77393,77661,77733
 2.0000e+000 77782 -9.5097e+000 -8.1261e+001  3.7228e+000 60814 77393,77733,77445
 2.0000e+000 78337 -3.8198e+000 -8.2496e+001  5.7608e+000 60210 78360,78017,77965
 2.0000e+000 78314 -1.6288e+001 -6.6659e+001  1.4588e+001 60210 78360,77965,78173
 2.0000e+000 78291 -3.2845e+001 -1.0020e+002 -1.0082e+001 60210 78432,78043,78017
 2.0000e+000 78268 -2.0920e+001 -1.1085e+002 -2.6409e+000 60210 77965,78017,77991
 2.0000e+000 78245 -2.7332e+001 -8.6660e+001  9.6970e-001 60210 78043,78095,78069
 2.0000e+000 78222 -5.5369e+001 -1.1255e+002  2.5584e+001 60210 78095,78173,78121
 2.0000e+000 78199  3.7958e+000 -7.7432e+001  8.1847e+000 60210 78121,78173,78147
 2.0000e+000 78386 -2.4008e+001 -9.3590e+001  5.7912e-001 60210 78432,78017,78360
 2.0000e+000 78409 -2.6563e+001 -7.6534e+001  9.9349e+000 60210 78095,78360,78173
 2.0000e+000 78458 -2.2414e+001 -8.5272e+001  1.9122e+000 60210 78095,78043,78432
 2.0000e+000 78481 -1.5976e+001 -7.7369e+001  1.2260e+001 60210 78095,78432,78360
 2.0000e+000 78680 -1.1789e+001 -6.6556e+001 -3.1190e+000 59848 78703,78556,78530
 2.0000e+000 78657 -1.3596e+001 -7.1407e+001 -7.4560e+000 59848 78703,78530,78504
 2.0000e+000 78634 -1.6166e+001 -8.2885e+001 -7.6451e+000 59848 78504,78608,78582
 2.0000e+000 78729 -6.8571e+000 -7.5658e+001 -3.6090e+000 59848 78582,78556,78703
 2.0000e+000 78752 -1.0294e+001 -7.8565e+001 -9.5506e+000 59848 78582,78703,78504
 2.0000e+000 78951 -2.6383e+001 -7.4567e+001  2.0204e-001 59344 78974,78801,78775
 2.0000e+000 78928 -3.6601e+001 -1.0016e+002 -3.8528e+000 59344 79046,78974,78775
 2.0000e+000 78905 -3.2440e+001 -1.1585e+002 -4.0058e+000 59344 79046,78775,78879
 2.0000e+000 79000 -1.6619e+001 -6.4749e+001  2.3290e+001 59344 78827,78801,78974
 2.0000e+000 79023 -3.2830e+001 -9.1283e+001  1.5136e+001 59344 78827,78974,78853
 2.0000e+000 79072 -3.4269e+001 -8.3328e+001  2.2429e+000 59344 78853,78974,79046
 2.0000e+000 79095 -2.5100e+001 -9.3386e+001  3.3520e+000 59344 78853,79046,78879
 2.0000e+000 79296  8.2028e+000 -1.4041e+002 -1.0160e+001 58711 79319,79172,79146
 2.0000e+000 79273  1.8627e+001 -1.2360e+002 -3.9136e+000 58711 79319,79146,79120
 2.0000e+000 79250 -5.3262e+000 -1.3409e+002  2.0246e+001 58711 79172,79224,79198
 2.0000e+000 79345 -2.5490e+000 -1.2059e+002 -9.8320e+000 58711 79224,79172,79319
 2.0000e+000 79368  2.7541e+000 -1.0792e+002 -6.2967e+000 58711 79224,79319,79120
 2.0000e+000 79667  4.6478e+000 -7.5079e+001 -9.2168e+000 58285 79690,79471,79393
 2.0000e+000 79644  4.0601e+000 -9.0964e+001 -1.3691e+001 58285 79690,79393,79549
 2.0000e+000 79621  2.0857e+001 -9.5070e+001  6.6493e+000 58285 79393,79471,79419
 2.0000e+000 79598  6.4791e+000 -6.5439e+001  1.5404e+000 58285 79497,79549,79523
 2.0000e+000 79575 -3.4517e+001 -1.9532e+002  3.1766e+001 58285 79419,79471,79445
 2.0000e+000 79716  4.3259e+000 -5.9071e+001  4.4620e-001 58285 79497,79471,79690
 2.0000e+000 79739  9.1309e-001 -8.3983e+001 -1.3140e+000 58285 79497,79690,79549
 2.0000e+000 80249  6.0917e+000 -4.3687e+001 -2.1107e+001 57831 80272,79978,79952
 2.0000e+000 80226  3.0178e+000 -5.2842e+001 -9.4376e+000 57831 80272,79952,80108
 2.0000e+000 80203 -8.4040e+000 -7.6822e+001 -2.0898e+001 57831 79926,80108,79952
 2.0000e+000 80180 -5.3608e+000 -4.5658e+001 -1.3879e+001 57831 80004,80082,80030
 2.0000e+000 80157 -1.0499e+001 -4.4534e+001 -1.8770e+001 57831 80004,80108,80082
 2.0000e+000 80134  2.9894e+000 -4.3206e+001 -2.4076e+001 57831 80030,80082,80056
 2.0000e+000 80298  1.7650e+001 -7.3668e+000 -3.7500e+001 57831 80004,79978,80272
 2.0000e+000 80321 -5.3906e+000 -3.9166e+001 -2.2711e+001 57831 80004,80272,80108
 2.0000e+000 80618 -3.3200e+001 -1.1362e+002  2.1017e+001 57077 80344,80448,80422
 2.0000e+000 80595 -1.2477e+001 -1.0045e+002  1.2699e+001 57077 80344,80500,80448
 2.0000e+000 80572 -1.5698e+001 -8.1016e+001  1.2150e+001 57077 80344,80422,80370
 2.0000e+000 80549 -2.5608e+001 -7.7123e+001  1.4422e+001 57077 80370,80422,80396
 2.0000e+000 80526 -2.4405e+001 -1.2698e+002  1.8768e+001 57077 80448,80500,80474
 2.0000e+000 80768  2.4497e-001 -4.1381e+001  2.7666e-001 56787 80791,80693,80667
 2.0000e+000 80745 -7.5714e+000 -4.0249e+001  4.8001e+000 56787 80791,80667,80641
 2.0000e+000 80817  5.3714e+000 -4.0130e+001 -4.2100e+000 56787 80719,80693,80791
 2.0000e+000 80840 -9.6163e+000 -2.9421e+001 -4.6987e+000 56787 80719,80791,80641
 2.0000e+000 81429  1.8526e+001 -4.8112e+001 -7.6126e+000 56497 81452,81158,81132
 2.0000e+000 81406 -4.3921e+000 -6.5957e+001  1.1096e+000 56497 81452,81132,81288
 2.0000e+000 81383 -1.6915e+001 -6.3900e+001  1.1053e+000 56497 81524,81184,81158
 2.0000e+000 81360 -1.9231e+001 -1.2439e+002  2.1721e+001 56497 81210,81288,81236
 2.0000e+000 81337  6.6839e+001 -3.9974e+001 -3.8385e-001 56497 81106,81288,81132
 2.0000e+000 81314 -2.3387e+000 -7.2121e+001  8.1133e+000 56497 81236,81288,81262
 2.0000e+000 81478 -8.1128e+000 -5.5152e+001 -4.3140e+000 56497 81524,81158,81452
 2.0000e+000 81501  6.0986e+000 -5.8124e+001  4.9255e+000 56497 81210,81452,81288
 2.0000e+000 81550 -1.7583e+001 -7.3264e+001  1.4575e+001 56497 81210,81184,81524
 2.0000e+000 81573 -6.2902e+000 -6.7045e+001  9.0281e+000 56497 81210,81524,81452
 2.0000e+000 81870 -3.7553e+001 -9.5935e+001 -6.1702e+000 55979 81893,81674,81648
 2.0000e+000 81847 -3.2495e+001 -9.2095e+001 -8.9402e-001 55979 81893,81648,81752
 2.0000e+000 81824 -1.7719e+001 -9.0824e+001  5.0383e+000 55979 81596,81752,81648
 2.0000e+000 81801 -4.6409e+001 -6.6869e+001 -1.1164e+001 55979 81674,81726,81700
 2.0000e+000 81778 -9.9031e+000 -7.1039e+001 -1.2441e+000 55979 81596,81648,81622
 2.0000e+000 81919 -4.0075e+001 -9.0884e+001 -7.4774e-001 55979 81726,81674,81893
 2.0000e+000 81942 -3.1794e+001 -8.4371e+001  4.9687e+000 55979 81726,81893,81752
 2.0000e+000 82371 -2.8044e+001 -7.7987e+001 -5.9811e+000 55631 82100,82204,82152
 2.0000e+000 82348 -2.3245e+001 -9.1320e+001 -1.1647e+001 55631 82100,82230,82204
 2.0000e+000 82325 -2.8040e+001 -8.0538e+001 -2.4498e-001 55631 82100,82152,82126
 2.0000e+000 82302 -3.0897e+001 -1.2569e+002 -4.4213e+001 55631 82074,82230,82100
 2.0000e+000 82279 -3.3037e+001 -8.4868e+001  1.1017e+000 55631 82152,82204,82178
 2.0000e+000 82256  1.9167e+001 -1.1909e+002 -2.3073e+001 55631 82048,82230,82074
 2.0000e+000 82521  2.8141e+001 -4.5839e+001 -4.8496e+000 55227 82544,82420,82394
 2.0000e+000 82498  2.3574e+001 -5.7121e+001 -2.2317e+000 55227 82544,82394,82472
 2.0000e+000 82570  1.9899e+001 -3.3603e+001 -5.0765e+000 55227 82446,82420,82544
 2.0000e+000 82593  1.2648e+001 -4.4887e+001  3.8664e-001 55227 82446,82544,82472
 2.0000e+000 82875  9.2689e+000 -1.2228e+000  5.9440e+000 54979 82699,82777,82725
 2.0000e+000 82852  2.9045e+000 -2.1759e+001  9.7605e+000 54979 82699,82803,82777
 2.0000e+000 82829 -1.9581e+000 -7.3109e+000  3.4386e+000 54979 82725,82777,82751
 2.0000e+000 83204 -7.4314e+000 -5.1823e+001 -1.9367e+000 54475 83005,83083,83057
 2.0000e+000 83181 -1.3834e+001 -5.4872e+001 -9.8610e-001 54475 82979,83083,83005
 2.0000e+000 83158 -3.5799e+000 -6.0600e+001 -5.3911e+000 54475 83005,83057,83031
 2.0000e+000 83135 -2.3055e+001 -7.6648e+001  3.8677e+000 54475 82979,83109,83083
 2.0000e+000 83582 -2.1569e+001 -6.7346e+001 -5.9603e+000 54071 83605,83438,83412
 2.0000e+000 83559 -2.0099e+001 -6.6860e+001 -8.1708e+000 54071 83749,83605,83412
 2.0000e+000 83536 -1.9583e+001 -7.4539e+001  1.6114e+001 54071 83677,83360,83334
 2.0000e+000 83513 -1.3226e+001 -7.2827e+001 -9.9518e+000 54071 83749,83412,83677
 2.0000e+000 83490 -2.1374e+001 -5.5243e+001 -1.1814e+001 54071 83308,83464,83334
 2.0000e+000 83631 -2.2829e+001 -6.4692e+001 -1.3335e+001 54071 83464,83438,83605
 2.0000e+000 83654 -1.6918e+001 -5.3023e+001 -1.1011e+001 54071 83464,83605,83334
 2.0000e+000 83703  2.4630e+001 -6.2684e+001  1.9756e+001 54071 83386,83360,83677
 2.0000e+000 83726  7.2042e+000 -7.7850e+001 -5.3456e+000 54071 83386,83677,83412
 2.0000e+000 83775 -7.9081e+000 -5.9485e+001 -4.8797e+000 54071 83334,83605,83749
 2.0000e+000 83798  6.4622e-002 -6.4934e+001 -6.5645e+000 54071 83334,83749,83677
 2.0000e+000 84068 -1.3904e+001 -1.8777e+001 -6.0822e+000 53524 83869,83921,83895
 2.0000e+000 84045 -7.6479e+000 -4.6406e+001  1.1015e+000 53524 83869,83947,83921
 2.0000e+000 84022 -2.1589e+001 -6.0093e+001 -4.4323e+000 53524 83843,83947,83869
 2.0000e+000 83999  4.4859e+000 -5.3066e+001 -6.3296e+000 53524 83843,83973,83947
 2.0000e+000 84497 -3.9002e+001 -1.2814e+002  4.7492e+000 53184 84200,84330,84252
 2.0000e+000 84474 -3.9109e+001 -1.1810e+002  1.3923e+001 53184 84200,84356,84330
 2.0000e+000 84451 -2.6032e+001 -1.5709e+002  1.1733e+001 53184 84200,84252,84226
 2.0000e+000 84428 -3.9812e+001 -1.2146e+002 -2.9684e+000 53184 84252,84330,84278
 2.0000e+000 84405 -9.7729e+000 -1.0087e+002  2.5452e+000 53184 84174,84356,84200
 2.0000e+000 84382  3.6890e-001 -1.0356e+002 -7.3056e+000 53184 84278,84330,84304
 2.0000e+000 84954  1.3334e+001 -6.8668e+001  3.5368e+001 52680 84706,84836,84784
 2.0000e+000 84931 -7.8601e+000 -5.7167e+001 -2.4272e+001 52680 84680,84836,84706
 2.0000e+000 84908  5.2997e+001 -1.6230e+002  2.1142e+001 52680 84784,84836,84810
 2.0000e+000 84885 -1.4889e+001 -2.0864e+002  2.5265e+001 52680 84706,84784,84732
 2.0000e+000 84862 -1.7535e+001 -1.7673e+002 -1.3636e+001 52680 84732,84784,84758
 2.0000e+000 85202  1.7310e-001 -1.0885e+002  1.3993e+000 52226 85029,85081,85055
 2.0000e+000 85179 -3.0336e+001 -1.0363e+002 -1.6582e+000 52226 85225,85081,85029
 2.0000e+000 85156 -2.5681e+001 -9.2581e+001  1.6177e-001 52226 85225,85029,85003
 2.0000e+000 85133 -2.9791e+001 -7.0168e+001 -1.5697e+001 52226 84977,85107,85003
 2.0000e+000 85251 -3.3428e+001 -1.0492e+002 -1.4910e+001 52226 85107,85081,85225
 2.0000e+000 85274 -2.4206e+001 -7.6133e+001 -1.6167e+001 52226 85107,85225,85003
 2.0000e+000 85522  2.1636e+001 -6.7537e+001 -9.6750e+000 51764 85297,85349,85323
 2.0000e+000 85499  1.2881e+001 -8.3162e+001  2.0025e+000 51764 85545,85297,85427
 2.0000e+000 85476 -3.4478e+000 -6.1166e+001 -6.4445e+000 51764 85545,85427,85375
 2.0000e+000 85453 -1.8581e+000 -5.4593e+001 -5.5244e+000 51764 85375,85427,85401
 2.0000e+000 85571  1.8066e+001 -7.0080e+001 -7.9021e+000 51764 85349,85297,85545
 2.0000e+000 85594  1.0481e+001 -3.9997e+001 -1.8080e+001 51764 85349,85545,85375
 2.0000e+000 85746 -3.6306e+001 -8.7760e+001  2.8621e+000 51374 85645,85697,85671
 2.0000e+000 85723 -3.9208e+001 -7.9424e+001 -3.8633e+000 51374 85619,85697,85645
 2.0000e+000 86256  5.8423e+000 -4.8529e+001  8.1777e+000 50970 86279,86011,85959
 2.0000e+000 86233  9.0646e+000 -4.0818e+001  5.8745e+000 50970 86279,85959,86115
 2.0000e+000 86210  6.2232e+000 -4.7090e+001  9.9404e+000 50970 85959,86011,85985
 2.0000e+000 86187  1.2401e+001 -5.7030e+001  3.8750e+000 50970 86037,86115,86089
 2.0000e+000 86164  5.8797e+001 -2.1142e+001 -8.7632e+000 50970 85933,86115,85959
 2.0000e+000 86141 -1.5344e+001 -6.0158e+001 -7.6221e+000 50970 86037,86089,86063
 2.0000e+000 86305  1.1438e+001 -5.8658e+001  8.3316e+000 50970 86037,86011,86279
 2.0000e+000 86328  1.5352e+001 -5.0154e+001  5.8065e+000 50970 86037,86279,86115
 2.0000e+000 86478 -1.8222e+001 -1.7652e+002  7.1201e+000 50451 86351,86403,86377
 2.0000e+000 86455 -6.4302e+001 -3.9546e+002 -4.8091e-002 50451 86351,86429,86403
 2.0000e+000 86907 -4.5743e+001 -1.0219e+002 -1.4887e+001 50047 86930,86714,86662
 2.0000e+000 86884 -3.6885e+001 -1.0367e+002 -1.3225e+001 50047 86930,86662,86610
 2.0000e+000 86861 -2.3365e+001 -1.3419e+002 -2.9224e+001 50047 87002,86740,86714
 2.0000e+000 86838 -5.3496e+000 -8.6914e+001  3.7894e+000 50047 86662,86714,86688
 2.0000e+000 86815 -3.5397e+001 -9.8644e+001 -1.1802e+001 50047 86610,86662,86636
 2.0000e+000 86792 -3.1391e+001 -8.1874e+001 -1.3551e+001 50047 86584,86766,86610
 2.0000e+000 86956 -3.9699e+001 -1.0321e+002 -1.5506e+001 50047 87002,86714,86930
 2.0000e+000 86979 -5.1834e+001 -9.0802e+001 -1.5044e+001 50047 86766,86930,86610
 2.0000e+000 87028 -5.6571e+001 -1.1189e+002 -3.6295e+001 50047 86766,86740,87002
 2.0000e+000 87051 -6.6065e+001 -1.0755e+002 -2.5828e+001 50047 86766,87002,86930
 2.0000e+000 87250 -8.0611e+000 -1.1260e+002 -2.5498e+001 49543 87273,87126,87100
 2.0000e+000 87227  4.9634e+000 -9.7311e+001 -1.6875e+001 49543 87273,87100,87074
 2.0000e+000 87204 -3.8902e+001 -9.1368e+001 -2.1427e+001 49543 87126,87178,87152
 2.0000e+000 87299 -1.5200e+001 -9.2673e+001 -1.2224e+001 49543 87178,87126,87273
 2.0000e+000 87322 -9.2715e-001 -8.3145e+001 -2.9640e+000 49543 87178,87273,87074
 2.0000e+000 87570 -2.8485e+001 -7.3699e+001  8.0423e+000 49146 87593,87449,87397
 2.0000e+000 87547 -2.7610e+001 -7.3717e+001  3.8507e+000 49146 87593,87397,87371
 2.0000e+000 87524 -3.4536e+001 -5.9492e+001  7.7208e+000 49146 87345,87475,87371
 2.0000e+000 87501 -1.1428e+001 -7.2647e+001  9.7652e+000 49146 87397,87449,87423
 2.0000e+000 87619 -2.3235e+001 -7.1944e+001  8.4847e+000 49146 87475,87449,87593
 2.0000e+000 87642 -2.4721e+001 -7.2567e+001  4.5969e+000 49146 87475,87593,87371
 2.0000e+000 88073  2.3527e+001 -7.4617e+001 -1.6097e+001 48706 87854,87932,87880
 2.0000e+000 88050  5.6162e+000 -7.4467e+001  3.1354e-001 48706 87828,87932,87854
 2.0000e+000 88027 -1.3742e+001 -9.0870e+001 -9.3539e+000 48706 87750,87932,87828
 2.0000e+000 88004 -2.1999e+001 -1.6433e+002 -6.0476e+000 48706 87750,87802,87776
 2.0000e+000 87981 -2.9424e+001 -1.4296e+002 -1.4396e+001 48706 87750,87828,87802
 2.0000e+000 87958  5.0475e+001 -7.6572e+001  5.1512e+000 48706 87880,87932,87906
 2.0000e+000 88402 -1.7768e+001 -9.4019e+001  1.4652e+000 48145 88203,88281,88255
 2.0000e+000 88379 -2.7806e+001 -9.8653e+001 -1.9852e-002 48145 88203,88307,88281
 2.0000e+000 88356 -1.3737e+001 -7.7836e+001 -2.1226e+000 48145 88203,88255,88229
 2.0000e+000 88333 -1.8692e+001 -1.0697e+002  1.5471e+001 48145 88177,88307,88203
 2.0000e+000 88601 -1.6759e+001 -1.0391e+002  1.5370e+001 47805 88696,88624,88477
 2.0000e+000 88578 -4.6365e+001 -1.1338e+002 -8.1904e+000 47805 88826,88624,88451
 2.0000e+000 88555 -3.9122e+001 -1.0924e+002 -5.7683e+000 47805 88826,88451,88425
 2.0000e+000 88650 -2.7727e+001 -1.2662e+002  2.8713e+000 47805 88503,88477,88624
 2.0000e+000 88673 -4.8039e+001 -1.2553e+002 -1.9667e+000 47805 88503,88624,88529
 2.0000e+000 88722 -8.8334e+001 -1.3465e+002  2.7480e-001 47805 88451,88624,88696
 2.0000e+000 88852 -4.8290e+001 -1.0842e+002  1.0262e+000 47805 88529,88624,88826
 2.0000e+000 88875 -4.0584e+001 -1.0435e+002  3.4254e+000 47805 88529,88826,88425
 2.0000e+000 89172  1.6513e+001 -5.7708e+001 -1.7070e+001 47401 89195,88976,88898
 2.0000e+000 89149  1.5372e+001 -5.5337e+001 -3.6197e+001 47401 89195,88898,89054
 2.0000e+000 89126  1.1785e+001 -5.1163e+001 -1.8451e+001 47401 88898,88976,88950
 2.0000e+000 89103 -5.8969e+000 -8.0680e+001 -1.9300e+001 47401 88976,89028,89002
 2.0000e+000 89080  9.4545e+000 -4.9501e+001 -4.0690e+000 47401 88898,88950,88924
 2.0000e+000 89221  6.5746e+000 -7.9553e+001 -1.4815e+001 47401 89028,88976,89195
 2.0000e+000 89244  8.9070e+000 -7.1557e+001 -3.5509e+001 47401 89028,89195,89054
 2.0000e+000 89575  4.9830e+001 -1.0050e+002  2.2118e+000 47111 89350,89454,89376
 2.0000e+000 89552  1.9043e+001 -1.1718e+002  9.0878e+000 47111 89350,89480,89454
 2.0000e+000 89529  9.3006e-001 -1.2355e+002 -4.7654e+000 47111 89376,89454,89402
 2.0000e+000 89506  2.5143e+001 -7.7089e+001  8.2798e+000 47111 89402,89454,89428
 2.0000e+000 89904  9.0859e+000 -6.9560e+001 -1.2122e+001 46707 89705,89757,89731
 2.0000e+000 89881 -1.4837e+001 -9.4990e+001  5.8079e-001 46707 89705,89783,89757
 2.0000e+000 89858 -2.4274e+001 -9.4283e+001  1.2984e+001 46707 89679,89783,89705
 2.0000e+000 89835 -2.7599e+000 -5.8231e+001  3.9101e+000 46707 89679,89809,89783
 2.0000e+000 90233 -2.2655e-001 -7.7601e+001 -1.9011e+001 46360 90034,90112,90086
 2.0000e+000 90210 -8.3706e+000 -6.4296e+001 -5.3909e+000 46360 90034,90138,90112
 2.0000e+000 90187  4.0464e+001 -8.2656e+001 -2.3561e+001 46360 90034,90086,90060
 2.0000e+000 90164 -3.0251e-001 -6.5559e+001  6.2082e+000 46360 90008,90138,90034
 2.0000e+000 90530 -9.5532e+000 -7.4834e+001 -1.1346e+001 45662 90256,90360,90308
 2.0000e+000 90507 -1.7568e+001 -9.4471e+001  6.3581e-002 45662 90256,90412,90360
 2.0000e+000 90484 -6.9124e+000 -9.6079e+001 -1.5272e+001 45662 90256,90308,90282
 2.0000e+000 90461 -4.6202e+000 -5.3514e+001  5.2243e+000 45662 90360,90412,90386
 2.0000e+000 90438 -3.9933e+001 -6.5513e+001 -4.2615e+000 45662 90308,90360,90334
 2.0000e+000 90910 -4.0124e+001 -7.6983e+001 -8.7149e+000 45108 90688,90766,90714
 2.0000e+000 90887 -2.7534e+001 -9.3375e+001  4.5219e+000 45108 90662,90766,90688
 2.0000e+000 90864 -4.8351e+001 -8.1149e+001  1.1145e+001 45108 90636,90766,90662
 2.0000e+000 90841 -1.5056e+001 -9.5465e+001 -2.7211e+001 45108 90714,90766,90740
 2.0000e+000 90818 -4.0741e+001 -8.1698e+001  1.1644e+001 45108 90636,90792,90766
 2.0000e+000 91158 -7.7719e+000 -8.4203e+001 -2.8418e+000 44604 91181,91011,90959
 2.0000e+000 91135 -3.3450e+001 -9.1907e+001 -2.2874e+000 44604 91181,90959,90933
 2.0000e+000 91112  1.3472e+001 -1.0010e+002  9.1746e+000 44604 90959,91011,90985
 2.0000e+000 91089 -1.8340e+000 -1.0063e+002 -1.2298e+001 44604 90933,91063,91037
 2.0000e+000 91207  1.0986e+001 -9.7065e+001 -1.6573e+001 44604 91037,91011,91181
 2.0000e+000 91230 -1.4689e+001 -1.0251e+002 -2.2129e+001 44604 91037,91181,90933
 2.0000e+000 91429  7.0892e-001 -1.0652e+002 -7.5667e+000 44264 91452,91279,91253
 2.0000e+000 91406  3.4193e+000 -1.1396e+002 -8.5904e+000 44264 91452,91253,91357
 2.0000e+000 91383 -3.4604e+001 -1.0197e+002  1.2119e+001 44264 91279,91331,91305
 2.0000e+000 91478  2.3318e+000 -1.0438e+002 -6.8574e+000 44264 91331,91279,91452
 2.0000e+000 91501  8.7861e+000 -1.0796e+002 -6.3386e+000 44264 91331,91452,91357
 2.0000e+000 92060 -5.8056e+001 -1.2152e+002 -7.7349e+000 43860 92083,91740,91688
 2.0000e+000 92037 -1.2164e+001 -1.2914e+002  1.1698e+001 43860 92083,91688,91896
 2.0000e+000 92014 -3.7543e+001 -1.2985e+002  1.3927e+001 43860 91766,91870,91844
 2.0000e+000 91991 -3.3920e+001 -1.1440e+002  1.4754e+001 43860 91740,91870,91766
 2.0000e+000 91968 -2.4224e+000 -1.2742e+002  4.9383e+000 43860 91766,91844,91792
 2.0000e+000 91945 -3.2160e+001 -1.5091e+002 -4.5844e+001 43860 91688,91740,91714
 2.0000e+000 91922 -1.6673e+001 -1.4147e+002 -7.3034e-001 43860 91792,91844,91818
 2.0000e+000 92109 -1.9385e+001 -1.1319e+002  1.2978e+001 43860 91870,91740,92083
 2.0000e+000 92132  2.9411e+001 -1.1274e+002  3.5601e+001 43860 91870,92083,91896
 2.0000e+000 92353  5.2076e+000 -8.8018e+001 -1.5701e+001 43662 92203,92255,92229
 2.0000e+000 92330 -1.7248e+001 -9.9341e+001 -5.4725e+000 43662 92376,92203,92281
 2.0000e+000 92307 -2.5374e+000 -6.9322e+001  1.0114e+000 43662 92177,92281,92203
 2.0000e+000 92402 -4.7673e+001 -1.1223e+002  4.8459e-001 43662 92255,92203,92376
 2.0000e+000 92682  1.4636e+001 -1.3103e+002 -1.5414e+001 43464 92532,92584,92558
 2.0000e+000 92659  3.1557e+000 -1.0331e+002 -6.2501e+000 43464 92506,92584,92532
 2.0000e+000 92636 -1.0613e+001 -1.0456e+002 -1.0753e+001 43464 92506,92610,92584
 2.0000e+000 93013  1.0453e+001 -9.7796e+001 -2.2900e+001 42960 92866,92918,92892
 2.0000e+000 92990 -8.0944e+000 -1.0681e+002 -9.0370e+000 42960 93036,92918,92866
 2.0000e+000 92967  2.2137e+000 -1.1356e+002 -4.5591e+000 42960 93036,92866,92840
 2.0000e+000 92944 -1.4403e+001 -1.1518e+002 -7.1086e+000 42960 92788,92918,92814
 2.0000e+000 93062 -2.3446e+000 -1.0755e+002 -3.7299e+000 42960 92814,92918,93036
 2.0000e+000 93085  1.9790e+001 -1.0525e+002  1.5341e+000 42960 92814,93036,92840
 2.0000e+000 93186 -3.7047e+001 -9.7400e+001 -9.5481e+000 42556 93108,93160,93134
 2.0000e+000 93554 -3.7841e+001 -1.3751e+002  1.9558e+000 42052 93231,93387,93361
 2.0000e+000 93531 -4.2677e+001 -1.2895e+002  2.0289e+001 42052 93231,93413,93387
 2.0000e+000 93508 -5.4782e+001 -1.2927e+002  4.4015e+000 42052 93231,93361,93257
 2.0000e+000 93485 -2.3694e+001 -9.9827e+001  1.2987e+001 42052 93283,93361,93335
 2.0000e+000 93462 -3.3854e+001 -1.1786e+002  8.8423e+000 42052 93257,93361,93283
 2.0000e+000 93439  9.8249e+000 -8.3018e+001  5.0446e-001 42052 93283,93335,93309
 2.0000e+000 94162 -7.7458e+000 -1.0769e+002 -5.0997e+000 41498 93767,93975,93793
 2.0000e+000 94139 -8.1547e-001 -1.0308e+002  5.6351e+000 41498 93741,93975,93767
 2.0000e+000 94116 -2.6706e+001 -7.7435e+001  2.0253e+000 41498 93793,93975,93923
 2.0000e+000 94093 -4.0791e+001 -1.1037e+002  3.6101e+000 41498 93923,93975,93949
 2.0000e+000 94070 -3.6391e+001 -4.3765e+001 -1.1588e+001 41498 93871,93923,93897
 2.0000e+000 94047 -4.3457e+000 -6.3343e+001 -4.6653e+000 41498 93793,93923,93871
 2.0000e+000 94024  2.0036e+000 -5.8102e+001  2.3505e+000 41498 93819,93871,93845
 2.0000e+000 94001 -1.3392e+001 -6.3126e+001  1.1880e+000 41498 93793,93871,93819
 2.0000e+000 94619 -1.8366e+001 -8.3407e+001 -3.4262e+001 40930 94642,94423,94371
 2.0000e+000 94596  1.0789e+001 -7.3824e+001 -2.7730e+001 40930 94642,94371,94345
 2.0000e+000 94573 -8.6470e-001 -8.6560e+001 -1.3974e+000 40930 94345,94501,94475
 2.0000e+000 94550  5.5872e+000 -9.3378e+001 -4.1233e+001 40930 94371,94423,94397
 2.0000e+000 94527 -1.5036e+001 -6.0920e+001  1.3686e+000 40930 94423,94475,94449
 2.0000e+000 94668 -3.8013e+000 -7.4885e+001 -1.3623e+001 40930 94475,94423,94642
 2.0000e+000 94691  1.4610e+001 -7.6086e+001 -9.0664e+000 40930 94475,94642,94345
 2.0000e+000 95148 -3.3367e+001 -1.0580e+002  1.9773e+001 40362 95171,94952,94926
 2.0000e+000 95125 -3.1858e+001 -1.0619e+002  1.5532e+001 40362 95171,94926,95004
 2.0000e+000 95102 -4.5800e+001 -1.0490e+002  1.4705e+001 40362 94874,95004,94926
 2.0000e+000 95079 -8.2709e+000 -9.5906e+001  2.3668e+001 40362 94874,95030,95004
 2.0000e+000 95056 -4.4618e+001 -1.2198e+002 -3.8921e+000 40362 94874,94926,94900
 2.0000e+000 95197 -3.3037e+001 -1.1029e+002  2.0510e+001 40362 94978,94952,95171
 2.0000e+000 95220 -3.1925e+001 -1.1063e+002  1.6423e+001 40362 94978,95171,95004
 2.0000e+000 95549 -2.6632e+001 -8.6607e+001  2.8216e+000 39586 95350,95402,95376
 2.0000e+000 95526  8.4421e+000 -7.0405e+001 -3.3662e+000 39586 95324,95402,95350
 2.0000e+000 95503 -1.2612e+001 -7.7604e+001  2.4226e+001 39586 95324,95454,95402
 2.0000e+000 95480 -1.2747e+001 -1.0681e+002  2.4719e+001 39586 95402,95454,95428
 2.0000e+000 96055  3.2985e+000 -5.1665e+001 -2.7907e+000 38968 96078,95862,95810
 2.0000e+000 96032 -6.8679e+000 -5.6304e+001 -6.8049e+000 38968 96078,95810,95758
 2.0000e+000 96009  1.3599e+001 -7.5191e+001 -1.4453e+001 38968 96150,95732,95888
 2.0000e+000 95986  4.3022e+000 -4.4583e+001  6.0878e+000 38968 95810,95862,95836
 2.0000e+000 95963  1.5753e+001 -7.1724e+001 -1.8177e+001 38968 95732,95914,95888
 2.0000e+000 95940 -1.9324e+001 -5.5545e+001  5.2915e+000 38968 95758,95810,95784
 2.0000e+000 96104 -3.4951e+000 -5.9378e+001  1.6445e+000 38968 95888,95862,96078
 2.0000e+000 96127 -6.1728e-001 -7.0036e+001 -4.7955e-001 38968 96150,95888,96078
 2.0000e+000 96176  3.3284e+001 -5.2984e+001 -2.4123e+001 38968 95758,95732,96150
 2.0000e+000 96199  1.8787e+001 -4.3958e+001 -1.0777e+001 38968 95758,96150,96078
 2.0000e+000 96545 -4.9693e+000 -8.9105e+001 -6.5344e+000 38507 96640,96568,96352
 2.0000e+000 96522 -2.1068e+000 -1.1718e+002  4.6907e+000 38507 96568,96300,96222
 2.0000e+000 96499  1.8480e+000 -7.5161e+001 -3.1466e+001 38507 96640,96352,96326
 2.0000e+000 96476 -2.5414e+001 -1.0615e+002 -1.5394e+001 38507 96352,96404,96378
 2.0000e+000 96453 -2.7604e+001 -1.3563e+002 -1.0275e+001 38507 96222,96300,96248
 2.0000e+000 96430 -2.9684e+001 -1.7910e+002 -2.2241e+001 38507 96248,96300,96274
 2.0000e+000 96594 -3.7871e+001 -1.0276e+002  6.9682e-001 38507 96404,96352,96568
 2.0000e+000 96617 -1.4439e+001 -1.0302e+002  1.4573e+001 38507 96404,96568,96222
 2.0000e+000 96666 -2.1971e+001 -1.2674e+002  1.4463e+000 38507 96300,96568,96640
 2.0000e+000 96689 -2.0727e+001 -1.1604e+002 -2.1217e+001 38507 96300,96640,96326
 2.0000e+000 97069 -1.1354e+001 -5.1661e+001 -4.9593e+000 37760 97092,96873,96821
 2.0000e+000 97046 -1.8498e+001 -5.5167e+001 -3.8487e-001 37760 97092,96821,96795
 2.0000e+000 97023 -2.1492e+001 -6.8311e+001  9.5451e-001 37760 96821,96873,96847
 2.0000e+000 97000 -1.5599e-001 -3.1977e+001 -1.4178e+001 37760 96873,96925,96899
 2.0000e+000 96977 -1.0274e+001 -3.5045e+001 -1.8259e+001 37760 96795,96951,96925
 2.0000e+000 97118 -4.2716e+000 -4.3009e+001 -1.5901e+001 37760 96925,96873,97092
 2.0000e+000 97141 -2.5644e+001 -5.2838e+001 -1.0405e+001 37760 96925,97092,96795
 2.0000e+000 97647 -4.8194e+001 -1.1049e+002  4.8242e+000 37356 97324,97480,97376
 2.0000e+000 97624 -1.9043e+001 -1.1007e+002  2.3427e+001 37356 97324,97506,97480
 2.0000e+000 97601 -4.7144e+001 -9.3553e+001  8.2103e+000 37356 97376,97480,97454
 2.0000e+000 97578 -5.3543e+001 -1.0789e+002  1.0303e+001 37356 97324,97376,97350
 2.0000e+000 97555 -8.2478e+000 -7.1198e+001  2.1375e+001 37356 97376,97454,97402
 2.0000e+000 97532 -8.2452e+001 -1.3424e+002 -7.2788e+000 37356 97402,97454,97428
 2.0000e+000 98232 -1.2838e+001 -4.8157e+001 -9.8928e+000 36902 97935,98065,98013
 2.0000e+000 98209  1.6576e+001 -4.0473e+001 -1.1875e+001 36902 97935,98091,98065
 2.0000e+000 98186 -4.8245e+000 -4.6621e+001 -9.6631e+000 36902 97935,98013,97987
 2.0000e+000 98163  4.6914e+000 -1.2640e+001 -1.5505e+001 36902 97909,98091,97935
 2.0000e+000 98140  8.5442e-001 -3.4763e+001 -1.1426e+001 36902 97935,97987,97961
 2.0000e+000 98117 -1.7099e+001 -6.9230e+001  4.3490e-001 36902 98013,98065,98039
 2.0000e+000 98659 -4.1024e+000 -1.1837e+002 -6.3485e+000 36604 98682,98414,98388
 2.0000e+000 98636 -1.7370e+001 -1.2081e+002  7.3283e+000 36604 98682,98388,98336
 2.0000e+000 98613 -2.7509e+001 -1.0606e+002 -3.1875e+000 36604 98754,98518,98466
 2.0000e+000 98590 -3.4225e+001 -9.3728e+001 -2.2669e+001 36604 98414,98466,98440
 2.0000e+000 98567  5.2233e+000 -1.6221e+002  1.1547e+001 36604 98336,98388,98362
 2.0000e+000 98544 -3.8294e+000 -1.2573e+002  6.8771e+001 36604 98466,98518,98492
 2.0000e+000 98708 -1.2072e+000 -1.0151e+002 -1.7906e+001 36604 98466,98414,98682
 2.0000e+000 98731 -1.9634e+001 -1.1391e+002 -4.7501e+000 36604 98754,98466,98682
 2.0000e+000 98780 -2.0045e+001 -1.0577e+002 -1.8952e+000 36604 98336,98518,98754
 2.0000e+000 98803 -6.5755e+000 -1.0817e+002 -8.5297e-001 36604 98336,98754,98682
 2.0000e+000 99309 -1.2245e+001 -6.9084e+001  1.5037e+001 36200 99332,99116,99012
 2.0000e+000 99286 -1.1648e+001 -3.1385e+001 -2.7815e+000 36200 99332,99012,98986
 2.0000e+000 99263 -6.7465e+000 -5.6236e+001  1.3648e+001 36200 99012,99116,99064
 2.0000e+000 99240 -5.6296e+000 -5.2753e+001 -3.2399e+000 36200 98986,99168,99142
 2.0000e+000 99217 -2.3304e+001 -6.3632e+001  1.6628e+001 36200 99064,99116,99090
 2.0000e+000 99194 -3.1165e+001 -6.5980e+001 -2.3874e+000 36200 99012,99064,99038
 2.0000e+000 99358 -1.6418e+001 -9.4575e+001  2.5146e+001 36200 99142,99116,99332
 2.0000e+000 99381 -1.9512e+001 -7.0523e+001  3.5553e+000 36200 99142,99332,98986
 2.0000e+000 99887 -4.2356e+001 -8.9427e+001  4.4603e+000 35488 99564,99720,99590
 2.0000e+000 99864 -3.5221e+001 -7.4489e+001  9.0041e+000 35488 99564,99746,99720
 2.0000e+000 99841 -1.0643e+001 -9.2395e+001 -7.0667e-001 35488 99642,99694,99668
 2.0000e+000 99818 -2.8262e+001 -1.0527e+002  8.9803e+000 35488 99590,99694,99642
 2.0000e+000 99795 -1.4740e+001 -8.1274e+001  3.3840e+000 35488 99590,99720,99694
 2.0000e+000 99772  2.0854e+000 -1.4607e+002  1.2951e+001 35488 99590,99642,99616
 2.0000e+000 99988  1.3158e+000 -4.9211e+001  2.9448e+000 35198 99910,99962,99936
 2.0000e+000 100138  9.9090e+000 -9.8398e+001  9.9382e+000 34794 100233,100161,100063
 2.0000e+000 100115 -2.8971e+001 -1.2510e+002  1.7052e+000 34794 100365,100161,100037
 2.0000e+000 100187  2.7483e+001 -9.7940e+001  6.7947e+000 34794 100089,100063,100161
 2.0000e+000 100210  1.8922e+001 -9.8287e+001  7.7392e+000 34794 100089,100161,100011
 2.0000e+000 100259 -1.9009e+001 -1.4919e+002 -1.7501e+001 34794 100037,100161,100233
 2.0000e+000 100391  4.4753e+001 -6.4381e+001 -2.5328e+001 34794 100011,100161,100365
 2.0000e+000 100927  2.5416e-001 -7.9608e+001 -2.6018e+000 34404 100679,100809,100783
 2.0000e+000 100904  1.3834e+001 -7.7400e+001 -4.6003e-001 34404 100653,100809,100679
 2.0000e+000 100881 -1.1192e+001 -9.1700e+001 -1.8322e+000 34404 100705,100783,100731
 2.0000e+000 100858 -8.2067e+000 -8.5103e+001  1.5435e+000 34404 100679,100783,100705
 2.0000e+000 100835 -2.7240e+001 -1.0413e+002 -1.6771e+001 34404 100731,100783,100757
 2.0000e+000 101354 -3.0416e+001 -1.1922e+002  1.5167e+001 34000 101377,101109,101057
 2.0000e+000 101331 -5.9610e+001 -1.3459e+002  9.5203e+000 34000 101449,101377,101057
 2.0000e+000 101308 -6.7496e+001 -1.2443e+002  8.4898e+000 34000 101449,101057,101031
 2.0000e+000 101285 -6.0647e+001 -1.2082e+002  2.3094e+001 34000 101031,101213,101187
 2.0000e+000 101262 -4.3128e+001 -1.5002e+002 -2.2194e+001 34000 101135,101187,101161
 2.0000e+000 101239 -5.0112e+001 -1.4070e+002  2.3482e+001 34000 101057,101109,101083
 2.0000e+000 101403 -4.4255e+001 -1.2317e+002 -3.0142e+000 34000 101135,101109,101377
 2.0000e+000 101426 -6.3038e+001 -1.3023e+002 -6.7003e+000 34000 101135,101377,101187
 2.0000e+000 101475 -4.4293e+001 -1.2391e+002  3.8681e+000 34000 101187,101377,101449
 2.0000e+000 101498 -5.7013e+001 -1.1959e+002  5.5569e+000 34000 101187,101449,101031
 2.0000e+000 102083  1.7802e+001 -7.2707e+001  1.8488e+000 33472 102106,101812,101786
 2.0000e+000 102060 -7.5125e+000 -8.0752e+001 -1.2262e+000 33472 102106,101786,101916
 2.0000e+000 102037 -2.1759e+001 -9.0433e+001 -1.3782e+001 33472 101812,101864,101838
 2.0000e+000 102014 -6.5976e+000 -1.0489e+002 -9.5482e+000 33472 101864,101916,101890
 2.0000e+000 101991 -2.3754e+001 -8.7175e+001 -5.9133e+000 33472 101786,101942,101916
 2.0000e+000 101968 -3.2474e+001 -8.6036e+001  1.5724e+001 33472 101760,101942,101786
 2.0000e+000 102132  1.1359e+000 -7.6571e+001 -7.9334e+000 33472 101864,101812,102106
 2.0000e+000 102155 -8.5517e+000 -7.7662e+001 -1.2442e+001 33472 101864,102106,101916
 2.0000e+000 102612 -3.3747e+001 -1.0564e+002 -3.9102e+001 33038 102635,102468,102390
 2.0000e+000 102589 -4.8987e+001 -1.3324e+002 -4.6114e+001 33038 102635,102390,102364
 2.0000e+000 102566 -1.6580e+001 -9.5534e+001 -3.4435e+001 33038 102390,102468,102442
 2.0000e+000 102543  5.5632e+000 -9.5345e+001 -8.3671e+000 33038 102338,102494,102364
 2.0000e+000 102520 -1.5653e+001 -8.6696e+001 -1.8663e+001 33038 102390,102442,102416
 2.0000e+000 102661 -3.4871e+001 -9.9315e+001 -2.2582e+001 33038 102494,102468,102635
 2.0000e+000 102684 -4.0901e+001 -1.1670e+002 -2.7165e+001 33038 102494,102635,102364
 2.0000e+000 103318 -2.5718e+001 -6.7395e+001  3.3075e+000 32402 102972,103128,103076
 2.0000e+000 103295 -2.3161e+001 -6.8815e+001  2.9594e+000 32402 102946,103128,102972
 2.0000e+000 103272 -2.8579e+001 -7.5347e+001  5.5137e+000 32402 103076,103128,103102
 2.0000e+000 103249 -2.1612e+001 -6.6465e+001  2.4798e+001 32402 102946,103154,103128
 2.0000e+000 103226 -2.1846e+001 -5.8528e+001 -3.6694e+000 32402 102972,103076,102998
 2.0000e+000 103203 -2.1933e+001 -6.6433e+001 -9.1980e+000 32402 102998,103076,103050
 2.0000e+000 103180 -3.0058e+001 -5.1453e+001 -1.3047e+001 32402 102998,103050,103024
 2.0000e+000 103696 -4.4196e+001 -1.2552e+002 -4.3935e+000 31924 103448,103526,103500
 2.0000e+000 103673 -1.8708e+001 -1.1860e+002 -2.0401e+001 31924 103448,103578,103526
 2.0000e+000 103650 -3.3545e+001 -1.1697e+002 -8.4957e+000 31924 103448,103500,103474
 2.0000e+000 103627 -2.5721e+001 -1.3241e+002 -2.3881e+001 31924 103422,103578,103448
 2.0000e+000 103604 -3.6647e+001 -1.7501e+002 -5.0105e+000 31924 103526,103578,103552
 2.0000e+000 104281  3.0054e+000 -4.7705e+001  1.7065e+000 31520 104304,104062,104036
 2.0000e+000 104258 -2.6302e+001 -4.7273e+001 -1.7285e+000 31520 104304,104036,103984
 2.0000e+000 104235 -1.4221e+001 -4.5157e+001 -3.2563e+001 31520 104062,104114,104088
 2.0000e+000 104212 -1.5180e+001 -5.0042e+001 -9.7069e+000 31520 103958,104114,103984
 2.0000e+000 104189 -3.1518e+001 -5.9506e+001 -3.3899e+000 31520 103984,104036,104010
 2.0000e+000 104166 -6.0095e+000 -5.7533e+001 -1.2905e+001 31520 103958,104140,104114
 2.0000e+000 104330  1.1239e+001 -5.2433e+001 -1.1033e+001 31520 104114,104062,104304
 2.0000e+000 104353 -5.0382e+000 -4.5859e+001 -9.2271e+000 31520 104114,104304,103984
 2.0000e+000 104704  1.1924e+000 -3.4451e+001 -2.0675e+000 31066 104479,104583,104505
 2.0000e+000 104681  1.7076e+001 -2.2413e+001 -7.7463e+000 31066 104479,104609,104583
 2.0000e+000 104658  5.0548e+000 -5.6954e+001 -1.6131e+000 31066 104505,104557,104531
 2.0000e+000 104635  6.5134e+000 -3.8471e+001 -4.6143e+000 31066 104505,104583,104557
 2.0000e+000 104925 -4.5283e+000 -1.2005e+002  2.1821e+000 30754 104775,104827,104801
 2.0000e+000 104902 -8.2549e-001 -9.0384e+001  5.3707e-001 30754 104775,104853,104827
 2.0000e+000 104879  7.4551e+000 -8.6389e+001  7.0432e+000 30754 104749,104853,104775
 2.0000e+000 105482 -1.9235e+000 -8.6917e+001  1.4186e+001 30164 105505,105136,105110
 2.0000e+000 105459 -3.0612e+001 -1.0208e+002  2.1242e+001 30164 105649,105505,105110
 2.0000e+000 105436 -2.3096e+001 -9.4645e+001  5.8738e+000 30164 105577,105188,105136
 2.0000e+000 105413 -5.3549e+001 -1.1288e+002  2.7526e+001 30164 105649,105110,105318
 2.0000e+000 105390 -3.6646e+001 -1.5176e+002  2.4986e+001 30164 105214,105292,105240
 2.0000e+000 105367 -5.3193e-001 -1.4351e+002  2.5248e+001 30164 105240,105292,105266
 2.0000e+000 105344 -2.9685e+001 -8.1851e+001  2.8314e+000 30164 105136,105188,105162
 2.0000e+000 105531 -2.4382e+001 -9.4617e+001  1.0121e+001 30164 105577,105136,105505
 2.0000e+000 105554 -5.7189e+000 -8.4926e+001  7.8087e+000 30164 105214,105505,105292
 2.0000e+000 105603 -2.1340e+001 -8.8973e+001  4.8608e+000 30164 105214,105188,105577
 2.0000e+000 105626 -2.1885e+001 -8.8304e+001  8.8993e+000 30164 105214,105577,105505
 2.0000e+000 105675 -2.6929e+001 -9.8071e+001  1.5917e+000 30164 105292,105505,105649
 2.0000e+000 105698 -3.0263e+001 -9.6861e+001  6.6975e+000 30164 105292,105649,105318
 2.0000e+000 106027  1.8731e+001 -5.2509e+001  8.9973e+000 29868 106322,106050,105880
 2.0000e+000 106004 -8.5246e+000 -5.2031e+001 -4.1619e+000 29868 106250,106050,105828
 2.0000e+000 105981 -9.7481e+000 -5.4015e+001 -7.0818e+000 29868 106250,105828,105802
 2.0000e+000 105958  4.3480e+000 -3.8057e+001  2.2705e+001 29868 106322,105880,106122
 2.0000e+000 106076 -1.2795e+000 -8.8625e+001 -1.0260e+000 29868 105906,105880,106050
 2.0000e+000 106099 -3.8631e+000 -5.8830e+001 -6.9228e+000 29868 105906,106050,105932
 2.0000e+000 106148 -3.1664e+001 -7.3461e+001  1.0572e+001 29868 105854,105828,106122
 2.0000e+000 106276 -1.0807e+001 -5.5247e+001 -7.8827e+000 29868 105932,106050,106250
 2.0000e+000 106299 -1.5781e+001 -6.0023e+001 -1.1376e+001 29868 105932,106250,105802
 2.0000e+000 106348 -7.1865e+000 -6.6592e+001  3.1895e+000 29868 105828,106050,106322
 2.0000e+000 106371 -1.9021e+001 -5.0916e+001  1.7096e+001 29868 105828,106322,106122
 2.0000e+000 106828 -3.0682e+000 -5.4327e+001 -1.2949e+000 29521 106580,106710,106684
 2.0000e+000 106805 -1.8442e+001 -5.2778e+001 -1.8290e+001 29521 106554,106710,106580
 2.0000e+000 106782 -1.7264e+001 -5.1321e+001 -7.4239e-001 29521 106580,106684,106606
 2.0000e+000 106759 -3.2345e+001 -7.9306e+001 -7.7834e+000 29521 106606,106684,106658
 2.0000e+000 106736 -9.7745e+000 -4.9247e+001  4.5912e+000 29521 106606,106658,106632
 2.0000e+000 107027 -3.2782e+001 -1.0147e+002 -1.7397e+001 29117 106877,106929,106903
 2.0000e+000 107004 -2.1261e+001 -9.6561e+001 -1.9267e+001 29117 106851,106929,106877
 2.0000e+000 106981 -2.5626e+001 -1.1625e+002 -1.5566e+001 29117 106851,106955,106929
 2.0000e+000 107456 -2.9710e+001 -1.2163e+002 -2.0564e+001 28656 107237,107315,107263
 2.0000e+000 107433 -1.0195e+001 -8.3930e+001 -9.5189e+000 28656 107133,107315,107237
 2.0000e+000 107410 -2.7398e+000 -7.3208e+001 -1.3605e+001 28656 107133,107237,107159
 2.0000e+000 107387  8.5283e+000 -4.8132e+001 -2.0871e+001 28656 107159,107237,107185
 2.0000e+000 107364 -2.4939e+000 -4.6276e+001  1.5871e+000 28656 107185,107237,107211
 2.0000e+000 107341 -5.3283e+000 -6.9433e+001 -1.1328e+001 28656 107263,107315,107289
 2.0000e+000 107704 -1.5087e+001 -9.7202e+001  3.7127e+000 27902 107727,107557,107531
 2.0000e+000 107681 -6.5906e+000 -8.3402e+001  7.3009e+000 27902 107727,107531,107505
 2.0000e+000 107658 -2.0426e+001 -8.8091e+001 -8.4726e+000 27902 107557,107609,107583
 2.0000e+000 107635 -3.7447e+001 -7.7975e+001  3.8147e+000 27902 107479,107609,107505
 2.0000e+000 107753 -2.4638e+001 -8.4860e+001 -2.8030e+000 27902 107609,107557,107727
 2.0000e+000 107776 -1.7687e+001 -7.3784e+001  1.5443e-001 27902 107609,107727,107505
 2.0000e+000 108333 -3.4026e+001 -1.3182e+002 -2.5399e+000 27341 108356,108065,108013
 2.0000e+000 108310 -3.6518e+001 -1.2952e+002 -1.7361e+001 27341 108356,108013,108143
 2.0000e+000 108287 -1.4051e+001 -1.4801e+002 -1.6333e+001 27341 108428,108117,108091
 2.0000e+000 108264 -4.7997e+001 -1.3441e+002  1.7729e+000 27341 108013,108065,108039
 2.0000e+000 108241 -7.0550e+001 -1.1817e+002 -1.9904e+001 27341 107987,108143,108013
 2.0000e+000 108218 -3.5506e+001 -1.0285e+002 -2.5883e+001 27341 107987,108169,108143
 2.0000e+000 108195 -3.0382e+001 -9.8732e+001 -2.4033e+001 27341 107961,108169,107987
 2.0000e+000 108382 -4.0295e+001 -1.4956e+002  1.4997e+000 27341 108091,108065,108356
 2.0000e+000 108405 -2.6265e+001 -1.2989e+002 -8.4698e+000 27341 108428,108091,108356
 2.0000e+000 108454 -3.6951e+001 -1.7608e+002 -2.6226e+001 27341 108143,108117,108428
 2.0000e+000 108477 -4.6464e+001 -1.5273e+002 -1.7266e+001 27341 108143,108428,108356
 2.0000e+000 108725  1.4734e+000 -1.0268e+002 -5.7591e+000 27029 108748,108526,108500
 2.0000e+000 108702 -3.3169e+000 -7.5220e+001 -2.3396e+000 27029 108748,108500,108630
 2.0000e+000 108679 -1.8978e+001 -1.0195e+002  2.2678e+000 27029 108578,108630,108604
 2.0000e+000 108656  9.2596e+000 -9.4159e+001  2.0781e+001 27029 108526,108578,108552
 2.0000e+000 108774 -3.5935e+000 -1.1763e+002 -7.3274e+000 27029 108578,108526,108748
 2.0000e+000 108797 -1.4484e+001 -9.8038e+001 -6.7013e+000 27029 108578,108748,108630
 2.0000e+000 109045 -1.2778e+001 -9.0919e+001 -6.0456e+000 26610 108872,108924,108898
 2.0000e+000 109022 -1.6385e+001 -9.0835e+001 -5.9453e+000 26610 108872,108950,108924
 2.0000e+000 108999 -1.9592e+001 -9.4347e+001 -8.8300e+000 26610 108846,108950,108872
 2.0000e+000 108976 -7.7804e+000 -1.0002e+002 -7.1852e+000 26610 108820,108950,108846
 2.0000e+000 109366 -2.2400e+001 -1.4095e+002 -2.0761e+000 26006 109144,109222,109196
 2.0000e+000 109343 -7.2465e+000 -1.3990e+002 -5.5483e-001 26006 109118,109222,109144
 2.0000e+000 109320 -3.4995e+001 -1.5791e+002  9.6048e+000 26006 109092,109222,109118
 2.0000e+000 109297 -3.4435e+001 -1.4518e+002 -1.1191e+001 26006 109144,109196,109170
 2.0000e+000 109274 -5.9275e+000 -1.1281e+002 -2.8975e+000 26006 109092,109248,109222
 2.0000e+000 109567 -2.9989e+001 -9.5893e+001 -1.1974e+001 25659 109391,109469,109443
 2.0000e+000 109544 -2.3102e+001 -9.4385e+001 -8.7066e+000 25659 109391,109495,109469
 2.0000e+000 109521 -3.7037e+001 -9.9610e+001 -6.8368e+000 25659 109391,109443,109417
 2.0000e+000 109900 -3.3723e+001 -8.6562e+001 -6.8001e+000 25255 109923,109779,109753
 2.0000e+000 109877 -3.1029e+001 -8.0890e+001 -7.9786e+000 25255 109923,109753,109701
 2.0000e+000 109854 -2.7831e+001 -6.6993e+001 -1.1788e+001 25255 109675,109805,109701
 2.0000e+000 109831 -4.4228e+001 -7.5826e+001 -9.4472e+000 25255 109701,109753,109727
 2.0000e+000 109949 -3.1220e+001 -9.3990e+001 -1.2778e+001 25255 109805,109779,109923
 2.0000e+000 109972 -2.6876e+001 -8.3657e+001 -1.4171e+001 25255 109805,109923,109701
 2.0000e+000 110220 -3.9398e+001 -9.4243e+001  1.1837e+001 24701 110243,110021,109995
 2.0000e+000 110197 -3.9347e+001 -9.9065e+001  1.7899e+000 24701 110243,109995,110099
 2.0000e+000 110174 -3.2366e+001 -9.3505e+001  5.1238e+000 24701 110315,110073,110047
 2.0000e+000 110151 -3.3669e+001 -1.0284e+002  1.7441e+000 24701 109995,110125,110099
 2.0000e+000 110269 -2.6586e+001 -8.7822e+001  1.3986e+001 24701 110047,110021,110243
 2.0000e+000 110292 -4.4046e+001 -9.3594e+001  8.6210e+000 24701 110315,110047,110243
 2.0000e+000 110341 -9.0655e-001 -8.6351e+001  5.3568e+000 24701 110099,110073,110315
 2.0000e+000 110364 -2.1541e+001 -9.1418e+001  6.8363e+000 24701 110099,110315,110243
 2.0000e+000 110661 -2.6681e+001 -1.1210e+002 -6.3244e+000 24197 110684,110413,110387
 2.0000e+000 110638 -1.7158e+001 -9.5296e+001 -1.2667e+001 24197 110684,110387,110543
 2.0000e+000 110615 -4.1547e+000 -1.6938e+002  1.0251e+001 24197 110756,110491,110465
 2.0000e+000 110592 -3.3480e+001 -1.0276e+002  7.8186e+000 24197 110413,110465,110439
 2.0000e+000 110569 -2.7444e+001 -2.4939e+002 -1.9282e+001 24197 110491,110543,110517
 2.0000e+000 110710 -1.2061e+001 -1.0247e+002  5.5731e+000 24197 110465,110413,110684
 2.0000e+000 110733 -3.0146e+001 -1.4402e+002  3.4302e+000 24197 110756,110465,110684
 2.0000e+000 110782  1.1967e+001 -1.4073e+002 -9.8009e+000 24197 110543,110491,110756
 2.0000e+000 110805 -2.7748e+000 -1.0297e+002 -1.8331e+001 24197 110543,110756,110684
 2.0000e+000 111315 -3.4330e+001 -1.1797e+002 -1.0936e+001 23593 111044,111148,111070
 2.0000e+000 111292 -3.3934e+001 -1.0761e+002 -6.2225e+000 23593 111044,111174,111148
 2.0000e+000 111269 -1.7616e+001 -8.4563e+001  7.7054e+000 23593 111070,111122,111096
 2.0000e+000 111246 -4.2480e+001 -1.3873e+002 -1.1102e+001 23593 111070,111148,111122
 2.0000e+000 111223 -4.0871e+001 -9.9328e+001 -1.6721e+001 23593 111018,111174,111044
 2.0000e+000 111200 -1.9125e+001 -1.1373e+002 -1.3809e+001 23593 110992,111174,111018
 2.0000e+000 111821  1.8798e+001 -1.2224e+002 -4.4396e+000 23089 111916,111844,111628
 2.0000e+000 111798 -3.6180e+001 -1.4542e+002 -2.1798e+001 23089 111844,111550,111524
 2.0000e+000 111775  3.0123e+001 -1.1554e+002 -2.8675e-001 23089 111916,111628,111602
 2.0000e+000 111752 -5.0511e+000 -2.1190e+002 -1.1346e+001 23089 111498,111680,111524
 2.0000e+000 111729  5.6235e-001 -9.2461e+001  1.3702e+001 23089 111550,111602,111576
 2.0000e+000 111706  2.7155e+001 -8.5892e+001 -1.5984e+001 23089 111628,111680,111654
 2.0000e+000 111870 -9.1655e+000 -1.2402e+002  1.1196e+000 23089 111680,111628,111844
 2.0000e+000 111893 -9.9707e+000 -1.2562e+002  3.5033e+000 23089 111680,111844,111524
 2.0000e+000 111942 -9.7799e+000 -1.0616e+002 -7.1560e+000 23089 111550,111844,111916
 2.0000e+000 111965  5.4073e+000 -9.7006e+001 -2.6060e+000 23089 111550,111916,111602
 2.0000e+000 112164  5.7495e+001 -8.3077e+001 -2.8277e+001 22626 112187,112014,111988
 2.0000e+000 112141 -1.9252e+000 -9.2372e+001 -1.0995e+001 22626 112259,112187,111988
 2.0000e+000 112118 -4.2357e+000 -9.9313e+001 -1.1318e+000 22626 112259,111988,112092
 2.0000e+000 112213  2.0537e+000 -6.6471e+001 -3.5762e+001 22626 112040,112014,112187
 2.0000e+000 112236 -3.1529e+001 -7.2769e+001 -2.5288e+000 22626 112040,112187,112066
 2.0000e+000 112285 -5.1891e-001 -7.6257e+001 -1.5072e+001 22626 112066,112187,112259
 2.0000e+000 112308  4.3103e-001 -8.0894e+001 -6.0670e+000 22626 112066,112259,112092
 2.0000e+000 112605  1.4360e+001 -1.0225e+002  8.0166e+000 22286 112628,112383,112357
 2.0000e+000 112582 -1.5076e+001 -1.1059e+002  4.3868e+000 22286 112772,112628,112357
 2.0000e+000 112559 -4.0144e+001 -1.1817e+002  5.3748e+000 22286 112700,112435,112409
 2.0000e+000 112536 -3.3214e+001 -1.1277e+002  7.8422e+000 22286 112772,112357,112331
 2.0000e+000 112513 -3.7446e+001 -9.2833e+001 -1.9047e+000 22286 112435,112487,112461
 2.0000e+000 112654 -1.5595e+000 -8.5824e+001 -1.1127e+001 22286 112409,112383,112628
 2.0000e+000 112677 -3.0318e+001 -1.0413e+002 -2.2186e+000 22286 112700,112409,112628
 2.0000e+000 112726 -2.7166e+001 -1.0573e+002 -5.2961e+000 22286 112487,112435,112700
 2.0000e+000 112749 -2.3502e+001 -1.0392e+002 -1.1359e+001 22286 112487,112700,112628
 2.0000e+000 112798 -7.2763e+000 -1.0785e+002  1.1197e+000 22286 112487,112628,112772
 2.0000e+000 112821 -1.2470e+001 -1.0215e+002  3.6758e+000 22286 112487,112772,112331
 2.0000e+000 112924  1.3895e+000  1.8463e+001 -2.2435e+000 21974 112846,112898,112872
 2.0000e+000 113223 -5.9992e+001 -1.4614e+002  1.5681e+001 21420 112949,113053,112975
 2.0000e+000 113200 -5.4201e+001 -1.1707e+002  1.5835e+001 21420 112949,113079,113053
 2.0000e+000 113177 -2.0669e+001 -1.3073e+002  1.6553e+001 21420 112975,113053,113001
 2.0000e+000 113154 -6.8879e+001 -1.4838e+002  1.2015e+001 21420 113001,113053,113027
 2.0000e+000 113131 -6.9373e+001 -1.0790e+002  7.1594e+000 21420 112949,113105,113079
 2.0000e+000 113605 -1.7215e+001 -1.6543e+002  4.0462e+001 20716 113331,113435,113357
 2.0000e+000 113582 -2.4276e+001 -7.2607e+001  4.5519e+001 20716 113331,113461,113435
 2.0000e+000 113559 -7.8907e+000 -1.4177e+002 -4.8849e+000 20716 113383,113435,113409
 2.0000e+000 113536 -4.1153e+001 -1.4677e+002 -8.0853e+000 20716 113357,113435,113383
 2.0000e+000 113513 -1.6856e+000 -1.8817e+001  6.8853e+000 20716 113331,113487,113461
 2.0000e+000 113853 -1.9056e+001 -1.2980e+002  5.9050e+000 20290 113876,113680,113654
 2.0000e+000 113830 -9.1662e+000 -1.2646e+002  7.0682e+000 20290 113876,113654,113628
 2.0000e+000 113807 -2.7627e+001 -1.3718e+002 -3.8863e+000 20290 113948,113732,113680
 2.0000e+000 113784  4.0138e+001 -1.2023e+002 -1.0726e+001 20290 113680,113732,113706
 2.0000e+000 113902 -1.8210e+001 -1.2570e+002  5.9481e+000 20290 113948,113680,113876
 2.0000e+000 113925 -2.3900e+001 -1.1559e+002  6.5718e+000 20290 113758,113876,113628
 2.0000e+000 113974 -3.9082e+001 -1.2688e+002 -7.2381e+000 20290 113758,113732,113948
 2.0000e+000 113997 -3.8514e+001 -1.2673e+002  5.4966e-001 20290 113758,113948,113876
 2.0000e+000 114365 -2.5959e+001 -1.2796e+002  4.2467e-001 19900 114146,114198,114172
 2.0000e+000 114342 -2.5112e+001 -1.2776e+002 -5.9592e-001 19900 114042,114198,114146
 2.0000e+000 114319 -2.4433e+001 -1.3096e+002 -1.4252e+000 19900 114042,114224,114198
 2.0000e+000 114296 -4.3452e+001 -1.2264e+002 -2.6733e+000 19900 114094,114146,114120
 2.0000e+000 114273 -2.5981e+001 -1.2164e+002 -5.2948e+000 19900 114042,114146,114094
 2.0000e+000 114250 -3.5868e+000 -1.1860e+002 -1.2168e+001 19900 114042,114094,114068
 2.0000e+000 114566 -3.7213e+001 -1.2808e+002  7.0853e-001 19496 114442,114494,114468
 2.0000e+000 114543 -5.8563e+001 -1.2472e+002 -9.6212e+000 19496 114416,114494,114442
 2.0000e+000 114520 -4.0199e+001 -1.1410e+002 -5.3044e+000 19496 114390,114494,114416
 2.0000e+000 114767 -6.1358e+000 -1.2743e+002  4.3724e+000 19042 114790,114669,114643
 2.0000e+000 114744 -1.0935e+001 -1.2089e+002  7.2409e+000 19042 114790,114643,114591
 2.0000e+000 114721  8.7800e-001 -1.3112e+002  2.7130e+001 19042 114591,114643,114617
 2.0000e+000 114816 -8.8232e+000 -1.2099e+002  1.8773e+000 19042 114695,114669,114790
 2.0000e+000 114839 -9.5296e+000 -1.0936e+002  5.4341e+000 19042 114695,114790,114591
 2.0000e+000 114991 -5.5989e+001 -1.4325e+002 -2.5623e-002 18488 114864,114916,114890
 2.0000e+000 114968 -4.0812e+001 -1.4961e+002 -3.8444e+000 18488 114864,114942,114916
 2.0000e+000 115192  3.1703e+001 -1.0179e+002  4.8701e+000 18098 115215,115042,115016
 2.0000e+000 115169  1.1746e+001 -8.6412e+001 -5.1599e+000 18098 115215,115016,115120
 2.0000e+000 115146  2.3384e+001 -1.0081e+002 -1.5282e+001 18098 115287,115094,115068
 2.0000e+000 115241  1.7960e+001 -1.3920e+002 -1.7036e+000 18098 115068,115042,115215
 2.0000e+000 115264  2.2648e+001 -9.7876e+001 -5.7115e+000 18098 115287,115068,115215
 2.0000e+000 115313  1.0039e+001 -1.0598e+002 -1.4943e+001 18098 115120,115094,115287
 2.0000e+000 115336  4.8431e+000 -1.0498e+002 -5.8666e+000 18098 115120,115287,115215
 2.0000e+000 115846  1.4892e+001 -1.5540e+002 -3.4389e+001 17644 115653,115705,115679
 2.0000e+000 115823 -2.6555e+001 -1.3956e+002 -9.1105e+000 17644 115627,115705,115653
 2.0000e+000 115800 -7.3367e+000 -1.2115e+002  2.9295e+000 17644 115549,115705,115627
 2.0000e+000 115777 -1.4401e+001 -1.4412e+002  4.0814e+000 17644 115549,115627,115575
 2.0000e+000 115754  2.2020e+001 -8.2648e+001  4.1007e+001 17644 115523,115705,115549
 2.0000e+000 115731 -1.1255e+001 -1.3029e+002 -5.8589e+000 17644 115575,115627,115601
 2.0000e+000 116067  2.9918e+001 -1.8550e+002 -6.8811e+000 17116 115891,115943,115917
 2.0000e+000 116044 -5.3049e+001 -2.1248e+002  1.3839e+001 17116 115891,115995,115943
 2.0000e+000 116021 -7.1882e+001 -1.6801e+002  1.4756e-001 17116 115943,115995,115969
 2.0000e+000 116288 -4.2798e+000 -1.3178e+002  2.6165e+001 16704 116164,116216,116190
 2.0000e+000 116265 -2.6796e+001 -1.8130e+002  1.7019e+001 16704 116112,116216,116164
 2.0000e+000 116242 -2.5493e+001 -1.6194e+002 -3.0342e+000 16704 116112,116164,116138
 2.0000e+000 116489 -1.8842e+001 -1.3622e+002  3.4770e-001 16434 116339,116417,116365
 2.0000e+000 116466 -3.5936e+001 -1.4370e+002 -8.3379e-001 16434 116313,116417,116339
 2.0000e+000 116443 -9.3669e+001 -1.5451e+002  5.9889e+001 16434 116365,116417,116391
 2.0000e+000 116592 -2.5093e+001 -1.3814e+002 -5.9173e+000 15967 116514,116566,116540
 2.0000e+000 116695  4.0235e+001 -1.5423e+002 -3.0032e+001 15552 116617,116669,116643
 2.0000e+000 116798 -2.3409e+001 -1.2028e+002  0.0000e+000 421 116720,116772,116746
 2.1000e+000 69066  2.0120e+000 -2.0052e+002  4.0237e+000 68738 68965,69017,68991
 2.1000e+000 69043  1.4546e+001 -1.4000e+002  3.7802e+002 68738 68939,69017,68965
 2.1000e+000 69371 -5.0409e+000 -3.5148e+001 -1.3125e+001 68426 69172,69250,69198
 2.1000e+000 69348  1.1568e+000 -6.6992e+001  4.6488e+000 68426 69146,69250,69172
 2.1000e+000 69325 -1.0748e+000 -1.0838e+001  4.6694e+000 68426 69198,69250,69224
 2.1000e+000 69302 -1.2237e+001 -6.8852e+001  1.8735e+000 68426 69146,69276,69250
 2.1000e+000 69521  7.8870e-002 -7.8097e+001 -5.6228e+000 68228 69420,69472,69446
 2.1000e+000 69498 -8.5161e+000 -5.5838e+001 -2.7248e+001 68228 69394,69472,69420
 2.1000e+000 69781  1.7047e-001 -1.2423e+000 -1.5399e+000 68030 69631,69683,69657
 2.1000e+000 69758  7.2386e-001 -8.1428e+000 -4.3667e+000 68030 69631,69709,69683
 2.1000e+000 69735 -1.8880e+000  3.5769e+000  6.0846e+000 68030 69605,69709,69631
 2.1000e+000 70078 -7.6384e+000 -2.9066e+001 -1.1059e+001 67832 69882,69934,69908
 2.1000e+000 70055  1.2478e+001 -1.5179e+001 -1.7153e+001 67832 69856,69934,69882
 2.1000e+000 70032  3.1571e+001 -9.7063e-001 -3.4453e+001 67832 69830,69934,69856
 2.1000e+000 70009  7.9522e+000 -5.5184e+001  2.0050e+000 67832 69804,69934,69830
 2.1000e+000 69986 -1.3449e+001 -1.9271e+001  2.0174e+001 67832 69804,69960,69934
 2.1000e+000 70586 -4.0532e+000 -2.8170e+001  6.9004e+000 67634 70609,70419,70341
 2.1000e+000 70563 -2.4918e+000 -3.9215e+001  1.0876e+001 67634 70681,70609,70341
 2.1000e+000 70540 -4.3106e+000 -4.0261e+001  1.1952e+001 67634 70681,70341,70315
 2.1000e+000 70517 -1.0291e+001 -3.1727e+001  1.3464e+001 67634 70341,70419,70367
 2.1000e+000 70494 -5.8981e+000 -2.1689e+000  2.0233e+000 67634 70263,70445,70289
 2.1000e+000 70471 -1.4480e+000 -4.1141e+000  6.0891e+000 67634 70367,70419,70393
 2.1000e+000 70635 -1.3574e+000 -1.8991e+000  5.1500e+000 67634 70445,70419,70609
 2.1000e+000 70658 -8.5215e+000 -3.0390e+001  9.2957e+000 67634 70445,70609,70289
 2.1000e+000 70707 -1.7612e+000 -3.4840e+001  5.6193e+000 67634 70289,70609,70681
 2.1000e+000 70730 -7.5740e+000 -3.8031e+001  7.2043e+000 67634 70289,70681,70315
 2.1000e+000 71108 -1.1145e+001 -4.9737e+001  1.8954e+001 67344 71131,70912,70886
 2.1000e+000 71085 -8.6842e+000 -4.4266e+001  1.9888e+001 67344 71131,70886,70860
 2.1000e+000 71062 -1.5231e+001 -5.2974e+001  1.5897e+001 67344 71203,70938,70912
 2.1000e+000 71039  5.8757e+000 -3.8255e+001  1.1092e+001 67344 70834,70990,70860
 2.1000e+000 71016 -1.4783e+001 -6.1849e+001  6.0642e+000 67344 70938,70990,70964
 2.1000e+000 71157 -1.5486e+001 -4.5505e+001  1.7304e+001 67344 71203,70912,71131
 2.1000e+000 71180 -5.7021e+000 -3.9376e+001  1.0318e+001 67344 70990,71131,70860
 2.1000e+000 71229 -1.3383e+001 -6.5627e+001  1.3051e+001 67344 70990,70938,71203
 2.1000e+000 71252 -1.3093e+001 -5.6159e+001  1.2722e+001 67344 70990,71203,71131
 2.1000e+000 71603  1.6205e+000 -3.3752e+001  5.2379e+000 67032 71378,71482,71404
 2.1000e+000 71580  1.2850e+000 -1.9471e+001  8.2972e+000 67032 71378,71508,71482
 2.1000e+000 71557  4.0747e-001 -1.8206e+001  1.1931e+001 67032 71404,71456,71430
 2.1000e+000 71534  9.4926e-002 -3.7195e+001  5.4982e+000 67032 71404,71482,71456
 2.1000e+000 72003  7.2453e+000 -2.1337e+001  8.2534e+000 66834 71755,71859,71781
 2.1000e+000 71980  3.0509e+000 -5.4041e+001  3.3784e+000 66834 71755,71885,71859
 2.1000e+000 71957  3.5540e+000 -1.3330e+001  5.6020e+000 66834 71781,71833,71807
 2.1000e+000 71934 -5.8007e+000 -6.1516e+001 -1.1684e+000 66834 71781,71859,71833
 2.1000e+000 71911  1.2268e+001 -2.1404e+001  2.5727e+001 66834 71729,71885,71755
 2.1000e+000 72430  1.1460e+001 -4.8262e+001 -9.9203e-001 66266 72237,72289,72263
 2.1000e+000 72407  8.9690e+000 -5.5620e+001  5.3358e+000 66266 72133,72289,72237
 2.1000e+000 72384 -1.1893e+000 -4.3273e+001  3.1516e+000 66266 72133,72237,72211
 2.1000e+000 72361 -1.5170e+001 -6.4078e+001  3.9821e+000 66266 72107,72289,72133
 2.1000e+000 72338 -1.5873e+001 -8.1970e+001  2.4704e+001 66266 72133,72211,72185
 2.1000e+000 72315 -2.1737e+000 -9.0023e+001  2.5021e+001 66266 72133,72185,72159
 2.1000e+000 72580 -1.6880e+001 -1.0654e+002  1.2837e+001 65968 72479,72531,72505
 2.1000e+000 72557  3.4024e+000 -5.6100e+001  5.3686e+000 65968 72453,72531,72479
 2.1000e+000 72960  5.4183e+000 -2.7509e+001  6.4345e+000 65621 72983,72738,72712
 2.1000e+000 72937  2.1077e+001 -5.1331e+001  6.1746e+000 65621 72983,72712,72686
 2.1000e+000 72914 -4.4970e+000 -8.4567e+001  8.4677e+000 65621 72738,72842,72764
 2.1000e+000 72891  1.7756e-001 -7.7653e+001  2.9638e-001 65621 72764,72842,72816
 2.1000e+000 72868 -5.0248e+001 -2.0164e+002  3.2522e+001 65621 72764,72816,72790
 2.1000e+000 73009  8.5664e+000 -4.5584e+001  1.0271e+001 65621 72842,72738,72983
 2.1000e+000 73032  8.5048e+000 -8.9594e+001  1.2820e+001 65621 72842,72983,72686
 2.1000e+000 73361  2.7855e+000 -1.4885e+002 -9.0992e+000 65281 73456,73384,73188
 2.1000e+000 73338  5.5647e+000 -1.2567e+002  8.4078e+000 65281 73384,73162,73136
 2.1000e+000 73315 -2.4892e+001 -1.2473e+002 -2.5806e+001 65281 73188,73240,73214
 2.1000e+000 73292 -2.9519e+001 -4.4902e+001 -2.0057e+001 65281 73136,73266,73240
 2.1000e+000 73410 -3.7455e+001 -1.3203e+002 -1.3889e+001 65281 73240,73188,73384
 2.1000e+000 73433 -1.1012e+001 -4.5959e+001  3.4112e-001 65281 73240,73384,73136
 2.1000e+000 73482 -5.6273e+000 -1.8099e+002 -1.7225e+001 65281 73162,73384,73456
 2.1000e+000 73711 -1.4548e+001  2.2320e+001 -2.9770e+001 64820 73734,73610,73584
 2.1000e+000 73688 -1.4277e+001  2.4992e+001 -3.7328e+001 64820 73734,73584,73662
 2.1000e+000 73760 -1.0370e+001  2.5109e+001 -2.1422e+001 64820 73636,73610,73734
 2.1000e+000 73783  1.1159e+001  3.1689e+001 -3.9550e+001 64820 73806,73734,73662
 2.1000e+000 73832 -2.4049e+001 -6.5029e+000 -2.3865e+001 64820 73636,73734,73806
 2.1000e+000 74112  8.5211e+000 -5.1235e+001 -5.8424e+000 64622 74278,74135,73988
 2.1000e+000 74089 -6.1586e-001 -6.5454e+001  5.7025e+000 64622 74135,73936,74040
 2.1000e+000 74066  8.7114e+000 -5.0848e+001 -1.7540e+001 64622 74278,73988,73962
 2.1000e+000 74161 -6.9454e+000 -6.1032e+001 -1.6465e+000 64622 74014,73988,74135
 2.1000e+000 74184 -2.4583e-001 -5.9045e+001  2.0265e+000 64622 74207,74135,74040
 2.1000e+000 74233  3.7851e-001 -5.8765e+001 -9.3925e-001 64622 74014,74135,74207
 2.1000e+000 74304 -1.1067e+000 -7.4154e+001  7.3148e-001 64622 73936,74135,74278
 2.1000e+000 74327  4.7519e+000 -6.8130e+001 -1.2027e+001 64622 73936,74278,73962
 2.1000e+000 74526  1.2384e+001 -1.1985e+001  5.6122e+000 64424 74621,74549,74402
 2.1000e+000 74503 -1.1302e+001 -5.5423e+001  9.4078e+000 64424 74549,74350,74454
 2.1000e+000 74480  1.6367e+001 -4.3475e-001 -1.2367e+001 64424 74621,74402,74376
 2.1000e+000 74575  3.3284e+001 -5.1094e+001  1.6234e+001 64424 74428,74402,74549
 2.1000e+000 74598  8.0073e+000 -7.4542e+001  1.5138e+001 64424 74693,74549,74454
 2.1000e+000 74647 -2.5662e+000 -4.0664e+001  1.5954e+001 64424 74350,74549,74621
 2.1000e+000 74670  1.5429e+000 -3.3582e+001 -2.6814e+000 64424 74350,74621,74376
 2.1000e+000 74719  3.9121e+000 -9.6118e+001  4.0428e-001 64424 74428,74549,74693
 2.1000e+000 75123 -3.1588e+001 -1.6499e+002  1.9213e+001 64126 74875,74953,74927
 2.1000e+000 75100 -1.6886e+001 -1.3080e+002  1.6803e+001 64126 74875,74979,74953
 2.1000e+000 75077 -1.8554e+000 -1.0995e+002  8.7367e+000 64126 74875,75005,74979
 2.1000e+000 75054 -1.8346e+001 -2.5109e+002  4.4408e+001 64126 74875,74927,74901
 2.1000e+000 75031 -1.7997e+001 -4.2711e+001  3.7458e+001 64126 74849,75005,74875
 2.1000e+000 75224  1.1991e+001 -9.8548e+001  1.7224e+001 63836 75146,75198,75172
 2.1000e+000 75472 -7.7004e+000 -7.2417e+001  1.8715e+001 63375 75273,75351,75325
 2.1000e+000 75449 -1.3517e+001 -6.7616e+001  9.0480e+000 63375 75273,75377,75351
 2.1000e+000 75426 -1.1285e+001 -7.1409e+001  5.6426e+000 63375 75247,75377,75273
 2.1000e+000 75403 -2.7335e+000 -4.1075e+001  2.1062e+001 63375 75273,75325,75299
 2.1000e+000 75673  1.5463e+001 -7.0477e+001  1.1263e+001 63063 75523,75575,75549
 2.1000e+000 75650  1.2436e+001 -9.2039e+001  6.4694e-001 63063 75497,75575,75523
 2.1000e+000 75627  9.0516e+000 -9.8637e+001  1.1914e+001 63063 75497,75601,75575
 2.1000e+000 75874  1.1995e+001 -1.4559e+002 -6.9704e+000 62716 75897,75750,75724
 2.1000e+000 75851 -8.1807e-002 -1.2330e+002 -9.9933e-001 62716 75897,75724,75698
 2.1000e+000 75828  1.9039e+000 -8.8652e+001 -3.0886e+001 62716 75698,75802,75776
 2.1000e+000 75923  2.7494e+001 -1.1937e+002 -1.8182e+001 62716 75776,75750,75897
 2.1000e+000 75946  2.8218e+000 -1.0967e+002 -4.3474e+000 62716 75776,75897,75698
 2.1000e+000 76328 -1.3987e+001 -1.2908e+002 -8.8132e+000 62198 76495,76351,76158
 2.1000e+000 76305 -3.1494e+001 -1.2356e+002 -1.3944e+000 62198 76351,76080,76054
 2.1000e+000 76282 -8.6141e+000 -1.7904e+002 -1.3254e+001 62198 76423,76184,76158
 2.1000e+000 76259 -1.8526e+001 -1.3022e+002 -6.9210e+000 62198 76495,76158,76106
 2.1000e+000 76236 -4.1319e+001 -1.6233e+002  7.8108e+000 62198 76106,76158,76132
 2.1000e+000 76377 -1.9485e+001 -1.4154e+002 -1.4996e+001 62198 76423,76158,76351
 2.1000e+000 76400 -2.2958e+001 -9.7088e+001 -7.9959e+000 62198 76210,76351,76054
 2.1000e+000 76449  6.4192e+000 -1.4069e+002 -1.8451e+001 62198 76210,76184,76423
 2.1000e+000 76472 -6.9633e+000 -1.1172e+002 -2.3821e+001 62198 76210,76423,76351
 2.1000e+000 76521 -2.3715e+001 -1.2041e+002 -1.9460e+000 62198 76080,76351,76495
 2.1000e+000 76544 -3.6836e+001 -1.3285e+002  3.3723e+000 62198 76080,76495,76106
 2.1000e+000 76841  8.3251e-001 -1.1741e+002 -3.5381e+000 61751 76936,76864,76645
 2.1000e+000 76818  4.2472e+001 -9.1244e+001 -3.6857e+001 61751 76864,76567,76723
 2.1000e+000 76795  7.7238e+000 -9.5583e+001 -5.3678e+000 61751 76936,76645,76593
 2.1000e+000 76772 -1.1125e+002 -2.2286e+002  4.0248e+001 61751 77008,76697,76671
 2.1000e+000 76749  8.1312e+000 -4.8766e+001 -4.7212e+001 61751 76593,76645,76619
 2.1000e+000 76890 -3.3132e+000 -1.3082e+002  8.7534e+000 61751 76671,76645,76864
 2.1000e+000 76913 -2.5329e+001 -1.3687e+002  5.6953e+000 61751 77008,76671,76864
 2.1000e+000 76962  1.4942e+001 -1.4642e+002 -1.4396e+001 61751 76567,76864,76936
 2.1000e+000 76985  1.9498e+001 -1.2882e+002 -1.3809e+001 61751 76567,76936,76593
 2.1000e+000 77034  1.0372e+001 -1.5233e+002 -2.0248e+001 61751 76723,76697,77008
 2.1000e+000 77057  9.3200e+000 -1.6949e+002 -2.0207e+001 61751 76723,77008,76864
 2.1000e+000 77207  2.2844e+000 -5.9534e+001  2.2561e+001 61418 77106,77158,77132
 2.1000e+000 77184  1.5518e+001 -8.6582e+001  2.3971e+001 61418 77080,77158,77106
 2.1000e+000 77638 -1.4230e+001 -1.2726e+002 -1.6028e+001 60814 77733,77661,77471
 2.1000e+000 77615 -8.5157e+000 -1.2689e+002 -1.7044e+001 60814 77661,77393,77315
 2.1000e+000 77592 -2.3488e+001 -1.0667e+002 -6.4823e+000 60814 77733,77471,77445
 2.1000e+000 77569 -2.6920e+001 -1.5644e+002 -2.2904e+001 60814 77315,77367,77341
 2.1000e+000 77546 -3.3908e+001 -1.9681e+002 -9.7457e+000 60814 77315,77393,77367
 2.1000e+000 77523 -2.0448e+001 -8.4754e+001 -6.0065e+000 60814 77393,77445,77419
 2.1000e+000 77687 -5.8399e+000 -1.2399e+002 -1.1200e+001 60814 77497,77471,77661
 2.1000e+000 77710 -1.7105e+001 -1.4935e+002 -1.2020e+000 60814 77497,77661,77315
 2.1000e+000 77759 -6.4708e+000 -9.8124e+001 -2.0113e+001 60814 77393,77661,77733
 2.1000e+000 77782 -1.8765e+001 -8.2940e+001 -7.5765e+000 60814 77393,77733,77445
 2.1000e+000 78337  1.6157e+001 -7.8340e+001  4.3553e+000 60210 78360,78017,77965
 2.1000e+000 78314 -5.7355e-001 -7.6799e+001  1.4235e+001 60210 78360,77965,78173
 2.1000e+000 78291 -1.6220e+001 -9.2022e+001 -9.8559e+000 60210 78432,78043,78017
 2.1000e+000 78268  1.3711e+000 -1.0372e+002 -2.5163e+000 60210 77965,78017,77991
 2.1000e+000 78245 -9.8599e+000 -7.2504e+001  2.7948e+000 60210 78043,78095,78069
 2.1000e+000 78222 -4.7148e+001 -1.2925e+002  3.0852e+001 60210 78095,78173,78121
 2.1000e+000 78199 -1.7509e+001 -8.9016e+001 -8.1806e+000 60210 78121,78173,78147
 2.1000e+000 78386 -7.8400e+000 -8.5730e+001  2.4942e-001 60210 78432,78017,78360
 2.1000e+000 78409 -6.7751e+000 -7.1292e+001  1.0996e+001 60210 78095,78360,78173
 2.1000e+000 78458 -6.3072e+000 -7.7810e+001  1.5964e+000 60210 78095,78043,78432
 2.1000e+000 78481 -2.2466e-001 -7.0302e+001  1.1400e+001 60210 78095,78432,78360
 2.1000e+000 78680 -2.2518e+001 -9.1111e+001 -7.3095e+000 59848 78703,78556,78530
 2.1000e+000 78657 -1.8780e+001 -9.8955e+001 -1.6628e+001 59848 78703,78530,78504
 2.1000e+000 78634 -2.3421e+001 -1.1540e+002 -1.2920e+001 59848 78504,78608,78582
 2.1000e+000 78729 -2.7941e+001 -1.0870e+002 -3.7852e+000 59848 78582,78556,78703
 2.1000e+000 78752 -2.0431e+001 -1.0858e+002 -1.6311e+001 59848 78582,78703,78504
 2.1000e+000 78951 -2.7665e+001 -7.5202e+001 -3.7975e+000 59344 78974,78801,78775
 2.1000e+000 78928 -3.8644e+001 -1.0369e+002 -1.0693e+001 59344 79046,78974,78775
 2.1000e+000 78905 -3.4643e+001 -1.2130e+002 -1.0642e+001 59344 79046,78775,78879
 2.1000e+000 79000 -1.3460e+001 -6.2778e+001  2.2315e+001 59344 78827,78801,78974
 2.1000e+000 79023 -3.3755e+001 -9.2266e+001  1.0363e+001 59344 78827,78974,78853
 2.1000e+000 79072 -3.7242e+001 -8.4303e+001 -3.7544e+000 59344 78853,78974,79046
 2.1000e+000 79095 -2.7687e+001 -9.5595e+001 -2.3922e+000 59344 78853,79046,78879
 2.1000e+000 79296  2.3444e+000 -1.3972e+002 -8.2920e+000 58711 79319,79172,79146
 2.1000e+000 79273  1.2058e+001 -1.2584e+002 -3.0276e+000 58711 79319,79146,79120
 2.1000e+000 79250 -1.2348e+001 -1.4337e+002  2.7717e+001 58711 79172,79224,79198
 2.1000e+000 79345 -7.3218e+000 -1.2334e+002 -7.8118e+000 58711 79224,79172,79319
 2.1000e+000 79368 -2.1885e+000 -1.1313e+002 -4.7862e+000 58711 79224,79319,79120
 2.1000e+000 79667  6.7826e+000 -7.4578e+001 -5.3510e+000 58285 79690,79471,79393
 2.1000e+000 79644  7.9920e+000 -8.9803e+001 -1.1352e+001 58285 79690,79393,79549
 2.1000e+000 79621  2.9133e+001 -1.0785e+002  1.7574e+001 58285 79393,79471,79419
 2.1000e+000 79598  1.1633e+001 -6.6564e+001  1.1468e+000 58285 79497,79549,79523
 2.1000e+000 79575 -2.8019e+001 -2.1731e+002  4.3685e+001 58285 79419,79471,79445
 2.1000e+000 79716  8.4631e+000 -6.0307e+001  3.0467e+000 58285 79497,79471,79690
 2.1000e+000 79739  8.5125e+000 -8.2523e+001 -6.6705e-001 58285 79497,79690,79549
 2.1000e+000 80249  1.3113e+001 -3.6667e+001 -1.2017e+001 57831 80272,79978,79952
 2.1000e+000 80226  3.7089e+000 -4.1568e+001 -1.0110e+001 57831 80272,79952,80108
 2.1000e+000 80203 -2.9515e+000 -6.9346e+001 -2.3646e+001 57831 79926,80108,79952
 2.1000e+000 80180 -7.7635e+000 -5.5583e+001 -1.3228e+001 57831 80004,80082,80030
 2.1000e+000 80157 -8.9434e+000 -3.8123e+001 -1.9126e+001 57831 80004,80108,80082
 2.1000e+000 80134  1.2295e+001 -2.3732e+001 -2.4288e+001 57831 80030,80082,80056
 2.1000e+000 80298  1.5576e+001 -2.2665e+001 -2.7323e+001 57831 80004,79978,80272
 2.1000e+000 80321 -5.7307e+000 -3.5401e+001 -2.1897e+001 57831 80004,80272,80108
 2.1000e+000 80618 -3.1941e+001 -1.2549e+002  1.9734e+001 57077 80344,80448,80422
 2.1000e+000 80595 -7.3367e+000 -1.0912e+002  8.6594e+000 57077 80344,80500,80448
 2.1000e+000 80572 -6.6282e+000 -8.4531e+001  1.7256e+000 57077 80344,80422,80370
 2.1000e+000 80549 -3.2450e+001 -8.0723e+001  8.4430e+000 57077 80370,80422,80396
 2.1000e+000 80526 -3.2733e+001 -1.6558e+002  2.1584e+001 57077 80448,80500,80474
 2.1000e+000 80768  4.2560e-001 -4.6364e+001 -7.6377e-001 56787 80791,80693,80667
 2.1000e+000 80745 -8.6649e+000 -4.4909e+001  4.6520e+000 56787 80791,80667,80641
 2.1000e+000 80817  6.3360e+000 -4.4829e+001 -5.9064e+000 56787 80719,80693,80791
 2.1000e+000 80840 -1.0626e+001 -3.1562e+001 -6.2217e+000 56787 80719,80791,80641
 2.1000e+000 81429 -2.8909e+001 -5.7507e+001  5.5937e+000 56497 81452,81158,81132
 2.1000e+000 81406 -1.2667e+001 -4.4851e+001 -5.7183e-001 56497 81452,81132,81288
 2.1000e+000 81383 -2.3097e+001 -6.5402e+001  3.7209e+000 56497 81524,81184,81158
 2.1000e+000 81360 -1.9921e+001 -1.2898e+002  2.8885e+001 56497 81210,81288,81236
 2.1000e+000 81337 -2.1000e+000 -3.2825e+001  1.0541e+001 56497 81106,81288,81132
 2.1000e+000 81314 -1.1630e+001 -6.5157e+001  1.4813e+001 56497 81236,81288,81262
 2.1000e+000 81478 -1.7289e+001 -5.8541e+001 -8.4880e-001 56497 81524,81158,81452
 2.1000e+000 81501  5.6612e+000 -5.8321e+001  2.0780e+000 56497 81210,81452,81288
 2.1000e+000 81550 -2.4005e+001 -7.2722e+001  1.2775e+001 56497 81210,81184,81524
 2.1000e+000 81573 -1.6948e+001 -6.8509e+001  8.0026e+000 56497 81210,81524,81452
 2.1000e+000 81870 -3.1094e+001 -8.1887e+001 -1.0825e+000 55979 81893,81674,81648
 2.1000e+000 81847 -2.6672e+001 -7.9517e+001  5.1648e-001 55979 81893,81648,81752
 2.1000e+000 81824 -1.5175e+001 -8.1613e+001  5.0392e+000 55979 81596,81752,81648
 2.1000e+000 81801 -4.0685e+001 -6.1019e+001 -6.8163e+000 55979 81674,81726,81700
 2.1000e+000 81778 -1.3427e+001 -7.4124e+001 -9.5780e+000 55979 81596,81648,81622
 2.1000e+000 81919 -3.3606e+001 -7.9749e+001  3.0061e+000 55979 81726,81674,81893
 2.1000e+000 81942 -2.7117e+001 -7.6089e+001  4.9252e+000 55979 81726,81893,81752
 2.1000e+000 82371 -3.4214e+001 -8.1112e+001 -9.3012e+000 55631 82100,82204,82152
 2.1000e+000 82348 -2.8774e+001 -8.8339e+001 -1.2358e+001 55631 82100,82230,82204
 2.1000e+000 82325 -3.4404e+001 -8.5423e+001  1.9224e-001 55631 82100,82152,82126
 2.1000e+000 82302 -3.6525e+001 -1.2418e+002 -4.7377e+001 55631 82074,82230,82100
 2.1000e+000 82279 -4.0213e+001 -9.1993e+001 -4.4754e+000 55631 82152,82204,82178
 2.1000e+000 82256  1.9538e+001 -1.1129e+002 -2.3633e+001 55631 82048,82230,82074
 2.1000e+000 82521  3.6268e+001 -5.2633e+001 -4.4705e+000 55227 82544,82420,82394
 2.1000e+000 82498  3.0963e+001 -6.4698e+001 -1.5484e+000 55227 82544,82394,82472
 2.1000e+000 82570  2.6912e+001 -3.9106e+001 -4.7801e+000 55227 82446,82420,82544
 2.1000e+000 82593  1.8252e+001 -5.1508e+001  1.1822e+000 55227 82446,82544,82472
 2.1000e+000 82875  9.2690e+000 -1.4057e+001  3.6665e+000 54979 82699,82777,82725
 2.1000e+000 82852 -4.7045e+000 -4.5597e+001  1.0905e+001 54979 82699,82803,82777
 2.1000e+000 82829 -3.1632e+000 -1.0962e+001  5.9804e+000 54979 82725,82777,82751
 2.1000e+000 83204 -4.2630e+000 -4.3970e+001 -5.9559e+000 54475 83005,83083,83057
 2.1000e+000 83181 -5.7713e+000 -4.1179e+001 -8.8497e+000 54475 82979,83083,83005
 2.1000e+000 83158 -2.8506e+000 -5.2969e+001 -7.9193e+000 54475 83005,83057,83031
 2.1000e+000 83135 -1.8620e+001 -7.1474e+001 -2.7433e+000 54475 82979,83109,83083
 2.1000e+000 83582 -2.2684e+001 -6.9959e+001 -4.1758e+000 54071 83605,83438,83412
 2.1000e+000 83559 -2.4724e+001 -7.3212e+001 -2.8764e+000 54071 83749,83605,83412
 2.1000e+000 83536 -2.1514e+001 -8.5753e+001  2.4496e+001 54071 83677,83360,83334
 2.1000e+000 83513 -1.5692e+001 -8.0730e+001 -5.2361e+000 54071 83749,83412,83677
 2.1000e+000 83490 -1.6207e+001 -7.1174e+001 -9.6419e+000 54071 83308,83464,83334
 2.1000e+000 83631 -2.8650e+001 -7.0231e+001 -9.2630e+000 54071 83464,83438,83605
 2.1000e+000 83654 -2.1966e+001 -6.2187e+001 -2.7226e+000 54071 83464,83605,83334
 2.1000e+000 83703  2.5731e+001 -7.0223e+001  2.5323e+001 54071 83386,83360,83677
 2.1000e+000 83726  8.7533e+000 -8.0577e+001 -3.1901e+000 54071 83386,83677,83412
 2.1000e+000 83775 -8.3711e+000 -6.4315e+001  1.1480e+000 54071 83334,83605,83749
 2.1000e+000 83798  2.1634e+000 -7.1061e+001 -1.1255e+000 54071 83334,83749,83677
 2.1000e+000 84068 -1.0657e+001 -1.5529e+001 -8.0966e+000 53524 83869,83921,83895
 2.1000e+000 84045 -2.3255e+000 -5.0279e+001  8.7281e-001 53524 83869,83947,83921
 2.1000e+000 84022 -1.4742e+001 -6.3061e+001 -4.1631e+000 53524 83843,83947,83869
 2.1000e+000 83999  8.6157e+000 -5.7062e+001 -5.7023e+000 53524 83843,83973,83947
 2.1000e+000 84497 -3.1470e+001 -1.3830e+002 -5.3481e+000 53184 84200,84330,84252
 2.1000e+000 84474 -2.2210e+001 -1.0042e+002  8.0648e+000 53184 84200,84356,84330
 2.1000e+000 84451 -1.4343e+000 -1.3381e+002  8.8768e+000 53184 84200,84252,84226
 2.1000e+000 84428 -1.6084e+001 -1.0491e+002 -3.6248e+001 53184 84252,84330,84278
 2.1000e+000 84405  2.8909e+000 -8.4226e+001 -4.8297e+000 53184 84174,84356,84200
 2.1000e+000 84382 -8.1622e-001 -1.0421e+002 -8.3892e+000 53184 84278,84330,84304
 2.1000e+000 84954  9.5774e+000 -7.4959e+001  2.7646e+001 52680 84706,84836,84784
 2.1000e+000 84931 -1.7153e+001 -6.1730e+001 -4.5888e+001 52680 84680,84836,84706
 2.1000e+000 84908 -3.0086e+000 -2.1355e+002 -5.3240e+000 52680 84784,84836,84810
 2.1000e+000 84885 -5.7153e+000 -2.3413e+002  3.3940e+000 52680 84706,84784,84732
 2.1000e+000 84862  1.6700e+001 -1.8803e+002 -4.2692e+001 52680 84732,84784,84758
 2.1000e+000 85202  9.7477e-002 -1.1608e+002  3.5686e-001 52226 85029,85081,85055
 2.1000e+000 85179 -3.3893e+001 -1.1257e+002 -3.6458e+000 52226 85225,85081,85029
 2.1000e+000 85156 -2.8664e+001 -1.0007e+002 -7.2185e-001 52226 85225,85029,85003
 2.1000e+000 85133 -3.5752e+001 -8.3714e+001 -2.0048e+001 52226 84977,85107,85003
 2.1000e+000 85251 -3.7751e+001 -1.1418e+002 -1.8353e+001 52226 85107,85081,85225
 2.1000e+000 85274 -2.9049e+001 -8.2637e+001 -1.8685e+001 52226 85107,85225,85003
 2.1000e+000 85522  2.7365e+001 -7.2109e+001 -9.8284e+000 51764 85297,85349,85323
 2.1000e+000 85499  2.0485e+001 -8.6918e+001  1.3701e+000 51764 85545,85297,85427
 2.1000e+000 85476  3.2125e+000 -6.3609e+001 -7.5642e+000 51764 85545,85427,85375
 2.1000e+000 85453  4.4708e+000 -5.7252e+001 -6.3431e+000 51764 85375,85427,85401
 2.1000e+000 85571  2.5992e+001 -7.3035e+001 -9.1355e+000 51764 85349,85297,85545
 2.1000e+000 85594  1.7971e+001 -4.1167e+001 -1.9901e+001 51764 85349,85545,85375
 2.1000e+000 85746 -3.9677e+001 -9.6143e+001  4.0272e+000 51374 85645,85697,85671
 2.1000e+000 85723 -4.3402e+001 -8.6359e+001 -4.2311e+000 51374 85619,85697,85645
 2.1000e+000 86256  1.9927e+000 -5.1964e+001  8.9829e+000 50970 86279,86011,85959
 2.1000e+000 86233  6.5551e+000 -4.1542e+001  5.8296e+000 50970 86279,85959,86115
 2.1000e+000 86210  6.3395e-001 -5.4558e+001  1.0854e+001 50970 85959,86011,85985
 2.1000e+000 86187  1.3318e+001 -5.9509e+001  6.3162e+000 50970 86037,86115,86089
 2.1000e+000 86164  6.2504e+001 -1.9363e+001 -9.9573e+000 50970 85933,86115,85959
 2.1000e+000 86141 -1.9048e+001 -6.9465e+001 -7.2087e+000 50970 86037,86089,86063
 2.1000e+000 86305  1.0033e+001 -6.5805e+001  9.3124e+000 50970 86037,86011,86279
 2.1000e+000 86328  1.5558e+001 -5.4286e+001  5.8469e+000 50970 86037,86279,86115
 2.1000e+000 86478 -2.5403e+001 -1.6959e+002  1.2257e+001 50451 86351,86403,86377
 2.1000e+000 86455 -8.3480e+001 -4.7598e+002 -2.0781e+000 50451 86351,86429,86403
 2.1000e+000 86907 -4.7476e+001 -1.0557e+002 -1.3043e+001 50047 86930,86714,86662
 2.1000e+000 86884 -3.3044e+001 -1.1157e+002 -1.1003e+001 50047 86930,86662,86610
 2.1000e+000 86861 -2.2458e+001 -1.4377e+002 -2.7908e+001 50047 87002,86740,86714
 2.1000e+000 86838 -4.8285e+000 -8.9402e+001  6.1972e+000 50047 86662,86714,86688
 2.1000e+000 86815 -3.1653e+001 -1.0622e+002 -8.9926e+000 50047 86610,86662,86636
 2.1000e+000 86792 -2.2634e+001 -9.2088e+001 -1.2048e+001 50047 86584,86766,86610
 2.1000e+000 86956 -3.9564e+001 -1.0911e+002 -1.3287e+001 50047 87002,86714,86930
 2.1000e+000 86979 -5.4211e+001 -1.0526e+002 -1.0187e+001 50047 86766,86930,86610
 2.1000e+000 87028 -5.7985e+001 -1.1850e+002 -3.6013e+001 50047 86766,86740,87002
 2.1000e+000 87051 -6.8107e+001 -1.1363e+002 -2.4772e+001 50047 86766,87002,86930
 2.1000e+000 87250 -1.5789e+001 -1.2570e+002 -2.1111e+001 49543 87273,87126,87100
 2.1000e+000 87227 -1.0021e+001 -1.0741e+002 -8.9915e+000 49543 87273,87100,87074
 2.1000e+000 87204 -3.3043e+001 -9.8197e+001 -2.2135e+001 49543 87126,87178,87152
 2.1000e+000 87299 -1.3818e+001 -9.9681e+001 -1.4709e+001 49543 87178,87126,87273
 2.1000e+000 87322 -1.1425e+001 -9.3204e+001 -6.8640e-001 49543 87178,87273,87074
 2.1000e+000 87570 -3.1584e+001 -8.0065e+001  8.7917e+000 49146 87593,87449,87397
 2.1000e+000 87547 -3.0872e+001 -8.0341e+001  4.8409e+000 49146 87593,87397,87371
 2.1000e+000 87524 -3.9908e+001 -6.0884e+001  1.0287e+001 49146 87345,87475,87371
 2.1000e+000 87501 -1.2800e+001 -7.9265e+001  1.0565e+001 49146 87397,87449,87423
 2.1000e+000 87619 -2.6627e+001 -7.8516e+001  9.3770e+000 49146 87475,87449,87593
 2.1000e+000 87642 -2.8094e+001 -7.9252e+001  5.7061e+000 49146 87475,87593,87371
 2.1000e+000 88073  2.3749e+001 -5.7506e+001 -1.6091e+001 48706 87854,87932,87880
 2.1000e+000 88050  4.0492e+000 -6.1347e+001  9.2243e-001 48706 87828,87932,87854
 2.1000e+000 88027  1.1322e+000 -6.6649e+001 -2.5526e-001 48706 87750,87932,87828
 2.1000e+000 88004 -5.1393e+000 -9.9550e+001 -2.8748e+001 48706 87750,87802,87776
 2.1000e+000 87981 -2.1254e+000 -1.2132e+002 -2.3358e+001 48706 87750,87828,87802
 2.1000e+000 87958 -1.8152e+000 -6.8756e+001 -1.4138e+001 48706 87880,87932,87906
 2.1000e+000 88402 -2.5968e+001 -1.0192e+002 -1.8684e+000 48145 88203,88281,88255
 2.1000e+000 88379 -3.3891e+001 -1.0386e+002  3.2835e+000 48145 88203,88307,88281
 2.1000e+000 88356 -1.6808e+001 -9.9642e+001 -4.4347e+000 48145 88203,88255,88229
 2.1000e+000 88333 -2.5404e+001 -1.1115e+002  1.7476e+001 48145 88177,88307,88203
 2.1000e+000 88601 -1.8171e+001 -1.1114e+002  1.9344e+001 47805 88696,88624,88477
 2.1000e+000 88578 -5.0186e+001 -1.2042e+002 -4.4547e+000 47805 88826,88624,88451
 2.1000e+000 88555 -4.5006e+001 -1.1639e+002 -5.7642e-001 47805 88826,88451,88425
 2.1000e+000 88650 -3.0585e+001 -1.3738e+002  7.3079e+000 47805 88503,88477,88624
 2.1000e+000 88673 -4.6309e+001 -1.3216e+002  2.6721e-001 47805 88503,88624,88529
 2.1000e+000 88722 -8.9621e+001 -1.4181e+002  4.2634e+000 47805 88451,88624,88696
 2.1000e+000 88852 -5.0495e+001 -1.1375e+002  2.6067e+000 47805 88529,88624,88826
 2.1000e+000 88875 -4.5099e+001 -1.1009e+002  6.5055e+000 47805 88529,88826,88425
 2.1000e+000 89172  1.8655e+001 -6.3281e+001 -1.9811e+001 47401 89195,88976,88898
 2.1000e+000 89149  1.7084e+001 -6.0772e+001 -4.1086e+001 47401 89195,88898,89054
 2.1000e+000 89126  1.0645e+001 -5.7600e+001 -2.0567e+001 47401 88898,88976,88950
 2.1000e+000 89103 -4.8911e+000 -8.7867e+001 -2.2167e+001 47401 88976,89028,89002
 2.1000e+000 89080  8.5975e+000 -5.5006e+001 -5.6475e+000 47401 88898,88950,88924
 2.1000e+000 89221  7.7952e+000 -8.7480e+001 -1.7650e+001 47401 89028,88976,89195
 2.1000e+000 89244  9.7498e+000 -7.8859e+001 -4.0653e+001 47401 89028,89195,89054
 2.1000e+000 89575  4.7880e+001 -1.1304e+002  3.1346e+000 47111 89350,89454,89376
 2.1000e+000 89552  1.6738e+001 -1.2520e+002  7.6256e+000 47111 89350,89480,89454
 2.1000e+000 89529 -1.6357e+000 -1.4085e+002 -7.9948e+000 47111 89376,89454,89402
 2.1000e+000 89506  2.3055e+001 -9.6619e+001  8.6950e+000 47111 89402,89454,89428
 2.1000e+000 89904  1.4458e+001 -7.3870e+001 -8.0272e+000 46707 89705,89757,89731
 2.1000e+000 89881 -1.7136e+001 -9.3760e+001  4.4359e-001 46707 89705,89783,89757
 2.1000e+000 89858 -3.4951e+001 -9.7439e+001  1.0613e+001 46707 89679,89783,89705
 2.1000e+000 89835 -8.8906e+000 -8.5908e+001 -2.5280e+000 46707 89679,89809,89783
 2.1000e+000 90233 -6.7835e+000 -8.1969e+001 -1.3251e+001 46360 90034,90112,90086
 2.1000e+000 90210 -2.7158e+001 -7.7505e+001 -3.9918e+000 46360 90034,90138,90112
 2.1000e+000 90187 -1.1595e+001 -8.6337e+001 -1.1430e+001 46360 90034,90086,90060
 2.1000e+000 90164 -2.1924e+001 -8.5038e+001  6.8677e+000 46360 90008,90138,90034
 2.1000e+000 90530 -7.2575e+000 -7.9857e+001 -1.3521e+001 45662 90256,90360,90308
 2.1000e+000 90507 -1.6629e+001 -1.0337e+002  1.6981e-001 45662 90256,90412,90360
 2.1000e+000 90484 -2.0142e+000 -1.0322e+002 -1.9242e+001 45662 90256,90308,90282
 2.1000e+000 90461 -1.8035e+000 -5.4749e+001  7.1997e+000 45662 90360,90412,90386
 2.1000e+000 90438 -4.1999e+001 -6.8767e+001 -5.1891e+000 45662 90308,90360,90334
 2.1000e+000 90910 -4.3387e+001 -8.3165e+001 -9.1186e+000 45108 90688,90766,90714
 2.1000e+000 90887 -2.5011e+001 -9.0380e+001  6.6276e+000 45108 90662,90766,90688
 2.1000e+000 90864 -4.7784e+001 -9.0140e+001  7.5321e+000 45108 90636,90766,90662
 2.1000e+000 90841 -1.5036e+001 -1.1101e+002 -3.0961e+001 45108 90714,90766,90740
 2.1000e+000 90818 -4.4592e+001 -9.6887e+001  1.0868e+001 45108 90636,90792,90766
 2.1000e+000 91158 -3.7191e+000 -8.3889e+001  4.1206e+000 44604 91181,91011,90959
 2.1000e+000 91135 -3.7245e+001 -9.4885e+001  3.9934e+000 44604 91181,90959,90933
 2.1000e+000 91112 -3.9747e+001 -1.0619e+002  1.3554e+001 44604 90959,91011,90985
 2.1000e+000 91089 -1.7218e+000 -1.1014e+002 -1.3522e+001 44604 90933,91063,91037
 2.1000e+000 91207  2.1324e+001 -1.0199e+002 -1.4427e+001 44604 91037,91011,91181
 2.1000e+000 91230 -1.3218e+001 -1.1175e+002 -2.2456e+001 44604 91037,91181,90933
 2.1000e+000 91429  3.0804e+000 -1.1174e+002 -1.0626e+001 44264 91452,91279,91253
 2.1000e+000 91406  6.2756e+000 -1.2211e+002 -1.1812e+001 44264 91452,91253,91357
 2.1000e+000 91383 -3.2138e+001 -1.0193e+002  1.3829e+001 44264 91279,91331,91305
 2.1000e+000 91478  4.7591e+000 -1.0823e+002 -9.8052e+000 44264 91331,91279,91452
 2.1000e+000 91501  1.2793e+001 -1.1349e+002 -8.9079e+000 44264 91331,91452,91357
 2.1000e+000 92060 -6.0326e+001 -1.3031e+002 -2.6664e+000 43860 92083,91740,91688
 2.1000e+000 92037 -1.4690e+001 -1.3819e+002  1.6964e+001 43860 92083,91688,91896
 2.1000e+000 92014 -4.0430e+001 -1.3793e+002  1.8060e+001 43860 91766,91870,91844
 2.1000e+000 91991 -3.6092e+001 -1.2331e+002  1.9334e+001 43860 91740,91870,91766
 2.1000e+000 91968 -1.9137e+000 -1.3734e+002  6.1941e+000 43860 91766,91844,91792
 2.1000e+000 91945 -3.2037e+001 -1.5484e+002 -4.1472e+001 43860 91688,91740,91714
 2.1000e+000 91922 -1.7940e+001 -1.5019e+002  5.3883e-001 43860 91792,91844,91818
 2.1000e+000 92109 -2.1910e+001 -1.2171e+002  1.7909e+001 43860 91870,91740,92083
 2.1000e+000 92132  2.6679e+001 -1.2144e+002  4.0724e+001 43860 91870,92083,91896
 2.1000e+000 92353  1.0120e+001 -9.8646e+001 -1.5914e+001 43662 92203,92255,92229
 2.1000e+000 92330 -1.4628e+001 -1.0493e+002 -4.5521e+000 43662 92376,92203,92281
 2.1000e+000 92307  9.4583e+000 -6.6860e+001  5.9938e+000 43662 92177,92281,92203
 2.1000e+000 92402 -4.6500e+001 -1.1847e+002  3.6247e-001 43662 92255,92203,92376
 2.1000e+000 92682  1.6626e+001 -1.3752e+002 -1.8369e+001 43464 92532,92584,92558
 2.1000e+000 92659  5.0717e+000 -1.1027e+002 -9.3819e+000 43464 92506,92584,92532
 2.1000e+000 92636 -6.6404e+000 -1.1048e+002 -1.4249e+001 43464 92506,92610,92584
 2.1000e+000 93013  1.5493e+001 -1.0584e+002 -2.2764e+001 42960 92866,92918,92892
 2.1000e+000 92990 -6.4095e+000 -1.1321e+002 -5.4544e+000 42960 93036,92918,92866
 2.1000e+000 92967  5.5952e+000 -1.2280e+002  6.6554e-001 42960 93036,92866,92840
 2.1000e+000 92944 -5.3722e+000 -1.0964e+002  4.1454e-001 42960 92788,92918,92814
 2.1000e+000 93062  4.2972e-002 -1.1157e+002 -2.0075e-001 42960 92814,92918,93036
 2.1000e+000 93085  2.4460e+001 -1.1096e+002  7.5248e+000 42960 92814,93036,92840
 2.1000e+000 93186 -3.9075e+001 -1.0382e+002 -1.0834e+001 42556 93108,93160,93134
 2.1000e+000 93554 -3.9879e+001 -1.4735e+002  1.5991e+000 42052 93231,93387,93361
 2.1000e+000 93531 -4.5268e+001 -1.3815e+002  2.1433e+001 42052 93231,93413,93387
 2.1000e+000 93508 -5.8675e+001 -1.3773e+002  4.2313e+000 42052 93231,93361,93257
 2.1000e+000 93485 -2.5194e+001 -1.0596e+002  1.3674e+001 42052 93283,93361,93335
 2.1000e+000 93462 -3.5702e+001 -1.2490e+002  9.4153e+000 42052 93257,93361,93283
 2.1000e+000 93439  9.2834e+000 -8.8481e+001 -5.9483e-002 42052 93283,93335,93309
 2.1000e+000 94162 -2.6103e+000 -1.0103e+002 -7.3616e+000 41498 93767,93975,93793
 2.1000e+000 94139 -3.4853e-001 -9.7886e+001  6.5493e+000 41498 93741,93975,93767
 2.1000e+000 94116 -1.5773e+001 -7.5590e+001 -1.0841e+000 41498 93793,93975,93923
 2.1000e+000 94093 -3.5771e+001 -1.2254e+002  4.8028e+000 41498 93923,93975,93949
 2.1000e+000 94070 -3.2080e+001 -4.2938e+001 -1.2565e+001 41498 93871,93923,93897
 2.1000e+000 94047  2.1432e+000 -6.5381e+001 -5.3399e+000 41498 93793,93923,93871
 2.1000e+000 94024  7.4746e+000 -5.9271e+001  2.0700e+000 41498 93819,93871,93845
 2.1000e+000 94001 -8.5323e+000 -6.4996e+001  1.5851e+000 41498 93793,93871,93819
 2.1000e+000 94619 -1.6786e+001 -8.4705e+001 -3.5502e+001 40930 94642,94423,94371
 2.1000e+000 94596  1.5156e+001 -7.4487e+001 -2.7562e+001 40930 94642,94371,94345
 2.1000e+000 94573 -1.8747e+000 -8.3602e+001  3.6630e+000 40930 94345,94501,94475
 2.1000e+000 94550  5.4358e+000 -9.7024e+001 -4.1691e+001 40930 94371,94423,94397
 2.1000e+000 94527 -1.4997e+001 -6.2910e+001  2.7838e-001 40930 94423,94475,94449
 2.1000e+000 94668 -4.8125e-001 -7.4085e+001 -1.3149e+001 40930 94475,94423,94642
 2.1000e+000 94691  1.9472e+001 -7.6374e+001 -7.4567e+000 40930 94475,94642,94345
 2.1000e+000 95148 -3.6167e+001 -1.1486e+002  2.3001e+001 40362 95171,94952,94926
 2.1000e+000 95125 -3.4425e+001 -1.1506e+002  1.9174e+001 40362 95171,94926,95004
 2.1000e+000 95102 -5.0641e+001 -1.1575e+002  1.7499e+001 40362 94874,95004,94926
 2.1000e+000 95079 -9.3357e+000 -1.0634e+002  2.8187e+001 40362 94874,95030,95004
 2.1000e+000 95056 -4.9400e+001 -1.3147e+002  7.5766e-002 40362 94874,94926,94900
 2.1000e+000 95197 -3.5501e+001 -1.1893e+002  2.3898e+001 40362 94978,94952,95171
 2.1000e+000 95220 -3.4202e+001 -1.1912e+002  2.0212e+001 40362 94978,95171,95004
 2.1000e+000 95549 -2.4847e+001 -9.2898e+001  7.1726e+000 39586 95350,95402,95376
 2.1000e+000 95526  1.0858e+001 -6.8131e+001 -3.6737e+000 39586 95324,95402,95350
 2.1000e+000 95503 -1.3557e+001 -8.0771e+001  2.5782e+001 39586 95324,95454,95402
 2.1000e+000 95480 -1.1690e+001 -1.1320e+002  2.7266e+001 39586 95402,95454,95428
 2.1000e+000 96055 -9.7229e+000 -6.1123e+001 -7.1541e+000 38968 96078,95862,95810
 2.1000e+000 96032 -9.7887e+000 -4.7834e+001 -6.5659e+000 38968 96078,95810,95758
 2.1000e+000 96009 -1.1757e+001 -8.6641e+001 -2.5546e+001 38968 96150,95732,95888
 2.1000e+000 95986  6.8803e+000 -4.6849e+001  3.4938e+000 38968 95810,95862,95836
 2.1000e+000 95963  5.9032e+001 -6.5165e+001 -1.7568e+001 38968 95732,95914,95888
 2.1000e+000 95940 -3.2460e+001 -5.6419e+001  1.2302e+001 38968 95758,95810,95784
 2.1000e+000 96104  2.8444e+001 -5.5792e+001 -3.4930e+000 38968 95888,95862,96078
 2.1000e+000 96127 -1.2684e+001 -7.9577e+001 -1.5848e+001 38968 96150,95888,96078
 2.1000e+000 96176 -1.8568e+001 -6.2078e+001 -1.7869e+001 38968 95758,95732,96150
 2.1000e+000 96199 -1.2594e+001 -4.8779e+001 -6.9497e+000 38968 95758,96150,96078
 2.1000e+000 96545 -1.2654e+001 -1.0460e+002 -1.2021e+001 38507 96640,96568,96352
 2.1000e+000 96522 -3.1258e+001 -1.3352e+002  5.7681e+000 38507 96568,96300,96222
 2.1000e+000 96499 -2.1768e+000 -8.9068e+001 -3.7176e+001 38507 96640,96352,96326
 2.1000e+000 96476 -2.5774e+001 -1.2387e+002 -1.8599e+001 38507 96352,96404,96378
 2.1000e+000 96453 -3.9184e+001 -1.6158e+002  5.1264e+000 38507 96222,96300,96248
 2.1000e+000 96430 -4.3484e+001 -2.0178e+002 -3.7273e+000 38507 96248,96300,96274
 2.1000e+000 96594 -3.7107e+001 -1.2169e+002 -4.3721e+000 38507 96404,96352,96568
 2.1000e+000 96617 -2.2166e+001 -1.0937e+002  3.1975e+000 38507 96404,96568,96222
 2.1000e+000 96666 -2.9843e+001 -1.4174e+002 -5.7052e-001 38507 96300,96568,96640
 2.1000e+000 96689 -2.7287e+001 -1.3041e+002 -2.3391e+001 38507 96300,96640,96326
 2.1000e+000 97069 -1.1551e+001 -5.4361e+001 -5.2788e+000 37760 97092,96873,96821
 2.1000e+000 97046 -1.8847e+001 -5.7991e+001 -3.8653e-002 37760 97092,96821,96795
 2.1000e+000 97023 -2.4514e+001 -5.8786e+001 -2.4149e+000 37760 96821,96873,96847
 2.1000e+000 97000  5.8360e-001 -3.1789e+001 -1.4580e+001 37760 96873,96925,96899
 2.1000e+000 96977 -1.0461e+001 -3.6285e+001 -1.8072e+001 37760 96795,96951,96925
 2.1000e+000 97118 -4.0991e+000 -4.5087e+001 -1.6527e+001 37760 96925,96873,97092
 2.1000e+000 97141 -2.6012e+001 -5.5232e+001 -1.0302e+001 37760 96925,97092,96795
 2.1000e+000 97647 -5.7677e+001 -1.2017e+002  6.3620e+000 37356 97324,97480,97376
 2.1000e+000 97624 -2.5769e+001 -1.2180e+002  3.0233e+001 37356 97324,97506,97480
 2.1000e+000 97601 -5.3038e+001 -9.3460e+001  1.2344e+001 37356 97376,97480,97454
 2.1000e+000 97578 -5.6096e+001 -1.2808e+002  2.7708e+000 37356 97324,97376,97350
 2.1000e+000 97555 -3.9602e+001 -8.8127e+001  1.2170e+001 37356 97376,97454,97402
 2.1000e+000 97532 -5.3377e+001 -1.0361e+002  6.3928e+000 37356 97402,97454,97428
 2.1000e+000 98232 -1.1645e+001 -4.9383e+001 -1.0287e+001 36902 97935,98065,98013
 2.1000e+000 98209  1.7883e+001 -4.1727e+001 -1.2322e+001 36902 97935,98091,98065
 2.1000e+000 98186 -4.0132e+000 -4.8615e+001 -9.5900e+000 36902 97935,98013,97987
 2.1000e+000 98163  4.8644e+000 -1.2871e+001 -1.6379e+001 36902 97909,98091,97935
 2.1000e+000 98140  2.8268e+000 -3.3767e+001 -1.1544e+001 36902 97935,97987,97961
 2.1000e+000 98117 -1.6352e+001 -7.2370e+001  8.7728e-001 36902 98013,98065,98039
 2.1000e+000 98659 -3.0005e+001 -1.4730e+002 -1.7744e+001 36604 98682,98414,98388
 2.1000e+000 98636 -2.0297e+001 -1.3742e+002  7.1515e+000 36604 98682,98388,98336
 2.1000e+000 98613 -3.1035e+001 -1.2297e+002  8.1134e+000 36604 98754,98518,98466
 2.1000e+000 98590 -3.1346e+001 -8.6429e+001 -1.3682e+001 36604 98414,98466,98440
 2.1000e+000 98567  9.1926e+000 -1.7993e+002  1.3579e+001 36604 98336,98388,98362
 2.1000e+000 98544 -6.8430e+000 -1.4847e+002  8.6110e+001 36604 98466,98518,98492
 2.1000e+000 98708 -1.5686e+001 -1.1397e+002 -1.6448e+001 36604 98466,98414,98682
 2.1000e+000 98731 -2.5637e+001 -1.2661e+002  6.8517e+000 36604 98754,98466,98682
 2.1000e+000 98780 -2.5509e+001 -1.2385e+002  8.8071e+000 36604 98336,98518,98754
 2.1000e+000 98803 -1.6926e+001 -1.2458e+002  9.1174e+000 36604 98336,98754,98682
 2.1000e+000 99309 -1.1776e+001 -7.2984e+001  1.6842e+001 36200 99332,99116,99012
 2.1000e+000 99286 -1.0591e+001 -3.0807e+001 -3.0846e+000 36200 99332,99012,98986
 2.1000e+000 99263 -5.1821e+000 -6.0715e+001  1.4356e+001 36200 99012,99116,99064
 2.1000e+000 99240 -2.9211e+000 -5.3969e+001 -3.3097e+000 36200 98986,99168,99142
 2.1000e+000 99217 -2.3587e+001 -6.8861e+001  1.7629e+001 36200 99064,99116,99090
 2.1000e+000 99194 -3.1728e+001 -6.7464e+001 -3.8302e+000 36200 99012,99064,99038
 2.1000e+000 99358 -1.6262e+001 -1.0174e+002  2.8633e+001 36200 99142,99116,99332
 2.1000e+000 99381 -1.8929e+001 -7.4602e+001  4.5016e+000 36200 99142,99332,98986
 2.1000e+000 99887 -4.2848e+001 -9.6502e+001  5.4173e+000 35488 99564,99720,99590
 2.1000e+000 99864 -3.6074e+001 -8.2423e+001  1.0004e+001 35488 99564,99746,99720
 2.1000e+000 99841 -1.0115e+001 -1.0077e+002  9.1345e-001 35488 99642,99694,99668
 2.1000e+000 99818 -2.7438e+001 -1.1313e+002  9.9578e+000 35488 99590,99694,99642
 2.1000e+000 99795 -1.2843e+001 -8.7165e+001  3.9210e+000 35488 99590,99720,99694
 2.1000e+000 99772  4.3849e+000 -1.5598e+002  1.4128e+001 35488 99590,99642,99616
 2.1000e+000 99988 -3.4991e-001 -5.0377e+001  2.3461e+000 35198 99910,99962,99936
 2.1000e+000 100138  6.5582e+000 -8.9971e+001  1.1856e+001 34794 100233,100161,100063
 2.1000e+000 100115 -2.1532e+001 -1.1585e+002 -9.7210e+000 34794 100365,100161,100037
 2.1000e+000 100187  2.7042e+001 -9.6078e+001  9.7085e+000 34794 100089,100063,100161
 2.1000e+000 100210  2.5706e+001 -9.9766e+001  7.5171e+000 34794 100089,100161,100011
 2.1000e+000 100259 -1.8562e+001 -1.2905e+002 -1.9794e+001 34794 100037,100161,100233
 2.1000e+000 100391  5.0297e+001 -7.1525e+001 -2.8704e+001 34794 100011,100161,100365
 2.1000e+000 100927  5.6255e+000 -8.6898e+001 -1.2778e+000 34404 100679,100809,100783
 2.1000e+000 100904  2.0068e+001 -8.7158e+001  2.2741e-001 34404 100653,100809,100679
 2.1000e+000 100881 -1.0711e+001 -1.0085e+002 -1.6222e+000 34404 100705,100783,100731
 2.1000e+000 100858 -6.0508e+000 -9.3323e+001  2.1355e+000 34404 100679,100783,100705
 2.1000e+000 100835 -2.5005e+001 -1.0646e+002 -1.7608e+001 34404 100731,100783,100757
 2.1000e+000 101354 -3.3176e+001 -1.2702e+002  1.6524e+001 34000 101377,101109,101057
 2.1000e+000 101331 -6.5866e+001 -1.4254e+002  1.1939e+001 34000 101449,101377,101057
 2.1000e+000 101308 -7.6058e+001 -1.3083e+002  1.0427e+001 34000 101449,101057,101031
 2.1000e+000 101285 -6.0611e+001 -1.2469e+002  2.4374e+001 34000 101031,101213,101187
 2.1000e+000 101262 -4.6331e+001 -1.6312e+002 -1.8747e+001 34000 101135,101187,101161
 2.1000e+000 101239 -5.6762e+001 -1.6068e+002  2.8421e+001 34000 101057,101109,101083
 2.1000e+000 101403 -4.7119e+001 -1.3048e+002 -2.1047e+000 34000 101135,101109,101377
 2.1000e+000 101426 -6.3128e+001 -1.3670e+002 -4.3800e+000 34000 101135,101377,101187
 2.1000e+000 101475 -4.6461e+001 -1.3071e+002  4.9860e+000 34000 101187,101377,101449
 2.1000e+000 101498 -6.2323e+001 -1.2578e+002  6.8811e+000 34000 101187,101449,101031
 2.1000e+000 102083  1.2198e+001 -7.9984e+001  3.4880e-001 33472 102106,101812,101786
 2.1000e+000 102060 -1.4623e+001 -8.8868e+001 -2.3348e+000 33472 102106,101786,101916
 2.1000e+000 102037 -2.4765e+001 -9.7884e+001 -1.6975e+001 33472 101812,101864,101838
 2.1000e+000 102014 -4.0555e+000 -1.1290e+002 -1.3929e+001 33472 101864,101916,101890
 2.1000e+000 101991 -3.2517e+001 -9.8333e+001 -7.9435e+000 33472 101786,101942,101916
 2.1000e+000 101968 -4.3219e+001 -9.8616e+001  1.6942e+001 33472 101760,101942,101786
 2.1000e+000 102132 -5.3720e+000 -8.3506e+001 -1.0045e+001 33472 101864,101812,102106
 2.1000e+000 102155 -1.5429e+001 -8.4883e+001 -1.4336e+001 33472 101864,102106,101916
 2.1000e+000 102612 -3.3397e+001 -1.1484e+002 -4.2113e+001 33038 102635,102468,102390
 2.1000e+000 102589 -5.6722e+001 -1.5056e+002 -5.6785e+001 33038 102635,102390,102364
 2.1000e+000 102566 -1.6760e+001 -1.0608e+002 -3.7947e+001 33038 102390,102468,102442
 2.1000e+000 102543 -2.3809e+001 -1.2253e+002 -2.7542e+001 33038 102338,102494,102364
 2.1000e+000 102520 -1.7873e+001 -9.8445e+001 -2.2919e+001 33038 102390,102442,102416
 2.1000e+000 102661 -3.2175e+001 -1.0599e+002 -2.1879e+001 33038 102494,102468,102635
 2.1000e+000 102684 -3.7555e+001 -1.2632e+002 -3.3046e+001 33038 102494,102635,102364
 2.1000e+000 103318 -2.6318e+001 -7.4387e+001  2.6417e+000 32402 102972,103128,103076
 2.1000e+000 103295 -2.5114e+001 -7.4868e+001  2.5459e+000 32402 102946,103128,102972
 2.1000e+000 103272 -2.6865e+001 -7.8108e+001  7.1500e+000 32402 103076,103128,103102
 2.1000e+000 103249 -1.7169e+001 -6.9409e+001  2.8352e+001 32402 102946,103154,103128
 2.1000e+000 103226 -2.1203e+001 -6.2590e+001 -6.6636e+000 32402 102972,103076,102998
 2.1000e+000 103203 -2.2786e+001 -7.0365e+001 -1.1841e+001 32402 102998,103076,103050
 2.1000e+000 103180 -3.1521e+001 -5.4241e+001 -1.5994e+001 32402 102998,103050,103024
 2.1000e+000 103696 -4.7762e+001 -1.3797e+002 -4.8381e+000 31924 103448,103526,103500
 2.1000e+000 103673 -1.9682e+001 -1.3003e+002 -2.1155e+001 31924 103448,103578,103526
 2.1000e+000 103650 -3.6902e+001 -1.2791e+002 -9.1680e+000 31924 103448,103500,103474
 2.1000e+000 103627 -2.7145e+001 -1.4232e+002 -2.4643e+001 31924 103422,103578,103448
 2.1000e+000 103604 -3.9143e+001 -1.8976e+002 -4.7650e+000 31924 103526,103578,103552
 2.1000e+000 104281  2.6859e+000 -5.3862e+001 -1.4723e+000 31520 104304,104062,104036
 2.1000e+000 104258 -2.6086e+001 -5.1224e+001 -4.2217e+000 31520 104304,104036,103984
 2.1000e+000 104235 -1.4726e+001 -4.5830e+001 -3.6669e+001 31520 104062,104114,104088
 2.1000e+000 104212 -1.2996e+001 -5.2257e+001 -1.0605e+001 31520 103958,104114,103984
 2.1000e+000 104189 -3.1900e+001 -6.4876e+001 -6.3595e+000 31520 103984,104036,104010
 2.1000e+000 104166 -3.6384e+000 -5.8797e+001 -1.3908e+001 31520 103958,104140,104114
 2.1000e+000 104330  1.1415e+001 -5.6497e+001 -1.3853e+001 31520 104114,104062,104304
 2.1000e+000 104353 -5.2841e+000 -4.8758e+001 -1.1626e+001 31520 104114,104304,103984
 2.1000e+000 104704  1.0322e+000 -3.5645e+001 -2.4726e+000 31066 104479,104583,104505
 2.1000e+000 104681  2.0346e+001 -2.1397e+001 -9.1134e+000 31066 104479,104609,104583
 2.1000e+000 104658  7.9887e+000 -5.8380e+001 -2.0964e+000 31066 104505,104557,104531
 2.1000e+000 104635  9.0590e+000 -3.9403e+001 -5.0676e+000 31066 104505,104583,104557
 2.1000e+000 104925  1.1275e+001 -1.1168e+002  5.9757e+000 30754 104775,104827,104801
 2.1000e+000 104902  1.2352e+001 -8.9433e+001  5.4878e+000 30754 104775,104853,104827
 2.1000e+000 104879  3.2836e+001 -8.0311e+001  1.0630e+001 30754 104749,104853,104775
 2.1000e+000 105482 -3.7122e+001 -9.9378e+001  6.0327e+000 30164 105505,105136,105110
 2.1000e+000 105459 -2.8266e+001 -1.1363e+002  1.0885e+001 30164 105649,105505,105110
 2.1000e+000 105436 -2.6534e+001 -9.6813e+001  1.8716e+000 30164 105577,105188,105136
 2.1000e+000 105413 -3.6592e+001 -1.1852e+002  1.9585e+001 30164 105649,105110,105318
 2.1000e+000 105390 -4.2104e+001 -1.6818e+002  3.2494e+001 30164 105214,105292,105240
 2.1000e+000 105367 -1.7444e+000 -1.5288e+002  2.8591e+001 30164 105240,105292,105266
 2.1000e+000 105344 -3.3551e+001 -8.5370e+001 -7.3364e-001 30164 105136,105188,105162
 2.1000e+000 105531 -2.9213e+001 -9.7214e+001  7.2719e+000 30164 105577,105136,105505
 2.1000e+000 105554 -8.1399e+000 -9.6495e+001  8.9614e+000 30164 105214,105505,105292
 2.1000e+000 105603 -2.4809e+001 -8.9512e+001 -4.7594e-001 30164 105214,105188,105577
 2.1000e+000 105626 -2.6079e+001 -8.8898e+001  4.6463e+000 30164 105214,105577,105505
 2.1000e+000 105675 -2.2897e+001 -1.0240e+002  5.5985e+000 30164 105292,105505,105649
 2.1000e+000 105698 -2.3834e+001 -9.9148e+001  1.2755e+001 30164 105292,105649,105318
 2.1000e+000 106027  1.9721e+001 -5.8963e+001  8.1358e+000 29868 106322,106050,105880
 2.1000e+000 106004 -8.6847e+000 -5.1795e+001 -6.1528e+000 29868 106250,106050,105828
 2.1000e+000 105981 -8.9243e+000 -5.3318e+001 -8.9287e+000 29868 106250,105828,105802
 2.1000e+000 105958  1.9621e+000 -4.5589e+001  2.4126e+001 29868 106322,105880,106122
 2.1000e+000 106076 -4.0309e-002 -9.5876e+001 -9.0802e-001 29868 105906,105880,106050
 2.1000e+000 106099 -2.4649e+000 -6.3639e+001 -7.3796e+000 29868 105906,106050,105932
 2.1000e+000 106148 -4.0944e+001 -8.5617e+001  1.5404e+001 29868 105854,105828,106122
 2.1000e+000 106276 -1.0544e+001 -5.5250e+001 -7.7787e+000 29868 105932,106050,106250
 2.1000e+000 106299 -1.2700e+001 -5.8774e+001 -1.0978e+001 29868 105932,106250,105802
 2.1000e+000 106348 -1.2322e+001 -7.1412e+001  3.5376e+000 29868 105828,106050,106322
 2.1000e+000 106371 -2.6844e+001 -5.6035e+001  1.9563e+001 29868 105828,106322,106122
 2.1000e+000 106828 -6.5227e+000 -5.4994e+001 -1.6632e+000 29521 106580,106710,106684
 2.1000e+000 106805 -2.2435e+001 -5.7169e+001 -1.7890e+001 29521 106554,106710,106580
 2.1000e+000 106782 -1.7828e+001 -5.5211e+001 -2.2213e+000 29521 106580,106684,106606
 2.1000e+000 106759 -3.3424e+001 -8.5748e+001 -8.3751e+000 29521 106606,106684,106658
 2.1000e+000 106736 -9.9006e+000 -5.5174e+001  4.2349e+000 29521 106606,106658,106632
 2.1000e+000 107027 -3.3791e+001 -1.0980e+002 -2.0663e+001 29117 106877,106929,106903
 2.1000e+000 107004 -2.1278e+001 -1.0444e+002 -2.1199e+001 29117 106851,106929,106877
 2.1000e+000 106981 -2.8601e+001 -1.2770e+002 -1.6220e+001 29117 106851,106955,106929
 2.1000e+000 107456 -3.4637e+001 -1.3683e+002 -2.2988e+001 28656 107237,107315,107263
 2.1000e+000 107433 -1.1126e+001 -9.0798e+001 -9.5839e+000 28656 107133,107315,107237
 2.1000e+000 107410 -4.2503e+000 -7.9411e+001 -1.2772e+001 28656 107133,107237,107159
 2.1000e+000 107387 -1.7778e+000 -6.2114e+001 -1.6731e+001 28656 107159,107237,107185
 2.1000e+000 107364  4.2293e-001 -5.4373e+001  6.7431e+000 28656 107185,107237,107211
 2.1000e+000 107341 -5.4384e+000 -7.3658e+001 -1.2992e+001 28656 107263,107315,107289
 2.1000e+000 107704 -1.5606e+001 -1.0623e+002  3.8756e+000 27902 107727,107557,107531
 2.1000e+000 107681 -6.4808e+000 -9.0540e+001  7.6056e+000 27902 107727,107531,107505
 2.1000e+000 107658 -2.0639e+001 -9.5201e+001 -1.0169e+001 27902 107557,107609,107583
 2.1000e+000 107635 -3.9889e+001 -8.3537e+001  4.2641e+000 27902 107479,107609,107505
 2.1000e+000 107753 -2.5897e+001 -9.2244e+001 -3.4855e+000 27902 107609,107557,107727
 2.1000e+000 107776 -1.8524e+001 -7.9624e+001 -4.4414e-001 27902 107609,107727,107505
 2.1000e+000 108333 -3.2344e+001 -1.4298e+002 -2.2559e+000 27341 108356,108065,108013
 2.1000e+000 108310 -3.6456e+001 -1.4080e+002 -1.9655e+001 27341 108356,108013,108143
 2.1000e+000 108287 -1.4588e+001 -1.6183e+002 -1.9410e+001 27341 108428,108117,108091
 2.1000e+000 108264 -4.9853e+001 -1.4269e+002  2.7223e+000 27341 108013,108065,108039
 2.1000e+000 108241 -7.6022e+001 -1.2963e+002 -2.3129e+001 27341 107987,108143,108013
 2.1000e+000 108218 -3.5420e+001 -1.1184e+002 -3.0979e+001 27341 107987,108169,108143
 2.1000e+000 108195 -3.0832e+001 -1.0888e+002 -2.9467e+001 27341 107961,108169,107987
 2.1000e+000 108382 -3.9298e+001 -1.6073e+002 -5.2164e-001 27341 108091,108065,108356
 2.1000e+000 108405 -2.7824e+001 -1.4091e+002 -1.0831e+001 27341 108428,108091,108356
 2.1000e+000 108454 -3.8835e+001 -1.9628e+002 -3.0419e+001 27341 108143,108117,108428
 2.1000e+000 108477 -4.8387e+001 -1.6857e+002 -2.0905e+001 27341 108143,108428,108356
 2.1000e+000 108725  7.0542e+000 -1.1588e+002 -3.2265e+000 27029 108748,108526,108500
 2.1000e+000 108702 -1.9560e+000 -9.5367e+001  2.0066e+000 27029 108748,108500,108630
 2.1000e+000 108679 -1.6859e+001 -1.0392e+002  4.1618e+000 27029 108578,108630,108604
 2.1000e+000 108656  1.3266e+001 -9.8355e+001  2.1635e+001 27029 108526,108578,108552
 2.1000e+000 108774 -1.3453e+000 -1.2311e+002 -7.3303e+000 27029 108578,108526,108748
 2.1000e+000 108797 -1.6342e+001 -1.0954e+002 -4.8154e+000 27029 108578,108748,108630
 2.1000e+000 109045 -2.2571e-001 -8.9187e+001 -1.9021e+000 26610 108872,108924,108898
 2.1000e+000 109022 -1.1976e+001 -9.5998e+001 -4.8369e+000 26610 108872,108950,108924
 2.1000e+000 108999 -1.5426e+001 -1.0056e+002 -7.4683e+000 26610 108846,108950,108872
 2.1000e+000 108976 -5.1384e+000 -1.1058e+002 -6.9290e+000 26610 108820,108950,108846
 2.1000e+000 109366 -1.5095e+001 -1.6191e+002  5.8341e+000 26006 109144,109222,109196
 2.1000e+000 109343 -1.9365e+001 -1.6378e+002  4.8790e+000 26006 109118,109222,109144
 2.1000e+000 109320 -3.8075e+001 -1.7644e+002  1.2413e+001 26006 109092,109222,109118
 2.1000e+000 109297 -5.8581e-001 -1.5295e+002 -2.0346e+001 26006 109144,109196,109170
 2.1000e+000 109274 -4.4551e+000 -1.2704e+002 -2.3510e+000 26006 109092,109248,109222
 2.1000e+000 109567 -3.0327e+001 -1.0407e+002 -1.4900e+001 25659 109391,109469,109443
 2.1000e+000 109544 -2.6837e+001 -1.0438e+002 -1.0587e+001 25659 109391,109495,109469
 2.1000e+000 109521 -4.0777e+001 -1.0995e+002 -7.3820e+000 25659 109391,109443,109417
 2.1000e+000 109900 -3.5864e+001 -9.3481e+001 -7.7151e+000 25255 109923,109779,109753
 2.1000e+000 109877 -3.3551e+001 -8.9211e+001 -9.7174e+000 25255 109923,109753,109701
 2.1000e+000 109854 -2.9053e+001 -7.1190e+001 -1.1349e+001 25255 109675,109805,109701
 2.1000e+000 109831 -4.9437e+001 -8.3335e+001 -1.1403e+001 25255 109701,109753,109727
 2.1000e+000 109949 -3.2546e+001 -9.8739e+001 -1.2241e+001 25255 109805,109779,109923
 2.1000e+000 109972 -2.9362e+001 -9.0998e+001 -1.4527e+001 25255 109805,109923,109701
 2.1000e+000 110220 -4.1412e+001 -1.0204e+002  1.3684e+001 24701 110243,110021,109995
 2.1000e+000 110197 -4.1350e+001 -1.0734e+002  2.6193e+000 24701 110243,109995,110099
 2.1000e+000 110174 -3.3606e+001 -1.0019e+002  6.1268e+000 24701 110315,110073,110047
 2.1000e+000 110151 -3.6303e+001 -1.1071e+002  2.5827e+000 24701 109995,110125,110099
 2.1000e+000 110269 -2.8826e+001 -9.6611e+001  1.4904e+001 24701 110047,110021,110243
 2.1000e+000 110292 -4.6393e+001 -1.0047e+002  9.7855e+000 24701 110315,110047,110243
 2.1000e+000 110341  1.5798e+000 -9.2746e+001  6.7700e+000 24701 110099,110073,110315
 2.1000e+000 110364 -2.1342e+001 -9.8745e+001  8.0634e+000 24701 110099,110315,110243
 2.1000e+000 110661 -2.7038e+001 -1.2590e+002 -5.8526e+000 24197 110684,110413,110387
 2.1000e+000 110638 -1.9753e+001 -1.1624e+002 -1.3910e+001 24197 110684,110387,110543
 2.1000e+000 110615 -4.6727e+000 -1.8382e+002  1.1706e+001 24197 110756,110491,110465
 2.1000e+000 110592 -3.6387e+001 -1.1392e+002  9.5989e+000 24197 110413,110465,110439
 2.1000e+000 110569 -2.2253e+001 -2.5826e+002 -1.8487e+001 24197 110491,110543,110517
 2.1000e+000 110710 -1.3142e+001 -1.1602e+002  7.9086e+000 24197 110465,110413,110684
 2.1000e+000 110733 -3.2089e+001 -1.5869e+002  4.3757e+000 24197 110756,110465,110684
 2.1000e+000 110782  1.3955e+001 -1.5554e+002 -7.4248e+000 24197 110543,110491,110756
 2.1000e+000 110805 -2.2815e+000 -1.1836e+002 -1.6687e+001 24197 110543,110756,110684
 2.1000e+000 111315 -3.9252e+001 -1.2885e+002 -1.0447e+001 23593 111044,111148,111070
 2.1000e+000 111292 -3.9801e+001 -1.1624e+002 -4.6981e+000 23593 111044,111174,111148
 2.1000e+000 111269 -1.7892e+001 -9.2240e+001  8.2266e+000 23593 111070,111122,111096
 2.1000e+000 111246 -4.8377e+001 -1.4958e+002 -1.2131e+001 23593 111070,111148,111122
 2.1000e+000 111223 -4.5826e+001 -1.0783e+002 -1.4280e+001 23593 111018,111174,111044
 2.1000e+000 111200 -2.1793e+001 -1.2048e+002 -1.0528e+001 23593 110992,111174,111018
 2.1000e+000 111821  2.2742e+001 -1.3079e+002 -5.2971e+000 23089 111916,111844,111628
 2.1000e+000 111798 -3.7427e+001 -1.5654e+002 -2.3737e+001 23089 111844,111550,111524
 2.1000e+000 111775  3.5177e+001 -1.2309e+002 -7.0007e-001 23089 111916,111628,111602
 2.1000e+000 111752 -3.7862e+000 -2.1976e+002 -9.4894e+000 23089 111498,111680,111524
 2.1000e+000 111729  7.6673e-001 -9.7470e+001  1.5617e+001 23089 111550,111602,111576
 2.1000e+000 111706  3.4209e+001 -8.9022e+001 -1.8481e+001 23089 111628,111680,111654
 2.1000e+000 111870 -8.7328e+000 -1.3265e+002  1.0636e+000 23089 111680,111628,111844
 2.1000e+000 111893 -9.9586e+000 -1.3507e+002  4.7639e+000 23089 111680,111844,111524
 2.1000e+000 111942 -8.7930e+000 -1.1255e+002 -8.4648e+000 23089 111550,111844,111916
 2.1000e+000 111965  7.8580e+000 -1.0218e+002 -3.3906e+000 23089 111550,111916,111602
 2.1000e+000 112164  6.0916e+001 -9.0633e+001 -3.1585e+001 22626 112187,112014,111988
 2.1000e+000 112141 -2.2011e+000 -1.0002e+002 -1.3322e+001 22626 112259,112187,111988
 2.1000e+000 112118 -2.7898e+000 -1.0709e+002 -2.1175e+000 22626 112259,111988,112092
 2.1000e+000 112213  2.5001e+000 -7.3398e+001 -3.9579e+001 22626 112040,112014,112187
 2.1000e+000 112236 -3.4172e+001 -7.9588e+001 -3.1236e+000 22626 112040,112187,112066
 2.1000e+000 112285  1.1687e+000 -8.2103e+001 -1.6029e+001 22626 112066,112187,112259
 2.1000e+000 112308  3.2998e+000 -8.7005e+001 -5.6819e+000 22626 112066,112259,112092
 2.1000e+000 112605  1.7462e+001 -1.1210e+002  8.7796e+000 22286 112628,112383,112357
 2.1000e+000 112582 -1.5073e+001 -1.2145e+002  4.9499e+000 22286 112772,112628,112357
 2.1000e+000 112559 -4.3164e+001 -1.2999e+002  6.5084e+000 22286 112700,112435,112409
 2.1000e+000 112536 -3.6172e+001 -1.2363e+002  9.3187e+000 22286 112772,112357,112331
 2.1000e+000 112513 -3.7745e+001 -1.0234e+002 -2.4245e+000 22286 112435,112487,112461
 2.1000e+000 112654  9.7869e-002 -9.3490e+001 -1.2315e+001 22286 112409,112383,112628
 2.1000e+000 112677 -3.1954e+001 -1.1420e+002 -2.3099e+000 22286 112700,112409,112628
 2.1000e+000 112726 -2.8161e+001 -1.1582e+002 -5.5252e+000 22286 112487,112435,112700
 2.1000e+000 112749 -2.3936e+001 -1.1382e+002 -1.2583e+001 22286 112487,112700,112628
 2.1000e+000 112798 -5.9957e+000 -1.1773e+002  1.1382e+000 22286 112487,112628,112772
 2.1000e+000 112821 -1.2225e+001 -1.1085e+002  4.2211e+000 22286 112487,112772,112331
 2.1000e+000 112924  8.2065e-001  2.5310e+001 -3.5936e+000 21974 112846,112898,112872
 2.1000e+000 113223 -6.5074e+001 -1.6091e+002  1.7627e+001 21420 112949,113053,112975
 2.1000e+000 113200 -5.8908e+001 -1.2779e+002  1.8079e+001 21420 112949,113079,113053
 2.1000e+000 113177 -2.2238e+001 -1.4370e+002  1.7740e+001 21420 112975,113053,113001
 2.1000e+000 113154 -7.4274e+001 -1.6311e+002  1.2597e+001 21420 113001,113053,113027
 2.1000e+000 113131 -7.6118e+001 -1.1752e+002  8.3395e+000 21420 112949,113105,113079
 2.1000e+000 113605 -1.8819e+001 -1.8097e+002  4.6611e+001 20716 113331,113435,113357
 2.1000e+000 113582 -2.6106e+001 -7.7923e+001  5.1888e+001 20716 113331,113461,113435
 2.1000e+000 113559 -8.6092e+000 -1.5639e+002 -6.6833e+000 20716 113383,113435,113409
 2.1000e+000 113536 -4.5808e+001 -1.5938e+002 -9.2642e+000 20716 113357,113435,113383
 2.1000e+000 113513 -4.8803e+000 -2.0967e+001  1.0314e+001 20716 113331,113487,113461
 2.1000e+000 113853 -1.9144e+001 -1.4189e+002  6.6763e+000 20290 113876,113680,113654
 2.1000e+000 113830 -8.4886e+000 -1.3798e+002  8.0922e+000 20290 113876,113654,113628
 2.1000e+000 113807 -2.8625e+001 -1.4991e+002 -4.1979e+000 20290 113948,113732,113680
 2.1000e+000 113784  4.6352e+001 -1.3149e+002 -1.2129e+001 20290 113680,113732,113706
 2.1000e+000 113902 -1.8177e+001 -1.3718e+002  6.7293e+000 20290 113948,113680,113876
 2.1000e+000 113925 -2.4613e+001 -1.2559e+002  7.4264e+000 20290 113758,113876,113628
 2.1000e+000 113974 -4.1362e+001 -1.3855e+002 -7.8912e+000 20290 113758,113732,113948
 2.1000e+000 113997 -4.0721e+001 -1.3836e+002  7.6902e-001 20290 113758,113948,113876
 2.1000e+000 114365 -2.1358e+001 -1.4115e+002  4.6712e-001 19900 114146,114198,114172
 2.1000e+000 114342 -2.2655e+001 -1.4163e+002  9.3056e-001 19900 114042,114198,114146
 2.1000e+000 114319 -2.3301e+001 -1.3646e+002  1.9872e+000 19900 114042,114224,114198
 2.1000e+000 114296 -6.0324e+001 -1.3466e+002 -2.6671e+000 19900 114094,114146,114120
 2.1000e+000 114273 -2.4937e+001 -1.3094e+002 -8.4236e+000 19900 114042,114146,114094
 2.1000e+000 114250 -4.1625e+001 -1.2868e+002  2.4858e+000 19900 114042,114094,114068
 2.1000e+000 114566 -4.0195e+001 -1.4079e+002  9.9373e-001 19496 114442,114494,114468
 2.1000e+000 114543 -6.3606e+001 -1.3689e+002 -1.0344e+001 19496 114416,114494,114442
 2.1000e+000 114520 -4.3454e+001 -1.2455e+002 -5.1205e+000 19496 114390,114494,114416
 2.1000e+000 114767 -4.9836e+000 -1.4103e+002  5.7256e+000 19042 114790,114669,114643
 2.1000e+000 114744 -1.0890e+001 -1.3491e+002  8.4071e+000 19042 114790,114643,114591
 2.1000e+000 114721  1.9779e+000 -1.4608e+002  3.0092e+001 19042 114591,114643,114617
 2.1000e+000 114816 -5.4726e+000 -1.3524e+002  3.4274e+000 19042 114695,114669,114790
 2.1000e+000 114839 -8.1583e+000 -1.2484e+002  6.4022e+000 19042 114695,114790,114591
 2.1000e+000 114991 -6.1952e+001 -1.6002e+002  4.6135e-001 18488 114864,114916,114890
 2.1000e+000 114968 -4.5071e+001 -1.6659e+002 -3.8383e+000 18488 114864,114942,114916
 2.1000e+000 115192  3.7010e+001 -1.1101e+002  4.6992e+000 18098 115215,115042,115016
 2.1000e+000 115169  1.5457e+001 -9.5020e+001 -5.8018e+000 18098 115215,115016,115120
 2.1000e+000 115146  3.1591e+001 -1.0917e+002 -1.9096e+001 18098 115287,115094,115068
 2.1000e+000 115241  2.2786e+001 -1.5422e+002 -2.2403e+000 18098 115068,115042,115215
 2.1000e+000 115264  3.0243e+001 -1.0673e+002 -7.5915e+000 18098 115287,115068,115215
 2.1000e+000 115313  1.5089e+001 -1.1479e+002 -1.7242e+001 18098 115120,115094,115287
 2.1000e+000 115336  8.4426e+000 -1.1455e+002 -6.2982e+000 18098 115120,115287,115215
 2.1000e+000 115846  1.7312e+001 -1.6670e+002 -3.8475e+001 17644 115653,115705,115679
 2.1000e+000 115823 -2.9701e+001 -1.5052e+002 -9.9826e+000 17644 115627,115705,115653
 2.1000e+000 115800 -1.0728e+001 -1.3418e+002  2.4064e+000 17644 115549,115705,115627
 2.1000e+000 115777 -1.6951e+001 -1.5293e+002  3.6560e+000 17644 115549,115627,115575
 2.1000e+000 115754  2.1411e+001 -8.9983e+001  4.6910e+001 17644 115523,115705,115549
 2.1000e+000 115731 -1.0158e+001 -1.3817e+002 -6.2398e+000 17644 115575,115627,115601
 2.1000e+000 116067  3.2920e+001 -2.0323e+002 -8.0656e+000 17116 115891,115943,115917
 2.1000e+000 116044 -5.8599e+001 -2.3369e+002  1.4961e+001 17116 115891,115995,115943
 2.1000e+000 116021 -7.9568e+001 -1.8536e+002 -1.7466e-001 17116 115943,115995,115969
 2.1000e+000 116288 -2.8821e+000 -1.4493e+002  2.9444e+001 16704 116164,116216,116190
 2.1000e+000 116265 -2.7882e+001 -1.9974e+002  1.9287e+001 16704 116112,116216,116164
 2.1000e+000 116242 -2.6699e+001 -1.7780e+002 -3.5445e+000 16704 116112,116164,116138
 2.1000e+000 116489 -2.1511e+001 -1.5000e+002  1.2513e+000 16434 116339,116417,116365
 2.1000e+000 116466 -3.9540e+001 -1.5833e+002 -8.6825e-001 16434 116313,116417,116339
 2.1000e+000 116443 -1.0224e+002 -1.6808e+002  6.5966e+001 16434 116365,116417,116391
 2.1000e+000 116592 -2.5516e+001 -1.5052e+002 -6.7391e+000 15967 116514,116566,116540
 2.1000e+000 116695  4.5581e+001 -1.6518e+002 -3.1971e+001 15552 116617,116669,116643
 2.1000e+000 116798 -1.9075e+001 -1.3276e+002  0.0000e+000 421 116720,116772,116746
 2.2000e+000 69066  2.2645e+000 -2.1921e+002  2.1319e+000 68738 68965,69017,68991
 2.2000e+000 69043  1.9848e+001 -1.5859e+002  4.2299e+002 68738 68939,69017,68965
 2.2000e+000 69371 -4.5296e+000 -4.0514e+001 -1.4721e+001 68426 69172,69250,69198
 2.2000e+000 69348  9.6634e-001 -7.6042e+001  4.9785e+000 68426 69146,69250,69172
 2.2000e+000 69325 -2.2143e+000 -1.3201e+001  5.7358e+000 68426 69198,69250,69224
 2.2000e+000 69302 -1.3963e+001 -7.4597e+001  2.6670e+000 68426 69146,69276,69250
 2.2000e+000 69521 -2.3013e+000 -7.9615e+001 -6.7088e+000 68228 69420,69472,69446
 2.2000e+000 69498 -1.0586e+001 -5.6278e+001 -2.9230e+001 68228 69394,69472,69420
 2.2000e+000 69781 -2.1191e-001  4.1621e-001 -9.7147e-002 68030 69631,69683,69657
 2.2000e+000 69758  1.3814e+000 -8.9771e+000 -3.9533e+000 68030 69631,69709,69683
 2.2000e+000 69735 -1.7056e+000  1.3458e+000  6.4953e+000 68030 69605,69709,69631
 2.2000e+000 70078 -7.1132e+000 -2.6242e+001 -1.1203e+001 67832 69882,69934,69908
 2.2000e+000 70055  1.3906e+001 -1.6543e+001 -1.4809e+001 67832 69856,69934,69882
 2.2000e+000 70032  3.1853e+001 -2.7714e+000 -3.0935e+001 67832 69830,69934,69856
 2.2000e+000 70009  8.8258e+000 -5.5859e+001  1.7126e+000 67832 69804,69934,69830
 2.2000e+000 69986 -1.4507e+001 -1.4870e+001  2.2436e+001 67832 69804,69960,69934
 2.2000e+000 70586 -6.0209e+000 -3.5284e+001  8.2651e+000 67634 70609,70419,70341
 2.2000e+000 70563 -4.5551e+000 -4.8524e+001  1.3025e+001 67634 70681,70609,70341
 2.2000e+000 70540 -5.7878e+000 -4.9828e+001  1.6019e+001 67634 70681,70341,70315
 2.2000e+000 70517 -1.3720e+001 -4.0243e+001  1.6134e+001 67634 70341,70419,70367
 2.2000e+000 70494 -6.3538e+000 -5.9271e+000  4.6612e+000 67634 70263,70445,70289
 2.2000e+000 70471 -4.9430e+000 -6.5659e+000  7.5792e+000 67634 70367,70419,70393
 2.2000e+000 70635 -2.8303e+000 -6.2019e+000  6.5013e+000 67634 70445,70419,70609
 2.2000e+000 70658 -1.0788e+001 -3.7117e+001  1.1039e+001 67634 70445,70609,70289
 2.2000e+000 70707 -2.4055e+000 -4.0702e+001  7.6757e+000 67634 70289,70609,70681
 2.2000e+000 70730 -8.0998e+000 -4.4976e+001  1.1311e+001 67634 70289,70681,70315
 2.2000e+000 71108 -9.1199e+000 -5.3165e+001  1.9985e+001 67344 71131,70912,70886
 2.2000e+000 71085 -7.5325e+000 -4.9504e+001  2.0165e+001 67344 71131,70886,70860
 2.2000e+000 71062 -1.4408e+001 -5.8296e+001  1.7635e+001 67344 71203,70938,70912
 2.2000e+000 71039  1.2254e+001 -4.2998e+001  1.0963e+001 67344 70834,70990,70860
 2.2000e+000 71016 -1.3958e+001 -6.8469e+001  6.8745e+000 67344 70938,70990,70964
 2.2000e+000 71157 -1.4311e+001 -5.0256e+001  1.8907e+001 67344 71203,70912,71131
 2.2000e+000 71180 -2.8602e+000 -4.3745e+001  1.0259e+001 67344 70990,71131,70860
 2.2000e+000 71229 -1.1961e+001 -7.2442e+001  1.4485e+001 67344 70990,70938,71203
 2.2000e+000 71252 -1.0946e+001 -6.1943e+001  1.3854e+001 67344 70990,71203,71131
 2.2000e+000 71603  6.9900e-001 -4.3203e+001  5.4541e+000 67032 71378,71482,71404
 2.2000e+000 71580  1.6340e+000 -2.7126e+001  9.1618e+000 67032 71378,71508,71482
 2.2000e+000 71557  5.2494e-001 -2.3590e+001  1.3664e+001 67032 71404,71456,71430
 2.2000e+000 71534 -4.1145e-001 -4.5145e+001  6.2768e+000 67032 71404,71482,71456
 2.2000e+000 72003  9.5890e+000 -2.2945e+001  8.7076e+000 66834 71755,71859,71781
 2.2000e+000 71980  4.7725e+000 -6.1748e+001  2.9319e+000 66834 71755,71885,71859
 2.2000e+000 71957  5.7039e+000 -1.6068e+001  6.2844e+000 66834 71781,71833,71807
 2.2000e+000 71934 -5.9614e+000 -7.0008e+001 -1.7312e+000 66834 71781,71859,71833
 2.2000e+000 71911  1.4912e+001 -2.5489e+001  2.8844e+001 66834 71729,71885,71755
 2.2000e+000 72430  1.0875e+001 -5.3624e+001 -3.1920e-001 66266 72237,72289,72263
 2.2000e+000 72407  7.8439e+000 -6.2298e+001  6.0499e+000 66266 72133,72289,72237
 2.2000e+000 72384 -2.1275e+000 -4.8396e+001  3.4099e+000 66266 72133,72237,72211
 2.2000e+000 72361 -1.5717e+001 -7.1241e+001  4.1891e+000 66266 72107,72289,72133
 2.2000e+000 72338 -1.8608e+001 -9.1819e+001  2.7318e+001 66266 72133,72211,72185
 2.2000e+000 72315 -3.8012e+000 -1.0017e+002  2.7734e+001 66266 72133,72185,72159
 2.2000e+000 72580 -1.8744e+001 -1.1326e+002  1.3964e+001 65968 72479,72531,72505
 2.2000e+000 72557  1.3251e+000 -6.1707e+001  6.6859e+000 65968 72453,72531,72479
 2.2000e+000 72960  5.7401e+000 -2.8486e+001  6.4794e+000 65621 72983,72738,72712
 2.2000e+000 72937  2.3554e+001 -5.6315e+001  6.0112e+000 65621 72983,72712,72686
 2.2000e+000 72914 -5.2237e+000 -9.3863e+001  9.7027e+000 65621 72738,72842,72764
 2.2000e+000 72891  2.3165e-001 -8.6481e+001  1.2974e+000 65621 72764,72842,72816
 2.2000e+000 72868 -5.6179e+001 -2.2573e+002  3.7402e+001 65621 72764,72816,72790
 2.2000e+000 73009  1.0158e+001 -4.9938e+001  1.0900e+001 65621 72842,72738,72983
 2.2000e+000 73032  9.5051e+000 -1.0155e+002  1.3539e+001 65621 72842,72983,72686
 2.2000e+000 73361  6.0005e+000 -1.6660e+002 -1.0701e+001 65281 73456,73384,73188
 2.2000e+000 73338  1.2963e+001 -1.4348e+002  1.0199e+001 65281 73384,73162,73136
 2.2000e+000 73315 -2.9182e+001 -1.3733e+002 -2.7855e+001 65281 73188,73240,73214
 2.2000e+000 73292 -2.9892e+001 -5.2643e+001 -2.0075e+001 65281 73136,73266,73240
 2.2000e+000 73410 -4.3694e+001 -1.4889e+002 -1.5407e+001 65281 73240,73188,73384
 2.2000e+000 73433 -9.5883e+000 -5.3812e+001  2.1503e+000 65281 73240,73384,73136
 2.2000e+000 73482 -5.5104e+000 -2.0664e+002 -1.8955e+001 65281 73162,73384,73456
 2.2000e+000 73711 -1.5452e+001  2.0638e+001 -3.1969e+001 64820 73734,73610,73584
 2.2000e+000 73688 -1.6443e+001  2.0234e+001 -3.9146e+001 64820 73734,73584,73662
 2.2000e+000 73760 -9.6551e+000  2.4406e+001 -2.1372e+001 64820 73636,73610,73734
 2.2000e+000 73783  5.0410e+000  2.7409e+001 -3.9387e+001 64820 73806,73734,73662
 2.2000e+000 73832 -2.4533e+001 -7.9416e+000 -2.5056e+001 64820 73636,73734,73806
 2.2000e+000 74112  8.4484e+000 -5.3531e+001 -7.1329e+000 64622 74278,74135,73988
 2.2000e+000 74089 -4.4064e-002 -7.0958e+001  5.2697e+000 64622 74135,73936,74040
 2.2000e+000 74066  8.9805e+000 -5.2989e+001 -1.9574e+001 64622 74278,73988,73962
 2.2000e+000 74161 -8.3939e+000 -6.5930e+001 -1.6604e+000 64622 74014,73988,74135
 2.2000e+000 74184 -6.3701e-001 -6.6310e+001  2.5203e+000 64622 74207,74135,74040
 2.2000e+000 74233  5.3295e-001 -6.5368e+001 -1.9804e+000 64622 74014,74135,74207
 2.2000e+000 74304 -2.0500e+000 -7.8578e+001  1.0664e+000 64622 73936,74135,74278
 2.2000e+000 74327  5.2403e+000 -7.1713e+001 -1.2567e+001 64622 73936,74278,73962
 2.2000e+000 74526  1.2231e+001 -1.0582e+001  4.6572e+000 64424 74621,74549,74402
 2.2000e+000 74503 -9.9018e+000 -5.5527e+001  8.0744e+000 64424 74549,74350,74454
 2.2000e+000 74480  1.5587e+001  1.8917e+000 -1.5472e+001 64424 74621,74402,74376
 2.2000e+000 74575  3.5401e+001 -5.0128e+001  1.5249e+001 64424 74428,74402,74549
 2.2000e+000 74598  6.2387e+000 -7.7309e+001  1.4972e+001 64424 74693,74549,74454
 2.2000e+000 74647 -3.9202e+000 -4.2988e+001  1.3642e+001 64424 74350,74549,74621
 2.2000e+000 74670 -1.1063e+000 -3.5830e+001 -7.2513e+000 64424 74350,74621,74376
 2.2000e+000 74719  4.2892e+000 -9.4552e+001 -6.7115e-001 64424 74428,74549,74693
 2.2000e+000 75123 -3.5478e+001 -1.8754e+002  2.3670e+001 64126 74875,74953,74927
 2.2000e+000 75100 -1.7888e+001 -1.4898e+002  1.9517e+001 64126 74875,74979,74953
 2.2000e+000 75077 -3.8725e+000 -1.2512e+002  1.0562e+001 64126 74875,75005,74979
 2.2000e+000 75054 -2.0612e+001 -2.7232e+002  4.9777e+001 64126 74875,74927,74901
 2.2000e+000 75031 -2.1092e+001 -5.2578e+001  4.1548e+001 64126 74849,75005,74875
 2.2000e+000 75224  1.1572e+001 -1.0757e+002  1.8694e+001 63836 75146,75198,75172
 2.2000e+000 75472 -8.4877e+000 -7.9857e+001  2.0886e+001 63375 75273,75351,75325
 2.2000e+000 75449 -1.6571e+001 -7.4982e+001  9.9540e+000 63375 75273,75377,75351
 2.2000e+000 75426 -1.3411e+001 -7.8975e+001  6.1908e+000 63375 75247,75377,75273
 2.2000e+000 75403 -1.7292e+000 -4.5823e+001  2.2434e+001 63375 75273,75325,75299
 2.2000e+000 75673  1.4633e+001 -7.6935e+001  1.2116e+001 63063 75523,75575,75549
 2.2000e+000 75650  1.1713e+001 -1.0090e+002  2.9089e-001 63063 75497,75575,75523
 2.2000e+000 75627  8.7415e+000 -1.0798e+002  1.2939e+001 63063 75497,75601,75575
 2.2000e+000 75874  1.1719e+001 -1.5160e+002 -6.6708e+000 62716 75897,75750,75724
 2.2000e+000 75851 -4.7514e+000 -1.2560e+002  8.9452e-002 62716 75897,75724,75698
 2.2000e+000 75828  2.7937e+000 -8.9005e+001 -3.2076e+001 62716 75698,75802,75776
 2.2000e+000 75923  3.6257e+001 -1.2107e+002 -1.9790e+001 62716 75776,75750,75897
 2.2000e+000 75946  2.0324e+000 -1.1184e+002 -4.0478e+000 62716 75776,75897,75698
 2.2000e+000 76328 -1.2922e+001 -1.3122e+002 -1.0768e+001 62198 76495,76351,76158
 2.2000e+000 76305 -3.1960e+001 -1.3052e+002 -6.9183e-001 62198 76351,76080,76054
 2.2000e+000 76282 -5.5241e+000 -1.7503e+002 -1.6291e+001 62198 76423,76184,76158
 2.2000e+000 76259 -1.7606e+001 -1.3199e+002 -8.8222e+000 62198 76495,76158,76106
 2.2000e+000 76236 -3.8662e+001 -1.5496e+002  1.5602e+000 62198 76106,76158,76132
 2.2000e+000 76377 -1.7518e+001 -1.4147e+002 -1.8675e+001 62198 76423,76158,76351
 2.2000e+000 76400 -2.2483e+001 -9.9240e+001 -1.0178e+001 62198 76210,76351,76054
 2.2000e+000 76449  9.4405e+000 -1.4128e+002 -2.1838e+001 62198 76210,76184,76423
 2.2000e+000 76472 -3.6529e+000 -1.1446e+002 -2.7127e+001 62198 76210,76423,76351
 2.2000e+000 76521 -2.2674e+001 -1.2357e+002 -4.5508e+000 62198 76080,76351,76495
 2.2000e+000 76544 -3.5568e+001 -1.3489e+002  5.9334e-001 62198 76080,76495,76106
 2.2000e+000 76841 -1.9002e+000 -1.2587e+002  7.3658e-001 61751 76936,76864,76645
 2.2000e+000 76818  4.5011e+001 -9.6357e+001 -3.9744e+001 61751 76864,76567,76723
 2.2000e+000 76795  3.8227e+000 -9.8599e+001  1.3947e-001 61751 76936,76645,76593
 2.2000e+000 76772 -1.1052e+002 -2.4069e+002  4.6508e+001 61751 77008,76697,76671
 2.2000e+000 76749 -9.7650e+000 -7.1815e+001 -2.7751e+001 61751 76593,76645,76619
 2.2000e+000 76890 -9.5053e+000 -1.4911e+002  1.8849e+001 61751 76671,76645,76864
 2.2000e+000 76913 -2.5936e+001 -1.4942e+002  1.0831e+001 61751 77008,76671,76864
 2.2000e+000 76962  1.0492e+001 -1.6203e+002 -1.2952e+001 61751 76567,76864,76936
 2.2000e+000 76985  1.4505e+001 -1.3904e+002 -1.0546e+001 61751 76567,76936,76593
 2.2000e+000 77034  9.9541e+000 -1.6927e+002 -1.7962e+001 61751 76723,76697,77008
 2.2000e+000 77057  7.3749e+000 -1.8546e+002 -1.7181e+001 61751 76723,77008,76864
 2.2000e+000 77207  1.2305e+000 -6.5748e+001  2.4462e+001 61418 77106,77158,77132
 2.2000e+000 77184  1.7941e+001 -9.5668e+001  2.6639e+001 61418 77080,77158,77106
 2.2000e+000 77638 -1.4059e+001 -1.3983e+002 -1.8708e+001 60814 77733,77661,77471
 2.2000e+000 77615 -4.9471e+000 -1.3869e+002 -1.8905e+001 60814 77661,77393,77315
 2.2000e+000 77592 -2.5092e+001 -1.1600e+002 -7.6077e+000 60814 77733,77471,77445
 2.2000e+000 77569 -3.1986e+001 -1.8586e+002 -2.4552e+001 60814 77315,77367,77341
 2.2000e+000 77546 -3.4870e+001 -2.1820e+002 -1.0014e+001 60814 77315,77393,77367
 2.2000e+000 77523 -2.2371e+001 -9.1027e+001 -7.3850e+000 60814 77393,77445,77419
 2.2000e+000 77687 -4.7980e+000 -1.3618e+002 -1.4240e+001 60814 77497,77471,77661
 2.2000e+000 77710 -1.7409e+001 -1.6452e+002 -1.3341e+000 60814 77497,77661,77315
 2.2000e+000 77759 -4.5400e+000 -1.0604e+002 -2.3623e+001 60814 77393,77661,77733
 2.2000e+000 77782 -1.9239e+001 -8.8589e+001 -9.0614e+000 60814 77393,77733,77445
 2.2000e+000 78337  2.1069e+001 -8.2257e+001  5.7363e+000 60210 78360,78017,77965
 2.2000e+000 78314  1.6219e+000 -8.2385e+001  1.7030e+001 60210 78360,77965,78173
 2.2000e+000 78291 -1.5703e+001 -9.7237e+001 -1.0296e+001 60210 78432,78043,78017
 2.2000e+000 78268  3.7299e+000 -1.0480e+002 -5.6817e+000 60210 77965,78017,77991
 2.2000e+000 78245 -8.4738e+000 -7.7114e+001  3.3412e+000 60210 78043,78095,78069
 2.2000e+000 78222 -5.0886e+001 -1.4262e+002  3.5699e+001 60210 78095,78173,78121
 2.2000e+000 78199 -1.6136e+001 -9.6529e+001 -8.5877e+000 60210 78121,78173,78147
 2.2000e+000 78386 -6.4103e+000 -9.0167e+001  1.2274e+000 60210 78432,78017,78360
 2.2000e+000 78409 -4.7237e+000 -7.4071e+001  1.3615e+001 60210 78095,78360,78173
 2.2000e+000 78458 -4.4844e+000 -8.1085e+001  2.5879e+000 60210 78095,78043,78432
 2.2000e+000 78481  2.2342e+000 -7.2613e+001  1.3763e+001 60210 78095,78432,78360
 2.2000e+000 78680 -2.5731e+001 -9.8887e+001 -8.2423e+000 59848 78703,78556,78530
 2.2000e+000 78657 -2.1160e+001 -1.0823e+002 -1.9401e+001 59848 78703,78530,78504
 2.2000e+000 78634 -2.6562e+001 -1.2833e+002 -1.4579e+001 59848 78504,78608,78582
 2.2000e+000 78729 -3.2522e+001 -1.1990e+002 -3.9422e+000 59848 78582,78556,78703
 2.2000e+000 78752 -2.3310e+001 -1.1964e+002 -1.8931e+001 59848 78582,78703,78504
 2.2000e+000 78951 -2.1527e+001 -7.2673e+001 -5.3797e+000 59344 78974,78801,78775
 2.2000e+000 78928 -3.3968e+001 -1.0423e+002 -1.1303e+001 59344 79046,78974,78775
 2.2000e+000 78905 -3.1306e+001 -1.2231e+002 -1.0763e+001 59344 79046,78775,78879
 2.2000e+000 79000 -8.7197e+000 -6.0117e+001  2.3535e+001 59344 78827,78801,78974
 2.2000e+000 79023 -2.9992e+001 -9.1704e+001  1.1307e+001 59344 78827,78974,78853
 2.2000e+000 79072 -3.5572e+001 -8.3687e+001 -4.1550e+000 59344 78853,78974,79046
 2.2000e+000 79095 -2.7359e+001 -9.5317e+001 -2.4972e+000 59344 78853,79046,78879
 2.2000e+000 79296  5.9643e+000 -1.5171e+002 -9.0426e+000 58711 79319,79172,79146
 2.2000e+000 79273  1.5405e+001 -1.3139e+002 -1.7953e+000 58711 79319,79146,79120
 2.2000e+000 79250 -5.3057e+000 -1.3705e+002  2.2115e+001 58711 79172,79224,79198
 2.2000e+000 79345 -4.8450e+000 -1.2855e+002 -9.1171e+000 58711 79224,79172,79319
 2.2000e+000 79368 -4.8574e-001 -1.1236e+002 -5.0966e+000 58711 79224,79319,79120
 2.2000e+000 79667  7.1973e+000 -8.0658e+001 -5.7036e+000 58285 79690,79471,79393
 2.2000e+000 79644  8.6693e+000 -9.7172e+001 -1.2373e+001 58285 79690,79393,79549
 2.2000e+000 79621  3.1574e+001 -1.1617e+002  1.9113e+001 58285 79393,79471,79419
 2.2000e+000 79598  1.2581e+001 -7.2856e+001  8.6476e-001 58285 79497,79549,79523
 2.2000e+000 79575 -3.0023e+001 -2.3477e+002  4.7262e+001 58285 79419,79471,79445
 2.2000e+000 79716  9.2642e+000 -6.5271e+001  3.3268e+000 58285 79497,79471,79690
 2.2000e+000 79739  9.6372e+000 -8.9196e+001 -8.9622e-001 58285 79497,79690,79549
 2.2000e+000 80249  1.3584e+001 -3.8746e+001 -7.8954e+000 57831 80272,79978,79952
 2.2000e+000 80226  2.4348e+000 -4.2149e+001 -9.1818e+000 57831 80272,79952,80108
 2.2000e+000 80203 -4.3715e-001 -7.6381e+001 -2.6129e+001 57831 79926,80108,79952
 2.2000e+000 80180 -1.1189e+001 -6.1183e+001 -9.9809e+000 57831 80004,80082,80030
 2.2000e+000 80157 -1.3455e+001 -4.6920e+001 -1.5945e+001 57831 80004,80108,80082
 2.2000e+000 80134 -6.5320e+000 -4.9537e+001 -1.0365e+001 57831 80030,80082,80056
 2.2000e+000 80298  1.2958e+001 -3.2484e+001 -2.2359e+001 57831 80004,79978,80272
 2.2000e+000 80321 -7.1090e+000 -3.8693e+001 -2.0119e+001 57831 80004,80272,80108
 2.2000e+000 80618 -3.6325e+001 -1.3574e+002  2.0974e+001 57077 80344,80448,80422
 2.2000e+000 80595 -1.1092e+001 -1.1880e+002  9.4050e+000 57077 80344,80500,80448
 2.2000e+000 80572 -7.5492e+000 -9.0221e+001 -4.0349e-001 57077 80344,80422,80370
 2.2000e+000 80549 -3.7326e+001 -9.0032e+001  7.8745e+000 57077 80370,80422,80396
 2.2000e+000 80526 -3.6127e+001 -1.8061e+002  2.2621e+001 57077 80448,80500,80474
 2.2000e+000 80768 -2.1609e-002 -5.0936e+001 -4.7735e-002 56787 80791,80693,80667
 2.2000e+000 80745 -9.7766e+000 -4.9431e+001  5.7084e+000 56787 80791,80667,80641
 2.2000e+000 80817  6.2437e+000 -4.9290e+001 -5.4988e+000 56787 80719,80693,80791
 2.2000e+000 80840 -1.1838e+001 -3.5184e+001 -5.8353e+000 56787 80719,80791,80641
 2.2000e+000 81429 -3.2462e+001 -5.9120e+001  6.5067e+000 56497 81452,81158,81132
 2.2000e+000 81406 -1.0350e+001 -4.4912e+001 -1.5271e+000 56497 81452,81132,81288
 2.2000e+000 81383 -2.1726e+001 -6.7567e+001  5.6799e+000 56497 81524,81184,81158
 2.2000e+000 81360 -1.5976e+001 -1.3771e+002  3.2203e+001 56497 81210,81288,81236
 2.2000e+000 81337 -1.0156e+000 -3.1478e+001  1.2142e+001 56497 81106,81288,81132
 2.2000e+000 81314 -9.1611e+000 -6.5653e+001  1.6876e+001 56497 81236,81288,81262
 2.2000e+000 81478 -1.5594e+001 -5.8761e+001 -5.6382e-001 56497 81524,81158,81452
 2.2000e+000 81501  1.1755e+001 -6.0553e+001  1.7704e+000 56497 81210,81452,81288
 2.2000e+000 81550 -2.3278e+001 -7.6841e+001  1.5513e+001 56497 81210,81184,81524
 2.2000e+000 81573 -1.6369e+001 -7.2209e+001  8.8799e+000 56497 81210,81524,81452
 2.2000e+000 81870 -2.5334e+001 -7.6331e+001  1.4760e+000 55979 81893,81674,81648
 2.2000e+000 81847 -2.4118e+001 -7.5756e+001  1.6793e+000 55979 81893,81648,81752
 2.2000e+000 81824 -2.0005e+001 -7.9463e+001  3.2192e+000 55979 81596,81752,81648
 2.2000e+000 81801 -3.2627e+001 -5.2385e+001 -8.1099e+000 55979 81674,81726,81700
 2.2000e+000 81778 -1.7615e+001 -7.2029e+001 -4.5247e+000 55979 81596,81648,81622
 2.2000e+000 81919 -2.6005e+001 -7.5962e+001  2.4743e+000 55979 81726,81674,81893
 2.2000e+000 81942 -2.4315e+001 -7.5132e+001  2.7563e+000 55979 81726,81893,81752
 2.2000e+000 82371 -3.9519e+001 -8.5374e+001 -9.6294e+000 55631 82100,82204,82152
 2.2000e+000 82348 -3.2890e+001 -9.3993e+001 -1.3281e+001 55631 82100,82230,82204
 2.2000e+000 82325 -4.2415e+001 -9.0602e+001 -5.8199e-001 55631 82100,82152,82126
 2.2000e+000 82302 -4.1161e+001 -1.3305e+002 -5.2377e+001 55631 82074,82230,82100
 2.2000e+000 82279 -4.6608e+001 -9.8006e+001 -3.5844e+000 55631 82152,82204,82178
 2.2000e+000 82256  2.3115e+001 -1.2210e+002 -2.5223e+001 55631 82048,82230,82074
 2.2000e+000 82521  3.9002e+001 -5.6988e+001 -4.8586e+000 55227 82544,82420,82394
 2.2000e+000 82498  3.4050e+001 -7.0735e+001 -1.8509e+000 55227 82544,82394,82472
 2.2000e+000 82570  2.9593e+001 -4.2635e+001 -5.0519e+000 55227 82446,82420,82544
 2.2000e+000 82593  2.2018e+001 -5.5937e+001  1.4436e+000 55227 82446,82544,82472
 2.2000e+000 82875  1.0967e+001 -4.5287e+000  5.9339e+000 54979 82699,82777,82725
 2.2000e+000 82852  3.5885e+000 -3.3017e+001  1.0756e+001 54979 82699,82803,82777
 2.2000e+000 82829 -2.2601e+000 -9.5702e+000  4.0850e+000 54979 82725,82777,82751
 2.2000e+000 83204 -5.0633e+000 -4.5868e+001 -3.6309e+000 54475 83005,83083,83057
 2.2000e+000 83181 -1.0250e+000 -3.9377e+001 -8.2953e+000 54475 82979,83083,83005
 2.2000e+000 83158  1.2097e+000 -4.8957e+001 -7.8740e+000 54475 83005,83057,83031
 2.2000e+000 83135 -1.5610e+001 -7.3857e+001  8.4966e-001 54475 82979,83109,83083
 2.2000e+000 83582 -1.9821e+001 -7.3468e+001 -2.6214e+000 54071 83605,83438,83412
 2.2000e+000 83559 -2.1727e+001 -7.6041e+001 -1.0923e+000 54071 83749,83605,83412
 2.2000e+000 83536 -1.7397e+001 -8.9375e+001  2.8998e+001 54071 83677,83360,83334
 2.2000e+000 83513 -1.1645e+001 -8.4283e+001 -3.7267e+000 54071 83749,83412,83677
 2.2000e+000 83490 -1.0829e+001 -7.2585e+001 -9.3483e+000 54071 83308,83464,83334
 2.2000e+000 83631 -2.7221e+001 -7.3572e+001 -9.5045e+000 54071 83464,83438,83605
 2.2000e+000 83654 -1.8988e+001 -6.3193e+001 -1.7945e+000 54071 83464,83605,83334
 2.2000e+000 83703  3.4794e+001 -7.2620e+001  3.0356e+001 54071 83386,83360,83677
 2.2000e+000 83726  1.5962e+001 -8.4129e+001 -1.3837e+000 54071 83386,83677,83412
 2.2000e+000 83775 -3.2541e+000 -6.6467e+001  3.2696e+000 54071 83334,83605,83749
 2.2000e+000 83798  8.5352e+000 -7.3802e+001  7.1140e-001 54071 83334,83749,83677
 2.2000e+000 84068 -1.0966e+001 -1.6101e+001 -9.4228e+000 53524 83869,83921,83895
 2.2000e+000 84045 -1.9641e+000 -5.5026e+001  6.5748e-001 53524 83869,83947,83921
 2.2000e+000 84022 -1.4909e+001 -6.8804e+001 -4.6746e+000 53524 83843,83947,83869
 2.2000e+000 83999  9.8849e+000 -6.2605e+001 -6.2166e+000 53524 83843,83973,83947
 2.2000e+000 84497 -3.6667e+001 -1.4808e+002 -4.6155e+000 53184 84200,84330,84252
 2.2000e+000 84474 -2.3766e+001 -1.0147e+002  8.6125e+000 53184 84200,84356,84330
 2.2000e+000 84451 -2.9620e-001 -1.3312e+002  1.2331e+001 53184 84200,84252,84226
 2.2000e+000 84428 -1.6690e+001 -1.1051e+002 -3.8334e+001 53184 84252,84330,84278
 2.2000e+000 84405 -1.6832e+001 -9.3457e+001 -2.5980e+000 53184 84174,84356,84200
 2.2000e+000 84382  4.7053e-001 -1.0926e+002 -9.3257e+000 53184 84278,84330,84304
 2.2000e+000 84954  1.1578e+001 -7.6711e+001  3.5566e+001 52680 84706,84836,84784
 2.2000e+000 84931 -1.7032e+001 -6.0957e+001 -4.8328e+001 52680 84680,84836,84706
 2.2000e+000 84908 -5.9578e+000 -2.3751e+002 -3.1246e+000 52680 84784,84836,84810
 2.2000e+000 84885 -6.7138e-001 -2.6506e+002  2.6575e+000 52680 84706,84784,84732
 2.2000e+000 84862  2.2938e+001 -2.1333e+002 -5.0267e+001 52680 84732,84784,84758
 2.2000e+000 85202  1.0893e+000 -1.2639e+002  3.1548e+000 52226 85029,85081,85055
 2.2000e+000 85179 -3.6720e+001 -1.2013e+002 -6.7921e-001 52226 85225,85081,85029
 2.2000e+000 85156 -3.0709e+001 -1.0575e+002  2.7623e+000 52226 85225,85029,85003
 2.2000e+000 85133 -3.8665e+001 -8.8134e+001 -1.9641e+001 52226 84977,85107,85003
 2.2000e+000 85251 -4.1179e+001 -1.2199e+002 -1.7589e+001 52226 85107,85081,85225
 2.2000e+000 85274 -3.1310e+001 -8.5768e+001 -1.7870e+001 52226 85107,85225,85003
 2.2000e+000 85522  2.9757e+001 -7.7852e+001 -1.0201e+001 51764 85297,85349,85323
 2.2000e+000 85499  2.2237e+001 -9.3162e+001  1.6425e+000 51764 85545,85297,85427
 2.2000e+000 85476  3.8586e+000 -6.8600e+001 -7.8506e+000 51764 85545,85427,85375
 2.2000e+000 85453  5.8871e+000 -6.3199e+001 -7.9513e+000 51764 85375,85427,85401
 2.2000e+000 85571  2.8206e+001 -7.8519e+001 -9.3897e+000 51764 85349,85297,85545
 2.2000e+000 85594  1.9601e+001 -4.4944e+001 -2.0828e+001 51764 85349,85545,85375
 2.2000e+000 85746 -4.1341e+001 -1.0398e+002  3.4764e+000 51374 85645,85697,85671
 2.2000e+000 85723 -4.5769e+001 -9.6472e+001 -4.6626e+000 51374 85619,85697,85645
 2.2000e+000 86256  6.8897e+000 -5.3393e+001  8.9101e+000 50970 86279,86011,85959
 2.2000e+000 86233  9.4969e+000 -4.2162e+001  5.9138e+000 50970 86279,85959,86115
 2.2000e+000 86210  5.1234e+000 -5.6601e+001  1.1857e+001 50970 85959,86011,85985
 2.2000e+000 86187  1.4981e+001 -5.9199e+001  1.0093e+001 50970 86037,86115,86089
 2.2000e+000 86164  7.1911e+001 -1.7250e+001 -1.0161e+001 50970 85933,86115,85959
 2.2000e+000 86141 -2.1795e+001 -7.1607e+001 -5.2830e+000 50970 86037,86089,86063
 2.2000e+000 86305  1.3191e+001 -6.7411e+001  8.7494e+000 50970 86037,86011,86279
 2.2000e+000 86328  1.6742e+001 -5.5079e+001  5.4886e+000 50970 86037,86279,86115
 2.2000e+000 86478 -3.1580e+001 -1.8668e+002  1.6115e+001 50451 86351,86403,86377
 2.2000e+000 86455 -9.3567e+001 -5.3853e+002 -3.5457e+000 50451 86351,86429,86403
 2.2000e+000 86907 -4.9642e+001 -1.1305e+002 -1.4700e+001 50047 86930,86714,86662
 2.2000e+000 86884 -3.2090e+001 -1.2183e+002 -1.2479e+001 50047 86930,86662,86610
 2.2000e+000 86861 -2.2237e+001 -1.5627e+002 -3.0223e+001 50047 87002,86740,86714
 2.2000e+000 86838 -3.8300e+000 -9.5471e+001  4.2326e+000 50047 86662,86714,86688
 2.2000e+000 86815 -3.0400e+001 -1.1673e+002 -1.1469e+001 50047 86610,86662,86636
 2.2000e+000 86792 -1.7043e+001 -1.0180e+002 -1.0414e+001 50047 86584,86766,86610
 2.2000e+000 86956 -4.0305e+001 -1.1836e+002 -1.4690e+001 50047 87002,86714,86930
 2.2000e+000 86979 -5.6899e+001 -1.1877e+002 -1.0304e+001 50047 86766,86930,86610
 2.2000e+000 87028 -6.0188e+001 -1.2829e+002 -3.9313e+001 50047 86766,86740,87002
 2.2000e+000 87051 -7.1042e+001 -1.2311e+002 -2.7301e+001 50047 86766,87002,86930
 2.2000e+000 87250 -1.4703e+001 -1.3255e+002 -2.4531e+001 49543 87273,87126,87100
 2.2000e+000 87227 -1.2926e+001 -1.1621e+002 -1.3097e+001 49543 87273,87100,87074
 2.2000e+000 87204 -2.9737e+001 -1.0649e+002 -2.9893e+001 49543 87126,87178,87152
 2.2000e+000 87299 -9.3722e+000 -1.0846e+002 -2.2027e+001 49543 87178,87126,87273
 2.2000e+000 87322 -1.2238e+001 -1.0433e+002 -8.4966e+000 49543 87178,87273,87074
 2.2000e+000 87570 -3.8929e+001 -8.6413e+001  1.1586e+001 49146 87593,87449,87397
 2.2000e+000 87547 -3.7172e+001 -8.4403e+001  7.2691e+000 49146 87593,87397,87371
 2.2000e+000 87524 -4.6728e+001 -6.1340e+001  1.2343e+001 49146 87345,87475,87371
 2.2000e+000 87501 -1.4487e+001 -8.7331e+001  1.3233e+001 49146 87397,87449,87423
 2.2000e+000 87619 -3.3493e+001 -8.3700e+001  1.0648e+001 49146 87475,87449,87593
 2.2000e+000 87642 -3.4538e+001 -8.3212e+001  6.7004e+000 49146 87475,87593,87371
 2.2000e+000 88073  2.5309e+001 -5.8123e+001 -1.6296e+001 48706 87854,87932,87880
 2.2000e+000 88050  4.7776e+000 -6.1279e+001  1.6985e+000 48706 87828,87932,87854
 2.2000e+000 88027  3.9926e+000 -6.6354e+001  1.7318e+000 48706 87750,87932,87828
 2.2000e+000 88004 -1.4723e+000 -9.7997e+001 -3.2098e+001 48706 87750,87802,87776
 2.2000e+000 87981  2.3479e+000 -1.2466e+002 -2.5396e+001 48706 87750,87828,87802
 2.2000e+000 87958 -1.0189e-001 -6.7861e+001 -1.6751e+001 48706 87880,87932,87906
 2.2000e+000 88402 -3.0495e+001 -1.1991e+002 -1.9062e+000 48145 88203,88281,88255
 2.2000e+000 88379 -3.9366e+001 -1.2274e+002  1.3789e+000 48145 88203,88307,88281
 2.2000e+000 88356 -1.8216e+001 -1.1493e+002 -5.6492e+000 48145 88203,88255,88229
 2.2000e+000 88333 -2.7511e+001 -1.2769e+002  1.8786e+001 48145 88177,88307,88203
 2.2000e+000 88601 -1.6007e+001 -1.1849e+002  2.4779e+001 47805 88696,88624,88477
 2.2000e+000 88578 -4.8718e+001 -1.2876e+002 -2.2598e+000 47805 88826,88624,88451
 2.2000e+000 88555 -4.2664e+001 -1.2539e+002 -4.0468e-001 47805 88826,88451,88425
 2.2000e+000 88650 -3.1815e+001 -1.5318e+002  1.4778e+001 47805 88503,88477,88624
 2.2000e+000 88673 -4.0819e+001 -1.4190e+002  4.5101e+000 47805 88503,88624,88529
 2.2000e+000 88722 -9.1079e+001 -1.5333e+002  7.9647e+000 47805 88451,88624,88696
 2.2000e+000 88852 -5.0398e+001 -1.2476e+002  5.4103e+000 47805 88529,88624,88826
 2.2000e+000 88875 -4.3945e+001 -1.2141e+002  7.2449e+000 47805 88529,88826,88425
 2.2000e+000 89172  2.1314e+001 -6.6340e+001 -2.0219e+001 47401 89195,88976,88898
 2.2000e+000 89149  1.9724e+001 -6.3642e+001 -4.2745e+001 47401 89195,88898,89054
 2.2000e+000 89126  1.3114e+001 -5.9711e+001 -2.1229e+001 47401 88898,88976,88950
 2.2000e+000 89103 -3.3733e+000 -9.1461e+001 -2.2584e+001 47401 88976,89028,89002
 2.2000e+000 89080  1.0658e+001 -5.7998e+001 -6.1131e+000 47401 88898,88950,88924
 2.2000e+000 89221  9.8189e+000 -9.1969e+001 -1.7944e+001 47401 89028,88976,89195
 2.2000e+000 89244  1.1950e+001 -8.2802e+001 -4.2303e+001 47401 89028,89195,89054
 2.2000e+000 89575  5.3672e+001 -1.3228e+002  4.9677e+000 47111 89350,89454,89376
 2.2000e+000 89552  1.6849e+001 -1.4362e+002  8.6742e+000 47111 89350,89480,89454
 2.2000e+000 89529 -1.4507e+000 -1.6355e+002 -7.6926e+000 47111 89376,89454,89402
 2.2000e+000 89506  2.6220e+001 -1.1106e+002  7.9233e+000 47111 89402,89454,89428
 2.2000e+000 89904  1.9708e+001 -7.3251e+001 -9.4415e+000 46707 89705,89757,89731
 2.2000e+000 89881 -1.5673e+001 -9.5653e+001  1.2196e-001 46707 89705,89783,89757
 2.2000e+000 89858 -3.4909e+001 -9.9783e+001  1.0699e+001 46707 89679,89783,89705
 2.2000e+000 89835 -7.1865e+000 -9.1815e+001 -3.5710e+000 46707 89679,89809,89783
 2.2000e+000 90233 -3.2988e+000 -8.4558e+001 -1.4436e+001 46360 90034,90112,90086
 2.2000e+000 90210 -2.5648e+001 -7.9979e+001 -4.5587e+000 46360 90034,90138,90112
 2.2000e+000 90187 -9.6805e+000 -8.7430e+001 -1.2767e+001 46360 90034,90086,90060
 2.2000e+000 90164 -2.3019e+001 -9.3375e+001  5.7615e+000 46360 90008,90138,90034
 2.2000e+000 90530 -4.3217e+000 -8.2626e+001 -1.3884e+001 45662 90256,90360,90308
 2.2000e+000 90507 -1.4218e+001 -1.0761e+002  6.6604e-001 45662 90256,90412,90360
 2.2000e+000 90484  1.0461e+000 -1.0668e+002 -1.9760e+001 45662 90256,90308,90282
 2.2000e+000 90461  1.7104e+000 -5.5235e+001  8.3090e+000 45662 90360,90412,90386
 2.2000e+000 90438 -4.0064e+001 -7.0489e+001 -4.9208e+000 45662 90308,90360,90334
 2.2000e+000 90910 -4.1912e+001 -8.2559e+001 -9.4684e+000 45108 90688,90766,90714
 2.2000e+000 90887 -2.1382e+001 -9.2026e+001  8.4217e+000 45108 90662,90766,90688
 2.2000e+000 90864 -4.7497e+001 -9.3044e+001  8.8349e+000 45108 90636,90766,90662
 2.2000e+000 90841 -1.2110e+001 -1.1372e+002 -3.2652e+001 45108 90714,90766,90740
 2.2000e+000 90818 -4.4732e+001 -1.0200e+002  1.3220e+001 45108 90636,90792,90766
 2.2000e+000 91158 -2.0802e+001 -9.0575e+001 -1.2185e+001 44604 91181,91011,90959
 2.2000e+000 91135 -3.4596e+001 -9.8459e+001 -1.5428e+001 44604 91181,90959,90933
 2.2000e+000 91112 -2.6047e+001 -9.6690e+001 -9.0775e+000 44604 90959,91011,90985
 2.2000e+000 91089 -1.7538e+000 -1.1228e+002 -1.3658e+001 44604 90933,91063,91037
 2.2000e+000 91207 -7.5430e+000 -1.0319e+002 -2.2320e+001 44604 91037,91011,91181
 2.2000e+000 91230 -2.5727e+001 -1.1700e+002 -2.8588e+001 44604 91037,91181,90933
 2.2000e+000 91429  6.9339e+000 -1.1514e+002 -8.5121e+000 44264 91452,91279,91253
 2.2000e+000 91406  1.0472e+001 -1.2243e+002 -9.8827e+000 44264 91452,91253,91357
 2.2000e+000 91383 -2.5106e+001 -1.0442e+002  1.8702e+001 44264 91279,91331,91305
 2.2000e+000 91478  9.3715e+000 -1.1381e+002 -7.5737e+000 44264 91331,91279,91452
 2.2000e+000 91501  1.7147e+001 -1.1692e+002 -7.3305e+000 44264 91331,91452,91357
 2.2000e+000 92060 -6.1069e+001 -1.4127e+002 -9.7272e-001 43860 92083,91740,91688
 2.2000e+000 92037 -1.2113e+001 -1.5103e+002  2.1325e+001 43860 92083,91688,91896
 2.2000e+000 92014 -4.1015e+001 -1.4317e+002  2.1406e+001 43860 91766,91870,91844
 2.2000e+000 91991 -3.6604e+001 -1.3152e+002  2.2939e+001 43860 91740,91870,91766
 2.2000e+000 91968 -2.6888e+000 -1.4523e+002  7.0473e+000 43860 91766,91844,91792
 2.2000e+000 91945 -3.0318e+001 -1.6729e+002 -4.2808e+001 43860 91688,91740,91714
 2.2000e+000 91922 -1.9994e+001 -1.5814e+002  1.1767e+000 43860 91792,91844,91818
 2.2000e+000 92109 -2.0136e+001 -1.3031e+002  2.0830e+001 43860 91870,91740,92083
 2.2000e+000 92132  3.2258e+001 -1.3084e+002  4.6581e+001 43860 91870,92083,91896
 2.2000e+000 92353  1.5051e+001 -1.0416e+002 -1.7463e+001 43662 92203,92255,92229
 2.2000e+000 92330 -1.2260e+001 -1.0984e+002 -4.8085e+000 43662 92376,92203,92281
 2.2000e+000 92307  1.4862e+001 -6.6596e+001  7.0701e+000 43662 92177,92281,92203
 2.2000e+000 92402 -4.7945e+001 -1.2501e+002  4.3542e-001 43662 92255,92203,92376
 2.2000e+000 92682  2.0761e+001 -1.4272e+002 -1.8884e+001 43464 92532,92584,92558
 2.2000e+000 92659  1.0570e+001 -1.1256e+002 -8.7767e+000 43464 92506,92584,92532
 2.2000e+000 92636 -2.7781e+000 -1.1293e+002 -1.4167e+001 43464 92506,92610,92584
 2.2000e+000 93013  1.7612e+001 -1.1231e+002 -2.5359e+001 42960 92866,92918,92892
 2.2000e+000 92990 -5.3131e+000 -1.1833e+002 -6.7745e+000 42960 93036,92918,92866
 2.2000e+000 92967  8.7268e+000 -1.2936e+002  2.8087e-001 42960 93036,92866,92840
 2.2000e+000 92944 -2.1600e+000 -1.1270e+002  9.0098e-001 42960 92788,92918,92814
 2.2000e+000 93062  2.3013e+000 -1.1659e+002 -5.2600e-001 42960 92814,92918,93036
 2.2000e+000 93085  3.0983e+001 -1.1568e+002  8.3397e+000 42960 92814,93036,92840
 2.2000e+000 93186 -3.7104e+001 -1.0698e+002 -1.1842e+001 42556 93108,93160,93134
 2.2000e+000 93554 -3.8158e+001 -1.5105e+002  1.8506e+000 42052 93231,93387,93361
 2.2000e+000 93531 -4.3531e+001 -1.4132e+002  2.2584e+001 42052 93231,93413,93387
 2.2000e+000 93508 -5.6983e+001 -1.4070e+002  4.3648e+000 42052 93231,93361,93257
 2.2000e+000 93485 -2.4107e+001 -1.0902e+002  1.4431e+001 42052 93283,93361,93335
 2.2000e+000 93462 -3.5569e+001 -1.2829e+002  9.6508e+000 42052 93257,93361,93283
 2.2000e+000 93439  1.0709e+001 -9.1315e+001  3.2746e-001 42052 93283,93335,93309
 2.2000e+000 94162  3.7953e+000 -8.7959e+001 -8.4649e+000 41498 93767,93975,93793
 2.2000e+000 94139 -5.9665e-001 -8.7584e+001  5.7121e+000 41498 93741,93975,93767
 2.2000e+000 94116 -1.2172e+001 -6.8319e+001 -4.2543e+000 41498 93793,93975,93923
 2.2000e+000 94093 -1.9232e+001 -8.4597e+001 -8.9242e+000 41498 93923,93975,93949
 2.2000e+000 94070 -2.4804e+001 -4.3349e+001 -2.3517e+001 41498 93871,93923,93897
 2.2000e+000 94047  1.9197e+001 -5.0492e+001 -1.1661e+001 41498 93793,93923,93871
 2.2000e+000 94024  1.6322e+001 -5.6629e+001 -1.0253e+000 41498 93819,93871,93845
 2.2000e+000 94001  1.7611e+000 -6.1497e+001 -1.9473e+000 41498 93793,93871,93819
 2.2000e+000 94619 -1.0789e+001 -8.2702e+001 -3.7556e+001 40930 94642,94423,94371
 2.2000e+000 94596  2.5506e+001 -7.1724e+001 -2.6795e+001 40930 94642,94371,94345
 2.2000e+000 94573  3.5201e+000 -7.3512e+001  9.9735e+000 40930 94345,94501,94475
 2.2000e+000 94550  1.0177e+001 -9.8193e+001 -4.3040e+001 40930 94371,94423,94397
 2.2000e+000 94527 -1.2316e+001 -5.9545e+001 -5.0511e-001 40930 94423,94475,94449
 2.2000e+000 94668  8.5726e+000 -6.7546e+001 -1.2837e+001 40930 94475,94423,94642
 2.2000e+000 94691  3.0801e+001 -7.2287e+001 -4.8277e+000 40930 94475,94642,94345
 2.2000e+000 95148 -3.4594e+001 -1.2178e+002  2.4376e+001 40362 95171,94952,94926
 2.2000e+000 95125 -3.4239e+001 -1.2200e+002  2.2848e+001 40362 95171,94926,95004
 2.2000e+000 95102 -5.3150e+001 -1.2527e+002  2.0104e+001 40362 94874,95004,94926
 2.2000e+000 95079 -9.0680e+000 -1.1569e+002  3.2277e+001 40362 94874,95030,95004
 2.2000e+000 95056 -5.2972e+001 -1.4157e+002  4.5585e+000 40362 94874,94926,94900
 2.2000e+000 95197 -3.4779e+001 -1.2332e+002  2.4446e+001 40362 94978,94952,95171
 2.2000e+000 95220 -3.4494e+001 -1.2350e+002  2.2969e+001 40362 94978,95171,95004
 2.2000e+000 95549 -1.8682e+001 -9.4582e+001  8.0125e+000 39586 95350,95402,95376
 2.2000e+000 95526  1.7048e+001 -6.7325e+001 -4.2049e+000 39586 95324,95402,95350
 2.2000e+000 95503 -9.4230e+000 -8.0605e+001  2.7962e+001 39586 95324,95454,95402
 2.2000e+000 95480 -9.5719e+000 -1.1548e+002  2.8559e+001 39586 95402,95454,95428
 2.2000e+000 96055 -1.9598e+001 -6.2955e+001 -2.6583e+000 38968 96078,95862,95810
 2.2000e+000 96032 -1.6285e+001 -5.6857e+001 -1.1350e+000 38968 96078,95810,95758
 2.2000e+000 96009 -1.9089e+001 -8.1491e+001 -1.3601e+001 38968 96150,95732,95888
 2.2000e+000 95986 -1.7754e+000 -4.8585e+001  7.5136e+000 38968 95810,95862,95836
 2.2000e+000 95963 -4.0956e+000 -7.3230e+001 -1.7255e+001 38968 95732,95914,95888
 2.2000e+000 95940 -3.7038e+001 -6.5754e+001  1.5833e+001 38968 95758,95810,95784
 2.2000e+000 96104 -4.6073e+000 -6.2054e+001 -3.2498e-001 38968 95888,95862,96078
 2.2000e+000 96127 -2.1269e+001 -7.6981e+001 -6.5937e+000 38968 96150,95888,96078
 2.2000e+000 96176 -2.0396e+001 -6.5382e+001 -1.0576e+001 38968 95758,95732,96150
 2.2000e+000 96199 -1.8836e+001 -5.6980e+001 -2.9730e+000 38968 95758,96150,96078
 2.2000e+000 96545 -1.0039e+001 -1.1042e+002 -1.3777e+001 38507 96640,96568,96352
 2.2000e+000 96522 -3.1807e+001 -1.4435e+002  7.3208e+000 38507 96568,96300,96222
 2.2000e+000 96499  3.0814e+000 -9.2015e+001 -4.2844e+001 38507 96640,96352,96326
 2.2000e+000 96476 -2.3959e+001 -1.3273e+002 -2.2066e+001 38507 96352,96404,96378
 2.2000e+000 96453 -4.0054e+001 -1.7128e+002  6.2385e+000 38507 96222,96300,96248
 2.2000e+000 96430 -4.6412e+001 -2.1568e+002 -1.9852e+000 38507 96248,96300,96274
 2.2000e+000 96594 -3.8171e+001 -1.3104e+002 -4.6596e+000 38507 96404,96352,96568
 2.2000e+000 96617 -2.1410e+001 -1.1928e+002  4.0423e+000 38507 96404,96568,96222
 2.2000e+000 96666 -2.9915e+001 -1.5315e+002  4.5789e-001 38507 96300,96568,96640
 2.2000e+000 96689 -2.6598e+001 -1.3984e+002 -2.5905e+001 38507 96300,96640,96326
 2.2000e+000 97069 -8.4918e+000 -5.4489e+001 -4.8646e+000 37760 97092,96873,96821
 2.2000e+000 97046 -1.6771e+001 -5.8624e+001  1.2857e+000 37760 97092,96821,96795
 2.2000e+000 97023 -2.5955e+001 -5.7763e+001 -1.7547e+000 37760 96821,96873,96847
 2.2000e+000 97000  3.7733e+000 -2.7063e+001 -1.6246e+001 37760 96873,96925,96899
 2.2000e+000 96977 -8.7161e+000 -3.6569e+001 -1.8584e+001 37760 96795,96951,96925
 2.2000e+000 97118  1.0584e-001 -4.3684e+001 -1.7673e+001 37760 96925,96873,97092
 2.2000e+000 97141 -2.4808e+001 -5.5238e+001 -1.0380e+001 37760 96925,97092,96795
 2.2000e+000 97647 -6.0411e+001 -1.2862e+002  7.6803e+000 37356 97324,97480,97376
 2.2000e+000 97624 -2.2874e+001 -1.3018e+002  3.5144e+001 37356 97324,97506,97480
 2.2000e+000 97601 -5.2568e+001 -9.8079e+001  1.5069e+001 37356 97376,97480,97454
 2.2000e+000 97578 -5.8654e+001 -1.3835e+002  3.4241e+000 37356 97324,97376,97350
 2.2000e+000 97555 -4.0937e+001 -9.4016e+001  1.3815e+001 37356 97376,97454,97402
 2.2000e+000 97532 -5.2413e+001 -1.0787e+002  8.8845e+000 37356 97402,97454,97428
 2.2000e+000 98232 -7.7219e+000 -4.8131e+001 -1.0698e+001 36902 97935,98065,98013
 2.2000e+000 98209  2.1039e+001 -4.2129e+001 -1.4087e+001 36902 97935,98091,98065
 2.2000e+000 98186 -3.0613e+000 -4.8585e+001 -9.6367e+000 36902 97935,98013,97987
 2.2000e+000 98163  7.1757e+000 -1.0144e+001 -1.8395e+001 36902 97909,98091,97935
 2.2000e+000 98140  3.3670e+000 -2.9854e+001 -1.0056e+001 36902 97935,97987,97961
 2.2000e+000 98117 -1.2804e+001 -7.2294e+001  7.8171e-001 36902 98013,98065,98039
 2.2000e+000 98659 -2.9921e+001 -1.5787e+002 -2.0146e+001 36604 98682,98414,98388
 2.2000e+000 98636 -1.8405e+001 -1.4652e+002  7.8065e+000 36604 98682,98388,98336
 2.2000e+000 98613 -2.9861e+001 -1.3078e+002  9.2661e+000 36604 98754,98518,98466
 2.2000e+000 98590 -3.2220e+001 -9.0173e+001 -1.5485e+001 36604 98414,98466,98440
 2.2000e+000 98567  1.3340e+001 -1.9333e+002  1.4647e+001 36604 98336,98388,98362
 2.2000e+000 98544 -2.2261e+000 -1.5755e+002  9.5996e+001 36604 98466,98518,98492
 2.2000e+000 98708 -1.3735e+001 -1.2053e+002 -1.8298e+001 36604 98466,98414,98682
 2.2000e+000 98731 -2.4168e+001 -1.3444e+002  7.9183e+000 36604 98754,98466,98682
 2.2000e+000 98780 -2.3960e+001 -1.3193e+002  9.9586e+000 36604 98336,98518,98754
 2.2000e+000 98803 -1.4990e+001 -1.3262e+002  1.0250e+001 36604 98336,98754,98682
 2.2000e+000 99309 -1.0312e+001 -7.4636e+001  1.8018e+001 36200 99332,99116,99012
 2.2000e+000 99286 -9.2354e+000 -2.9630e+001 -3.2565e+000 36200 99332,99012,98986
 2.2000e+000 99263 -2.1856e+000 -6.2816e+001  1.4095e+001 36200 99012,99116,99064
 2.2000e+000 99240 -1.6936e+000 -5.4269e+001 -3.2750e+000 36200 98986,99168,99142
 2.2000e+000 99217 -1.9863e+001 -7.0550e+001  1.7191e+001 36200 99064,99116,99090
 2.2000e+000 99194 -2.9235e+001 -7.0108e+001 -4.3797e+000 36200 99012,99064,99038
 2.2000e+000 99358 -1.5170e+001 -1.0527e+002  3.0455e+001 36200 99142,99116,99332
 2.2000e+000 99381 -1.8272e+001 -7.6360e+001  4.6819e+000 36200 99142,99332,98986
 2.2000e+000 99887 -3.6624e+001 -9.8836e+001  4.8437e+000 35488 99564,99720,99590
 2.2000e+000 99864 -3.0987e+001 -8.6183e+001  6.3734e+000 35488 99564,99746,99720
 2.2000e+000 99841 -3.4668e+000 -1.0406e+002  6.0623e-001 35488 99642,99694,99668
 2.2000e+000 99818 -2.3028e+001 -1.1757e+002  1.0099e+001 35488 99590,99694,99642
 2.2000e+000 99795 -5.7516e+000 -8.8541e+001  2.8327e+000 35488 99590,99720,99694
 2.2000e+000 99772  9.9016e+000 -1.6263e+002  1.4343e+001 35488 99590,99642,99616
 2.2000e+000 99988  9.3109e-001 -4.9727e+001  2.0069e+000 35198 99910,99962,99936
 2.2000e+000 100138  1.2329e+001 -9.3940e+001  1.3659e+001 34794 100233,100161,100063
 2.2000e+000 100115 -1.8089e+001 -1.2377e+002 -1.1089e+001 34794 100365,100161,100037
 2.2000e+000 100187  3.3977e+001 -1.0200e+002  1.1741e+001 34794 100089,100063,100161
 2.2000e+000 100210  3.4565e+001 -1.0649e+002  8.7688e+000 34794 100089,100161,100011
 2.2000e+000 100259 -1.5639e+001 -1.3745e+002 -2.1422e+001 34794 100037,100161,100233
 2.2000e+000 100391  6.1939e+001 -7.5201e+001 -3.1839e+001 34794 100011,100161,100365
 2.2000e+000 100927  2.3378e+001 -8.7398e+001 -2.2378e+000 34404 100679,100809,100783
 2.2000e+000 100904  2.8138e+001 -8.9708e+001 -2.4006e+000 34404 100653,100809,100679
 2.2000e+000 100881 -2.8822e+000 -1.0495e+002 -1.6679e+000 34404 100705,100783,100731
 2.2000e+000 100858  2.9167e+000 -9.7706e+001  1.8483e+000 34404 100679,100783,100705
 2.2000e+000 100835 -1.4778e+001 -1.0662e+002 -1.6445e+001 34404 100731,100783,100757
 2.2000e+000 101354 -3.2656e+001 -1.3489e+002  1.9358e+001 34000 101377,101109,101057
 2.2000e+000 101331 -6.9020e+001 -1.5290e+002  1.3482e+001 34000 101449,101377,101057
 2.2000e+000 101308 -8.0440e+001 -1.3945e+002  1.1838e+001 34000 101449,101057,101031
 2.2000e+000 101285 -6.2682e+001 -1.3233e+002  2.5275e+001 34000 101031,101213,101187
 2.2000e+000 101262 -4.7768e+001 -1.7759e+002 -1.9553e+001 34000 101135,101187,101161
 2.2000e+000 101239 -5.9736e+001 -1.7369e+002  3.3053e+001 34000 101057,101109,101083
 2.2000e+000 101403 -4.8547e+001 -1.4071e+002 -7.7560e-001 34000 101135,101109,101377
 2.2000e+000 101426 -6.5047e+001 -1.4684e+002 -4.2698e+000 34000 101135,101377,101187
 2.2000e+000 101475 -4.7201e+001 -1.3940e+002  5.6343e+000 34000 101187,101377,101449
 2.2000e+000 101498 -6.5074e+001 -1.3370e+002  7.8432e+000 34000 101187,101449,101031
 2.2000e+000 102083  7.4803e+000 -8.3279e+001  1.4341e+000 33472 102106,101812,101786
 2.2000e+000 102060 -2.2019e+001 -9.3447e+001 -8.6105e-001 33472 102106,101786,101916
 2.2000e+000 102037 -3.2386e+001 -1.0079e+002 -1.6506e+001 33472 101812,101864,101838
 2.2000e+000 102014 -1.4882e+001 -1.1858e+002 -1.2468e+001 33472 101864,101916,101890
 2.2000e+000 101991 -3.7966e+001 -1.0642e+002 -6.6945e+000 33472 101786,101942,101916
 2.2000e+000 101968 -4.9812e+001 -1.0736e+002  2.0351e+001 33472 101760,101942,101786
 2.2000e+000 102132 -1.1748e+001 -8.6644e+001 -9.9966e+000 33472 101864,101812,102106
 2.2000e+000 102155 -2.2662e+001 -8.8447e+001 -1.4139e+001 33472 101864,102106,101916
 2.2000e+000 102612 -3.3311e+001 -1.2232e+002 -4.6996e+001 33038 102635,102468,102390
 2.2000e+000 102589 -5.9253e+001 -1.6211e+002 -6.3272e+001 33038 102635,102390,102364
 2.2000e+000 102566 -1.3210e+001 -1.1158e+002 -4.1909e+001 33038 102390,102468,102442
 2.2000e+000 102543 -2.4591e+001 -1.3331e+002 -3.1448e+001 33038 102338,102494,102364
 2.2000e+000 102520 -1.6982e+001 -1.0503e+002 -2.6916e+001 33038 102390,102442,102416
 2.2000e+000 102661 -3.2041e+001 -1.1247e+002 -2.4398e+001 33038 102494,102468,102635
 2.2000e+000 102684 -3.8039e+001 -1.3510e+002 -3.6772e+001 33038 102494,102635,102364
 2.2000e+000 103318 -2.6517e+001 -7.5906e+001  1.9562e+000 32402 102972,103128,103076
 2.2000e+000 103295 -2.6833e+001 -7.5166e+001  2.1991e+000 32402 102946,103128,102972
 2.2000e+000 103272 -2.6864e+001 -7.8521e+001  5.2926e+000 32402 103076,103128,103102
 2.2000e+000 103249 -2.3440e+001 -7.1847e+001  2.5593e+001 32402 102946,103154,103128
 2.2000e+000 103226 -2.5610e+001 -6.7232e+001 -5.7102e+000 32402 102972,103076,102998
 2.2000e+000 103203 -9.3705e+000 -8.1343e+001 -1.8395e+001 32402 102998,103076,103050
 2.2000e+000 103180 -1.5548e+001 -2.2170e+001 -3.5978e+001 32402 102998,103050,103024
 2.2000e+000 103696 -5.0591e+001 -1.4768e+002 -5.9166e+000 31924 103448,103526,103500
 2.2000e+000 103673 -2.1177e+001 -1.3924e+002 -2.2548e+001 31924 103448,103578,103526
 2.2000e+000 103650 -3.8823e+001 -1.3576e+002 -1.0720e+001 31924 103448,103500,103474
 2.2000e+000 103627 -2.8443e+001 -1.5369e+002 -2.6167e+001 31924 103422,103578,103448
 2.2000e+000 103604 -4.2866e+001 -2.0695e+002 -4.0402e+000 31924 103526,103578,103552
 2.2000e+000 104281  5.2129e+000 -5.5017e+001 -2.4723e+000 31520 104304,104062,104036
 2.2000e+000 104258 -2.6278e+001 -5.2183e+001 -5.4889e+000 31520 104304,104036,103984
 2.2000e+000 104235 -1.4402e+001 -4.4631e+001 -4.1784e+001 31520 104062,104114,104088
 2.2000e+000 104212 -1.2477e+001 -5.3691e+001 -1.1855e+001 31520 103958,104114,103984
 2.2000e+000 104189 -3.1578e+001 -6.4643e+001 -7.9121e+000 31520 103984,104036,104010
 2.2000e+000 104166 -4.7572e+000 -6.1402e+001 -1.4484e+001 31520 103958,104140,104114
 2.2000e+000 104330  1.4750e+001 -5.7931e+001 -1.6029e+001 31520 104114,104062,104304
 2.2000e+000 104353 -3.4996e+000 -4.9491e+001 -1.3599e+001 31520 104114,104304,103984
 2.2000e+000 104704  2.1062e+000 -3.5581e+001 -3.6039e+000 31066 104479,104583,104505
 2.2000e+000 104681  2.4240e+001 -2.0733e+001 -1.0204e+001 31066 104479,104609,104583
 2.2000e+000 104658  6.3706e+000 -5.3490e+001 -3.0283e+000 31066 104505,104557,104531
 2.2000e+000 104635  9.4777e+000 -3.8888e+001 -5.9089e+000 31066 104505,104583,104557
 2.2000e+000 104925  1.7262e+001 -1.1635e+002  6.9554e+000 30754 104775,104827,104801
 2.2000e+000 104902  1.8007e+001 -9.3280e+001  6.6145e+000 30754 104775,104853,104827
 2.2000e+000 104879  4.1805e+001 -8.2726e+001  1.1997e+001 30754 104749,104853,104775
 2.2000e+000 105482 -3.9220e+001 -1.0537e+002  7.4568e+000 30164 105505,105136,105110
 2.2000e+000 105459 -2.6961e+001 -1.1909e+002  1.1940e+001 30164 105649,105505,105110
 2.2000e+000 105436 -2.6011e+001 -1.0378e+002  3.1108e+000 30164 105577,105188,105136
 2.2000e+000 105413 -3.4837e+001 -1.2370e+002  2.0045e+001 30164 105649,105110,105318
 2.2000e+000 105390 -4.0892e+001 -1.8188e+002  3.5696e+001 30164 105214,105292,105240
 2.2000e+000 105367  3.6360e+000 -1.6989e+002  3.4782e+001 30164 105240,105292,105266
 2.2000e+000 105344 -3.5676e+001 -9.0341e+001  2.2312e-001 30164 105136,105188,105162
 2.2000e+000 105531 -2.8289e+001 -1.0400e+002  8.5849e+000 30164 105577,105136,105505
 2.2000e+000 105554 -3.6284e+000 -1.0296e+002  1.0557e+001 30164 105214,105505,105292
 2.2000e+000 105603 -2.4099e+001 -9.6426e+001  1.0925e+000 30164 105214,105188,105577
 2.2000e+000 105626 -2.5107e+001 -9.5692e+001  6.2903e+000 30164 105214,105577,105505
 2.2000e+000 105675 -2.1931e+001 -1.0859e+002  6.8911e+000 30164 105292,105505,105649
 2.2000e+000 105698 -2.2816e+001 -1.0558e+002  1.3555e+001 30164 105292,105649,105318
 2.2000e+000 106027  2.5057e+001 -6.0070e+001  1.0297e+001 29868 106322,106050,105880
 2.2000e+000 106004 -6.9925e+000 -5.5810e+001 -5.0207e+000 29868 106250,106050,105828
 2.2000e+000 105981 -8.1419e+000 -5.7060e+001 -6.5501e+000 29868 106250,105828,105802
 2.2000e+000 105958  5.9706e+000 -4.4309e+001  2.7763e+001 29868 106322,105880,106122
 2.2000e+000 106076  2.8096e+000 -1.0114e+002 -2.3517e-001 29868 105906,105880,106050
 2.2000e+000 106099  8.7821e-001 -6.5933e+001 -7.4387e+000 29868 105906,106050,105932
 2.2000e+000 106148 -3.9921e+001 -8.7621e+001  1.7074e+001 29868 105854,105828,106122
 2.2000e+000 106276 -8.3305e+000 -5.7224e+001 -8.0418e+000 29868 105932,106050,106250
 2.2000e+000 106299 -1.2366e+001 -6.0299e+001 -9.9367e+000 29868 105932,106250,105802
 2.2000e+000 106348 -9.3789e+000 -7.5033e+001  4.5284e+000 29868 105828,106050,106322
 2.2000e+000 106371 -2.5028e+001 -5.7277e+001  2.2103e+001 29868 105828,106322,106122
 2.2000e+000 106828 -3.4398e+000 -5.5609e+001 -1.9591e+000 29521 106580,106710,106684
 2.2000e+000 106805 -2.0654e+001 -5.7458e+001 -1.9691e+001 29521 106554,106710,106580
 2.2000e+000 106782 -1.6534e+001 -5.7056e+001 -3.0576e+000 29521 106580,106684,106606
 2.2000e+000 106759 -3.2386e+001 -8.8876e+001 -8.7545e+000 29521 106606,106684,106658
 2.2000e+000 106736 -9.8345e+000 -5.5698e+001  4.8056e+000 29521 106606,106658,106632
 2.2000e+000 107027 -3.3080e+001 -1.1506e+002 -2.5212e+001 29117 106877,106929,106903
 2.2000e+000 107004 -1.9633e+001 -1.0931e+002 -2.5600e+001 29117 106851,106929,106877
 2.2000e+000 106981 -2.5907e+001 -1.3795e+002 -2.0229e+001 29117 106851,106955,106929
 2.2000e+000 107456 -4.3632e+001 -1.4843e+002 -2.3092e+001 28656 107237,107315,107263
 2.2000e+000 107433 -1.4334e+001 -1.0028e+002 -8.0290e+000 28656 107133,107315,107237
 2.2000e+000 107410 -8.4654e+000 -9.0456e+001 -1.0709e+001 28656 107133,107237,107159
 2.2000e+000 107387  1.5395e+000 -6.4062e+001 -1.8000e+001 28656 107159,107237,107185
 2.2000e+000 107364  1.5219e+000 -5.6851e+001  6.7627e+000 28656 107185,107237,107211
 2.2000e+000 107341 -2.0834e+000 -4.7644e+001 -2.7231e+001 28656 107263,107315,107289
 2.2000e+000 107704 -1.3103e+001 -1.1202e+002  3.6934e+000 27902 107727,107557,107531
 2.2000e+000 107681 -2.4910e+000 -9.4222e+001  8.0943e+000 27902 107727,107531,107505
 2.2000e+000 107658 -1.8572e+001 -9.9275e+001 -1.2737e+001 27902 107557,107609,107583
 2.2000e+000 107635 -4.0606e+001 -8.5912e+001  4.6730e+000 27902 107479,107609,107505
 2.2000e+000 107753 -2.5045e+001 -9.6120e+001 -4.6813e+000 27902 107609,107557,107727
 2.2000e+000 107776 -1.6422e+001 -8.1818e+001 -1.0740e+000 27902 107609,107727,107505
 2.2000e+000 108333 -3.3206e+001 -1.5457e+002 -3.2057e+000 27341 108356,108065,108013
 2.2000e+000 108310 -3.7159e+001 -1.5192e+002 -2.2365e+001 27341 108356,108013,108143
 2.2000e+000 108287 -1.1866e+001 -1.7554e+002 -2.1795e+001 27341 108428,108117,108091
 2.2000e+000 108264 -5.2907e+001 -1.5395e+002  2.3624e+000 27341 108013,108065,108039
 2.2000e+000 108241 -8.2632e+001 -1.4110e+002 -2.6851e+001 27341 107987,108143,108013
 2.2000e+000 108218 -3.3815e+001 -1.1982e+002 -3.4351e+001 27341 107987,108169,108143
 2.2000e+000 108195 -2.9691e+001 -1.1285e+002 -3.2132e+001 27341 107961,108169,107987
 2.2000e+000 108382 -4.0680e+001 -1.7416e+002 -5.9151e-001 27341 108091,108065,108356
 2.2000e+000 108405 -2.6925e+001 -1.5197e+002 -1.2051e+001 27341 108428,108091,108356
 2.2000e+000 108454 -3.9512e+001 -2.1411e+002 -3.4266e+001 27341 108143,108117,108428
 2.2000e+000 108477 -5.0490e+001 -1.8297e+002 -2.3420e+001 27341 108143,108428,108356
 2.2000e+000 108725  1.0890e+001 -1.2430e+002 -3.5532e+000 27029 108748,108526,108500
 2.2000e+000 108702  1.1107e+000 -9.9838e+001  2.2165e+000 27029 108748,108500,108630
 2.2000e+000 108679 -1.5546e+001 -1.1032e+002  5.0797e+000 27029 108578,108630,108604
 2.2000e+000 108656  1.9898e+001 -1.0590e+002  2.2851e+001 27029 108526,108578,108552
 2.2000e+000 108774  1.6920e+000 -1.3326e+002 -7.9577e+000 27029 108578,108526,108748
 2.2000e+000 108797 -1.4983e+001 -1.1689e+002 -5.3181e+000 27029 108578,108748,108630
 2.2000e+000 109045  6.5930e+000 -9.3211e+001 -2.8642e+000 26610 108872,108924,108898
 2.2000e+000 109022 -5.6941e+000 -1.0068e+002 -6.0905e+000 26610 108872,108950,108924
 2.2000e+000 108999 -8.6355e+000 -1.0319e+002 -9.1714e+000 26610 108846,108950,108872
 2.2000e+000 108976  2.6338e+000 -1.1437e+002 -8.6126e+000 26610 108820,108950,108846
 2.2000e+000 109366 -1.7898e+001 -1.7604e+002  6.6833e+000 26006 109144,109222,109196
 2.2000e+000 109343 -2.1473e+001 -1.7918e+002  5.3531e+000 26006 109118,109222,109144
 2.2000e+000 109320 -4.3150e+001 -1.9371e+002  1.3895e+001 26006 109092,109222,109118
 2.2000e+000 109297 -1.5253e+000 -1.6592e+002 -2.2693e+001 26006 109144,109196,109170
 2.2000e+000 109274 -5.8678e+000 -1.4218e+002 -2.8333e+000 26006 109092,109248,109222
 2.2000e+000 109567 -3.0190e+001 -1.0920e+002 -1.8032e+001 25659 109391,109469,109443
 2.2000e+000 109544 -2.5787e+001 -1.0954e+002 -1.2727e+001 25659 109391,109495,109469
 2.2000e+000 109521 -4.0708e+001 -1.1433e+002 -1.0257e+001 25659 109391,109443,109417
 2.2000e+000 109900 -3.5926e+001 -9.7706e+001 -8.1131e+000 25255 109923,109779,109753
 2.2000e+000 109877 -3.3564e+001 -9.3909e+001 -1.1095e+001 25255 109923,109753,109701
 2.2000e+000 109854 -2.7362e+001 -7.2734e+001 -1.1745e+001 25255 109675,109805,109701
 2.2000e+000 109831 -4.9835e+001 -8.8935e+001 -1.2419e+001 25255 109701,109753,109727
 2.2000e+000 109949 -3.1446e+001 -1.0210e+002 -1.2224e+001 25255 109805,109779,109923
 2.2000e+000 109972 -2.8692e+001 -9.5215e+001 -1.5590e+001 25255 109805,109923,109701
 2.2000e+000 110220 -4.2355e+001 -1.0771e+002  1.5363e+001 24701 110243,110021,109995
 2.2000e+000 110197 -4.2120e+001 -1.1327e+002  2.9026e+000 24701 110243,109995,110099
 2.2000e+000 110174 -3.3451e+001 -1.0537e+002  6.5724e+000 24701 110315,110073,110047
 2.2000e+000 110151 -3.7492e+001 -1.1602e+002  2.7870e+000 24701 109995,110125,110099
 2.2000e+000 110269 -2.8110e+001 -1.0197e+002  1.6330e+001 24701 110047,110021,110243
 2.2000e+000 110292 -4.7782e+001 -1.0567e+002  1.0691e+001 24701 110315,110047,110243
 2.2000e+000 110341  5.9242e+000 -9.6975e+001  7.2440e+000 24701 110099,110073,110315
 2.2000e+000 110364 -1.9729e+001 -1.0365e+002  8.7286e+000 24701 110099,110315,110243
 2.2000e+000 110661 -2.6570e+001 -1.3449e+002 -7.2440e+000 24197 110684,110413,110387
 2.2000e+000 110638 -1.8761e+001 -1.2502e+002 -1.6778e+001 24197 110684,110387,110543
 2.2000e+000 110615 -1.0202e+000 -1.9992e+002  1.2661e+001 24197 110756,110491,110465
 2.2000e+000 110592 -3.9344e+001 -1.2166e+002  1.0457e+001 24197 110413,110465,110439
 2.2000e+000 110569 -1.9134e+001 -2.8092e+002 -1.9329e+001 24197 110491,110543,110517
 2.2000e+000 110710 -1.1351e+001 -1.2356e+002  8.2221e+000 24197 110465,110413,110684
 2.2000e+000 110733 -3.2668e+001 -1.7151e+002  4.1677e+000 24197 110756,110465,110684
 2.2000e+000 110782  2.1383e+001 -1.6800e+002 -8.5526e+000 24197 110543,110491,110756
 2.2000e+000 110805  2.3174e+000 -1.2619e+002 -1.9336e+001 24197 110543,110756,110684
 2.2000e+000 111315 -4.0453e+001 -1.3875e+002 -1.1603e+001 23593 111044,111148,111070
 2.2000e+000 111292 -3.9659e+001 -1.2528e+002 -5.4812e+000 23593 111044,111174,111148
 2.2000e+000 111269 -1.6650e+001 -9.8625e+001  9.5785e+000 23593 111070,111122,111096
 2.2000e+000 111246 -4.9977e+001 -1.6146e+002 -1.2723e+001 23593 111070,111148,111122
 2.2000e+000 111223 -4.4923e+001 -1.1196e+002 -1.6068e+001 23593 111018,111174,111044
 2.2000e+000 111200 -1.9883e+001 -1.3115e+002 -1.3128e+001 23593 110992,111174,111018
 2.2000e+000 111821  2.7016e+001 -1.4040e+002 -6.5402e+000 23089 111916,111844,111628
 2.2000e+000 111798 -3.8918e+001 -1.6831e+002 -2.6860e+001 23089 111844,111550,111524
 2.2000e+000 111775  4.0664e+001 -1.3214e+002 -1.5155e+000 23089 111916,111628,111602
 2.2000e+000 111752 -1.5938e+000 -2.3636e+002 -1.1523e+001 23089 111498,111680,111524
 2.2000e+000 111729  2.8163e+000 -1.0427e+002  1.6890e+001 23089 111550,111602,111576
 2.2000e+000 111706  4.1108e+001 -9.4479e+001 -2.1381e+001 23089 111628,111680,111654
 2.2000e+000 111870 -7.2539e+000 -1.4266e+002  1.7947e-001 23089 111680,111628,111844
 2.2000e+000 111893 -8.3438e+000 -1.4476e+002  3.8900e+000 23089 111680,111844,111524
 2.2000e+000 111942 -7.5674e+000 -1.2073e+002 -9.8924e+000 23089 111550,111844,111916
 2.2000e+000 111965  1.0736e+001 -1.0954e+002 -4.3672e+000 23089 111550,111916,111602
 2.2000e+000 112164  7.3509e+001 -9.5070e+001 -3.5404e+001 22626 112187,112014,111988
 2.2000e+000 112141  9.3520e-001 -1.0568e+002 -1.4441e+001 22626 112259,112187,111988
 2.2000e+000 112118  3.9744e-001 -1.1372e+002 -1.6058e+000 22626 112259,111988,112092
 2.2000e+000 112213  6.4095e+000 -7.5379e+001 -4.4668e+001 22626 112040,112014,112187
 2.2000e+000 112236 -3.5893e+001 -8.2367e+001 -2.6657e+000 22626 112040,112187,112066
 2.2000e+000 112285  4.8250e+000 -8.5226e+001 -1.7484e+001 22626 112066,112187,112259
 2.2000e+000 112308  7.3750e+000 -9.0797e+001 -5.6262e+000 22626 112066,112259,112092
 2.2000e+000 112605  2.4278e+001 -1.1901e+002  9.6729e+000 22286 112628,112383,112357
 2.2000e+000 112582 -1.2734e+001 -1.2959e+002  5.2356e+000 22286 112772,112628,112357
 2.2000e+000 112559 -4.3327e+001 -1.3879e+002  6.7044e+000 22286 112700,112435,112409
 2.2000e+000 112536 -3.6946e+001 -1.3250e+002  9.8562e+000 22286 112772,112357,112331
 2.2000e+000 112513 -4.4128e+001 -1.1176e+002 -3.0786e-001 22286 112435,112487,112461
 2.2000e+000 112654  4.4832e+000 -9.8954e+001 -1.4052e+001 22286 112409,112383,112628
 2.2000e+000 112677 -3.0996e+001 -1.2153e+002 -3.0676e+000 22286 112700,112409,112628
 2.2000e+000 112726 -2.6724e+001 -1.2321e+002 -6.4813e+000 22286 112487,112435,112700
 2.2000e+000 112749 -2.2067e+001 -1.2106e+002 -1.4308e+001 22286 112487,112700,112628
 2.2000e+000 112798 -2.3497e+000 -1.2598e+002  8.8430e-001 22286 112487,112628,112772
 2.2000e+000 112821 -9.2689e+000 -1.1834e+002  4.3084e+000 22286 112487,112772,112331
 2.2000e+000 112924  1.7610e+000  3.6970e+001 -3.2473e+000 21974 112846,112898,112872
 2.2000e+000 113223 -6.8651e+001 -1.7380e+002  1.9486e+001 21420 112949,113053,112975
 2.2000e+000 113200 -6.2466e+001 -1.3660e+002  2.0472e+001 21420 112949,113079,113053
 2.2000e+000 113177 -1.9761e+001 -1.5483e+002  2.0950e+001 21420 112975,113053,113001
 2.2000e+000 113154 -8.0025e+001 -1.7771e+002  1.4731e+001 21420 113001,113053,113027
 2.2000e+000 113131 -8.0142e+001 -1.2513e+002  9.8550e+000 21420 112949,113105,113079
 2.2000e+000 113605 -1.6329e+001 -1.9997e+002  5.3659e+001 20716 113331,113435,113357
 2.2000e+000 113582 -2.3695e+001 -8.0317e+001  5.9166e+001 20716 113331,113461,113435
 2.2000e+000 113559 -4.3455e+000 -1.6927e+002 -6.8244e+000 20716 113383,113435,113409
 2.2000e+000 113536 -5.0052e+001 -1.7603e+002 -1.1182e+001 20716 113357,113435,113383
 2.2000e+000 113513 -3.2128e+000 -1.5422e+001  1.0918e+001 20716 113331,113487,113461
 2.2000e+000 113853 -1.7244e+001 -1.5340e+002  7.3270e+000 20290 113876,113680,113654
 2.2000e+000 113830 -4.5218e+000 -1.4927e+002  8.7355e+000 20290 113876,113654,113628
 2.2000e+000 113807 -2.8103e+001 -1.6287e+002 -4.8752e+000 20290 113948,113732,113680
 2.2000e+000 113784  5.5378e+001 -1.4233e+002 -1.3688e+001 20290 113680,113732,113706
 2.2000e+000 113902 -1.6269e+001 -1.4835e+002  7.4243e+000 20290 113948,113680,113876
 2.2000e+000 113925 -2.3268e+001 -1.3581e+002  8.2046e+000 20290 113758,113876,113628
 2.2000e+000 113974 -4.2474e+001 -1.4987e+002 -9.1106e+000 20290 113758,113732,113948
 2.2000e+000 113997 -4.1725e+001 -1.4960e+002  6.1462e-001 20290 113758,113948,113876
 2.2000e+000 114365 -2.3301e+001 -1.5159e+002  5.0243e-001 19900 114146,114198,114172
 2.2000e+000 114342 -2.4301e+001 -1.5194e+002  9.8046e-001 19900 114042,114198,114146
 2.2000e+000 114319 -2.5696e+001 -1.4683e+002  2.4990e+000 19900 114042,114224,114198
 2.2000e+000 114296 -6.4344e+001 -1.4437e+002 -3.0184e+000 19900 114094,114146,114120
 2.2000e+000 114273 -2.6854e+001 -1.4084e+002 -9.0031e+000 19900 114042,114146,114094
 2.2000e+000 114250 -4.3911e+001 -1.3781e+002  3.0736e+000 19900 114042,114094,114068
 2.2000e+000 114566 -4.2482e+001 -1.5145e+002  1.0720e+000 19496 114442,114494,114468
 2.2000e+000 114543 -6.8040e+001 -1.4774e+002 -1.1292e+001 19496 114416,114494,114442
 2.2000e+000 114520 -4.6162e+001 -1.3371e+002 -5.1662e+000 19496 114390,114494,114416
 2.2000e+000 114767 -2.5956e+000 -1.5146e+002  6.3958e+000 19042 114790,114669,114643
 2.2000e+000 114744 -8.6889e+000 -1.4474e+002  9.3385e+000 19042 114790,114643,114591
 2.2000e+000 114721  5.8758e+000 -1.5633e+002  3.3387e+001 19042 114591,114643,114617
 2.2000e+000 114816 -3.6919e+000 -1.4504e+002  3.8656e+000 19042 114695,114669,114790
 2.2000e+000 114839 -6.0845e+000 -1.3350e+002  7.2257e+000 19042 114695,114790,114591
 2.2000e+000 114991 -6.6229e+001 -1.7298e+002  7.5632e-001 18488 114864,114916,114890
 2.2000e+000 114968 -4.8118e+001 -1.7889e+002 -3.9799e+000 18488 114864,114942,114916
 2.2000e+000 115192  4.5933e+001 -1.1792e+002  5.6477e+000 18098 115215,115042,115016
 2.2000e+000 115169  2.1050e+001 -1.0038e+002 -5.9680e+000 18098 115215,115016,115120
 2.2000e+000 115146  3.9525e+001 -1.1561e+002 -2.1465e+001 18098 115287,115094,115068
 2.2000e+000 115241  2.9455e+001 -1.6673e+002 -2.3518e+000 18098 115068,115042,115215
 2.2000e+000 115264  3.7940e+001 -1.1300e+002 -8.4179e+000 18098 115287,115068,115215
 2.2000e+000 115313  2.0719e+001 -1.2193e+002 -1.9166e+001 18098 115120,115094,115287
 2.2000e+000 115336  1.3129e+001 -1.2179e+002 -6.7483e+000 18098 115120,115287,115215
 2.2000e+000 115846  2.3933e+001 -1.8130e+002 -4.2596e+001 17644 115653,115705,115679
 2.2000e+000 115823 -2.8808e+001 -1.6453e+002 -1.0779e+001 17644 115627,115705,115653
 2.2000e+000 115800 -7.4571e+000 -1.4539e+002  2.9512e+000 17644 115549,115705,115627
 2.2000e+000 115777 -1.5129e+001 -1.6853e+002  4.4872e+000 17644 115549,115627,115575
 2.2000e+000 115754  2.9010e+001 -9.4920e+001  5.3869e+001 17644 115523,115705,115549
 2.2000e+000 115731 -9.0233e+000 -1.4978e+002 -8.5717e+000 17644 115575,115627,115601
 2.2000e+000 116067  4.1819e+001 -2.2236e+002 -9.0559e+000 17116 115891,115943,115917
 2.2000e+000 116044 -6.2727e+001 -2.5618e+002  1.7054e+001 17116 115891,115995,115943
 2.2000e+000 116021 -8.7585e+001 -2.0236e+002 -5.9150e-001 17116 115943,115995,115969
 2.2000e+000 116288  4.9364e-001 -1.5624e+002  3.2575e+001 16704 116164,116216,116190
 2.2000e+000 116265 -2.7263e+001 -2.1747e+002  2.1320e+001 16704 116112,116216,116164
 2.2000e+000 116242 -2.4965e+001 -1.9273e+002 -4.0807e+000 16704 116112,116164,116138
 2.2000e+000 116489 -1.9286e+001 -1.6333e+002  5.3439e-001 16434 116339,116417,116365
 2.2000e+000 116466 -4.3196e+001 -1.7382e+002 -1.1661e+000 16434 116313,116417,116339
 2.2000e+000 116443 -1.0776e+002 -1.8262e+002  7.1705e+001 16434 116365,116417,116391
 2.2000e+000 116592 -2.4544e+001 -1.6389e+002 -7.5211e+000 15967 116514,116566,116540
 2.2000e+000 116695  5.4590e+001 -1.7877e+002 -3.6027e+001 15552 116617,116669,116643
 2.2000e+000 116798 -2.0822e+001 -1.4257e+002  0.0000e+000 421 116720,116772,116746
 2.3000e+000 69066  1.2606e+000 -2.3816e+002  1.0755e+000 68738 68965,69017,68991
 2.3000e+000 69043  2.8242e+001 -1.7734e+002  4.6564e+002 68738 68939,69017,68965
 2.3000e+000 69371 -5.3158e+000 -4.4113e+001 -1.6085e+001 68426 69172,69250,69198
 2.3000e+000 69348  1.4850e+000 -8.3905e+001  6.0066e+000 68426 69146,69250,69172
 2.3000e+000 69325 -1.6403e-001 -1.3131e+001  6.6187e+000 68426 69198,69250,69224
 2.3000e+000 69302 -1.9573e+001 -8.3149e+001  2.4507e+000 68426 69146,69276,69250
 2.3000e+000 69521 -5.0196e-001 -8.5871e+001 -8.1436e+000 68228 69420,69472,69446
 2.3000e+000 69498 -1.2478e+001 -6.1083e+001 -3.2971e+001 68228 69394,69472,69420
 2.3000e+000 69781 -3.7498e-001 -1.7221e+000 -3.3560e-001 68030 69631,69683,69657
 2.3000e+000 69758  2.1235e+000 -1.1980e+001 -4.5499e+000 68030 69631,69709,69683
 2.3000e+000 69735 -2.9256e+000 -2.0398e+000  8.6660e+000 68030 69605,69709,69631
 2.3000e+000 70078 -8.1019e+000 -2.8905e+001 -1.2846e+001 67832 69882,69934,69908
 2.3000e+000 70055  1.6112e+001 -1.9197e+001 -1.6168e+001 67832 69856,69934,69882
 2.3000e+000 70032  3.2772e+001 -4.7372e+000 -3.0408e+001 67832 69830,69934,69856
 2.3000e+000 70009  8.2905e+000 -6.1401e+001  5.2297e-001 67832 69804,69934,69830
 2.3000e+000 69986 -1.7378e+001 -1.5346e+001  2.3824e+001 67832 69804,69960,69934
 2.3000e+000 70586 -8.7598e+000 -3.8219e+001  8.4798e+000 67634 70609,70419,70341
 2.3000e+000 70563 -5.8870e+000 -5.4209e+001  1.4145e+001 67634 70681,70609,70341
 2.3000e+000 70540 -6.8387e+000 -5.5784e+001  1.8582e+001 67634 70681,70341,70315
 2.3000e+000 70517 -1.6408e+001 -4.3705e+001  1.6050e+001 67634 70341,70419,70367
 2.3000e+000 70494 -4.9396e+000 -4.7951e+000  4.5621e+000 67634 70263,70445,70289
 2.3000e+000 70471 -6.2223e+000 -7.7622e+000  6.7885e+000 67634 70367,70419,70393
 2.3000e+000 70635 -3.9796e+000 -6.3273e+000  7.3924e+000 67634 70445,70419,70609
 2.3000e+000 70658 -1.0262e+001 -4.0151e+001  1.1440e+001 67634 70445,70609,70289
 2.3000e+000 70707 -2.6766e+000 -4.3573e+001  8.2692e+000 67634 70289,70609,70681
 2.3000e+000 70730 -8.7699e+000 -4.8887e+001  1.3485e+001 67634 70289,70681,70315
 2.3000e+000 71108 -1.4342e+001 -6.2160e+001  2.4100e+001 67344 71131,70912,70886
 2.3000e+000 71085 -1.1121e+001 -5.4269e+001  2.3061e+001 67344 71131,70886,70860
 2.3000e+000 71062 -1.8073e+001 -6.4586e+001  1.9940e+001 67344 71203,70938,70912
 2.3000e+000 71039  9.1923e+000 -4.8873e+001  1.0913e+001 67344 70834,70990,70860
 2.3000e+000 71016 -1.5096e+001 -7.4667e+001  8.7340e+000 67344 70938,70990,70964
 2.3000e+000 71157 -1.8324e+001 -5.5783e+001  2.1595e+001 67344 71203,70912,71131
 2.3000e+000 71180 -5.9602e+000 -4.7473e+001  1.1087e+001 67344 70990,71131,70860
 2.3000e+000 71229 -1.5835e+001 -7.9812e+001  1.6468e+001 67344 70990,70938,71203
 2.3000e+000 71252 -1.5367e+001 -6.8530e+001  1.6056e+001 67344 70990,71203,71131
 2.3000e+000 71603  2.3193e+000 -4.0039e+001  5.8100e+000 67032 71378,71482,71404
 2.3000e+000 71580  3.4868e+000 -2.5069e+001  9.3336e+000 67032 71378,71508,71482
 2.3000e+000 71557  1.3304e+000 -2.3194e+001  1.5057e+001 67032 71404,71456,71430
 2.3000e+000 71534 -6.4304e-001 -4.6003e+001  7.1359e+000 67032 71404,71482,71456
 2.3000e+000 72003  1.0976e+001 -2.7229e+001  1.1336e+001 66834 71755,71859,71781
 2.3000e+000 71980  3.2431e+000 -6.6432e+001  4.6180e+000 66834 71755,71885,71859
 2.3000e+000 71957  6.6651e+000 -1.5410e+001  7.9335e+000 66834 71781,71833,71807
 2.3000e+000 71934 -5.3599e+000 -7.7657e+001 -8.7712e-001 66834 71781,71859,71833
 2.3000e+000 71911  1.4071e+001 -2.8469e+001  3.1220e+001 66834 71729,71885,71755
 2.3000e+000 72430  1.3825e+001 -6.0559e+001 -2.7816e+000 66266 72237,72289,72263
 2.3000e+000 72407  1.1352e+001 -6.8530e+001  6.3827e+000 66266 72133,72289,72237
 2.3000e+000 72384 -2.5590e+000 -5.4981e+001  4.3380e+000 66266 72133,72237,72211
 2.3000e+000 72361 -1.8618e+001 -7.9734e+001  4.1500e+000 66266 72107,72289,72133
 2.3000e+000 72338 -2.0681e+001 -1.0296e+002  3.1408e+001 66266 72133,72211,72185
 2.3000e+000 72315 -3.8264e+000 -1.1167e+002  3.2056e+001 66266 72133,72185,72159
 2.3000e+000 72580 -2.1626e+001 -1.2297e+002  1.4188e+001 65968 72479,72531,72505
 2.3000e+000 72557  5.6517e-001 -6.9920e+001  5.8786e+000 65968 72453,72531,72479
 2.3000e+000 72960  7.4609e+000 -3.0501e+001  1.0168e+001 65621 72983,72738,72712
 2.3000e+000 72937  2.6427e+001 -5.9862e+001  9.6539e+000 65621 72983,72712,72686
 2.3000e+000 72914 -4.4651e+000 -1.0336e+002  1.1488e+001 65621 72738,72842,72764
 2.3000e+000 72891  1.5422e+000 -9.4669e+001  1.3743e+000 65621 72764,72842,72816
 2.3000e+000 72868 -6.4353e+001 -2.5659e+002  4.3373e+001 65621 72764,72816,72790
 2.3000e+000 73009  1.1722e+001 -5.2937e+001  1.4818e+001 65621 72842,72738,72983
 2.3000e+000 73032  1.1290e+001 -1.0729e+002  1.7661e+001 65621 72842,72983,72686
 2.3000e+000 73361  2.1049e+000 -1.8957e+002 -1.0699e+001 65281 73456,73384,73188
 2.3000e+000 73338  2.2126e+001 -1.5524e+002  7.6125e+000 65281 73384,73162,73136
 2.3000e+000 73315 -3.5023e+001 -1.4894e+002 -3.0081e+001 65281 73188,73240,73214
 2.3000e+000 73292 -3.2017e+001 -5.7513e+001 -2.4461e+001 65281 73136,73266,73240
 2.3000e+000 73410 -4.8956e+001 -1.6217e+002 -1.9044e+001 65281 73240,73188,73384
 2.3000e+000 73433 -9.6273e+000 -5.9182e+001  8.5893e-001 65281 73240,73384,73136
 2.3000e+000 73482 -4.1372e+000 -2.2201e+002 -2.3006e+001 65281 73162,73384,73456
 2.3000e+000 73711 -1.5971e+001  2.2087e+001 -3.7664e+001 64820 73734,73610,73584
 2.3000e+000 73688 -1.6217e+001  2.2416e+001 -4.1154e+001 64820 73734,73584,73662
 2.3000e+000 73760 -9.6845e+000  2.6416e+001 -2.4608e+001 64820 73636,73610,73734
 2.3000e+000 73783 -2.3229e+000  2.6769e+001 -4.1602e+001 64820 73806,73734,73662
 2.3000e+000 73832 -2.5200e+001 -9.3083e+000 -2.7426e+001 64820 73636,73734,73806
 2.3000e+000 74112  8.3318e+000 -5.9595e+001 -6.3177e+000 64622 74278,74135,73988
 2.3000e+000 74089 -4.1350e-001 -7.7548e+001  5.2012e+000 64622 74135,73936,74040
 2.3000e+000 74066  8.6023e+000 -5.9142e+001 -1.9417e+001 64622 74278,73988,73962
 2.3000e+000 74161 -7.6117e+000 -7.2475e+001 -5.4112e-001 64622 74014,73988,74135
 2.3000e+000 74184  1.1497e-001 -7.2390e+001  2.2644e+000 64622 74207,74135,74040
 2.3000e+000 74233  5.3259e-001 -7.2841e+001 -1.3060e+000 64622 74014,74135,74207
 2.3000e+000 74304 -2.5450e+000 -8.5461e+001  8.4079e-001 64622 73936,74135,74278
 2.3000e+000 74327  3.9559e+000 -7.8739e+001 -1.3456e+001 64622 73936,74278,73962
 2.3000e+000 74526  1.2644e+001 -1.1328e+001  5.8467e+000 64424 74621,74549,74402
 2.3000e+000 74503 -1.0984e+001 -5.9411e+001  8.5090e+000 64424 74549,74350,74454
 2.3000e+000 74480  1.6170e+001  1.3369e+000 -1.4523e+001 64424 74621,74402,74376
 2.3000e+000 74575  3.8748e+001 -5.3978e+001  1.7193e+001 64424 74428,74402,74549
 2.3000e+000 74598  7.6171e+000 -8.3512e+001  1.6103e+001 64424 74693,74549,74454
 2.3000e+000 74647 -3.7943e+000 -4.4089e+001  1.5313e+001 64424 74350,74549,74621
 2.3000e+000 74670 -7.1532e-001 -3.6755e+001 -5.8275e+000 64424 74350,74621,74376
 2.3000e+000 74719  4.8732e+000 -1.0339e+002 -3.9784e-001 64424 74428,74549,74693
 2.3000e+000 75123 -3.9588e+001 -2.0757e+002  2.5879e+001 64126 74875,74953,74927
 2.3000e+000 75100 -1.9845e+001 -1.6475e+002  2.0967e+001 64126 74875,74979,74953
 2.3000e+000 75077 -7.0065e+000 -1.3491e+002  1.0168e+001 64126 74875,75005,74979
 2.3000e+000 75054 -2.2659e+001 -2.9416e+002  5.3879e+001 64126 74875,74927,74901
 2.3000e+000 75031 -2.4187e+001 -5.5433e+001  4.4062e+001 64126 74849,75005,74875
 2.3000e+000 75224  1.3329e+001 -1.1935e+002  1.8073e+001 63836 75146,75198,75172
 2.3000e+000 75472 -6.1846e+000 -8.6673e+001  2.2764e+001 63375 75273,75351,75325
 2.3000e+000 75449 -1.6863e+001 -8.3087e+001  1.2294e+001 63375 75273,75377,75351
 2.3000e+000 75426 -1.4538e+001 -8.7624e+001  8.2767e+000 63375 75247,75377,75273
 2.3000e+000 75403  1.0339e+000 -4.8604e+001  2.4774e+001 63375 75273,75325,75299
 2.3000e+000 75673  1.6651e+001 -8.4025e+001  1.3363e+001 63063 75523,75575,75549
 2.3000e+000 75650  1.4443e+001 -1.1043e+002  2.8143e-001 63063 75497,75575,75523
 2.3000e+000 75627  9.6294e+000 -1.1899e+002  1.4486e+001 63063 75497,75601,75575
 2.3000e+000 75874  1.3358e+001 -1.6016e+002 -7.1338e+000 62716 75897,75750,75724
 2.3000e+000 75851 -4.5980e+000 -1.3231e+002  8.4231e-002 62716 75897,75724,75698
 2.3000e+000 75828  4.3282e+000 -9.4049e+001 -3.3225e+001 62716 75698,75802,75776
 2.3000e+000 75923  4.0335e+001 -1.2740e+002 -2.1217e+001 62716 75776,75750,75897
 2.3000e+000 75946  3.0216e+000 -1.1774e+002 -4.3808e+000 62716 75776,75897,75698
 2.3000e+000 76328 -1.3779e+001 -1.3947e+002 -1.1124e+001 62198 76495,76351,76158
 2.3000e+000 76305 -3.4977e+001 -1.3967e+002  4.5329e-001 62198 76351,76080,76054
 2.3000e+000 76282 -4.8164e+000 -1.8395e+002 -1.7832e+001 62198 76423,76184,76158
 2.3000e+000 76259 -1.8989e+001 -1.3999e+002 -8.9627e+000 62198 76495,76158,76106
 2.3000e+000 76236 -4.0783e+001 -1.6480e+002  2.2741e+000 62198 76106,76158,76132
 2.3000e+000 76377 -1.8263e+001 -1.4934e+002 -2.0665e+001 62198 76423,76158,76351
 2.3000e+000 76400 -2.5327e+001 -1.0580e+002 -1.1472e+001 62198 76210,76351,76054
 2.3000e+000 76449  1.1408e+001 -1.4953e+002 -2.4024e+001 62198 76210,76184,76423
 2.3000e+000 76472 -2.5505e+000 -1.2137e+002 -2.9656e+001 62198 76210,76423,76351
 2.3000e+000 76521 -2.4542e+001 -1.3131e+002 -4.4346e+000 62198 76080,76351,76495
 2.3000e+000 76544 -3.8732e+001 -1.4328e+002  1.1843e+000 62198 76080,76495,76106
 2.3000e+000 76841 -1.4745e+000 -1.3358e+002  2.6376e+000 61751 76936,76864,76645
 2.3000e+000 76818  5.1042e+001 -1.0526e+002 -4.2069e+001 61751 76864,76567,76723
 2.3000e+000 76795  5.6886e+000 -1.0178e+002  1.6519e+000 61751 76936,76645,76593
 2.3000e+000 76772 -1.1934e+002 -2.6267e+002  5.4297e+001 61751 77008,76697,76671
 2.3000e+000 76749 -1.0508e+001 -7.4262e+001 -2.7619e+001 61751 76593,76645,76619
 2.3000e+000 76890 -1.0657e+001 -1.6140e+002  2.3712e+001 61751 76671,76645,76864
 2.3000e+000 76913 -2.6002e+001 -1.6047e+002  1.4556e+001 61751 77008,76671,76864
 2.3000e+000 76962  1.3934e+001 -1.7579e+002 -1.3325e+001 61751 76567,76864,76936
 2.3000e+000 76985  1.8913e+001 -1.4915e+002 -1.0798e+001 61751 76567,76936,76593
 2.3000e+000 77034  1.3941e+001 -1.8323e+002 -1.8002e+001 61751 76723,76697,77008
 2.3000e+000 77057  1.0664e+001 -2.0104e+002 -1.6947e+001 61751 76723,77008,76864
 2.3000e+000 77207  2.2213e+000 -7.3395e+001  2.7717e+001 61418 77106,77158,77132
 2.3000e+000 77184  1.9290e+001 -1.1166e+002  2.9114e+001 61418 77080,77158,77106
 2.3000e+000 77638 -2.5121e+001 -1.5023e+002 -2.0868e+001 60814 77733,77661,77471
 2.3000e+000 77615 -4.4152e+000 -1.4809e+002 -2.2628e+001 60814 77661,77393,77315
 2.3000e+000 77592 -4.1684e+001 -1.2413e+002 -8.6089e+000 60814 77733,77471,77445
 2.3000e+000 77569 -3.8877e+001 -2.1179e+002 -2.7441e+001 60814 77315,77367,77341
 2.3000e+000 77546 -3.6743e+001 -2.3161e+002 -1.2760e+001 60814 77315,77393,77367
 2.3000e+000 77523 -3.7066e+001 -1.0886e+002 -1.5120e+000 60814 77393,77445,77419
 2.3000e+000 77687 -7.3404e+000 -1.4299e+002 -1.5729e+001 60814 77497,77471,77661
 2.3000e+000 77710 -2.2307e+001 -1.7697e+002 -3.8852e+000 60814 77497,77661,77315
 2.3000e+000 77759 -6.7410e+000 -1.1466e+002 -2.9275e+001 60814 77393,77661,77733
 2.3000e+000 77782 -2.9611e+001 -9.7182e+001 -1.3322e+001 60814 77393,77733,77445
 2.3000e+000 78337  2.6093e+001 -8.6497e+001  2.5618e+000 60210 78360,78017,77965
 2.3000e+000 78314  4.5286e+000 -9.0521e+001  1.4676e+001 60210 78360,77965,78173
 2.3000e+000 78291 -1.4189e+001 -1.0129e+002 -1.3080e+001 60210 78432,78043,78017
 2.3000e+000 78268  9.0600e+000 -1.0750e+002 -9.2155e+000 60210 77965,78017,77991
 2.3000e+000 78245 -8.8516e+000 -7.7942e+001  2.6966e+000 60210 78043,78095,78069
 2.3000e+000 78222 -4.9743e+001 -1.4582e+002  3.7438e+001 60210 78095,78173,78121
 2.3000e+000 78199 -2.8639e+001 -1.0295e+002 -9.4166e+000 60210 78121,78173,78147
 2.3000e+000 78386 -3.6992e+000 -9.3768e+001 -1.8819e+000 60210 78432,78017,78360
 2.3000e+000 78409  3.1228e-002 -7.8063e+001  1.1993e+001 60210 78095,78360,78173
 2.3000e+000 78458 -2.7262e+000 -8.5548e+001  1.1074e+000 60210 78095,78043,78432
 2.3000e+000 78481  4.7328e+000 -7.6908e+001  1.1978e+001 60210 78095,78432,78360
 2.3000e+000 78680 -2.7461e+001 -1.1717e+002 -3.4407e+000 59848 78703,78556,78530
 2.3000e+000 78657 -2.9843e+001 -1.2424e+002 -9.9058e+000 59848 78703,78530,78504
 2.3000e+000 78634 -2.7756e+001 -1.3911e+002 -1.0642e+001 59848 78504,78608,78582
 2.3000e+000 78729 -2.0796e+001 -1.3056e+002 -4.0398e+000 59848 78582,78556,78703
 2.3000e+000 78752 -2.5304e+001 -1.3456e+002 -1.2866e+001 59848 78582,78703,78504
 2.3000e+000 78951 -2.1796e+001 -7.4548e+001 -5.3248e+000 59344 78974,78801,78775
 2.3000e+000 78928 -3.5099e+001 -1.0884e+002 -1.3012e+001 59344 79046,78974,78775
 2.3000e+000 78905 -3.1660e+001 -1.2834e+002 -1.2608e+001 59344 79046,78775,78879
 2.3000e+000 79000 -5.0111e+000 -5.9297e+001  2.7528e+001 59344 78827,78801,78974
 2.3000e+000 79023 -3.0252e+001 -9.6848e+001  1.3024e+001 59344 78827,78974,78853
 2.3000e+000 79072 -3.5830e+001 -8.6957e+001 -5.3469e+000 59344 78853,78974,79046
 2.3000e+000 79095 -2.6330e+001 -9.9463e+001 -3.6533e+000 59344 78853,79046,78879
 2.3000e+000 79296  9.2198e+000 -1.5698e+002 -9.6699e+000 58711 79319,79172,79146
 2.3000e+000 79273  1.9127e+001 -1.3524e+002 -1.9367e+000 58711 79319,79146,79120
 2.3000e+000 79250 -3.4338e+000 -1.4254e+002  2.3894e+001 58711 79172,79224,79198
 2.3000e+000 79345 -2.5517e+000 -1.3244e+002 -9.6588e+000 58711 79224,79172,79319
 2.3000e+000 79368  1.9362e+000 -1.1508e+002 -5.3870e+000 58711 79224,79319,79120
 2.3000e+000 79667  8.2388e+000 -8.5795e+001 -6.2147e+000 58285 79690,79471,79393
 2.3000e+000 79644  9.9128e+000 -1.0444e+002 -1.3772e+001 58285 79690,79393,79549
 2.3000e+000 79621  3.3989e+001 -1.2505e+002  2.0264e+001 58285 79393,79471,79419
 2.3000e+000 79598  1.3455e+001 -7.6903e+001  8.3601e-001 58285 79497,79549,79523
 2.3000e+000 79575 -3.0431e+001 -2.4657e+002  4.9582e+001 58285 79419,79471,79445
 2.3000e+000 79716  1.0612e+001 -6.8404e+001  3.9993e+000 58285 79497,79471,79690
 2.3000e+000 79739  1.1064e+001 -9.5413e+001 -7.9712e-001 58285 79497,79690,79549
 2.3000e+000 80249  1.5655e+001 -4.0675e+001 -5.3109e+000 57831 80272,79978,79952
 2.3000e+000 80226  2.7436e+000 -4.3316e+001 -8.7209e+000 57831 80272,79952,80108
 2.3000e+000 80203  1.4665e+000 -8.1463e+001 -2.7691e+001 57831 79926,80108,79952
 2.3000e+000 80180 -1.0585e+001 -6.4928e+001 -1.0225e+001 57831 80004,80082,80030
 2.3000e+000 80157 -1.3089e+001 -5.0049e+001 -1.6578e+001 57831 80004,80108,80082
 2.3000e+000 80134 -5.7905e+000 -5.3628e+001 -1.0980e+001 57831 80030,80082,80056
 2.3000e+000 80298  1.3036e+001 -3.9008e+001 -2.0059e+001 57831 80004,79978,80272
 2.3000e+000 80321 -7.3880e+000 -4.1388e+001 -1.9739e+001 57831 80004,80272,80108
 2.3000e+000 80618 -3.6397e+001 -1.4527e+002  2.0518e+001 57077 80344,80448,80422
 2.3000e+000 80595 -7.0404e+000 -1.2732e+002  9.9878e+000 57077 80344,80500,80448
 2.3000e+000 80572 -7.1280e+000 -9.5954e+001  1.1796e+000 57077 80344,80422,80370
 2.3000e+000 80549 -3.5975e+001 -8.9570e+001  8.4831e+000 57077 80370,80422,80396
 2.3000e+000 80526 -4.0965e+001 -2.0581e+002  2.7450e+001 57077 80448,80500,80474
 2.3000e+000 80768 -3.9281e-001 -5.1775e+001  1.0953e+000 56787 80791,80693,80667
 2.3000e+000 80745 -1.1040e+001 -5.0854e+001  6.5668e+000 56787 80791,80667,80641
 2.3000e+000 80817  7.0885e+000 -5.0438e+001 -5.6235e+000 56787 80719,80693,80791
 2.3000e+000 80840 -1.6175e+001 -3.9903e+001 -7.6690e+000 56787 80719,80791,80641
 2.3000e+000 81429 -2.6938e+001 -5.7235e+001  2.4183e+000 56497 81452,81158,81132
 2.3000e+000 81406 -1.0666e+001 -4.6507e+001 -3.5168e+000 56497 81452,81132,81288
 2.3000e+000 81383 -2.5612e+001 -6.8345e+001  1.0535e+000 56497 81524,81184,81158
 2.3000e+000 81360 -1.8487e+001 -1.4542e+002  3.0209e+001 56497 81210,81288,81236
 2.3000e+000 81337 -1.2950e+000 -3.4252e+001  8.4583e+000 56497 81106,81288,81132
 2.3000e+000 81314 -3.6480e+001 -5.4217e+001  1.6319e+001 56497 81236,81288,81262
 2.3000e+000 81478 -1.7354e+001 -5.9532e+001 -4.6104e+000 56497 81524,81158,81452
 2.3000e+000 81501  1.2993e+001 -6.0011e+001  5.3485e-001 56497 81210,81452,81288
 2.3000e+000 81550 -2.6573e+001 -7.7715e+001  1.3684e+001 56497 81210,81184,81524
 2.3000e+000 81573 -1.6243e+001 -7.1859e+001  7.8394e+000 56497 81210,81524,81452
 2.3000e+000 81870 -2.5802e+001 -7.6457e+001  1.9158e+000 55979 81893,81674,81648
 2.3000e+000 81847 -2.3728e+001 -7.5883e+001  1.0263e+000 55979 81893,81648,81752
 2.3000e+000 81824 -1.9249e+001 -8.3381e+001  2.6126e+000 55979 81596,81752,81648
 2.3000e+000 81801 -3.4187e+001 -4.6926e+001 -8.9403e+000 55979 81674,81726,81700
 2.3000e+000 81778 -1.4129e+001 -6.9709e+001 -4.5435e+000 55979 81596,81648,81622
 2.3000e+000 81919 -2.7133e+001 -7.6724e+001  3.4403e+000 55979 81726,81674,81893
 2.3000e+000 81942 -2.4521e+001 -7.6128e+001  2.6629e+000 55979 81726,81893,81752
 2.3000e+000 82371 -4.0845e+001 -7.7080e+001 -1.1682e+001 55631 82100,82204,82152
 2.3000e+000 82348 -2.2118e+001 -1.0518e+002 -2.3771e+001 55631 82100,82230,82204
 2.3000e+000 82325 -3.5832e+001 -8.3885e+001  7.9457e+000 55631 82100,82152,82126
 2.3000e+000 82302 -5.0609e+001 -1.7176e+002 -2.2754e+001 55631 82074,82230,82100
 2.3000e+000 82279 -5.2541e+001 -1.0238e+002 -8.0142e+000 55631 82152,82204,82178
 2.3000e+000 82256 -3.6651e+000 -9.1268e+001 -1.9572e+000 55631 82048,82230,82074
 2.3000e+000 82521  4.2912e+001 -5.8841e+001 -6.3388e+000 55227 82544,82420,82394
 2.3000e+000 82498  3.7152e+001 -7.5602e+001 -2.7576e+000 55227 82544,82394,82472
 2.3000e+000 82570  3.1736e+001 -4.1581e+001 -6.5254e+000 55227 82446,82420,82544
 2.3000e+000 82593  2.3074e+001 -5.7594e+001  1.3181e+000 55227 82446,82544,82472
 2.3000e+000 82875  1.3295e+001  1.1298e+000  6.1390e+000 54979 82699,82777,82725
 2.3000e+000 82852  5.9879e+000 -3.4300e+001  1.1529e+001 54979 82699,82803,82777
 2.3000e+000 82829 -2.2452e-001 -7.0134e+000  2.6994e+000 54979 82725,82777,82751
 2.3000e+000 83204 -1.6386e+000 -4.1820e+001 -2.9140e+000 54475 83005,83083,83057
 2.3000e+000 83181  5.2746e+000 -3.2496e+001 -9.3242e+000 54475 82979,83083,83005
 2.3000e+000 83158  6.4974e+000 -3.9723e+001 -7.6717e+000 54475 83005,83057,83031
 2.3000e+000 83135 -1.2160e+001 -7.3549e+001 -6.2313e-001 54475 82979,83109,83083
 2.3000e+000 83582 -1.4575e+001 -7.0478e+001 -4.5784e+000 54071 83605,83438,83412
 2.3000e+000 83559 -1.7557e+001 -7.3287e+001 -1.3771e+000 54071 83749,83605,83412
 2.3000e+000 83536 -1.5212e+001 -9.0407e+001  3.2404e+001 54071 83677,83360,83334
 2.3000e+000 83513 -6.9079e+000 -8.1761e+001 -4.1525e+000 54071 83749,83412,83677
 2.3000e+000 83490 -1.2269e+001 -7.1809e+001 -9.8563e+000 54071 83308,83464,83334
 2.3000e+000 83631 -2.4939e+001 -7.1606e+001 -1.1999e+001 54071 83464,83438,83605
 2.3000e+000 83654 -1.5439e+001 -6.0895e+001 -2.0767e+000 54071 83464,83605,83334
 2.3000e+000 83703  4.1819e+001 -6.9866e+001  3.1521e+001 54071 83386,83360,83677
 2.3000e+000 83726  2.2992e+001 -7.7731e+001 -3.7687e+000 54071 83386,83677,83412
 2.3000e+000 83775  2.4044e+000 -6.3690e+001  3.0517e+000 54071 83334,83605,83749
 2.3000e+000 83798  1.4913e+001 -7.1132e+001  3.2313e-001 54071 83334,83749,83677
 2.3000e+000 84068 -1.0615e+001 -1.6253e+001 -9.2140e+000 53524 83869,83921,83895
 2.3000e+000 84045 -9.6158e-001 -5.5354e+001  8.3691e-001 53524 83869,83947,83921
 2.3000e+000 84022 -1.4725e+001 -7.1288e+001 -5.0653e+000 53524 83843,83947,83869
 2.3000e+000 83999  1.1906e+001 -6.5274e+001 -6.3719e+000 53524 83843,83973,83947
 2.3000e+000 84497 -3.8952e+001 -1.5580e+002 -3.1735e+000 53184 84200,84330,84252
 2.3000e+000 84474 -2.5402e+001 -1.0669e+002  1.0782e+001 53184 84200,84356,84330
 2.3000e+000 84451  1.2660e+000 -1.3969e+002  1.5602e+001 53184 84200,84252,84226
 2.3000e+000 84428 -1.6236e+001 -1.1069e+002 -4.4176e+001 53184 84252,84330,84278
 2.3000e+000 84405 -1.9116e+001 -9.7985e+001 -2.5315e+000 53184 84174,84356,84200
 2.3000e+000 84382 -5.6862e-001 -1.1130e+002 -9.1906e+000 53184 84278,84330,84304
 2.3000e+000 84954  1.4219e+001 -8.0065e+001  3.9516e+001 52680 84706,84836,84784
 2.3000e+000 84931 -1.3071e+001 -6.1249e+001 -5.2811e+001 52680 84680,84836,84706
 2.3000e+000 84908 -5.8500e+000 -2.5640e+002 -2.8870e+000 52680 84784,84836,84810
 2.3000e+000 84885  5.1203e+000 -2.8459e+002  9.7965e-001 52680 84706,84784,84732
 2.3000e+000 84862  3.1707e+001 -2.2728e+002 -5.7999e+001 52680 84732,84784,84758
 2.3000e+000 85202  1.4968e+000 -1.3123e+002  4.7875e+000 52226 85029,85081,85055
 2.3000e+000 85179 -3.5220e+001 -1.2340e+002  1.5366e+000 52226 85225,85081,85029
 2.3000e+000 85156 -2.7496e+001 -1.0471e+002  8.4330e+000 52226 85225,85029,85003
 2.3000e+000 85133 -4.2494e+001 -9.5588e+001 -2.1282e+001 52226 84977,85107,85003
 2.3000e+000 85251 -4.2056e+001 -1.2622e+002 -1.9478e+001 52226 85107,85081,85225
 2.3000e+000 85274 -3.4139e+001 -8.2203e+001 -1.6744e+001 52226 85107,85225,85003
 2.3000e+000 85522  3.2391e+001 -8.0261e+001 -1.1884e+001 51764 85297,85349,85323
 2.3000e+000 85499  2.3822e+001 -9.5535e+001  1.8789e+000 51764 85545,85297,85427
 2.3000e+000 85476  4.4441e+000 -6.8745e+001 -8.1508e+000 51764 85545,85427,85375
 2.3000e+000 85453  5.9956e+000 -6.3393e+001 -7.7071e+000 51764 85375,85427,85401
 2.3000e+000 85571  2.9669e+001 -7.9558e+001 -1.0320e+001 51764 85349,85297,85545
 2.3000e+000 85594  2.0831e+001 -4.2952e+001 -2.2400e+001 51764 85349,85545,85375
 2.3000e+000 85746 -4.1371e+001 -1.0262e+002  4.1314e+000 51374 85645,85697,85671
 2.3000e+000 85723 -4.6797e+001 -9.6117e+001 -4.7428e+000 51374 85619,85697,85645
 2.3000e+000 86256 -1.2069e+001 -4.7951e+001  1.0307e+001 50970 86279,86011,85959
 2.3000e+000 86233 -1.1904e+000 -2.8098e+001  3.9063e+000 50970 86279,85959,86115
 2.3000e+000 86210 -1.9086e+001 -6.4488e+001  1.0019e+001 50970 85959,86011,85985
 2.3000e+000 86187  1.5913e+001 -5.8587e+001  1.2070e+001 50970 86037,86115,86089
 2.3000e+000 86164  2.0852e+001 -1.6820e+001  1.9653e+001 50970 85933,86115,85959
 2.3000e+000 86141 -2.6698e+001 -7.7828e+001 -5.8190e+000 50970 86037,86089,86063
 2.3000e+000 86305  5.3963e+000 -7.5257e+001  1.1429e+001 50970 86037,86011,86279
 2.3000e+000 86328  1.8212e+001 -5.3192e+001  4.3638e+000 50970 86037,86279,86115
 2.3000e+000 86478 -3.4103e+001 -1.9497e+002  1.6831e+001 50451 86351,86403,86377
 2.3000e+000 86455 -1.0601e+002 -5.8687e+002 -2.8056e+000 50451 86351,86429,86403
 2.3000e+000 86907 -5.4405e+001 -1.2066e+002 -1.7406e+001 50047 86930,86714,86662
 2.3000e+000 86884 -3.3980e+001 -1.3040e+002 -1.4716e+001 50047 86930,86662,86610
 2.3000e+000 86861 -1.8335e+001 -1.6240e+002 -3.7135e+001 50047 87002,86740,86714
 2.3000e+000 86838 -3.3019e+000 -1.0054e+002 -8.8505e-001 50047 86662,86714,86688
 2.3000e+000 86815 -3.3044e+001 -1.2578e+002 -1.2340e+001 50047 86610,86662,86636
 2.3000e+000 86792 -1.9225e+001 -1.1124e+002 -1.1408e+001 50047 86584,86766,86610
 2.3000e+000 86956 -4.2484e+001 -1.2495e+002 -1.8021e+001 50047 87002,86714,86930
 2.3000e+000 86979 -6.3075e+001 -1.2990e+002 -1.1304e+001 50047 86766,86930,86610
 2.3000e+000 87028 -6.4691e+001 -1.3717e+002 -4.4915e+001 50047 86766,86740,87002
 2.3000e+000 87051 -7.7877e+001 -1.3160e+002 -3.0595e+001 50047 86766,87002,86930
 2.3000e+000 87250 -1.6010e+001 -1.4215e+002 -2.6792e+001 49543 87273,87126,87100
 2.3000e+000 87227 -1.6228e+001 -1.2302e+002 -1.3017e+001 49543 87273,87100,87074
 2.3000e+000 87204 -3.0480e+001 -1.1369e+002 -3.5283e+001 49543 87126,87178,87152
 2.3000e+000 87299 -7.2711e+000 -1.1372e+002 -2.6226e+001 49543 87178,87126,87273
 2.3000e+000 87322 -1.4086e+001 -1.1002e+002 -9.7414e+000 49543 87178,87273,87074
 2.3000e+000 87570 -3.7437e+001 -8.8020e+001  1.3709e+001 49146 87593,87449,87397
 2.3000e+000 87547 -3.6196e+001 -8.5861e+001  1.2139e+001 49146 87593,87397,87371
 2.3000e+000 87524 -4.1525e+001 -5.8463e+001  1.8850e+001 49146 87345,87475,87371
 2.3000e+000 87501 -1.6210e+001 -8.7299e+001  1.5636e+001 49146 87397,87449,87423
 2.3000e+000 87619 -3.5458e+001 -8.6397e+001  1.2384e+001 49146 87475,87449,87593
 2.3000e+000 87642 -3.5498e+001 -8.5428e+001  1.0986e+001 49146 87475,87593,87371
 2.3000e+000 88073  3.0292e+001 -5.8002e+001 -1.8571e+001 48706 87854,87932,87880
 2.3000e+000 88050  5.7427e+000 -6.2623e+001  2.7136e+000 48706 87828,87932,87854
 2.3000e+000 88027  6.7966e+000 -6.5773e+001  3.6234e+000 48706 87750,87932,87828
 2.3000e+000 88004  1.2292e+000 -9.4622e+001 -3.6741e+001 48706 87750,87802,87776
 2.3000e+000 87981  7.5310e+000 -1.2586e+002 -2.7634e+001 48706 87750,87828,87802
 2.3000e+000 87958  2.1848e-001 -6.9855e+001 -1.8557e+001 48706 87880,87932,87906
 2.3000e+000 88402 -2.4584e+001 -1.3617e+002 -7.7919e+000 48145 88203,88281,88255
 2.3000e+000 88379 -4.0564e+001 -1.3991e+002  3.2227e+000 48145 88203,88307,88281
 2.3000e+000 88356 -2.6720e+001 -1.0713e+002 -1.1929e+001 48145 88203,88255,88229
 2.3000e+000 88333 -2.6227e+001 -1.3795e+002  2.0540e+001 48145 88177,88307,88203
 2.3000e+000 88601 -3.8922e-001 -1.2159e+002  3.0541e+001 47805 88696,88624,88477
 2.3000e+000 88578 -4.9453e+001 -1.3296e+002  2.4465e+000 47805 88826,88624,88451
 2.3000e+000 88555 -5.1299e+001 -1.2997e+002  9.8560e+000 47805 88826,88451,88425
 2.3000e+000 88650 -1.7732e+001 -1.5820e+002  1.2874e+001 47805 88503,88477,88624
 2.3000e+000 88673 -2.6769e+001 -1.4583e+002  1.7364e+000 47805 88503,88624,88529
 2.3000e+000 88722 -9.0206e+001 -1.5718e+002  1.2604e+001 47805 88451,88624,88696
 2.3000e+000 88852 -4.5010e+001 -1.2294e+002  1.6656e+000 47805 88529,88624,88826
 2.3000e+000 88875 -4.7394e+001 -1.2113e+002  9.2119e+000 47805 88529,88826,88425
 2.3000e+000 89172  2.4894e+001 -6.4198e+001 -2.0444e+001 47401 89195,88976,88898
 2.3000e+000 89149  2.2917e+001 -6.1356e+001 -4.4947e+001 47401 89195,88898,89054
 2.3000e+000 89126  2.0136e+001 -5.5876e+001 -2.2340e+001 47401 88898,88976,88950
 2.3000e+000 89103 -4.4231e+000 -9.2424e+001 -2.4220e+001 47401 88976,89028,89002
 2.3000e+000 89080  1.7085e+001 -5.3464e+001 -2.9168e+000 47401 88898,88950,88924
 2.3000e+000 89221  1.2535e+001 -9.1957e+001 -1.8185e+001 47401 89028,88976,89195
 2.3000e+000 89244  1.4399e+001 -8.2166e+001 -4.4668e+001 47401 89028,89195,89054
 2.3000e+000 89575 -2.8020e+000 -1.6176e+002  1.7108e+001 47111 89350,89454,89376
 2.3000e+000 89552  1.7655e+001 -1.4689e+002  1.0558e+001 47111 89350,89480,89454
 2.3000e+000 89529  2.0528e+001 -1.8008e+002 -6.3572e+000 47111 89376,89454,89402
 2.3000e+000 89506  6.0373e+001 -9.4665e+001  5.2788e+000 47111 89402,89454,89428
 2.3000e+000 89904  2.2622e+001 -7.3659e+001 -9.9682e+000 46707 89705,89757,89731
 2.3000e+000 89881 -1.5731e+001 -9.8461e+001  7.1106e-001 46707 89705,89783,89757
 2.3000e+000 89858 -3.6405e+001 -1.0334e+002  1.0877e+001 46707 89679,89783,89705
 2.3000e+000 89835 -6.7653e+000 -9.7002e+001 -4.5223e+000 46707 89679,89809,89783
 2.3000e+000 90233 -2.0326e+000 -8.5299e+001 -1.5499e+001 46360 90034,90112,90086
 2.3000e+000 90210 -2.4028e+001 -8.0985e+001 -5.9581e+000 46360 90034,90138,90112
 2.3000e+000 90187 -9.3254e+000 -8.6802e+001 -1.4047e+001 46360 90034,90086,90060
 2.3000e+000 90164 -2.1217e+001 -9.5430e+001  5.1486e+000 46360 90008,90138,90034
 2.3000e+000 90530 -6.3185e+000 -8.4263e+001 -1.4040e+001 45662 90256,90360,90308
 2.3000e+000 90507 -1.6713e+001 -1.0977e+002  7.7613e-001 45662 90256,90412,90360
 2.3000e+000 90484 -5.6425e-001 -1.0857e+002 -2.0176e+001 45662 90256,90308,90282
 2.3000e+000 90461 -5.0919e-001 -5.7646e+001  7.7982e+000 45662 90360,90412,90386
 2.3000e+000 90438 -4.3932e+001 -7.2554e+001 -5.1769e+000 45662 90308,90360,90334
 2.3000e+000 90910 -4.1651e+001 -8.3283e+001 -9.1660e+000 45108 90688,90766,90714
 2.3000e+000 90887 -2.0183e+001 -9.4846e+001  9.8976e+000 45108 90662,90766,90688
 2.3000e+000 90864 -4.8210e+001 -9.5198e+001  1.0700e+001 45108 90636,90766,90662
 2.3000e+000 90841 -7.9898e+000 -1.1280e+002 -3.4567e+001 45108 90714,90766,90740
 2.3000e+000 90818 -4.6087e+001 -1.0740e+002  1.6637e+001 45108 90636,90792,90766
 2.3000e+000 91158 -2.4692e+001 -8.6509e+001 -1.4733e+001 44604 91181,91011,90959
 2.3000e+000 91135 -3.3750e+001 -9.8048e+001 -2.2856e+001 44604 91181,90959,90933
 2.3000e+000 91112 -2.7877e+001 -1.0170e+002 -5.8712e+000 44604 90959,91011,90985
 2.3000e+000 91089 -1.8508e+000 -1.2757e+002 -1.5301e+001 44604 90933,91063,91037
 2.3000e+000 91207 -1.0532e+001 -1.0450e+002 -2.6115e+001 44604 91037,91011,91181
 2.3000e+000 91230 -2.9943e+001 -1.3209e+002 -3.5800e+001 44604 91037,91181,90933
 2.3000e+000 91429  1.1850e+001 -1.2375e+002 -9.1706e+000 44264 91452,91279,91253
 2.3000e+000 91406  1.2534e+001 -1.2817e+002 -9.3904e+000 44264 91452,91253,91357
 2.3000e+000 91383 -2.6641e+001 -1.1106e+002  2.0133e+001 44264 91279,91331,91305
 2.3000e+000 91478  1.1715e+001 -1.2160e+002 -9.0752e+000 44264 91331,91279,91452
 2.3000e+000 91501  1.3995e+001 -1.2417e+002 -8.4775e+000 44264 91331,91452,91357
 2.3000e+000 92060 -6.5212e+001 -1.5389e+002 -9.1775e-001 43860 92083,91740,91688
 2.3000e+000 92037 -1.5179e+001 -1.6663e+002  2.4456e+001 43860 92083,91688,91896
 2.3000e+000 92014 -4.5865e+001 -1.6084e+002  1.8699e+001 43860 91766,91870,91844
 2.3000e+000 91991 -3.7321e+001 -1.4141e+002  2.1898e+001 43860 91740,91870,91766
 2.3000e+000 91968 -1.3237e+000 -1.5615e+002  8.9996e+000 43860 91766,91844,91792
 2.3000e+000 91945 -3.3084e+001 -1.8091e+002 -4.4413e+001 43860 91688,91740,91714
 2.3000e+000 91922 -1.9921e+001 -1.6333e+002  4.3069e+000 43860 91792,91844,91818
 2.3000e+000 92109 -2.3936e+001 -1.3952e+002  2.0844e+001 43860 91870,91740,92083
 2.3000e+000 92132  3.0233e+001 -1.4178e+002  4.9846e+001 43860 91870,92083,91896
 2.3000e+000 92353  1.9783e+001 -1.0905e+002 -1.8811e+001 43662 92203,92255,92229
 2.3000e+000 92330 -8.6606e+000 -1.1278e+002 -5.4694e+000 43662 92376,92203,92281
 2.3000e+000 92307  2.0704e+001 -6.5813e+001  7.3929e+000 43662 92177,92281,92203
 2.3000e+000 92402 -4.6361e+001 -1.2882e+002 -3.9008e-001 43662 92255,92203,92376
 2.3000e+000 92682  1.8205e+001 -1.5116e+002 -2.0718e+001 43464 92532,92584,92558
 2.3000e+000 92659  1.3569e+001 -1.1639e+002 -8.6470e+000 43464 92506,92584,92532
 2.3000e+000 92636 -5.6405e+000 -1.1763e+002 -1.5558e+001 43464 92506,92610,92584
 2.3000e+000 93013  2.0577e+001 -1.1487e+002 -2.7484e+001 42960 92866,92918,92892
 2.3000e+000 92990 -4.7455e+000 -1.2254e+002 -7.2414e+000 42960 93036,92918,92866
 2.3000e+000 92967  1.1137e+001 -1.3335e+002 -1.7128e-001 42960 93036,92866,92840
 2.3000e+000 92944  1.3310e+000 -1.1788e+002  2.3795e+000 42960 92788,92918,92814
 2.3000e+000 93062  4.0347e+000 -1.2268e+002  5.4013e-001 42960 92814,92918,93036
 2.3000e+000 93085  3.7462e+001 -1.1984e+002  9.0548e+000 42960 92814,93036,92840
 2.3000e+000 93186 -4.1090e+001 -1.0940e+002 -1.0453e+001 42556 93108,93160,93134
 2.3000e+000 93554 -4.2358e+001 -1.5667e+002  2.1268e+000 42052 93231,93387,93361
 2.3000e+000 93531 -4.7293e+001 -1.4653e+002  2.3287e+001 42052 93231,93413,93387
 2.3000e+000 93508 -6.1559e+001 -1.4883e+002  5.1586e+000 42052 93231,93361,93257
 2.3000e+000 93485 -2.4678e+001 -1.1795e+002  1.6740e+001 42052 93283,93361,93335
 2.3000e+000 93462 -3.9050e+001 -1.3631e+002  1.0187e+001 42052 93257,93361,93283
 2.3000e+000 93439  1.1823e+001 -9.9089e+001  5.7074e-001 42052 93283,93335,93309
 2.3000e+000 94162  5.5086e+000 -7.5746e+001 -6.0588e+000 41498 93767,93975,93793
 2.3000e+000 94139 -5.7770e-001 -7.6553e+001  4.5757e+000 41498 93741,93975,93767
 2.3000e+000 94116 -7.4260e+000 -7.1927e+001 -6.3403e+000 41498 93793,93975,93923
 2.3000e+000 94093 -1.3292e+001 -8.5725e+001 -2.1064e+000 41498 93923,93975,93949
 2.3000e+000 94070 -2.7636e+001 -4.9073e+001 -2.7737e+001 41498 93871,93923,93897
 2.3000e+000 94047  1.4618e+001 -5.4964e+001 -1.6131e+001 41498 93793,93923,93871
 2.3000e+000 94024  9.1829e+000 -5.7209e+001  3.6797e+000 41498 93819,93871,93845
 2.3000e+000 94001 -1.5282e+001 -6.5088e+001  1.6404e+000 41498 93793,93871,93819
 2.3000e+000 94619 -2.7047e+001 -9.6950e+001 -2.8127e+001 40930 94642,94423,94371
 2.3000e+000 94596 -1.1162e+001 -9.7872e+001 -7.8730e+000 40930 94642,94371,94345
 2.3000e+000 94573  2.3700e+000 -5.1893e+001 -7.0380e+000 40930 94345,94501,94475
 2.3000e+000 94550 -4.7023e-002 -9.6444e+001 -3.6901e+001 40930 94371,94423,94397
 2.3000e+000 94527  4.5350e+000 -5.3510e+001 -1.7987e+001 40930 94423,94475,94449
 2.3000e+000 94668 -1.0846e+001 -6.3677e+001 -2.2723e+001 40930 94475,94423,94642
 2.3000e+000 94691 -5.0637e+000 -8.4898e+001 -5.3317e+000 40930 94475,94642,94345
 2.3000e+000 95148 -4.1615e+001 -1.2836e+002  2.7562e+001 40362 95171,94952,94926
 2.3000e+000 95125 -3.7061e+001 -1.2662e+002  2.6829e+001 40362 95171,94926,95004
 2.3000e+000 95102 -5.6620e+001 -1.3372e+002  2.2793e+001 40362 94874,95004,94926
 2.3000e+000 95079 -1.0675e+001 -1.2472e+002  3.7078e+001 40362 94874,95030,95004
 2.3000e+000 95056 -5.5274e+001 -1.4545e+002  8.8532e+000 40362 94874,94926,94900
 2.3000e+000 95197 -3.7930e+001 -1.2980e+002  3.0005e+001 40362 94978,94952,95171
 2.3000e+000 95220 -3.4327e+001 -1.2841e+002  2.9334e+001 40362 94978,95171,95004
 2.3000e+000 95549 -1.9796e+001 -1.0432e+002  1.0235e+001 39586 95350,95402,95376
 2.3000e+000 95526  1.9340e+001 -6.9005e+001 -6.1803e+000 39586 95324,95402,95350
 2.3000e+000 95503 -1.1316e+001 -8.5088e+001  3.0527e+001 39586 95324,95454,95402
 2.3000e+000 95480 -1.0470e+001 -1.2623e+002  3.1721e+001 39586 95402,95454,95428
 2.3000e+000 96055 -1.6693e+001 -6.5849e+001 -6.0994e-001 38968 96078,95862,95810
 2.3000e+000 96032 -1.6569e+001 -6.0431e+001 -3.2060e-001 38968 96078,95810,95758
 2.3000e+000 96009 -1.6933e+001 -8.1377e+001 -1.0019e+001 38968 96150,95732,95888
 2.3000e+000 95986  2.0146e-001 -5.2939e+001  8.0614e+000 38968 95810,95862,95836
 2.3000e+000 95963 -4.4002e+000 -7.1851e+001 -1.6855e+001 38968 95732,95914,95888
 2.3000e+000 95940 -4.0460e+001 -7.5641e+001  1.7603e+001 38968 95758,95810,95784
 2.3000e+000 96104  1.3080e+000 -6.4343e+001  1.9025e+000 38968 95888,95862,96078
 2.3000e+000 96127 -1.8137e+001 -7.7526e+001 -4.4050e+000 38968 96150,95888,96078
 2.3000e+000 96176 -1.9355e+001 -6.7795e+001 -6.6618e+000 38968 95758,95732,96150
 2.3000e+000 96199 -1.7074e+001 -6.0569e+001 -4.5694e-001 38968 95758,96150,96078
 2.3000e+000 96545 -9.6276e+000 -1.1432e+002 -1.5103e+001 38507 96640,96568,96352
 2.3000e+000 96522 -3.3152e+001 -1.5145e+002  7.3065e+000 38507 96568,96300,96222
 2.3000e+000 96499  3.8613e+000 -9.4606e+001 -4.6681e+001 38507 96640,96352,96326
 2.3000e+000 96476 -2.4272e+001 -1.3985e+002 -2.4227e+001 38507 96352,96404,96378
 2.3000e+000 96453 -4.1518e+001 -1.8222e+002  6.8205e+000 38507 96222,96300,96248
 2.3000e+000 96430 -4.6503e+001 -2.2766e+002 -3.1133e+000 38507 96248,96300,96274
 2.3000e+000 96594 -3.9322e+001 -1.3678e+002 -5.2512e+000 38507 96404,96352,96568
 2.3000e+000 96617 -2.1919e+001 -1.2439e+002  3.7625e+000 38507 96404,96568,96222
 2.3000e+000 96666 -3.1377e+001 -1.6131e+002 -3.2505e-001 38507 96300,96568,96640
 2.3000e+000 96689 -2.8058e+001 -1.4694e+002 -2.8959e+001 38507 96300,96640,96326
 2.3000e+000 97069 -6.1275e+000 -5.2508e+001 -3.0511e+000 37760 97092,96873,96821
 2.3000e+000 97046 -1.4744e+001 -5.6914e+001  4.4163e+000 37760 97092,96821,96795
 2.3000e+000 97023 -2.8126e+001 -5.4841e+001  3.7111e-001 37760 96821,96873,96847
 2.3000e+000 97000  5.8723e+000 -2.1149e+001 -1.5744e+001 37760 96873,96925,96899
 2.3000e+000 96977 -7.1231e+000 -3.8577e+001 -1.6530e+001 37760 96795,96951,96925
 2.3000e+000 97118  3.4351e+000 -3.9939e+001 -1.6572e+001 37760 96925,96873,97092
 2.3000e+000 97141 -2.2709e+001 -5.2204e+001 -7.7788e+000 37760 96925,97092,96795
 2.3000e+000 97647 -6.3558e+001 -1.3592e+002  9.8211e+000 37356 97324,97480,97376
 2.3000e+000 97624 -2.2475e+001 -1.3786e+002  4.0272e+001 37356 97324,97506,97480
 2.3000e+000 97601 -5.5228e+001 -9.7866e+001  1.8721e+001 37356 97376,97480,97454
 2.3000e+000 97578 -6.1265e+001 -1.4388e+002  5.5754e+000 37356 97324,97376,97350
 2.3000e+000 97555 -4.3523e+001 -9.6129e+001  1.2783e+001 37356 97376,97454,97402
 2.3000e+000 97532 -5.4069e+001 -1.0502e+002  8.7390e+000 37356 97402,97454,97428
 2.3000e+000 98232 -1.2332e+001 -4.4183e+001 -1.1811e+001 36902 97935,98065,98013
 2.3000e+000 98209  1.1401e+001 -3.5093e+001 -1.0553e+001 36902 97935,98091,98065
 2.3000e+000 98186 -5.4699e+000 -4.4030e+001 -1.0808e+001 36902 97935,98013,97987
 2.3000e+000 98163  8.8530e-001 -1.3755e+001 -1.3945e+001 36902 97909,98091,97935
 2.3000e+000 98140 -1.1442e+000 -2.6636e+001 -9.6751e+000 36902 97935,97987,97961
 2.3000e+000 98117 -1.4295e+001 -5.5034e+001 -5.8599e+000 36902 98013,98065,98039
 2.3000e+000 98659 -3.0245e+001 -1.6799e+002 -2.2840e+001 36604 98682,98414,98388
 2.3000e+000 98636 -1.8117e+001 -1.5563e+002  8.3315e+000 36604 98682,98388,98336
 2.3000e+000 98613 -2.9155e+001 -1.3758e+002  9.4548e+000 36604 98754,98518,98466
 2.3000e+000 98590 -3.3380e+001 -9.1687e+001 -1.7084e+001 36604 98414,98466,98440
 2.3000e+000 98567  1.7055e+001 -2.0657e+002  1.5988e+001 36604 98336,98388,98362
 2.3000e+000 98544  1.4212e-001 -1.6669e+002  1.0193e+002 36604 98466,98518,98492
 2.3000e+000 98708 -1.2508e+001 -1.2732e+002 -2.0536e+001 36604 98466,98414,98682
 2.3000e+000 98731 -2.3315e+001 -1.4228e+002  8.1737e+000 36604 98754,98466,98682
 2.3000e+000 98780 -2.3349e+001 -1.3794e+002  1.0320e+001 36604 98336,98518,98754
 2.3000e+000 98803 -1.3771e+001 -1.3912e+002  1.0830e+001 36604 98336,98754,98682
 2.3000e+000 99309 -1.4657e+001 -7.3236e+001  1.6743e+001 36200 99332,99116,99012
 2.3000e+000 99286 -1.0763e+001 -2.5647e+001 -5.6975e+000 36200 99332,99012,98986
 2.3000e+000 99263 -4.3233e+000 -6.9249e+001  8.8915e+000 36200 99012,99116,99064
 2.3000e+000 99240 -2.8869e-001 -5.1179e+001 -3.4526e+000 36200 98986,99168,99142
 2.3000e+000 99217 -1.6560e+001 -8.1228e+001  1.4325e+001 36200 99064,99116,99090
 2.3000e+000 99194 -2.9331e+001 -6.8776e+001 -9.6212e+000 36200 99012,99064,99038
 2.3000e+000 99358 -1.8904e+001 -1.0672e+002  3.2175e+001 36200 99142,99116,99332
 2.3000e+000 99381 -1.8150e+001 -7.5120e+001  5.0958e+000 36200 99142,99332,98986
 2.3000e+000 99887 -4.6755e+001 -1.1222e+002  9.6586e+000 35488 99564,99720,99590
 2.3000e+000 99864 -3.7507e+001 -8.9849e+001  8.1033e+000 35488 99564,99746,99720
 2.3000e+000 99841 -7.7973e+000 -1.1050e+002  1.2427e+000 35488 99642,99694,99668
 2.3000e+000 99818 -2.8365e+001 -1.2450e+002  1.0907e+001 35488 99590,99694,99642
 2.3000e+000 99795 -1.0949e+001 -9.4905e+001  3.6040e+000 35488 99590,99720,99694
 2.3000e+000 99772  9.3371e+000 -1.7761e+002  1.5581e+001 35488 99590,99642,99616
 2.3000e+000 99988  2.0781e+000 -4.6377e+001  1.4304e+000 35198 99910,99962,99936
 2.3000e+000 100138  1.4019e+001 -9.9701e+001  1.4762e+001 34794 100233,100161,100063
 2.3000e+000 100115 -1.8650e+001 -1.2972e+002 -1.1755e+001 34794 100365,100161,100037
 2.3000e+000 100187  3.8186e+001 -1.0702e+002  1.2229e+001 34794 100089,100063,100161
 2.3000e+000 100210  3.8015e+001 -1.1145e+002  9.3910e+000 34794 100089,100161,100011
 2.3000e+000 100259 -1.4944e+001 -1.4395e+002 -2.2723e+001 34794 100037,100161,100233
 2.3000e+000 100391  6.7402e+001 -7.7659e+001 -3.3983e+001 34794 100011,100161,100365
 2.3000e+000 100927  2.2654e+001 -9.1362e+001 -1.1850e+000 34404 100679,100809,100783
 2.3000e+000 100904  2.4515e+001 -9.4018e+001 -1.7645e+000 34404 100653,100809,100679
 2.3000e+000 100881 -4.0012e+000 -1.0976e+002 -4.8472e+000 34404 100705,100783,100731
 2.3000e+000 100858  4.2634e-001 -1.0079e+002 -2.9291e-001 34404 100679,100783,100705
 2.3000e+000 100835 -1.7088e+001 -1.0592e+002 -2.3925e+001 34404 100731,100783,100757
 2.3000e+000 101354 -3.6494e+001 -1.4278e+002  2.0044e+001 34000 101377,101109,101057
 2.3000e+000 101331 -7.4350e+001 -1.6113e+002  1.4334e+001 34000 101449,101377,101057
 2.3000e+000 101308 -8.6192e+001 -1.4692e+002  1.2670e+001 34000 101449,101057,101031
 2.3000e+000 101285 -6.4793e+001 -1.3798e+002  2.6053e+001 34000 101031,101213,101187
 2.3000e+000 101262 -5.1053e+001 -1.8464e+002 -2.0879e+001 34000 101135,101187,101161
 2.3000e+000 101239 -6.1543e+001 -1.8572e+002  3.4420e+001 34000 101057,101109,101083
 2.3000e+000 101403 -5.2701e+001 -1.4778e+002 -9.8683e-001 34000 101135,101109,101377
 2.3000e+000 101426 -7.0345e+001 -1.5442e+002 -4.3593e+000 34000 101135,101377,101187
 2.3000e+000 101475 -5.1534e+001 -1.4666e+002  6.0821e+000 34000 101187,101377,101449
 2.3000e+000 101498 -7.0159e+001 -1.4062e+002  8.4335e+000 34000 101187,101449,101031
 2.3000e+000 102083  6.0034e+000 -8.3754e+001 -1.8059e+000 33472 102106,101812,101786
 2.3000e+000 102060 -2.3303e+001 -9.5414e+001 -1.5433e+000 33472 102106,101786,101916
 2.3000e+000 102037 -3.4276e+001 -1.0071e+002 -2.0821e+001 33472 101812,101864,101838
 2.3000e+000 102014 -1.5778e+001 -1.1847e+002 -1.3095e+001 33472 101864,101916,101890
 2.3000e+000 101991 -4.2447e+001 -1.0871e+002 -8.1320e+000 33472 101786,101942,101916
 2.3000e+000 101968 -5.6511e+001 -1.1223e+002  2.1456e+001 33472 101760,101942,101786
 2.3000e+000 102132 -1.2654e+001 -8.4790e+001 -1.3184e+001 33472 101864,101812,102106
 2.3000e+000 102155 -2.2786e+001 -8.7629e+001 -1.5104e+001 33472 101864,102106,101916
 2.3000e+000 102612 -3.5965e+001 -1.2887e+002 -5.0672e+001 33038 102635,102468,102390
 2.3000e+000 102589 -6.2845e+001 -1.7211e+002 -6.6307e+001 33038 102635,102390,102364
 2.3000e+000 102566 -1.1544e+001 -1.2044e+002 -4.6116e+001 33038 102390,102468,102442
 2.3000e+000 102543 -2.8093e+001 -1.4084e+002 -3.1276e+001 33038 102338,102494,102364
 2.3000e+000 102520 -1.4941e+001 -1.1176e+002 -2.7356e+001 33038 102390,102442,102416
 2.3000e+000 102661 -3.5542e+001 -1.1840e+002 -2.5658e+001 33038 102494,102468,102635
 2.3000e+000 102684 -4.2933e+001 -1.4375e+002 -3.7179e+001 33038 102494,102635,102364
 2.3000e+000 103318 -2.4125e+001 -7.1718e+001  2.8217e+000 32402 102972,103128,103076
 2.3000e+000 103295 -2.4577e+001 -7.3302e+001  2.2332e+000 32402 102946,103128,102972
 2.3000e+000 103272 -2.0271e+001 -6.6726e+001  1.0531e+001 32402 103076,103128,103102
 2.3000e+000 103249 -1.6074e+001 -6.7257e+001  3.1176e+001 32402 102946,103154,103128
 2.3000e+000 103226 -2.3620e+001 -5.8252e+001 -9.3703e+000 32402 102972,103076,102998
 2.3000e+000 103203  5.3440e+000 -8.2751e+001 -3.1559e+001 32402 102998,103076,103050
 2.3000e+000 103180 -7.0174e-002  1.3262e+000 -5.6690e+001 32402 102998,103050,103024
 2.3000e+000 103696 -5.2381e+001 -1.5689e+002 -6.2602e+000 31924 103448,103526,103500
 2.3000e+000 103673 -2.2835e+001 -1.4886e+002 -2.4942e+001 31924 103448,103578,103526
 2.3000e+000 103650 -3.9847e+001 -1.4561e+002 -1.1223e+001 31924 103448,103500,103474
 2.3000e+000 103627 -2.9442e+001 -1.6812e+002 -2.8789e+001 31924 103422,103578,103448
 2.3000e+000 103604 -4.5626e+001 -2.2547e+002 -4.3518e+000 31924 103526,103578,103552
 2.3000e+000 104281  4.6494e+000 -5.8293e+001 -4.4086e+000 31520 104304,104062,104036
 2.3000e+000 104258 -2.9478e+001 -5.0773e+001 -6.4080e+000 31520 104304,104036,103984
 2.3000e+000 104235 -1.8178e+001 -3.8552e+001 -4.9965e+001 31520 104062,104114,104088
 2.3000e+000 104212 -6.0227e+000 -4.7027e+001 -1.1369e+001 31520 103958,104114,103984
 2.3000e+000 104189 -3.5909e+001 -6.5791e+001 -6.7619e+000 31520 103984,104036,104010
 2.3000e+000 104166 -1.1550e+001 -3.5280e+001 -9.7343e+000 31520 103958,104140,104114
 2.3000e+000 104330  1.6261e+001 -5.7405e+001 -1.8845e+001 31520 104114,104062,104304
 2.3000e+000 104353 -4.9524e+000 -4.5678e+001 -1.5287e+001 31520 104114,104304,103984
 2.3000e+000 104704 -6.3096e+000 -3.1276e+001 -5.6701e+000 31066 104479,104583,104505
 2.3000e+000 104681  2.1591e+001 -1.7457e+001 -1.0650e+001 31066 104479,104609,104583
 2.3000e+000 104658  2.5653e+000 -3.3836e+001 -2.8144e+000 31066 104505,104557,104531
 2.3000e+000 104635  6.8485e+000 -2.7884e+001 -4.7738e+000 31066 104505,104583,104557
 2.3000e+000 104925  2.2304e+001 -1.2574e+002  7.2245e+000 30754 104775,104827,104801
 2.3000e+000 104902  2.3369e+001 -9.8696e+001  6.7443e+000 30754 104775,104853,104827
 2.3000e+000 104879  4.7692e+001 -8.7859e+001  1.3010e+001 30754 104749,104853,104775
 2.3000e+000 105482 -4.0993e+001 -1.1241e+002  7.5687e+000 30164 105505,105136,105110
 2.3000e+000 105459 -2.7801e+001 -1.2641e+002  1.2106e+001 30164 105649,105505,105110
 2.3000e+000 105436 -2.5474e+001 -1.1070e+002  1.9966e+000 30164 105577,105188,105136
 2.3000e+000 105413 -3.6500e+001 -1.3152e+002  2.1162e+001 30164 105649,105110,105318
 2.3000e+000 105390 -4.3038e+001 -1.9128e+002  3.7610e+001 30164 105214,105292,105240
 2.3000e+000 105367  3.9781e+000 -1.7977e+002  3.7436e+001 30164 105240,105292,105266
 2.3000e+000 105344 -3.5975e+001 -9.2010e+001 -2.3299e+000 30164 105136,105188,105162
 2.3000e+000 105531 -2.8936e+001 -1.1127e+002  8.6777e+000 30164 105577,105136,105505
 2.3000e+000 105554 -4.2425e+000 -1.0953e+002  1.0102e+001 30164 105214,105505,105292
 2.3000e+000 105603 -2.3484e+001 -1.0185e+002 -1.0286e+000 30164 105214,105188,105577
 2.3000e+000 105626 -2.5149e+001 -1.0114e+002  5.3124e+000 30164 105214,105577,105505
 2.3000e+000 105675 -2.2232e+001 -1.1476e+002  6.5908e+000 30164 105292,105505,105649
 2.3000e+000 105698 -2.3224e+001 -1.1139e+002  1.4042e+001 30164 105292,105649,105318
 2.3000e+000 106027  1.7035e+001 -6.3232e+001  4.5004e+000 29868 106322,106050,105880
 2.3000e+000 106004 -7.0822e+000 -5.5463e+001 -5.6961e+000 29868 106250,106050,105828
 2.3000e+000 105981 -8.4604e+000 -5.6257e+001 -6.1582e+000 29868 106250,105828,105802
 2.3000e+000 105958  5.5908e-001 -5.3943e+001  1.8742e+001 29868 106322,105880,106122
 2.3000e+000 106076  2.4343e+000 -8.8761e+001 -3.3935e+000 29868 105906,105880,106050
 2.3000e+000 106099  1.7846e+000 -6.5455e+001 -8.2667e+000 29868 105906,106050,105932
 2.3000e+000 106148 -3.9987e+001 -9.0754e+001  1.3388e+001 29868 105854,105828,106122
 2.3000e+000 106276 -7.8544e+000 -5.5515e+001 -8.7541e+000 29868 105932,106050,106250
 2.3000e+000 106299 -1.1952e+001 -5.7597e+001 -9.4683e+000 29868 105932,106250,105802
 2.3000e+000 106348 -1.2772e+001 -7.1371e+001  2.0298e+000 29868 105828,106050,106322
 2.3000e+000 106371 -2.6156e+001 -5.9875e+001  1.6153e+001 29868 105828,106322,106122
 2.3000e+000 106828 -3.9381e+000 -5.9827e+001 -4.5118e-001 29521 106580,106710,106684
 2.3000e+000 106805 -2.5391e+001 -6.4103e+001 -2.1785e+001 29521 106554,106710,106580
 2.3000e+000 106782 -1.7156e+001 -6.1697e+001 -1.7087e+000 29521 106580,106684,106606
 2.3000e+000 106759 -3.4313e+001 -9.5335e+001 -8.4317e+000 29521 106606,106684,106658
 2.3000e+000 106736 -8.3030e+000 -5.6761e+001  7.3364e+000 29521 106606,106658,106632
 2.3000e+000 107027 -3.6008e+001 -1.1695e+002 -3.0581e+001 29117 106877,106929,106903
 2.3000e+000 107004 -2.2212e+001 -1.1101e+002 -2.8555e+001 29117 106851,106929,106877
 2.3000e+000 106981 -3.2246e+001 -1.4519e+002 -2.1435e+001 29117 106851,106955,106929
 2.3000e+000 107456 -4.7870e+001 -1.6343e+002 -2.8866e+001 28656 107237,107315,107263
 2.3000e+000 107433 -1.5988e+001 -1.0683e+002 -1.1746e+001 28656 107133,107315,107237
 2.3000e+000 107410 -1.1612e+001 -9.9522e+001 -1.3750e+001 28656 107133,107237,107159
 2.3000e+000 107387 -3.4700e+000 -6.8368e+001 -2.1638e+001 28656 107159,107237,107185
 2.3000e+000 107364 -8.4370e-001 -5.9216e+001  5.8366e+000 28656 107185,107237,107211
 2.3000e+000 107341  6.6121e+000 -2.7189e+001 -4.1455e+001 28656 107263,107315,107289
 2.3000e+000 107704 -8.7271e+000 -1.0806e+002  2.3038e+000 27902 107727,107557,107531
 2.3000e+000 107681  2.1731e+000 -9.4825e+001  7.5439e+000 27902 107727,107531,107505
 2.3000e+000 107658 -1.5792e+001 -1.1020e+002 -1.5187e+001 27902 107557,107609,107583
 2.3000e+000 107635 -4.0292e+001 -9.2575e+001  3.9887e+000 27902 107479,107609,107505
 2.3000e+000 107753 -2.0996e+001 -9.5685e+001 -4.3313e+000 27902 107609,107557,107727
 2.3000e+000 107776 -1.1626e+001 -8.5281e+001  1.4705e-001 27902 107609,107727,107505
 2.3000e+000 108333 -3.6891e+001 -1.6802e+002 -4.5418e+000 27341 108356,108065,108013
 2.3000e+000 108310 -4.0855e+001 -1.6490e+002 -2.5761e+001 27341 108356,108013,108143
 2.3000e+000 108287 -9.6702e+000 -1.9195e+002 -2.5028e+001 27341 108428,108117,108091
 2.3000e+000 108264 -5.8593e+001 -1.6799e+002  1.6720e+000 27341 108013,108065,108039
 2.3000e+000 108241 -9.4196e+001 -1.5611e+002 -3.1969e+001 27341 107987,108143,108013
 2.3000e+000 108218 -3.4108e+001 -1.3000e+002 -3.9428e+001 27341 107987,108169,108143
 2.3000e+000 108195 -2.9563e+001 -1.2419e+002 -3.7355e+001 27341 107961,108169,107987
 2.3000e+000 108382 -4.5091e+001 -1.9034e+002 -4.9510e-001 27341 108091,108065,108356
 2.3000e+000 108405 -2.7468e+001 -1.6472e+002 -1.3550e+001 27341 108428,108091,108356
 2.3000e+000 108454 -4.2595e+001 -2.3567e+002 -3.9630e+001 27341 108143,108117,108428
 2.3000e+000 108477 -5.5918e+001 -1.9999e+002 -2.6729e+001 27341 108143,108428,108356
 2.3000e+000 108725  1.6498e+001 -1.3223e+002 -5.1196e+000 27029 108748,108526,108500
 2.3000e+000 108702  6.0752e+000 -1.0053e+002  1.2513e+000 27029 108748,108500,108630
 2.3000e+000 108679 -1.0718e+001 -1.1100e+002  5.6645e+000 27029 108578,108630,108604
 2.3000e+000 108656  3.3131e+001 -1.1308e+002  2.4809e+001 27029 108526,108578,108552
 2.3000e+000 108774  6.4422e+000 -1.4610e+002 -9.5862e+000 27029 108578,108526,108748
 2.3000e+000 108797 -1.2320e+001 -1.2443e+002 -7.0122e+000 27029 108578,108748,108630
 2.3000e+000 109045  1.5701e+001 -9.6738e+001 -4.6639e+000 26610 108872,108924,108898
 2.3000e+000 109022 -5.7584e+000 -1.0385e+002 -7.5779e+000 26610 108872,108950,108924
 2.3000e+000 108999 -5.6610e+000 -1.0279e+002 -8.0734e+000 26610 108846,108950,108872
 2.3000e+000 108976  7.2350e-001 -1.2039e+002 -9.7382e+000 26610 108820,108950,108846
 2.3000e+000 109366 -2.6249e+001 -1.9265e+002  7.2621e+000 26006 109144,109222,109196
 2.3000e+000 109343 -2.8407e+001 -1.9863e+002  5.0814e+000 26006 109118,109222,109144
 2.3000e+000 109320 -5.3721e+001 -2.1540e+002  1.4789e+001 26006 109092,109222,109118
 2.3000e+000 109297 -1.0042e+001 -1.8224e+002 -2.5316e+001 26006 109144,109196,109170
 2.3000e+000 109274 -1.0710e+001 -1.6495e+002 -5.4976e+000 26006 109092,109248,109222
 2.3000e+000 109567 -4.8410e+001 -1.1913e+002 -1.7406e+001 25659 109391,109469,109443
 2.3000e+000 109544 -3.6049e+001 -1.1444e+002 -1.6401e+001 25659 109391,109495,109469
 2.3000e+000 109521 -2.9430e+001 -9.9938e+001 -2.8782e+001 25659 109391,109443,109417
 2.3000e+000 109900 -3.7950e+001 -1.0110e+002 -5.8171e+000 25255 109923,109779,109753
 2.3000e+000 109877 -3.5985e+001 -9.7283e+001 -7.2124e+000 25255 109923,109753,109701
 2.3000e+000 109854 -3.6550e+001 -7.2706e+001 -8.2902e+000 25255 109675,109805,109701
 2.3000e+000 109831 -5.5077e+001 -9.5041e+001 -7.3532e+000 25255 109701,109753,109727
 2.3000e+000 109949 -3.5469e+001 -1.0589e+002 -9.8484e+000 25255 109805,109779,109923
 2.3000e+000 109972 -3.2597e+001 -9.8960e+001 -1.1454e+001 25255 109805,109923,109701
 2.3000e+000 110220 -4.2210e+001 -1.1121e+002  1.7242e+001 24701 110243,110021,109995
 2.3000e+000 110197 -4.1442e+001 -1.1686e+002  1.8708e+000 24701 110243,109995,110099
 2.3000e+000 110174 -3.1455e+001 -1.0639e+002  5.6692e+000 24701 110315,110073,110047
 2.3000e+000 110151 -3.9460e+001 -1.2305e+002  2.9978e+000 24701 109995,110125,110099
 2.3000e+000 110269 -2.3183e+001 -1.0530e+002  1.6733e+001 24701 110047,110021,110243
 2.3000e+000 110292 -4.7762e+001 -1.0699e+002  1.0134e+001 24701 110315,110047,110243
 2.3000e+000 110341  1.4420e+001 -9.7389e+001  6.9589e+000 24701 110099,110073,110315
 2.3000e+000 110364 -1.5246e+001 -1.0562e+002  8.2064e+000 24701 110099,110315,110243
 2.3000e+000 110661 -2.4879e+001 -1.4275e+002 -1.0022e+001 24197 110684,110413,110387
 2.3000e+000 110638 -1.7009e+001 -1.3450e+002 -2.0951e+001 24197 110684,110387,110543
 2.3000e+000 110615  2.7759e+000 -2.1072e+002  1.0577e+001 24197 110756,110491,110465
 2.3000e+000 110592 -3.9366e+001 -1.2057e+002  5.8623e+000 24197 110413,110465,110439
 2.3000e+000 110569 -1.7938e+001 -3.0118e+002 -2.0128e+001 24197 110491,110543,110517
 2.3000e+000 110710 -9.0622e+000 -1.3140e+002  6.1095e+000 24197 110465,110413,110684
 2.3000e+000 110733 -3.1334e+001 -1.8116e+002  1.3740e+000 24197 110756,110465,110684
 2.3000e+000 110782  2.7863e+001 -1.7742e+002 -1.1106e+001 24197 110543,110491,110756
 2.3000e+000 110805  6.8880e+000 -1.3403e+002 -2.2841e+001 24197 110543,110756,110684
 2.3000e+000 111315 -4.2941e+001 -1.4811e+002 -2.0598e+001 23593 111044,111148,111070
 2.3000e+000 111292 -3.8843e+001 -1.2443e+002 -9.8540e+000 23593 111044,111174,111148
 2.3000e+000 111269 -1.1158e+001 -1.0997e+002 -6.3990e+000 23593 111070,111122,111096
 2.3000e+000 111246 -4.3702e+001 -1.4862e+002 -2.1462e+001 23593 111070,111148,111122
 2.3000e+000 111223 -4.8575e+001 -1.1987e+002 -2.1975e+001 23593 111018,111174,111044
 2.3000e+000 111200 -1.7088e+001 -1.3286e+002 -1.6504e+001 23593 110992,111174,111018
 2.3000e+000 111821  3.2002e+001 -1.4992e+002 -8.9439e+000 23089 111916,111844,111628
 2.3000e+000 111798 -4.0767e+001 -1.7960e+002 -3.0597e+001 23089 111844,111550,111524
 2.3000e+000 111775  4.7698e+001 -1.4185e+002 -3.3110e+000 23089 111916,111628,111602
 2.3000e+000 111752 -2.0406e+000 -2.5281e+002 -1.5521e+001 23089 111498,111680,111524
 2.3000e+000 111729  3.5718e+000 -1.1222e+002  1.8446e+001 23089 111550,111602,111576
 2.3000e+000 111706  5.4980e+001 -9.7054e+001 -2.8200e+001 23089 111628,111680,111654
 2.3000e+000 111870 -6.6552e+000 -1.5413e+002 -2.7756e+000 23089 111680,111628,111844
 2.3000e+000 111893 -6.8969e+000 -1.5417e+002  1.6093e+000 23089 111680,111844,111524
 2.3000e+000 111942 -7.2349e+000 -1.2939e+002 -1.2162e+001 23089 111550,111844,111916
 2.3000e+000 111965  1.3972e+001 -1.1777e+002 -6.1134e+000 23089 111550,111916,111602
 2.3000e+000 112164  7.3147e+000 -9.8349e+001 -1.6310e+001 22626 112187,112014,111988
 2.3000e+000 112141 -1.2915e+001 -1.1885e+002 -8.1015e+000 22626 112259,112187,111988
 2.3000e+000 112118 -1.0314e+001 -1.2677e+002  6.4913e+000 22626 112259,111988,112092
 2.3000e+000 112213 -8.6243e+000 -7.1279e+001 -1.3738e+001 22626 112040,112014,112187
 2.3000e+000 112236 -2.7538e+001 -9.7185e+001 -3.0521e+000 22626 112040,112187,112066
 2.3000e+000 112285 -5.7193e+000 -9.6049e+001 -8.5694e+000 22626 112066,112187,112259
 2.3000e+000 112308 -1.1269e+000 -1.0185e+002  5.0850e+000 22626 112066,112259,112092
 2.3000e+000 112605  3.1801e+001 -1.2632e+002  1.0058e+001 22286 112628,112383,112357
 2.3000e+000 112582 -8.3528e+000 -1.3620e+002  3.1311e+000 22286 112772,112628,112357
 2.3000e+000 112559 -4.7555e+001 -1.5259e+002  1.1130e+001 22286 112700,112435,112409
 2.3000e+000 112536 -3.6614e+001 -1.3918e+002  8.9504e+000 22286 112772,112357,112331
 2.3000e+000 112513 -6.7253e+001 -1.2989e+002  1.0688e+001 22286 112435,112487,112461
 2.3000e+000 112654  1.0115e+001 -1.0590e+002 -1.5458e+001 22286 112409,112383,112628
 2.3000e+000 112677 -3.0799e+001 -1.3049e+002 -3.1552e+000 22286 112700,112409,112628
 2.3000e+000 112726 -2.3683e+001 -1.3144e+002 -5.9741e+000 22286 112487,112435,112700
 2.3000e+000 112749 -1.7100e+001 -1.2891e+002 -1.7525e+001 22286 112487,112700,112628
 2.3000e+000 112798  3.8018e+000 -1.3127e+002 -1.9820e+000 22286 112487,112628,112772
 2.3000e+000 112821 -4.5088e+000 -1.2210e+002  2.1390e+000 22286 112487,112772,112331
 2.3000e+000 112924  3.0611e+000  6.1736e+001 -2.6227e+000 21974 112846,112898,112872
 2.3000e+000 113223 -7.0749e+001 -1.7796e+002  2.0105e+001 21420 112949,113053,112975
 2.3000e+000 113200 -6.3716e+001 -1.4620e+002  1.9865e+001 21420 112949,113079,113053
 2.3000e+000 113177  9.0740e+000 -1.5275e+002  3.3774e+001 21420 112975,113053,113001
 2.3000e+000 113154 -9.6276e+001 -1.9602e+002  2.0708e+001 21420 113001,113053,113027
 2.3000e+000 113131 -8.4050e+001 -1.3420e+002  8.5419e+000 21420 112949,113105,113079
 2.3000e+000 113605 -6.6676e+000 -2.0871e+002  5.8473e+001 20716 113331,113435,113357
 2.3000e+000 113582 -1.8648e+001 -7.5742e+001  6.6245e+001 20716 113331,113461,113435
 2.3000e+000 113559  3.9096e+000 -1.8512e+002 -1.2181e+001 20716 113383,113435,113409
 2.3000e+000 113536 -4.7500e+001 -1.8361e+002 -1.3567e+001 20716 113357,113435,113383
 2.3000e+000 113513  1.2762e-001  1.7083e+000  7.4199e+000 20716 113331,113487,113461
 2.3000e+000 113853 -1.3266e+001 -1.5694e+002  6.9941e+000 20290 113876,113680,113654
 2.3000e+000 113830  4.5305e+000 -1.5691e+002  5.9696e+000 20290 113876,113654,113628
 2.3000e+000 113807 -2.6239e+001 -1.7342e+002 -6.9498e+000 20290 113948,113732,113680
 2.3000e+000 113784  6.1614e+001 -1.4959e+002 -1.3857e+001 20290 113680,113732,113706
 2.3000e+000 113902 -1.2501e+001 -1.5579e+002  6.6583e+000 20290 113948,113680,113876
 2.3000e+000 113925 -1.8791e+001 -1.4754e+002  7.1901e+000 20290 113758,113876,113628
 2.3000e+000 113974 -4.2282e+001 -1.5735e+002 -1.2255e+001 20290 113758,113732,113948
 2.3000e+000 113997 -4.1214e+001 -1.5649e+002 -1.6829e+000 20290 113758,113948,113876
 2.3000e+000 114365 -3.0625e+001 -1.6343e+002  5.4304e-001 19900 114146,114198,114172
 2.3000e+000 114342 -3.0816e+001 -1.6346e+002  8.8977e-001 19900 114042,114198,114146
 2.3000e+000 114319 -3.3361e+001 -1.5944e+002  2.9921e+000 19900 114042,114224,114198
 2.3000e+000 114296 -7.1138e+001 -1.5545e+002 -3.5245e+000 19900 114094,114146,114120
 2.3000e+000 114273 -3.3670e+001 -1.5287e+002 -9.2531e+000 19900 114042,114146,114094
 2.3000e+000 114250 -4.7181e+001 -1.4808e+002  3.3902e+000 19900 114042,114094,114068
 2.3000e+000 114566 -4.8825e+001 -1.6230e+002 -2.7398e-001 19496 114442,114494,114468
 2.3000e+000 114543 -7.3061e+001 -1.5620e+002 -1.2071e+001 19496 114416,114494,114442
 2.3000e+000 114520 -5.2932e+001 -1.4729e+002 -9.2981e+000 19496 114390,114494,114416
 2.3000e+000 114767 -2.3929e+000 -1.6319e+002  7.1056e+000 19042 114790,114669,114643
 2.3000e+000 114744 -8.5128e+000 -1.5572e+002  1.0376e+001 19042 114790,114643,114591
 2.3000e+000 114721  7.2345e+000 -1.6781e+002  3.6171e+001 19042 114591,114643,114617
 2.3000e+000 114816 -4.5728e+000 -1.5596e+002  4.2752e+000 19042 114695,114669,114790
 2.3000e+000 114839 -6.2891e+000 -1.4289e+002  8.1749e+000 19042 114695,114790,114591
 2.3000e+000 114991 -7.1679e+001 -1.8712e+002  9.1494e-001 18488 114864,114916,114890
 2.3000e+000 114968 -5.2063e+001 -1.9448e+002 -4.1076e+000 18488 114864,114942,114916
 2.3000e+000 115192  5.3572e+001 -1.2596e+002  6.1460e+000 18098 115215,115042,115016
 2.3000e+000 115169  2.4721e+001 -1.0760e+002 -6.2203e+000 18098 115215,115016,115120
 2.3000e+000 115146  4.5826e+001 -1.2321e+002 -2.4879e+001 18098 115287,115094,115068
 2.3000e+000 115241  3.4479e+001 -1.7895e+002 -3.0157e+000 18098 115068,115042,115215
 2.3000e+000 115264  4.4053e+001 -1.2005e+002 -9.7574e+000 18098 115287,115068,115215
 2.3000e+000 115313  2.4068e+001 -1.3063e+002 -2.2427e+001 18098 115120,115094,115287
 2.3000e+000 115336  1.5320e+001 -1.3035e+002 -8.0354e+000 18098 115120,115287,115215
 2.3000e+000 115846  3.4289e+001 -1.8421e+002 -4.5940e+001 17644 115653,115705,115679
 2.3000e+000 115823 -1.5877e+001 -1.8140e+002 -1.6798e+001 17644 115627,115705,115653
 2.3000e+000 115800  1.5071e+001 -1.4780e+002  1.4583e+000 17644 115549,115705,115627
 2.3000e+000 115777 -1.2452e+001 -1.7656e+002  1.5694e+001 17644 115549,115627,115575
 2.3000e+000 115754  4.3404e+001 -9.4604e+001  6.0503e+001 17644 115523,115705,115549
 2.3000e+000 115731 -6.3420e+001 -1.6872e+002 -3.8414e-001 17644 115575,115627,115601
 2.3000e+000 116067 -4.9760e+001 -2.5573e+002 -4.7726e+000 17116 115891,115943,115917
 2.3000e+000 116044 -9.0687e+001 -2.8342e+002  8.6466e+000 17116 115891,115995,115943
 2.3000e+000 116021 -8.7636e+001 -2.4054e+002  6.9861e+000 17116 115943,115995,115969
 2.3000e+000 116288 -4.8388e-001 -1.6755e+002  3.3614e+001 16704 116164,116216,116190
 2.3000e+000 116265 -2.8565e+001 -2.3217e+002  2.2334e+001 16704 116112,116216,116164
 2.3000e+000 116242 -1.8560e+001 -2.0317e+002 -4.7757e+000 16704 116112,116164,116138
 2.3000e+000 116489 -6.6353e+000 -1.6552e+002 -6.6759e+000 16434 116339,116417,116365
 2.3000e+000 116466 -3.6540e+001 -1.7505e+002 -1.5521e+000 16434 116313,116417,116339
 2.3000e+000 116443 -1.0785e+002 -2.1326e+002  6.8194e+001 16434 116365,116417,116391
 2.3000e+000 116592 -1.8450e+001 -1.7508e+002 -9.5734e+000 15967 116514,116566,116540
 2.3000e+000 116695 -1.7419e+001 -2.5094e+002 -3.5184e+001 15552 116617,116669,116643
 2.3000e+000 116798 -2.7550e+001 -1.5365e+002  0.0000e+000 421 116720,116772,116746
 2.4000e+000 69066  2.5703e+000 -2.5669e+002 -2.0747e+000 68738 68965,69017,68991
 2.4000e+000 69043  3.6151e+001 -1.9983e+002  5.1598e+002 68738 68939,69017,68965
 2.4000e+000 69371 -6.0840e+000 -4.9810e+001 -1.7708e+001 68426 69172,69250,69198
 2.4000e+000 69348  1.1838e+000 -9.3020e+001  6.2418e+000 68426 69146,69250,69172
 2.4000e+000 69325 -3.5131e+000 -1.7098e+001  6.8892e+000 68426 69198,69250,69224
 2.4000e+000 69302 -2.1414e+001 -8.9615e+001  3.0042e+000 68426 69146,69276,69250
 2.4000e+000 69521 -1.1140e+000 -9.3253e+001 -8.1748e+000 68228 69420,69472,69446
 2.4000e+000 69498 -1.1875e+001 -6.5271e+001 -3.5550e+001 68228 69394,69472,69420
 2.4000e+000 69781  2.8268e-001 -1.8401e+000 -2.4300e-001 68030 69631,69683,69657
 2.4000e+000 69758  5.3059e-001 -1.2119e+001 -4.5023e+000 68030 69631,69709,69683
 2.4000e+000 69735 -1.8215e+000  4.3594e+000  8.4490e+000 68030 69605,69709,69631
 2.4000e+000 70078 -8.4967e+000 -3.0265e+001 -1.2672e+001 67832 69882,69934,69908
 2.4000e+000 70055  1.6372e+001 -1.9538e+001 -1.6519e+001 67832 69856,69934,69882
 2.4000e+000 70032  3.5029e+001 -6.0704e+000 -3.3720e+001 67832 69830,69934,69856
 2.4000e+000 70009  9.2838e+000 -6.5643e+001  6.6855e-001 67832 69804,69934,69830
 2.4000e+000 69986 -1.8122e+001 -1.5601e+001  2.5976e+001 67832 69804,69960,69934
 2.4000e+000 70586 -6.9334e+000 -4.1054e+001  7.3084e+000 67634 70609,70419,70341
 2.4000e+000 70563 -4.9391e+000 -6.0284e+001  1.4186e+001 67634 70681,70609,70341
 2.4000e+000 70540 -5.6371e+000 -6.2239e+001  2.0440e+001 67634 70681,70341,70315
 2.4000e+000 70517 -1.5894e+001 -4.2980e+001  1.8516e+001 67634 70341,70419,70367
 2.4000e+000 70494 -4.7980e+000 -5.7646e+000  3.8064e+000 67634 70263,70445,70289
 2.4000e+000 70471 -1.3384e+000 -6.0839e+000  8.2178e+000 67634 70367,70419,70393
 2.4000e+000 70635 -2.1117e+000 -3.4609e+000  5.5323e+000 67634 70445,70419,70609
 2.4000e+000 70658 -1.0654e+001 -4.2722e+001  1.0683e+001 67634 70445,70609,70289
 2.4000e+000 70707 -4.2367e-001 -4.5995e+001  7.2530e+000 67634 70289,70609,70681
 2.4000e+000 70730 -7.3975e+000 -5.2777e+001  1.4483e+001 67634 70289,70681,70315
 2.4000e+000 71108 -1.5421e+001 -6.7282e+001  2.6102e+001 67344 71131,70912,70886
 2.4000e+000 71085 -1.2158e+001 -5.9613e+001  2.6044e+001 67344 71131,70886,70860
 2.4000e+000 71062 -2.0625e+001 -7.0149e+001  2.2270e+001 67344 71203,70938,70912
 2.4000e+000 71039  8.7714e+000 -4.9260e+001  1.5531e+001 67344 70834,70990,70860
 2.4000e+000 71016 -1.6871e+001 -7.8786e+001  8.3034e+000 67344 70938,70990,70964
 2.4000e+000 71157 -2.0629e+001 -6.1253e+001  2.3786e+001 67344 71203,70912,71131
 2.4000e+000 71180 -7.3691e+000 -5.2779e+001  1.3720e+001 67344 70990,71131,70860
 2.4000e+000 71229 -1.7821e+001 -8.5778e+001  1.8753e+001 67344 70990,70938,71203
 2.4000e+000 71252 -1.6853e+001 -7.4159e+001  1.8146e+001 67344 70990,71203,71131
 2.4000e+000 71603  3.0806e+000 -4.6891e+001  6.7068e+000 67032 71378,71482,71404
 2.4000e+000 71580 -1.3532e+000 -2.7203e+001  1.0309e+001 67032 71378,71508,71482
 2.4000e+000 71557  2.9416e+000 -2.6807e+001  1.6883e+001 67032 71404,71456,71430
 2.4000e+000 71534  5.5311e-001 -5.1695e+001  8.1771e+000 67032 71404,71482,71456
 2.4000e+000 72003  1.1040e+001 -3.0481e+001  1.2186e+001 66834 71755,71859,71781
 2.4000e+000 71980  4.2055e+000 -7.4539e+001  5.1335e+000 66834 71755,71885,71859
 2.4000e+000 71957  5.7759e+000 -1.8766e+001  7.9780e+000 66834 71781,71833,71807
 2.4000e+000 71934 -6.9925e+000 -8.6217e+001 -1.5232e+000 66834 71781,71859,71833
 2.4000e+000 71911  1.6908e+001 -3.1169e+001  3.4592e+001 66834 71729,71885,71755
 2.4000e+000 72430  1.6232e+001 -6.5139e+001 -2.7762e+000 66266 72237,72289,72263
 2.4000e+000 72407  1.2754e+001 -7.5771e+001  7.5599e+000 66266 72133,72289,72237
 2.4000e+000 72384 -2.0553e+000 -5.8672e+001  4.6441e+000 66266 72133,72237,72211
 2.4000e+000 72361 -2.0530e+001 -8.9045e+001  4.4270e+000 66266 72107,72289,72133
 2.4000e+000 72338 -2.1886e+001 -1.1101e+002  3.3031e+001 66266 72133,72211,72185
 2.4000e+000 72315 -4.8274e+000 -1.2012e+002  3.3603e+001 66266 72133,72185,72159
 2.4000e+000 72580 -2.1435e+001 -1.3531e+002  1.4466e+001 65968 72479,72531,72505
 2.4000e+000 72557 -1.4060e-001 -8.2097e+001  6.6465e+000 65968 72453,72531,72479
 2.4000e+000 72960  9.0542e+000 -3.2508e+001  1.0493e+001 65621 72983,72738,72712
 2.4000e+000 72937  2.9734e+001 -6.4790e+001  9.8236e+000 65621 72983,72712,72686
 2.4000e+000 72914 -2.8298e+000 -1.1117e+002  1.1410e+001 65621 72738,72842,72764
 2.4000e+000 72891  5.7808e+000 -1.0156e+002  1.4779e+000 65621 72764,72842,72816
 2.4000e+000 72868 -6.9692e+001 -2.8043e+002  4.8463e+001 65621 72764,72816,72790
 2.4000e+000 73009  1.4064e+001 -5.7277e+001  1.5546e+001 65621 72842,72738,72983
 2.4000e+000 73032  1.3368e+001 -1.1714e+002  1.8497e+001 65621 72842,72983,72686
 2.4000e+000 73361  9.5738e-001 -2.0300e+002 -1.0663e+001 65281 73456,73384,73188
 2.4000e+000 73338  2.6385e+001 -1.6344e+002  7.3578e+000 65281 73384,73162,73136
 2.4000e+000 73315 -3.5549e+001 -1.5246e+002 -3.2853e+001 65281 73188,73240,73214
 2.4000e+000 73292 -3.3900e+001 -5.9666e+001 -2.5988e+001 65281 73136,73266,73240
 2.4000e+000 73410 -5.2501e+001 -1.7121e+002 -2.0577e+001 65281 73240,73188,73384
 2.4000e+000 73433 -1.0069e+001 -6.1404e+001  8.3403e-001 65281 73240,73384,73136
 2.4000e+000 73482 -3.6904e+000 -2.3436e+002 -2.5079e+001 65281 73162,73384,73456
 2.4000e+000 73711 -1.7665e+001  2.3811e+001 -4.2135e+001 64820 73734,73610,73584
 2.4000e+000 73688 -1.7410e+001  2.4724e+001 -4.3401e+001 64820 73734,73584,73662
 2.4000e+000 73760 -1.2079e+001  2.8159e+001 -2.7070e+001 64820 73636,73610,73734
 2.4000e+000 73783 -4.9747e+000  2.8043e+001 -4.4403e+001 64820 73806,73734,73662
 2.4000e+000 73832 -2.8529e+001 -1.2685e+001 -2.8510e+001 64820 73636,73734,73806
 2.4000e+000 74112  1.1248e+001 -6.1592e+001 -1.0659e+001 64622 74278,74135,73988
 2.4000e+000 74089  1.2460e+000 -8.7190e+001  4.1977e+000 64622 74135,73936,74040
 2.4000e+000 74066  1.2430e+001 -6.0697e+001 -2.6686e+001 64622 74278,73988,73962
 2.4000e+000 74161 -9.5823e+000 -8.0475e+001 -2.0333e+000 64622 74014,73988,74135
 2.4000e+000 74184  7.2389e-001 -8.4447e+001  2.5564e+000 64622 74207,74135,74040
 2.4000e+000 74233  2.5718e+000 -8.2798e+001 -4.1187e+000 64622 74014,74135,74207
 2.4000e+000 74304 -2.3240e+000 -9.3989e+001  6.1730e-001 64622 73936,74135,74278
 2.4000e+000 74327  8.0071e+000 -8.4738e+001 -1.6984e+001 64622 73936,74278,73962
 2.4000e+000 74526  1.6940e+001 -1.2429e+001  3.5007e+000 64424 74621,74549,74402
 2.4000e+000 74503 -1.1076e+001 -6.6628e+001  9.6308e+000 64424 74549,74350,74454
 2.4000e+000 74480  2.1922e+001  3.0765e+000 -2.1047e+001 64424 74621,74402,74376
 2.4000e+000 74575  4.0614e+001 -5.9756e+001  1.6640e+001 64424 74428,74402,74549
 2.4000e+000 74598  8.8748e+000 -9.0480e+001  1.7088e+001 64424 74693,74549,74454
 2.4000e+000 74647 -3.1487e+000 -5.1600e+001  1.6289e+001 64424 74350,74549,74621
 2.4000e+000 74670  1.6911e+000 -4.2315e+001 -9.1745e+000 64424 74350,74621,74376
 2.4000e+000 74719  6.3718e+000 -1.1167e+002 -1.6240e+000 64424 74428,74549,74693
 2.4000e+000 75123 -4.1763e+001 -2.2028e+002  2.6046e+001 64126 74875,74953,74927
 2.4000e+000 75100 -2.1581e+001 -1.7695e+002  2.0784e+001 64126 74875,74979,74953
 2.4000e+000 75077 -9.7552e+000 -1.4299e+002  8.7134e+000 64126 74875,75005,74979
 2.4000e+000 75054 -2.4908e+001 -3.0970e+002  5.4627e+001 64126 74875,74927,74901
 2.4000e+000 75031 -2.3606e+001 -5.6876e+001  4.5377e+001 64126 74849,75005,74875
 2.4000e+000 75224  1.2268e+001 -1.3240e+002  1.9803e+001 63836 75146,75198,75172
 2.4000e+000 75472 -6.5137e+000 -9.1889e+001  2.3804e+001 63375 75273,75351,75325
 2.4000e+000 75449 -1.7886e+001 -8.8417e+001  1.3159e+001 63375 75273,75377,75351
 2.4000e+000 75426 -1.4573e+001 -9.3353e+001  8.6109e+000 63375 75247,75377,75273
 2.4000e+000 75403  2.7146e+000 -5.0770e+001  2.4929e+001 63375 75273,75325,75299
 2.4000e+000 75673  1.7472e+001 -8.9141e+001  1.5102e+001 63063 75523,75575,75549
 2.4000e+000 75650  1.5551e+001 -1.1823e+002  6.5267e-001 63063 75497,75575,75523
 2.4000e+000 75627  9.2468e+000 -1.2809e+002  1.6297e+001 63063 75497,75601,75575
 2.4000e+000 75874  2.0346e+001 -1.6762e+002 -9.7822e+000 62716 75897,75750,75724
 2.4000e+000 75851  1.1828e+000 -1.3900e+002 -2.4393e+000 62716 75897,75724,75698
 2.4000e+000 75828  9.0492e+000 -9.8126e+001 -3.9950e+001 62716 75698,75802,75776
 2.4000e+000 75923  4.9207e+001 -1.3392e+002 -2.4283e+001 62716 75776,75750,75897
 2.4000e+000 75946  9.4939e+000 -1.2444e+002 -7.0384e+000 62716 75776,75897,75698
 2.4000e+000 76328 -1.4220e+001 -1.4849e+002 -1.3214e+001 62198 76495,76351,76158
 2.4000e+000 76305 -3.4564e+001 -1.4933e+002 -2.9865e+000 62198 76351,76080,76054
 2.4000e+000 76282 -5.0023e+000 -1.9713e+002 -1.8688e+001 62198 76423,76184,76158
 2.4000e+000 76259 -1.9638e+001 -1.4822e+002 -1.0985e+001 62198 76495,76158,76106
 2.4000e+000 76236 -4.4485e+001 -1.7201e+002 -3.3137e-001 62198 76106,76158,76132
 2.4000e+000 76377 -1.9694e+001 -1.6075e+002 -2.1883e+001 62198 76423,76158,76351
 2.4000e+000 76400 -2.5146e+001 -1.1667e+002 -1.4209e+001 62198 76210,76351,76054
 2.4000e+000 76449  1.2307e+001 -1.6091e+002 -2.5337e+001 62198 76210,76184,76423
 2.4000e+000 76472 -2.7669e+000 -1.3123e+002 -3.1442e+001 62198 76210,76423,76351
 2.4000e+000 76521 -2.4909e+001 -1.4169e+002 -7.4149e+000 62198 76080,76351,76495
 2.4000e+000 76544 -3.8796e+001 -1.5184e+002 -2.0602e+000 62198 76080,76495,76106
 2.4000e+000 76841 -9.4597e-001 -1.4226e+002  1.1833e+000 61751 76936,76864,76645
 2.4000e+000 76818  5.5859e+001 -1.0971e+002 -4.8252e+001 61751 76864,76567,76723
 2.4000e+000 76795  5.7496e+000 -1.0760e+002  7.4389e-001 61751 76936,76645,76593
 2.4000e+000 76772 -1.3126e+002 -2.8191e+002  5.6460e+001 61751 77008,76697,76671
 2.4000e+000 76749 -1.0091e+001 -7.9842e+001 -2.8705e+001 61751 76593,76645,76619
 2.4000e+000 76890 -1.1189e+001 -1.7299e+002  2.3995e+001 61751 76671,76645,76864
 2.4000e+000 76913 -2.8997e+001 -1.7196e+002  1.3421e+001 61751 77008,76671,76864
 2.4000e+000 76962  1.3983e+001 -1.8822e+002 -1.6209e+001 61751 76567,76864,76936
 2.4000e+000 76985  1.8763e+001 -1.5878e+002 -1.2819e+001 61751 76567,76936,76593
 2.4000e+000 77034  1.4500e+001 -1.9551e+002 -2.1230e+001 61751 76723,76697,77008
 2.4000e+000 77057  1.1387e+001 -2.1519e+002 -2.0307e+001 61751 76723,77008,76864
 2.4000e+000 77207  3.7956e+000 -7.6929e+001  2.8712e+001 61418 77106,77158,77132
 2.4000e+000 77184  2.4886e+001 -1.1842e+002  3.0978e+001 61418 77080,77158,77106
 2.4000e+000 77638 -2.8139e+001 -1.6185e+002 -2.1185e+001 60814 77733,77661,77471
 2.4000e+000 77615 -2.7020e+000 -1.5915e+002 -2.2130e+001 60814 77661,77393,77315
 2.4000e+000 77592 -4.6430e+001 -1.3393e+002 -7.9905e+000 60814 77733,77471,77445
 2.4000e+000 77569 -4.0137e+001 -2.3819e+002 -2.6450e+001 60814 77315,77367,77341
 2.4000e+000 77546 -3.7450e+001 -2.5573e+002 -1.2412e+001 60814 77315,77393,77367
 2.4000e+000 77523 -4.0467e+001 -1.1802e+002 -6.7046e-001 60814 77393,77445,77419
 2.4000e+000 77687 -8.7749e+000 -1.5393e+002 -1.6340e+001 60814 77497,77471,77661
 2.4000e+000 77710 -2.4900e+001 -1.9058e+002 -2.3996e+000 60814 77497,77661,77315
 2.4000e+000 77759 -7.4174e+000 -1.2395e+002 -3.0572e+001 60814 77393,77661,77733
 2.4000e+000 77782 -3.2758e+001 -1.0549e+002 -1.3439e+001 60814 77393,77733,77445
 2.4000e+000 78337  2.7923e+001 -8.6853e+001  2.8845e+000 60210 78360,78017,77965
 2.4000e+000 78314  1.3035e+000 -9.6170e+001  1.7387e+001 60210 78360,77965,78173
 2.4000e+000 78291 -2.3419e+001 -1.0277e+002 -1.1509e+001 60210 78432,78043,78017
 2.4000e+000 78268  8.3241e+000 -1.0346e+002 -1.4267e+001 60210 77965,78017,77991
 2.4000e+000 78245 -1.3482e+001 -7.9299e+001  1.0381e+001 60210 78043,78095,78069
 2.4000e+000 78222 -5.5398e+001 -1.5858e+002  4.4474e+001 60210 78095,78173,78121
 2.4000e+000 78199 -2.4595e+001 -1.0764e+002 -8.4312e+000 60210 78121,78173,78147
 2.4000e+000 78386 -7.9000e+000 -9.3503e+001 -1.7466e+000 60210 78432,78017,78360
 2.4000e+000 78409  1.1487e+000 -7.7880e+001  1.6597e+001 60210 78095,78360,78173
 2.4000e+000 78458 -1.0887e+001 -8.8649e+001  7.8958e+000 60210 78095,78043,78432
 2.4000e+000 78481 -2.3202e-001 -7.9400e+001  1.7426e+001 60210 78095,78432,78360
 2.4000e+000 78680 -2.8920e+001 -1.2518e+002 -3.7608e+000 59848 78703,78556,78530
 2.4000e+000 78657 -3.2378e+001 -1.3291e+002 -1.0567e+001 59848 78703,78530,78504
 2.4000e+000 78634 -3.0797e+001 -1.4990e+002 -1.1725e+001 59848 78504,78608,78582
 2.4000e+000 78729 -1.9972e+001 -1.3952e+002 -4.9690e+000 59848 78582,78556,78703
 2.4000e+000 78752 -2.6560e+001 -1.4449e+002 -1.4285e+001 59848 78582,78703,78504
 2.4000e+000 78951 -2.3091e+001 -7.5143e+001 -1.1391e+001 59344 78974,78801,78775
 2.4000e+000 78928 -3.5778e+001 -1.0873e+002 -2.0723e+001 59344 79046,78974,78775
 2.4000e+000 78905 -3.3548e+001 -1.2984e+002 -1.9758e+001 59344 79046,78775,78879
 2.4000e+000 79000 -6.5171e+000 -6.0709e+001  1.8198e+001 59344 78827,78801,78974
 2.4000e+000 79023 -3.0315e+001 -8.9877e+001  1.5407e+000 59344 78827,78974,78853
 2.4000e+000 79072 -3.9520e+001 -8.4350e+001 -1.2420e+001 59344 78853,78974,79046
 2.4000e+000 79095 -3.0896e+001 -9.7925e+001 -1.0289e+001 59344 78853,79046,78879
 2.4000e+000 79296  1.6090e+001 -1.5210e+002 -1.0482e+001 58711 79319,79172,79146
 2.4000e+000 79273  2.4478e+001 -1.3237e+002 -3.5247e+000 58711 79319,79146,79120
 2.4000e+000 79250  4.9494e+000 -1.4074e+002  2.6900e+001 58711 79172,79224,79198
 2.4000e+000 79345  5.8033e+000 -1.2980e+002 -1.0595e+001 58711 79224,79172,79319
 2.4000e+000 79368  9.4571e+000 -1.1392e+002 -6.7840e+000 58711 79224,79319,79120
 2.4000e+000 79667  8.8334e+000 -9.0155e+001 -5.6384e+000 58285 79690,79471,79393
 2.4000e+000 79644  1.1073e+001 -1.1058e+002 -1.4326e+001 58285 79690,79393,79549
 2.4000e+000 79621  3.5823e+001 -1.3160e+002  2.2107e+001 58285 79393,79471,79419
 2.4000e+000 79598  1.5538e+001 -7.9969e+001  1.3133e+000 58285 79497,79549,79523
 2.4000e+000 79575 -3.1302e+001 -2.5761e+002  5.2610e+001 58285 79419,79471,79445
 2.4000e+000 79716  1.1877e+001 -7.1397e+001  5.3371e+000 58285 79497,79471,79690
 2.4000e+000 79739  1.3151e+001 -1.0057e+002 -4.0004e-001 58285 79497,79690,79549
 2.4000e+000 80249  1.8967e+001 -3.6253e+001 -2.1042e+000 57831 80272,79978,79952
 2.4000e+000 80226  4.3024e+000 -3.8624e+001 -6.9237e+000 57831 80272,79952,80108
 2.4000e+000 80203  5.1858e+000 -7.7462e+001 -2.6305e+001 57831 79926,80108,79952
 2.4000e+000 80180 -1.0202e+001 -6.1703e+001 -8.0820e+000 57831 80004,80082,80030
 2.4000e+000 80157 -1.3699e+001 -4.7644e+001 -1.5114e+001 57831 80004,80108,80082
 2.4000e+000 80134 -5.5228e+000 -5.3279e+001 -1.0169e+001 57831 80030,80082,80056
 2.4000e+000 80298  1.5053e+001 -3.7045e+001 -1.8141e+001 57831 80004,79978,80272
 2.4000e+000 80321 -6.9761e+000 -3.7494e+001 -1.8866e+001 57831 80004,80272,80108
 2.4000e+000 80618 -3.5782e+001 -1.5288e+002  2.0359e+001 57077 80344,80448,80422
 2.4000e+000 80595 -5.3643e+000 -1.3466e+002  1.0085e+001 57077 80344,80500,80448
 2.4000e+000 80572 -4.1468e+000 -9.8484e+001  3.2134e-001 57077 80344,80422,80370
 2.4000e+000 80549 -3.5062e+001 -8.9647e+001  7.9317e+000 57077 80370,80422,80396
 2.4000e+000 80526 -4.3403e+001 -2.2184e+002  2.9581e+001 57077 80448,80500,80474
 2.4000e+000 80768 -2.8839e-001 -5.2592e+001  1.2921e+000 56787 80791,80693,80667
 2.4000e+000 80745 -1.1255e+001 -5.1957e+001  6.5705e+000 56787 80791,80667,80641
 2.4000e+000 80817  7.6130e+000 -5.1426e+001 -5.8853e+000 56787 80719,80693,80791
 2.4000e+000 80840 -1.7670e+001 -4.2592e+001 -8.6645e+000 56787 80719,80791,80641
 2.4000e+000 81429 -3.1776e+001 -6.2530e+001  9.0666e+000 56497 81452,81158,81132
 2.4000e+000 81406 -7.5921e+000 -4.6345e+001  2.2439e-001 56497 81452,81132,81288
 2.4000e+000 81383 -2.3734e+001 -7.4413e+001  7.2963e+000 56497 81524,81184,81158
 2.4000e+000 81360 -1.5782e+001 -1.6252e+002  3.6560e+001 56497 81210,81288,81236
 2.4000e+000 81337 -4.1670e-001 -3.2950e+001  1.4841e+001 56497 81106,81288,81132
 2.4000e+000 81314 -3.8678e+001 -5.1158e+001  1.9880e+001 56497 81236,81288,81262
 2.4000e+000 81478 -1.4918e+001 -6.3776e+001  1.2328e-001 56497 81524,81158,81452
 2.4000e+000 81501  2.0588e+001 -6.4831e+001  4.7228e+000 56497 81210,81452,81288
 2.4000e+000 81550 -2.5259e+001 -8.5728e+001  2.1080e+001 56497 81210,81184,81524
 2.4000e+000 81573 -1.4628e+001 -7.9325e+001  1.3575e+001 56497 81210,81524,81452
 2.4000e+000 81870 -1.3344e+001 -7.2204e+001  5.0503e+000 55979 81893,81674,81648
 2.4000e+000 81847 -1.8104e+001 -7.5086e+001  2.3475e+000 55979 81893,81648,81752
 2.4000e+000 81824 -1.5894e+001 -8.3807e+001  3.0023e+000 55979 81596,81752,81648
 2.4000e+000 81801 -1.0494e+001 -4.9930e+001 -5.1326e+000 55979 81674,81726,81700
 2.4000e+000 81778 -9.9925e+000 -6.9070e+001 -7.8630e-001 55979 81596,81648,81622
 2.4000e+000 81919 -1.0731e+001 -7.5291e+001  4.5429e-001 55979 81726,81674,81893
 2.4000e+000 81942 -1.7971e+001 -7.9920e+001 -2.6224e+000 55979 81726,81893,81752
 2.4000e+000 82371 -4.3216e+001 -7.6945e+001 -1.5369e+001 55631 82100,82204,82152
 2.4000e+000 82348 -1.8297e+001 -1.1121e+002 -3.0183e+001 55631 82100,82230,82204
 2.4000e+000 82325 -3.7376e+001 -8.4727e+001  7.0839e+000 55631 82100,82152,82126
 2.4000e+000 82302 -5.4998e+001 -1.9514e+002 -2.4818e+001 55631 82074,82230,82100
 2.4000e+000 82279 -5.6737e+001 -1.0697e+002 -1.2243e+001 55631 82152,82204,82178
 2.4000e+000 82256 -2.9679e+000 -9.6222e+001 -1.5530e+000 55631 82048,82230,82074
 2.4000e+000 82521  4.7716e+001 -6.1657e+001 -6.1402e+000 55227 82544,82420,82394
 2.4000e+000 82498  4.0294e+001 -7.8682e+001 -2.0439e+000 55227 82544,82394,82472
 2.4000e+000 82570  3.4641e+001 -4.2676e+001 -6.5357e+000 55227 82446,82420,82544
 2.4000e+000 82593  2.2582e+001 -6.0107e+001  1.8446e+000 55227 82446,82544,82472
 2.4000e+000 82875  1.3233e+001  4.9229e+000  8.6554e+000 54979 82699,82777,82725
 2.4000e+000 82852  9.0949e+000 -3.7268e+001  1.3581e+001 54979 82699,82803,82777
 2.4000e+000 82829 -1.8309e+000 -6.5378e+000  3.5828e+000 54979 82725,82777,82751
 2.4000e+000 83204 -1.9311e+001 -5.1502e+001 -9.7699e+000 54475 83005,83083,83057
 2.4000e+000 83181 -1.1185e+001 -4.7160e+001 -1.1393e+001 54475 82979,83083,83005
 2.4000e+000 83158 -9.2178e+000 -6.6204e+001 -1.7671e+001 54475 83005,83057,83031
 2.4000e+000 83135 -2.1777e+001 -7.2258e+001  7.5501e-002 54475 82979,83109,83083
 2.4000e+000 83582 -2.3287e+001 -7.5219e+001  9.0981e-001 54071 83605,83438,83412
 2.4000e+000 83559 -2.6096e+001 -7.9593e+001  2.7642e+000 54071 83749,83605,83412
 2.4000e+000 83536 -3.6828e+001 -9.8178e+001  1.9509e+001 54071 83677,83360,83334
 2.4000e+000 83513 -2.3081e+001 -8.3320e+001  2.0831e+000 54071 83749,83412,83677
 2.4000e+000 83490 -2.8045e+001 -7.8007e+001 -1.8141e+000 54071 83308,83464,83334
 2.4000e+000 83631 -2.9475e+001 -7.7240e+001 -3.1964e-001 54071 83464,83438,83605
 2.4000e+000 83654 -2.5412e+001 -7.0862e+001  2.5503e+000 54071 83464,83605,83334
 2.4000e+000 83703 -1.5023e+001 -8.0607e+001  8.7116e+000 54071 83386,83360,83677
 2.4000e+000 83726 -1.7149e+001 -7.2283e+001 -3.6291e+000 54071 83386,83677,83412
 2.4000e+000 83775 -2.1748e+001 -7.3700e+001  5.2147e+000 54071 83334,83605,83749
 2.4000e+000 83798 -1.8456e+001 -7.7505e+001  4.7098e+000 54071 83334,83749,83677
 2.4000e+000 84068 -1.1826e+001 -1.7939e+001 -9.4763e+000 53524 83869,83921,83895
 2.4000e+000 84045 -1.9607e+000 -5.7135e+001  5.7768e-001 53524 83869,83947,83921
 2.4000e+000 84022 -1.5048e+001 -7.4088e+001 -5.3611e+000 53524 83843,83947,83869
 2.4000e+000 83999  1.3043e+001 -6.8153e+001 -6.5175e+000 53524 83843,83973,83947
 2.4000e+000 84497 -3.4942e+001 -1.5529e+002 -3.7116e+000 53184 84200,84330,84252
 2.4000e+000 84474 -1.9695e+001 -1.0058e+002  1.1470e+001 53184 84200,84356,84330
 2.4000e+000 84451  5.4289e+000 -1.3104e+002  1.4916e+001 53184 84200,84252,84226
 2.4000e+000 84428 -1.1156e+001 -1.0820e+002 -4.6553e+001 53184 84252,84330,84278
 2.4000e+000 84405 -1.4555e+001 -9.3019e+001 -3.8858e-001 53184 84174,84356,84200
 2.4000e+000 84382  4.5622e-001 -1.1120e+002 -8.0271e+000 53184 84278,84330,84304
 2.4000e+000 84954  1.5813e+001 -7.7184e+001  4.2882e+001 52680 84706,84836,84784
 2.4000e+000 84931 -9.8801e+000 -5.6700e+001 -5.3345e+001 52680 84680,84836,84706
 2.4000e+000 84908 -5.5947e+000 -2.6435e+002 -1.9914e+000 52680 84784,84836,84810
 2.4000e+000 84885  1.0749e+001 -2.9646e+002 -1.6199e+000 52680 84706,84784,84732
 2.4000e+000 84862  4.0209e+001 -2.3377e+002 -6.6481e+001 52680 84732,84784,84758
 2.4000e+000 85202  3.5726e-001 -1.3763e+002  5.1046e+000 52226 85029,85081,85055
 2.4000e+000 85179 -3.7023e+001 -1.2937e+002  1.8687e+000 52226 85225,85081,85029
 2.4000e+000 85156 -2.8232e+001 -1.0812e+002  9.5580e+000 52226 85225,85029,85003
 2.4000e+000 85133 -4.5912e+001 -1.0465e+002 -2.6150e+001 52226 84977,85107,85003
 2.4000e+000 85251 -4.4754e+001 -1.3256e+002 -2.2070e+001 52226 85107,85081,85225
 2.4000e+000 85274 -3.5442e+001 -8.2318e+001 -1.9136e+001 52226 85107,85225,85003
 2.4000e+000 85522  3.5367e+001 -8.2518e+001 -1.2773e+001 51764 85297,85349,85323
 2.4000e+000 85499  2.4724e+001 -9.8117e+001  1.9317e+000 51764 85545,85297,85427
 2.4000e+000 85476  3.7340e+000 -7.0208e+001 -8.9008e+000 51764 85545,85427,85375
 2.4000e+000 85453  4.5630e+000 -6.3933e+001 -7.2067e+000 51764 85375,85427,85401
 2.4000e+000 85571  3.1568e+001 -8.1462e+001 -1.0588e+001 51764 85349,85297,85545
 2.4000e+000 85594  2.1689e+001 -4.3333e+001 -2.3635e+001 51764 85349,85545,85375
 2.4000e+000 85746 -4.5611e+001 -1.0511e+002  4.5324e+000 51374 85645,85697,85671
 2.4000e+000 85723 -5.0176e+001 -9.6791e+001 -4.0894e+000 51374 85619,85697,85645
 2.4000e+000 86256 -2.2983e+000 -4.0979e+001  7.7473e+000 50970 86279,86011,85959
 2.4000e+000 86233  8.0090e+000 -1.9893e+001  1.1607e+000 50970 86279,85959,86115
 2.4000e+000 86210 -1.3032e+001 -6.5769e+001  8.8696e+000 50970 85959,86011,85985
 2.4000e+000 86187  2.4579e+001 -5.2299e+001  1.5550e+001 50970 86037,86115,86089
 2.4000e+000 86164  2.7681e+001 -8.6911e+000  2.4447e+001 50970 85933,86115,85959
 2.4000e+000 86141 -2.4366e+001 -7.3291e+001 -4.9656e+000 50970 86037,86089,86063
 2.4000e+000 86305  1.4910e+001 -6.9449e+001  8.6605e+000 50970 86037,86011,86279
 2.4000e+000 86328  2.7224e+001 -4.6055e+001  1.4095e+000 50970 86037,86279,86115
 2.4000e+000 86478 -3.5720e+001 -1.9904e+002  1.8683e+001 50451 86351,86403,86377
 2.4000e+000 86455 -1.1161e+002 -6.1853e+002 -2.9753e+000 50451 86351,86429,86403
 2.4000e+000 86907 -3.8301e+001 -1.0025e+002 -1.2104e+001 50047 86930,86714,86662
 2.4000e+000 86884 -2.2391e+001 -1.1270e+002 -1.0900e+001 50047 86930,86662,86610
 2.4000e+000 86861 -9.3942e+000 -1.2918e+002 -2.5287e+001 50047 87002,86740,86714
 2.4000e+000 86838  1.2688e+000 -8.4204e+001 -3.9797e+000 50047 86662,86714,86688
 2.4000e+000 86815 -2.5086e+001 -1.1863e+002 -1.0293e+001 50047 86610,86662,86636
 2.4000e+000 86792  1.4363e+000 -1.0257e+002  6.3980e+000 50047 86584,86766,86610
 2.4000e+000 86956 -2.6585e+001 -1.0677e+002 -1.2119e+001 50047 87002,86714,86930
 2.4000e+000 86979 -4.3831e+001 -1.2364e+002 -5.1882e+000 50047 86766,86930,86610
 2.4000e+000 87028 -4.0917e+001 -1.1517e+002 -2.9333e+001 50047 86766,86740,87002
 2.4000e+000 87051 -4.9886e+001 -1.1158e+002 -1.9660e+001 50047 86766,87002,86930
 2.4000e+000 87250 -9.9307e+000 -1.3673e+002 -2.6267e+001 49543 87273,87126,87100
 2.4000e+000 87227 -1.0549e+001 -1.1697e+002 -1.1974e+001 49543 87273,87100,87074
 2.4000e+000 87204 -2.1256e+001 -1.0769e+002 -3.4143e+001 49543 87126,87178,87152
 2.4000e+000 87299 -5.0041e-001 -1.0721e+002 -2.6032e+001 49543 87178,87126,87273
 2.4000e+000 87322 -8.1148e+000 -1.0358e+002 -8.8920e+000 49543 87178,87273,87074
 2.4000e+000 87570 -3.9358e+001 -8.9995e+001  1.5658e+001 49146 87593,87449,87397
 2.4000e+000 87547 -3.6734e+001 -8.4408e+001  1.4434e+001 49146 87593,87397,87371
 2.4000e+000 87524 -4.1429e+001 -5.3151e+001  2.0220e+001 49146 87345,87475,87371
 2.4000e+000 87501 -1.7370e+001 -8.8580e+001  1.7878e+001 49146 87397,87449,87423
 2.4000e+000 87619 -3.7808e+001 -8.7004e+001  1.1952e+001 49146 87475,87449,87593
 2.4000e+000 87642 -3.6895e+001 -8.4070e+001  1.0967e+001 49146 87475,87593,87371
 2.4000e+000 88073  3.2267e+001 -5.4737e+001 -1.9874e+001 48706 87854,87932,87880
 2.4000e+000 88050  7.4246e+000 -5.7689e+001  2.1715e+000 48706 87828,87932,87854
 2.4000e+000 88027  1.0601e+001 -6.2931e+001  4.5040e+000 48706 87750,87932,87828
 2.4000e+000 88004  5.1103e+000 -8.6281e+001 -4.0656e+001 48706 87750,87802,87776
 2.4000e+000 87981  1.3068e+001 -1.2368e+002 -2.9454e+001 48706 87750,87828,87802
 2.4000e+000 87958  7.7208e-001 -6.7159e+001 -1.9844e+001 48706 87880,87932,87906
 2.4000e+000 88402 -2.4409e+001 -1.4215e+002 -7.0815e+000 48145 88203,88281,88255
 2.4000e+000 88379 -4.0484e+001 -1.4577e+002  4.4766e+000 48145 88203,88307,88281
 2.4000e+000 88356 -2.6498e+001 -1.1322e+002 -1.1223e+001 48145 88203,88255,88229
 2.4000e+000 88333 -2.5860e+001 -1.4278e+002  2.1703e+001 48145 88177,88307,88203
 2.4000e+000 88601  2.9393e+001 -1.2113e+002  4.3227e+001 47805 88696,88624,88477
 2.4000e+000 88578 -3.0881e+001 -1.1541e+002  1.4770e+001 47805 88826,88624,88451
 2.4000e+000 88555 -4.0169e+001 -1.1881e+002  1.5472e+001 47805 88826,88451,88425
 2.4000e+000 88650  1.3171e+001 -1.5332e+002  1.6655e+001 47805 88503,88477,88624
 2.4000e+000 88673 -9.8520e+000 -1.4141e+002  2.9826e+000 47805 88503,88624,88529
 2.4000e+000 88722 -5.4112e+001 -1.4569e+002  2.9599e+001 47805 88451,88624,88696
 2.4000e+000 88852 -2.6438e+001 -1.1650e+002  3.6035e+000 47805 88529,88624,88826
 2.4000e+000 88875 -3.6526e+001 -1.2039e+002  4.3852e+000 47805 88529,88826,88425
 2.4000e+000 89172  2.6076e+001 -6.5091e+001 -2.1775e+001 47401 89195,88976,88898
 2.4000e+000 89149  2.4143e+001 -6.1938e+001 -4.8304e+001 47401 89195,88898,89054
 2.4000e+000 89126  2.4342e+001 -5.6787e+001 -2.4013e+001 47401 88898,88976,88950
 2.4000e+000 89103 -5.7915e+000 -9.5501e+001 -2.5605e+001 47401 88976,89028,89002
 2.4000e+000 89080  2.1243e+001 -5.2588e+001 -8.1435e-001 47401 88898,88950,88924
 2.4000e+000 89221  1.2549e+001 -9.5237e+001 -1.9086e+001 47401 89028,88976,89195
 2.4000e+000 89244  1.5009e+001 -8.4458e+001 -4.7777e+001 47401 89028,89195,89054
 2.4000e+000 89575 -1.1973e+000 -1.6802e+002  1.8567e+001 47111 89350,89454,89376
 2.4000e+000 89552  1.9775e+001 -1.4986e+002  1.0324e+001 47111 89350,89480,89454
 2.4000e+000 89529  2.1387e+001 -1.8933e+002 -7.3463e+000 47111 89376,89454,89402
 2.4000e+000 89506  6.2721e+001 -1.0021e+002  4.2129e+000 47111 89402,89454,89428
 2.4000e+000 89904  2.9505e+001 -7.1100e+001 -1.1669e+001 46707 89705,89757,89731
 2.4000e+000 89881 -1.4476e+001 -9.8063e+001 -3.1340e-001 46707 89705,89783,89757
 2.4000e+000 89858 -3.5351e+001 -1.0240e+002  1.1583e+001 46707 89679,89783,89705
 2.4000e+000 89835 -5.7380e+000 -9.4363e+001 -3.6958e+000 46707 89679,89809,89783
 2.4000e+000 90233  2.5981e+000 -8.2335e+001 -1.6446e+001 46360 90034,90112,90086
 2.4000e+000 90210 -2.3232e+001 -7.8706e+001 -6.4858e+000 46360 90034,90138,90112
 2.4000e+000 90187 -9.5431e+000 -8.3223e+001 -1.4440e+001 46360 90034,90086,90060
 2.4000e+000 90164 -2.2150e+001 -9.7046e+001  4.2614e+000 46360 90008,90138,90034
 2.4000e+000 90530 -6.6534e+000 -8.6005e+001 -1.4844e+001 45662 90256,90360,90308
 2.4000e+000 90507 -1.6686e+001 -1.1142e+002 -3.5500e-002 45662 90256,90412,90360
 2.4000e+000 90484  1.2420e+000 -1.1130e+002 -2.2367e+001 45662 90256,90308,90282
 2.4000e+000 90461  7.4432e-001 -5.7108e+001  6.3682e+000 45662 90360,90412,90386
 2.4000e+000 90438 -4.3070e+001 -7.3532e+001 -5.6601e+000 45662 90308,90360,90334
 2.4000e+000 90910 -3.0982e+001 -8.1663e+001 -1.1399e+001 45108 90688,90766,90714
 2.4000e+000 90887 -7.7311e+000 -8.8088e+001  7.9453e+000 45108 90662,90766,90688
 2.4000e+000 90864 -4.1868e+001 -9.1183e+001  7.6285e+000 45108 90636,90766,90662
 2.4000e+000 90841  3.0774e+000 -1.2402e+002 -3.8742e+001 45108 90714,90766,90740
 2.4000e+000 90818 -3.9997e+001 -1.0491e+002  1.4294e+001 45108 90636,90792,90766
 2.4000e+000 91158 -2.4914e+001 -8.8721e+001 -1.5845e+001 44604 91181,91011,90959
 2.4000e+000 91135 -3.3267e+001 -1.0109e+002 -2.4941e+001 44604 91181,90959,90933
 2.4000e+000 91112 -2.5543e+001 -1.0403e+002 -6.5948e+000 44604 90959,91011,90985
 2.4000e+000 91089 -2.5702e+000 -1.3452e+002 -1.5855e+001 44604 90933,91063,91037
 2.4000e+000 91207 -1.0372e+001 -1.0793e+002 -2.7590e+001 44604 91037,91011,91181
 2.4000e+000 91230 -3.0276e+001 -1.3836e+002 -3.8010e+001 44604 91037,91181,90933
 2.4000e+000 91429  1.4989e+001 -1.2898e+002 -1.0666e+001 44264 91452,91279,91253
 2.4000e+000 91406  1.4041e+001 -1.2931e+002 -1.0267e+001 44264 91452,91253,91357
 2.4000e+000 91383 -2.6006e+001 -1.1516e+002  2.1407e+001 44264 91279,91331,91305
 2.4000e+000 91478  1.3929e+001 -1.2791e+002 -1.0967e+001 44264 91331,91279,91452
 2.4000e+000 91501  1.2440e+001 -1.2857e+002 -1.0620e+001 44264 91331,91452,91357
 2.4000e+000 92060 -8.7193e+001 -1.6312e+002  3.7143e-001 43860 92083,91740,91688
 2.4000e+000 92037 -4.9140e+001 -1.6762e+002  1.5111e+001 43860 92083,91688,91896
 2.4000e+000 92014 -7.1146e+001 -1.9735e+002  7.0632e+000 43860 91766,91870,91844
 2.4000e+000 91991 -4.8359e+001 -1.5844e+002  1.6572e+001 43860 91740,91870,91766
 2.4000e+000 91968 -3.4049e+000 -1.7469e+002  7.5242e+000 43860 91766,91844,91792
 2.4000e+000 91945 -7.2725e+001 -1.7569e+002 -1.9353e+001 43860 91688,91740,91714
 2.4000e+000 91922 -2.3993e+001 -1.9446e+002 -5.3430e-001 43860 91792,91844,91818
 2.4000e+000 92109 -5.4907e+001 -1.5807e+002  1.7998e+001 43860 91870,91740,92083
 2.4000e+000 92132 -1.4781e+001 -1.5644e+002  3.5320e+001 43860 91870,92083,91896
 2.4000e+000 92353  2.2078e+001 -1.1060e+002 -2.0277e+001 43662 92203,92255,92229
 2.4000e+000 92330 -8.9757e+000 -1.1504e+002 -5.5964e+000 43662 92376,92203,92281
 2.4000e+000 92307  2.1815e+001 -6.8066e+001  7.8741e+000 43662 92177,92281,92203
 2.4000e+000 92402 -4.7850e+001 -1.3159e+002 -7.9163e-001 43662 92255,92203,92376
 2.4000e+000 92682  1.6611e+001 -1.5653e+002 -2.3389e+001 43464 92532,92584,92558
 2.4000e+000 92659  1.6623e+001 -1.1859e+002 -9.9257e+000 43464 92506,92584,92532
 2.4000e+000 92636 -4.6106e+000 -1.1945e+002 -1.8194e+001 43464 92506,92610,92584
 2.4000e+000 93013  2.6949e+001 -1.1501e+002 -3.0496e+001 42960 92866,92918,92892
 2.4000e+000 92990 -1.8234e+000 -1.2484e+002 -7.7859e+000 42960 93036,92918,92866
 2.4000e+000 92967  1.4512e+001 -1.3722e+002  1.6788e-001 42960 93036,92866,92840
 2.4000e+000 92944  3.2049e+000 -1.1631e+002  2.3214e+000 42960 92788,92918,92814
 2.4000e+000 93062  7.0527e+000 -1.2332e+002 -3.7301e-001 42960 92814,92918,93036
 2.4000e+000 93085  4.0595e+001 -1.2182e+002  9.5377e+000 42960 92814,93036,92840
 2.4000e+000 93186 -4.0006e+001 -1.1139e+002 -1.2765e+001 42556 93108,93160,93134
 2.4000e+000 93554 -4.2566e+001 -1.5793e+002  1.3152e+000 42052 93231,93387,93361
 2.4000e+000 93531 -4.6879e+001 -1.4725e+002  2.2965e+001 42052 93231,93413,93387
 2.4000e+000 93508 -6.1852e+001 -1.5256e+002  4.7888e+000 42052 93231,93361,93257
 2.4000e+000 93485 -2.4524e+001 -1.2545e+002  1.8071e+001 42052 93283,93361,93335
 2.4000e+000 93462 -4.1981e+001 -1.4125e+002  9.4859e+000 42052 93257,93361,93283
 2.4000e+000 93439  1.0529e+001 -1.0669e+002 -4.6469e-001 42052 93283,93335,93309
 2.4000e+000 94162  9.8743e+000 -7.9298e+001 -5.2996e+000 41498 93767,93975,93793
 2.4000e+000 94139 -4.0776e-001 -8.1948e+001  4.8518e+000 41498 93741,93975,93767
 2.4000e+000 94116 -4.0129e+000 -7.8545e+001 -6.6092e+000 41498 93793,93975,93923
 2.4000e+000 94093 -8.5461e+000 -8.9138e+001 -5.7067e+000 41498 93923,93975,93949
 2.4000e+000 94070 -2.2348e+001 -4.9509e+001 -3.1696e+001 41498 93871,93923,93897
 2.4000e+000 94047  2.2930e+001 -5.7065e+001 -1.9365e+001 41498 93793,93923,93871
 2.4000e+000 94024  1.4851e+001 -5.8032e+001  2.4042e+000 41498 93819,93871,93845
 2.4000e+000 94001 -1.0754e+001 -6.6696e+001  8.7392e-001 41498 93793,93871,93819
 2.4000e+000 94619 -2.7140e+001 -1.1828e+002 -3.2163e+001 40930 94642,94423,94371
 2.4000e+000 94596 -5.2737e+000 -1.2026e+002 -2.1298e+000 40930 94642,94371,94345
 2.4000e+000 94573  8.5464e+000 -4.8815e+001  1.2497e+000 40930 94345,94501,94475
 2.4000e+000 94550  1.8115e+001 -1.2335e+002 -4.6290e+001 40930 94371,94423,94397
 2.4000e+000 94527  9.8844e+000 -6.0196e+001 -2.1548e+001 40930 94423,94475,94449
 2.4000e+000 94668 -3.8282e+000 -6.8937e+001 -2.5494e+001 40930 94475,94423,94642
 2.4000e+000 94691  3.5937e+000 -1.0069e+002  3.6224e-001 40930 94475,94642,94345
 2.4000e+000 95148 -6.3973e+001 -1.4677e+002  3.3600e+001 40362 95171,94952,94926
 2.4000e+000 95125 -5.1001e+001 -1.4065e+002  3.6188e+001 40362 95171,94926,95004
 2.4000e+000 95102 -7.2508e+001 -1.5286e+002  3.0334e+001 40362 94874,95004,94926
 2.4000e+000 95079 -2.2268e+001 -1.4860e+002  5.5088e+001 40362 94874,95030,95004
 2.4000e+000 95056 -7.2883e+001 -1.6431e+002  2.0578e+001 40362 94874,94926,94900
 2.4000e+000 95197 -5.2641e+001 -1.4634e+002  4.0541e+001 40362 94978,94952,95171
 2.4000e+000 95220 -4.2265e+001 -1.4141e+002  4.3148e+001 40362 94978,95171,95004
 2.4000e+000 95549 -1.8264e+001 -1.0929e+002  9.4750e+000 39586 95350,95402,95376
 2.4000e+000 95526  2.1255e+001 -6.9869e+001 -9.2102e+000 39586 95324,95402,95350
 2.4000e+000 95503 -1.2461e+001 -8.6919e+001  3.1370e+001 39586 95324,95454,95402
 2.4000e+000 95480 -1.2443e+001 -1.3431e+002  3.2327e+001 39586 95402,95454,95428
 2.4000e+000 96055 -1.5887e+001 -6.8809e+001 -2.6540e+000 38968 96078,95862,95810
 2.4000e+000 96032 -1.4138e+001 -6.3458e+001 -1.7593e+000 38968 96078,95810,95758
 2.4000e+000 96009 -1.6603e+001 -8.6305e+001 -1.1982e+001 38968 96150,95732,95888
 2.4000e+000 95986  6.9251e+000 -5.4949e+001  4.3630e+000 38968 95810,95862,95836
 2.4000e+000 95963 -4.3324e+000 -7.7349e+001 -1.8173e+001 38968 95732,95914,95888
 2.4000e+000 95940 -4.1204e+001 -7.7888e+001  1.9334e+001 38968 95758,95810,95784
 2.4000e+000 96104  4.2482e+000 -6.7355e+001  3.6458e-001 38968 95888,95862,96078
 2.4000e+000 96127 -1.6821e+001 -8.2257e+001 -6.6245e+000 38968 96150,95888,96078
 2.4000e+000 96176 -2.1022e+001 -7.2558e+001 -7.3627e+000 38968 95758,95732,96150
 2.4000e+000 96199 -1.7209e+001 -6.4936e+001 -1.2794e+000 38968 95758,96150,96078
 2.4000e+000 96545 -5.1531e+000 -1.1867e+002 -1.7491e+001 38507 96640,96568,96352
 2.4000e+000 96522 -3.3743e+001 -1.5786e+002  6.9355e+000 38507 96568,96300,96222
 2.4000e+000 96499  9.5154e+000 -9.7666e+001 -5.0783e+001 38507 96640,96352,96326
 2.4000e+000 96476 -1.6095e+001 -1.5063e+002 -3.0395e+001 38507 96352,96404,96378
 2.4000e+000 96453 -4.0227e+001 -1.9092e+002  8.1946e+000 38507 96222,96300,96248
 2.4000e+000 96430 -4.5635e+001 -2.3784e+002 -1.8382e+000 38507 96248,96300,96274
 2.4000e+000 96594 -3.3423e+001 -1.4340e+002 -7.0131e+000 38507 96404,96352,96568
 2.4000e+000 96617 -1.8126e+001 -1.3014e+002  6.6279e-001 38507 96404,96568,96222
 2.4000e+000 96666 -2.7900e+001 -1.6768e+002 -1.4597e+000 38507 96300,96568,96640
 2.4000e+000 96689 -2.4242e+001 -1.5242e+002 -3.1667e+001 38507 96300,96640,96326
 2.4000e+000 97069 -2.4042e+000 -4.0866e+001 -1.4010e+000 37760 97092,96873,96821
 2.4000e+000 97046 -1.2229e+001 -4.5502e+001  3.1327e+000 37760 97092,96821,96795
 2.4000e+000 97023 -3.4853e+001 -4.6793e+001  4.3341e+000 37760 96821,96873,96847
 2.4000e+000 97000  6.0047e+000 -1.0982e+001 -1.6704e+001 37760 96873,96925,96899
 2.4000e+000 96977 -7.7683e+000 -2.9712e+001 -1.8575e+001 37760 96795,96951,96925
 2.4000e+000 97118  6.5334e+000 -3.0768e+001 -1.6143e+001 37760 96925,96873,97092
 2.4000e+000 97141 -2.2490e+001 -4.3857e+001 -1.0542e+001 37760 96925,97092,96795
 2.4000e+000 97647 -6.9594e+001 -1.5075e+002  1.6830e+001 37356 97324,97480,97376
 2.4000e+000 97624 -2.0714e+001 -1.5417e+002  5.4989e+001 37356 97324,97506,97480
 2.4000e+000 97601 -5.4246e+001 -9.5542e+001  3.0434e+001 37356 97376,97480,97454
 2.4000e+000 97578 -6.3029e+001 -1.5495e+002  9.8093e+000 37356 97324,97376,97350
 2.4000e+000 97555 -4.6770e+001 -9.9083e+001  1.7387e+001 37356 97376,97454,97402
 2.4000e+000 97532 -6.1473e+001 -1.0188e+002  1.2958e+001 37356 97402,97454,97428
 2.4000e+000 98232 -7.1866e+000 -3.7345e+001 -1.2717e+001 36902 97935,98065,98013
 2.4000e+000 98209  2.0111e+001 -2.9267e+001 -1.3588e+001 36902 97935,98091,98065
 2.4000e+000 98186 -1.8954e+000 -4.1514e+001 -8.9999e+000 36902 97935,98013,97987
 2.4000e+000 98163  5.4399e+000 -4.3661e+000 -1.8485e+001 36902 97909,98091,97935
 2.4000e+000 98140  4.9618e+000 -1.9519e+001 -8.8611e+000 36902 97935,97987,97961
 2.4000e+000 98117 -1.0202e+001 -5.2163e+001 -5.3879e+000 36902 98013,98065,98039
 2.4000e+000 98659 -3.1680e+001 -1.7655e+002 -2.4362e+001 36604 98682,98414,98388
 2.4000e+000 98636 -1.7600e+001 -1.6281e+002  9.1953e+000 36604 98682,98388,98336
 2.4000e+000 98613 -2.8862e+001 -1.4361e+002  1.1016e+001 36604 98754,98518,98466
 2.4000e+000 98590 -3.4311e+001 -9.5366e+001 -1.7569e+001 36604 98414,98466,98440
 2.4000e+000 98567  2.1143e+001 -2.1551e+002  1.7896e+001 36604 98336,98388,98362
 2.4000e+000 98544  9.2283e-001 -1.7835e+002  1.0951e+002 36604 98466,98518,98492
 2.4000e+000 98708 -1.2294e+001 -1.3268e+002 -2.1162e+001 36604 98466,98414,98682
 2.4000e+000 98731 -2.3001e+001 -1.4841e+002  9.7384e+000 36604 98754,98466,98682
 2.4000e+000 98780 -2.3055e+001 -1.4418e+002  1.1832e+001 36604 98336,98518,98754
 2.4000e+000 98803 -1.3428e+001 -1.4543e+002  1.2369e+001 36604 98336,98754,98682
 2.4000e+000 99309 -2.0286e+001 -7.1169e+001  1.4728e+001 36200 99332,99116,99012
 2.4000e+000 99286 -1.4845e+001 -2.0363e+001 -9.2409e+000 36200 99332,99012,98986
 2.4000e+000 99263 -7.1558e+000 -7.3175e+001  2.9606e+000 36200 99012,99116,99064
 2.4000e+000 99240 -2.9555e+000 -4.6155e+001 -5.2001e+000 36200 98986,99168,99142
 2.4000e+000 99217 -1.4294e+001 -9.2202e+001  1.2158e+001 36200 99064,99116,99090
 2.4000e+000 99194 -2.8165e+001 -6.6301e+001 -1.3910e+001 36200 99012,99064,99038
 2.4000e+000 99358 -2.4428e+001 -1.0744e+002  3.2299e+001 36200 99142,99116,99332
 2.4000e+000 99381 -2.1731e+001 -7.3223e+001  3.4309e+000 36200 99142,99332,98986
 2.4000e+000 99887 -4.5999e+001 -1.1404e+002  1.2500e+001 35488 99564,99720,99590
 2.4000e+000 99864 -3.7365e+001 -9.2253e+001  8.7687e+000 35488 99564,99746,99720
 2.4000e+000 99841 -1.0737e+000 -1.1095e+002 -3.7340e-004 35488 99642,99694,99668
 2.4000e+000 99818 -2.3819e+001 -1.2676e+002  1.1224e+001 35488 99590,99694,99642
 2.4000e+000 99795 -7.3231e+000 -9.3482e+001  4.6707e+000 35488 99590,99720,99694
 2.4000e+000 99772  1.6617e+001 -1.8262e+002  1.6361e+001 35488 99590,99642,99616
 2.4000e+000 99988  2.3219e+000 -4.0662e+001 -4.3052e-002 35198 99910,99962,99936
 2.4000e+000 100138  1.9272e+001 -1.0202e+002  1.6623e+001 34794 100233,100161,100063
 2.4000e+000 100115 -1.5795e+001 -1.3447e+002 -1.2292e+001 34794 100365,100161,100037
 2.4000e+000 100187  4.8893e+001 -1.1075e+002  1.3446e+001 34794 100089,100063,100161
 2.4000e+000 100210  4.4067e+001 -1.1780e+002  9.5579e+000 34794 100089,100161,100011
 2.4000e+000 100259 -1.1783e+001 -1.4925e+002 -2.3715e+001 34794 100037,100161,100233
 2.4000e+000 100391  7.5117e+001 -8.0980e+001 -3.5033e+001 34794 100011,100161,100365
 2.4000e+000 100927  3.1089e+001 -8.8969e+001  2.2353e-002 34404 100679,100809,100783
 2.4000e+000 100904  3.0225e+001 -9.4873e+001 -1.8183e+000 34404 100653,100809,100679
 2.4000e+000 100881  1.3415e+000 -1.0709e+002 -5.4495e+000 34404 100705,100783,100731
 2.4000e+000 100858  5.8379e+000 -9.8588e+001 -1.1587e+000 34404 100679,100783,100705
 2.4000e+000 100835 -1.0736e+001 -9.3876e+001 -2.7823e+001 34404 100731,100783,100757
 2.4000e+000 101354 -3.7409e+001 -1.5387e+002  2.3137e+001 34000 101377,101109,101057
 2.4000e+000 101331 -7.8463e+001 -1.7326e+002  1.7476e+001 34000 101449,101377,101057
 2.4000e+000 101308 -9.1505e+001 -1.5795e+002  1.5617e+001 34000 101449,101057,101031
 2.4000e+000 101285 -6.5035e+001 -1.4704e+002  3.3770e+001 34000 101031,101213,101187
 2.4000e+000 101262 -5.3148e+001 -1.9637e+002 -2.0339e+001 34000 101135,101187,101161
 2.4000e+000 101239 -6.9294e+001 -2.0799e+002  4.1297e+001 34000 101057,101109,101083
 2.4000e+000 101403 -5.4732e+001 -1.5836e+002  2.3130e-001 34000 101135,101109,101377
 2.4000e+000 101426 -7.3916e+001 -1.6573e+002 -2.7880e+000 34000 101135,101377,101187
 2.4000e+000 101475 -5.3614e+001 -1.5778e+002  8.5157e+000 34000 101187,101377,101449
 2.4000e+000 101498 -7.4011e+001 -1.5131e+002  1.1043e+001 34000 101187,101449,101031
 2.4000e+000 102083  6.6151e+000 -8.0225e+001 -2.8255e+000 33472 102106,101812,101786
 2.4000e+000 102060 -2.0855e+001 -9.1800e+001 -1.5208e+000 33472 102106,101786,101916
 2.4000e+000 102037 -2.3958e+001 -8.7496e+001 -1.6273e+001 33472 101812,101864,101838
 2.4000e+000 102014 -2.2885e+000 -1.1924e+002 -1.4619e+001 33472 101864,101916,101890
 2.4000e+000 101991 -4.3160e+001 -1.1022e+002 -9.7366e+000 33472 101786,101942,101916
 2.4000e+000 101968 -5.9732e+001 -1.1630e+002  2.3198e+001 33472 101760,101942,101786
 2.4000e+000 102132 -1.0705e+001 -8.0300e+001 -1.3508e+001 33472 101864,101812,102106
 2.4000e+000 102155 -1.9915e+001 -8.3403e+001 -1.4383e+001 33472 101864,102106,101916
 2.4000e+000 102612 -3.9980e+001 -1.3588e+002 -5.7182e+001 33038 102635,102468,102390
 2.4000e+000 102589 -6.7434e+001 -1.8270e+002 -7.1562e+001 33038 102635,102390,102364
 2.4000e+000 102566 -9.1915e+000 -1.2680e+002 -5.1980e+001 33038 102390,102468,102442
 2.4000e+000 102543 -3.0318e+001 -1.5293e+002 -3.2025e+001 33038 102338,102494,102364
 2.4000e+000 102520 -1.6046e+001 -1.1949e+002 -3.3191e+001 33038 102390,102442,102416
 2.4000e+000 102661 -4.0824e+001 -1.2485e+002 -2.9610e+001 33038 102494,102468,102635
 2.4000e+000 102684 -4.9900e+001 -1.5327e+002 -3.9695e+001 33038 102494,102635,102364
 2.4000e+000 103318 -2.3083e+001 -7.0868e+001  9.3012e-001 32402 102972,103128,103076
 2.4000e+000 103295 -2.6481e+001 -7.5552e+001 -9.3643e-001 32402 102946,103128,102972
 2.4000e+000 103272 -1.9223e+001 -6.5912e+001  8.8762e+000 32402 103076,103128,103102
 2.4000e+000 103249 -1.6848e+001 -6.8880e+001  2.8303e+001 32402 102946,103154,103128
 2.4000e+000 103226 -2.4854e+001 -5.8383e+001 -1.1085e+001 32402 102972,103076,102998
 2.4000e+000 103203 -3.3484e+000 -7.0786e+001 -2.3369e+001 32402 102998,103076,103050
 2.4000e+000 103180 -2.4493e+001 -3.8243e+001 -3.1381e+001 32402 102998,103050,103024
 2.4000e+000 103696 -5.5436e+001 -1.6746e+002 -8.0365e+000 31924 103448,103526,103500
 2.4000e+000 103673 -2.4642e+001 -1.5887e+002 -2.6706e+001 31924 103448,103578,103526
 2.4000e+000 103650 -4.1784e+001 -1.5476e+002 -1.3489e+001 31924 103448,103500,103474
 2.4000e+000 103627 -3.1578e+001 -1.8010e+002 -3.0841e+001 31924 103422,103578,103448
 2.4000e+000 103604 -4.9235e+001 -2.4293e+002 -4.2083e+000 31924 103526,103578,103552
 2.4000e+000 104281 -8.8931e+000 -3.8902e+001 -1.5349e+001 31520 104304,104062,104036
 2.4000e+000 104258 -1.1972e+001 -4.4917e+001 -1.7418e+001 31520 104304,104036,103984
 2.4000e+000 104235 -3.5111e+001 -7.2698e+001 -3.0900e+001 31520 104062,104114,104088
 2.4000e+000 104212 -5.6344e+000 -4.6577e+001 -1.5828e+001 31520 103958,104114,103984
 2.4000e+000 104189 -2.0742e+001 -6.4675e+001 -3.4683e+000 31520 103984,104036,104010
 2.4000e+000 104166 -1.8092e+001 -2.5898e+001 -1.1943e+001 31520 103958,104140,104114
 2.4000e+000 104330 -9.7535e+000 -4.4886e+001 -1.7029e+001 31520 104114,104062,104304
 2.4000e+000 104353 -9.4929e+000 -4.7707e+001 -1.8081e+001 31520 104114,104304,103984
 2.4000e+000 104704 -2.1317e+001 -3.4500e+001 -6.7551e+000 31066 104479,104583,104505
 2.4000e+000 104681  1.8684e+001 -1.2903e+001 -1.5110e+001 31066 104479,104609,104583
 2.4000e+000 104658 -5.1763e+000 -7.1461e+001  1.3686e+000 31066 104505,104557,104531
 2.4000e+000 104635  9.5996e-001 -3.0338e+001 -6.0847e+000 31066 104505,104583,104557
 2.4000e+000 104925  2.3087e+001 -1.3317e+002  9.4410e+000 30754 104775,104827,104801
 2.4000e+000 104902  2.6956e+001 -1.0213e+002  7.7435e+000 30754 104775,104853,104827
 2.4000e+000 104879  5.3440e+001 -9.0323e+001  1.4661e+001 30754 104749,104853,104775
 2.4000e+000 105482 -4.3579e+001 -1.1643e+002  9.6869e+000 30164 105505,105136,105110
 2.4000e+000 105459 -2.7586e+001 -1.3009e+002  1.3953e+001 30164 105649,105505,105110
 2.4000e+000 105436 -2.7146e+001 -1.1730e+002  2.6284e+000 30164 105577,105188,105136
 2.4000e+000 105413 -3.6176e+001 -1.3502e+002  2.2138e+001 30164 105649,105110,105318
 2.4000e+000 105390 -4.0584e+001 -2.0269e+002  4.0495e+001 30164 105214,105292,105240
 2.4000e+000 105367  9.5531e+000 -1.9393e+002  4.2737e+001 30164 105240,105292,105266
 2.4000e+000 105344 -3.6187e+001 -9.4106e+001 -3.1633e+000 30164 105136,105188,105162
 2.4000e+000 105531 -2.9464e+001 -1.1728e+002  1.0192e+001 30164 105577,105136,105505
 2.4000e+000 105554  1.2341e+000 -1.1390e+002  1.2598e+001 30164 105214,105505,105292
 2.4000e+000 105603 -2.4098e+001 -1.0724e+002  7.1886e-001 30164 105214,105188,105577
 2.4000e+000 105626 -2.5045e+001 -1.0606e+002  7.9098e+000 30164 105214,105577,105505
 2.4000e+000 105675 -2.2590e+001 -1.1982e+002  8.2527e+000 30164 105292,105505,105649
 2.4000e+000 105698 -2.3573e+001 -1.1681e+002  1.4994e+001 30164 105292,105649,105318
 2.4000e+000 106027  2.2574e+001 -6.3560e+001  6.4793e+000 29868 106322,106050,105880
 2.4000e+000 106004 -4.0278e+000 -6.0294e+001 -3.0080e+000 29868 106250,106050,105828
 2.4000e+000 105981 -7.1091e+000 -6.0646e+001 -1.2717e+000 29868 106250,105828,105802
 2.4000e+000 105958  4.8703e+000 -5.2668e+001  2.1995e+001 29868 106322,105880,106122
 2.4000e+000 106076  7.4206e+000 -8.7590e+001 -3.4337e+000 29868 105906,105880,106050
 2.4000e+000 106099  7.2584e+000 -6.6712e+001 -7.8752e+000 29868 105906,106050,105932
 2.4000e+000 106148 -3.9071e+001 -9.5516e+001  1.6673e+001 29868 105854,105828,106122
 2.4000e+000 106276 -3.9050e+000 -5.6697e+001 -8.6982e+000 29868 105932,106050,106250
 2.4000e+000 106299 -1.1559e+001 -5.8079e+001 -7.1253e+000 29868 105932,106250,105802
 2.4000e+000 106348 -9.4647e+000 -7.3345e+001  3.2899e+000 29868 105828,106050,106322
 2.4000e+000 106371 -2.3877e+001 -6.0188e+001  1.8725e+001 29868 105828,106322,106122
 2.4000e+000 106828 -1.8003e+000 -5.9033e+001  1.1576e+000 29521 106580,106710,106684
 2.4000e+000 106805 -2.5594e+001 -6.4923e+001 -2.2067e+001 29521 106554,106710,106580
 2.4000e+000 106782 -1.6294e+001 -6.2832e+001 -8.8515e-001 29521 106580,106684,106606
 2.4000e+000 106759 -3.3565e+001 -9.6537e+001 -7.7576e+000 29521 106606,106684,106658
 2.4000e+000 106736 -6.2228e+000 -5.6465e+001  8.6433e+000 29521 106606,106658,106632
 2.4000e+000 107027 -3.5216e+001 -1.2236e+002 -3.5621e+001 29117 106877,106929,106903
 2.4000e+000 107004 -2.0183e+001 -1.1590e+002 -3.4510e+001 29117 106851,106929,106877
 2.4000e+000 106981 -2.9277e+001 -1.5416e+002 -2.7135e+001 29117 106851,106955,106929
 2.4000e+000 107456 -3.9046e+001 -1.7553e+002 -2.9902e+001 28656 107237,107315,107263
 2.4000e+000 107433 -1.6791e+001 -1.1317e+002 -1.3918e+001 28656 107133,107315,107237
 2.4000e+000 107410 -1.3982e+001 -1.0815e+002 -1.5080e+001 28656 107133,107237,107159
 2.4000e+000 107387 -4.6862e+000 -7.2488e+001 -2.4105e+001 28656 107159,107237,107185
 2.4000e+000 107364  1.0869e-001 -6.1503e+001  6.4769e+000 28656 107185,107237,107211
 2.4000e+000 107341  1.3246e+001 -5.7649e+001 -1.9894e+001 28656 107263,107315,107289
 2.4000e+000 107704 -5.9939e+000 -1.1298e+002  1.9154e+000 27902 107727,107557,107531
 2.4000e+000 107681  6.4116e+000 -9.8254e+001  7.9263e+000 27902 107727,107531,107505
 2.4000e+000 107658 -1.4282e+001 -1.1638e+002 -1.7883e+001 27902 107557,107609,107583
 2.4000e+000 107635 -4.0530e+001 -9.5548e+001  3.8304e+000 27902 107479,107609,107505
 2.4000e+000 107753 -1.9965e+001 -9.9139e+001 -5.5094e+000 27902 107609,107557,107727
 2.4000e+000 107776 -9.2641e+000 -8.7585e+001 -3.6163e-001 27902 107609,107727,107505
 2.4000e+000 108333 -4.4658e+001 -1.9253e+002  1.1881e+000 27341 108356,108065,108013
 2.4000e+000 108310 -2.3969e+001 -1.7575e+002 -3.3638e+001 27341 108356,108013,108143
 2.4000e+000 108287 -6.6894e+001 -2.0833e+002 -9.4978e+000 27341 108428,108117,108091
 2.4000e+000 108264 -5.4290e+001 -1.8105e+002  2.5957e+000 27341 108013,108065,108039
 2.4000e+000 108241 -9.1443e+001 -1.5145e+002 -3.8144e+001 27341 107987,108143,108013
 2.4000e+000 108218 -3.4356e+001 -1.2682e+002 -4.1557e+001 27341 107987,108169,108143
 2.4000e+000 108195 -2.8764e+001 -1.2568e+002 -4.0206e+001 27341 107961,108169,107987
 2.4000e+000 108382 -4.7447e+001 -1.9879e+002  6.3753e-001 27341 108091,108065,108356
 2.4000e+000 108405 -6.7255e+001 -1.8728e+002 -7.7874e+000 27341 108428,108091,108356
 2.4000e+000 108454 -5.9655e+001 -2.7227e+002 -1.4913e+001 27341 108143,108117,108428
 2.4000e+000 108477 -4.8339e+001 -2.3385e+002 -1.7019e+001 27341 108143,108428,108356
 2.4000e+000 108725  1.6682e+001 -1.5099e+002 -7.0668e+000 27029 108748,108526,108500
 2.4000e+000 108702  3.8013e+000 -1.0786e+002  9.7160e-001 27029 108748,108500,108630
 2.4000e+000 108679 -1.2708e+001 -1.1293e+002  5.8448e+000 27029 108578,108630,108604
 2.4000e+000 108656  3.8969e+001 -1.3053e+002  2.8209e+001 27029 108526,108578,108552
 2.4000e+000 108774  4.1851e+000 -1.7083e+002 -1.2394e+001 27029 108578,108526,108748
 2.4000e+000 108797 -1.9701e+001 -1.4106e+002 -9.3736e+000 27029 108578,108748,108630
 2.4000e+000 109045  2.4968e+001 -1.0106e+002 -7.9116e+000 26610 108872,108924,108898
 2.4000e+000 109022 -3.8600e+000 -1.0877e+002 -1.0979e+001 26610 108872,108950,108924
 2.4000e+000 108999 -1.9217e+000 -1.0603e+002 -9.6069e+000 26610 108846,108950,108872
 2.4000e+000 108976  6.8047e+000 -1.2703e+002 -1.1350e+001 26610 108820,108950,108846
 2.4000e+000 109366 -2.0558e+001 -1.9593e+002  7.7852e+000 26006 109144,109222,109196
 2.4000e+000 109343 -1.8235e+001 -2.0294e+002  5.5983e+000 26006 109118,109222,109144
 2.4000e+000 109320 -4.9396e+001 -2.2348e+002  1.7402e+001 26006 109092,109222,109118
 2.4000e+000 109297  4.9321e+000 -1.8209e+002 -1.9914e+001 26006 109144,109196,109170
 2.4000e+000 109274 -5.9122e+000 -1.7072e+002 -2.9193e+000 26006 109092,109248,109222
 2.4000e+000 109567 -4.9951e+001 -1.2587e+002 -2.0386e+001 25659 109391,109469,109443
 2.4000e+000 109544 -3.5345e+001 -1.2023e+002 -1.9437e+001 25659 109391,109495,109469
 2.4000e+000 109521 -2.7843e+001 -1.0323e+002 -3.3561e+001 25659 109391,109443,109417
 2.4000e+000 109900 -3.8326e+001 -1.0418e+002 -4.7243e+000 25255 109923,109779,109753
 2.4000e+000 109877 -3.6184e+001 -1.0036e+002 -6.8212e+000 25255 109923,109753,109701
 2.4000e+000 109854 -3.5630e+001 -7.2358e+001 -7.3937e+000 25255 109675,109805,109701
 2.4000e+000 109831 -5.4858e+001 -9.9055e+001 -6.6147e+000 25255 109701,109753,109727
 2.4000e+000 109949 -3.4949e+001 -1.0879e+002 -8.7984e+000 25255 109805,109779,109923
 2.4000e+000 109972 -3.2128e+001 -1.0186e+002 -1.1181e+001 25255 109805,109923,109701
 2.4000e+000 110220 -4.2562e+001 -1.1645e+002  1.9638e+001 24701 110243,110021,109995
 2.4000e+000 110197 -4.1443e+001 -1.2219e+002  2.2940e+000 24701 110243,109995,110099
 2.4000e+000 110174 -3.0442e+001 -1.1083e+002  6.2288e+000 24701 110315,110073,110047
 2.4000e+000 110151 -3.9512e+001 -1.2685e+002  3.0686e+000 24701 109995,110125,110099
 2.4000e+000 110269 -1.9827e+001 -1.0953e+002  1.8869e+001 24701 110047,110021,110243
 2.4000e+000 110292 -4.8445e+001 -1.1145e+002  1.1202e+001 24701 110315,110047,110243
 2.4000e+000 110341  2.0086e+001 -1.0082e+002  7.5735e+000 24701 110099,110073,110315
 2.4000e+000 110364 -1.2602e+001 -1.0982e+002  9.0232e+000 24701 110099,110315,110243
 2.4000e+000 110661 -2.3699e+001 -1.5200e+002 -1.1859e+001 24197 110684,110413,110387
 2.4000e+000 110638 -1.5257e+001 -1.4277e+002 -2.3227e+001 24197 110684,110387,110543
 2.4000e+000 110615  6.4227e+000 -2.2852e+002  1.2081e+001 24197 110756,110491,110465
 2.4000e+000 110592 -4.0809e+001 -1.2635e+002  5.7578e+000 24197 110413,110465,110439
 2.4000e+000 110569 -1.5054e+001 -3.2306e+002 -2.1047e+001 24197 110491,110543,110517
 2.4000e+000 110710 -6.9395e+000 -1.3964e+002  6.3886e+000 24197 110465,110413,110684
 2.4000e+000 110733 -3.1663e+001 -1.9535e+002  1.8384e+000 24197 110756,110465,110684
 2.4000e+000 110782  3.4286e+001 -1.9107e+002 -1.2346e+001 24197 110543,110491,110756
 2.4000e+000 110805  1.0906e+001 -1.4241e+002 -2.5391e+001 24197 110543,110756,110684
 2.4000e+000 111315 -3.8117e+001 -1.4850e+002 -1.8578e+001 23593 111044,111148,111070
 2.4000e+000 111292 -4.4035e+001 -1.2940e+002 -9.7380e+000 23593 111044,111174,111148
 2.4000e+000 111269 -1.0423e+001 -1.0688e+002 -6.3601e+000 23593 111070,111122,111096
 2.4000e+000 111246 -4.4337e+001 -1.5480e+002 -2.4348e+001 23593 111070,111148,111122
 2.4000e+000 111223 -6.4447e+001 -1.3224e+002 -3.0510e+001 23593 111018,111174,111044
 2.4000e+000 111200 -1.2752e+001 -1.3824e+002 -1.9106e+001 23593 110992,111174,111018
 2.4000e+000 111821  3.4378e+001 -1.6205e+002 -1.0983e+001 23089 111916,111844,111628
 2.4000e+000 111798 -4.2890e+001 -1.9322e+002 -3.3847e+001 23089 111844,111550,111524
 2.4000e+000 111775  5.1208e+001 -1.5386e+002 -4.9936e+000 23089 111916,111628,111602
 2.4000e+000 111752 -1.5546e-001 -2.6881e+002 -1.7741e+001 23089 111498,111680,111524
 2.4000e+000 111729  5.0915e+000 -1.2158e+002  2.0554e+001 23089 111550,111602,111576
 2.4000e+000 111706  6.2223e+001 -1.0007e+002 -3.4581e+001 23089 111628,111680,111654
 2.4000e+000 111870 -6.6919e+000 -1.6691e+002 -4.7308e+000 23089 111680,111628,111844
 2.4000e+000 111893 -6.6814e+000 -1.6635e+002 -2.2708e-001 23089 111680,111844,111524
 2.4000e+000 111942 -7.5144e+000 -1.4077e+002 -1.4192e+001 23089 111550,111844,111916
 2.4000e+000 111965  1.5275e+001 -1.2871e+002 -7.8086e+000 23089 111550,111916,111602
 2.4000e+000 112164  9.9729e+000 -9.8234e+001 -1.5735e+001 22626 112187,112014,111988
 2.4000e+000 112141 -9.6395e+000 -1.2328e+002 -7.0965e+000 22626 112259,112187,111988
 2.4000e+000 112118 -7.8627e+000 -1.3257e+002  9.1745e+000 22626 112259,111988,112092
 2.4000e+000 112213 -5.1375e+000 -6.4885e+001 -1.1676e+001 22626 112040,112014,112187
 2.4000e+000 112236 -2.5521e+001 -9.8254e+001 -2.1726e+000 22626 112040,112187,112066
 2.4000e+000 112285 -2.5359e+000 -9.7706e+001 -8.5969e+000 22626 112066,112187,112259
 2.4000e+000 112308  1.9689e+000 -1.0439e+002  6.5662e+000 22626 112066,112259,112092
 2.4000e+000 112605  3.9240e+001 -1.3281e+002  1.0616e+001 22286 112628,112383,112357
 2.4000e+000 112582 -5.2898e+000 -1.4368e+002  2.8294e+000 22286 112772,112628,112357
 2.4000e+000 112559 -4.8245e+001 -1.6119e+002  1.1371e+001 22286 112700,112435,112409
 2.4000e+000 112536 -3.6028e+001 -1.4697e+002  9.1150e+000 22286 112772,112357,112331
 2.4000e+000 112513 -7.0710e+001 -1.3807e+002  1.1533e+001 22286 112435,112487,112461
 2.4000e+000 112654  1.5001e+001 -1.1118e+002 -1.7570e+001 22286 112409,112383,112628
 2.4000e+000 112677 -3.0037e+001 -1.3734e+002 -4.2625e+000 22286 112700,112409,112628
 2.4000e+000 112726 -2.2125e+001 -1.3820e+002 -7.1253e+000 22286 112487,112435,112700
 2.4000e+000 112749 -1.4951e+001 -1.3551e+002 -1.9773e+001 22286 112487,112700,112628
 2.4000e+000 112798  7.9061e+000 -1.3841e+002 -2.7233e+000 22286 112487,112628,112772
 2.4000e+000 112821 -1.1055e+000 -1.2847e+002  1.7492e+000 22286 112487,112772,112331
 2.4000e+000 112924  5.1965e+000  7.3618e+001 -3.4525e+000 21974 112846,112898,112872
 2.4000e+000 113223 -7.2354e+001 -1.8919e+002  2.4071e+001 21420 112949,113053,112975
 2.4000e+000 113200 -6.3271e+001 -1.5419e+002  2.2966e+001 21420 112949,113079,113053
 2.4000e+000 113177  2.4967e+001 -1.5885e+002  4.1472e+001 21420 112975,113053,113001
 2.4000e+000 113154 -1.0433e+002 -2.1446e+002  2.3757e+001 21420 113001,113053,113027
 2.4000e+000 113131 -8.9358e+001 -1.4208e+002  1.0704e+001 21420 112949,113105,113079
 2.4000e+000 113605  7.0821e+000 -2.1279e+002  6.9106e+001 20716 113331,113435,113357
 2.4000e+000 113582  8.8344e+000 -9.2618e+001  6.9946e+001 20716 113331,113461,113435
 2.4000e+000 113559  2.6555e+001 -1.8511e+002 -1.6916e+001 20716 113383,113435,113409
 2.4000e+000 113536 -4.4802e+001 -1.8333e+002 -1.8967e+001 20716 113357,113435,113383
 2.4000e+000 113513  3.3262e+000  6.3491e+000 -1.2828e+001 20716 113331,113487,113461
 2.4000e+000 113853 -9.7530e+000 -1.6593e+002  7.9993e+000 20290 113876,113680,113654
 2.4000e+000 113830  9.6326e+000 -1.6609e+002  6.7804e+000 20290 113876,113654,113628
 2.4000e+000 113807 -2.4273e+001 -1.8476e+002 -7.7091e+000 20290 113948,113732,113680
 2.4000e+000 113784  7.2030e+001 -1.5838e+002 -1.4998e+001 20290 113680,113732,113706
 2.4000e+000 113902 -8.8246e+000 -1.6488e+002  7.5407e+000 20290 113948,113680,113876
 2.4000e+000 113925 -1.6034e+001 -1.5541e+002  8.0402e+000 20290 113758,113876,113628
 2.4000e+000 113974 -4.2281e+001 -1.6663e+002 -1.3696e+001 20290 113758,113732,113948
 2.4000e+000 113997 -4.1049e+001 -1.6561e+002 -1.8612e+000 20290 113758,113948,113876
 2.4000e+000 114365 -3.1307e+001 -1.7402e+002  5.8108e-001 19900 114146,114198,114172
 2.4000e+000 114342 -3.1460e+001 -1.7407e+002  6.5376e-001 19900 114042,114198,114146
 2.4000e+000 114319 -3.3226e+001 -1.7107e+002  2.1384e+000 19900 114042,114224,114198
 2.4000e+000 114296 -7.5206e+001 -1.6512e+002 -3.7645e+000 19900 114094,114146,114120
 2.4000e+000 114273 -3.4061e+001 -1.6138e+002 -1.0298e+001 19900 114042,114146,114094
 2.4000e+000 114250 -6.2151e+001 -1.6607e+002 -2.9149e+000 19900 114042,114094,114068
 2.4000e+000 114566 -5.2130e+001 -1.7337e+002 -3.1648e-001 19496 114442,114494,114468
 2.4000e+000 114543 -7.8145e+001 -1.6715e+002 -1.2973e+001 19496 114416,114494,114442
 2.4000e+000 114520 -5.6452e+001 -1.5822e+002 -1.0463e+001 19496 114390,114494,114416
 2.4000e+000 114767 -4.3240e+000 -1.7438e+002  8.2754e+000 19042 114790,114669,114643
 2.4000e+000 114744 -4.7212e+000 -1.6750e+002  1.1283e+001 19042 114790,114643,114591
 2.4000e+000 114721  1.2624e+001 -1.7748e+002  3.8094e+001 19042 114591,114643,114617
 2.4000e+000 114816 -1.3911e+001 -1.6687e+002  5.5415e+000 19042 114695,114669,114790
 2.4000e+000 114839 -7.9693e+000 -1.5304e+002  1.0433e+001 19042 114695,114790,114591
 2.4000e+000 114991 -7.5600e+001 -2.0045e+002  3.4738e-001 18488 114864,114916,114890
 2.4000e+000 114968 -5.5396e+001 -2.0516e+002 -5.1437e+000 18488 114864,114942,114916
 2.4000e+000 115192  6.3014e+001 -1.3348e+002  7.3264e+000 18098 115215,115042,115016
 2.4000e+000 115169  3.0869e+001 -1.1274e+002 -6.6048e+000 18098 115215,115016,115120
 2.4000e+000 115146  5.2617e+001 -1.3042e+002 -2.5863e+001 18098 115287,115094,115068
 2.4000e+000 115241  4.1291e+001 -1.9237e+002 -3.0531e+000 18098 115068,115042,115215
 2.4000e+000 115264  5.0772e+001 -1.2715e+002 -1.0103e+001 18098 115287,115068,115215
 2.4000e+000 115313  2.9898e+001 -1.3817e+002 -2.3306e+001 18098 115120,115094,115287
 2.4000e+000 115336  2.0782e+001 -1.3790e+002 -8.3040e+000 18098 115120,115287,115215
 2.4000e+000 115846  2.8213e+001 -2.1264e+002 -5.7213e+001 17644 115653,115705,115679
 2.4000e+000 115823 -2.7080e+001 -1.9796e+002 -2.3972e+001 17644 115627,115705,115653
 2.4000e+000 115800  1.1445e+001 -1.4761e+002 -3.6121e+000 17644 115549,115705,115627
 2.4000e+000 115777 -2.1390e+001 -1.8588e+002  1.2742e+001 17644 115549,115627,115575
 2.4000e+000 115754  5.8429e+000 -1.2949e+002  2.4804e+001 17644 115523,115705,115549
 2.4000e+000 115731 -6.3111e+001 -1.7586e+002 -3.1003e+000 17644 115575,115627,115601
 2.4000e+000 116067 -5.6247e+001 -2.8224e+002 -7.9046e+000 17116 115891,115943,115917
 2.4000e+000 116044 -1.0333e+002 -3.1957e+002  8.7616e+000 17116 115891,115995,115943
 2.4000e+000 116021 -9.7599e+001 -2.6793e+002  7.8922e+000 17116 115943,115995,115969
 2.4000e+000 116288  2.9631e+000 -1.7956e+002  3.7013e+001 16704 116164,116216,116190
 2.4000e+000 116265 -2.7747e+001 -2.5035e+002  2.4690e+001 16704 116112,116216,116164
 2.4000e+000 116242 -1.6459e+001 -2.1832e+002 -5.1802e+000 16704 116112,116164,116138
 2.4000e+000 116489  1.0847e+001 -1.6839e+002 -4.7922e+000 16434 116339,116417,116365
 2.4000e+000 116466 -2.9883e+001 -1.8348e+002 -2.0602e+000 16434 116313,116417,116339
 2.4000e+000 116443 -8.9965e+001 -2.0486e+002  7.2699e+001 16434 116365,116417,116391
 2.4000e+000 116592 -1.4270e+001 -1.8754e+002 -9.8476e+000 15967 116514,116566,116540
 2.4000e+000 116695 -1.7888e+001 -2.5782e+002 -3.4953e+001 15552 116617,116669,116643
 2.4000e+000 116798 -2.8137e+001 -1.6362e+002  0.0000e+000 421 116720,116772,116746
 2.5000e+000 69066  2.0802e+000 -2.7965e+002 -7.2180e+000 68738 68965,69017,68991
 2.5000e+000 69043  4.3209e+001 -2.3086e+002  5.7495e+002 68738 68939,69017,68965
 2.5000e+000 69371 -5.8342e+000 -5.4360e+001 -1.9763e+001 68426 69172,69250,69198
 2.5000e+000 69348  2.6047e-001 -1.0260e+002  6.7928e+000 68426 69146,69250,69172
 2.5000e+000 69325 -1.8128e+000 -1.6486e+001  8.5287e+000 68426 69198,69250,69224
 2.5000e+000 69302 -2.3548e+001 -9.6942e+001  3.8460e+000 68426 69146,69276,69250
 2.5000e+000 69521 -2.0495e+000 -1.0256e+002 -7.5852e+000 68228 69420,69472,69446
 2.5000e+000 69498 -1.2720e+001 -6.9768e+001 -3.9197e+001 68228 69394,69472,69420
 2.5000e+000 69781  1.0457e+000 -6.0357e-001 -3.4363e-001 68030 69631,69683,69657
 2.5000e+000 69758  1.7305e+000 -1.3114e+001 -5.5635e+000 68030 69631,69709,69683
 2.5000e+000 69735 -2.1446e+000  1.1207e+000  8.5578e+000 68030 69605,69709,69631
 2.5000e+000 70078 -8.0110e+000 -2.9522e+001 -1.4380e+001 67832 69882,69934,69908
 2.5000e+000 70055  1.5800e+001 -1.9754e+001 -1.7795e+001 67832 69856,69934,69882
 2.5000e+000 70032  3.8601e+001 -9.1683e+000 -4.1663e+001 67832 69830,69934,69856
 2.5000e+000 70009  9.3394e+000 -7.7270e+001 -1.3412e+000 67832 69804,69934,69830
 2.5000e+000 69986 -2.0590e+001 -1.4224e+001  3.0547e+001 67832 69804,69960,69934
 2.5000e+000 70586 -7.3597e+000 -4.6841e+001  8.1862e+000 67634 70609,70419,70341
 2.5000e+000 70563 -3.4385e+000 -6.4813e+001  1.4439e+001 67634 70681,70609,70341
 2.5000e+000 70540 -3.7052e+000 -6.6372e+001  1.9746e+001 67634 70681,70341,70315
 2.5000e+000 70517 -1.6958e+001 -5.0801e+001  1.9333e+001 67634 70341,70419,70367
 2.5000e+000 70494 -6.4100e+000 -7.7363e+000  4.9186e+000 67634 70263,70445,70289
 2.5000e+000 70471 -3.4235e+000 -8.7737e+000  8.2818e+000 67634 70367,70419,70393
 2.5000e+000 70635 -1.2882e+000 -7.4998e+000  7.0571e+000 67634 70445,70419,70609
 2.5000e+000 70658 -1.2393e+001 -4.9557e+001  1.3230e+001 67634 70445,70609,70289
 2.5000e+000 70707  3.8106e-001 -5.3007e+001  9.2966e+000 67634 70289,70609,70681
 2.5000e+000 70730 -4.6986e+000 -5.8442e+001  1.5374e+001 67634 70289,70681,70315
 2.5000e+000 71108 -1.4782e+001 -7.2548e+001  2.8064e+001 67344 71131,70912,70886
 2.5000e+000 71085 -1.1670e+001 -6.4819e+001  2.6839e+001 67344 71131,70886,70860
 2.5000e+000 71062 -2.1967e+001 -7.5755e+001  2.4524e+001 67344 71203,70938,70912
 2.5000e+000 71039  1.2735e+001 -5.7216e+001  1.2608e+001 67344 70834,70990,70860
 2.5000e+000 71016 -1.6458e+001 -8.5601e+001  8.6367e+000 67344 70938,70990,70964
 2.5000e+000 71157 -2.1414e+001 -6.6379e+001  2.5753e+001 67344 71203,70912,71131
 2.5000e+000 71180 -4.1826e+000 -5.6079e+001  1.2696e+001 67344 70990,71131,70860
 2.5000e+000 71229 -1.7516e+001 -9.3697e+001  2.0623e+001 67344 70990,70938,71203
 2.5000e+000 71252 -1.5181e+001 -8.0679e+001  1.9449e+001 67344 70990,71203,71131
 2.5000e+000 71603  8.9068e-001 -5.2720e+001  5.9249e+000 67032 71378,71482,71404
 2.5000e+000 71580  3.2502e+000 -3.2364e+001  1.0921e+001 67032 71378,71508,71482
 2.5000e+000 71557  1.1926e+000 -3.1528e+001  1.8836e+001 67032 71404,71456,71430
 2.5000e+000 71534 -2.6582e+000 -5.8382e+001  9.2884e+000 67032 71404,71482,71456
 2.5000e+000 72003  1.3672e+001 -3.0988e+001  1.3053e+001 66834 71755,71859,71781
 2.5000e+000 71980  5.6478e+000 -8.3779e+001  4.5773e+000 66834 71755,71885,71859
 2.5000e+000 71957  6.8039e+000 -1.8938e+001  9.1481e+000 66834 71781,71833,71807
 2.5000e+000 71934 -8.1428e+000 -9.6796e+001 -1.9558e+000 66834 71781,71859,71833
 2.5000e+000 71911  2.0201e+001 -3.4603e+001  3.8378e+001 66834 71729,71885,71755
 2.5000e+000 72430  1.4957e+001 -7.0852e+001 -4.1662e+000 66266 72237,72289,72263
 2.5000e+000 72407  1.0894e+001 -8.3335e+001  8.2895e+000 66266 72133,72289,72237
 2.5000e+000 72384 -1.7579e+000 -6.4607e+001  4.6505e+000 66266 72133,72237,72211
 2.5000e+000 72361 -2.1279e+001 -9.6981e+001  4.6212e+000 66266 72107,72289,72133
 2.5000e+000 72338 -2.3718e+001 -1.2296e+002  3.7603e+001 66266 72133,72211,72185
 2.5000e+000 72315 -4.7503e+000 -1.3158e+002  3.8583e+001 66266 72133,72185,72159
 2.5000e+000 72580 -2.2969e+001 -1.4554e+002  1.6712e+001 65968 72479,72531,72505
 2.5000e+000 72557  3.5196e+000 -9.0050e+001  6.2794e+000 65968 72453,72531,72479
 2.5000e+000 72960  7.3331e+000 -3.4473e+001  1.1818e+001 65621 72983,72738,72712
 2.5000e+000 72937  2.9653e+001 -7.1553e+001  1.0617e+001 65621 72983,72712,72686
 2.5000e+000 72914 -4.5933e+000 -1.2406e+002  1.2528e+001 65621 72738,72842,72764
 2.5000e+000 72891  4.4675e+000 -1.1410e+002  2.3768e+000 65621 72764,72842,72816
 2.5000e+000 72868 -7.9064e+001 -3.1878e+002  5.5407e+001 65621 72764,72816,72790
 2.5000e+000 73009  1.4209e+001 -6.3427e+001  1.7508e+001 65621 72842,72738,72983
 2.5000e+000 73032  1.2045e+001 -1.3231e+002  2.0108e+001 65621 72842,72983,72686
 2.5000e+000 73361  4.1104e+001 -1.9483e+002 -2.5213e+001 65281 73456,73384,73188
 2.5000e+000 73338 -2.1601e+001 -1.8663e+002  2.8699e+001 65281 73384,73162,73136
 2.5000e+000 73315 -3.2635e+001 -1.6448e+002 -3.5297e+001 65281 73188,73240,73214
 2.5000e+000 73292 -3.2395e+001 -6.1770e+001 -2.3839e+001 65281 73136,73266,73240
 2.5000e+000 73410 -5.6584e+001 -1.9657e+002 -2.0315e+001 65281 73240,73188,73384
 2.5000e+000 73433 -4.7190e+000 -6.3381e+001  5.9325e+000 65281 73240,73384,73136
 2.5000e+000 73482  6.4459e+000 -2.5147e+002 -2.7639e+000 65281 73162,73384,73456
 2.5000e+000 73711 -2.0376e+001  2.7666e+001 -4.5677e+001 64820 73734,73610,73584
 2.5000e+000 73688 -1.6454e+001  3.6696e+001 -4.5083e+001 64820 73734,73584,73662
 2.5000e+000 73760 -1.4942e+001  3.1811e+001 -3.2071e+001 64820 73636,73610,73734
 2.5000e+000 73783 -3.0816e+000  3.5874e+001 -5.0789e+001 64820 73806,73734,73662
 2.5000e+000 73832 -3.1637e+001 -1.3580e+001 -3.1469e+001 64820 73636,73734,73806
 2.5000e+000 74112  1.2622e+001 -6.6924e+001 -1.2447e+001 64622 74278,74135,73988
 2.5000e+000 74089  1.0762e+000 -9.4403e+001  3.1984e+000 64622 74135,73936,74040
 2.5000e+000 74066  1.4137e+001 -6.5874e+001 -2.9181e+001 64622 74278,73988,73962
 2.5000e+000 74161 -1.0006e+001 -8.6791e+001 -3.4131e+000 64622 74014,73988,74135
 2.5000e+000 74184  1.0441e+000 -9.2135e+001  1.8795e+000 64622 74207,74135,74040
 2.5000e+000 74233  3.9841e+000 -8.8024e+001 -5.0387e+000 64622 74014,74135,74207
 2.5000e+000 74304 -1.4912e+000 -1.0064e+002 -1.5418e-001 64622 73936,74135,74278
 2.5000e+000 74327  9.8874e+000 -9.0731e+001 -1.8544e+001 64622 73936,74278,73962
 2.5000e+000 74526  1.4199e+001 -1.5956e+001  4.2610e+000 64424 74621,74549,74402
 2.5000e+000 74503 -1.0753e+001 -7.2957e+001  8.0642e+000 64424 74549,74350,74454
 2.5000e+000 74480  1.8180e+001 -4.4915e-001 -2.1045e+001 64424 74621,74402,74376
 2.5000e+000 74575  4.2070e+001 -6.5460e+001  1.7766e+001 64424 74428,74402,74549
 2.5000e+000 74598  7.1744e+000 -1.0218e+002  1.7589e+001 64424 74693,74549,74454
 2.5000e+000 74647 -5.8719e+000 -5.6047e+001  1.5582e+001 64424 74350,74549,74621
 2.5000e+000 74670 -2.5354e+000 -4.7194e+001 -1.0686e+001 64424 74350,74621,74376
 2.5000e+000 74719  5.5881e+000 -1.2193e+002 -1.9730e+000 64424 74428,74549,74693
 2.5000e+000 75123 -3.9212e+001 -2.3411e+002  2.7501e+001 64126 74875,74953,74927
 2.5000e+000 75100 -1.8868e+001 -1.9368e+002  2.0453e+001 64126 74875,74979,74953
 2.5000e+000 75077 -2.6430e+000 -1.4774e+002  4.1174e+000 64126 74875,75005,74979
 2.5000e+000 75054 -2.6340e+001 -3.2385e+002  5.3253e+001 64126 74875,74927,74901
 2.5000e+000 75031 -1.8375e+001 -4.7392e+001  4.6837e+001 64126 74849,75005,74875
 2.5000e+000 75224  1.4083e+001 -1.4120e+002  2.1357e+001 63836 75146,75198,75172
 2.5000e+000 75472 -5.8767e+000 -9.9204e+001  2.5582e+001 63375 75273,75351,75325
 2.5000e+000 75449 -1.8573e+001 -9.5937e+001  1.4567e+001 63375 75273,75377,75351
 2.5000e+000 75426 -1.6483e+001 -1.0266e+002  8.8811e+000 63375 75247,75377,75273
 2.5000e+000 75403  3.2063e+000 -5.3095e+001  2.7811e+001 63375 75273,75325,75299
 2.5000e+000 75673  1.8868e+001 -9.6090e+001  1.5081e+001 63063 75523,75575,75549
 2.5000e+000 75650  1.8522e+001 -1.2778e+002 -7.4093e-001 63063 75497,75575,75523
 2.5000e+000 75627  1.1145e+001 -1.3901e+002  1.6908e+001 63063 75497,75601,75575
 2.5000e+000 75874  2.0429e+001 -1.7334e+002 -9.9411e+000 62716 75897,75750,75724
 2.5000e+000 75851  1.4760e+000 -1.4577e+002 -2.9165e+000 62716 75897,75724,75698
 2.5000e+000 75828  5.8979e+000 -1.0502e+002 -4.3231e+001 62716 75698,75802,75776
 2.5000e+000 75923  4.9656e+001 -1.4097e+002 -2.3893e+001 62716 75776,75750,75897
 2.5000e+000 75946  1.0233e+001 -1.3228e+002 -7.3850e+000 62716 75776,75897,75698
 2.5000e+000 76328 -1.4173e+001 -1.5519e+002 -1.5301e+001 62198 76495,76351,76158
 2.5000e+000 76305 -3.6244e+001 -1.5451e+002 -4.4802e+000 62198 76351,76080,76054
 2.5000e+000 76282 -4.8919e+000 -2.0682e+002 -2.1794e+001 62198 76423,76184,76158
 2.5000e+000 76259 -2.0139e+001 -1.5539e+002 -1.2838e+001 62198 76495,76158,76106
 2.5000e+000 76236 -4.5506e+001 -1.7899e+002 -2.2887e+000 62198 76106,76158,76132
 2.5000e+000 76377 -1.9802e+001 -1.6777e+002 -2.4927e+001 62198 76423,76158,76351
 2.5000e+000 76400 -2.6642e+001 -1.2063e+002 -1.6615e+001 62198 76210,76351,76054
 2.5000e+000 76449  1.3261e+001 -1.6769e+002 -2.8673e+001 62198 76210,76184,76423
 2.5000e+000 76472 -2.4382e+000 -1.3614e+002 -3.5032e+001 62198 76210,76423,76351
 2.5000e+000 76521 -2.5780e+001 -1.4700e+002 -8.5032e+000 62198 76080,76351,76495
 2.5000e+000 76544 -4.1262e+001 -1.5912e+002 -2.4634e+000 62198 76080,76495,76106
 2.5000e+000 76841  1.3305e-001 -1.5137e+002  1.3987e+000 61751 76936,76864,76645
 2.5000e+000 76818  5.8828e+001 -1.1675e+002 -5.1126e+001 61751 76864,76567,76723
 2.5000e+000 76795  6.9792e+000 -1.1458e+002  1.0858e+000 61751 76936,76645,76593
 2.5000e+000 76772 -1.4124e+002 -2.9857e+002  5.8131e+001 61751 77008,76697,76671
 2.5000e+000 76749 -1.1581e+001 -8.4436e+001 -3.1235e+001 61751 76593,76645,76619
 2.5000e+000 76890 -1.1130e+001 -1.8463e+002  2.4688e+001 61751 76671,76645,76864
 2.5000e+000 76913 -3.1764e+001 -1.8367e+002  1.2769e+001 61751 77008,76671,76864
 2.5000e+000 76962  1.5264e+001 -2.0021e+002 -1.7117e+001 61751 76567,76864,76936
 2.5000e+000 76985  2.0208e+001 -1.6884e+002 -1.3374e+001 61751 76567,76936,76593
 2.5000e+000 77034  1.4599e+001 -2.0675e+002 -2.2953e+001 61751 76723,76697,77008
 2.5000e+000 77057  1.1885e+001 -2.2814e+002 -2.2281e+001 61751 76723,77008,76864
 2.5000e+000 77207  1.9274e+000 -8.3104e+001  3.2583e+001 61418 77106,77158,77132
 2.5000e+000 77184  2.4649e+001 -1.2819e+002  3.4912e+001 61418 77080,77158,77106
 2.5000e+000 77638 -2.9311e+001 -1.7133e+002 -2.2900e+001 60814 77733,77661,77471
 2.5000e+000 77615 -1.6910e-001 -1.6741e+002 -2.5150e+001 60814 77661,77393,77315
 2.5000e+000 77592 -5.0844e+001 -1.3904e+002 -7.5487e+000 60814 77733,77471,77445
 2.5000e+000 77569 -4.4015e+001 -2.5046e+002 -2.6175e+001 60814 77315,77367,77341
 2.5000e+000 77546 -3.9661e+001 -2.6345e+002 -1.2491e+001 60814 77315,77393,77367
 2.5000e+000 77523 -4.6022e+001 -1.2293e+002  2.0214e+000 60814 77393,77445,77419
 2.5000e+000 77687 -6.4660e+000 -1.6194e+002 -1.8050e+001 60814 77497,77471,77661
 2.5000e+000 77710 -2.3917e+001 -2.0179e+002 -3.5415e+000 60814 77497,77661,77315
 2.5000e+000 77759 -4.6198e+000 -1.2754e+002 -3.4021e+001 60814 77393,77661,77733
 2.5000e+000 77782 -3.4505e+001 -1.0637e+002 -1.4130e+001 60814 77393,77733,77445
 2.5000e+000 78337 -1.4354e+000 -8.3901e+001 -2.6107e+000 60210 78360,78017,77965
 2.5000e+000 78314  2.9739e-001 -8.6481e+001 -3.8301e+000 60210 78360,77965,78173
 2.5000e+000 78291 -2.2370e+001 -1.1201e+002 -1.9784e+001 60210 78432,78043,78017
 2.5000e+000 78268 -1.3079e+001 -1.2433e+002  1.6729e+000 60210 77965,78017,77991
 2.5000e+000 78245 -1.0476e+001 -8.8563e+001  2.4648e+000 60210 78043,78095,78069
 2.5000e+000 78222 -4.4155e+001 -1.5380e+002  5.8977e+001 60210 78095,78173,78121
 2.5000e+000 78199 -3.5608e+001 -1.0234e+002 -5.7174e+000 60210 78121,78173,78147
 2.5000e+000 78386 -6.7334e+000 -1.0247e+002 -9.4409e+000 60210 78432,78017,78360
 2.5000e+000 78409  3.1940e+001 -8.2190e+001  1.1769e+001 60210 78095,78360,78173
 2.5000e+000 78458 -9.4186e+000 -9.7015e+001  9.3019e-002 60210 78095,78043,78432
 2.5000e+000 78481  1.2726e+000 -8.7414e+001  1.0171e+001 60210 78095,78432,78360
 2.5000e+000 78680 -3.0265e+001 -1.2940e+002 -2.0885e+000 59848 78703,78556,78530
 2.5000e+000 78657 -3.2882e+001 -1.3876e+002 -1.0905e+001 59848 78703,78530,78504
 2.5000e+000 78634 -3.1362e+001 -1.5880e+002 -1.1379e+001 59848 78504,78608,78582
 2.5000e+000 78729 -2.2655e+001 -1.4746e+002 -2.5231e+000 59848 78582,78556,78703
 2.5000e+000 78752 -2.7531e+001 -1.5231e+002 -1.4521e+001 59848 78582,78703,78504
 2.5000e+000 78951 -2.3536e+001 -8.0666e+001 -1.0358e+001 59344 78974,78801,78775
 2.5000e+000 78928 -4.0306e+001 -1.2523e+002 -2.2988e+001 59344 79046,78974,78775
 2.5000e+000 78905 -3.8212e+001 -1.5830e+002 -2.0977e+001 59344 79046,78775,78879
 2.5000e+000 79000 -7.1079e+000 -6.5652e+001  2.1623e+001 59344 78827,78801,78974
 2.5000e+000 79023 -3.2020e+001 -8.5700e+001 -8.4816e-001 59344 78827,78974,78853
 2.5000e+000 79072 -4.8509e+001 -8.6232e+001 -9.9216e+000 59344 78853,78974,79046
 2.5000e+000 79095 -3.6528e+001 -1.0744e+002 -6.2923e+000 59344 78853,79046,78879
 2.5000e+000 79296  1.6004e+001 -1.5423e+002 -1.0701e+001 58711 79319,79172,79146
 2.5000e+000 79273  2.3156e+001 -1.3462e+002 -3.9033e+000 58711 79319,79146,79120
 2.5000e+000 79250  5.6615e+000 -1.4436e+002  2.9166e+001 58711 79172,79224,79198
 2.5000e+000 79345  6.6400e+000 -1.3247e+002 -1.0994e+001 58711 79224,79172,79319
 2.5000e+000 79368  9.5317e+000 -1.1633e+002 -7.2934e+000 58711 79224,79319,79120
 2.5000e+000 79667  9.8918e+000 -9.5246e+001 -7.8809e+000 58285 79690,79471,79393
 2.5000e+000 79644  1.2003e+001 -1.1781e+002 -1.7134e+001 58285 79690,79393,79549
 2.5000e+000 79621  4.1820e+001 -1.3944e+002  2.3943e+001 58285 79393,79471,79419
 2.5000e+000 79598  1.7356e+001 -8.4259e+001  8.2782e-001 58285 79497,79549,79523
 2.5000e+000 79575 -3.1388e+001 -2.7292e+002  5.7041e+001 58285 79419,79471,79445
 2.5000e+000 79716  1.2872e+001 -7.4277e+001  4.4414e+000 58285 79497,79471,79690
 2.5000e+000 79739  1.3606e+001 -1.0685e+002 -1.4861e+000 58285 79497,79690,79549
 2.5000e+000 80249  1.8591e+001 -3.8244e+001 -1.9402e+000 57831 80272,79978,79952
 2.5000e+000 80226  3.8167e+000 -4.0389e+001 -7.1627e+000 57831 80272,79952,80108
 2.5000e+000 80203  6.2960e+000 -7.9914e+001 -2.6951e+001 57831 79926,80108,79952
 2.5000e+000 80180 -9.7986e+000 -6.5528e+001 -7.3827e+000 57831 80004,80082,80030
 2.5000e+000 80157 -1.4324e+001 -5.1797e+001 -1.5246e+001 57831 80004,80108,80082
 2.5000e+000 80134 -5.1516e+000 -6.1995e+001 -1.1949e+001 57831 80030,80082,80056
 2.5000e+000 80298  1.4252e+001 -4.0339e+001 -1.7437e+001 57831 80004,79978,80272
 2.5000e+000 80321 -7.1830e+000 -3.9755e+001 -1.8652e+001 57831 80004,80272,80108
 2.5000e+000 80618 -3.9607e+001 -1.6197e+002  2.4466e+001 57077 80344,80448,80422
 2.5000e+000 80595 -1.1503e+001 -1.4278e+002  1.1190e+001 57077 80344,80500,80448
 2.5000e+000 80572 -6.0292e+000 -1.0409e+002  3.2448e+000 57077 80344,80422,80370
 2.5000e+000 80549 -3.8401e+001 -1.0051e+002  1.1939e+001 57077 80370,80422,80396
 2.5000e+000 80526 -4.8723e+001 -2.3917e+002  3.1076e+001 57077 80448,80500,80474
 2.5000e+000 80768 -7.4164e-001 -5.5540e+001  2.6615e+000 56787 80791,80693,80667
 2.5000e+000 80745 -1.2173e+001 -5.5261e+001  7.7393e+000 56787 80791,80667,80641
 2.5000e+000 80817  7.8960e+000 -5.4569e+001 -5.2962e+000 56787 80719,80693,80791
 2.5000e+000 80840 -2.0525e+001 -4.8031e+001 -9.1302e+000 56787 80719,80791,80641
 2.5000e+000 81429 -3.1066e+001 -6.8867e+001  1.0268e+001 56497 81452,81158,81132
 2.5000e+000 81406 -6.9288e+000 -4.5755e+001  6.1180e-001 56497 81452,81132,81288
 2.5000e+000 81383 -2.7060e+001 -8.3438e+001  3.7618e+000 56497 81524,81184,81158
 2.5000e+000 81360 -1.3726e+001 -1.7220e+002  4.1763e+001 56497 81210,81288,81236
 2.5000e+000 81337  1.2492e+000 -2.8819e+001  1.9450e+001 56497 81106,81288,81132
 2.5000e+000 81314 -4.4595e+001 -4.8732e+001  2.4482e+001 56497 81236,81288,81262
 2.5000e+000 81478 -1.5793e+001 -7.3530e+001 -2.0521e+000 56497 81524,81158,81452
 2.5000e+000 81501  2.4149e+001 -6.9236e+001  5.1652e+000 56497 81210,81452,81288
 2.5000e+000 81550 -2.7571e+001 -9.4063e+001  2.0733e+001 56497 81210,81184,81524
 2.5000e+000 81573 -1.2712e+001 -8.6312e+001  1.4908e+001 56497 81210,81524,81452
 2.5000e+000 81870 -1.3008e+001 -7.8838e+001  5.1070e+000 55979 81893,81674,81648
 2.5000e+000 81847 -2.0135e+001 -8.2442e+001  3.2168e+000 55979 81893,81648,81752
 2.5000e+000 81824 -1.8147e+001 -9.3869e+001  3.7149e+000 55979 81596,81752,81648
 2.5000e+000 81801 -5.5944e+000 -4.8771e+001 -6.3550e+000 55979 81674,81726,81700
 2.5000e+000 81778 -1.0299e+001 -7.4813e+001  9.7576e-001 55979 81596,81648,81622
 2.5000e+000 81919 -8.7326e+000 -8.1593e+001 -1.3726e+000 55979 81726,81674,81893
 2.5000e+000 81942 -1.9039e+001 -8.7051e+001 -3.7690e+000 55979 81726,81893,81752
 2.5000e+000 82371 -4.8088e+001 -8.0668e+001 -1.3910e+001 55631 82100,82204,82152
 2.5000e+000 82348 -2.0023e+001 -1.1854e+002 -3.0346e+001 55631 82100,82230,82204
 2.5000e+000 82325 -4.6270e+001 -9.1165e+001  1.0834e+001 55631 82100,82152,82126
 2.5000e+000 82302 -5.7238e+001 -2.0430e+002 -2.6354e+001 55631 82074,82230,82100
 2.5000e+000 82279 -6.4065e+001 -1.1403e+002 -7.0920e+000 55631 82152,82204,82178
 2.5000e+000 82256 -2.2811e+000 -1.0081e+002 -1.7758e+000 55631 82048,82230,82074
 2.5000e+000 82521  4.8171e+001 -6.5592e+001 -8.0650e+000 55227 82544,82420,82394
 2.5000e+000 82498  4.1636e+001 -8.6259e+001 -3.8230e+000 55227 82544,82394,82472
 2.5000e+000 82570  3.4855e+001 -4.4812e+001 -8.2389e+000 55227 82446,82420,82544
 2.5000e+000 82593  2.5312e+001 -6.4160e+001  1.2878e+000 55227 82446,82544,82472
 2.5000e+000 82875  1.5005e+001  7.0661e+000  9.7957e+000 54979 82699,82777,82725
 2.5000e+000 82852  1.2604e+001 -3.8274e+001  1.4421e+001 54979 82699,82803,82777
 2.5000e+000 82829 -1.9996e+000 -6.1053e+000  3.9463e+000 54979 82725,82777,82751
 2.5000e+000 83204 -2.1511e+001 -5.7200e+001 -1.2769e+001 54475 83005,83083,83057
 2.5000e+000 83181 -1.5906e+001 -5.5704e+001 -1.2540e+001 54475 82979,83083,83005
 2.5000e+000 83158 -1.1645e+001 -7.0474e+001 -2.0337e+001 54475 83005,83057,83031
 2.5000e+000 83135 -2.2372e+001 -7.0996e+001 -4.3874e+000 54475 82979,83109,83083
 2.5000e+000 83582 -2.6328e+001 -8.2736e+001 -5.0097e-001 54071 83605,83438,83412
 2.5000e+000 83559 -2.8207e+001 -8.7082e+001 -2.1962e-001 54071 83749,83605,83412
 2.5000e+000 83536 -3.9375e+001 -1.0744e+002  1.8355e+001 54071 83677,83360,83334
 2.5000e+000 83513 -2.4675e+001 -9.1240e+001 -1.0282e+000 54071 83749,83412,83677
 2.5000e+000 83490 -2.7215e+001 -8.4532e+001 -3.3401e+000 54071 83308,83464,83334
 2.5000e+000 83631 -2.9250e+001 -8.3683e+001 -1.1031e+000 54071 83464,83438,83605
 2.5000e+000 83654 -2.6518e+001 -7.8790e+001  3.6871e-001 54071 83464,83605,83334
 2.5000e+000 83703 -1.4999e+001 -8.8193e+001  6.6892e+000 54071 83386,83360,83677
 2.5000e+000 83726 -1.7466e+001 -7.8880e+001 -7.3873e+000 54071 83386,83677,83412
 2.5000e+000 83775 -2.2928e+001 -8.0775e+001  2.4217e+000 54071 83334,83605,83749
 2.5000e+000 83798 -1.9024e+001 -8.4956e+001  1.7912e+000 54071 83334,83749,83677
 2.5000e+000 84068 -1.0678e+001 -1.4166e+001 -1.1215e+001 53524 83869,83921,83895
 2.5000e+000 84045 -2.4367e-001 -6.0671e+001  8.4932e-001 53524 83869,83947,83921
 2.5000e+000 84022 -1.6538e+001 -7.9533e+001 -6.1377e+000 53524 83843,83947,83869
 2.5000e+000 83999  1.3432e+001 -7.3080e+001 -7.4356e+000 53524 83843,83973,83947
 2.5000e+000 84497 -3.8457e+001 -1.6422e+002 -1.0332e+000 53184 84200,84330,84252
 2.5000e+000 84474 -2.4357e+001 -1.1114e+002  1.5163e+001 53184 84200,84356,84330
 2.5000e+000 84451  4.3208e+000 -1.3854e+002  1.8713e+001 53184 84200,84252,84226
 2.5000e+000 84428 -1.5667e+001 -1.1543e+002 -4.6154e+001 53184 84252,84330,84278
 2.5000e+000 84405 -1.7397e+001 -1.0247e+002  2.5000e+000 53184 84174,84356,84200
 2.5000e+000 84382 -1.5467e+000 -1.1736e+002 -7.7290e+000 53184 84278,84330,84304
 2.5000e+000 84954  1.7424e+001 -8.0528e+001  4.5691e+001 52680 84706,84836,84784
 2.5000e+000 84931 -7.4961e+000 -5.8168e+001 -5.5898e+001 52680 84680,84836,84706
 2.5000e+000 84908 -4.6873e+000 -2.7668e+002 -1.1550e+000 52680 84784,84836,84810
 2.5000e+000 84885  1.2681e+001 -3.0979e+002 -8.9297e-001 52680 84706,84784,84732
 2.5000e+000 84862  4.1399e+001 -2.4382e+002 -7.0515e+001 52680 84732,84784,84758
 2.5000e+000 85202  2.4301e+000 -1.4649e+002  9.6405e+000 52226 85029,85081,85055
 2.5000e+000 85179 -3.8761e+001 -1.3466e+002  6.8080e+000 52226 85225,85081,85029
 2.5000e+000 85156 -2.8986e+001 -1.1107e+002  1.5109e+001 52226 85225,85029,85003
 2.5000e+000 85133 -4.6274e+001 -1.0383e+002 -2.3728e+001 52226 84977,85107,85003
 2.5000e+000 85251 -4.7250e+001 -1.3812e+002 -1.9892e+001 52226 85107,85081,85225
 2.5000e+000 85274 -3.6394e+001 -8.1987e+001 -1.6917e+001 52226 85107,85225,85003
 2.5000e+000 85522  3.6612e+001 -8.8565e+001 -1.4117e+001 51764 85297,85349,85323
 2.5000e+000 85499  2.6589e+001 -1.0369e+002  2.1454e+000 51764 85545,85297,85427
 2.5000e+000 85476  6.2006e+000 -7.4260e+001 -8.4332e+000 51764 85545,85427,85375
 2.5000e+000 85453  8.9428e+000 -6.8669e+001 -9.2998e+000 51764 85375,85427,85401
 2.5000e+000 85571  3.2266e+001 -8.6049e+001 -1.1513e+001 51764 85349,85297,85545
 2.5000e+000 85594  2.3290e+001 -4.5848e+001 -2.4251e+001 51764 85349,85545,85375
 2.5000e+000 85746 -4.4359e+001 -1.1111e+002  4.4702e+000 51374 85645,85697,85671
 2.5000e+000 85723 -5.1063e+001 -1.0666e+002 -5.0328e+000 51374 85619,85697,85645
 2.5000e+000 86256  4.5832e-001 -4.1720e+001  6.6823e+000 50970 86279,86011,85959
 2.5000e+000 86233  8.9351e+000 -2.0896e+001  4.6928e-001 50970 86279,85959,86115
 2.5000e+000 86210 -1.2115e+001 -7.1381e+001  6.1078e+000 50970 85959,86011,85985
 2.5000e+000 86187  2.3952e+001 -5.1371e+001  2.0449e+001 50970 86037,86115,86089
 2.5000e+000 86164  3.0938e+001 -8.2292e+000  2.7455e+001 50970 85933,86115,85959
 2.5000e+000 86141 -2.6144e+001 -7.3381e+001 -5.4183e-001 50970 86037,86089,86063
 2.5000e+000 86305  1.5765e+001 -6.9148e+001  7.2286e+000 50970 86037,86011,86279
 2.5000e+000 86328  2.6161e+001 -4.6105e+001  4.1214e-001 50970 86037,86279,86115
 2.5000e+000 86478 -4.0617e+001 -2.0998e+002  1.9881e+001 50451 86351,86403,86377
 2.5000e+000 86455 -1.1740e+002 -6.4547e+002 -3.9463e+000 50451 86351,86429,86403
 2.5000e+000 86907 -3.8493e+001 -1.0600e+002 -1.2495e+001 50047 86930,86714,86662
 2.5000e+000 86884 -2.2772e+001 -1.1849e+002 -1.1331e+001 50047 86930,86662,86610
 2.5000e+000 86861 -4.5868e+000 -1.3048e+002 -2.7778e+001 50047 87002,86740,86714
 2.5000e+000 86838  6.0160e+000 -8.7447e+001 -8.0548e+000 50047 86662,86714,86688
 2.5000e+000 86815 -2.7985e+001 -1.2742e+002 -7.5763e+000 50047 86610,86662,86636
 2.5000e+000 86792  3.4080e+000 -1.0872e+002  8.8675e+000 50047 86584,86766,86610
 2.5000e+000 86956 -2.5160e+001 -1.1159e+002 -1.2976e+001 50047 87002,86714,86930
 2.5000e+000 86979 -4.4459e+001 -1.3128e+002 -5.0676e+000 50047 86766,86930,86610
 2.5000e+000 87028 -3.9846e+001 -1.2079e+002 -3.0044e+001 50047 86766,86740,87002
 2.5000e+000 87051 -4.9841e+001 -1.1755e+002 -1.9517e+001 50047 86766,87002,86930
 2.5000e+000 87250 -7.9315e+000 -1.4446e+002 -2.6889e+001 49543 87273,87126,87100
 2.5000e+000 87227 -8.8471e+000 -1.2290e+002 -1.1265e+001 49543 87273,87100,87074
 2.5000e+000 87204 -2.4445e+001 -1.1029e+002 -3.7342e+001 49543 87126,87178,87152
 2.5000e+000 87299  2.5765e+000 -1.1224e+002 -2.6841e+001 49543 87178,87126,87273
 2.5000e+000 87322 -6.0820e+000 -1.0838e+002 -8.0862e+000 49543 87178,87273,87074
 2.5000e+000 87570 -4.5105e+001 -9.4151e+001  2.0296e+001 49146 87593,87449,87397
 2.5000e+000 87547 -4.1242e+001 -8.5889e+001  1.8571e+001 49146 87593,87397,87371
 2.5000e+000 87524 -4.8699e+001 -4.9507e+001  2.4001e+001 49146 87345,87475,87371
 2.5000e+000 87501 -2.0070e+001 -9.5648e+001  2.1776e+001 49146 87397,87449,87423
 2.5000e+000 87619 -4.2932e+001 -8.9760e+001  1.4806e+001 49146 87475,87449,87593
 2.5000e+000 87642 -4.1557e+001 -8.5413e+001  1.3426e+001 49146 87475,87593,87371
 2.5000e+000 88073  2.8214e+001 -5.4280e+001 -1.7308e+001 48706 87854,87932,87880
 2.5000e+000 88050  5.9082e+000 -6.0831e+001  1.3684e+000 48706 87828,87932,87854
 2.5000e+000 88027  9.9010e+000 -6.2822e+001  3.8620e+000 48706 87750,87932,87828
 2.5000e+000 88004  3.6176e+000 -8.8978e+001 -4.3475e+001 48706 87750,87802,87776
 2.5000e+000 87981  1.2246e+001 -1.2710e+002 -3.1694e+001 48706 87750,87828,87802
 2.5000e+000 87958 -1.1275e+000 -6.7617e+001 -1.4361e+001 48706 87880,87932,87906
 2.5000e+000 88402 -3.1826e+001 -1.5493e+002 -6.3343e+000 48145 88203,88281,88255
 2.5000e+000 88379 -4.5949e+001 -1.5768e+002  5.3526e+000 48145 88203,88307,88281
 2.5000e+000 88356 -2.8606e+001 -1.3061e+002 -1.1022e+001 48145 88203,88255,88229
 2.5000e+000 88333 -3.0134e+001 -1.5739e+002  2.5360e+001 48145 88177,88307,88203
 2.5000e+000 88601  2.7629e+001 -1.2769e+002  4.2263e+001 47805 88696,88624,88477
 2.5000e+000 88578 -3.3217e+001 -1.2443e+002  1.2427e+001 47805 88826,88624,88451
 2.5000e+000 88555 -4.1885e+001 -1.2774e+002  1.2806e+001 47805 88826,88451,88425
 2.5000e+000 88650  1.0068e+001 -1.6319e+002  1.6289e+001 47805 88503,88477,88624
 2.5000e+000 88673 -9.1861e+000 -1.4981e+002  2.2463e+000 47805 88503,88624,88529
 2.5000e+000 88722 -6.0507e+001 -1.5526e+002  2.7261e+001 47805 88451,88624,88696
 2.5000e+000 88852 -2.9166e+001 -1.2581e+002  1.9242e+000 47805 88529,88624,88826
 2.5000e+000 88875 -3.8570e+001 -1.2954e+002  2.3730e+000 47805 88529,88826,88425
 2.5000e+000 89172  3.2175e+001 -6.3772e+001 -1.9795e+001 47401 89195,88976,88898
 2.5000e+000 89149  2.9176e+001 -6.0679e+001 -4.8774e+001 47401 89195,88898,89054
 2.5000e+000 89126  2.5656e+001 -5.4753e+001 -2.1695e+001 47401 88898,88976,88950
 2.5000e+000 89103 -3.1619e+000 -1.0058e+002 -2.5902e+001 47401 88976,89028,89002
 2.5000e+000 89080  2.1582e+001 -5.4665e+001 -2.0961e+000 47401 88898,88950,88924
 2.5000e+000 89221  1.8096e+001 -9.6353e+001 -1.8104e+001 47401 89028,88976,89195
 2.5000e+000 89244  1.8678e+001 -8.5458e+001 -4.9386e+001 47401 89028,89195,89054
 2.5000e+000 89575 -4.4397e+000 -1.8168e+002  1.6755e+001 47111 89350,89454,89376
 2.5000e+000 89552  1.1145e+001 -1.6512e+002  9.0189e+000 47111 89350,89480,89454
 2.5000e+000 89529  8.2002e+000 -2.0506e+002 -8.1214e+000 47111 89376,89454,89402
 2.5000e+000 89506  4.9731e+001 -1.2008e+002  8.3730e+000 47111 89402,89454,89428
 2.5000e+000 89904  1.2585e+001 -6.1459e+001 -1.2138e+001 46707 89705,89757,89731
 2.5000e+000 89881 -1.0579e+001 -9.0392e+001  2.6804e+000 46707 89705,89783,89757
 2.5000e+000 89858 -3.5658e+001 -9.6797e+001  1.3748e+001 46707 89679,89783,89705
 2.5000e+000 89835 -5.2583e+000 -9.6245e+001 -2.4694e+000 46707 89679,89809,89783
 2.5000e+000 90233  6.2520e+000 -7.6445e+001 -1.5515e+001 46360 90034,90112,90086
 2.5000e+000 90210 -1.9881e+001 -7.2839e+001 -5.4885e+000 46360 90034,90138,90112
 2.5000e+000 90187 -7.7448e+000 -7.6467e+001 -1.3455e+001 46360 90034,90086,90060
 2.5000e+000 90164 -2.0300e+001 -9.2422e+001  3.8632e+000 46360 90008,90138,90034
 2.5000e+000 90530 -4.0165e+000 -9.0120e+001 -1.3787e+001 45662 90256,90360,90308
 2.5000e+000 90507 -1.6677e+001 -1.1715e+002  1.7007e+000 45662 90256,90412,90360
 2.5000e+000 90484  8.4069e-001 -1.1810e+002 -1.9790e+001 45662 90256,90308,90282
 2.5000e+000 90461  1.2912e+000 -6.1443e+001  8.1367e+000 45662 90360,90412,90386
 2.5000e+000 90438 -4.4796e+001 -7.8609e+001 -4.8132e+000 45662 90308,90360,90334
 2.5000e+000 90910 -2.5850e+001 -7.4245e+001 -1.3142e+001 45108 90688,90766,90714
 2.5000e+000 90887  1.8431e+000 -9.3890e+001  1.2324e+001 45108 90662,90766,90688
 2.5000e+000 90864 -4.7651e+001 -9.0899e+001  1.5561e+001 45108 90636,90766,90662
 2.5000e+000 90841  9.2933e+000 -1.2249e+002 -4.2010e+001 45108 90714,90766,90740
 2.5000e+000 90818 -4.3035e+001 -1.0818e+002  2.4027e+001 45108 90636,90792,90766
 2.5000e+000 91158 -2.7946e+001 -1.0176e+002 -1.5616e+001 44604 91181,91011,90959
 2.5000e+000 91135 -3.9390e+001 -1.1416e+002 -2.3820e+001 44604 91181,90959,90933
 2.5000e+000 91112 -3.2776e+001 -1.2395e+002 -2.6548e+000 44604 90959,91011,90985
 2.5000e+000 91089 -2.1160e+000 -1.4386e+002 -1.7347e+001 44604 90933,91063,91037
 2.5000e+000 91207 -1.1877e+001 -1.2115e+002 -2.8357e+001 44604 91037,91011,91181
 2.5000e+000 91230 -3.3838e+001 -1.4967e+002 -3.8680e+001 44604 91037,91181,90933
 2.5000e+000 91429  1.5313e+001 -1.4543e+002 -9.7022e+000 44264 91452,91279,91253
 2.5000e+000 91406  1.2746e+001 -1.4543e+002 -8.6350e+000 44264 91452,91253,91357
 2.5000e+000 91383 -2.6603e+001 -1.2888e+002  2.3447e+001 44264 91279,91331,91305
 2.5000e+000 91478  1.2746e+001 -1.4313e+002 -1.0449e+001 44264 91331,91279,91452
 2.5000e+000 91501  8.4922e+000 -1.4431e+002 -9.6755e+000 44264 91331,91452,91357
 2.5000e+000 92060 -8.7364e+001 -1.7144e+002 -1.7127e-001 43860 92083,91740,91688
 2.5000e+000 92037 -4.9067e+001 -1.7602e+002  1.4736e+001 43860 92083,91688,91896
 2.5000e+000 92014 -7.3641e+001 -2.0842e+002  4.7754e+000 43860 91766,91870,91844
 2.5000e+000 91991 -4.6652e+001 -1.6595e+002  1.6317e+001 43860 91740,91870,91766
 2.5000e+000 91968 -3.2512e+000 -1.8250e+002  7.5839e+000 43860 91766,91844,91792
 2.5000e+000 91945 -7.4187e+001 -1.8335e+002 -1.8273e+001 43860 91688,91740,91714
 2.5000e+000 91922 -2.6492e+001 -2.0331e+002 -1.1512e+000 43860 91792,91844,91818
 2.5000e+000 92109 -5.4999e+001 -1.6634e+002  1.7519e+001 43860 91870,91740,92083
 2.5000e+000 92132 -1.4599e+001 -1.6470e+002  3.5025e+001 43860 91870,92083,91896
 2.5000e+000 92353  2.7260e+001 -1.1464e+002 -2.0771e+001 43662 92203,92255,92229
 2.5000e+000 92330 -6.7442e+000 -1.1872e+002 -6.2700e+000 43662 92376,92203,92281
 2.5000e+000 92307  2.4937e+001 -6.4251e+001  7.6357e+000 43662 92177,92281,92203
 2.5000e+000 92402 -4.6710e+001 -1.3571e+002 -3.5185e-001 43662 92255,92203,92376
 2.5000e+000 92682  1.7166e+001 -1.6880e+002 -2.6089e+001 43464 92532,92584,92558
 2.5000e+000 92659  2.8505e+001 -1.2454e+002 -9.6818e+000 43464 92506,92584,92532
 2.5000e+000 92636 -5.8017e+000 -1.3134e+002 -1.6491e+001 43464 92506,92610,92584
 2.5000e+000 93013  1.1663e+001 -1.2317e+002 -3.5350e+001 42960 92866,92918,92892
 2.5000e+000 92990 -1.1497e+001 -1.3015e+002 -1.6777e+001 42960 93036,92918,92866
 2.5000e+000 92967  1.2716e+001 -1.4747e+002 -5.5367e+000 42960 93036,92866,92840
 2.5000e+000 92944  1.4338e+000 -1.1439e+002  5.7627e-001 42960 92788,92918,92814
 2.5000e+000 93062  1.6496e+000 -1.2939e+002 -5.4132e+000 42960 92814,92918,93036
 2.5000e+000 93085  5.1855e+001 -1.2610e+002  8.3340e+000 42960 92814,93036,92840
 2.5000e+000 93186 -4.1670e+001 -1.1817e+002 -1.2372e+001 42556 93108,93160,93134
 2.5000e+000 93554 -4.3462e+001 -1.6602e+002  2.4205e+000 42052 93231,93387,93361
 2.5000e+000 93531 -4.8019e+001 -1.5484e+002  2.5116e+001 42052 93231,93413,93387
 2.5000e+000 93508 -5.9883e+001 -1.5849e+002  4.8715e+000 42052 93231,93361,93257
 2.5000e+000 93485 -2.5702e+001 -1.3045e+002  1.7770e+001 42052 93283,93361,93335
 2.5000e+000 93462 -4.3787e+001 -1.4894e+002  9.0799e+000 42052 93257,93361,93283
 2.5000e+000 93439  1.0289e+001 -1.1127e+002 -9.1371e-001 42052 93283,93335,93309
 2.5000e+000 94162  8.8825e+000 -8.8299e+001 -5.8717e+000 41498 93767,93975,93793
 2.5000e+000 94139 -4.4956e-001 -9.0192e+001  6.5301e+000 41498 93741,93975,93767
 2.5000e+000 94116 -1.1328e+001 -7.3103e+001 -3.5824e+000 41498 93793,93975,93923
 2.5000e+000 94093 -2.4856e+001 -1.0484e+002  4.5177e+000 41498 93923,93975,93949
 2.5000e+000 94070 -1.9040e+001 -4.9095e+001 -1.0524e+001 41498 93871,93923,93897
 2.5000e+000 94047 -8.5894e+000 -6.6433e+001 -9.5231e+000 41498 93793,93923,93871
 2.5000e+000 94024 -1.4412e+000 -5.2065e+001 -1.3539e+001 41498 93819,93871,93845
 2.5000e+000 94001 -5.8748e+000 -5.6183e+001 -9.8991e+000 41498 93793,93871,93819
 2.5000e+000 94619 -3.0095e+001 -1.2879e+002 -3.4139e+001 40930 94642,94423,94371
 2.5000e+000 94596 -7.5201e+000 -1.3064e+002 -3.5925e+000 40930 94642,94371,94345
 2.5000e+000 94573 -5.7930e+000 -5.3640e+001  7.0428e+000 40930 94345,94501,94475
 2.5000e+000 94550  1.7112e+001 -1.4477e+002 -4.7893e+001 40930 94371,94423,94397
 2.5000e+000 94527 -1.4091e+001 -7.0203e+001 -1.7966e+001 40930 94423,94475,94449
 2.5000e+000 94668 -6.2509e+000 -7.8613e+001 -2.7091e+001 40930 94475,94423,94642
 2.5000e+000 94691  1.5276e+000 -1.1081e+002 -8.0719e-001 40930 94475,94642,94345
 2.5000e+000 95148 -6.9450e+001 -1.4847e+002  3.5946e+001 40362 95171,94952,94926
 2.5000e+000 95125 -5.0546e+001 -1.3876e+002  4.2954e+001 40362 95171,94926,95004
 2.5000e+000 95102 -7.4158e+001 -1.5674e+002  3.5068e+001 40362 94874,95004,94926
 2.5000e+000 95079 -2.1784e+001 -1.5304e+002  6.2040e+001 40362 94874,95030,95004
 2.5000e+000 95056 -7.4775e+001 -1.6458e+002  2.9160e+001 40362 94874,94926,94900
 2.5000e+000 95197 -5.2266e+001 -1.4461e+002  4.6065e+001 40362 94978,94952,95171
 2.5000e+000 95220 -3.7089e+001 -1.3678e+002  5.2990e+001 40362 94978,95171,95004
 2.5000e+000 95549 -1.7160e+001 -1.1090e+002  8.7755e+000 39586 95350,95402,95376
 2.5000e+000 95526  2.6994e+001 -6.4941e+001 -1.3180e+001 39586 95324,95402,95350
 2.5000e+000 95503 -1.1664e+001 -8.7416e+001  3.1630e+001 39586 95324,95454,95402
 2.5000e+000 95480 -1.0918e+001 -1.3701e+002  3.2964e+001 39586 95402,95454,95428
 2.5000e+000 96055 -1.3695e+001 -6.0882e+001 -5.3897e+000 38968 96078,95862,95810
 2.5000e+000 96032 -8.1836e+000 -5.5653e+001 -3.0768e+000 38968 96078,95810,95758
 2.5000e+000 96009 -1.3692e+001 -8.3905e+001 -1.5973e+001 38968 96150,95732,95888
 2.5000e+000 95986  3.6882e-001 -4.2642e+001  1.1480e+001 38968 95810,95862,95836
 2.5000e+000 95963 -4.2282e+000 -7.8399e+001 -1.8724e+001 38968 95732,95914,95888
 2.5000e+000 95940 -3.0688e+001 -6.0679e+001  1.6554e+001 38968 95758,95810,95784
 2.5000e+000 96104  5.2067e+000 -6.0624e+001 -1.6988e+000 38968 95888,95862,96078
 2.5000e+000 96127 -1.4461e+001 -7.9035e+001 -9.2887e+000 38968 96150,95888,96078
 2.5000e+000 96176 -1.8122e+001 -6.7075e+001 -1.0942e+001 38968 95758,95732,96150
 2.5000e+000 96199 -1.4223e+001 -5.7928e+001 -3.4338e+000 38968 95758,96150,96078
 2.5000e+000 96545  2.1354e+001 -1.1262e+002 -2.2535e+001 38507 96640,96568,96352
 2.5000e+000 96522 -4.1192e+001 -1.8013e+002  3.2624e+001 38507 96568,96300,96222
 2.5000e+000 96499  6.5117e+001 -7.0720e+001 -7.4557e+001 38507 96640,96352,96326
 2.5000e+000 96476 -4.6989e+000 -1.5897e+002 -4.1346e+001 38507 96352,96404,96378
 2.5000e+000 96453 -8.7601e+001 -1.9112e+002  1.7360e+000 38507 96222,96300,96248
 2.5000e+000 96430 -6.1022e+001 -2.2534e+002 -3.5568e+001 38507 96248,96300,96274
 2.5000e+000 96594 -3.6486e+001 -1.5741e+002 -2.9917e+000 38507 96404,96352,96568
 2.5000e+000 96617 -3.6808e+000 -1.3736e+002  1.4204e+001 38507 96404,96568,96222
 2.5000e+000 96666 -1.4342e+001 -1.8553e+002  2.3150e+001 38507 96300,96568,96640
 2.5000e+000 96689 -1.2306e+000 -1.5781e+002 -2.3752e+001 38507 96300,96640,96326
 2.5000e+000 97069  1.6691e+000 -3.0654e+001  3.1931e+000 37760 97092,96873,96821
 2.5000e+000 97046 -6.4825e+000 -3.4519e+001  7.0611e+000 37760 97092,96821,96795
 2.5000e+000 97023 -4.1178e+001 -1.7760e+001  5.0750e+000 37760 96821,96873,96847
 2.5000e+000 97000  1.2823e+001  5.0620e+000 -7.8184e+000 37760 96873,96925,96899
 2.5000e+000 96977 -3.3412e+000 -2.6522e+001 -1.1506e+001 37760 96795,96951,96925
 2.5000e+000 97118  9.1722e+000 -2.2030e+001 -9.0782e+000 37760 96925,96873,97092
 2.5000e+000 97141 -1.4956e+001 -3.2939e+001 -4.2905e+000 37760 96925,97092,96795
 2.5000e+000 97647 -7.2933e+001 -1.5416e+002  1.6874e+001 37356 97324,97480,97376
 2.5000e+000 97624 -2.0734e+001 -1.6000e+002  6.1108e+001 37356 97324,97506,97480
 2.5000e+000 97601 -5.5977e+001 -9.0213e+001  3.2497e+001 37356 97376,97480,97454
 2.5000e+000 97578 -6.3557e+001 -1.4187e+002  1.1895e+001 37356 97324,97376,97350
 2.5000e+000 97555 -4.8437e+001 -9.2931e+001  2.0992e+001 37356 97376,97454,97402
 2.5000e+000 97532 -6.8925e+001 -7.3527e+001  1.7750e+001 37356 97402,97454,97428
 2.5000e+000 98232 -3.6474e+000 -2.9385e+001 -6.8028e+000 36902 97935,98065,98013
 2.5000e+000 98209  2.0952e+001 -2.7983e+001 -1.3317e+001 36902 97935,98091,98065
 2.5000e+000 98186  9.7183e+000 -2.7351e+001 -6.0316e+000 36902 97935,98013,97987
 2.5000e+000 98163  1.0103e+001 -3.7431e+000 -1.6728e+001 36902 97909,98091,97935
 2.5000e+000 98140  9.4759e+000  1.7368e+000  2.8071e+000 36902 97935,97987,97961
 2.5000e+000 98117 -9.1247e+000 -4.0692e+001 -8.7819e+000 36902 98013,98065,98039
 2.5000e+000 98659 -2.9492e+001 -1.7580e+002 -3.2330e+001 36604 98682,98414,98388
 2.5000e+000 98636 -1.6381e+001 -1.6103e+002  7.3200e+000 36604 98682,98388,98336
 2.5000e+000 98613 -1.8865e+001 -1.4010e+002  8.3444e+000 36604 98754,98518,98466
 2.5000e+000 98590 -1.6600e+001 -8.1514e+001 -2.1302e+001 36604 98414,98466,98440
 2.5000e+000 98567  2.6166e+001 -2.1846e+002  1.6946e+001 36604 98336,98388,98362
 2.5000e+000 98544 -2.8179e+000 -1.8372e+002  8.5309e+001 36604 98466,98518,98492
 2.5000e+000 98708 -7.4697e+000 -1.2585e+002 -2.8839e+001 36604 98466,98414,98682
 2.5000e+000 98731 -1.5504e+001 -1.4246e+002  7.5738e+000 36604 98754,98466,98682
 2.5000e+000 98780 -1.5514e+001 -1.4050e+002  8.8027e+000 36604 98336,98518,98754
 2.5000e+000 98803 -1.0124e+001 -1.4099e+002  9.0173e+000 36604 98336,98754,98682
 2.5000e+000 99309 -2.2801e+001 -7.5922e+001  1.8158e+001 36200 99332,99116,99012
 2.5000e+000 99286 -1.5225e+001 -1.8051e+001 -9.1231e+000 36200 99332,99012,98986
 2.5000e+000 99263 -5.9535e+000 -7.4908e+001  4.0088e+000 36200 99012,99116,99064
 2.5000e+000 99240 -4.4583e-001 -4.8498e+001 -3.6807e+000 36200 98986,99168,99142
 2.5000e+000 99217 -2.3097e+001 -1.0505e+002  1.8344e+001 36200 99064,99116,99090
 2.5000e+000 99194 -2.7999e+001 -6.7190e+001 -1.3836e+001 36200 99012,99064,99038
 2.5000e+000 99358 -2.7128e+001 -1.1784e+002  3.9281e+001 36200 99142,99116,99332
 2.5000e+000 99381 -2.1999e+001 -7.8286e+001  6.4697e+000 36200 99142,99332,98986
 2.5000e+000 99887 -2.2810e+001 -1.0276e+002  5.3562e+000 35488 99564,99720,99590
 2.5000e+000 99864 -1.7201e+001 -8.4428e+001 -7.7408e+000 35488 99564,99746,99720
 2.5000e+000 99841  1.0299e+001 -1.0631e+002  8.1862e+000 35488 99642,99694,99668
 2.5000e+000 99818 -1.1853e+001 -1.2176e+002  1.9219e+001 35488 99590,99694,99642
 2.5000e+000 99795  1.4310e+001 -9.6120e+001  6.9575e+000 35488 99590,99720,99694
 2.5000e+000 99772  3.5429e+001 -1.8570e+002  2.5363e+001 35488 99590,99642,99616
 2.5000e+000 99988  5.9507e+000 -4.4453e+001  7.4832e-001 35198 99910,99962,99936
 2.5000e+000 100138 -7.4937e+000 -1.0410e+002  9.4609e+000 34794 100233,100161,100063
 2.5000e+000 100115 -6.5484e+001 -1.1707e+002  3.3140e+000 34794 100365,100161,100037
 2.5000e+000 100187  7.6486e+001 -1.0249e+002 -5.3693e+000 34794 100089,100063,100161
 2.5000e+000 100210 -8.7551e+000 -1.1091e+002  4.8090e-001 34794 100089,100161,100011
 2.5000e+000 100259 -2.9316e+001 -1.3772e+002 -1.8222e+001 34794 100037,100161,100233
 2.5000e+000 100391 -1.5670e+000 -9.7332e+001 -3.7499e+000 34794 100011,100161,100365
 2.5000e+000 100927 -2.3925e+001 -9.9647e+001 -2.8017e+000 34404 100679,100809,100783
 2.5000e+000 100904 -8.1080e+000 -1.0289e+002 -1.9943e+000 34404 100653,100809,100679
 2.5000e+000 100881 -2.0582e+001 -1.2147e+002 -6.9870e+000 34404 100705,100783,100731
 2.5000e+000 100858 -2.5187e+001 -1.0316e+002  3.2729e+000 34404 100679,100783,100705
 2.5000e+000 100835 -4.5151e+001 -1.0946e+002 -4.5472e+001 34404 100731,100783,100757
 2.5000e+000 101354 -3.8773e+001 -1.6207e+002  2.6307e+001 34000 101377,101109,101057
 2.5000e+000 101331 -6.9135e+001 -1.7681e+002  2.1713e+001 34000 101449,101377,101057
 2.5000e+000 101308 -7.6301e+001 -1.5616e+002  2.2162e+001 34000 101449,101057,101031
 2.5000e+000 101285 -7.1248e+001 -1.4299e+002  2.8781e+001 34000 101031,101213,101187
 2.5000e+000 101262 -5.7789e+001 -1.9695e+002 -2.0415e+001 34000 101135,101187,101161
 2.5000e+000 101239 -7.4038e+001 -2.2437e+002  4.7003e+001 34000 101057,101109,101083
 2.5000e+000 101403 -5.1195e+001 -1.6025e+002  7.0254e+000 34000 101135,101109,101377
 2.5000e+000 101426 -8.1762e+001 -1.7112e+002 -1.4105e+000 34000 101135,101377,101187
 2.5000e+000 101475 -5.2540e+001 -1.5136e+002  1.3930e+001 34000 101187,101377,101449
 2.5000e+000 101498 -6.8804e+001 -1.4211e+002  1.7694e+001 34000 101187,101449,101031
 2.5000e+000 102083  2.9610e+001 -7.7130e+001 -2.9660e+000 33472 102106,101812,101786
 2.5000e+000 102060 -1.4909e+001 -9.6333e+001 -1.3852e-001 33472 102106,101786,101916
 2.5000e+000 102037 -4.3321e+001 -9.3610e+001 -2.4228e+001 33472 101812,101864,101838
 2.5000e+000 102014 -2.1917e+001 -1.2194e+002 -1.3455e+001 33472 101864,101916,101890
 2.5000e+000 101991 -2.7073e+001 -1.0896e+002 -5.0917e+000 33472 101786,101942,101916
 2.5000e+000 101968 -3.6996e+001 -1.0842e+002  1.8316e+001 33472 101760,101942,101786
 2.5000e+000 102132  1.7581e+000 -7.6606e+001 -2.0342e+001 33472 101864,101812,102106
 2.5000e+000 102155 -1.2947e+001 -8.1942e+001 -2.1136e+001 33472 101864,102106,101916
 2.5000e+000 102612 -4.5794e+001 -1.4536e+002 -5.9111e+001 33038 102635,102468,102390
 2.5000e+000 102589 -7.2559e+001 -1.8969e+002 -7.3894e+001 33038 102635,102390,102364
 2.5000e+000 102566 -1.4083e+001 -1.3359e+002 -5.2913e+001 33038 102390,102468,102442
 2.5000e+000 102543 -2.8380e+001 -1.5585e+002 -3.3609e+001 33038 102338,102494,102364
 2.5000e+000 102520 -2.2552e+001 -1.2685e+002 -3.3957e+001 33038 102390,102442,102416
 2.5000e+000 102661 -4.6024e+001 -1.3480e+002 -3.3206e+001 33038 102494,102468,102635
 2.5000e+000 102684 -5.4145e+001 -1.6128e+002 -4.3850e+001 33038 102494,102635,102364
 2.5000e+000 103318 -1.9208e+001 -6.4296e+001  6.4331e+000 32402 102972,103128,103076
 2.5000e+000 103295 -1.9374e+001 -6.9446e+001  4.6169e+000 32402 102946,103128,102972
 2.5000e+000 103272 -1.5826e+001 -6.2379e+001  1.8188e+001 32402 103076,103128,103102
 2.5000e+000 103249 -1.1515e+001 -6.3668e+001  3.1545e+001 32402 102946,103154,103128
 2.5000e+000 103226 -2.5054e+001 -5.8191e+001 -9.3928e-001 32402 102972,103076,102998
 2.5000e+000 103203 -7.3157e+000 -8.3965e+001 -2.1830e+001 32402 102998,103076,103050
 2.5000e+000 103180 -2.6354e+001 -4.0402e+001 -3.3492e+001 32402 102998,103050,103024
 2.5000e+000 103696 -5.9098e+001 -1.7555e+002 -8.1835e+000 31924 103448,103526,103500
 2.5000e+000 103673 -2.6531e+001 -1.6659e+002 -2.8490e+001 31924 103448,103578,103526
 2.5000e+000 103650 -4.4039e+001 -1.5840e+002 -1.4542e+001 31924 103448,103500,103474
 2.5000e+000 103627 -3.3713e+001 -1.9133e+002 -3.3028e+001 31924 103422,103578,103448
 2.5000e+000 103604 -5.1885e+001 -2.5860e+002 -4.1650e+000 31924 103526,103578,103552
 2.5000e+000 104281 -1.8498e+000 -3.4847e+001 -1.7878e+001 31520 104304,104062,104036
 2.5000e+000 104258  8.0303e-001 -4.0024e+001 -1.8988e+001 31520 104304,104036,103984
 2.5000e+000 104235 -2.9664e+001 -7.3421e+001 -2.9589e+001 31520 104062,104114,104088
 2.5000e+000 104212 -2.6012e+000 -4.4081e+001 -1.4859e+001 31520 103958,104114,103984
 2.5000e+000 104189 -1.2705e+001 -7.0517e+001 -3.2962e-001 31520 103984,104036,104010
 2.5000e+000 104166 -1.4285e+001 -6.4243e+000 -1.1990e+001 31520 103958,104140,104114
 2.5000e+000 104330 -4.1062e+000 -3.9069e+001 -1.6992e+001 31520 104114,104062,104304
 2.5000e+000 104353 -9.6552e-001 -4.2647e+001 -1.8195e+001 31520 104114,104304,103984
 2.5000e+000 104704 -1.5030e+001 -2.5826e+001 -7.6100e+000 31066 104479,104583,104505
 2.5000e+000 104681  2.7878e+001 -1.2773e+000 -1.7515e+001 31066 104479,104609,104583
 2.5000e+000 104658 -2.1515e+000 -7.5244e+001  2.7549e-001 31066 104505,104557,104531
 2.5000e+000 104635  4.1785e+000 -2.5049e+001 -8.5415e+000 31066 104505,104583,104557
 2.5000e+000 104925  5.3314e+001 -1.2940e+002 -1.4404e+001 30754 104775,104827,104801
 2.5000e+000 104902  1.1501e+001 -1.0827e+002  3.7081e+000 30754 104775,104853,104827
 2.5000e+000 104879  7.1765e+001 -8.1845e+001  1.3054e+001 30754 104749,104853,104775
 2.5000e+000 105482 -5.0748e+001 -1.2773e+002  1.3813e+001 30164 105505,105136,105110
 2.5000e+000 105459 -3.9159e+001 -1.4617e+002  2.0036e+001 30164 105649,105505,105110
 2.5000e+000 105436 -3.2088e+001 -1.2399e+002  6.6331e+000 30164 105577,105188,105136
 2.5000e+000 105413 -5.3732e+001 -1.5398e+002  3.0128e+001 30164 105649,105110,105318
 2.5000e+000 105390 -5.0309e+001 -2.0934e+002  3.4130e+001 30164 105214,105292,105240
 2.5000e+000 105367  2.3282e+001 -1.9544e+002  3.6787e+001 30164 105240,105292,105266
 2.5000e+000 105344 -3.9941e+001 -1.0450e+002  1.8155e+000 30164 105136,105188,105162
 2.5000e+000 105531 -3.9103e+001 -1.2586e+002  1.5149e+001 30164 105577,105136,105505
 2.5000e+000 105554 -1.1294e+001 -1.2438e+002  1.4673e+001 30164 105214,105505,105292
 2.5000e+000 105603 -3.0996e+001 -1.1268e+002  3.3453e-002 30164 105214,105188,105577
 2.5000e+000 105626 -3.4503e+001 -1.1240e+002  8.0884e+000 30164 105214,105577,105505
 2.5000e+000 105675 -3.2973e+001 -1.3432e+002  9.3609e+000 30164 105292,105505,105649
 2.5000e+000 105698 -3.4860e+001 -1.3090e+002  1.7643e+001 30164 105292,105649,105318
 2.5000e+000 106027  2.1290e+001 -7.1463e+001  3.4737e+000 29868 106322,106050,105880
 2.5000e+000 106004 -6.3073e+000 -7.0010e+001 -6.7852e+000 29868 106250,106050,105828
 2.5000e+000 105981 -9.1794e+000 -6.8928e+001 -2.4313e+000 29868 106250,105828,105802
 2.5000e+000 105958  1.1497e+000 -5.8444e+001  2.1257e+001 29868 106322,105880,106122
 2.5000e+000 106076  5.8743e+000 -9.6908e+001 -5.9116e+000 29868 105906,105880,106050
 2.5000e+000 106099  6.7515e+000 -7.5592e+001 -1.0641e+001 29868 105906,106050,105932
 2.5000e+000 106148 -4.5677e+001 -1.0365e+002  1.7457e+001 29868 105854,105828,106122
 2.5000e+000 106276 -4.5021e+000 -6.3247e+001 -1.1086e+001 29868 105932,106050,106250
 2.5000e+000 106299 -1.0260e+001 -6.1363e+001 -6.5138e+000 29868 105932,106250,105802
 2.5000e+000 106348 -1.5148e+001 -8.3293e+001 -5.2353e-001 29868 105828,106050,106322
 2.5000e+000 106371 -3.1576e+001 -6.7774e+001  1.7201e+001 29868 105828,106322,106122
 2.5000e+000 106828  3.3678e+000 -5.7704e+001  5.4396e+000 29521 106580,106710,106684
 2.5000e+000 106805 -2.3724e+001 -6.7051e+001 -2.0023e+001 29521 106554,106710,106580
 2.5000e+000 106782 -1.6843e+001 -6.4133e+001  2.1607e+000 29521 106580,106684,106606
 2.5000e+000 106759 -3.1770e+001 -9.4785e+001 -2.7100e+000 29521 106606,106684,106658
 2.5000e+000 106736 -1.0653e+001 -5.2868e+001  1.4137e+001 29521 106606,106658,106632
 2.5000e+000 107027 -3.0635e+001 -1.2337e+002 -3.9537e+001 29117 106877,106929,106903
 2.5000e+000 107004 -1.4323e+001 -1.1637e+002 -3.9093e+001 29117 106851,106929,106877
 2.5000e+000 106981 -2.9323e+001 -1.7236e+002 -2.7820e+001 29117 106851,106955,106929
 2.5000e+000 107456 -7.6375e+001 -1.7443e+002 -4.4078e+001 28656 107237,107315,107263
 2.5000e+000 107433 -1.3515e+001 -1.2186e+002 -2.0656e+001 28656 107133,107315,107237
 2.5000e+000 107410 -1.1356e+001 -9.7511e+001 -1.3881e+001 28656 107133,107237,107159
 2.5000e+000 107387 -1.1808e+001 -5.4415e+001 -2.2567e+001 28656 107159,107237,107185
 2.5000e+000 107364 -4.0556e+000 -4.4122e+001  1.0950e+000 28656 107185,107237,107211
 2.5000e+000 107341 -1.0025e+001 -3.6826e+001 -9.4508e+000 28656 107263,107315,107289
 2.5000e+000 107704 -2.3182e+000 -1.1758e+002  2.0757e+000 27902 107727,107557,107531
 2.5000e+000 107681  1.2349e+001 -1.0053e+002  9.2343e+000 27902 107727,107531,107505
 2.5000e+000 107658 -1.2370e+001 -1.2243e+002 -2.1147e+001 27902 107557,107609,107583
 2.5000e+000 107635 -3.9758e+001 -9.5694e+001  5.3190e+000 27902 107479,107609,107505
 2.5000e+000 107753 -1.8856e+001 -1.0150e+002 -6.5652e+000 27902 107609,107557,107727
 2.5000e+000 107776 -6.1608e+000 -8.8143e+001 -4.2175e-001 27902 107609,107727,107505
 2.5000e+000 108333 -4.1187e+001 -2.0126e+002  1.3990e+000 27341 108356,108065,108013
 2.5000e+000 108310 -1.4256e+001 -1.8004e+002 -4.1079e+001 27341 108356,108013,108143
 2.5000e+000 108287 -7.2832e+001 -2.1902e+002 -1.0193e+001 27341 108428,108117,108091
 2.5000e+000 108264 -4.2469e+001 -1.8378e+002 -3.0386e-001 27341 108013,108065,108039
 2.5000e+000 108241 -8.1353e+001 -1.6251e+002 -4.7115e+001 27341 107987,108143,108013
 2.5000e+000 108218 -3.5046e+001 -1.4348e+002 -3.1393e+001 27341 107987,108169,108143
 2.5000e+000 108195 -3.5331e+001 -1.1198e+002 -2.5211e+001 27341 107961,108169,107987
 2.5000e+000 108382 -4.3824e+001 -2.0664e+002  9.9830e-002 27341 108091,108065,108356
 2.5000e+000 108405 -7.1409e+001 -1.9482e+002 -9.2149e+000 27341 108428,108091,108356
 2.5000e+000 108454 -5.9938e+001 -2.9677e+002 -1.5669e+001 27341 108143,108117,108428
 2.5000e+000 108477 -4.3945e+001 -2.5104e+002 -1.9755e+001 27341 108143,108428,108356
 2.5000e+000 108725  5.1118e+001 -1.6955e+002  1.1500e+001 27029 108748,108526,108500
 2.5000e+000 108702  1.3011e+001 -1.0493e+002  3.3244e+001 27029 108748,108500,108630
 2.5000e+000 108679 -3.9034e+001 -1.3246e+002  4.4057e+000 27029 108578,108630,108604
 2.5000e+000 108656  3.8858e+001 -1.5022e+002  3.1846e+001 27029 108526,108578,108552
 2.5000e+000 108774  1.6080e+001 -1.8463e+002 -6.8728e+000 27029 108578,108526,108748
 2.5000e+000 108797 -4.4028e+001 -1.4388e+002  5.1015e+000 27029 108578,108748,108630
 2.5000e+000 109045  3.0669e+001 -9.0278e+001  1.5049e-001 26610 108872,108924,108898
 2.5000e+000 109022  3.2331e+000 -9.3494e+001 -8.9638e-001 26610 108872,108950,108924
 2.5000e+000 108999 -5.1245e-001 -1.0940e+002  2.9630e+000 26610 108846,108950,108872
 2.5000e+000 108976  1.3639e+001 -1.4743e+002 -5.7101e-001 26610 108820,108950,108846
 2.5000e+000 109366 -1.4062e+001 -2.0457e+002  8.9209e+000 26006 109144,109222,109196
 2.5000e+000 109343 -1.1424e+001 -2.1360e+002  6.0740e+000 26006 109118,109222,109144
 2.5000e+000 109320 -4.5461e+001 -2.3710e+002  2.0362e+001 26006 109092,109222,109118
 2.5000e+000 109297  1.7201e+001 -1.8822e+002 -1.9068e+001 26006 109144,109196,109170
 2.5000e+000 109274 -2.4637e-001 -1.7606e+002 -9.1037e-002 26006 109092,109248,109222
 2.5000e+000 109567 -5.1656e+001 -1.2795e+002 -2.3768e+001 25659 109391,109469,109443
 2.5000e+000 109544 -4.3061e+001 -1.2748e+002 -1.6148e+001 25659 109391,109495,109469
 2.5000e+000 109521 -2.8193e+001 -1.0571e+002 -3.8208e+001 25659 109391,109443,109417
 2.5000e+000 109900 -4.0057e+001 -1.1287e+002 -6.5050e+000 25255 109923,109779,109753
 2.5000e+000 109877 -3.7768e+001 -1.0896e+002 -9.0483e+000 25255 109923,109753,109701
 2.5000e+000 109854 -3.4910e+001 -7.9774e+001 -9.1537e+000 25255 109675,109805,109701
 2.5000e+000 109831 -5.9314e+001 -1.0680e+002 -9.0617e+000 25255 109701,109753,109727
 2.5000e+000 109949 -3.6123e+001 -1.1749e+002 -1.0697e+001 25255 109805,109779,109923
 2.5000e+000 109972 -3.3267e+001 -1.1041e+002 -1.3574e+001 25255 109805,109923,109701
 2.5000e+000 110220 -4.5736e+001 -1.2506e+002  2.0920e+001 24701 110243,110021,109995
 2.5000e+000 110197 -4.4368e+001 -1.3114e+002  1.6628e+000 24701 110243,109995,110099
 2.5000e+000 110174 -3.1728e+001 -1.1942e+002  5.6337e+000 24701 110315,110073,110047
 2.5000e+000 110151 -4.2934e+001 -1.3694e+002  2.7884e+000 24701 109995,110125,110099
 2.5000e+000 110269 -2.0501e+001 -1.1734e+002  2.0113e+001 24701 110047,110021,110243
 2.5000e+000 110292 -5.2330e+001 -1.1993e+002  1.1524e+001 24701 110315,110047,110243
 2.5000e+000 110341  2.4935e+001 -1.0754e+002  6.6808e+000 24701 110099,110073,110315
 2.5000e+000 110364 -1.1968e+001 -1.1725e+002  8.7482e+000 24701 110099,110315,110243
 2.5000e+000 110661 -2.8949e+001 -1.6532e+002 -1.0316e+001 24197 110684,110413,110387
 2.5000e+000 110638 -1.7974e+001 -1.5472e+002 -2.6495e+001 24197 110684,110387,110543
 2.5000e+000 110615  9.4301e+000 -2.4749e+002  1.2651e+001 24197 110756,110491,110465
 2.5000e+000 110592 -4.4223e+001 -1.3550e+002  6.1018e+000 24197 110413,110465,110439
 2.5000e+000 110569 -1.0739e+001 -3.5334e+002 -2.1667e+001 24197 110491,110543,110517
 2.5000e+000 110710 -8.3667e+000 -1.5154e+002  7.3510e+000 24197 110465,110413,110684
 2.5000e+000 110733 -3.5300e+001 -2.1092e+002  4.7180e-001 24197 110756,110465,110684
 2.5000e+000 110782  4.4772e+001 -2.0630e+002 -1.3022e+001 24197 110543,110491,110756
 2.5000e+000 110805  1.6263e+001 -1.5313e+002 -2.8682e+001 24197 110543,110756,110684
 2.5000e+000 111315 -4.0811e+001 -1.5442e+002 -1.8363e+001 23593 111044,111148,111070
 2.5000e+000 111292 -4.9880e+001 -1.3796e+002 -1.0667e+001 23593 111044,111174,111148
 2.5000e+000 111269 -1.1510e+001 -1.1176e+002 -6.9265e+000 23593 111070,111122,111096
 2.5000e+000 111246 -4.8992e+001 -1.6240e+002 -2.6120e+001 23593 111070,111148,111122
 2.5000e+000 111223 -6.5110e+001 -1.2907e+002 -3.0183e+001 23593 111018,111174,111044
 2.5000e+000 111200 -1.7890e+001 -1.5708e+002 -2.3479e+001 23593 110992,111174,111018
 2.5000e+000 111821  9.8057e+000 -1.8276e+002 -3.1906e+000 23089 111916,111844,111628
 2.5000e+000 111798 -4.8533e+001 -2.1380e+002 -3.3379e+001 23089 111844,111550,111524
 2.5000e+000 111775  1.4894e+001 -1.6717e+002 -3.3322e-002 23089 111916,111628,111602
 2.5000e+000 111752 -5.6636e+000 -3.0193e+002 -1.6571e+001 23089 111498,111680,111524
 2.5000e+000 111729 -1.4743e-001 -1.3043e+002  1.9629e+001 23089 111550,111602,111576
 2.5000e+000 111706  7.0430e-001 -1.1263e+002 -1.6650e+001 23089 111628,111680,111654
 2.5000e+000 111870 -6.5070e+000 -1.7123e+002  1.0764e+001 23089 111680,111628,111844
 2.5000e+000 111893 -1.2409e+001 -1.8585e+002  3.4428e+000 23089 111680,111844,111524
 2.5000e+000 111942 -8.3205e+000 -1.5667e+002 -9.9857e+000 23089 111550,111844,111916
 2.5000e+000 111965 -2.7285e+000 -1.4145e+002 -5.2246e+000 23089 111550,111916,111602
 2.5000e+000 112164  7.6482e+000 -1.0526e+002 -1.8000e+001 22626 112187,112014,111988
 2.5000e+000 112141 -1.0843e+001 -1.3176e+002 -9.4771e+000 22626 112259,112187,111988
 2.5000e+000 112118 -8.7011e+000 -1.4121e+002  7.2995e+000 22626 112259,111988,112092
 2.5000e+000 112213 -6.1421e+000 -6.9336e+001 -1.3146e+001 22626 112040,112014,112187
 2.5000e+000 112236 -2.7291e+001 -1.0607e+002 -4.0672e+000 22626 112040,112187,112066
 2.5000e+000 112285 -3.3152e+000 -1.0551e+002 -1.0778e+001 22626 112066,112187,112259
 2.5000e+000 112308  1.5094e+000 -1.1233e+002  4.8741e+000 22626 112066,112259,112092
 2.5000e+000 112605  4.5768e+001 -1.4389e+002  1.0673e+001 22286 112628,112383,112357
 2.5000e+000 112582 -2.4002e+000 -1.5540e+002  1.9451e+000 22286 112772,112628,112357
 2.5000e+000 112559 -5.0893e+001 -1.7592e+002  1.2853e+001 22286 112700,112435,112409
 2.5000e+000 112536 -3.6062e+001 -1.5890e+002  8.9429e+000 22286 112772,112357,112331
 2.5000e+000 112513 -7.6989e+001 -1.5164e+002  1.3696e+001 22286 112435,112487,112461
 2.5000e+000 112654  1.9593e+001 -1.2006e+002 -1.9910e+001 22286 112409,112383,112628
 2.5000e+000 112677 -3.0203e+001 -1.4917e+002 -5.1530e+000 22286 112700,112409,112628
 2.5000e+000 112726 -2.0923e+001 -1.4983e+002 -7.9447e+000 22286 112487,112435,112700
 2.5000e+000 112749 -1.2711e+001 -1.4686e+002 -2.2536e+001 22286 112487,112700,112628
 2.5000e+000 112798  1.2087e+001 -1.4941e+002 -4.1573e+000 22286 112487,112628,112772
 2.5000e+000 112821  2.1710e+000 -1.3847e+002  7.7351e-001 22286 112487,112772,112331
 2.5000e+000 112924  5.6006e+000  7.6375e+001 -9.3063e-001 21974 112846,112898,112872
 2.5000e+000 113223 -7.8194e+001 -2.0365e+002  2.5220e+001 21420 112949,113053,112975
 2.5000e+000 113200 -6.7843e+001 -1.6635e+002  2.3615e+001 21420 112949,113079,113053
 2.5000e+000 113177  2.5600e+001 -1.7141e+002  4.4009e+001 21420 112975,113053,113001
 2.5000e+000 113154 -1.1151e+002 -2.2950e+002  2.5804e+001 21420 113001,113053,113027
 2.5000e+000 113131 -9.7122e+001 -1.5469e+002  1.1170e+001 21420 112949,113105,113079
 2.5000e+000 113605  5.9187e+000 -2.3048e+002  7.4359e+001 20716 113331,113435,113357
 2.5000e+000 113582  7.7668e+000 -1.0084e+002  7.5196e+001 20716 113331,113461,113435
 2.5000e+000 113559  2.7248e+001 -2.0061e+002 -1.8112e+001 20716 113383,113435,113409
 2.5000e+000 113536 -4.9606e+001 -1.9885e+002 -2.0384e+001 20716 113357,113435,113383
 2.5000e+000 113513  2.0598e+000  4.4402e+000 -1.2860e+001 20716 113331,113487,113461
 2.5000e+000 113853 -8.2715e+000 -1.7880e+002  8.0206e+000 20290 113876,113680,113654
 2.5000e+000 113830  1.0791e+001 -1.7936e+002  6.6097e+000 20290 113876,113654,113628
 2.5000e+000 113807 -2.4200e+001 -2.0081e+002 -9.0142e+000 20290 113948,113732,113680
 2.5000e+000 113784  8.2457e+001 -1.7134e+002 -1.6834e+001 20290 113680,113732,113706
 2.5000e+000 113902 -7.2538e+000 -1.7859e+002  7.3786e+000 20290 113948,113680,113876
 2.5000e+000 113925 -1.5456e+001 -1.6678e+002  7.4918e+000 20290 113758,113876,113628
 2.5000e+000 113974 -4.3651e+001 -1.8046e+002 -1.5767e+001 20290 113758,113732,113948
 2.5000e+000 113997 -4.2188e+001 -1.7903e+002 -3.1433e+000 20290 113758,113948,113876
 2.5000e+000 114365 -2.6423e+001 -1.8493e+002  6.1271e-001 19900 114146,114198,114172
 2.5000e+000 114342 -2.7282e+001 -1.8525e+002  9.2159e-001 19900 114042,114198,114146
 2.5000e+000 114319 -2.8698e+001 -1.8050e+002  2.4073e+000 19900 114042,114224,114198
 2.5000e+000 114296 -7.4189e+001 -1.7684e+002 -2.8850e+000 19900 114094,114146,114120
 2.5000e+000 114273 -2.9467e+001 -1.7046e+002 -1.0606e+001 19900 114042,114146,114094
 2.5000e+000 114250 -6.6252e+001 -1.7793e+002 -2.6657e+000 19900 114042,114094,114068
 2.5000e+000 114566 -5.7196e+001 -1.8802e+002  1.0393e-001 19496 114442,114494,114468
 2.5000e+000 114543 -8.5718e+001 -1.8286e+002 -1.3727e+001 19496 114416,114494,114442
 2.5000e+000 114520 -6.2260e+001 -1.7348e+002 -1.1209e+001 19496 114390,114494,114416
 2.5000e+000 114767 -9.1004e+000 -1.8498e+002  6.8484e+000 19042 114790,114669,114643
 2.5000e+000 114744 -1.1504e+001 -1.7987e+002  9.0882e+000 19042 114790,114643,114591
 2.5000e+000 114721  7.6792e+000 -1.8393e+002  3.5445e+001 19042 114591,114643,114617
 2.5000e+000 114816 -1.3170e+001 -1.7975e+002  4.8682e+000 19042 114695,114669,114790
 2.5000e+000 114839 -1.1782e+001 -1.7019e+002  7.9823e+000 19042 114695,114790,114591
 2.5000e+000 114991 -7.8268e+001 -2.0833e+002 -2.6655e-001 18488 114864,114916,114890
 2.5000e+000 114968 -5.8165e+001 -2.1121e+002 -5.9301e+000 18488 114864,114942,114916
 2.5000e+000 115192  6.4888e+001 -1.4526e+002  9.7350e+000 18098 115215,115042,115016
 2.5000e+000 115169  3.0804e+001 -1.2438e+002 -4.4110e+000 18098 115215,115016,115120
 2.5000e+000 115146  4.7524e+001 -1.4170e+002 -2.0137e+001 18098 115287,115094,115068
 2.5000e+000 115241  4.0163e+001 -2.0472e+002 -1.8471e+000 18098 115068,115042,115215
 2.5000e+000 115264  4.5910e+001 -1.3944e+002 -7.5445e+000 18098 115287,115068,115215
 2.5000e+000 115313  2.9215e+001 -1.4769e+002 -1.7588e+001 18098 115120,115094,115287
 2.5000e+000 115336  2.1822e+001 -1.4778e+002 -5.5949e+000 18098 115120,115287,115215
 2.5000e+000 115846  2.9672e+001 -2.2714e+002 -6.0967e+001 17644 115653,115705,115679
 2.5000e+000 115823 -2.8438e+001 -2.1000e+002 -2.5868e+001 17644 115627,115705,115653
 2.5000e+000 115800  1.2906e+001 -1.5660e+002 -3.8562e+000 17644 115549,115705,115627
 2.5000e+000 115777 -2.2962e+001 -1.9942e+002  1.3851e+001 17644 115549,115627,115575
 2.5000e+000 115754  7.1963e+000 -1.3730e+002  2.6308e+001 17644 115523,115705,115549
 2.5000e+000 115731 -6.7250e+001 -1.8673e+002 -4.4540e+000 17644 115575,115627,115601
 2.5000e+000 116067 -5.9966e+001 -3.0182e+002 -8.7299e+000 17116 115891,115943,115917
 2.5000e+000 116044 -1.1037e+002 -3.4149e+002  9.0456e+000 17116 115891,115995,115943
 2.5000e+000 116021 -1.0443e+002 -2.8646e+002  8.0347e+000 17116 115943,115995,115969
 2.5000e+000 116288  5.3022e+000 -1.9544e+002  4.0890e+001 16704 116164,116216,116190
 2.5000e+000 116265 -2.8598e+001 -2.7378e+002  2.7304e+001 16704 116112,116216,116164
 2.5000e+000 116242 -1.5543e+001 -2.3790e+002 -6.0051e+000 16704 116112,116164,116138
 2.5000e+000 116489  9.6956e+000 -1.8309e+002 -5.8335e+000 16434 116339,116417,116365
 2.5000e+000 116466 -3.3346e+001 -1.9866e+002 -2.1870e+000 16434 116313,116417,116339
 2.5000e+000 116443 -9.8160e+001 -2.2270e+002  7.7021e+001 16434 116365,116417,116391
 2.5000e+000 116592 -1.4190e+001 -2.0251e+002 -1.1608e+001 15967 116514,116566,116540
 2.5000e+000 116695 -1.8865e+001 -2.7611e+002 -3.7853e+001 15552 116617,116669,116643
 2.5000e+000 116798 -2.3544e+001 -1.7394e+002  0.0000e+000 421 116720,116772,116746
 2.6000e+000 69066  3.4141e+000 -2.9331e+002 -8.5862e+000 68738 68965,69017,68991
 2.6000e+000 69043  5.8045e+001 -2.4741e+002  6.1120e+002 68738 68939,69017,68965
 2.6000e+000 69371 -5.7489e+000 -5.9317e+001 -2.0768e+001 68426 69172,69250,69198
 2.6000e+000 69348 -9.6692e-002 -1.1021e+002  7.1567e+000 68426 69146,69250,69172
 2.6000e+000 69325 -1.3455e+000 -1.8668e+001  9.6082e+000 68426 69198,69250,69224
 2.6000e+000 69302 -2.7593e+001 -1.0037e+002  4.4879e+000 68426 69146,69276,69250
 2.6000e+000 69521  5.0153e-003 -1.0993e+002 -7.6934e+000 68228 69420,69472,69446
 2.6000e+000 69498 -1.5597e+001 -7.5436e+001 -4.2171e+001 68228 69394,69472,69420
 2.6000e+000 69781  6.8471e-001 -2.4342e+000 -3.4161e-001 68030 69631,69683,69657
 2.6000e+000 69758  9.9873e-001 -1.4616e+001 -5.4433e+000 68030 69631,69709,69683
 2.6000e+000 69735 -1.7064e+000  9.8641e-001  7.7699e+000 68030 69605,69709,69631
 2.6000e+000 70078 -1.0240e+001 -3.4137e+001 -1.4736e+001 67832 69882,69934,69908
 2.6000e+000 70055  1.5531e+001 -2.3590e+001 -1.8426e+001 67832 69856,69934,69882
 2.6000e+000 70032  4.0105e+001 -1.2404e+001 -4.4325e+001 67832 69830,69934,69856
 2.6000e+000 70009  1.0007e+001 -8.2645e+001 -2.2761e+000 67832 69804,69934,69830
 2.6000e+000 69986 -2.2158e+001 -1.4909e+001  3.2060e+001 67832 69804,69960,69934
 2.6000e+000 70586 -7.5393e+000 -5.1726e+001  8.4912e+000 67634 70609,70419,70341
 2.6000e+000 70563 -4.4605e+000 -7.0762e+001  1.5153e+001 67634 70681,70609,70341
 2.6000e+000 70540 -4.3824e+000 -7.2497e+001  2.1584e+001 67634 70681,70341,70315
 2.6000e+000 70517 -1.8241e+001 -5.5772e+001  2.1164e+001 67634 70341,70419,70367
 2.6000e+000 70494 -7.7762e+000 -1.1391e+001  5.8570e+000 67634 70263,70445,70289
 2.6000e+000 70471 -6.4451e+000 -1.0343e+001  9.8332e+000 67634 70367,70419,70393
 2.6000e+000 70635 -1.8679e+000 -1.0667e+001  6.9290e+000 67634 70445,70419,70609
 2.6000e+000 70658 -1.4462e+001 -5.4079e+001  1.3700e+001 67634 70445,70609,70289
 2.6000e+000 70707  1.8084e-001 -5.6915e+001  9.8896e+000 67634 70289,70609,70681
 2.6000e+000 70730 -4.8810e+000 -6.3035e+001  1.7171e+001 67634 70289,70681,70315
 2.6000e+000 71108 -1.5025e+001 -7.8188e+001  2.9199e+001 67344 71131,70912,70886
 2.6000e+000 71085 -1.1726e+001 -6.9542e+001  2.6665e+001 67344 71131,70886,70860
 2.6000e+000 71062 -2.1877e+001 -8.0847e+001  2.5357e+001 67344 71203,70938,70912
 2.6000e+000 71039  1.5608e+001 -6.0352e+001  1.2109e+001 67344 70834,70990,70860
 2.6000e+000 71016 -1.6744e+001 -9.0730e+001  8.3333e+000 67344 70938,70990,70964
 2.6000e+000 71157 -2.1182e+001 -7.1170e+001  2.6550e+001 67344 71203,70912,71131
 2.6000e+000 71180 -3.0431e+000 -6.0003e+001  1.1857e+001 67344 70990,71131,70860
 2.6000e+000 71229 -1.7229e+001 -9.9299e+001  2.1329e+001 67344 70990,70938,71203
 2.6000e+000 71252 -1.4645e+001 -8.5835e+001  2.0056e+001 67344 70990,71203,71131
 2.6000e+000 71603 -1.5664e+000 -5.7548e+001  6.0186e+000 67032 71378,71482,71404
 2.6000e+000 71580  3.8403e+000 -3.6530e+001  1.1714e+001 67032 71378,71508,71482
 2.6000e+000 71557  1.3527e+000 -3.6791e+001  1.9167e+001 67032 71404,71456,71430
 2.6000e+000 71534 -5.0341e+000 -6.2743e+001  9.7285e+000 67032 71404,71482,71456
 2.6000e+000 72003  1.4249e+001 -3.2595e+001  1.3733e+001 66834 71755,71859,71781
 2.6000e+000 71980  5.7583e+000 -8.9176e+001  4.6334e+000 66834 71755,71885,71859
 2.6000e+000 71957  7.4939e+000 -1.9424e+001  1.0023e+001 66834 71781,71833,71807
 2.6000e+000 71934 -8.7352e+000 -1.0163e+002 -1.8987e+000 66834 71781,71859,71833
 2.6000e+000 71911  2.0666e+001 -3.8817e+001  3.9908e+001 66834 71729,71885,71755
 2.6000e+000 72430  1.3160e+001 -7.5685e+001 -3.0299e+000 66266 72237,72289,72263
 2.6000e+000 72407  8.6154e+000 -8.9240e+001  8.7039e+000 66266 72133,72289,72237
 2.6000e+000 72384 -2.4710e+000 -6.8221e+001  4.2313e+000 66266 72133,72237,72211
 2.6000e+000 72361 -2.3767e+001 -1.0423e+002  4.0247e+000 66266 72107,72289,72133
 2.6000e+000 72338 -2.5971e+001 -1.3071e+002  3.9431e+001 66266 72133,72211,72185
 2.6000e+000 72315 -4.1078e+000 -1.3904e+002  4.0932e+001 66266 72133,72185,72159
 2.6000e+000 72580 -2.4787e+001 -1.5405e+002  1.7225e+001 65968 72479,72531,72505
 2.6000e+000 72557  1.4457e+000 -9.8413e+001  6.9401e+000 65968 72453,72531,72479
 2.6000e+000 72960  9.7852e+000 -3.8493e+001  1.1763e+001 65621 72983,72738,72712
 2.6000e+000 72937  3.3941e+001 -7.7691e+001  1.0563e+001 65621 72983,72712,72686
 2.6000e+000 72914 -3.4378e+000 -1.3258e+002  1.3072e+001 65621 72738,72842,72764
 2.6000e+000 72891  4.2743e+000 -1.2264e+002  2.1589e+000 65621 72764,72842,72816
 2.6000e+000 72868 -8.7587e+001 -3.4826e+002  6.0500e+001 65621 72764,72816,72790
 2.6000e+000 73009  1.6728e+001 -6.8958e+001  1.7769e+001 65621 72842,72738,72983
 2.6000e+000 73032  1.4923e+001 -1.4183e+002  2.0704e+001 65621 72842,72983,72686
 2.6000e+000 73361  4.7060e+001 -2.0797e+002 -2.8635e+001 65281 73456,73384,73188
 2.6000e+000 73338 -2.0679e+001 -2.0025e+002  3.0829e+001 65281 73384,73162,73136
 2.6000e+000 73315 -3.4849e+001 -1.7358e+002 -3.9613e+001 65281 73188,73240,73214
 2.6000e+000 73292 -3.5947e+001 -6.7857e+001 -2.5069e+001 65281 73136,73266,73240
 2.6000e+000 73410 -6.1922e+001 -2.1047e+002 -2.2929e+001 65281 73240,73188,73384
 2.6000e+000 73433 -2.7855e+000 -6.8074e+001  6.5042e+000 65281 73240,73384,73136
 2.6000e+000 73482  8.8192e+000 -2.6834e+002 -2.2513e+000 65281 73162,73384,73456
 2.6000e+000 73711 -2.0809e+001  2.7854e+001 -5.0240e+001 64820 73734,73610,73584
 2.6000e+000 73688 -1.7060e+001  3.6053e+001 -4.7836e+001 64820 73734,73584,73662
 2.6000e+000 73760 -1.6782e+001  3.1630e+001 -3.5273e+001 64820 73636,73610,73734
 2.6000e+000 73783 -4.9568e+000  3.5023e+001 -5.3275e+001 64820 73806,73734,73662
 2.6000e+000 73832 -3.3415e+001 -1.6053e+001 -3.3350e+001 64820 73636,73734,73806
 2.6000e+000 74112  1.2186e+001 -7.0776e+001 -1.2717e+001 64622 74278,74135,73988
 2.6000e+000 74089  1.6256e+000 -1.0157e+002  4.4837e+000 64622 74135,73936,74040
 2.6000e+000 74066  1.3894e+001 -6.9595e+001 -3.1484e+001 64622 74278,73988,73962
 2.6000e+000 74161 -1.4321e+001 -9.3081e+001 -2.6401e+000 64622 74014,73988,74135
 2.6000e+000 74184 -4.0535e-001 -9.9649e+001  3.1712e+000 64622 74207,74135,74040
 2.6000e+000 74233  3.0474e+000 -9.4717e+001 -4.7147e+000 64622 74014,74135,74207
 2.6000e+000 74304 -3.5944e+000 -1.0847e+002  1.0017e+000 64622 73936,74135,74278
 2.6000e+000 74327  9.1483e+000 -9.7356e+001 -1.9621e+001 64622 73936,74278,73962
 2.6000e+000 74526  1.4991e+001 -1.8289e+001  4.7321e+000 64424 74621,74549,74402
 2.6000e+000 74503 -1.5362e+001 -7.9979e+001  9.5605e+000 64424 74549,74350,74454
 2.6000e+000 74480  2.0016e+001 -1.3476e+000 -2.2427e+001 64424 74621,74402,74376
 2.6000e+000 74575  4.4662e+001 -7.2115e+001  1.9498e+001 64424 74428,74402,74549
 2.6000e+000 74598  7.1855e+000 -1.0942e+002  1.8909e+001 64424 74693,74549,74454
 2.6000e+000 74647 -6.8823e+000 -6.1525e+001  1.7742e+001 64424 74350,74549,74621
 2.6000e+000 74670 -2.3035e+000 -5.1594e+001 -1.0443e+001 64424 74350,74621,74376
 2.6000e+000 74719  4.5174e+000 -1.3278e+002 -1.8387e+000 64424 74428,74549,74693
 2.6000e+000 75123 -4.0892e+001 -2.5177e+002  2.9127e+001 64126 74875,74953,74927
 2.6000e+000 75100 -1.8855e+001 -2.0870e+002  2.1108e+001 64126 74875,74979,74953
 2.6000e+000 75077 -1.8474e+000 -1.5873e+002  3.3823e+000 64126 74875,75005,74979
 2.6000e+000 75054 -2.6781e+001 -3.4246e+002  5.5980e+001 64126 74875,74927,74901
 2.6000e+000 75031 -1.6854e+001 -4.9420e+001  4.9860e+001 64126 74849,75005,74875
 2.6000e+000 75224  1.6398e+001 -1.4818e+002  2.4965e+001 63836 75146,75198,75172
 2.6000e+000 75472 -7.2884e+000 -1.0484e+002  2.6098e+001 63375 75273,75351,75325
 2.6000e+000 75449 -1.8978e+001 -1.0051e+002  1.4165e+001 63375 75273,75377,75351
 2.6000e+000 75426 -1.7581e+001 -1.0850e+002  7.6281e+000 63375 75247,75377,75273
 2.6000e+000 75403  2.5854e+000 -5.7249e+001  2.8036e+001 63375 75273,75325,75299
 2.6000e+000 75673  2.6099e+001 -9.9578e+001  1.6521e+001 63063 75523,75575,75549
 2.6000e+000 75650  2.0267e+001 -1.3589e+002 -1.3784e+000 63063 75497,75575,75523
 2.6000e+000 75627  1.5308e+001 -1.4673e+002  1.7527e+001 63063 75497,75601,75575
 2.6000e+000 75874  2.3578e+001 -1.8407e+002 -1.1227e+001 62716 75897,75750,75724
 2.6000e+000 75851  2.3218e+000 -1.5353e+002 -3.4673e+000 62716 75897,75724,75698
 2.6000e+000 75828  8.7032e+000 -1.0874e+002 -4.7196e+001 62716 75698,75802,75776
 2.6000e+000 75923  5.6599e+001 -1.4798e+002 -2.6780e+001 62716 75776,75750,75897
 2.6000e+000 75946  1.2404e+001 -1.3853e+002 -8.5037e+000 62716 75776,75897,75698
 2.6000e+000 76328 -1.5409e+001 -1.6351e+002 -1.5918e+001 62198 76495,76351,76158
 2.6000e+000 76305 -3.7899e+001 -1.6489e+002 -4.7612e+000 62198 76351,76080,76054
 2.6000e+000 76282 -5.1706e+000 -2.2070e+002 -2.1689e+001 62198 76423,76184,76158
 2.6000e+000 76259 -2.0927e+001 -1.6345e+002 -1.3643e+001 62198 76495,76158,76106
 2.6000e+000 76236 -4.5181e+001 -1.9065e+002 -1.3243e+000 62198 76106,76158,76132
 2.6000e+000 76377 -2.2090e+001 -1.7854e+002 -2.5343e+001 62198 76423,76158,76351
 2.6000e+000 76400 -2.7249e+001 -1.2810e+002 -1.7313e+001 62198 76210,76351,76054
 2.6000e+000 76449  1.4935e+001 -1.7862e+002 -2.9406e+001 62198 76210,76184,76423
 2.6000e+000 76472 -2.4589e+000 -1.4428e+002 -3.6434e+001 62198 76210,76423,76351
 2.6000e+000 76521 -2.6364e+001 -1.5611e+002 -9.7046e+000 62198 76080,76351,76495
 2.6000e+000 76544 -4.0721e+001 -1.6705e+002 -4.1294e+000 62198 76080,76495,76106
 2.6000e+000 76841  3.8342e-001 -1.6090e+002  1.8283e+000 61751 76936,76864,76645
 2.6000e+000 76818  6.4290e+001 -1.2546e+002 -5.3731e+001 61751 76864,76567,76723
 2.6000e+000 76795  8.1228e+000 -1.2156e+002  1.2553e+000 61751 76936,76645,76593
 2.6000e+000 76772 -1.4906e+002 -3.1834e+002  6.4150e+001 61751 77008,76697,76671
 2.6000e+000 76749 -1.1894e+001 -8.9153e+001 -3.3458e+001 61751 76593,76645,76619
 2.6000e+000 76890 -1.1406e+001 -1.9617e+002  2.7560e+001 61751 76671,76645,76864
 2.6000e+000 76913 -3.1729e+001 -1.9496e+002  1.5480e+001 61751 77008,76671,76864
 2.6000e+000 76962  1.7444e+001 -2.1318e+002 -1.7986e+001 61751 76567,76864,76936
 2.6000e+000 76985  2.2982e+001 -1.7977e+002 -1.4210e+001 61751 76567,76936,76593
 2.6000e+000 77034  1.7970e+001 -2.1970e+002 -2.2952e+001 61751 76723,76697,77008
 2.6000e+000 77057  1.4992e+001 -2.4268e+002 -2.2217e+001 61751 76723,77008,76864
 2.6000e+000 77207  1.0907e+000 -8.7701e+001  3.3041e+001 61418 77106,77158,77132
 2.6000e+000 77184  2.8324e+001 -1.3508e+002  3.6481e+001 61418 77080,77158,77106
 2.6000e+000 77638 -3.0025e+001 -1.8176e+002 -2.5672e+001 60814 77733,77661,77471
 2.6000e+000 77615 -2.2105e-001 -1.7797e+002 -2.8023e+001 60814 77661,77393,77315
 2.6000e+000 77592 -5.2559e+001 -1.4743e+002 -9.3125e+000 60814 77733,77471,77445
 2.6000e+000 77569 -4.8266e+001 -2.7407e+002 -2.6468e+001 60814 77315,77367,77341
 2.6000e+000 77546 -4.2054e+001 -2.7933e+002 -1.4601e+001 60814 77315,77393,77367
 2.6000e+000 77523 -4.9873e+001 -1.3105e+002  1.6142e+000 60814 77393,77445,77419
 2.6000e+000 77687 -6.1286e+000 -1.7200e+002 -2.0084e+001 60814 77497,77471,77661
 2.6000e+000 77710 -2.4982e+001 -2.1513e+002 -4.5262e+000 60814 77497,77661,77315
 2.6000e+000 77759 -4.5209e+000 -1.3500e+002 -3.7200e+001 60814 77393,77661,77733
 2.6000e+000 77782 -3.5730e+001 -1.1237e+002 -1.6000e+001 60814 77393,77733,77445
 2.6000e+000 78337 -2.4484e+000 -8.8426e+001 -3.6649e+000 60210 78360,78017,77965
 2.6000e+000 78314  1.8041e+000 -9.2321e+001 -6.4247e+000 60210 78360,77965,78173
 2.6000e+000 78291 -2.0422e+001 -1.1726e+002 -2.1062e+001 60210 78432,78043,78017
 2.6000e+000 78268 -1.4762e+001 -1.3079e+002  7.1723e-001 60210 77965,78017,77991
 2.6000e+000 78245 -1.0171e+001 -9.3977e+001  6.0530e-001 60210 78043,78095,78069
 2.6000e+000 78222 -4.4283e+001 -1.6039e+002  6.2393e+001 60210 78095,78173,78121
 2.6000e+000 78199 -3.3125e+001 -1.0476e+002 -6.6476e+000 60210 78121,78173,78147
 2.6000e+000 78386 -4.9876e+000 -1.0773e+002 -1.0551e+001 60210 78432,78017,78360
 2.6000e+000 78409  3.7170e+001 -8.7142e+001  1.1046e+001 60210 78095,78360,78173
 2.6000e+000 78458 -7.4745e+000 -1.0197e+002 -1.4385e+000 60210 78095,78043,78432
 2.6000e+000 78481  3.1153e+000 -9.2306e+001  8.7949e+000 60210 78095,78432,78360
 2.6000e+000 78680 -3.0846e+001 -1.3680e+002 -3.0618e+000 59848 78703,78556,78530
 2.6000e+000 78657 -3.3921e+001 -1.4693e+002 -1.2534e+001 59848 78703,78530,78504
 2.6000e+000 78634 -3.2106e+001 -1.6799e+002 -1.3577e+001 59848 78504,78608,78582
 2.6000e+000 78729 -2.2117e+001 -1.5627e+002 -3.7010e+000 59848 78582,78556,78703
 2.6000e+000 78752 -2.7876e+001 -1.6169e+002 -1.6598e+001 59848 78582,78703,78504
 2.6000e+000 78951 -2.4318e+001 -8.4324e+001 -1.0008e+001 59344 78974,78801,78775
 2.6000e+000 78928 -4.2335e+001 -1.3252e+002 -2.4325e+001 59344 79046,78974,78775
 2.6000e+000 78905 -4.0895e+001 -1.6844e+002 -2.1856e+001 59344 79046,78775,78879
 2.6000e+000 79000 -6.0173e+000 -6.7932e+001  2.4252e+001 59344 78827,78801,78974
 2.6000e+000 79023 -3.3205e+001 -8.8055e+001 -1.1448e+000 59344 78827,78974,78853
 2.6000e+000 79072 -5.2779e+001 -8.9849e+001 -1.0149e+001 59344 78853,78974,79046
 2.6000e+000 79095 -4.0692e+001 -1.1290e+002 -6.0458e+000 59344 78853,79046,78879
 2.6000e+000 79296  1.6405e+001 -1.5900e+002 -1.0842e+001 58711 79319,79172,79146
 2.6000e+000 79273  2.4961e+001 -1.3988e+002 -4.0577e+000 58711 79319,79146,79120
 2.6000e+000 79250  4.2019e+000 -1.5281e+002  3.2452e+001 58711 79172,79224,79198
 2.6000e+000 79345  6.3195e+000 -1.3747e+002 -1.0913e+001 58711 79224,79172,79319
 2.6000e+000 79368  1.0210e+001 -1.2212e+002 -7.1570e+000 58711 79224,79319,79120
 2.6000e+000 79667  1.1342e+001 -1.0113e+002 -7.8285e+000 58285 79690,79471,79393
 2.6000e+000 79644  1.3287e+001 -1.2503e+002 -1.7368e+001 58285 79690,79393,79549
 2.6000e+000 79621  4.3052e+001 -1.4687e+002  2.4068e+001 58285 79393,79471,79419
 2.6000e+000 79598  1.7227e+001 -8.9329e+001  1.5549e+000 58285 79497,79549,79523
 2.6000e+000 79575 -3.4682e+001 -2.9109e+002  5.9281e+001 58285 79419,79471,79445
 2.6000e+000 79716  1.3982e+001 -7.8767e+001  5.3864e+000 58285 79497,79471,79690
 2.6000e+000 79739  1.4181e+001 -1.1359e+002 -5.5632e-001 58285 79497,79690,79549
 2.6000e+000 80249  2.2104e+001 -3.8449e+001  3.6322e-002 57831 80272,79978,79952
 2.6000e+000 80226  5.1382e+000 -4.0693e+001 -6.2988e+000 57831 80272,79952,80108
 2.6000e+000 80203  8.2999e+000 -8.2399e+001 -2.7192e+001 57831 79926,80108,79952
 2.6000e+000 80180 -1.0918e+001 -6.9728e+001 -5.9193e+000 57831 80004,80082,80030
 2.6000e+000 80157 -1.5579e+001 -5.2363e+001 -1.4923e+001 57831 80004,80108,80082
 2.6000e+000 80134 -5.3682e+000 -6.4823e+001 -1.1013e+001 57831 80030,80082,80056
 2.6000e+000 80298  1.6801e+001 -4.1715e+001 -1.7682e+001 57831 80004,79978,80272
 2.6000e+000 80321 -7.5464e+000 -4.0323e+001 -1.9440e+001 57831 80004,80272,80108
 2.6000e+000 80618 -4.0565e+001 -1.7072e+002  2.4686e+001 57077 80344,80448,80422
 2.6000e+000 80595 -7.2303e+000 -1.4971e+002  1.1800e+001 57077 80344,80500,80448
 2.6000e+000 80572 -3.5706e+000 -1.0802e+002  3.5437e-001 57077 80344,80422,80370
 2.6000e+000 80549 -4.0410e+001 -1.0340e+002  1.0191e+001 57077 80370,80422,80396
 2.6000e+000 80526 -4.9612e+001 -2.5110e+002  3.3791e+001 57077 80448,80500,80474
 2.6000e+000 80768  1.2475e-001 -5.8130e+001  2.4134e+000 56787 80791,80693,80667
 2.6000e+000 80745 -1.1759e+001 -5.7709e+001  7.8475e+000 56787 80791,80667,80641
 2.6000e+000 80817  8.9438e+000 -5.7015e+001 -5.6778e+000 56787 80719,80693,80791
 2.6000e+000 80840 -1.9820e+001 -4.9232e+001 -9.3030e+000 56787 80719,80791,80641
 2.6000e+000 81429 -3.2386e+001 -7.3684e+001  1.1493e+001 56497 81452,81158,81132
 2.6000e+000 81406 -5.3217e+000 -4.7189e+001  5.9884e-001 56497 81452,81132,81288
 2.6000e+000 81383 -2.6600e+001 -8.9238e+001  4.1759e+000 56497 81524,81184,81158
 2.6000e+000 81360 -1.2834e+001 -1.8451e+002  4.4302e+001 56497 81210,81288,81236
 2.6000e+000 81337  9.0869e-001 -3.0088e+001  2.0590e+001 56497 81106,81288,81132
 2.6000e+000 81314 -4.7699e+001 -4.9796e+001  2.5741e+001 56497 81236,81288,81262
 2.6000e+000 81478 -1.4631e+001 -7.8568e+001 -2.1393e+000 56497 81524,81158,81452
 2.6000e+000 81501  2.8073e+001 -7.3600e+001  5.3540e+000 56497 81210,81452,81288
 2.6000e+000 81550 -2.7207e+001 -1.0065e+002  2.2264e+001 56497 81210,81184,81524
 2.6000e+000 81573 -1.1465e+001 -9.2397e+001  1.5921e+001 56497 81210,81524,81452
 2.6000e+000 81870 -1.4107e+001 -8.4338e+001  4.4944e+000 55979 81893,81674,81648
 2.6000e+000 81847 -2.0911e+001 -8.7602e+001  3.2255e+000 55979 81893,81648,81752
 2.6000e+000 81824 -1.7972e+001 -1.0194e+002  4.0310e+000 55979 81596,81752,81648
 2.6000e+000 81801 -6.2781e+000 -5.0529e+001 -6.8476e+000 55979 81674,81726,81700
 2.6000e+000 81778 -9.2525e+000 -8.0997e+001  2.0161e+000 55979 81596,81648,81622
 2.6000e+000 81919 -9.9379e+000 -8.6456e+001 -1.5644e+000 55979 81726,81674,81893
 2.6000e+000 81942 -1.9630e+001 -9.1292e+001 -3.2998e+000 55979 81726,81893,81752
 2.6000e+000 82371 -5.0301e+001 -8.3824e+001 -1.6245e+001 55631 82100,82204,82152
 2.6000e+000 82348 -1.9283e+001 -1.2453e+002 -3.3960e+001 55631 82100,82230,82204
 2.6000e+000 82325 -4.6471e+001 -9.4673e+001  1.1044e+001 55631 82100,82152,82126
 2.6000e+000 82302 -6.0487e+001 -2.1879e+002 -2.7909e+001 55631 82074,82230,82100
 2.6000e+000 82279 -6.6770e+001 -1.1960e+002 -1.1258e+001 55631 82152,82204,82178
 2.6000e+000 82256 -2.3549e+000 -1.0872e+002 -1.8737e+000 55631 82048,82230,82074
 2.6000e+000 82521  5.1518e+001 -6.8244e+001 -7.5894e+000 55227 82544,82420,82394
 2.6000e+000 82498  4.4111e+001 -8.9305e+001 -3.0497e+000 55227 82544,82394,82472
 2.6000e+000 82570  3.7323e+001 -4.6468e+001 -7.8239e+000 55227 82446,82420,82544
 2.6000e+000 82593  2.6116e+001 -6.6693e+001  2.0584e+000 55227 82446,82544,82472
 2.6000e+000 82875  1.4769e+001  8.5055e+000  9.5626e+000 54979 82699,82777,82725
 2.6000e+000 82852  1.1698e+001 -4.2093e+001  1.4858e+001 54979 82699,82803,82777
 2.6000e+000 82829 -6.5197e-001 -6.2204e+000  2.8142e+000 54979 82725,82777,82751
 2.6000e+000 83204 -1.8856e+001 -5.7765e+001 -1.3859e+001 54475 83005,83083,83057
 2.6000e+000 83181 -1.6159e+001 -5.9786e+001 -1.1278e+001 54475 82979,83083,83005
 2.6000e+000 83158 -8.4184e+000 -7.2128e+001 -2.1889e+001 54475 83005,83057,83031
 2.6000e+000 83135 -2.1418e+001 -7.2233e+001 -3.0779e+000 54475 82979,83109,83083
 2.6000e+000 83582 -2.5491e+001 -8.7244e+001  8.9189e-001 54071 83605,83438,83412
 2.6000e+000 83559 -2.7417e+001 -9.1041e+001  1.6217e+000 54071 83749,83605,83412
 2.6000e+000 83536 -3.9784e+001 -1.1269e+002  2.1270e+001 54071 83677,83360,83334
 2.6000e+000 83513 -2.3895e+001 -9.4958e+001  7.9982e-001 54071 83749,83412,83677
 2.6000e+000 83490 -2.7571e+001 -8.8192e+001 -1.3281e+000 54071 83308,83464,83334
 2.6000e+000 83631 -2.9275e+001 -8.8306e+001 -2.8381e-001 54071 83464,83438,83605
 2.6000e+000 83654 -2.6099e+001 -8.3118e+001  1.8170e+000 54071 83464,83605,83334
 2.6000e+000 83703 -1.4091e+001 -9.2028e+001  8.5667e+000 54071 83386,83360,83677
 2.6000e+000 83726 -1.6201e+001 -8.0673e+001 -6.6119e+000 54071 83386,83677,83412
 2.6000e+000 83775 -2.2005e+001 -8.5247e+001  4.0667e+000 54071 83334,83605,83749
 2.6000e+000 83798 -1.8079e+001 -8.9132e+001  3.3982e+000 54071 83334,83749,83677
 2.6000e+000 84068 -1.2044e+001 -1.6011e+001 -1.1167e+001 53524 83869,83921,83895
 2.6000e+000 84045 -1.7004e+000 -6.2632e+001  9.4030e-001 53524 83869,83947,83921
 2.6000e+000 84022 -1.7424e+001 -8.2713e+001 -6.1429e+000 53524 83843,83947,83869
 2.6000e+000 83999  1.4066e+001 -7.6397e+001 -7.2551e+000 53524 83843,83973,83947
 2.6000e+000 84497 -4.0693e+001 -1.7454e+002  8.1750e-001 53184 84200,84330,84252
 2.6000e+000 84474 -2.5861e+001 -1.1706e+002  1.9224e+001 53184 84200,84356,84330
 2.6000e+000 84451  2.0786e+000 -1.4782e+002  2.0552e+001 53184 84200,84252,84226
 2.6000e+000 84428 -1.5932e+001 -1.2135e+002 -4.8462e+001 53184 84252,84330,84278
 2.6000e+000 84405 -1.4829e+001 -1.0528e+002  3.3994e+000 53184 84174,84356,84200
 2.6000e+000 84382 -6.8364e-001 -1.2310e+002 -8.4613e+000 53184 84278,84330,84304
 2.6000e+000 84954  1.4921e+001 -8.6998e+001  4.9645e+001 52680 84706,84836,84784
 2.6000e+000 84931 -8.6759e+000 -6.2047e+001 -5.9069e+001 52680 84680,84836,84706
 2.6000e+000 84908 -7.5788e+000 -2.9386e+002  5.6055e-001 52680 84784,84836,84810
 2.6000e+000 84885  1.4204e+001 -3.2502e+002 -1.4769e+000 52680 84706,84784,84732
 2.6000e+000 84862  4.3065e+001 -2.7159e+002 -5.5909e+001 52680 84732,84784,84758
 2.6000e+000 85202  4.3186e+000 -1.5582e+002  1.0127e+001 52226 85029,85081,85055
 2.6000e+000 85179 -4.0265e+001 -1.4286e+002  7.1023e+000 52226 85225,85081,85029
 2.6000e+000 85156 -2.9830e+001 -1.1771e+002  1.5498e+001 52226 85225,85029,85003
 2.6000e+000 85133 -4.9844e+001 -1.1224e+002 -2.7385e+001 52226 84977,85107,85003
 2.6000e+000 85251 -4.9186e+001 -1.4649e+002 -2.1592e+001 52226 85107,85081,85225
 2.6000e+000 85274 -3.6674e+001 -8.6011e+001 -1.8989e+001 52226 85107,85225,85003
 2.6000e+000 85522  3.8424e+001 -9.5773e+001 -1.6552e+001 51764 85297,85349,85323
 2.6000e+000 85499  2.7766e+001 -1.0853e+002  2.2482e+000 51764 85545,85297,85427
 2.6000e+000 85476  5.5778e+000 -7.5506e+001 -9.2870e+000 51764 85545,85427,85375
 2.6000e+000 85453  7.2862e+000 -7.1315e+001 -9.5260e+000 51764 85375,85427,85401
 2.6000e+000 85571  3.3494e+001 -8.8690e+001 -1.3262e+001 51764 85349,85297,85545
 2.6000e+000 85594  2.3975e+001 -4.3612e+001 -2.7144e+001 51764 85349,85545,85375
 2.6000e+000 85746 -4.6074e+001 -1.1490e+002  7.4222e+000 51374 85645,85697,85671
 2.6000e+000 85723 -5.5367e+001 -1.1014e+002 -5.1650e+000 51374 85619,85697,85645
 2.6000e+000 86256  2.2484e+000 -4.1907e+001  5.7682e+000 50970 86279,86011,85959
 2.6000e+000 86233  1.1326e+001 -1.9852e+001 -8.3485e-001 50970 86279,85959,86115
 2.6000e+000 86210 -1.1510e+001 -7.4673e+001  4.2253e+000 50970 85959,86011,85985
 2.6000e+000 86187  2.6940e+001 -5.2765e+001  2.1957e+001 50970 86037,86115,86089
 2.6000e+000 86164  3.3451e+001 -6.6227e+000  2.9947e+001 50970 85933,86115,85959
 2.6000e+000 86141 -2.9002e+001 -7.6239e+001 -1.4681e+000 50970 86037,86089,86063
 2.6000e+000 86305  1.8442e+001 -7.0966e+001  6.3562e+000 50970 86037,86011,86279
 2.6000e+000 86328  2.9552e+001 -4.6556e+001 -8.8669e-001 50970 86037,86279,86115
 2.6000e+000 86478 -4.6721e+001 -2.2488e+002  2.3622e+001 50451 86351,86403,86377
 2.6000e+000 86455 -1.2055e+002 -6.5881e+002 -2.1785e+000 50451 86351,86429,86403
 2.6000e+000 86907 -3.9435e+001 -1.1144e+002 -1.2295e+001 50047 86930,86714,86662
 2.6000e+000 86884 -2.4161e+001 -1.2374e+002 -1.1186e+001 50047 86930,86662,86610
 2.6000e+000 86861 -4.2391e+000 -1.3685e+002 -2.8339e+001 50047 87002,86740,86714
 2.6000e+000 86838  6.5128e+000 -9.2245e+001 -8.1200e+000 50047 86662,86714,86688
 2.6000e+000 86815 -2.9189e+001 -1.3228e+002 -7.4962e+000 50047 86610,86662,86636
 2.6000e+000 86792  1.0114e+000 -1.1313e+002  8.9162e+000 50047 86584,86766,86610
 2.6000e+000 86956 -2.5676e+001 -1.1680e+002 -1.2894e+001 50047 87002,86714,86930
 2.6000e+000 86979 -4.5619e+001 -1.3523e+002 -5.3246e+000 50047 86766,86930,86610
 2.6000e+000 87028 -4.1176e+001 -1.2649e+002 -3.0811e+001 50047 86766,86740,87002
 2.6000e+000 87051 -5.1601e+001 -1.2303e+002 -1.9818e+001 50047 86766,87002,86930
 2.6000e+000 87250 -5.5435e+000 -1.5110e+002 -2.7370e+001 49543 87273,87126,87100
 2.6000e+000 87227 -6.2703e+000 -1.2754e+002 -1.0368e+001 49543 87273,87100,87074
 2.6000e+000 87204 -2.0827e+001 -1.1309e+002 -3.7331e+001 49543 87126,87178,87152
 2.6000e+000 87299  5.6423e+000 -1.1602e+002 -2.7075e+001 49543 87178,87126,87273
 2.6000e+000 87322 -3.4165e+000 -1.1166e+002 -6.6866e+000 49543 87178,87273,87074
 2.6000e+000 87570 -4.7419e+001 -1.0029e+002  2.1636e+001 49146 87593,87449,87397
 2.6000e+000 87547 -4.2834e+001 -9.0412e+001  1.9743e+001 49146 87593,87397,87371
 2.6000e+000 87524 -4.9232e+001 -5.2145e+001  2.4810e+001 49146 87345,87475,87371
 2.6000e+000 87501 -2.1643e+001 -1.0394e+002  2.2459e+001 49146 87397,87449,87423
 2.6000e+000 87619 -4.4996e+001 -9.5092e+001  1.5040e+001 49146 87475,87449,87593
 2.6000e+000 87642 -4.3292e+001 -8.9875e+001  1.3548e+001 49146 87475,87593,87371
 2.6000e+000 88073  2.5720e+001 -5.6946e+001 -1.5698e+001 48706 87854,87932,87880
 2.6000e+000 88050  5.7172e+000 -6.0446e+001  1.7567e+000 48706 87828,87932,87854
 2.6000e+000 88027  1.0715e+001 -6.4490e+001  5.0224e+000 48706 87750,87932,87828
 2.6000e+000 88004  2.1401e+000 -8.5902e+001 -5.0748e+001 48706 87750,87802,87776
 2.6000e+000 87981  1.6629e+001 -1.2704e+002 -3.4486e+001 48706 87750,87828,87802
 2.6000e+000 87958 -4.7346e+000 -7.0908e+001 -1.2442e+001 48706 87880,87932,87906
 2.6000e+000 88402 -3.1850e+001 -1.6213e+002 -5.6649e+000 48145 88203,88281,88255
 2.6000e+000 88379 -4.7293e+001 -1.6536e+002  6.2712e+000 48145 88203,88307,88281
 2.6000e+000 88356 -3.0272e+001 -1.3276e+002 -1.0774e+001 48145 88203,88255,88229
 2.6000e+000 88333 -3.1349e+001 -1.6473e+002  2.6308e+001 48145 88177,88307,88203
 2.6000e+000 88601  3.4933e+001 -1.2949e+002  4.5169e+001 47805 88696,88624,88477
 2.6000e+000 88578 -3.0649e+001 -1.2715e+002  1.2617e+001 47805 88826,88624,88451
 2.6000e+000 88555 -3.9988e+001 -1.3030e+002  1.3847e+001 47805 88826,88451,88425
 2.6000e+000 88650  1.5506e+001 -1.6909e+002  1.7301e+001 47805 88503,88477,88624
 2.6000e+000 88673 -7.1396e+000 -1.5381e+002  1.0859e+000 47805 88503,88624,88529
 2.6000e+000 88722 -5.7501e+001 -1.6024e+002  2.8741e+001 47805 88451,88624,88696
 2.6000e+000 88852 -2.5869e+001 -1.2753e+002  1.4202e+000 47805 88529,88624,88826
 2.6000e+000 88875 -3.6040e+001 -1.3125e+002  2.7384e+000 47805 88529,88826,88425
 2.6000e+000 89172  3.2887e+001 -6.6562e+001 -2.6765e+001 47401 89195,88976,88898
 2.6000e+000 89149  3.2716e+001 -6.2455e+001 -5.4439e+001 47401 89195,88898,89054
 2.6000e+000 89126  3.3825e+001 -6.3113e+001 -2.7882e+001 47401 88898,88976,88950
 2.6000e+000 89103  3.7192e+000 -8.7836e+001 -2.5567e+001 47401 88976,89028,89002
 2.6000e+000 89080  2.9775e+001 -5.9108e+001 -5.0526e-001 47401 88898,88950,88924
 2.6000e+000 89221  1.7372e+001 -9.8686e+001 -2.1415e+001 47401 89028,88976,89195
 2.6000e+000 89244  2.4286e+001 -8.5527e+001 -5.1469e+001 47401 89028,89195,89054
 2.6000e+000 89575 -3.7024e+000 -1.9055e+002  1.7994e+001 47111 89350,89454,89376
 2.6000e+000 89552  1.7030e+001 -1.7170e+002  9.3700e+000 47111 89350,89480,89454
 2.6000e+000 89529  1.4035e+001 -2.1415e+002 -8.5354e+000 47111 89376,89454,89402
 2.6000e+000 89506  5.8533e+001 -1.2275e+002  8.7622e+000 47111 89402,89454,89428
 2.6000e+000 89904  1.2292e+001 -6.3052e+001 -1.1000e+001 46707 89705,89757,89731
 2.6000e+000 89881 -1.0865e+001 -8.9755e+001  2.4805e+000 46707 89705,89783,89757
 2.6000e+000 89858 -3.6240e+001 -9.6034e+001  1.4250e+001 46707 89679,89783,89705
 2.6000e+000 89835 -6.2575e+000 -9.3773e+001 -1.6363e+000 46707 89679,89809,89783
 2.6000e+000 90233  7.9759e+000 -7.9573e+001 -1.5571e+001 46360 90034,90112,90086
 2.6000e+000 90210 -2.0796e+001 -7.8227e+001 -6.8141e+000 46360 90034,90138,90112
 2.6000e+000 90187 -9.6565e+000 -7.7298e+001 -1.3563e+001 46360 90034,90086,90060
 2.6000e+000 90164 -1.9284e+001 -9.4904e+001  3.6729e+000 46360 90008,90138,90034
 2.6000e+000 90530  1.3194e-001 -1.0295e+002 -1.0518e+001 45662 90256,90360,90308
 2.6000e+000 90507 -1.8671e+001 -1.2787e+002  2.8344e+000 45662 90256,90412,90360
 2.6000e+000 90484 -3.4723e+000 -1.1578e+002 -9.7702e+000 45662 90256,90308,90282
 2.6000e+000 90461  2.3685e+000 -6.9468e+001  5.9375e+000 45662 90360,90412,90386
 2.6000e+000 90438 -4.3766e+001 -9.5348e+001 -3.4468e+000 45662 90308,90360,90334
 2.6000e+000 90910 -2.6591e+001 -7.7060e+001 -1.0583e+001 45108 90688,90766,90714
 2.6000e+000 90887  3.7829e+000 -9.4501e+001  1.6483e+001 45108 90662,90766,90688
 2.6000e+000 90864 -5.2192e+001 -9.3421e+001  1.9021e+001 45108 90636,90766,90662
 2.6000e+000 90841  1.0237e+001 -1.2533e+002 -4.0513e+001 45108 90714,90766,90740
 2.6000e+000 90818 -4.1322e+001 -1.1102e+002  2.7853e+001 45108 90636,90792,90766
 2.6000e+000 91158 -2.8620e+001 -1.0172e+002 -1.5109e+001 44604 91181,91011,90959
 2.6000e+000 91135 -3.9736e+001 -1.1553e+002 -2.4709e+001 44604 91181,90959,90933
 2.6000e+000 91112 -3.1679e+001 -1.2294e+002 -2.5049e+000 44604 90959,91011,90985
 2.6000e+000 91089 -2.0525e+000 -1.5024e+002 -1.7341e+001 44604 90933,91063,91037
 2.6000e+000 91207 -1.1507e+001 -1.2323e+002 -2.8736e+001 44604 91037,91011,91181
 2.6000e+000 91230 -3.4877e+001 -1.5602e+002 -4.0278e+001 44604 91037,91181,90933
 2.6000e+000 91429  3.0355e+001 -1.4934e+002 -1.0069e+001 44264 91452,91279,91253
 2.6000e+000 91406  3.1304e+001 -1.5036e+002 -1.0446e+001 44264 91452,91253,91357
 2.6000e+000 91383 -1.2647e+001 -1.3163e+002  3.0131e+001 44264 91279,91331,91305
 2.6000e+000 91478  3.1074e+001 -1.4953e+002 -9.8286e+000 44264 91331,91279,91452
 2.6000e+000 91501  3.2897e+001 -1.4976e+002 -9.9256e+000 44264 91331,91452,91357
 2.6000e+000 92060 -8.9606e+001 -1.7938e+002 -6.0746e-001 43860 92083,91740,91688
 2.6000e+000 92037 -4.9644e+001 -1.8419e+002  1.5042e+001 43860 92083,91688,91896
 2.6000e+000 92014 -7.6837e+001 -2.1729e+002  3.8290e+000 43860 91766,91870,91844
 2.6000e+000 91991 -4.6835e+001 -1.7301e+002  1.6888e+001 43860 91740,91870,91766
 2.6000e+000 91968 -3.7864e+000 -1.8921e+002  7.9085e+000 43860 91766,91844,91792
 2.6000e+000 91945 -7.7311e+001 -1.9019e+002 -1.7352e+001 43860 91688,91740,91714
 2.6000e+000 91922 -2.6952e+001 -2.1215e+002 -1.3237e+000 43860 91792,91844,91818
 2.6000e+000 92109 -5.5931e+001 -1.7395e+002  1.7822e+001 43860 91870,91740,92083
 2.6000e+000 92132 -1.3771e+001 -1.7226e+002  3.6181e+001 43860 91870,92083,91896
 2.6000e+000 92353  3.0324e+001 -1.1838e+002 -2.4854e+001 43662 92203,92255,92229
 2.6000e+000 92330 -9.4859e+000 -1.2351e+002 -6.9209e+000 43662 92376,92203,92281
 2.6000e+000 92307  2.3054e+001 -6.9223e+001  7.3489e+000 43662 92177,92281,92203
 2.6000e+000 92402 -5.3918e+001 -1.4243e+002 -1.6058e+000 43662 92255,92203,92376
 2.6000e+000 92682  2.7976e+001 -2.0299e+002 -1.3056e+001 43464 92532,92584,92558
 2.6000e+000 92659 -2.1675e+001 -1.5609e+002  7.7305e-001 43464 92506,92584,92532
 2.6000e+000 92636 -1.2081e+001 -1.4384e+002 -9.8039e+000 43464 92506,92610,92584
 2.6000e+000 93013  3.6293e+000 -1.3053e+002 -3.6037e+001 42960 92866,92918,92892
 2.6000e+000 92990 -1.7236e+001 -1.3502e+002 -1.8814e+001 42960 93036,92918,92866
 2.6000e+000 92967  9.0545e+000 -1.5256e+002 -7.2878e+000 42960 93036,92866,92840
 2.6000e+000 92944 -2.1099e-002 -1.1838e+002  1.3697e+000 42960 92788,92918,92814
 2.6000e+000 93062 -2.7148e+000 -1.3603e+002 -5.7602e+000 42960 92814,92918,93036
 2.6000e+000 93085  5.2812e+001 -1.3093e+002  7.9649e+000 42960 92814,93036,92840
 2.6000e+000 93186 -4.0560e+001 -1.4563e+002 -1.6942e+001 42556 93108,93160,93134
 2.6000e+000 93554 -3.7105e+001 -1.9767e+002  4.8139e+000 42052 93231,93387,93361
 2.6000e+000 93531 -4.6653e+001 -1.8528e+002  3.3078e+001 42052 93231,93413,93387
 2.6000e+000 93508 -3.9429e+001 -1.5230e+002 -2.4362e+000 42052 93231,93361,93257
 2.6000e+000 93485 -2.3820e+001 -1.2893e+002  2.0987e+001 42052 93283,93361,93335
 2.6000e+000 93462 -4.2087e+001 -1.3954e+002  1.1435e+001 42052 93257,93361,93283
 2.6000e+000 93439  1.2687e+001 -1.0908e+002  2.7516e-001 42052 93283,93335,93309
 2.6000e+000 94162  6.8287e+000 -8.9327e+001 -3.9604e+000 41498 93767,93975,93793
 2.6000e+000 94139 -2.6537e-001 -9.0526e+001  6.6818e+000 41498 93741,93975,93767
 2.6000e+000 94116 -1.0281e+001 -7.8780e+001 -2.7452e+000 41498 93793,93975,93923
 2.6000e+000 94093 -2.2982e+001 -1.0852e+002  4.7560e+000 41498 93923,93975,93949
 2.6000e+000 94070 -1.2083e+001 -4.9488e+001 -1.0161e+001 41498 93871,93923,93897
 2.6000e+000 94047 -6.6381e+000 -6.9661e+001 -1.0928e+001 41498 93793,93923,93871
 2.6000e+000 94024 -2.8558e+000 -4.9716e+001 -1.2088e+001 41498 93819,93871,93845
 2.6000e+000 94001 -8.5935e+000 -5.4812e+001 -7.7380e+000 41498 93793,93871,93819
 2.6000e+000 94619 -2.7592e+001 -1.3276e+002 -3.5244e+001 40930 94642,94423,94371
 2.6000e+000 94596 -4.6149e+000 -1.3550e+002 -1.5965e+000 40930 94642,94371,94345
 2.6000e+000 94573  3.4790e+000 -5.3485e+001  5.0315e+000 40930 94345,94501,94475
 2.6000e+000 94550  1.9755e+001 -1.5072e+002 -4.8812e+001 40930 94371,94423,94397
 2.6000e+000 94527 -6.3410e+000 -7.0628e+001 -2.2108e+001 40930 94423,94475,94449
 2.6000e+000 94668 -2.0766e+000 -7.7435e+001 -2.8949e+001 40930 94475,94423,94642
 2.6000e+000 94691  5.2011e+000 -1.1324e+002  9.5465e-002 40930 94475,94642,94345
 2.6000e+000 95148 -7.0735e+001 -1.5275e+002  3.7778e+001 40362 95171,94952,94926
 2.6000e+000 95125 -5.0750e+001 -1.4210e+002  4.6762e+001 40362 95171,94926,95004
 2.6000e+000 95102 -7.6356e+001 -1.6296e+002  3.7774e+001 40362 94874,95004,94926
 2.6000e+000 95079 -2.2911e+001 -1.6009e+002  6.6803e+001 40362 94874,95030,95004
 2.6000e+000 95056 -7.8062e+001 -1.7161e+002  3.3581e+001 40362 94874,94926,94900
 2.6000e+000 95197 -5.2270e+001 -1.4712e+002  4.8475e+001 40362 94978,94952,95171
 2.6000e+000 95220 -3.6194e+001 -1.3851e+002  5.7318e+001 40362 94978,95171,95004
 2.6000e+000 95549 -1.7419e+001 -9.9688e+001  9.6239e+000 39586 95350,95402,95376
 2.6000e+000 95526 -5.4104e-001 -7.7032e+001 -1.6558e+000 39586 95324,95402,95350
 2.6000e+000 95503 -1.0760e+001 -5.9714e+001  2.3045e+001 39586 95324,95454,95402
 2.6000e+000 95480  1.5438e+001 -1.3546e+002  3.7086e+001 39586 95402,95454,95428
 2.6000e+000 96055 -1.6673e+001 -5.7729e+001 -3.8851e+000 38968 96078,95862,95810
 2.6000e+000 96032 -7.3819e+000 -5.8178e+001 -3.6836e-001 38968 96078,95810,95758
 2.6000e+000 96009 -1.3797e+001 -1.0082e+002 -1.6306e+001 38968 96150,95732,95888
 2.6000e+000 95986  4.9893e+000 -3.7613e+001  1.1681e+001 38968 95810,95862,95836
 2.6000e+000 95963 -5.4769e+000 -9.3762e+001 -2.1967e+001 38968 95732,95914,95888
 2.6000e+000 95940 -3.1820e+001 -6.1046e+001  2.1652e+001 38968 95758,95810,95784
 2.6000e+000 96104  4.4593e+000 -6.3332e+001  4.8227e+000 38968 95888,95862,96078
 2.6000e+000 96127 -1.6280e+001 -9.3499e+001 -5.6990e+000 38968 96150,95888,96078
 2.6000e+000 96176 -1.7954e+001 -7.5277e+001 -1.0346e+001 38968 95758,95732,96150
 2.6000e+000 96199 -1.4042e+001 -6.1699e+001  1.3331e+000 38968 95758,96150,96078
 2.6000e+000 96545  1.4741e+001 -1.2203e+002 -1.7321e+001 38507 96640,96568,96352
 2.6000e+000 96522 -4.2381e+001 -1.8544e+002  3.4163e+001 38507 96568,96300,96222
 2.6000e+000 96499  5.5739e+001 -8.2600e+001 -6.6425e+001 38507 96640,96352,96326
 2.6000e+000 96476 -7.6146e+000 -1.6690e+002 -3.9087e+001 38507 96352,96404,96378
 2.6000e+000 96453 -8.7326e+001 -1.9553e+002  4.1619e+000 38507 96222,96300,96248
 2.6000e+000 96430 -6.4654e+001 -2.3169e+002 -2.9990e+001 38507 96248,96300,96274
 2.6000e+000 96594 -4.0401e+001 -1.6395e+002  1.0583e+000 38507 96404,96352,96568
 2.6000e+000 96617 -8.7038e+000 -1.4585e+002  1.7794e+001 38507 96404,96568,96222
 2.6000e+000 96666 -1.8866e+001 -1.9073e+002  2.5444e+001 38507 96300,96568,96640
 2.6000e+000 96689 -6.6334e+000 -1.6467e+002 -1.8828e+001 38507 96300,96640,96326
 2.6000e+000 97069  4.6869e+000 -2.7059e+001  4.4417e+000 37760 97092,96873,96821
 2.6000e+000 97046 -2.9631e+000 -3.0657e+001  7.7872e+000 37760 97092,96821,96795
 2.6000e+000 97023 -4.2139e+001 -8.0597e+000  5.1467e+000 37760 96821,96873,96847
 2.6000e+000 97000  1.3681e+001  1.0393e+001 -6.6557e+000 37760 96873,96925,96899
 2.6000e+000 96977  2.1526e+000 -2.4093e+001 -1.1538e+001 37760 96795,96951,96925
 2.6000e+000 97118  1.1634e+001 -1.9248e+001 -7.1365e+000 37760 96925,96873,97092
 2.6000e+000 97141 -1.1100e+001 -2.9484e+001 -2.9574e+000 37760 96925,97092,96795
 2.6000e+000 97647 -7.4415e+001 -1.5972e+002  1.9128e+001 37356 97324,97480,97376
 2.6000e+000 97624 -2.0561e+001 -1.6674e+002  6.6392e+001 37356 97324,97506,97480
 2.6000e+000 97601 -5.8489e+001 -9.3366e+001  3.4998e+001 37356 97376,97480,97454
 2.6000e+000 97578 -6.4102e+001 -1.5170e+002  1.2121e+001 37356 97324,97376,97350
 2.6000e+000 97555 -4.9465e+001 -9.5436e+001  2.3581e+001 37356 97376,97454,97402
 2.6000e+000 97532 -7.4432e+001 -6.6754e+001  2.0249e+001 37356 97402,97454,97428
 2.6000e+000 98232  6.8109e-001 -2.5655e+001 -6.4633e+000 36902 97935,98065,98013
 2.6000e+000 98209  2.2744e+001 -2.6634e+001 -1.4466e+001 36902 97935,98091,98065
 2.6000e+000 98186  1.3333e+001 -2.3721e+001 -5.7335e+000 36902 97935,98013,97987
 2.6000e+000 98163  1.0784e+001 -2.0373e+000 -1.8315e+001 36902 97909,98091,97935
 2.6000e+000 98140  1.1485e+001  7.5228e+000  5.2146e+000 36902 97935,97987,97961
 2.6000e+000 98117 -6.8923e+000 -4.2537e+001 -7.9696e+000 36902 98013,98065,98039
 2.6000e+000 98659 -3.2441e+001 -1.8928e+002 -3.0614e+001 36604 98682,98414,98388
 2.6000e+000 98636 -2.0062e+001 -1.7527e+002  6.8071e+000 36604 98682,98388,98336
 2.6000e+000 98613 -2.7292e+001 -1.5419e+002  7.2200e+000 36604 98754,98518,98466
 2.6000e+000 98590 -1.9454e+001 -9.0975e+001 -1.9115e+001 36604 98414,98466,98440
 2.6000e+000 98567  3.0601e+001 -2.3699e+002  1.8815e+001 36604 98336,98388,98362
 2.6000e+000 98544 -1.0002e+001 -1.9918e+002  8.8382e+001 36604 98466,98518,98492
 2.6000e+000 98708 -1.1743e+001 -1.4160e+002 -2.8182e+001 36604 98466,98414,98682
 2.6000e+000 98731 -2.2280e+001 -1.5842e+002  6.1526e+000 36604 98754,98466,98682
 2.6000e+000 98780 -2.2192e+001 -1.5434e+002  8.0242e+000 36604 98336,98518,98754
 2.6000e+000 98803 -1.3913e+001 -1.5547e+002  8.5213e+000 36604 98336,98754,98682
 2.6000e+000 99309 -2.3645e+001 -7.6720e+001  1.3143e+001 36200 99332,99116,99012
 2.6000e+000 99286 -8.0831e+000 -1.2733e+001 -1.6938e+001 36200 99332,99012,98986
 2.6000e+000 99263 -8.4004e+000 -8.1635e+001 -1.0792e+000 36200 99012,99116,99064
 2.6000e+000 99240  1.3626e+001 -3.1465e+001 -1.6609e+000 36200 98986,99168,99142
 2.6000e+000 99217 -1.9968e+001 -1.1255e+002  1.3958e+001 36200 99064,99116,99090
 2.6000e+000 99194 -2.9543e+001 -7.1582e+001 -1.8813e+001 36200 99012,99064,99038
 2.6000e+000 99358 -2.6162e+001 -1.2586e+002  4.2491e+001 36200 99142,99116,99332
 2.6000e+000 99381 -9.9743e+000 -7.9443e+001  6.5992e+000 36200 99142,99332,98986
 2.6000e+000 99887 -1.6547e+001 -1.0211e+002  5.2428e+000 35488 99564,99720,99590
 2.6000e+000 99864 -1.2493e+001 -8.7856e+001 -6.8181e+000 35488 99564,99746,99720
 2.6000e+000 99841  1.6291e+001 -1.0651e+002  9.0992e+000 35488 99642,99694,99668
 2.6000e+000 99818 -8.1634e+000 -1.2461e+002  2.2979e+001 35488 99590,99694,99642
 2.6000e+000 99795  2.2131e+001 -9.7605e+001  8.6074e+000 35488 99590,99720,99694
 2.6000e+000 99772  4.0492e+001 -1.9700e+002  2.8537e+001 35488 99590,99642,99616
 2.6000e+000 99988  1.3845e+000 -2.7190e+001 -2.6518e+000 35198 99910,99962,99936
 2.6000e+000 100138 -6.4265e-001 -1.0665e+002 -1.9587e+001 34794 100233,100161,100063
 2.6000e+000 100115 -7.3431e+001 -1.4200e+002  4.6191e+000 34794 100365,100161,100037
 2.6000e+000 100187  2.0687e+001 -1.2267e+002 -1.9436e+001 34794 100089,100063,100161
 2.6000e+000 100210 -5.4418e+000 -1.1828e+002 -1.3302e+001 34794 100089,100161,100011
 2.6000e+000 100259 -1.2944e+001 -1.4352e+002 -7.4591e+000 34794 100037,100161,100233
 2.6000e+000 100391 -4.9962e+000 -1.1194e+002 -7.3856e+000 34794 100011,100161,100365
 2.6000e+000 100927 -2.4279e+001 -1.0172e+002 -1.2939e+000 34404 100679,100809,100783
 2.6000e+000 100904 -8.2640e+000 -1.0757e+002 -1.2294e+000 34404 100653,100809,100679
 2.6000e+000 100881 -1.8864e+001 -1.2562e+002 -4.7405e+000 34404 100705,100783,100731
 2.6000e+000 100858 -2.7035e+001 -1.0652e+002  6.1897e+000 34404 100679,100783,100705
 2.6000e+000 100835 -4.4671e+001 -1.0880e+002 -4.7364e+001 34404 100731,100783,100757
 2.6000e+000 101354 -3.9727e+001 -1.8859e+002  2.4016e+001 34000 101377,101109,101057
 2.6000e+000 101331 -7.0258e+001 -1.9336e+002  2.9767e+001 34000 101449,101377,101057
 2.6000e+000 101308 -7.8595e+001 -1.6410e+002  3.0906e+001 34000 101449,101057,101031
 2.6000e+000 101285 -6.8406e+001 -1.4223e+002  3.2682e+001 34000 101031,101213,101187
 2.6000e+000 101262 -5.8036e+001 -2.0306e+002 -1.8973e+001 34000 101135,101187,101161
 2.6000e+000 101239 -6.8364e+001 -2.0415e+002  3.2317e+001 34000 101057,101109,101083
 2.6000e+000 101403 -4.4750e+001 -1.6529e+002  3.6000e+000 34000 101135,101109,101377
 2.6000e+000 101426 -8.4995e+001 -1.8175e+002  1.3355e+000 34000 101135,101377,101187
 2.6000e+000 101475 -4.9946e+001 -1.5666e+002  1.9581e+001 34000 101187,101377,101449
 2.6000e+000 101498 -7.1066e+001 -1.4349e+002  2.4959e+001 34000 101187,101449,101031
 2.6000e+000 102083  3.2059e+001 -7.6740e+001 -3.0557e+000 33472 102106,101812,101786
 2.6000e+000 102060 -1.6313e+001 -9.7979e+001  6.2924e-001 33472 102106,101786,101916
 2.6000e+000 102037 -4.2205e+001 -9.2108e+001 -2.5649e+001 33472 101812,101864,101838
 2.6000e+000 102014 -1.8315e+001 -1.2402e+002 -1.5483e+001 33472 101864,101916,101890
 2.6000e+000 101991 -2.6818e+001 -1.1330e+002 -4.4452e+000 33472 101786,101942,101916
 2.6000e+000 101968 -3.7466e+001 -1.1307e+002  2.0251e+001 33472 101760,101942,101786
 2.6000e+000 102132  1.9548e+000 -7.5631e+001 -2.1955e+001 33472 101864,101812,102106
 2.6000e+000 102155 -1.3861e+001 -8.1688e+001 -2.2280e+001 33472 101864,102106,101916
 2.6000e+000 102612 -4.8493e+001 -1.5287e+002 -6.4158e+001 33038 102635,102468,102390
 2.6000e+000 102589 -7.9017e+001 -2.0286e+002 -8.1356e+001 33038 102635,102390,102364
 2.6000e+000 102566 -1.4902e+001 -1.4017e+002 -5.7515e+001 33038 102390,102468,102442
 2.6000e+000 102543 -2.6881e+001 -1.6284e+002 -3.5435e+001 33038 102338,102494,102364
 2.6000e+000 102520 -2.9604e+001 -1.3619e+002 -3.9025e+001 33038 102390,102442,102416
 2.6000e+000 102661 -4.8394e+001 -1.4088e+002 -3.5093e+001 33038 102494,102468,102635
 2.6000e+000 102684 -5.7308e+001 -1.7051e+002 -4.7581e+001 33038 102494,102635,102364
 2.6000e+000 103318 -1.7376e+001 -6.2391e+001  7.2305e+000 32402 102972,103128,103076
 2.6000e+000 103295 -1.8274e+001 -6.7922e+001  5.2392e+000 32402 102946,103128,102972
 2.6000e+000 103272 -1.0211e+001 -5.1294e+001  1.8646e+001 32402 103076,103128,103102
 2.6000e+000 103249 -1.0794e+001 -6.1815e+001  3.6366e+001 32402 102946,103154,103128
 2.6000e+000 103226 -2.4802e+001 -5.5482e+001 -1.3853e+000 32402 102972,103076,102998
 2.6000e+000 103203 -3.4058e+000 -8.3721e+001 -2.4542e+001 32402 102998,103076,103050
 2.6000e+000 103180 -2.8448e+001 -4.2484e+001 -3.4918e+001 32402 102998,103050,103024
 2.6000e+000 103696 -6.3132e+001 -1.8436e+002 -9.3987e+000 31924 103448,103526,103500
 2.6000e+000 103673 -2.8712e+001 -1.7456e+002 -2.9588e+001 31924 103448,103578,103526
 2.6000e+000 103650 -4.6710e+001 -1.6461e+002 -1.6446e+001 31924 103448,103500,103474
 2.6000e+000 103627 -3.6677e+001 -2.0207e+002 -3.4637e+001 31924 103422,103578,103448
 2.6000e+000 103604 -5.6028e+001 -2.7514e+002 -3.0908e+000 31924 103526,103578,103552
 2.6000e+000 104281  1.7696e-001 -3.0019e+001 -2.0075e+001 31520 104304,104062,104036
 2.6000e+000 104258  8.0470e+000 -3.9562e+001 -2.1732e+001 31520 104304,104036,103984
 2.6000e+000 104235 -3.1344e+001 -7.2584e+001 -3.0298e+001 31520 104062,104114,104088
 2.6000e+000 104212  4.1357e+000 -4.4610e+001 -1.6118e+001 31520 103958,104114,103984
 2.6000e+000 104189 -6.5141e+000 -7.2289e+001  4.9615e-002 31520 103984,104036,104010
 2.6000e+000 104166 -9.3212e+000  1.1691e+001 -1.3348e+001 31520 103958,104140,104114
 2.6000e+000 104330 -4.8279e+000 -3.7259e+001 -1.7143e+001 31520 104114,104062,104304
 2.6000e+000 104353  2.6196e+000 -4.4502e+001 -1.9516e+001 31520 104114,104304,103984
 2.6000e+000 104704 -2.1104e+001 -2.5606e+001 -1.2585e+001 31066 104479,104583,104505
 2.6000e+000 104681  3.5721e+001  1.2290e+000 -2.1820e+001 31066 104479,104609,104583
 2.6000e+000 104658  1.1617e+000 -8.2550e+001  3.3901e-001 31066 104505,104557,104531
 2.6000e+000 104635  5.0549e+000 -1.7423e+001 -1.0016e+001 31066 104505,104583,104557
 2.6000e+000 104925  4.7921e+001 -1.2594e+002 -1.1796e+001 30754 104775,104827,104801
 2.6000e+000 104902  9.8322e+000 -1.0088e+002  4.7139e+000 30754 104775,104853,104827
 2.6000e+000 104879  7.3554e+001 -7.2940e+001  1.4615e+001 30754 104749,104853,104775
 2.6000e+000 105482 -5.5176e+001 -1.2167e+002  1.8140e+001 30164 105505,105136,105110
 2.6000e+000 105459 -4.5933e+001 -1.3400e+002  2.2206e+001 30164 105649,105505,105110
 2.6000e+000 105436 -3.8118e+001 -1.2950e+002  1.4917e+001 30164 105577,105188,105136
 2.6000e+000 105413 -6.3925e+001 -1.4351e+002  3.3697e+001 30164 105649,105110,105318
 2.6000e+000 105390 -4.3884e+001 -2.2241e+002  5.3675e+001 30164 105214,105292,105240
 2.6000e+000 105367 -4.7815e+001 -2.3092e+002  5.8843e+001 30164 105240,105292,105266
 2.6000e+000 105344 -4.8144e+001 -1.2469e+002  1.4647e+001 30164 105136,105188,105162
 2.6000e+000 105531 -3.9050e+001 -1.2974e+002  1.6111e+001 30164 105577,105136,105505
 2.6000e+000 105554  4.6704e+000 -1.2116e+002  1.3257e+001 30164 105214,105505,105292
 2.6000e+000 105603 -3.7978e+001 -1.2798e+002  1.4025e+001 30164 105214,105188,105577
 2.6000e+000 105626 -3.8437e+001 -1.2793e+002  1.5158e+001 30164 105214,105577,105505
 2.6000e+000 105675 -3.8993e+001 -1.2100e+002  8.6672e+000 30164 105292,105505,105649
 2.6000e+000 105698 -4.1281e+001 -1.1718e+002  1.8104e+001 30164 105292,105649,105318
 2.6000e+000 106027  2.3788e+001 -6.9318e+001  1.3847e+001 29868 106322,106050,105880
 2.6000e+000 106004 -1.2249e+001 -6.8344e+001  2.2475e+000 29868 106250,106050,105828
 2.6000e+000 105981 -1.8020e+001 -7.3988e+001 -4.3426e+000 29868 106250,105828,105802
 2.6000e+000 105958  6.8262e+000 -5.6081e+001  2.9403e+001 29868 106322,105880,106122
 2.6000e+000 106076  1.0371e+000 -1.0041e+002 -4.3935e+000 29868 105906,105880,106050
 2.6000e+000 106099 -3.3150e+000 -7.4937e+001 -8.9946e+000 29868 105906,106050,105932
 2.6000e+000 106148 -3.9485e+001 -1.0575e+002  1.9454e+001 29868 105854,105828,106122
 2.6000e+000 106276 -1.8453e+001 -7.4318e+001 -1.2314e+001 29868 105932,106050,106250
 2.6000e+000 106299 -3.8058e+001 -8.8415e+001 -2.0598e+001 29868 105932,106250,105802
 2.6000e+000 106348 -7.1043e+000 -8.1843e+001  9.1833e+000 29868 105828,106050,106322
 2.6000e+000 106371 -2.0963e+001 -6.6737e+001  2.4791e+001 29868 105828,106322,106122
 2.6000e+000 106828  7.7191e+000 -5.6230e+001  7.7988e+000 29521 106580,106710,106684
 2.6000e+000 106805 -2.2512e+001 -7.4160e+001 -1.7841e+001 29521 106554,106710,106580
 2.6000e+000 106782 -1.4768e+001 -6.6828e+001  2.8371e+000 29521 106580,106684,106606
 2.6000e+000 106759 -2.8872e+001 -9.4276e+001 -2.8242e+000 29521 106606,106684,106658
 2.6000e+000 106736 -1.7708e+001 -5.4408e+001  1.2828e+001 29521 106606,106658,106632
 2.6000e+000 107027 -3.5972e+001 -1.2794e+002 -4.2641e+001 29117 106877,106929,106903
 2.6000e+000 107004 -1.5443e+001 -1.1911e+002 -4.0234e+001 29117 106851,106929,106877
 2.6000e+000 106981 -2.6507e+001 -1.8043e+002 -2.9375e+001 29117 106851,106955,106929
 2.6000e+000 107456 -7.8650e+001 -1.8200e+002 -4.8822e+001 28656 107237,107315,107263
 2.6000e+000 107433 -1.0100e+001 -1.2544e+002 -2.3396e+001 28656 107133,107315,107237
 2.6000e+000 107410 -1.0864e+001 -1.0223e+002 -1.3935e+001 28656 107133,107237,107159
 2.6000e+000 107387 -1.0943e+001 -5.3778e+001 -2.3811e+001 28656 107159,107237,107185
 2.6000e+000 107364 -1.6323e+000 -4.1925e+001  2.7518e+000 28656 107185,107237,107211
 2.6000e+000 107341 -5.6509e+000 -3.2809e+001 -6.4480e+000 28656 107263,107315,107289
 2.6000e+000 107704 -8.4313e+000 -1.0854e+002  2.7997e-001 27902 107727,107557,107531
 2.6000e+000 107681 -2.7436e-001 -9.8532e+001  4.1801e+000 27902 107727,107531,107505
 2.6000e+000 107658 -1.0174e+001 -1.2268e+002 -2.1255e+001 27902 107557,107609,107583
 2.6000e+000 107635 -4.3030e+001 -9.5624e+001  7.7743e+000 27902 107479,107609,107505
 2.6000e+000 107753 -1.7558e+001 -9.9142e+001 -4.7209e+000 27902 107609,107557,107727
 2.6000e+000 107776 -1.0563e+001 -9.1268e+001 -1.3935e+000 27902 107609,107727,107505
 2.6000e+000 108333 -3.9421e+001 -2.1254e+002  1.5083e+000 27341 108356,108065,108013
 2.6000e+000 108310 -8.0955e+000 -1.8845e+002 -4.5138e+001 27341 108356,108013,108143
 2.6000e+000 108287 -7.6459e+001 -2.3109e+002 -9.8823e+000 27341 108428,108117,108091
 2.6000e+000 108264 -3.8216e+001 -1.9236e+002 -1.2273e+000 27341 108013,108065,108039
 2.6000e+000 108241 -8.0098e+001 -1.6937e+002 -5.1516e+001 27341 107987,108143,108013
 2.6000e+000 108218 -3.3392e+001 -1.5029e+002 -3.3540e+001 27341 107987,108169,108143
 2.6000e+000 108195 -3.1948e+001 -1.1471e+002 -2.6206e+001 27341 107961,108169,107987
 2.6000e+000 108382 -4.1528e+001 -2.1653e+002  2.7117e-002 27341 108091,108065,108356
 2.6000e+000 108405 -7.3788e+001 -2.0516e+002 -9.4484e+000 27341 108428,108091,108356
 2.6000e+000 108454 -5.9842e+001 -3.1698e+002 -1.5309e+001 27341 108143,108117,108428
 2.6000e+000 108477 -4.0872e+001 -2.6702e+002 -2.0713e+001 27341 108143,108428,108356
 2.6000e+000 108725  3.6199e+001 -1.7359e+002  1.6056e+001 27029 108748,108526,108500
 2.6000e+000 108702 -6.5134e-001 -1.1723e+002  3.6849e+001 27029 108748,108500,108630
 2.6000e+000 108679 -5.2205e+001 -1.3648e+002  1.8758e+001 27029 108578,108630,108604
 2.6000e+000 108656 -5.8254e+000 -1.6209e+002  3.5569e+001 27029 108526,108578,108552
 2.6000e+000 108774  2.3452e+000 -1.8381e+002 -2.0459e+000 27029 108578,108526,108748
 2.6000e+000 108797 -5.4694e+001 -1.4902e+002  9.8031e+000 27029 108578,108748,108630
 2.6000e+000 109045  3.9239e+001 -9.3311e+001  2.0050e+000 26610 108872,108924,108898
 2.6000e+000 109022  5.2315e+000 -9.6046e+001  1.2788e+000 26610 108872,108950,108924
 2.6000e+000 108999  9.5229e-001 -1.1501e+002  6.1811e+000 26610 108846,108950,108872
 2.6000e+000 108976  1.5714e+001 -1.5761e+002  1.9739e+000 26610 108820,108950,108846
 2.6000e+000 109366 -1.1358e+001 -2.1503e+002  9.5639e+000 26006 109144,109222,109196
 2.6000e+000 109343 -1.0019e+001 -2.2657e+002  5.7699e+000 26006 109118,109222,109144
 2.6000e+000 109320 -4.3938e+001 -2.5145e+002  2.1956e+001 26006 109092,109222,109118
 2.6000e+000 109297  2.2250e+001 -1.9739e+002 -2.0997e+001 26006 109144,109196,109170
 2.6000e+000 109274  2.5360e+000 -1.8394e+002  1.4612e+000 26006 109092,109248,109222
 2.6000e+000 109567 -5.6186e+001 -1.3245e+002 -2.2165e+001 25659 109391,109469,109443
 2.6000e+000 109544 -4.4725e+001 -1.3157e+002 -1.2660e+001 25659 109391,109495,109469
 2.6000e+000 109521 -4.2863e+001 -1.0674e+002 -2.6945e+001 25659 109391,109443,109417
 2.6000e+000 109900 -3.9566e+001 -1.1813e+002 -1.1921e+001 25255 109923,109779,109753
 2.6000e+000 109877 -3.6920e+001 -1.1137e+002 -1.1086e+001 25255 109923,109753,109701
 2.6000e+000 109854 -4.1724e+001 -8.9880e+001 -1.5935e+001 25255 109675,109805,109701
 2.6000e+000 109831 -5.9446e+001 -1.1273e+002 -9.6914e+000 25255 109701,109753,109727
 2.6000e+000 109949 -3.9435e+001 -1.2750e+002 -1.8916e+001 25255 109805,109779,109923
 2.6000e+000 109972 -3.4102e+001 -1.1517e+002 -1.8089e+001 25255 109805,109923,109701
 2.6000e+000 110220 -4.9120e+001 -1.3732e+002  1.7715e+001 24701 110243,110021,109995
 2.6000e+000 110197 -4.5609e+001 -1.3831e+002 -1.6555e+000 24701 110243,109995,110099
 2.6000e+000 110174 -2.8940e+001 -1.4444e+002 -2.8960e+000 24701 110315,110073,110047
 2.6000e+000 110151 -4.5907e+001 -1.4600e+002  1.9719e-001 24701 109995,110125,110099
 2.6000e+000 110269 -1.4471e+001 -1.2114e+002  2.2309e+001 24701 110047,110021,110243
 2.6000e+000 110292 -5.6703e+001 -1.4160e+002  8.4643e+000 24701 110315,110047,110243
 2.6000e+000 110341  3.0851e+001 -1.2012e+002 -9.9396e+000 24701 110099,110073,110315
 2.6000e+000 110364 -1.1435e+001 -1.2367e+002 -3.1115e-001 24701 110099,110315,110243
 2.6000e+000 110661 -3.0138e+001 -1.7758e+002 -5.2323e+000 24197 110684,110413,110387
 2.6000e+000 110638 -1.5429e+001 -1.6350e+002 -2.7150e+001 24197 110684,110387,110543
 2.6000e+000 110615  1.6310e+001 -2.6238e+002  1.3568e+001 24197 110756,110491,110465
 2.6000e+000 110592 -4.2659e+001 -1.3874e+002  9.0670e+000 24197 110413,110465,110439
 2.6000e+000 110569 -5.6023e+000 -3.7922e+002 -2.2682e+001 24197 110491,110543,110517
 2.6000e+000 110710 -2.3999e+000 -1.6105e+002  1.1697e+001 24197 110465,110413,110684
 2.6000e+000 110733 -3.1936e+001 -2.2361e+002  4.5200e-001 24197 110756,110465,110684
 2.6000e+000 110782  5.5055e+001 -2.1873e+002 -1.3259e+001 24197 110543,110491,110756
 2.6000e+000 110805  2.3998e+001 -1.6252e+002 -3.0173e+001 24197 110543,110756,110684
 2.6000e+000 111315 -3.5427e+001 -1.6955e+002 -1.3963e+001 23593 111044,111148,111070
 2.6000e+000 111292 -4.9090e+001 -1.4067e+002 -3.9095e-001 23593 111044,111174,111148
 2.6000e+000 111269 -1.3852e+001 -1.1216e+002 -4.0156e+000 23593 111070,111122,111096
 2.6000e+000 111246 -4.4126e+001 -1.7247e+002 -2.5374e+001 23593 111070,111148,111122
 2.6000e+000 111223 -6.3993e+001 -1.2796e+002 -2.0862e+001 23593 111018,111174,111044
 2.6000e+000 111200 -1.5485e+001 -1.4728e+002 -1.2501e+001 23593 110992,111174,111018
 2.6000e+000 111821  1.1562e+001 -1.9306e+002 -3.6692e+000 23089 111916,111844,111628
 2.6000e+000 111798 -4.8130e+001 -2.2570e+002 -3.6936e+001 23089 111844,111550,111524
 2.6000e+000 111775  1.5345e+001 -1.7501e+002 -6.5452e-001 23089 111916,111628,111602
 2.6000e+000 111752 -1.6240e+000 -3.2098e+002 -1.9142e+001 23089 111498,111680,111524
 2.6000e+000 111729  1.5776e+000 -1.3475e+002  2.1008e+001 23089 111550,111602,111576
 2.6000e+000 111706  6.2460e-001 -1.1806e+002 -1.7198e+001 23089 111628,111680,111654
 2.6000e+000 111870 -2.7590e+000 -1.7943e+002  1.1583e+001 23089 111680,111628,111844
 2.6000e+000 111893 -9.3025e+000 -1.9575e+002  2.3972e+000 23089 111680,111844,111524
 2.6000e+000 111942 -4.6007e+000 -1.6395e+002 -1.1596e+001 23089 111550,111844,111916
 2.6000e+000 111965 -1.0757e+000 -1.4693e+002 -6.6568e+000 23089 111550,111916,111602
 2.6000e+000 112164  1.6523e+001 -1.0468e+002 -1.5150e+001 22626 112187,112014,111988
 2.6000e+000 112141 -5.5642e+000 -1.3449e+002 -5.2186e+000 22626 112259,112187,111988
 2.6000e+000 112118 -8.3549e+000 -1.4522e+002  1.0396e+001 22626 112259,111988,112092
 2.6000e+000 112213 -1.6512e+000 -6.3020e+001 -9.8866e+000 22626 112040,112014,112187
 2.6000e+000 112236 -2.4468e+001 -1.0609e+002 -1.3619e+000 22626 112040,112187,112066
 2.6000e+000 112285 -2.6540e+000 -1.0915e+002 -1.0849e+001 22626 112066,112187,112259
 2.6000e+000 112308 -6.6149e-001 -1.1638e+002  3.4441e+000 22626 112066,112259,112092
 2.6000e+000 112605 -2.5730e+001 -1.5520e+002 -1.7455e+000 22286 112628,112383,112357
 2.6000e+000 112582 -2.4827e+001 -1.5932e+002  4.1601e+000 22286 112772,112628,112357
 2.6000e+000 112559 -2.8736e+001 -1.7914e+002  9.4283e+000 22286 112700,112435,112409
 2.6000e+000 112536 -5.0042e+001 -1.6710e+002  4.5411e+000 22286 112772,112357,112331
 2.6000e+000 112513 -8.0195e+001 -1.6639e+002  1.8804e+001 22286 112435,112487,112461
 2.6000e+000 112654 -1.6846e+001 -1.1872e+002 -3.9300e+000 22286 112409,112383,112628
 2.6000e+000 112677 -2.0318e+001 -1.6113e+002  7.1846e+000 22286 112700,112409,112628
 2.6000e+000 112726 -2.2953e+001 -1.6791e+002 -3.2662e+000 22286 112487,112435,112700
 2.6000e+000 112749 -2.1046e+001 -1.6474e+002 -4.5762e+000 22286 112487,112700,112628
 2.6000e+000 112798 -1.4395e+001 -1.6293e+002 -1.2497e-001 22286 112487,112628,112772
 2.6000e+000 112821 -1.9124e+001 -1.5795e+002  2.1330e+000 22286 112487,112772,112331
 2.6000e+000 112924  9.8786e-001 -5.6224e-001 -1.1502e+000 21974 112846,112898,112872
 2.6000e+000 113223 -8.1961e+001 -2.1284e+002  2.8538e+001 21420 112949,113053,112975
 2.6000e+000 113200 -7.0557e+001 -1.7157e+002  2.6810e+001 21420 112949,113079,113053
 2.6000e+000 113177  4.1193e+001 -1.7529e+002  5.2172e+001 21420 112975,113053,113001
 2.6000e+000 113154 -1.1871e+002 -2.4284e+002  3.1048e+001 21420 113001,113053,113027
 2.6000e+000 113131 -1.0342e+002 -1.6273e+002  1.5751e+001 21420 112949,113105,113079
 2.6000e+000 113605 -2.8694e+001 -2.3029e+002  5.9830e+001 20716 113331,113435,113357
 2.6000e+000 113582 -3.4044e+001 -1.3514e+002  6.3757e+001 20716 113331,113461,113435
 2.6000e+000 113559 -1.1028e+001 -2.1942e+002 -1.9922e+001 20716 113383,113435,113409
 2.6000e+000 113536 -6.0627e+001 -2.0040e+002 -1.4472e+001 20716 113357,113435,113383
 2.6000e+000 113513 -4.9565e+000 -3.7343e+001 -9.6685e+000 20716 113331,113487,113461
 2.6000e+000 113853  6.1226e+000 -1.8563e+002  5.4854e+000 20290 113876,113680,113654
 2.6000e+000 113830  2.3189e+001 -1.8303e+002  5.8311e+000 20290 113876,113654,113628
 2.6000e+000 113807 -1.4034e+001 -2.1277e+002 -9.2655e+000 20290 113948,113732,113680
 2.6000e+000 113784  4.6374e+001 -2.0717e+002 -2.5640e+001 20290 113680,113732,113706
 2.6000e+000 113902  4.8800e+000 -1.8493e+002  6.4142e+000 20290 113948,113680,113876
 2.6000e+000 113925 -3.0290e+000 -1.6118e+002  4.4229e+000 20290 113758,113876,113628
 2.6000e+000 113974 -3.3133e+001 -1.8637e+002 -1.8252e+001 20290 113758,113732,113948
 2.6000e+000 113997 -3.0697e+001 -1.8255e+002 -6.9540e+000 20290 113758,113948,113876
 2.6000e+000 114365 -2.4922e+001 -1.9329e+002  6.4230e-001 19900 114146,114198,114172
 2.6000e+000 114342 -2.5813e+001 -1.9362e+002  9.5601e-001 19900 114042,114198,114146
 2.6000e+000 114319 -2.7310e+001 -1.8871e+002  2.5140e+000 19900 114042,114224,114198
 2.6000e+000 114296 -7.5590e+001 -1.8464e+002 -3.0282e+000 19900 114094,114146,114120
 2.6000e+000 114273 -2.8049e+001 -1.7773e+002 -1.1269e+001 19900 114042,114146,114094
 2.6000e+000 114250 -6.8518e+001 -1.8591e+002 -2.4956e+000 19900 114042,114094,114068
 2.6000e+000 114566 -6.1161e+001 -1.9624e+002 -8.0629e-001 19496 114442,114494,114468
 2.6000e+000 114543 -8.0071e+001 -1.8284e+002 -1.0270e+001 19496 114416,114494,114442
 2.6000e+000 114520 -6.6025e+001 -1.8443e+002 -1.3922e+001 19496 114390,114494,114416
 2.6000e+000 114767 -5.3366e+000 -1.9259e+002  7.2120e+000 19042 114790,114669,114643
 2.6000e+000 114744 -7.5639e+000 -1.8751e+002  9.4373e+000 19042 114790,114643,114591
 2.6000e+000 114721  1.3267e+001 -1.8973e+002  3.7027e+001 19042 114591,114643,114617
 2.6000e+000 114816 -9.6320e+000 -1.8736e+002  5.2400e+000 19042 114695,114669,114790
 2.6000e+000 114839 -8.0144e+000 -1.7780e+002  8.3767e+000 19042 114695,114790,114591
 2.6000e+000 114991 -8.0758e+001 -2.1708e+002 -2.7921e-001 18488 114864,114916,114890
 2.6000e+000 114968 -6.0036e+001 -2.1882e+002 -6.2529e+000 18488 114864,114942,114916
 2.6000e+000 115192  8.1852e+001 -1.4818e+002  1.2222e+001 18098 115215,115042,115016
 2.6000e+000 115169  4.0820e+001 -1.2526e+002 -3.5718e+000 18098 115215,115016,115120
 2.6000e+000 115146  5.8413e+001 -1.4410e+002 -2.1813e+001 18098 115287,115094,115068
 2.6000e+000 115241  5.1635e+001 -2.1425e+002 -1.7317e+000 18098 115068,115042,115215
 2.6000e+000 115264  5.6797e+001 -1.4111e+002 -7.6384e+000 18098 115287,115068,115215
 2.6000e+000 115313  3.7969e+001 -1.5110e+002 -1.9548e+001 18098 115120,115094,115287
 2.6000e+000 115336  2.9818e+001 -1.5082e+002 -6.0579e+000 18098 115120,115287,115215
 2.6000e+000 115846  3.3727e+001 -2.4823e+002 -6.7344e+001 17644 115653,115705,115679
 2.6000e+000 115823 -2.6444e+001 -2.2453e+002 -3.0406e+001 17644 115627,115705,115653
 2.6000e+000 115800  2.6656e+001 -1.6317e+002 -2.1848e-001 17644 115549,115705,115627
 2.6000e+000 115777 -1.1958e+001 -2.1466e+002  1.7986e+001 17644 115549,115627,115575
 2.6000e+000 115754  2.3189e+001 -1.5065e+002  1.9390e+001 17644 115523,115705,115549
 2.6000e+000 115731 -7.5319e+001 -2.0320e+002 -2.9808e+000 17644 115575,115627,115601
 2.6000e+000 116067 -6.5462e+001 -3.2576e+002 -1.0110e+001 17116 115891,115943,115917
 2.6000e+000 116044 -1.2099e+002 -3.7200e+002  1.0042e+001 17116 115891,115995,115943
 2.6000e+000 116021 -1.1347e+002 -3.1043e+002  9.3880e+000 17116 115943,115995,115969
 2.6000e+000 116288  2.1486e+001 -2.1748e+002  4.9435e+001 16704 116164,116216,116190
 2.6000e+000 116265 -2.7214e+001 -2.9031e+002  2.8332e+001 16704 116112,116216,116164
 2.6000e+000 116242 -1.2120e+002 -2.9271e+002 -3.6268e+000 16704 116112,116164,116138
 2.6000e+000 116489 -2.3648e+001 -1.9370e+002 -7.7048e+000 16434 116339,116417,116365
 2.6000e+000 116466 -4.3690e+001 -1.9850e+002 -1.0805e+000 16434 116313,116417,116339
 2.6000e+000 116443 -1.3532e+002 -2.5445e+002  7.2845e+001 16434 116365,116417,116391
 2.6000e+000 116592 -3.2098e+000 -2.1731e+002 -1.6713e+001 15967 116514,116566,116540
 2.6000e+000 116695 -2.1568e+001 -3.2004e+002 -4.4128e+001 15552 116617,116669,116643
 2.6000e+000 116798 -2.2113e+001 -1.8183e+002  0.0000e+000 421 116720,116772,116746
 2.7000e+000 69066  1.5560e+000 -3.0537e+002 -1.2158e+001 68738 68965,69017,68991
 2.7000e+000 69043  6.0782e+001 -2.6842e+002  6.4996e+002 68738 68939,69017,68965
 2.7000e+000 69371 -6.6101e+000 -6.3967e+001 -2.2414e+001 68426 69172,69250,69198
 2.7000e+000 69348  1.4998e+000 -1.1852e+002  7.6534e+000 68426 69146,69250,69172
 2.7000e+000 69325 -2.3825e+000 -2.1000e+001  9.8092e+000 68426 69198,69250,69224
 2.7000e+000 69302 -3.2925e+001 -1.0495e+002  4.5711e+000 68426 69146,69276,69250
 2.7000e+000 69521 -1.1941e+000 -1.1678e+002 -7.2274e+000 68228 69420,69472,69446
 2.7000e+000 69498 -1.6916e+001 -7.9802e+001 -4.3951e+001 68228 69394,69472,69420
 2.7000e+000 69781  2.5322e+000  7.9346e-003 -3.0035e+000 68030 69631,69683,69657
 2.7000e+000 69758  1.8630e+000 -1.0224e+001 -7.3107e+000 68030 69631,69709,69683
 2.7000e+000 69735 -4.0488e+000  3.9492e+000  1.0023e+001 68030 69605,69709,69631
 2.7000e+000 70078 -1.0651e+001 -3.3466e+001 -1.5030e+001 67832 69882,69934,69908
 2.7000e+000 70055  1.4432e+001 -2.1599e+001 -1.9539e+001 67832 69856,69934,69882
 2.7000e+000 70032  4.3224e+001 -1.6883e+001 -5.3911e+001 67832 69830,69934,69856
 2.7000e+000 70009  1.1362e+001 -9.1420e+001 -7.0756e+000 67832 69804,69934,69830
 2.7000e+000 69986 -2.5927e+001 -1.6566e+001  3.1003e+001 67832 69804,69960,69934
 2.7000e+000 70586 -7.0586e+000 -5.8157e+001  1.0702e+001 67634 70609,70419,70341
 2.7000e+000 70563 -1.0193e+000 -7.5982e+001  1.6713e+001 67634 70681,70609,70341
 2.7000e+000 70540 -1.6836e+000 -7.7172e+001  1.9962e+001 67634 70681,70341,70315
 2.7000e+000 70517 -1.9023e+001 -6.2980e+001  2.4815e+001 67634 70341,70419,70367
 2.7000e+000 70494 -1.2691e+001 -1.5390e+001  6.8111e+000 67634 70263,70445,70289
 2.7000e+000 70471 -4.6423e+000 -1.1973e+001  1.1928e+001 67634 70367,70419,70393
 2.7000e+000 70635  2.6509e-001 -1.0402e+001  9.4009e+000 67634 70445,70419,70609
 2.7000e+000 70658 -1.7268e+001 -6.2966e+001  1.8412e+001 67634 70445,70609,70289
 2.7000e+000 70707  1.2345e+000 -6.8270e+001  1.2445e+001 67634 70289,70609,70681
 2.7000e+000 70730 -3.1871e+000 -7.2203e+001  1.6262e+001 67634 70289,70681,70315
 2.7000e+000 71108 -1.6162e+001 -8.3366e+001  3.0616e+001 67344 71131,70912,70886
 2.7000e+000 71085 -1.2319e+001 -7.3929e+001  2.9469e+001 67344 71131,70886,70860
 2.7000e+000 71062 -2.2946e+001 -8.6745e+001  2.6053e+001 67344 71203,70938,70912
 2.7000e+000 71039  2.0077e+001 -6.4947e+001  1.4205e+001 67344 70834,70990,70860
 2.7000e+000 71016 -1.9308e+001 -9.8407e+001  8.9099e+000 67344 70938,70990,70964
 2.7000e+000 71157 -2.2665e+001 -7.5799e+001  2.7775e+001 67344 71203,70912,71131
 2.7000e+000 71180 -5.1362e+000 -6.4621e+001  1.3845e+001 67344 70990,71131,70860
 2.7000e+000 71229 -1.8995e+001 -1.0649e+002  2.1565e+001 67344 70990,70938,71203
 2.7000e+000 71252 -1.7228e+001 -9.1871e+001  2.0629e+001 67344 70990,71203,71131
 2.7000e+000 71603  3.2957e+000 -6.0596e+001  7.7032e+000 67032 71378,71482,71404
 2.7000e+000 71580  7.0729e+000 -4.0155e+001  1.3014e+001 67032 71378,71508,71482
 2.7000e+000 71557  2.7070e+000 -3.9997e+001  1.9526e+001 67032 71404,71456,71430
 2.7000e+000 71534 -8.2382e-001 -6.9353e+001  9.0606e+000 67032 71404,71482,71456
 2.7000e+000 72003  1.3776e+001 -3.7890e+001  1.5123e+001 66834 71755,71859,71781
 2.7000e+000 71980  3.6533e+000 -9.7826e+001  5.1095e+000 66834 71755,71885,71859
 2.7000e+000 71957  6.8932e+000 -2.3594e+001  1.0191e+001 66834 71781,71833,71807
 2.7000e+000 71934 -1.0283e+001 -1.1112e+002 -2.5097e+000 66834 71781,71859,71833
 2.7000e+000 71911  2.0729e+001 -4.2290e+001  4.1239e+001 66834 71729,71885,71755
 2.7000e+000 72430  1.9314e+001 -8.1459e+001 -3.8595e+000 66266 72237,72289,72263
 2.7000e+000 72407  1.4745e+001 -9.5287e+001  8.6668e+000 66266 72133,72289,72237
 2.7000e+000 72384 -1.6785e+000 -7.2839e+001  4.4730e+000 66266 72133,72237,72211
 2.7000e+000 72361 -2.3508e+001 -1.1230e+002  3.6868e+000 66266 72107,72289,72133
 2.7000e+000 72338 -2.6611e+001 -1.3906e+002  4.0945e+001 66266 72133,72211,72185
 2.7000e+000 72315 -5.4844e+000 -1.4608e+002  4.2632e+001 66266 72133,72185,72159
 2.7000e+000 72580 -2.5726e+001 -1.6322e+002  1.8757e+001 65968 72479,72531,72505
 2.7000e+000 72557  2.1713e+000 -1.0504e+002  7.7559e+000 65968 72453,72531,72479
 2.7000e+000 72960  1.1604e+001 -3.9584e+001  1.2330e+001 65621 72983,72738,72712
 2.7000e+000 72937  3.8445e+001 -8.2185e+001  1.1095e+001 65621 72983,72712,72686
 2.7000e+000 72914 -3.0156e+000 -1.4055e+002  1.3613e+001 65621 72738,72842,72764
 2.7000e+000 72891  6.7379e+000 -1.3018e+002  3.2917e+000 65621 72764,72842,72816
 2.7000e+000 72868 -8.9751e+001 -3.7046e+002  6.5078e+001 65621 72764,72816,72790
 2.7000e+000 73009  1.8455e+001 -7.2375e+001  1.8868e+001 65621 72842,72738,72983
 2.7000e+000 73032  1.7111e+001 -1.5151e+002  2.2303e+001 65621 72842,72983,72686
 2.7000e+000 73361  1.1554e+001 -2.2938e+002 -1.1172e+001 65281 73456,73384,73188
 2.7000e+000 73338 -2.1981e+001 -2.0978e+002  2.7830e+001 65281 73384,73162,73136
 2.7000e+000 73315 -2.3700e+001 -1.8110e+002 -3.5607e+001 65281 73188,73240,73214
 2.7000e+000 73292 -4.5745e+001 -6.9677e+001 -2.7088e+001 65281 73136,73266,73240
 2.7000e+000 73410 -5.7336e+001 -2.1978e+002 -1.1540e+001 65281 73240,73188,73384
 2.7000e+000 73433 -2.4565e+001 -7.6702e+001  8.5652e+000 65281 73240,73384,73136
 2.7000e+000 73482 -1.4864e+001 -3.0108e+002 -1.5637e+001 65281 73162,73384,73456
 2.7000e+000 73711 -2.3965e+001  2.9032e+001 -5.0709e+001 64820 73734,73610,73584
 2.7000e+000 73688 -1.7693e+001  4.3820e+001 -5.1252e+001 64820 73734,73584,73662
 2.7000e+000 73760 -1.6097e+001  3.4261e+001 -3.7310e+001 64820 73636,73610,73734
 2.7000e+000 73783 -1.3083e+000  4.1035e+001 -6.0042e+001 64820 73806,73734,73662
 2.7000e+000 73832 -3.5433e+001 -1.6797e+001 -3.7337e+001 64820 73636,73734,73806
 2.7000e+000 74112  1.3163e+001 -7.5652e+001 -1.3184e+001 64622 74278,74135,73988
 2.7000e+000 74089  6.6256e-002 -1.0698e+002  4.3857e+000 64622 74135,73936,74040
 2.7000e+000 74066  1.4752e+001 -7.4508e+001 -3.2089e+001 64622 74278,73988,73962
 2.7000e+000 74161 -1.2584e+001 -9.8886e+001 -2.5761e+000 64622 74014,73988,74135
 2.7000e+000 74184  1.0327e+000 -1.0364e+002  2.5391e+000 64622 74207,74135,74040
 2.7000e+000 74233  3.2316e+000 -1.0154e+002 -5.0938e+000 64622 74014,74135,74207
 2.7000e+000 74304 -2.7757e+000 -1.1375e+002  7.5201e-001 64622 73936,74135,74278
 2.7000e+000 74327  1.0005e+001 -1.0256e+002 -2.0028e+001 64622 73936,74278,73962
 2.7000e+000 74526  1.7178e+001 -1.8189e+001  4.1121e+000 64424 74621,74549,74402
 2.7000e+000 74503 -1.2538e+001 -8.2800e+001  9.5648e+000 64424 74549,74350,74454
 2.7000e+000 74480  2.2835e+001 -4.6601e-001 -2.4034e+001 64424 74621,74402,74376
 2.7000e+000 74575  4.6828e+001 -7.4353e+001  1.9662e+001 64424 74428,74402,74549
 2.7000e+000 74598  8.5950e+000 -1.1508e+002  2.0018e+001 64424 74693,74549,74454
 2.7000e+000 74647 -5.6831e+000 -6.2893e+001  1.8407e+001 64424 74350,74549,74621
 2.7000e+000 74670 -2.6001e-001 -5.2321e+001 -1.0793e+001 64424 74350,74621,74376
 2.7000e+000 74719  6.7199e+000 -1.3793e+002 -2.3972e+000 64424 74428,74549,74693
 2.7000e+000 75123 -4.2480e+001 -2.6671e+002  3.1990e+001 64126 74875,74953,74927
 2.7000e+000 75100 -1.9377e+001 -2.2080e+002  2.3984e+001 64126 74875,74979,74953
 2.7000e+000 75077  1.9335e+000 -1.6596e+002  4.3019e+000 64126 74875,75005,74979
 2.7000e+000 75054 -2.7884e+001 -3.5609e+002  5.8967e+001 64126 74875,74927,74901
 2.7000e+000 75031 -1.6906e+001 -5.2043e+001  5.2676e+001 64126 74849,75005,74875
 2.7000e+000 75224  1.8464e+001 -1.6047e+002  2.5276e+001 63836 75146,75198,75172
 2.7000e+000 75472 -7.2614e+000 -1.1259e+002  2.8294e+001 63375 75273,75351,75325
 2.7000e+000 75449 -2.1149e+001 -1.0848e+002  1.5562e+001 63375 75273,75377,75351
 2.7000e+000 75426 -1.7340e+001 -1.1552e+002  9.2341e+000 63375 75247,75377,75273
 2.7000e+000 75403  3.3248e+000 -5.9930e+001  3.0712e+001 63375 75273,75325,75299
 2.7000e+000 75673  2.5674e+001 -1.0782e+002  1.8309e+001 63063 75523,75575,75549
 2.7000e+000 75650  2.0014e+001 -1.4622e+002 -6.5614e-001 63063 75497,75575,75523
 2.7000e+000 75627  1.5858e+001 -1.5724e+002  1.9284e+001 63063 75497,75601,75575
 2.7000e+000 75874  2.4290e+001 -1.9269e+002 -1.1273e+001 62716 75897,75750,75724
 2.7000e+000 75851  3.1696e+000 -1.6122e+002 -3.2035e+000 62716 75897,75724,75698
 2.7000e+000 75828  9.7037e+000 -1.1453e+002 -4.7787e+001 62716 75698,75802,75776
 2.7000e+000 75923  5.6133e+001 -1.5579e+002 -2.7149e+001 62716 75776,75750,75897
 2.7000e+000 75946  1.2339e+001 -1.4545e+002 -8.2200e+000 62716 75776,75897,75698
 2.7000e+000 76328 -1.6857e+001 -1.7231e+002 -1.5920e+001 62198 76495,76351,76158
 2.7000e+000 76305 -4.1210e+001 -1.7468e+002 -3.4553e+000 62198 76351,76080,76054
 2.7000e+000 76282 -6.2475e+000 -2.2840e+002 -2.3187e+001 62198 76423,76184,76158
 2.7000e+000 76259 -2.2855e+001 -1.7213e+002 -1.3447e+001 62198 76495,76158,76106
 2.7000e+000 76236 -5.0765e+001 -1.9969e+002 -1.0793e+000 62198 76106,76158,76132
 2.7000e+000 76377 -2.3161e+001 -1.8635e+002 -2.6837e+001 62198 76423,76158,76351
 2.7000e+000 76400 -3.0062e+001 -1.3525e+002 -1.7624e+001 62198 76210,76351,76054
 2.7000e+000 76449  1.3838e+001 -1.8666e+002 -3.0921e+001 62198 76210,76184,76423
 2.7000e+000 76472 -3.4455e+000 -1.5230e+002 -3.7895e+001 62198 76210,76423,76351
 2.7000e+000 76521 -2.8755e+001 -1.6462e+002 -9.3815e+000 62198 76080,76351,76495
 2.7000e+000 76544 -4.4220e+001 -1.7613e+002 -3.3980e+000 62198 76080,76495,76106
 2.7000e+000 76841 -2.4459e-001 -1.6822e+002  1.6852e+000 61751 76936,76864,76645
 2.7000e+000 76818  6.9530e+001 -1.2819e+002 -5.8697e+001 61751 76864,76567,76723
 2.7000e+000 76795  7.8256e+000 -1.2620e+002  1.1832e+000 61751 76936,76645,76593
 2.7000e+000 76772 -1.5407e+002 -3.3693e+002  6.9021e+001 61751 77008,76697,76671
 2.7000e+000 76749 -1.1589e+001 -9.2479e+001 -3.4545e+001 61751 76593,76645,76619
 2.7000e+000 76890 -1.3060e+001 -2.0691e+002  3.0847e+001 61751 76671,76645,76864
 2.7000e+000 76913 -3.2230e+001 -2.0419e+002  1.7325e+001 61751 77008,76671,76864
 2.7000e+000 76962  1.7723e+001 -2.2424e+002 -1.9554e+001 61751 76567,76864,76936
 2.7000e+000 76985  2.3516e+001 -1.8850e+002 -1.5399e+001 61751 76567,76936,76593
 2.7000e+000 77034  1.9806e+001 -2.3310e+002 -2.4855e+001 61751 76723,76697,77008
 2.7000e+000 77057  1.5663e+001 -2.5646e+002 -2.3587e+001 61751 76723,77008,76864
 2.7000e+000 77207  3.2244e+000 -9.3631e+001  3.4697e+001 61418 77106,77158,77132
 2.7000e+000 77184  3.2369e+001 -1.4449e+002  3.8324e+001 61418 77080,77158,77106
 2.7000e+000 77638 -3.1100e+001 -1.9357e+002 -2.7540e+001 60814 77733,77661,77471
 2.7000e+000 77615  7.6555e-001 -1.8989e+002 -3.0598e+001 60814 77661,77393,77315
 2.7000e+000 77592 -5.5425e+001 -1.5687e+002 -9.9801e+000 60814 77733,77471,77445
 2.7000e+000 77569 -5.0293e+001 -2.9255e+002 -2.8641e+001 60814 77315,77367,77341
 2.7000e+000 77546 -4.2990e+001 -2.9551e+002 -1.6555e+001 60814 77315,77393,77367
 2.7000e+000 77523 -5.1738e+001 -1.3933e+002  1.3892e+000 60814 77393,77445,77419
 2.7000e+000 77687 -4.3781e+000 -1.8272e+002 -2.0659e+001 60814 77497,77471,77661
 2.7000e+000 77710 -2.5205e+001 -2.3052e+002 -4.7353e+000 60814 77497,77661,77315
 2.7000e+000 77759 -3.3248e+000 -1.4364e+002 -4.0050e+001 60814 77393,77661,77733
 2.7000e+000 77782 -3.7062e+001 -1.1958e+002 -1.7328e+001 60814 77393,77733,77445
 2.7000e+000 78337 -1.2783e+000 -1.0168e+002  5.0448e+000 60210 78360,78017,77965
 2.7000e+000 78314 -9.5005e+000 -1.0308e+002  9.5981e+000 60210 78360,77965,78173
 2.7000e+000 78291 -2.9042e+001 -1.2719e+002 -1.7388e+001 60210 78432,78043,78017
 2.7000e+000 78268 -1.6535e+001 -1.4122e+002  4.2649e+000 60210 77965,78017,77991
 2.7000e+000 78245 -1.1662e+001 -1.0081e+002  4.6014e-003 60210 78043,78095,78069
 2.7000e+000 78222 -5.1302e+001 -1.6767e+002  4.4236e+001 60210 78095,78173,78121
 2.7000e+000 78199 -6.3484e+000 -1.0990e+002 -1.1594e+001 60210 78121,78173,78147
 2.7000e+000 78386 -1.8126e+001 -1.1809e+002 -1.8021e+000 60210 78432,78017,78360
 2.7000e+000 78409  3.6069e+000 -9.5162e+001  1.5796e+001 60210 78095,78360,78173
 2.7000e+000 78458 -1.4733e+001 -1.0546e+002 -1.7139e+000 60210 78095,78043,78432
 2.7000e+000 78481 -6.7817e+000 -9.4268e+001  1.3359e+001 60210 78095,78432,78360
 2.7000e+000 78680 -3.3419e+001 -1.4644e+002 -3.0139e+000 59848 78703,78556,78530
 2.7000e+000 78657 -3.7633e+001 -1.5740e+002 -1.2978e+001 59848 78703,78530,78504
 2.7000e+000 78634 -3.5806e+001 -1.8075e+002 -1.4541e+001 59848 78504,78608,78582
 2.7000e+000 78729 -2.2182e+001 -1.6714e+002 -4.3093e+000 59848 78582,78556,78703
 2.7000e+000 78752 -3.0158e+001 -1.7363e+002 -1.7901e+001 59848 78582,78703,78504
 2.7000e+000 78951 -2.3578e+001 -8.8599e+001 -9.6287e+000 59344 78974,78801,78775
 2.7000e+000 78928 -4.3068e+001 -1.4016e+002 -2.3712e+001 59344 79046,78974,78775
 2.7000e+000 78905 -4.0703e+001 -1.7883e+002 -2.1320e+001 59344 79046,78775,78879
 2.7000e+000 79000 -5.7421e+000 -7.1881e+001  2.6645e+001 59344 78827,78801,78974
 2.7000e+000 79023 -3.3498e+001 -9.3569e+001  1.2404e+000 59344 78827,78974,78853
 2.7000e+000 79072 -5.2672e+001 -9.4726e+001 -8.5205e+000 59344 78853,78974,79046
 2.7000e+000 79095 -3.8749e+001 -1.1950e+002 -4.2384e+000 59344 78853,79046,78879
 2.7000e+000 79296  1.9085e+001 -1.6584e+002 -1.0359e+001 58711 79319,79172,79146
 2.7000e+000 79273  2.5466e+001 -1.4571e+002 -3.4724e+000 58711 79319,79146,79120
 2.7000e+000 79250  9.2336e+000 -1.5655e+002  3.4339e+001 58711 79172,79224,79198
 2.7000e+000 79345  1.0119e+001 -1.4357e+002 -1.0825e+001 58711 79224,79172,79319
 2.7000e+000 79368  1.2434e+001 -1.2677e+002 -7.1164e+000 58711 79224,79319,79120
 2.7000e+000 79667  1.2958e+001 -1.0880e+002 -7.7532e+000 58285 79690,79471,79393
 2.7000e+000 79644  1.5503e+001 -1.3426e+002 -1.8391e+001 58285 79690,79393,79549
 2.7000e+000 79621  4.6927e+001 -1.5771e+002  2.6320e+001 58285 79393,79471,79419
 2.7000e+000 79598  2.2233e+001 -9.4347e+001  1.9997e+000 58285 79497,79549,79523
 2.7000e+000 79575 -3.7554e+001 -3.1682e+002  6.4640e+001 58285 79419,79471,79445
 2.7000e+000 79716  1.6526e+001 -8.5230e+001  6.0966e+000 58285 79497,79471,79690
 2.7000e+000 79739  1.7683e+001 -1.2183e+002 -8.1649e-001 58285 79497,79690,79549
 2.7000e+000 80249  2.3131e+001 -3.8406e+001 -1.1628e-001 57831 80272,79978,79952
 2.7000e+000 80226  5.6818e+000 -4.0251e+001 -7.3352e+000 57831 80272,79952,80108
 2.7000e+000 80203  9.5383e+000 -8.4103e+001 -2.9311e+001 57831 79926,80108,79952
 2.7000e+000 80180 -9.7501e+000 -6.9968e+001 -5.8477e+000 57831 80004,80082,80030
 2.7000e+000 80157 -1.5524e+001 -5.3422e+001 -1.5630e+001 57831 80004,80108,80082
 2.7000e+000 80134 -4.5350e+000 -6.6520e+001 -1.1231e+001 57831 80030,80082,80056
 2.7000e+000 80298  1.7039e+001 -4.3661e+001 -1.7686e+001 57831 80004,79978,80272
 2.7000e+000 80321 -7.0467e+000 -4.0529e+001 -2.0311e+001 57831 80004,80272,80108
 2.7000e+000 80618 -4.1175e+001 -1.8225e+002  2.5451e+001 57077 80344,80448,80422
 2.7000e+000 80595 -3.8198e+000 -1.5980e+002  1.2787e+001 57077 80344,80500,80448
 2.7000e+000 80572 -1.4753e+000 -1.1424e+002 -8.4198e-002 57077 80344,80422,80370
 2.7000e+000 80549 -4.2207e+001 -1.0780e+002  1.0659e+001 57077 80370,80422,80396
 2.7000e+000 80526 -5.2306e+001 -2.6999e+002  3.7486e+001 57077 80448,80500,80474
 2.7000e+000 80768  2.4996e+000 -6.1470e+001  2.2098e+000 56787 80791,80693,80667
 2.7000e+000 80745 -1.0566e+001 -6.0649e+001  8.6090e+000 56787 80791,80667,80641
 2.7000e+000 80817  1.1831e+001 -6.0026e+001 -6.2766e+000 56787 80719,80693,80791
 2.7000e+000 80840 -1.7945e+001 -4.8963e+001 -9.3766e+000 56787 80719,80791,80641
 2.7000e+000 81429 -3.8020e+001 -7.9117e+001  9.3180e+000 56497 81452,81158,81132
 2.7000e+000 81406 -6.1578e+000 -5.6951e+001 -2.4023e+000 56497 81452,81132,81288
 2.7000e+000 81383 -2.9558e+001 -9.3177e+001  2.2195e+000 56497 81524,81184,81158
 2.7000e+000 81360 -1.3599e+001 -2.0085e+002  4.7607e+001 56497 81210,81288,81236
 2.7000e+000 81337  3.7673e+000 -3.2601e+001  2.5408e+001 56497 81106,81288,81132
 2.7000e+000 81314 -5.0625e+001 -5.2756e+001  2.7014e+001 56497 81236,81288,81262
 2.7000e+000 81478 -1.7540e+001 -8.2689e+001 -3.9160e+000 56497 81524,81158,81452
 2.7000e+000 81501  3.0561e+001 -8.0482e+001  3.6615e+000 56497 81210,81452,81288
 2.7000e+000 81550 -3.0038e+001 -1.0425e+002  2.0263e+001 56497 81210,81184,81524
 2.7000e+000 81573 -1.4180e+001 -9.6009e+001  1.4130e+001 56497 81210,81524,81452
 2.7000e+000 81870 -1.5214e+001 -8.9127e+001  6.1531e+000 55979 81893,81674,81648
 2.7000e+000 81847 -2.3002e+001 -9.2881e+001  4.6470e+000 55979 81893,81648,81752
 2.7000e+000 81824 -1.9645e+001 -1.0680e+002  5.6325e+000 55979 81596,81752,81648
 2.7000e+000 81801 -7.3461e+000 -5.4046e+001 -6.6677e+000 55979 81674,81726,81700
 2.7000e+000 81778 -9.5501e+000 -8.2771e+001  4.2186e+000 55979 81596,81648,81622
 2.7000e+000 81919 -1.0606e+001 -9.1720e+001 -6.4972e-001 55979 81726,81674,81893
 2.7000e+000 81942 -2.1655e+001 -9.7269e+001 -2.6909e+000 55979 81726,81893,81752
 2.7000e+000 82371 -5.2849e+001 -8.9035e+001 -1.7444e+001 55631 82100,82204,82152
 2.7000e+000 82348 -1.9221e+001 -1.3324e+002 -3.6753e+001 55631 82100,82230,82204
 2.7000e+000 82325 -4.8129e+001 -1.0020e+002  1.1232e+001 55631 82100,82152,82126
 2.7000e+000 82302 -6.3817e+001 -2.3546e+002 -3.0636e+001 55631 82074,82230,82100
 2.7000e+000 82279 -7.0315e+001 -1.2717e+002 -1.2419e+001 55631 82152,82204,82178
 2.7000e+000 82256 -2.4541e+000 -1.1988e+002 -3.1370e+000 55631 82048,82230,82074
 2.7000e+000 82521  5.9722e+001 -7.2141e+001 -8.0535e+000 55227 82544,82420,82394
 2.7000e+000 82498  5.1337e+001 -9.4387e+001 -3.0970e+000 55227 82544,82394,82472
 2.7000e+000 82570  4.4051e+001 -4.8605e+001 -8.3802e+000 55227 82446,82420,82544
 2.7000e+000 82593  3.1029e+001 -7.0396e+001  2.2090e+000 55227 82446,82544,82472
 2.7000e+000 82875  1.7826e+001  9.2717e+000  1.0057e+001 54979 82699,82777,82725
 2.7000e+000 82852  1.3467e+001 -4.5035e+001  1.6088e+001 54979 82699,82803,82777
 2.7000e+000 82829  1.5181e+000 -6.4926e+000  2.8197e+000 54979 82725,82777,82751
 2.7000e+000 83204 -2.0110e+001 -6.2948e+001 -1.2470e+001 54475 83005,83083,83057
 2.7000e+000 83181 -1.8799e+001 -6.7276e+001 -8.1965e+000 54475 82979,83083,83005
 2.7000e+000 83158 -8.4545e+000 -8.1494e+001 -2.1715e+001 54475 83005,83057,83031
 2.7000e+000 83135 -2.4024e+001 -7.9667e+001  1.7163e+000 54475 82979,83109,83083
 2.7000e+000 83582 -2.6179e+001 -9.1333e+001  1.5827e+000 54071 83605,83438,83412
 2.7000e+000 83559 -2.7831e+001 -9.5020e+001  1.9194e+000 54071 83749,83605,83412
 2.7000e+000 83536 -4.1795e+001 -1.1788e+002  2.2432e+001 54071 83677,83360,83334
 2.7000e+000 83513 -2.4502e+001 -9.9004e+001  1.1677e+000 54071 83749,83412,83677
 2.7000e+000 83490 -2.5826e+001 -9.2411e+001 -2.4151e+000 54071 83308,83464,83334
 2.7000e+000 83631 -2.9603e+001 -9.2141e+001  1.5479e-001 54071 83464,83438,83605
 2.7000e+000 83654 -2.6372e+001 -8.6204e+001  1.7820e+000 54071 83464,83605,83334
 2.7000e+000 83703 -1.5098e+001 -9.6152e+001  8.9529e+000 54071 83386,83360,83677
 2.7000e+000 83726 -1.7110e+001 -8.4193e+001 -6.5707e+000 54071 83386,83677,83412
 2.7000e+000 83775 -2.2763e+001 -8.9015e+001  4.4342e+000 54071 83334,83605,83749
 2.7000e+000 83798 -1.9080e+001 -9.3016e+001  3.8508e+000 54071 83334,83749,83677
 2.7000e+000 84068 -1.0456e+001 -1.5154e+001 -1.2285e+001 53524 83869,83921,83895
 2.7000e+000 84045  8.7165e-001 -6.5868e+001  8.6808e-001 53524 83869,83947,83921
 2.7000e+000 84022 -1.5581e+001 -8.7773e+001 -6.7053e+000 53524 83843,83947,83869
 2.7000e+000 83999  1.7380e+001 -8.1641e+001 -7.6089e+000 53524 83843,83973,83947
 2.7000e+000 84497 -4.3787e+001 -1.8339e+002  1.1909e+000 53184 84200,84330,84252
 2.7000e+000 84474 -2.7594e+001 -1.2180e+002  2.0201e+001 53184 84200,84356,84330
 2.7000e+000 84451  2.1562e+000 -1.5241e+002  2.2331e+001 53184 84200,84252,84226
 2.7000e+000 84428 -1.8206e+001 -1.2833e+002 -4.9897e+001 53184 84252,84330,84278
 2.7000e+000 84405 -1.8815e+001 -1.1072e+002  3.8478e+000 53184 84174,84356,84200
 2.7000e+000 84382 -2.1420e-001 -1.2922e+002 -8.2395e+000 53184 84278,84330,84304
 2.7000e+000 84954  1.5496e+001 -8.9128e+001  5.3009e+001 52680 84706,84836,84784
 2.7000e+000 84931 -7.6538e+000 -6.2073e+001 -6.2569e+001 52680 84680,84836,84706
 2.7000e+000 84908 -7.5396e+000 -3.0949e+002  1.0621e+000 52680 84784,84836,84810
 2.7000e+000 84885  1.7294e+001 -3.4209e+002 -2.6960e+000 52680 84706,84784,84732
 2.7000e+000 84862  4.8478e+001 -2.8845e+002 -5.6794e+001 52680 84732,84784,84758
 2.7000e+000 85202  6.8183e+000 -1.6621e+002  1.1478e+001 52226 85029,85081,85055
 2.7000e+000 85179 -4.1984e+001 -1.5308e+002  7.8988e+000 52226 85225,85081,85029
 2.7000e+000 85156 -3.0630e+001 -1.2569e+002  1.7383e+001 52226 85225,85029,85003
 2.7000e+000 85133 -5.3346e+001 -1.1997e+002 -2.9209e+001 52226 84977,85107,85003
 2.7000e+000 85251 -5.1853e+001 -1.5709e+002 -2.3319e+001 52226 85107,85081,85225
 2.7000e+000 85274 -3.8844e+001 -9.1500e+001 -2.0053e+001 52226 85107,85225,85003
 2.7000e+000 85522  4.4001e+001 -1.0434e+002 -1.8355e+001 51764 85297,85349,85323
 2.7000e+000 85499  3.2347e+001 -1.1614e+002  2.3832e+000 51764 85545,85297,85427
 2.7000e+000 85476  8.3848e+000 -8.0274e+001 -1.0077e+001 51764 85545,85427,85375
 2.7000e+000 85453  1.0125e+001 -7.5230e+001 -9.9901e+000 51764 85375,85427,85401
 2.7000e+000 85571  3.8468e+001 -9.4548e+001 -1.4514e+001 51764 85349,85297,85545
 2.7000e+000 85594  2.8225e+001 -4.5613e+001 -2.9505e+001 51764 85349,85545,85375
 2.7000e+000 85746 -4.9200e+001 -1.2463e+002  8.0718e+000 51374 85645,85697,85671
 2.7000e+000 85723 -5.8758e+001 -1.1807e+002 -5.5528e+000 51374 85619,85697,85645
 2.7000e+000 86256 -1.3989e+000 -4.5394e+001  5.2398e+000 50970 86279,86011,85959
 2.7000e+000 86233  1.0949e+001 -2.2315e+001 -2.1620e+000 50970 86279,85959,86115
 2.7000e+000 86210 -1.6404e+001 -8.0804e+001  4.5308e+000 50970 85959,86011,85985
 2.7000e+000 86187  3.0699e+001 -5.7080e+001  2.2486e+001 50970 86037,86115,86089
 2.7000e+000 86164  3.7408e+001 -6.8433e+000  3.1500e+001 50970 85933,86115,85959
 2.7000e+000 86141 -2.9445e+001 -8.2225e+001 -2.6897e+000 50970 86037,86089,86063
 2.7000e+000 86305  1.8560e+001 -7.6866e+001  6.5339e+000 50970 86037,86011,86279
 2.7000e+000 86328  3.3149e+001 -5.1218e+001 -1.6275e+000 50970 86037,86279,86115
 2.7000e+000 86478 -5.1903e+001 -2.3479e+002  2.5237e+001 50451 86351,86403,86377
 2.7000e+000 86455 -1.2881e+002 -6.8614e+002 -1.4560e+000 50451 86351,86429,86403
 2.7000e+000 86907 -4.0689e+001 -1.1550e+002 -1.2718e+001 50047 86930,86714,86662
 2.7000e+000 86884 -2.4182e+001 -1.2945e+002 -1.1641e+001 50047 86930,86662,86610
 2.7000e+000 86861 -1.5539e+000 -1.4115e+002 -3.0139e+001 50047 87002,86740,86714
 2.7000e+000 86838  6.6842e+000 -9.5539e+001 -1.0028e+001 50047 86662,86714,86688
 2.7000e+000 86815 -2.9314e+001 -1.3858e+002 -8.2892e+000 50047 86610,86662,86636
 2.7000e+000 86792  7.8518e+000 -1.1831e+002  1.0613e+001 50047 86584,86766,86610
 2.7000e+000 86956 -2.5246e+001 -1.2154e+002 -1.3382e+001 50047 87002,86714,86930
 2.7000e+000 86979 -4.7377e+001 -1.4423e+002 -4.6342e+000 50047 86766,86930,86610
 2.7000e+000 87028 -4.1548e+001 -1.3214e+002 -3.1985e+001 50047 86766,86740,87002
 2.7000e+000 87051 -5.2784e+001 -1.2849e+002 -2.0170e+001 50047 86766,87002,86930
 2.7000e+000 87250 -4.4309e+000 -1.5963e+002 -2.9754e+001 49543 87273,87126,87100
 2.7000e+000 87227 -5.1855e+000 -1.3366e+002 -1.1025e+001 49543 87273,87100,87074
 2.7000e+000 87204 -2.1124e+001 -1.1829e+002 -4.0599e+001 49543 87126,87178,87152
 2.7000e+000 87299  7.8438e+000 -1.2089e+002 -2.9353e+001 49543 87178,87126,87273
 2.7000e+000 87322 -2.0687e+000 -1.1606e+002 -6.8958e+000 49543 87178,87273,87074
 2.7000e+000 87570 -5.0289e+001 -1.0723e+002  2.2773e+001 49146 87593,87449,87397
 2.7000e+000 87547 -4.5702e+001 -9.7075e+001  2.1427e+001 49146 87593,87397,87371
 2.7000e+000 87524 -5.2617e+001 -5.6653e+001  2.6960e+001 49146 87345,87475,87371
 2.7000e+000 87501 -2.2658e+001 -1.0954e+002  2.4181e+001 49146 87397,87449,87423
 2.7000e+000 87619 -4.8564e+001 -1.0214e+002  1.5948e+001 49146 87475,87449,87593
 2.7000e+000 87642 -4.6595e+001 -9.6687e+001  1.4971e+001 49146 87475,87593,87371
 2.7000e+000 88073  2.4885e+001 -5.5276e+001 -1.5430e+001 48706 87854,87932,87880
 2.7000e+000 88050  5.4719e+000 -5.8368e+001  1.6033e+000 48706 87828,87932,87854
 2.7000e+000 88027  1.2602e+001 -6.1869e+001  6.0450e+000 48706 87750,87932,87828
 2.7000e+000 88004  2.9621e+000 -8.4563e+001 -5.3444e+001 48706 87750,87802,87776
 2.7000e+000 87981  1.9703e+001 -1.2558e+002 -3.5658e+001 48706 87750,87828,87802
 2.7000e+000 87958 -2.9035e+000 -6.7871e+001 -1.2707e+001 48706 87880,87932,87906
 2.7000e+000 88402 -3.1973e+001 -1.7170e+002 -5.7772e+000 48145 88203,88281,88255
 2.7000e+000 88379 -5.0555e+001 -1.7613e+002  6.6549e+000 48145 88203,88307,88281
 2.7000e+000 88356 -3.2083e+001 -1.3815e+002 -1.1141e+001 48145 88203,88255,88229
 2.7000e+000 88333 -3.2992e+001 -1.7659e+002  2.9243e+001 48145 88177,88307,88203
 2.7000e+000 88601  3.9034e+001 -1.3794e+002  4.9265e+001 47805 88696,88624,88477
 2.7000e+000 88578 -3.0802e+001 -1.3123e+002  1.4788e+001 47805 88826,88624,88451
 2.7000e+000 88555 -4.1038e+001 -1.3529e+002  1.4942e+001 47805 88826,88451,88425
 2.7000e+000 88650  1.8794e+001 -1.7917e+002  1.9946e+001 47805 88503,88477,88624
 2.7000e+000 88673 -4.4374e+000 -1.6226e+002  2.3673e+000 47805 88503,88624,88529
 2.7000e+000 88722 -5.9197e+001 -1.6790e+002  3.2771e+001 47805 88451,88624,88696
 2.7000e+000 88852 -2.6219e+001 -1.3334e+002  2.4612e+000 47805 88529,88624,88826
 2.7000e+000 88875 -3.7302e+001 -1.3785e+002  2.6914e+000 47805 88529,88826,88425
 2.7000e+000 89172  3.7336e+001 -7.0257e+001 -2.9461e+001 47401 89195,88976,88898
 2.7000e+000 89149  3.7478e+001 -6.5652e+001 -5.9559e+001 47401 89195,88898,89054
 2.7000e+000 89126  3.8884e+001 -6.6872e+001 -3.0629e+001 47401 88898,88976,88950
 2.7000e+000 89103  6.5808e+000 -9.3634e+001 -2.6967e+001 47401 88976,89028,89002
 2.7000e+000 89080  3.4917e+001 -6.1779e+001 -1.4790e+000 47401 88898,88950,88924
 2.7000e+000 89221  2.0074e+001 -1.0536e+002 -2.2925e+001 47401 89028,88976,89195
 2.7000e+000 89244  2.8633e+001 -9.0598e+001 -5.5647e+001 47401 89028,89195,89054
 2.7000e+000 89575 -3.2994e+000 -2.0316e+002  2.0424e+001 47111 89350,89454,89376
 2.7000e+000 89552  2.0474e+001 -1.8072e+002  1.0105e+001 47111 89350,89480,89454
 2.7000e+000 89529  1.8118e+001 -2.2890e+002 -9.1395e+000 47111 89376,89454,89402
 2.7000e+000 89506  6.7147e+001 -1.2769e+002  9.3379e+000 47111 89402,89454,89428
 2.7000e+000 89904  1.3466e+001 -6.3999e+001 -9.9993e+000 46707 89705,89757,89731
 2.7000e+000 89881 -8.2657e+000 -9.2326e+001  4.5999e+000 46707 89705,89783,89757
 2.7000e+000 89858 -3.5001e+001 -9.9756e+001  1.4787e+001 46707 89679,89783,89705
 2.7000e+000 89835 -4.6135e+000 -9.7019e+001 -1.3049e+000 46707 89679,89809,89783
 2.7000e+000 90233  8.6878e+000 -7.8823e+001 -1.6034e+001 46360 90034,90112,90086
 2.7000e+000 90210 -2.1527e+001 -7.8893e+001 -8.1191e+000 46360 90034,90138,90112
 2.7000e+000 90187 -9.7646e+000 -7.7648e+001 -1.3623e+001 46360 90034,90086,90060
 2.7000e+000 90164 -1.8512e+001 -9.9134e+001  6.1642e+000 46360 90008,90138,90034
 2.7000e+000 90530  4.1740e+000 -1.0955e+002 -1.1203e+001 45662 90256,90360,90308
 2.7000e+000 90507 -1.6150e+001 -1.3657e+002  3.2816e+000 45662 90256,90412,90360
 2.7000e+000 90484 -7.6045e-001 -1.2338e+002 -9.7662e+000 45662 90256,90308,90282
 2.7000e+000 90461  7.5960e+000 -7.0997e+001  6.5646e+000 45662 90360,90412,90386
 2.7000e+000 90438 -4.4318e+001 -1.0174e+002 -3.7123e+000 45662 90308,90360,90334
 2.7000e+000 90910 -2.4755e+001 -7.6692e+001 -1.0084e+001 45108 90688,90766,90714
 2.7000e+000 90887  7.2643e+000 -9.5720e+001  1.8539e+001 45108 90662,90766,90688
 2.7000e+000 90864 -5.2762e+001 -9.4973e+001  2.1090e+001 45108 90636,90766,90662
 2.7000e+000 90841  1.4455e+001 -1.2533e+002 -4.1608e+001 45108 90714,90766,90740
 2.7000e+000 90818 -4.2200e+001 -1.1534e+002  3.1237e+001 45108 90636,90792,90766
 2.7000e+000 91158 -2.9830e+001 -1.0639e+002 -1.5397e+001 44604 91181,91011,90959
 2.7000e+000 91135 -4.2101e+001 -1.2165e+002 -2.6006e+001 44604 91181,90959,90933
 2.7000e+000 91112 -3.2368e+001 -1.2802e+002 -2.4767e+000 44604 90959,91011,90985
 2.7000e+000 91089 -2.1947e+000 -1.6049e+002 -1.8559e+001 44604 90933,91063,91037
 2.7000e+000 91207 -1.0915e+001 -1.3019e+002 -3.0438e+001 44604 91037,91011,91181
 2.7000e+000 91230 -3.6738e+001 -1.6645e+002 -4.3192e+001 44604 91037,91181,90933
 2.7000e+000 91429  3.4388e+001 -1.5874e+002 -1.0380e+001 44264 91452,91279,91253
 2.7000e+000 91406  3.6999e+001 -1.6022e+002 -1.1437e+001 44264 91452,91253,91357
 2.7000e+000 91383 -1.2457e+001 -1.3908e+002  3.6164e+001 44264 91279,91331,91305
 2.7000e+000 91478  3.6657e+001 -1.6008e+002 -9.6714e+000 44264 91331,91279,91452
 2.7000e+000 91501  4.1344e+001 -1.5986e+002 -1.0177e+001 44264 91331,91452,91357
 2.7000e+000 92060 -9.4404e+001 -1.8865e+002 -9.4863e-001 43860 92083,91740,91688
 2.7000e+000 92037 -5.2955e+001 -1.9428e+002  1.5904e+001 43860 92083,91688,91896
 2.7000e+000 92014 -8.0428e+001 -2.2985e+002  3.2201e+000 43860 91766,91870,91844
 2.7000e+000 91991 -4.8768e+001 -1.8146e+002  1.6871e+001 43860 91740,91870,91766
 2.7000e+000 91968 -4.0808e+000 -2.0017e+002  7.8060e+000 43860 91766,91844,91792
 2.7000e+000 91945 -8.2214e+001 -1.9869e+002 -1.7278e+001 43860 91688,91740,91714
 2.7000e+000 91922 -2.8383e+001 -2.2401e+002 -1.8253e+000 43860 91792,91844,91818
 2.7000e+000 92109 -5.9339e+001 -1.8221e+002  1.8196e+001 43860 91870,91740,92083
 2.7000e+000 92132 -1.5503e+001 -1.8087e+002  3.7883e+001 43860 91870,92083,91896
 2.7000e+000 92353  3.5620e+001 -1.1938e+002 -2.6983e+001 43662 92203,92255,92229
 2.7000e+000 92330 -8.0633e+000 -1.2522e+002 -7.8939e+000 43662 92376,92203,92281
 2.7000e+000 92307  2.4998e+001 -6.8591e+001  6.6150e+000 43662 92177,92281,92203
 2.7000e+000 92402 -5.3637e+001 -1.4463e+002 -2.4006e+000 43662 92255,92203,92376
 2.7000e+000 92682  3.4824e+001 -2.1998e+002 -1.3290e+001 43464 92532,92584,92558
 2.7000e+000 92659 -2.2824e+001 -1.6803e+002  1.9053e+000 43464 92506,92584,92532
 2.7000e+000 92636 -9.9527e+000 -1.5375e+002 -9.6832e+000 43464 92506,92610,92584
 2.7000e+000 93013  3.1929e+000 -1.3333e+002 -3.6149e+001 42960 92866,92918,92892
 2.7000e+000 92990 -1.5281e+001 -1.3734e+002 -2.0882e+001 42960 93036,92918,92866
 2.7000e+000 92967  1.2704e+001 -1.5653e+002 -8.3289e+000 42960 93036,92866,92840
 2.7000e+000 92944  2.0839e+000 -1.1774e+002  5.6116e-001 42960 92788,92918,92814
 2.7000e+000 93062  4.9407e-002 -1.3743e+002 -7.3714e+000 42960 92814,92918,93036
 2.7000e+000 93085  5.8543e+001 -1.3275e+002  7.7786e+000 42960 92814,93036,92840
 2.7000e+000 93186 -4.1571e+001 -1.5694e+002 -1.8806e+001 42556 93108,93160,93134
 2.7000e+000 93554 -3.9274e+001 -2.1373e+002  5.0410e+000 42052 93231,93387,93361
 2.7000e+000 93531 -4.8003e+001 -1.9942e+002  3.6073e+001 42052 93231,93413,93387
 2.7000e+000 93508 -3.8786e+001 -1.6045e+002 -4.2012e+000 42052 93231,93361,93257
 2.7000e+000 93485 -2.5664e+001 -1.3762e+002  2.2092e+001 42052 93283,93361,93335
 2.7000e+000 93462 -4.5046e+001 -1.4686e+002  1.1764e+001 42052 93257,93361,93283
 2.7000e+000 93439  1.1451e+001 -1.1706e+002 -6.3171e-001 42052 93283,93335,93309
 2.7000e+000 94162  8.0854e+000 -9.2472e+001 -2.2878e+000 41498 93767,93975,93793
 2.7000e+000 94139 -5.8154e-001 -9.4616e+001  6.7665e+000 41498 93741,93975,93767
 2.7000e+000 94116 -9.5279e+000 -8.2071e+001 -1.1757e+000 41498 93793,93975,93923
 2.7000e+000 94093 -2.2041e+001 -1.1135e+002  5.2740e+000 41498 93923,93975,93949
 2.7000e+000 94070 -8.8381e+000 -4.9555e+001 -8.6419e+000 41498 93871,93923,93897
 2.7000e+000 94047 -5.0724e+000 -7.1918e+001 -1.0149e+001 41498 93793,93923,93871
 2.7000e+000 94024 -1.8872e+000 -5.0330e+001 -1.2328e+001 41498 93819,93871,93845
 2.7000e+000 94001 -8.1633e+000 -5.6842e+001 -6.2083e+000 41498 93793,93871,93819
 2.7000e+000 94619 -2.7553e+001 -1.3914e+002 -3.6929e+001 40930 94642,94423,94371
 2.7000e+000 94596 -2.9824e+000 -1.4212e+002 -6.8969e-001 40930 94642,94371,94345
 2.7000e+000 94573  8.8415e+000 -5.0558e+001  4.8015e+000 40930 94345,94501,94475
 2.7000e+000 94550  2.2027e+001 -1.5847e+002 -5.1066e+001 40930 94371,94423,94397
 2.7000e+000 94527 -1.9561e+000 -7.2052e+001 -2.3514e+001 40930 94423,94475,94449
 2.7000e+000 94668 -1.6495e-001 -7.9556e+001 -3.0316e+001 40930 94475,94423,94642
 2.7000e+000 94691  7.5664e+000 -1.1811e+002  9.7263e-001 40930 94475,94642,94345
 2.7000e+000 95148 -7.3582e+001 -1.5790e+002  4.0058e+001 40362 95171,94952,94926
 2.7000e+000 95125 -5.1553e+001 -1.4595e+002  5.0800e+001 40362 95171,94926,95004
 2.7000e+000 95102 -7.9163e+001 -1.7042e+002  4.0476e+001 40362 94874,95004,94926
 2.7000e+000 95079 -2.3256e+001 -1.6865e+002  7.2858e+001 40362 94874,95030,95004
 2.7000e+000 95056 -8.1138e+001 -1.7638e+002  3.9389e+001 40362 94874,94926,94900
 2.7000e+000 95197 -5.3029e+001 -1.5084e+002  5.1863e+001 40362 94978,94952,95171
 2.7000e+000 95220 -3.5303e+001 -1.4119e+002  6.2420e+001 40362 94978,95171,95004
 2.7000e+000 95549 -1.5491e+001 -1.0065e+002  1.0432e+001 39586 95350,95402,95376
 2.7000e+000 95526  2.5122e+000 -7.6796e+001 -1.4418e+000 39586 95324,95402,95350
 2.7000e+000 95503 -7.1676e+000 -5.5604e+001  2.4541e+001 39586 95324,95454,95402
 2.7000e+000 95480  2.3029e+001 -1.3636e+002  4.0623e+001 39586 95402,95454,95428
 2.7000e+000 96055 -1.6413e+001 -5.7062e+001 -3.9782e+000 38968 96078,95862,95810
 2.7000e+000 96032 -4.8778e+000 -5.8066e+001  3.7815e-001 38968 96078,95810,95758
 2.7000e+000 96009 -1.3127e+001 -1.0598e+002 -1.7470e+001 38968 96150,95732,95888
 2.7000e+000 95986  9.2724e+000 -3.4587e+001  1.2669e+001 38968 95810,95862,95836
 2.7000e+000 95963 -5.4719e+000 -9.9184e+001 -2.3143e+001 38968 95732,95914,95888
 2.7000e+000 95940 -3.1240e+001 -5.9929e+001  2.4472e+001 38968 95758,95810,95784
 2.7000e+000 96104  6.1086e+000 -6.3750e+001  5.8886e+000 38968 95888,95862,96078
 2.7000e+000 96127 -1.5766e+001 -9.7814e+001 -5.7244e+000 38968 96150,95888,96078
 2.7000e+000 96176 -1.8012e+001 -7.7596e+001 -1.0698e+001 38968 95758,95732,96150
 2.7000e+000 96199 -1.3488e+001 -6.2460e+001  2.2531e+000 38968 95758,96150,96078
 2.7000e+000 96545  2.0232e+001 -1.2540e+002 -1.8580e+001 38507 96640,96568,96352
 2.7000e+000 96522 -4.2614e+001 -1.9516e+002  3.8506e+001 38507 96568,96300,96222
 2.7000e+000 96499  6.5657e+001 -8.1843e+001 -7.2394e+001 38507 96640,96352,96326
 2.7000e+000 96476 -5.4528e+000 -1.7491e+002 -4.2815e+001 38507 96352,96404,96378
 2.7000e+000 96453 -9.2422e+001 -2.0559e+002  5.2110e+000 38507 96222,96300,96248
 2.7000e+000 96430 -6.8209e+001 -2.4091e+002 -3.0281e+001 38507 96248,96300,96274
 2.7000e+000 96594 -4.1588e+001 -1.7131e+002  1.6800e+000 38507 96404,96352,96568
 2.7000e+000 96617 -5.5495e+000 -1.5040e+002  2.0637e+001 38507 96404,96568,96222
 2.7000e+000 96666 -1.6604e+001 -2.0086e+002  2.8924e+001 38507 96300,96568,96640
 2.7000e+000 96689 -3.0136e+000 -1.7201e+002 -1.9582e+001 38507 96300,96640,96326
 2.7000e+000 97069  8.2779e+000 -2.4546e+001  5.3445e+000 37760 97092,96873,96821
 2.7000e+000 97046  2.3022e-002 -2.8488e+001  9.5451e+000 37760 97092,96821,96795
 2.7000e+000 97023 -4.1729e+001 -1.3150e+000  5.3204e+000 37760 96821,96873,96847
 2.7000e+000 97000  1.8081e+001  1.8650e+001 -6.7722e+000 37760 96873,96925,96899
 2.7000e+000 96977  4.1714e+000 -2.2481e+001 -1.0487e+001 37760 96795,96951,96925
 2.7000e+000 97118  1.5992e+001 -1.5615e+001 -7.2030e+000 37760 96925,96873,97092
 2.7000e+000 97141 -8.5980e+000 -2.6769e+001 -2.0505e+000 37760 96925,97092,96795
 2.7000e+000 97647 -7.8680e+001 -1.6768e+002  2.1405e+001 37356 97324,97480,97376
 2.7000e+000 97624 -2.1668e+001 -1.7519e+002  7.1469e+001 37356 97324,97506,97480
 2.7000e+000 97601 -5.9694e+001 -9.5032e+001  3.9131e+001 37356 97376,97480,97454
 2.7000e+000 97578 -6.4029e+001 -1.5440e+002  1.1964e+001 37356 97324,97376,97350
 2.7000e+000 97555 -5.1141e+001 -9.8339e+001  2.5579e+001 37356 97376,97454,97402
 2.7000e+000 97532 -7.4718e+001 -6.3775e+001  2.3405e+001 37356 97402,97454,97428
 2.7000e+000 98232  2.3954e+000 -2.3949e+001 -6.1138e+000 36902 97935,98065,98013
 2.7000e+000 98209  2.4676e+001 -2.5587e+001 -1.4825e+001 36902 97935,98091,98065
 2.7000e+000 98186  1.5823e+001 -2.1962e+001 -5.2931e+000 36902 97935,98013,97987
 2.7000e+000 98163  9.9841e+000 -6.0832e-002 -1.9718e+001 36902 97909,98091,97935
 2.7000e+000 98140  1.3258e+001  1.3386e+001  7.5357e+000 36902 97935,97987,97961
 2.7000e+000 98117 -7.1670e+000 -4.5559e+001 -7.7256e+000 36902 98013,98065,98039
 2.7000e+000 98659 -3.0834e+001 -1.9703e+002 -3.3210e+001 36604 98682,98414,98388
 2.7000e+000 98636 -1.7102e+001 -1.8180e+002  6.9067e+000 36604 98682,98388,98336
 2.7000e+000 98613 -2.4462e+001 -1.5989e+002  7.8978e+000 36604 98754,98518,98466
 2.7000e+000 98590 -1.8307e+001 -8.9624e+001 -2.0371e+001 36604 98414,98466,98440
 2.7000e+000 98567  3.9356e+001 -2.4544e+002  2.0698e+001 36604 98336,98388,98362
 2.7000e+000 98544 -7.0326e+000 -2.1086e+002  9.4843e+001 36604 98466,98518,98492
 2.7000e+000 98708 -8.4603e+000 -1.4584e+002 -3.0180e+001 36604 98466,98414,98682
 2.7000e+000 98731 -1.9319e+001 -1.6372e+002  6.7496e+000 36604 98754,98466,98682
 2.7000e+000 98780 -1.9278e+001 -1.6030e+002  8.6570e+000 36604 98336,98518,98754
 2.7000e+000 98803 -1.0963e+001 -1.6117e+002  9.0436e+000 36604 98336,98754,98682
 2.7000e+000 99309 -2.1944e+001 -7.9336e+001  1.4705e+001 36200 99332,99116,99012
 2.7000e+000 99286 -5.0443e+000 -1.0526e+001 -1.7654e+001 36200 99332,99012,98986
 2.7000e+000 99263 -4.8980e+000 -8.4197e+001 -1.0130e+000 36200 99012,99116,99064
 2.7000e+000 99240  1.8965e+001 -2.3466e+001 -1.0225e-001 36200 98986,99168,99142
 2.7000e+000 99217 -1.8788e+001 -1.1785e+002  1.5315e+001 36200 99064,99116,99090
 2.7000e+000 99194 -2.7682e+001 -7.3642e+001 -2.0111e+001 36200 99012,99064,99038
 2.7000e+000 99358 -2.4621e+001 -1.3227e+002  4.6414e+001 36200 99142,99116,99332
 2.7000e+000 99381 -6.9172e+000 -8.2233e+001  7.8042e+000 36200 99142,99332,98986
 2.7000e+000 99887 -1.4364e+001 -1.0429e+002  5.7801e+000 35488 99564,99720,99590
 2.7000e+000 99864 -1.0653e+001 -9.0324e+001 -7.6300e+000 35488 99564,99746,99720
 2.7000e+000 99841  2.0711e+001 -1.0883e+002  1.0034e+001 35488 99642,99694,99668
 2.7000e+000 99818 -5.9112e+000 -1.2856e+002  2.5186e+001 35488 99590,99694,99642
 2.7000e+000 99795  2.7107e+001 -9.9608e+001  9.4911e+000 35488 99590,99720,99694
 2.7000e+000 99772  4.6952e+001 -2.0604e+002  3.1331e+001 35488 99590,99642,99616
 2.7000e+000 99988  7.9940e+000 -1.9838e+001 -3.1448e+000 35198 99910,99962,99936
 2.7000e+000 100138  4.0227e+000 -1.0572e+002 -2.2942e+001 34794 100233,100161,100063
 2.7000e+000 100115 -7.5213e+001 -1.4592e+002  5.8915e+000 34794 100365,100161,100037
 2.7000e+000 100187  2.3390e+001 -1.2567e+002 -2.1526e+001 34794 100089,100063,100161
 2.7000e+000 100210 -2.1379e+000 -1.2099e+002 -1.5313e+001 34794 100089,100161,100011
 2.7000e+000 100259 -7.9953e+000 -1.4510e+002 -5.7342e+000 34794 100037,100161,100233
 2.7000e+000 100391 -3.4679e+000 -1.1584e+002 -5.9667e+000 34794 100011,100161,100365
 2.7000e+000 100927 -2.4846e+001 -1.0432e+002 -1.3877e+000 34404 100679,100809,100783
 2.7000e+000 100904 -8.3601e+000 -1.1035e+002 -1.3176e+000 34404 100653,100809,100679
 2.7000e+000 100881 -1.7006e+001 -1.3038e+002 -5.4375e+000 34404 100705,100783,100731
 2.7000e+000 100858 -2.6660e+001 -1.0907e+002  6.7862e+000 34404 100679,100783,100705
 2.7000e+000 100835 -4.5095e+001 -1.1156e+002 -5.2133e+001 34404 100731,100783,100757
 2.7000e+000 101354 -4.0865e+001 -2.0077e+002  2.4827e+001 34000 101377,101109,101057
 2.7000e+000 101331 -7.0954e+001 -2.0353e+002  3.2510e+001 34000 101449,101377,101057
 2.7000e+000 101308 -7.9314e+001 -1.6997e+002  3.4163e+001 34000 101449,101057,101031
 2.7000e+000 101285 -7.0487e+001 -1.4466e+002  3.3390e+001 34000 101031,101213,101187
 2.7000e+000 101262 -5.8572e+001 -2.1151e+002 -1.9079e+001 34000 101135,101187,101161
 2.7000e+000 101239 -7.0190e+001 -2.1238e+002  3.2295e+001 34000 101057,101109,101083
 2.7000e+000 101403 -4.3842e+001 -1.7317e+002  5.0450e+000 34000 101135,101109,101377
 2.7000e+000 101426 -8.7069e+001 -1.9074e+002  2.1849e+000 34000 101135,101377,101187
 2.7000e+000 101475 -4.9624e+001 -1.6077e+002  2.1318e+001 34000 101187,101377,101449
 2.7000e+000 101498 -7.2572e+001 -1.4564e+002  2.7522e+001 34000 101187,101449,101031
 2.7000e+000 102083  3.7965e+001 -7.8783e+001 -3.4125e+000 33472 102106,101812,101786
 2.7000e+000 102060 -1.5160e+001 -1.0252e+002  1.3296e+000 33472 102106,101786,101916
 2.7000e+000 102037 -4.2097e+001 -9.3371e+001 -2.7245e+001 33472 101812,101864,101838
 2.7000e+000 102014 -1.7125e+001 -1.3023e+002 -1.6446e+001 33472 101864,101916,101890
 2.7000e+000 101991 -2.5569e+001 -1.1910e+002 -3.9502e+000 33472 101786,101942,101916
 2.7000e+000 101968 -3.5504e+001 -1.1705e+002  2.0794e+001 33472 101760,101942,101786
 2.7000e+000 102132  5.0336e+000 -7.6996e+001 -2.4181e+001 33472 101864,101812,102106
 2.7000e+000 102155 -1.2160e+001 -8.3937e+001 -2.3928e+001 33472 101864,102106,101916
 2.7000e+000 102612 -4.7634e+001 -1.5915e+002 -6.8840e+001 33038 102635,102468,102390
 2.7000e+000 102589 -8.0700e+001 -2.1319e+002 -8.7512e+001 33038 102635,102390,102364
 2.7000e+000 102566 -1.2008e+001 -1.4543e+002 -6.1716e+001 33038 102390,102468,102442
 2.7000e+000 102543 -2.6392e+001 -1.7097e+002 -3.8736e+001 33038 102338,102494,102364
 2.7000e+000 102520 -2.7401e+001 -1.4111e+002 -4.2005e+001 33038 102390,102442,102416
 2.7000e+000 102661 -4.7497e+001 -1.4620e+002 -3.7398e+001 33038 102494,102468,102635
 2.7000e+000 102684 -5.7094e+001 -1.7817e+002 -5.0969e+001 33038 102494,102635,102364
 2.7000e+000 103318 -1.5166e+001 -6.3525e+001  7.9377e+000 32402 102972,103128,103076
 2.7000e+000 103295 -1.5680e+001 -6.9061e+001  5.9729e+000 32402 102946,103128,102972
 2.7000e+000 103272 -7.5949e+000 -5.1873e+001  2.0221e+001 32402 103076,103128,103102
 2.7000e+000 103249 -9.0629e+000 -6.3150e+001  3.8400e+001 32402 102946,103154,103128
 2.7000e+000 103226 -2.4097e+001 -5.6835e+001 -9.3793e-001 32402 102972,103076,102998
 2.7000e+000 103203 -3.9211e+000 -8.5573e+001 -2.4198e+001 32402 102998,103076,103050
 2.7000e+000 103180 -2.8589e+001 -4.2164e+001 -3.5317e+001 32402 102998,103050,103024
 2.7000e+000 103696 -6.5381e+001 -1.9314e+002 -1.0385e+001 31924 103448,103526,103500
 2.7000e+000 103673 -2.9891e+001 -1.8301e+002 -3.1266e+001 31924 103448,103578,103526
 2.7000e+000 103650 -4.7980e+001 -1.7279e+002 -1.7788e+001 31924 103448,103500,103474
 2.7000e+000 103627 -3.7515e+001 -2.1342e+002 -3.6486e+001 31924 103422,103578,103448
 2.7000e+000 103604 -5.6840e+001 -2.9120e+002 -3.2533e+000 31924 103526,103578,103552
 2.7000e+000 104281  3.3428e+000 -2.6588e+001 -2.2433e+001 31520 104304,104062,104036
 2.7000e+000 104258  1.3995e+001 -3.8178e+001 -2.4292e+001 31520 104304,104036,103984
 2.7000e+000 104235 -2.9604e+001 -7.4648e+001 -3.0648e+001 31520 104062,104114,104088
 2.7000e+000 104212  7.1924e+000 -4.4662e+001 -1.8163e+001 31520 103958,104114,103984
 2.7000e+000 104189 -1.4676e+000 -7.2785e+001  3.0317e-001 31520 103984,104036,104010
 2.7000e+000 104166 -8.2075e+000  1.7298e+001 -1.4907e+001 31520 103958,104140,104114
 2.7000e+000 104330 -3.0614e+000 -3.5189e+001 -1.8387e+001 31520 104114,104062,104304
 2.7000e+000 104353  6.5887e+000 -4.4225e+001 -2.1318e+001 31520 104114,104304,103984
 2.7000e+000 104704 -1.6267e+001 -2.2357e+001 -1.3705e+001 31066 104479,104583,104505
 2.7000e+000 104681  4.2530e+001  5.5540e+000 -2.3357e+001 31066 104479,104609,104583
 2.7000e+000 104658  4.1932e+000 -8.7929e+001  3.2648e-002 31066 104505,104557,104531
 2.7000e+000 104635  8.3870e+000 -1.5104e+001 -1.1529e+001 31066 104505,104583,104557
 2.7000e+000 104925  5.8494e+001 -1.2343e+002 -1.3461e+001 30754 104775,104827,104801
 2.7000e+000 104902  1.3110e+001 -1.0341e+002  6.2206e+000 30754 104775,104853,104827
 2.7000e+000 104879  8.3593e+001 -7.2606e+001  1.5720e+001 30754 104749,104853,104775
 2.7000e+000 105482 -5.8681e+001 -1.2419e+002  2.1513e+001 30164 105505,105136,105110
 2.7000e+000 105459 -4.7021e+001 -1.3313e+002  2.4201e+001 30164 105649,105505,105110
 2.7000e+000 105436 -3.9435e+001 -1.3631e+002  1.7796e+001 30164 105577,105188,105136
 2.7000e+000 105413 -6.5243e+001 -1.4252e+002  3.4268e+001 30164 105649,105110,105318
 2.7000e+000 105390 -4.1215e+001 -2.3197e+002  5.8402e+001 30164 105214,105292,105240
 2.7000e+000 105367 -5.0275e+001 -2.4528e+002  6.6008e+001 30164 105240,105292,105266
 2.7000e+000 105344 -4.9892e+001 -1.3437e+002  1.8417e+001 30164 105136,105188,105162
 2.7000e+000 105531 -3.9137e+001 -1.3613e+002  1.8258e+001 30164 105577,105136,105505
 2.7000e+000 105554  1.0238e+001 -1.2466e+002  1.4791e+001 30164 105214,105505,105292
 2.7000e+000 105603 -3.9048e+001 -1.3566e+002  1.8035e+001 30164 105214,105188,105577
 2.7000e+000 105626 -3.8822e+001 -1.3547e+002  1.8477e+001 30164 105214,105577,105505
 2.7000e+000 105675 -4.0973e+001 -1.2233e+002  1.0080e+001 30164 105292,105505,105649
 2.7000e+000 105698 -4.3402e+001 -1.1916e+002  1.8338e+001 30164 105292,105649,105318
 2.7000e+000 106027  3.1008e+001 -6.6073e+001  1.6133e+001 29868 106322,106050,105880
 2.7000e+000 106004 -8.4254e+000 -6.8431e+001  3.6786e+000 29868 106250,106050,105828
 2.7000e+000 105981 -1.4999e+001 -7.4819e+001 -3.7797e+000 29868 106250,105828,105802
 2.7000e+000 105958  1.2959e+001 -5.0404e+001  3.3060e+001 29868 106322,105880,106122
 2.7000e+000 106076  6.1142e+000 -9.8306e+001 -5.0170e+000 29868 105906,105880,106050
 2.7000e+000 106099 -2.5160e-001 -7.3354e+001 -9.1177e+000 29868 105906,106050,105932
 2.7000e+000 106148 -3.9190e+001 -1.0731e+002  1.8319e+001 29868 105854,105828,106122
 2.7000e+000 106276 -1.5433e+001 -7.5061e+001 -1.2844e+001 29868 105932,106050,106250
 2.7000e+000 106299 -3.7712e+001 -9.1030e+001 -2.2215e+001 29868 105932,106250,105802
 2.7000e+000 106348 -1.9392e+000 -8.1148e+001  1.0262e+001 29868 105828,106050,106322
 2.7000e+000 106371 -1.6720e+001 -6.3659e+001  2.7320e+001 29868 105828,106322,106122
 2.7000e+000 106828  1.3241e+001 -5.5694e+001  8.7812e+000 29521 106580,106710,106684
 2.7000e+000 106805 -2.0248e+001 -7.5538e+001 -1.9590e+001 29521 106554,106710,106580
 2.7000e+000 106782 -1.3110e+001 -6.8381e+001  2.8701e+000 29521 106580,106684,106606
 2.7000e+000 106759 -2.6877e+001 -9.5868e+001 -2.1625e+000 29521 106606,106684,106658
 2.7000e+000 106736 -1.5837e+001 -5.1735e+001  1.5128e+001 29521 106606,106658,106632
 2.7000e+000 107027 -3.5017e+001 -1.3140e+002 -4.7603e+001 29117 106877,106929,106903
 2.7000e+000 107004 -1.3934e+001 -1.2233e+002 -4.4459e+001 29117 106851,106929,106877
 2.7000e+000 106981 -2.5264e+001 -1.9028e+002 -3.2692e+001 29117 106851,106955,106929
 2.7000e+000 107456 -8.2787e+001 -1.9229e+002 -5.3074e+001 28656 107237,107315,107263
 2.7000e+000 107433 -7.8370e+000 -1.3185e+002 -2.5497e+001 28656 107133,107315,107237
 2.7000e+000 107410 -9.1040e+000 -1.0607e+002 -1.4572e+001 28656 107133,107237,107159
 2.7000e+000 107387 -9.1783e+000 -5.3240e+001 -2.5363e+001 28656 107159,107237,107185
 2.7000e+000 107364  1.1958e+000 -3.9865e+001  4.6625e+000 28656 107185,107237,107211
 2.7000e+000 107341 -3.0573e+000 -3.0163e+001 -5.0098e+000 28656 107263,107315,107289
 2.7000e+000 107704 -3.5861e+000 -1.0970e+002  2.7661e-001 27902 107727,107557,107531
 2.7000e+000 107681  5.1406e+000 -9.8936e+001  4.4382e+000 27902 107727,107531,107505
 2.7000e+000 107658 -4.7535e+000 -1.2469e+002 -2.3648e+001 27902 107557,107609,107583
 2.7000e+000 107635 -4.2364e+001 -9.5606e+001  9.2165e+000 27902 107479,107609,107505
 2.7000e+000 107753 -1.3446e+001 -9.9575e+001 -5.1023e+000 27902 107609,107557,107727
 2.7000e+000 107776 -5.9761e+000 -9.1107e+001 -1.5578e+000 27902 107609,107727,107505
 2.7000e+000 108333 -3.9060e+001 -2.2330e+002  1.6837e+000 27341 108356,108065,108013
 2.7000e+000 108310 -3.9713e+000 -1.9660e+002 -4.9132e+001 27341 108356,108013,108143
 2.7000e+000 108287 -8.0752e+001 -2.4305e+002 -1.0045e+001 27341 108428,108117,108091
 2.7000e+000 108264 -3.6317e+001 -2.0063e+002 -1.7857e+000 27341 108013,108065,108039
 2.7000e+000 108241 -8.1577e+001 -1.7699e+002 -5.6209e+001 27341 107987,108143,108013
 2.7000e+000 108218 -3.4778e+001 -1.5801e+002 -3.5473e+001 27341 107987,108169,108143
 2.7000e+000 108195 -3.4042e+001 -1.2057e+002 -2.7922e+001 27341 107961,108169,107987
 2.7000e+000 108382 -4.0803e+001 -2.2619e+002 -1.2438e-001 27341 108091,108065,108356
 2.7000e+000 108405 -7.7288e+001 -2.1500e+002 -9.8815e+000 27341 108428,108091,108356
 2.7000e+000 108454 -6.1322e+001 -3.3734e+002 -1.5715e+001 27341 108143,108117,108428
 2.7000e+000 108477 -3.9852e+001 -2.8276e+002 -2.2079e+001 27341 108143,108428,108356
 2.7000e+000 108725  4.3058e+001 -1.7848e+002  1.9355e+001 27029 108748,108526,108500
 2.7000e+000 108702  2.4772e+000 -1.1718e+002  4.2299e+001 27029 108748,108500,108630
 2.7000e+000 108679 -5.4745e+001 -1.3804e+002  2.4076e+001 27029 108578,108630,108604
 2.7000e+000 108656 -9.3074e+000 -1.6931e+002  3.8688e+001 27029 108526,108578,108552
 2.7000e+000 108774  5.8092e+000 -1.8944e+002 -5.7233e-001 27029 108578,108526,108748
 2.7000e+000 108797 -5.6953e+001 -1.5171e+002  1.2573e+001 27029 108578,108748,108630
 2.7000e+000 109045  4.7850e+001 -9.4595e+001  2.7016e+000 26610 108872,108924,108898
 2.7000e+000 109022  9.3095e+000 -9.8602e+001  1.4650e+000 26610 108872,108950,108924
 2.7000e+000 108999  5.6880e+000 -1.1771e+002  7.4914e+000 26610 108846,108950,108872
 2.7000e+000 108976  2.1207e+001 -1.6478e+002  2.6494e+000 26610 108820,108950,108846
 2.7000e+000 109366 -8.7411e+000 -2.2497e+002  1.0264e+001 26006 109144,109222,109196
 2.7000e+000 109343 -7.9050e+000 -2.3810e+002  5.8933e+000 26006 109118,109222,109144
 2.7000e+000 109320 -4.3005e+001 -2.6464e+002  2.3679e+001 26006 109092,109222,109118
 2.7000e+000 109297  2.7709e+001 -2.0586e+002 -2.2463e+001 26006 109144,109196,109170
 2.7000e+000 109274  5.2209e+000 -1.9122e+002  2.7809e+000 26006 109092,109248,109222
 2.7000e+000 109567 -5.7766e+001 -1.3712e+002 -2.4259e+001 25659 109391,109469,109443
 2.7000e+000 109544 -4.5112e+001 -1.3608e+002 -1.3924e+001 25659 109391,109495,109469
 2.7000e+000 109521 -4.2376e+001 -1.0639e+002 -2.9512e+001 25659 109391,109443,109417
 2.7000e+000 109900 -3.8143e+001 -1.1976e+002 -1.1674e+001 25255 109923,109779,109753
 2.7000e+000 109877 -3.5128e+001 -1.1241e+002 -1.1308e+001 25255 109923,109753,109701
 2.7000e+000 109854 -4.0662e+001 -9.1042e+001 -1.7139e+001 25255 109675,109805,109701
 2.7000e+000 109831 -5.7394e+001 -1.1373e+002 -9.9310e+000 25255 109701,109753,109727
 2.7000e+000 109949 -3.7308e+001 -1.2972e+002 -1.9255e+001 25255 109805,109779,109923
 2.7000e+000 109972 -3.1568e+001 -1.1636e+002 -1.8953e+001 25255 109805,109923,109701
 2.7000e+000 110220 -4.8006e+001 -1.4206e+002  1.9164e+001 24701 110243,110021,109995
 2.7000e+000 110197 -4.4095e+001 -1.4290e+002 -2.0227e+000 24701 110243,109995,110099
 2.7000e+000 110174 -2.5585e+001 -1.5054e+002 -3.6143e+000 24701 110315,110073,110047
 2.7000e+000 110151 -4.5953e+001 -1.4947e+002 -1.7717e-001 24701 109995,110125,110099
 2.7000e+000 110269 -9.3182e+000 -1.2365e+002  2.4632e+001 24701 110047,110021,110243
 2.7000e+000 110292 -5.6320e+001 -1.4727e+002  9.1147e+000 24701 110315,110047,110243
 2.7000e+000 110341  3.9753e+001 -1.2334e+002 -1.1748e+001 24701 110099,110073,110315
 2.7000e+000 110364 -6.6988e+000 -1.2688e+002 -7.9125e-001 24701 110099,110315,110243
 2.7000e+000 110661 -2.8626e+001 -1.8719e+002 -4.9966e+000 24197 110684,110413,110387
 2.7000e+000 110638 -1.2739e+001 -1.7284e+002 -2.9623e+001 24197 110684,110387,110543
 2.7000e+000 110615  2.2258e+001 -2.7799e+002  1.4503e+001 24197 110756,110491,110465
 2.7000e+000 110592 -4.3531e+001 -1.4357e+002  1.0147e+001 24197 110413,110465,110439
 2.7000e+000 110569 -1.3085e+000 -4.0490e+002 -2.3670e+001 24197 110491,110543,110517
 2.7000e+000 110710  1.8905e+000 -1.6916e+002  1.3190e+001 24197 110465,110413,110684
 2.7000e+000 110733 -3.0093e+001 -2.3638e+002  2.9017e-001 24197 110756,110465,110684
 2.7000e+000 110782  6.4770e+001 -2.3104e+002 -1.4094e+001 24197 110543,110491,110756
 2.7000e+000 110805  3.0859e+001 -1.7082e+002 -3.2450e+001 24197 110543,110756,110684
 2.7000e+000 111315 -3.0917e+001 -1.7457e+002 -1.5417e+001 23593 111044,111148,111070
 2.7000e+000 111292 -4.8076e+001 -1.4045e+002  6.9207e-001 23593 111044,111174,111148
 2.7000e+000 111269 -9.3148e+000 -1.1264e+002 -4.9441e+000 23593 111070,111122,111096
 2.7000e+000 111246 -4.1465e+001 -1.7936e+002 -2.8463e+001 23593 111070,111148,111122
 2.7000e+000 111223 -6.2877e+001 -1.2647e+002 -2.0081e+001 23593 111018,111174,111044
 2.7000e+000 111200 -1.2682e+001 -1.4795e+002 -1.1717e+001 23593 110992,111174,111018
 2.7000e+000 111821  1.3769e+001 -2.0318e+002 -3.5637e+000 23089 111916,111844,111628
 2.7000e+000 111798 -4.8495e+001 -2.3775e+002 -3.9807e+001 23089 111844,111550,111524
 2.7000e+000 111775  1.6847e+001 -1.8323e+002 -5.6486e-001 23089 111916,111628,111602
 2.7000e+000 111752  2.1592e+000 -3.4041e+002 -2.0959e+001 23089 111498,111680,111524
 2.7000e+000 111729  3.8956e+000 -1.3976e+002  2.2967e+001 23089 111550,111602,111576
 2.7000e+000 111706  3.8371e-001 -1.2245e+002 -1.7601e+001 23089 111628,111680,111654
 2.7000e+000 111870  5.3807e-001 -1.8766e+002  1.3031e+001 23089 111680,111628,111844
 2.7000e+000 111893 -6.6333e+000 -2.0564e+002  2.1492e+000 23089 111680,111844,111524
 2.7000e+000 111942 -1.5719e+000 -1.7159e+002 -1.2340e+001 23089 111550,111844,111916
 2.7000e+000 111965  7.7888e-001 -1.5310e+002 -7.1789e+000 23089 111550,111916,111602
 2.7000e+000 112164  2.0193e+001 -1.0547e+002 -1.5067e+001 22626 112187,112014,111988
 2.7000e+000 112141 -2.2096e+000 -1.3991e+002 -4.4522e+000 22626 112259,112187,111988
 2.7000e+000 112118 -6.0400e+000 -1.5225e+002  1.3081e+001 22626 112259,111988,112092
 2.7000e+000 112213  2.0218e+000 -5.7900e+001 -8.5256e+000 22626 112040,112014,112187
 2.7000e+000 112236 -2.2173e+001 -1.0762e+002 -9.9081e-001 22626 112040,112187,112066
 2.7000e+000 112285  4.4956e-001 -1.1138e+002 -1.1394e+001 22626 112066,112187,112259
 2.7000e+000 112308  2.3214e+000 -1.1963e+002  4.6142e+000 22626 112066,112259,112092
 2.7000e+000 112605 -2.6483e+001 -1.6229e+002 -3.1221e+000 22286 112628,112383,112357
 2.7000e+000 112582 -2.2243e+001 -1.6628e+002  4.2489e+000 22286 112772,112628,112357
 2.7000e+000 112559 -2.4249e+001 -1.8779e+002  9.6866e+000 22286 112700,112435,112409
 2.7000e+000 112536 -4.8743e+001 -1.7447e+002  4.6533e+000 22286 112772,112357,112331
 2.7000e+000 112513 -8.3524e+001 -1.7662e+002  2.1147e+001 22286 112435,112487,112461
 2.7000e+000 112654 -1.4531e+001 -1.2173e+002 -3.6710e+000 22286 112409,112383,112628
 2.7000e+000 112677 -1.5760e+001 -1.6859e+002  8.1767e+000 22286 112700,112409,112628
 2.7000e+000 112726 -1.9442e+001 -1.7642e+002 -3.6925e+000 22286 112487,112435,112700
 2.7000e+000 112749 -1.7712e+001 -1.7291e+002 -4.3373e+000 22286 112487,112700,112628
 2.7000e+000 112798 -1.1321e+001 -1.7017e+002 -2.4674e-001 22286 112487,112628,112772
 2.7000e+000 112821 -1.6272e+001 -1.6492e+002  2.1424e+000 22286 112487,112772,112331
 2.7000e+000 112924  4.3762e-001 -7.1160e-001 -2.0854e-001 21974 112846,112898,112872
 2.7000e+000 113223 -8.2971e+001 -2.2341e+002  3.0591e+001 21420 112949,113053,112975
 2.7000e+000 113200 -6.9994e+001 -1.7823e+002  2.8401e+001 21420 112949,113079,113053
 2.7000e+000 113177  5.4940e+001 -1.8209e+002  5.8438e+001 21420 112975,113053,113001
 2.7000e+000 113154 -1.2462e+002 -2.5805e+002  3.4629e+001 21420 113001,113053,113027
 2.7000e+000 113131 -1.0721e+002 -1.6939e+002  1.6721e+001 21420 112949,113105,113079
 2.7000e+000 113605 -2.8385e+001 -2.3785e+002  6.2395e+001 20716 113331,113435,113357
 2.7000e+000 113582 -3.5107e+001 -1.4199e+002  6.6915e+001 20716 113331,113461,113435
 2.7000e+000 113559 -1.0917e+001 -2.3161e+002 -2.3024e+001 20716 113383,113435,113409
 2.7000e+000 113536 -6.2056e+001 -2.0674e+002 -1.5367e+001 20716 113357,113435,113383
 2.7000e+000 113513 -5.1711e+000 -3.7408e+001 -1.1898e+001 20716 113331,113487,113461
 2.7000e+000 113853  1.4343e+001 -1.9445e+002  5.2551e+000 20290 113876,113680,113654
 2.7000e+000 113830  3.3537e+001 -1.9192e+002  5.4306e+000 20290 113876,113654,113628
 2.7000e+000 113807 -8.6763e+000 -2.2617e+002 -1.0702e+001 20290 113948,113732,113680
 2.7000e+000 113784  5.2111e+001 -2.2186e+002 -2.8621e+001 20290 113680,113732,113706
 2.7000e+000 113902  1.2571e+001 -1.9436e+002  6.4461e+000 20290 113948,113680,113876
 2.7000e+000 113925  4.1771e+000 -1.6739e+002  3.8650e+000 20290 113758,113876,113628
 2.7000e+000 113974 -2.9702e+001 -1.9583e+002 -2.1056e+001 20290 113758,113732,113948
 2.7000e+000 113997 -2.6820e+001 -1.9116e+002 -8.8633e+000 20290 113758,113948,113876
 2.7000e+000 114365 -2.3965e+001 -2.0174e+002  6.6836e-001 19900 114146,114198,114172
 2.7000e+000 114342 -2.4844e+001 -2.0207e+002  9.7935e-001 19900 114042,114198,114146
 2.7000e+000 114319 -2.6421e+001 -1.9706e+002  2.5997e+000 19900 114042,114224,114198
 2.7000e+000 114296 -7.7729e+001 -1.9251e+002 -3.2101e+000 19900 114094,114146,114120
 2.7000e+000 114273 -2.7162e+001 -1.8506e+002 -1.2002e+001 19900 114042,114146,114094
 2.7000e+000 114250 -7.1789e+001 -1.9443e+002 -2.7976e+000 19900 114042,114094,114068
 2.7000e+000 114566 -6.4134e+001 -2.0613e+002 -1.1938e+000 19496 114442,114494,114468
 2.7000e+000 114543 -8.2678e+001 -1.9130e+002 -1.0525e+001 19496 114416,114494,114442
 2.7000e+000 114520 -6.9436e+001 -1.9449e+002 -1.5183e+001 19496 114390,114494,114416
 2.7000e+000 114767 -2.7540e+000 -2.0097e+002  7.7412e+000 19042 114790,114669,114643
 2.7000e+000 114744 -4.7983e+000 -1.9564e+002  1.0074e+001 19042 114790,114643,114591
 2.7000e+000 114721  1.7970e+001 -1.9692e+002  3.9682e+001 19042 114591,114643,114617
 2.7000e+000 114816 -7.6817e+000 -1.9543e+002  5.6642e+000 19042 114695,114669,114790
 2.7000e+000 114839 -5.5658e+000 -1.8530e+002  9.0256e+000 19042 114695,114790,114591
 2.7000e+000 114991 -8.4084e+001 -2.2749e+002 -1.7695e-001 18488 114864,114916,114890
 2.7000e+000 114968 -6.2329e+001 -2.2852e+002 -6.5336e+000 18488 114864,114942,114916
 2.7000e+000 115192  9.5263e+001 -1.5331e+002  1.4175e+001 18098 115215,115042,115016
 2.7000e+000 115169  4.8855e+001 -1.2851e+002 -3.0571e+000 18098 115215,115016,115120
 2.7000e+000 115146  6.7415e+001 -1.4875e+002 -2.3232e+001 18098 115287,115094,115068
 2.7000e+000 115241  6.0831e+001 -2.2543e+002 -1.6283e+000 18098 115068,115042,115215
 2.7000e+000 115264  6.5741e+001 -1.4533e+002 -7.8151e+000 18098 115287,115068,115215
 2.7000e+000 115313  4.5224e+001 -1.5647e+002 -2.0993e+001 18098 115120,115094,115287
 2.7000e+000 115336  3.6426e+001 -1.5602e+002 -6.3214e+000 18098 115120,115287,115215
 2.7000e+000 115846  4.2121e+001 -2.6294e+002 -7.4140e+001 17644 115653,115705,115679
 2.7000e+000 115823 -2.2946e+001 -2.3899e+002 -3.4327e+001 17644 115627,115705,115653
 2.7000e+000 115800  3.6359e+001 -1.7129e+002 -4.2778e-001 17644 115549,115705,115627
 2.7000e+000 115777 -5.7673e+000 -2.2515e+002  1.9834e+001 17644 115549,115627,115575
 2.7000e+000 115754  2.9436e+001 -1.6074e+002  1.8325e+001 17644 115523,115705,115549
 2.7000e+000 115731 -7.7152e+001 -2.1092e+002 -4.5916e+000 17644 115575,115627,115601
 2.7000e+000 116067 -6.9912e+001 -3.4740e+002 -1.1970e+001 17116 115891,115943,115917
 2.7000e+000 116044 -1.2921e+002 -3.9808e+002  9.8448e+000 17116 115891,115995,115943
 2.7000e+000 116021 -1.2125e+002 -3.3320e+002  9.1744e+000 17116 115943,115995,115969
 2.7000e+000 116288  2.9334e+001 -2.3003e+002  5.3766e+001 16704 116164,116216,116190
 2.7000e+000 116265 -2.4178e+001 -3.0863e+002  3.0518e+001 16704 116112,116216,116164
 2.7000e+000 116242 -1.3177e+002 -3.1339e+002 -3.9770e+000 16704 116112,116164,116138
 2.7000e+000 116489 -2.5023e+001 -2.0338e+002 -8.2621e+000 16434 116339,116417,116365
 2.7000e+000 116466 -4.3844e+001 -2.0738e+002 -1.0277e+000 16434 116313,116417,116339
 2.7000e+000 116443 -1.3691e+002 -2.6537e+002  7.2153e+001 16434 116365,116417,116391
 2.7000e+000 116592  4.6438e+000 -2.3034e+002 -1.9243e+001 15967 116514,116566,116540
 2.7000e+000 116695 -2.3331e+001 -3.4475e+002 -4.6889e+001 15552 116617,116669,116643
 2.7000e+000 116798 -2.1182e+001 -1.8979e+002  0.0000e+000 421 116720,116772,116746
 2.8000e+000 69066  1.1660e+000 -3.2464e+002 -1.6475e+001 68738 68965,69017,68991
 2.8000e+000 69043  7.6465e+001 -2.9879e+002  7.0431e+002 68738 68939,69017,68965
 2.8000e+000 69371 -6.9134e+000 -6.8957e+001 -2.4470e+001 68426 69172,69250,69198
 2.8000e+000 69348  2.2329e+000 -1.2849e+002  8.2604e+000 68426 69146,69250,69172
 2.8000e+000 69325 -2.0204e+000 -2.2612e+001  1.0326e+001 68426 69198,69250,69224
 2.8000e+000 69302 -3.9628e+001 -1.1230e+002  4.4635e+000 68426 69146,69276,69250
 2.8000e+000 69521 -1.9900e+000 -5.9464e+001 -1.4439e+001 68228 69420,69472,69446
 2.8000e+000 69498 -1.0072e+001 -4.0737e+001 -3.2880e+001 68228 69394,69472,69420
 2.8000e+000 69781 -1.0757e+001  1.4597e+001  1.0116e+001 68030 69631,69683,69657
 2.8000e+000 69758  3.7921e+000 -2.6401e+001 -7.1059e+000 68030 69631,69709,69683
 2.8000e+000 69735 -1.1229e+000  7.5372e+000  2.0971e+001 68030 69605,69709,69631
 2.8000e+000 70078 -1.0878e+000  1.3507e+001 -7.5572e+000 67832 69882,69934,69908
 2.8000e+000 70055  9.0889e-001 -1.1388e+001  6.7122e+000 67832 69856,69934,69882
 2.8000e+000 70032  4.8210e+000 -1.6649e+001 -7.5197e-001 67832 69830,69934,69856
 2.8000e+000 70009  2.7702e+000 -2.1560e+001 -8.4702e+000 67832 69804,69934,69830
 2.8000e+000 69986 -1.3025e+001  2.4008e+001  1.4194e+001 67832 69804,69960,69934
 2.8000e+000 70586 -7.1882e+000 -5.7285e+001  1.4708e+001 67634 70609,70419,70341
 2.8000e+000 70563 -9.7383e-001 -7.8361e+001  2.1711e+001 67634 70681,70609,70341
 2.8000e+000 70540 -5.3166e+000 -7.9989e+001  2.1044e+001 67634 70681,70341,70315
 2.8000e+000 70517 -1.7585e+001 -6.1653e+001  2.7153e+001 67634 70341,70419,70367
 2.8000e+000 70494 -1.6225e+001  1.9527e+000  1.6418e+000 67634 70263,70445,70289
 2.8000e+000 70471 -4.5599e+000 -8.8460e+000  1.4394e+001 67634 70367,70419,70393
 2.8000e+000 70635 -2.3213e-001  7.9211e-001  1.2186e+001 67634 70445,70419,70609
 2.8000e+000 70658 -1.8203e+001 -6.3977e+001  2.1755e+001 67634 70445,70609,70289
 2.8000e+000 70707 -1.8696e+000 -7.4901e+001  1.2279e+001 67634 70289,70609,70681
 2.8000e+000 70730 -1.2840e+001 -7.9320e+001  1.2411e+001 67634 70289,70681,70315
 2.8000e+000 71108 -1.2978e+001 -7.4981e+001  3.5651e+001 67344 71131,70912,70886
 2.8000e+000 71085 -9.1901e+000 -6.6089e+001  3.5655e+001 67344 71131,70886,70860
 2.8000e+000 71062 -2.3943e+001 -8.3061e+001  3.0747e+001 67344 71203,70938,70912
 2.8000e+000 71039  2.7263e+001 -6.2747e+001  1.1974e+001 67344 70834,70990,70860
 2.8000e+000 71016 -1.6055e+001 -1.0033e+002  1.0017e+001 67344 70938,70990,70964
 2.8000e+000 71157 -2.3487e+001 -6.7843e+001  3.3163e+001 67344 71203,70912,71131
 2.8000e+000 71180  1.7045e-001 -5.3735e+001  1.5313e+001 67344 70990,71131,70860
 2.8000e+000 71229 -1.8443e+001 -1.1072e+002  2.4325e+001 67344 70990,70938,71203
 2.8000e+000 71252 -1.5861e+001 -9.0257e+001  2.3040e+001 67344 70990,71203,71131
 2.8000e+000 71603  4.0959e+000 -6.1357e+001  8.5668e+000 67032 71378,71482,71404
 2.8000e+000 71580  8.5065e+000 -4.3689e+001  1.3419e+001 67032 71378,71508,71482
 2.8000e+000 71557  2.5823e+000 -3.5932e+001  2.4207e+001 67032 71404,71456,71430
 2.8000e+000 71534 -2.3845e+000 -7.5927e+001  9.7559e+000 67032 71404,71482,71456
 2.8000e+000 72003  1.8203e+001 -3.4846e+001  1.6792e+001 66834 71755,71859,71781
 2.8000e+000 71980  6.2920e+000 -1.0868e+002  4.4380e+000 66834 71755,71885,71859
 2.8000e+000 71957  5.7200e+000 -2.0789e+001  8.7791e+000 66834 71781,71833,71807
 2.8000e+000 71934 -1.0993e+001 -1.2368e+002 -5.1361e+000 66834 71781,71859,71833
 2.8000e+000 71911  2.7546e+001 -4.0830e+001  4.9378e+001 66834 71729,71885,71755
 2.8000e+000 72430  2.0010e+001 -8.1081e+001 -1.8294e+000 66266 72237,72289,72263
 2.8000e+000 72407  1.3698e+001 -9.8925e+001  9.9403e+000 66266 72133,72289,72237
 2.8000e+000 72384 -2.1809e+000 -7.2168e+001  4.4880e+000 66266 72133,72237,72211
 2.8000e+000 72361 -2.5215e+001 -1.1989e+002  1.9885e+000 66266 72107,72289,72133
 2.8000e+000 72338 -2.7367e+001 -1.3994e+002  4.4671e+001 66266 72133,72211,72185
 2.8000e+000 72315 -9.0489e+000 -1.4948e+002  4.5281e+001 66266 72133,72185,72159
 2.8000e+000 72580 -2.0658e+001 -1.4184e+002  1.4708e+001 65968 72479,72531,72505
 2.8000e+000 72557  2.6306e+000 -8.4444e+001  6.1029e+000 65968 72453,72531,72479
 2.8000e+000 72960  1.3494e+001 -2.3561e+001  1.1301e+001 65621 72983,72738,72712
 2.8000e+000 72937  4.8677e+001 -7.5302e+001  1.0166e+001 65621 72983,72712,72686
 2.8000e+000 72914 -3.3180e+000 -1.3963e+002  1.1600e+001 65621 72738,72842,72764
 2.8000e+000 72891  9.2299e-001 -1.3267e+002  3.3109e+000 65621 72764,72842,72816
 2.8000e+000 72868 -9.2881e+001 -3.7844e+002  6.5190e+001 65621 72764,72816,72790
 2.8000e+000 73009  1.9718e+001 -6.2564e+001  1.9309e+001 65621 72842,72738,72983
 2.8000e+000 73032  2.0473e+001 -1.5877e+002  2.4470e+001 65621 72842,72983,72686
 2.8000e+000 73361  1.8318e+001 -2.2863e+002  1.9230e+000 65281 73456,73384,73188
 2.8000e+000 73338 -1.4367e+001 -2.1075e+002  3.5017e+001 65281 73384,73162,73136
 2.8000e+000 73315  1.2345e+001 -1.5653e+002 -2.1159e+001 65281 73188,73240,73214
 2.8000e+000 73292 -4.5074e+000 -5.1722e+001 -1.3239e+001 65281 73136,73266,73240
 2.8000e+000 73410 -2.9500e+001 -2.2112e+002  1.6181e+000 65281 73240,73188,73384
 2.8000e+000 73433 -1.7757e+001 -6.9758e+001  1.5072e+001 65281 73240,73384,73136
 2.8000e+000 73482 -8.9260e+000 -3.2220e+002 -1.8400e+001 65281 73162,73384,73456
 2.8000e+000 73711 -7.5717e+000  1.3884e+001 -4.1698e+001 64820 73734,73610,73584
 2.8000e+000 73688 -2.2176e+001 -2.0303e+001 -4.1725e+001 64820 73734,73584,73662
 2.8000e+000 73760  1.3888e+001  2.8288e+001  1.9268e+000 64820 73636,73610,73734
 2.8000e+000 73783 -4.1727e+001 -7.0265e+000 -2.0160e+001 64820 73806,73734,73662
 2.8000e+000 73832 -1.9488e+001 -3.0986e+001 -1.3138e+001 64820 73636,73734,73806
 2.8000e+000 74112  1.9266e+001 -4.9154e+001 -2.0444e+001 64622 74278,74135,73988
 2.8000e+000 74089  2.0498e+000 -8.2888e+001  3.5929e+000 64622 74135,73936,74040
 2.8000e+000 74066  2.1298e+001 -4.7691e+001 -4.3531e+001 64622 74278,73988,73962
 2.8000e+000 74161 -1.8703e+001 -7.0670e+001 -1.1467e+001 64622 74014,73988,74135
 2.8000e+000 74184 -1.7857e+000 -7.6911e+001 -2.3486e-001 64622 74207,74135,74040
 2.8000e+000 74233  6.2163e+000 -6.1278e+001 -8.1548e+000 64622 74014,74135,74207
 2.8000e+000 74304 -2.2269e-001 -9.5766e+001 -3.6231e+000 64622 73936,74135,74278
 2.8000e+000 74327  1.5397e+001 -8.2037e+001 -2.9015e+001 64622 73936,74278,73962
 2.8000e+000 74526  2.1068e+001  4.0365e+000 -2.8403e+000 64424 74621,74549,74402
 2.8000e+000 74503 -1.0176e+001 -4.9649e+001  1.0321e+001 64424 74549,74350,74454
 2.8000e+000 74480  2.8853e+001  2.1328e+001 -2.8395e+001 64424 74621,74402,74376
 2.8000e+000 74575  3.2213e+001 -4.1702e+001  1.0784e+001 64424 74428,74402,74549
 2.8000e+000 74598  7.4059e+000 -6.8514e+001  1.6033e+001 64424 74693,74549,74454
 2.8000e+000 74647 -1.4831e+000 -3.7247e+001  1.5817e+001 64424 74350,74549,74621
 2.8000e+000 74670  7.6088e+000 -2.5722e+001 -1.0667e+001 64424 74350,74621,74376
 2.8000e+000 74719  7.1243e+000 -8.5130e+001 -4.0139e+000 64424 74428,74549,74693
 2.8000e+000 75123 -3.6575e+001 -2.4239e+002  4.9015e+001 64126 74875,74953,74927
 2.8000e+000 75100 -1.7862e+001 -2.3262e+002  2.7916e+001 64126 74875,74979,74953
 2.8000e+000 75077 -2.0022e+001 -1.4916e+002  9.0678e-001 64126 74875,75005,74979
 2.8000e+000 75054 -8.7481e+000 -3.1768e+002  8.2869e+001 64126 74875,74927,74901
 2.8000e+000 75031 -5.5333e+001 -7.5299e+001  3.2398e+001 64126 74849,75005,74875
 2.8000e+000 75224  1.3875e+001 -1.6831e+002  2.8326e+001 63836 75146,75198,75172
 2.8000e+000 75472 -6.2065e+000 -1.0909e+002  3.4370e+001 63375 75273,75351,75325
 2.8000e+000 75449 -2.5106e+001 -1.0512e+002  1.9310e+001 63375 75273,75377,75351
 2.8000e+000 75426 -2.5691e+001 -1.1656e+002  1.0465e+001 63375 75247,75377,75273
 2.8000e+000 75403  4.6488e+000 -6.1484e+001  3.5617e+001 63375 75273,75325,75299
 2.8000e+000 75673  2.3560e+001 -1.0701e+002  1.9386e+001 63063 75523,75575,75549
 2.8000e+000 75650  1.9647e+001 -1.4847e+002 -1.2020e+000 63063 75497,75575,75523
 2.8000e+000 75627  1.3159e+001 -1.6144e+002  2.0856e+001 63063 75497,75601,75575
 2.8000e+000 75874  3.4143e+001 -1.9752e+002 -1.3611e+001 62716 75897,75750,75724
 2.8000e+000 75851  9.2560e+000 -1.5983e+002 -3.8948e+000 62716 75897,75724,75698
 2.8000e+000 75828  1.1522e+001 -1.1137e+002 -5.0316e+001 62716 75698,75802,75776
 2.8000e+000 75923  7.1758e+001 -1.5341e+002 -3.2572e+001 62716 75776,75750,75897
 2.8000e+000 75946  2.0046e+001 -1.4084e+002 -9.8861e+000 62716 75776,75897,75698
 2.8000e+000 76328 -1.9793e+001 -1.8045e+002 -1.5404e+001 62198 76495,76351,76158
 2.8000e+000 76305 -4.2119e+001 -1.7962e+002 -8.7012e+000 62198 76351,76080,76054
 2.8000e+000 76282 -5.4930e+000 -2.4517e+002 -2.1904e+001 62198 76423,76184,76158
 2.8000e+000 76259 -2.6156e+001 -1.7948e+002 -1.2786e+001 62198 76495,76158,76106
 2.8000e+000 76236 -5.4648e+001 -2.1689e+002  4.2795e+000 62198 76106,76158,76132
 2.8000e+000 76377 -2.8164e+001 -1.9921e+002 -2.7331e+001 62198 76423,76158,76351
 2.8000e+000 76400 -3.9411e+001 -1.5647e+002 -2.7221e+001 62198 76210,76351,76054
 2.8000e+000 76449  1.9139e+001 -2.0083e+002 -3.1954e+001 62198 76210,76184,76423
 2.8000e+000 76472 -1.7828e+000 -1.6157e+002 -4.0370e+001 62198 76210,76423,76351
 2.8000e+000 76521 -3.1347e+001 -1.7463e+002 -1.0091e+001 62198 76080,76351,76495
 2.8000e+000 76544 -4.6363e+001 -1.8384e+002 -4.4525e+000 62198 76080,76495,76106
 2.8000e+000 76841 -1.3592e+001 -1.7908e+002  3.9911e+000 61751 76936,76864,76645
 2.8000e+000 76818  3.3986e+001 -1.6368e+002 -5.0573e+001 61751 76864,76567,76723
 2.8000e+000 76795 -1.0957e+000 -1.3215e+002  1.3916e+000 61751 76936,76645,76593
 2.8000e+000 76772 -1.6888e+002 -3.6200e+002  5.9454e+001 61751 77008,76697,76671
 2.8000e+000 76749 -1.2796e+001 -9.4818e+001 -3.5428e+001 61751 76593,76645,76619
 2.8000e+000 76890 -2.7105e+001 -2.1448e+002  1.6882e+001 61751 76671,76645,76864
 2.8000e+000 76913 -5.6773e+001 -2.1795e+002  6.2806e+000 61751 77008,76671,76864
 2.8000e+000 76962  1.2657e+001 -2.4172e+002 -1.9598e+001 61751 76567,76864,76936
 2.8000e+000 76985  2.1209e+001 -2.0290e+002 -1.6974e+001 61751 76567,76936,76593
 2.8000e+000 77034 -6.2850e+000 -2.6053e+002 -4.3569e+001 61751 76723,76697,77008
 2.8000e+000 77057 -1.5486e+001 -2.7992e+002 -3.9739e+001 61751 76723,77008,76864
 2.8000e+000 77207 -6.6050e+000 -9.1538e+001  3.5086e+001 61418 77106,77158,77132
 2.8000e+000 77184  3.7569e+001 -1.4552e+002  4.2879e+001 61418 77080,77158,77106
 2.8000e+000 77638 -3.4876e+001 -1.9815e+002 -2.6883e+001 60814 77733,77661,77471
 2.8000e+000 77615  1.5758e+001 -1.8482e+002 -2.7454e+001 60814 77661,77393,77315
 2.8000e+000 77592 -6.6734e+001 -1.5161e+002 -4.4010e+000 60814 77733,77471,77445
 2.8000e+000 77569 -4.8812e+001 -2.9997e+002 -2.0681e+001 60814 77315,77367,77341
 2.8000e+000 77546 -3.8132e+001 -2.9594e+002 -7.8416e+000 60814 77315,77393,77367
 2.8000e+000 77523 -6.2164e+001 -1.3384e+002  1.3450e+001 60814 77393,77445,77419
 2.8000e+000 77687 -8.4983e+000 -1.8646e+002 -3.1277e+001 60814 77497,77471,77661
 2.8000e+000 77710 -2.4075e+001 -2.2226e+002 -7.1221e+000 60814 77497,77661,77315
 2.8000e+000 77759  2.1625e+000 -1.3508e+002 -4.3420e+001 60814 77393,77661,77733
 2.8000e+000 77782 -4.2144e+001 -1.0503e+002 -1.4435e+001 60814 77393,77733,77445
 2.8000e+000 78337  5.4028e-001 -9.9866e+001  6.4660e+000 60210 78360,78017,77965
 2.8000e+000 78314 -5.8367e+000 -1.1030e+002  9.1563e+000 60210 78360,77965,78173
 2.8000e+000 78291 -1.8443e+001 -1.2406e+002 -2.0842e+001 60210 78432,78043,78017
 2.8000e+000 78268 -2.7138e+000 -1.3644e+002  2.0020e+001 60210 77965,78017,77991
 2.8000e+000 78245  1.1180e+000 -8.9634e+001 -9.2754e+000 60210 78043,78095,78069
 2.8000e+000 78222 -3.0161e+001 -1.6322e+002  2.9034e+001 60210 78095,78173,78121
 2.8000e+000 78199  3.6333e+001 -1.0826e+002 -1.3036e+001 60210 78121,78173,78147
 2.8000e+000 78386 -1.4287e+001 -1.1614e+002 -1.7667e-001 60210 78432,78017,78360
 2.8000e+000 78409  7.7796e+000 -9.1101e+001  1.5113e+001 60210 78095,78360,78173
 2.8000e+000 78458 -3.6323e+000 -9.5791e+001 -1.1616e+001 60210 78095,78043,78432
 2.8000e+000 78481  2.6055e-001 -8.3425e+001  8.2565e+000 60210 78095,78432,78360
 2.8000e+000 78680 -3.1480e+001 -1.3615e+002  1.2460e+000 59848 78703,78556,78530
 2.8000e+000 78657 -3.3575e+001 -1.5190e+002 -1.4535e+001 59848 78703,78530,78504
 2.8000e+000 78634 -3.5155e+001 -1.8109e+002 -1.6279e+001 59848 78504,78608,78582
 2.8000e+000 78729 -2.3286e+001 -1.6772e+002  1.9851e+000 59848 78582,78556,78703
 2.8000e+000 78752 -2.6991e+001 -1.7416e+002 -1.9400e+001 59848 78582,78703,78504
 2.8000e+000 78951 -3.6842e+001 -1.0591e+002 -1.5708e+001 59344 78974,78801,78775
 2.8000e+000 78928 -6.3002e+001 -1.7387e+002 -3.1185e+001 59344 79046,78974,78775
 2.8000e+000 78905 -5.7615e+001 -2.2870e+002 -2.8348e+001 59344 79046,78775,78879
 2.8000e+000 79000 -2.0777e+001 -8.8086e+001  2.7105e+001 59344 78827,78801,78974
 2.8000e+000 79023 -5.0083e+001 -1.0690e+002 -1.9107e+000 59344 78827,78974,78853
 2.8000e+000 79072 -7.2812e+001 -1.1062e+002 -9.9665e+000 59344 78853,78974,79046
 2.8000e+000 79095 -5.0695e+001 -1.4548e+002 -4.1320e+000 59344 78853,79046,78879
 2.8000e+000 79296  2.3726e+001 -1.6531e+002 -9.4697e+000 58711 79319,79172,79146
 2.8000e+000 79273  3.4749e+001 -1.4834e+002 -3.1139e+000 58711 79319,79146,79120
 2.8000e+000 79250  7.8027e+000 -1.6910e+002  4.4138e+001 58711 79172,79224,79198
 2.8000e+000 79345  1.2456e+001 -1.4534e+002 -9.0172e+000 58711 79224,79172,79319
 2.8000e+000 79368  1.8146e+001 -1.3266e+002 -5.3997e+000 58711 79224,79319,79120
 2.8000e+000 79667  1.0862e+001 -1.0570e+002 -4.6330e+000 58285 79690,79471,79393
 2.8000e+000 79644  1.5739e+001 -1.3373e+002 -1.8383e+001 58285 79690,79393,79549
 2.8000e+000 79621  4.5852e+001 -1.5883e+002  3.0883e+001 58285 79393,79471,79419
 2.8000e+000 79598  2.1463e+001 -9.3679e+001  2.3245e-001 58285 79497,79549,79523
 2.8000e+000 79575 -3.5608e+001 -3.2143e+002  6.8098e+001 58285 79419,79471,79445
 2.8000e+000 79716  1.7190e+001 -8.1003e+001  9.6122e+000 58285 79497,79471,79690
 2.8000e+000 79739  2.2380e+001 -1.1932e+002 -4.0802e-001 58285 79497,79690,79549
 2.8000e+000 80249  2.5059e+001 -3.3514e+001  4.4263e+000 57831 80272,79978,79952
 2.8000e+000 80226  6.0924e+000 -3.4212e+001 -5.4186e+000 57831 80272,79952,80108
 2.8000e+000 80203  1.3656e+001 -7.8827e+001 -2.7882e+001 57831 79926,80108,79952
 2.8000e+000 80180 -8.3040e+000 -6.7171e+001 -3.0379e+000 57831 80004,80082,80030
 2.8000e+000 80157 -1.5380e+001 -5.1803e+001 -1.3694e+001 57831 80004,80108,80082
 2.8000e+000 80134 -3.3205e+000 -6.8477e+001 -1.0524e+001 57831 80030,80082,80056
 2.8000e+000 80298  1.6514e+001 -4.5049e+001 -1.2419e+001 57831 80004,79978,80272
 2.8000e+000 80321 -6.6268e+000 -3.6634e+001 -1.7672e+001 57831 80004,80272,80108
 2.8000e+000 80618 -4.3236e+001 -1.8814e+002  3.0069e+001 57077 80344,80448,80422
 2.8000e+000 80595 -1.5421e+001 -1.6753e+002  1.4354e+001 57077 80344,80500,80448
 2.8000e+000 80572 -1.3521e+000 -1.1214e+002  6.7926e+000 57077 80344,80422,80370
 2.8000e+000 80549 -4.0662e+001 -1.1640e+002  1.8430e+001 57077 80370,80422,80396
 2.8000e+000 80526 -5.2730e+001 -2.6966e+002  3.4660e+001 57077 80448,80500,80474
 2.8000e+000 80768 -7.0179e+000 -5.6046e+001 -6.1821e+000 56787 80791,80693,80667
 2.8000e+000 80745 -1.4278e+001 -5.4390e+001 -1.2521e+000 56787 80791,80667,80641
 2.8000e+000 80817 -2.8130e+000 -5.4476e+001 -9.7118e+000 56787 80719,80693,80791
 2.8000e+000 80840 -1.3759e+001 -4.0334e+001 -8.6776e+000 56787 80719,80791,80641
 2.8000e+000 81429 -4.2717e+001 -7.9684e+001  1.2396e+001 56497 81452,81158,81132
 2.8000e+000 81406  2.0109e+000 -5.3243e+001 -3.4080e+000 56497 81452,81132,81288
 2.8000e+000 81383 -2.8475e+001 -9.1955e+001 -2.5146e+000 56497 81524,81184,81158
 2.8000e+000 81360  2.9442e+000 -2.0359e+002  6.0431e+001 56497 81210,81288,81236
 2.8000e+000 81337  1.0019e+001 -1.4170e+001  4.4239e+001 56497 81106,81288,81132
 2.8000e+000 81314 -5.3237e+001 -3.7216e+001  4.0212e+001 56497 81236,81288,81262
 2.8000e+000 81478 -1.4670e+001 -8.4480e+001 -5.3658e+000 56497 81524,81158,81452
 2.8000e+000 81501  4.6930e+001 -8.0000e+001  4.5419e+000 56497 81210,81452,81288
 2.8000e+000 81550 -2.7353e+001 -1.0008e+002  1.7516e+001 56497 81210,81184,81524
 2.8000e+000 81573 -7.5425e+000 -9.1135e+001  1.5177e+001 56497 81210,81524,81452
 2.8000e+000 81870 -1.9476e+001 -8.9494e+001  6.3153e+000 55979 81893,81674,81648
 2.8000e+000 81847 -3.0287e+001 -9.3160e+001  8.8373e+000 55979 81893,81648,81752
 2.8000e+000 81824 -2.2714e+001 -1.1558e+002  1.1320e+001 55979 81596,81752,81648
 2.8000e+000 81801 -9.5184e+000 -4.3961e+001 -9.8746e+000 55979 81674,81726,81700
 2.8000e+000 81778 -9.4333e+000 -8.4254e+001  1.0620e+001 55979 81596,81648,81622
 2.8000e+000 81919 -1.2675e+001 -8.9364e+001 -1.9305e+000 55979 81726,81674,81893
 2.8000e+000 81942 -2.6717e+001 -9.3824e+001 -3.3426e-002 55979 81726,81893,81752
 2.8000e+000 82371 -5.7490e+001 -8.3907e+001 -1.4490e+001 55631 82100,82204,82152
 2.8000e+000 82348 -1.6004e+001 -1.3363e+002 -3.6231e+001 55631 82100,82230,82204
 2.8000e+000 82325 -5.5248e+001 -9.4542e+001  1.0818e+001 55631 82100,82152,82126
 2.8000e+000 82302 -6.1800e+001 -2.4084e+002 -3.5211e+001 55631 82074,82230,82100
 2.8000e+000 82279 -7.8138e+001 -1.2570e+002 -3.6500e+000 55631 82152,82204,82178
 2.8000e+000 82256 -7.8434e+000 -1.0782e+002 -1.0388e+001 55631 82048,82230,82074
 2.8000e+000 82521  4.6401e+001 -6.8103e+001  1.3683e+000 55227 82544,82420,82394
 2.8000e+000 82498  4.7395e+001 -9.3429e+001  3.8874e+000 55227 82544,82394,82472
 2.8000e+000 82570  3.9964e+001 -5.0932e+001  2.4080e+000 55227 82446,82420,82544
 2.8000e+000 82593  4.6947e+001 -6.8008e+001  1.1665e+001 55227 82446,82544,82472
 2.8000e+000 82875  1.8787e+001  1.4106e+001  1.2873e+001 54979 82699,82777,82725
 2.8000e+000 82852  1.8148e+001 -4.8970e+001  1.8434e+001 54979 82699,82803,82777
 2.8000e+000 82829 -2.0688e+000 -6.8267e+000  3.2096e+000 54979 82725,82777,82751
 2.8000e+000 83204 -2.3250e+001 -5.6587e+001 -2.2573e+001 54475 83005,83083,83057
 2.8000e+000 83181 -1.6482e+001 -5.6592e+001 -2.0634e+001 54475 82979,83083,83005
 2.8000e+000 83158 -1.6977e+001 -7.3282e+001 -2.8264e+001 54475 83005,83057,83031
 2.8000e+000 83135 -2.3857e+001 -7.3861e+001 -1.0665e+001 54475 82979,83109,83083
 2.8000e+000 83582 -2.6217e+001 -9.1385e+001 -3.4932e+000 54071 83605,83438,83412
 2.8000e+000 83559 -2.9200e+001 -9.8092e+001 -2.9182e+000 54071 83749,83605,83412
 2.8000e+000 83536 -4.6216e+001 -1.2573e+002  2.1853e+001 54071 83677,83360,83334
 2.8000e+000 83513 -2.5027e+001 -1.0335e+002 -3.8208e+000 54071 83749,83412,83677
 2.8000e+000 83490 -2.6493e+001 -9.8142e+001 -8.0447e+000 54071 83308,83464,83334
 2.8000e+000 83631 -2.9768e+001 -9.3093e+001 -2.8992e+000 54071 83464,83438,83605
 2.8000e+000 83654 -2.6982e+001 -8.8127e+001 -1.3642e+000 54071 83464,83605,83334
 2.8000e+000 83703 -1.3931e+001 -9.9479e+001  5.5125e+000 54071 83386,83360,83677
 2.8000e+000 83726 -1.6613e+001 -8.6504e+001 -1.2656e+001 54071 83386,83677,83412
 2.8000e+000 83775 -2.3339e+001 -8.9808e+001  5.0257e-001 54071 83334,83605,83749
 2.8000e+000 83798 -1.8797e+001 -9.5182e+001 -1.4556e-001 54071 83334,83749,83677
 2.8000e+000 84068  2.8579e+000  1.8823e+000 -1.3488e+001 53524 83869,83921,83895
 2.8000e+000 84045  1.0289e+001 -6.1945e+001  3.8345e+000 53524 83869,83947,83921
 2.8000e+000 84022 -1.1930e+001 -8.8648e+001 -5.8725e+000 53524 83843,83947,83869
 2.8000e+000 83999  1.9543e+001 -8.4411e+001 -5.8621e+000 53524 83843,83973,83947
 2.8000e+000 84497 -4.2193e+001 -1.8747e+002  3.4671e+000 53184 84200,84330,84252
 2.8000e+000 84474 -2.6773e+001 -1.2554e+002  2.4325e+001 53184 84200,84356,84330
 2.8000e+000 84451  6.1975e+000 -1.5522e+002  2.5771e+001 53184 84200,84252,84226
 2.8000e+000 84428 -1.5296e+001 -1.2740e+002 -5.2751e+001 53184 84252,84330,84278
 2.8000e+000 84405 -1.9614e+001 -1.1582e+002  9.4405e+000 53184 84174,84356,84200
 2.8000e+000 84382 -1.4840e-001 -1.2981e+002 -9.4096e+000 53184 84278,84330,84304
 2.8000e+000 84954  1.6548e+001 -8.6910e+001  5.7481e+001 52680 84706,84836,84784
 2.8000e+000 84931 -8.1144e+000 -5.9139e+001 -6.4022e+001 52680 84680,84836,84706
 2.8000e+000 84908 -8.1250e+000 -3.2536e+002  1.6134e+000 52680 84784,84836,84810
 2.8000e+000 84885  2.1036e+001 -3.5846e+002 -3.3433e+000 52680 84706,84784,84732
 2.8000e+000 84862  5.6373e+001 -3.0279e+002 -5.8729e+001 52680 84732,84784,84758
 2.8000e+000 85202 -5.4787e+000 -1.8538e+002 -9.3823e+000 52226 85029,85081,85055
 2.8000e+000 85179 -7.2286e+000 -1.3136e+002  4.2277e+000 52226 85225,85081,85029
 2.8000e+000 85156  6.3534e+000 -9.6945e+001  3.0123e+001 52226 85225,85029,85003
 2.8000e+000 85133 -5.2087e+001 -1.1119e+002 -1.9049e+001 52226 84977,85107,85003
 2.8000e+000 85251 -2.5261e+001 -1.3908e+002 -2.9587e+001 52226 85107,85081,85225
 2.8000e+000 85274 -3.7312e+001 -7.4217e+001 -7.8076e+000 52226 85107,85225,85003
 2.8000e+000 85522  1.0624e+001 -1.6517e+002  1.4117e+001 51764 85297,85349,85323
 2.8000e+000 85499  5.6039e+001 -1.3152e+002  1.0885e+001 51764 85545,85297,85427
 2.8000e+000 85476  1.4325e+001 -7.6714e+001 -1.0348e+001 51764 85545,85427,85375
 2.8000e+000 85453  1.8776e+001 -8.0028e+001 -1.7054e+001 51764 85375,85427,85401
 2.8000e+000 85571  6.9981e+001 -9.8577e+001 -1.3459e+001 51764 85349,85297,85545
 2.8000e+000 85594  4.9837e+001 -2.4148e+001 -3.9021e+001 51764 85349,85545,85375
 2.8000e+000 85746 -4.9260e+001 -1.1489e+002  1.0813e+001 51374 85645,85697,85671
 2.8000e+000 85723 -7.0710e+001 -1.3602e+002 -5.1454e+000 51374 85619,85697,85645
 2.8000e+000 86256  5.0981e+000 -4.0474e+001  6.2049e+000 50970 86279,86011,85959
 2.8000e+000 86233  1.9727e+001 -1.4954e+001 -2.1631e+000 50970 86279,85959,86115
 2.8000e+000 86210 -1.5275e+001 -8.8075e+001  6.6986e+000 50970 85959,86011,85985
 2.8000e+000 86187  4.7178e+001 -4.2794e+001  2.9968e+001 50970 86037,86115,86089
 2.8000e+000 86164  4.8386e+001  3.1614e+000  4.3222e+001 50970 85933,86115,85959
 2.8000e+000 86141 -3.1946e+001 -9.3789e+001 -3.4969e+000 50970 86037,86089,86063
 2.8000e+000 86305  2.8024e+001 -7.5812e+001  7.8658e+000 50970 86037,86011,86279
 2.8000e+000 86328  4.5171e+001 -4.7401e+001 -1.3732e+000 50970 86037,86279,86115
 2.8000e+000 86478 -5.7055e+001 -2.4620e+002  2.7639e+001 50451 86351,86403,86377
 2.8000e+000 86455 -1.3741e+002 -7.2033e+002 -6.2752e-001 50451 86351,86429,86403
 2.8000e+000 86907 -4.1842e+001 -1.1725e+002 -1.4626e+001 50047 86930,86714,86662
 2.8000e+000 86884 -2.4729e+001 -1.3083e+002 -1.3323e+001 50047 86930,86662,86610
 2.8000e+000 86861  5.3879e+000 -1.3507e+002 -3.5744e+001 50047 87002,86740,86714
 2.8000e+000 86838  1.3897e+001 -9.3391e+001 -1.4912e+001 50047 86662,86714,86688
 2.8000e+000 86815 -3.1980e+001 -1.4006e+002 -4.9129e+000 50047 86610,86662,86636
 2.8000e+000 86792  2.5632e+000 -1.2407e+002  9.9793e+000 50047 86584,86766,86610
 2.8000e+000 86956 -2.4202e+001 -1.2121e+002 -1.6124e+001 50047 87002,86714,86930
 2.8000e+000 86979 -4.9363e+001 -1.4862e+002 -5.2885e+000 50047 86766,86930,86610
 2.8000e+000 87028 -4.0876e+001 -1.3354e+002 -3.4529e+001 50047 86766,86740,87002
 2.8000e+000 87051 -5.3877e+001 -1.3006e+002 -2.1145e+001 50047 86766,87002,86930
 2.8000e+000 87250 -2.9691e+000 -1.6125e+002 -2.8854e+001 49543 87273,87126,87100
 2.8000e+000 87227 -5.9774e+000 -1.3167e+002 -7.1838e+000 49543 87273,87100,87074
 2.8000e+000 87204 -1.5076e+001 -1.1734e+002 -4.1533e+001 49543 87126,87178,87152
 2.8000e+000 87299  1.3238e+001 -1.1669e+002 -3.0428e+001 49543 87178,87126,87273
 2.8000e+000 87322 -1.2190e+000 -1.1221e+002 -4.2692e+000 49543 87178,87273,87074
 2.8000e+000 87570 -5.3837e+001 -1.1882e+002  1.6719e+001 49146 87593,87449,87397
 2.8000e+000 87547 -4.8088e+001 -9.9235e+001  2.8880e+001 49146 87593,87397,87371
 2.8000e+000 87524 -5.6364e+001 -4.2515e+001  3.2948e+001 49146 87345,87475,87371
 2.8000e+000 87501 -1.5080e+001 -1.1567e+002  2.0896e+001 49146 87397,87449,87423
 2.8000e+000 87619 -6.9134e+001 -1.1528e+002  1.9474e+000 49146 87475,87449,87593
 2.8000e+000 87642 -6.0011e+001 -1.0254e+002  1.3768e+001 49146 87475,87593,87371
 2.8000e+000 88073  2.7726e+001 -5.4486e+001 -1.6676e+001 48706 87854,87932,87880
 2.8000e+000 88050  5.5824e+000 -5.8335e+001  2.6691e+000 48706 87828,87932,87854
 2.8000e+000 88027  1.3870e+001 -6.1660e+001  7.7549e+000 48706 87750,87932,87828
 2.8000e+000 88004  7.9665e-001 -8.2553e+001 -5.9709e+001 48706 87750,87802,87776
 2.8000e+000 87981  2.3400e+001 -1.2592e+002 -3.7536e+001 48706 87750,87828,87802
 2.8000e+000 87958 -2.9525e+000 -6.9283e+001 -1.2190e+001 48706 87880,87932,87906
 2.8000e+000 88402 -3.3103e+001 -1.7891e+002 -6.8153e+000 48145 88203,88281,88255
 2.8000e+000 88379 -5.3212e+001 -1.8304e+002  8.9479e+000 48145 88203,88307,88281
 2.8000e+000 88356 -3.4313e+001 -1.4533e+002 -1.1933e+001 48145 88203,88255,88229
 2.8000e+000 88333 -3.6569e+001 -1.9152e+002  3.4197e+001 48145 88177,88307,88203
 2.8000e+000 88601  3.2063e+001 -1.4545e+002  4.5850e+001 47805 88696,88624,88477
 2.8000e+000 88578 -3.4351e+001 -1.4159e+002  1.2264e+001 47805 88826,88624,88451
 2.8000e+000 88555 -4.3120e+001 -1.4415e+002  1.4169e+001 47805 88826,88451,88425
 2.8000e+000 88650  1.1949e+001 -1.8711e+002  1.9670e+001 47805 88503,88477,88624
 2.8000e+000 88673 -3.8328e+000 -1.6942e+002  2.9885e+000 47805 88503,88624,88529
 2.8000e+000 88722 -6.8124e+001 -1.7642e+002  2.8836e+001 47805 88451,88624,88696
 2.8000e+000 88852 -2.9539e+001 -1.4088e+002  2.0872e+000 47805 88529,88624,88826
 2.8000e+000 88875 -3.9116e+001 -1.4409e+002  4.0892e+000 47805 88529,88826,88425
 2.8000e+000 89172  1.0907e+001 -8.4390e+001 -1.7547e+001 47401 89195,88976,88898
 2.8000e+000 89149 -1.0938e+001 -9.4555e+001 -1.1517e+001 47401 89195,88898,89054
 2.8000e+000 89126  2.7017e+001 -6.3994e+001 -2.5364e+001 47401 88898,88976,88950
 2.8000e+000 89103  8.5152e+000 -9.6296e+001 -6.0230e+001 47401 88976,89028,89002
 2.8000e+000 89080  2.1317e+001 -6.2856e+001  3.3464e+000 47401 88898,88950,88924
 2.8000e+000 89221  3.1894e+001 -6.9471e+001 -5.0266e+001 47401 89028,88976,89195
 2.8000e+000 89244 -2.1945e+001 -9.4522e+001 -4.2362e+001 47401 89028,89195,89054
 2.8000e+000 89575 -1.6151e+000 -2.1390e+002  2.1063e+001 47111 89350,89454,89376
 2.8000e+000 89552  2.5954e+001 -1.9120e+002  1.0833e+001 47111 89350,89480,89454
 2.8000e+000 89529  1.6917e+001 -2.4277e+002 -1.0445e+001 47111 89376,89454,89402
 2.8000e+000 89506  6.9090e+001 -1.3953e+002  1.3963e+001 47111 89402,89454,89428
 2.8000e+000 89904  1.4165e+001 -6.3558e+001 -1.0124e+001 46707 89705,89757,89731
 2.8000e+000 89881 -7.0476e+000 -9.1753e+001  4.4458e+000 46707 89705,89783,89757
 2.8000e+000 89858 -3.5452e+001 -9.9273e+001  1.6321e+001 46707 89679,89783,89705
 2.8000e+000 89835 -3.0889e+000 -1.0064e+002 -1.1015e+000 46707 89679,89809,89783
 2.8000e+000 90233  1.0524e+001 -8.1383e+001 -1.6994e+001 46360 90034,90112,90086
 2.8000e+000 90210 -2.1059e+001 -8.0222e+001 -7.6604e+000 46360 90034,90138,90112
 2.8000e+000 90187 -9.2786e+000 -7.7948e+001 -1.4962e+001 46360 90034,90086,90060
 2.8000e+000 90164 -1.9943e+001 -1.0297e+002  5.3582e+000 46360 90008,90138,90034
 2.8000e+000 90530  2.9395e+001 -8.9337e+001 -9.8164e+000 45662 90256,90360,90308
 2.8000e+000 90507 -9.4607e+000 -1.2185e+002  5.7293e+000 45662 90256,90412,90360
 2.8000e+000 90484  1.9488e+001 -1.2471e+002 -7.7590e+000 45662 90256,90308,90282
 2.8000e+000 90461  1.5406e+001 -5.6428e+001  7.0708e+000 45662 90360,90412,90386
 2.8000e+000 90438 -4.6106e+001 -9.4912e+001 -7.6734e+000 45662 90308,90360,90334
 2.8000e+000 90910 -2.3980e+001 -7.5785e+001 -1.1817e+001 45108 90688,90766,90714
 2.8000e+000 90887  9.2620e+000 -9.8661e+001  1.8546e+001 45108 90662,90766,90688
 2.8000e+000 90864 -5.5997e+001 -9.6063e+001  2.2192e+001 45108 90636,90766,90662
 2.8000e+000 90841  2.1594e+001 -1.2494e+002 -4.7415e+001 45108 90714,90766,90740
 2.8000e+000 90818 -4.4734e+001 -1.2292e+002  3.5516e+001 45108 90636,90792,90766
 2.8000e+000 91158 -3.2012e+001 -1.1614e+002 -1.3310e+001 44604 91181,91011,90959
 2.8000e+000 91135 -4.5572e+001 -1.3124e+002 -2.3376e+001 44604 91181,90959,90933
 2.8000e+000 91112 -3.4994e+001 -1.3891e+002  2.6256e-001 44604 90959,91011,90985
 2.8000e+000 91089 -3.0457e+000 -1.6698e+002 -1.9911e+001 44604 90933,91063,91037
 2.8000e+000 91207 -1.2576e+001 -1.3976e+002 -2.8646e+001 44604 91037,91011,91181
 2.8000e+000 91230 -3.9046e+001 -1.7470e+002 -4.1204e+001 44604 91037,91181,90933
 2.8000e+000 91429  2.6972e+001 -1.6824e+002 -1.2815e+001 44264 91452,91279,91253
 2.8000e+000 91406  3.4412e+001 -1.6866e+002 -1.5880e+001 44264 91452,91253,91357
 2.8000e+000 91383 -1.3803e+001 -1.4885e+002  4.0004e+001 44264 91279,91331,91305
 2.8000e+000 91478  3.4215e+001 -1.7441e+002 -1.0669e+001 44264 91331,91279,91452
 2.8000e+000 91501  4.6571e+001 -1.7129e+002 -1.2803e+001 44264 91331,91452,91357
 2.8000e+000 92060 -9.6286e+001 -1.9625e+002 -1.1603e+000 43860 92083,91740,91688
 2.8000e+000 92037 -5.3448e+001 -2.0284e+002  1.7013e+001 43860 92083,91688,91896
 2.8000e+000 92014 -8.2283e+001 -2.3612e+002  3.0779e+000 43860 91766,91870,91844
 2.8000e+000 91991 -4.9051e+001 -1.8715e+002  1.7551e+001 43860 91740,91870,91766
 2.8000e+000 91968 -4.6736e+000 -2.0518e+002  8.5100e+000 43860 91766,91844,91792
 2.8000e+000 91945 -8.4810e+001 -2.0812e+002 -1.7363e+001 43860 91688,91740,91714
 2.8000e+000 91922 -3.0821e+001 -2.3062e+002 -1.8017e+000 43860 91792,91844,91818
 2.8000e+000 92109 -6.0197e+001 -1.8859e+002  1.8481e+001 43860 91870,91740,92083
 2.8000e+000 92132 -1.4724e+001 -1.8768e+002  3.9609e+001 43860 91870,92083,91896
 2.8000e+000 92353  3.8909e+001 -1.2387e+002 -2.8117e+001 43662 92203,92255,92229
 2.8000e+000 92330 -6.0002e+000 -1.2693e+002 -8.0023e+000 43662 92376,92203,92281
 2.8000e+000 92307  2.8671e+001 -6.7298e+001  7.2155e+000 43662 92177,92281,92203
 2.8000e+000 92402 -5.3832e+001 -1.4732e+002 -3.0599e+000 43662 92255,92203,92376
 2.8000e+000 92682  4.6739e+001 -2.4070e+002 -1.8958e+001 43464 92532,92584,92558
 2.8000e+000 92659 -2.6763e+001 -1.8214e+002 -2.3120e+000 43464 92506,92584,92532
 2.8000e+000 92636 -2.9875e+001 -1.6117e+002 -2.8879e+001 43464 92506,92610,92584
 2.8000e+000 93013  8.5510e+000 -1.2881e+002 -3.9801e+001 42960 92866,92918,92892
 2.8000e+000 92990 -1.5916e+001 -1.4121e+002 -2.1518e+001 42960 93036,92918,92866
 2.8000e+000 92967  1.3326e+001 -1.6054e+002 -8.8012e+000 42960 93036,92866,92840
 2.8000e+000 92944  3.9935e+000 -1.2049e+002  1.6965e+000 42960 92788,92918,92814
 2.8000e+000 93062  2.0425e-001 -1.4218e+002 -7.0864e+000 42960 92814,92918,93036
 2.8000e+000 93085  6.1743e+001 -1.3652e+002  8.0833e+000 42960 92814,93036,92840
 2.8000e+000 93186 -4.2100e+001 -1.5818e+002 -1.4278e+001 42556 93108,93160,93134
 2.8000e+000 93554 -3.9242e+001 -2.4362e+002  6.3054e+000 42052 93231,93387,93361
 2.8000e+000 93531 -5.4801e+001 -2.2900e+002  4.2561e+001 42052 93231,93413,93387
 2.8000e+000 93508 -3.3616e+001 -1.7255e+002 -7.1332e+000 42052 93231,93361,93257
 2.8000e+000 93485 -2.8483e+001 -1.4514e+002  2.2348e+001 42052 93283,93361,93335
 2.8000e+000 93462 -4.8117e+001 -1.5839e+002  1.2262e+001 42052 93257,93361,93283
 2.8000e+000 93439  3.8627e+000 -1.2523e+002 -6.7142e+000 42052 93283,93335,93309
 2.8000e+000 94162  8.4609e+000 -1.0453e+002 -1.3209e+000 41498 93767,93975,93793
 2.8000e+000 94139 -7.5785e-001 -1.0716e+002  6.4116e+000 41498 93741,93975,93767
 2.8000e+000 94116 -1.2946e+001 -8.7263e+001  1.4043e+000 41498 93793,93975,93923
 2.8000e+000 94093 -2.8047e+001 -1.2259e+002  8.6219e+000 41498 93923,93975,93949
 2.8000e+000 94070 -2.2892e+000 -5.0969e+001 -8.9471e+000 41498 93871,93923,93897
 2.8000e+000 94047 -2.7711e+000 -7.1395e+001 -1.1485e+001 41498 93793,93923,93871
 2.8000e+000 94024 -2.3410e+000 -4.9393e+001 -1.1279e+001 41498 93819,93871,93845
 2.8000e+000 94001 -1.0731e+001 -5.7141e+001 -4.5462e+000 41498 93793,93871,93819
 2.8000e+000 94619 -3.6625e+001 -1.4803e+002 -3.8717e+001 40930 94642,94423,94371
 2.8000e+000 94596 -5.1061e+000 -1.4851e+002 -1.4028e+000 40930 94642,94371,94345
 2.8000e+000 94573  6.4335e+000 -5.6540e+001  9.3150e+000 40930 94345,94501,94475
 2.8000e+000 94550  1.1386e+001 -1.8131e+002 -5.1073e+001 40930 94371,94423,94397
 2.8000e+000 94527 -6.0967e+000 -8.0311e+001 -2.1283e+001 40930 94423,94475,94449
 2.8000e+000 94668 -6.0797e+000 -8.7146e+001 -2.7086e+001 40930 94475,94423,94642
 2.8000e+000 94691  6.1295e+000 -1.2539e+002  4.8486e+000 40930 94475,94642,94345
 2.8000e+000 95148 -7.4977e+001 -1.6379e+002  3.9031e+001 40362 95171,94952,94926
 2.8000e+000 95125 -5.3627e+001 -1.5144e+002  5.2548e+001 40362 95171,94926,95004
 2.8000e+000 95102 -8.2424e+001 -1.7701e+002  4.1765e+001 40362 94874,95004,94926
 2.8000e+000 95079 -2.5399e+001 -1.7578e+002  7.5755e+001 40362 94874,95030,95004
 2.8000e+000 95056 -8.6400e+001 -1.8790e+002  4.0638e+001 40362 94874,94926,94900
 2.8000e+000 95197 -5.4469e+001 -1.5379e+002  5.0456e+001 40362 94978,94952,95171
 2.8000e+000 95220 -3.7210e+001 -1.4380e+002  6.3685e+001 40362 94978,95171,95004
 2.8000e+000 95549 -1.5674e+001 -9.8685e+001  8.9454e+000 39586 95350,95402,95376
 2.8000e+000 95526  2.2672e+000 -7.5527e+001 -2.5607e+000 39586 95324,95402,95350
 2.8000e+000 95503 -5.9960e+000 -5.2293e+001  2.2369e+001 39586 95324,95454,95402
 2.8000e+000 95480  3.4216e+001 -1.3914e+002  4.3369e+001 39586 95402,95454,95428
 2.8000e+000 96055 -1.8122e+001 -5.6202e+001 -5.4628e+000 38968 96078,95862,95810
 2.8000e+000 96032 -7.1820e+000 -5.7328e+001 -1.3274e+000 38968 96078,95810,95758
 2.8000e+000 96009 -1.4132e+001 -1.0835e+002 -2.0264e+001 38968 96150,95732,95888
 2.8000e+000 95986  5.4993e+000 -3.3933e+001  1.1854e+001 38968 95810,95862,95836
 2.8000e+000 95963 -6.3455e+000 -1.0304e+002 -2.3691e+001 38968 95732,95914,95888
 2.8000e+000 95940 -3.7123e+001 -5.6517e+001  2.6868e+001 38968 95758,95810,95784
 2.8000e+000 96104  5.5948e+000 -6.3424e+001  5.1054e+000 38968 95888,95862,96078
 2.8000e+000 96127 -1.7725e+001 -9.9474e+001 -7.2012e+000 38968 96150,95888,96078
 2.8000e+000 96176 -1.8103e+001 -7.7435e+001 -1.3770e+001 38968 95758,95732,96150
 2.8000e+000 96199 -1.4246e+001 -6.1075e+001  5.1219e-001 38968 95758,96150,96078
 2.8000e+000 96545  2.2533e+001 -1.2950e+002 -1.9634e+001 38507 96640,96568,96352
 2.8000e+000 96522 -4.3147e+001 -2.0281e+002  4.0505e+001 38507 96568,96300,96222
 2.8000e+000 96499  7.0707e+001 -8.3512e+001 -7.6047e+001 38507 96640,96352,96326
 2.8000e+000 96476 -3.8006e+000 -1.7977e+002 -4.6089e+001 38507 96352,96404,96378
 2.8000e+000 96453 -9.6329e+001 -2.1470e+002  5.1487e+000 38507 96222,96300,96248
 2.8000e+000 96430 -6.6051e+001 -2.4422e+002 -3.4488e+001 38507 96248,96300,96274
 2.8000e+000 96594 -4.3131e+001 -1.7758e+002  1.6699e+000 38507 96404,96352,96568
 2.8000e+000 96617 -4.6640e+000 -1.5615e+002  2.1963e+001 38507 96404,96568,96222
 2.8000e+000 96666 -1.5950e+001 -2.0836e+002  3.0752e+001 38507 96300,96568,96640
 2.8000e+000 96689 -1.4699e+000 -1.7789e+002 -2.0101e+001 38507 96300,96640,96326
 2.8000e+000 97069  6.7199e+000 -3.2353e+001  4.0150e+000 37760 97092,96873,96821
 2.8000e+000 97046 -1.3614e+000 -3.6275e+001  8.7235e+000 37760 97092,96821,96795
 2.8000e+000 97023 -4.2073e+001 -1.6376e+001  5.8461e+000 37760 96821,96873,96847
 2.8000e+000 97000  1.5585e+001  1.2235e+001 -8.3895e+000 37760 96873,96925,96899
 2.8000e+000 96977  3.1825e+000 -2.5532e+001 -1.0338e+001 37760 96795,96951,96925
 2.8000e+000 97118  1.4528e+001 -2.3025e+001 -8.3426e+000 37760 96925,96873,97092
 2.8000e+000 97141 -9.6295e+000 -3.4070e+001 -2.6393e+000 37760 96925,97092,96795
 2.8000e+000 97647 -8.1039e+001 -1.7343e+002  2.1488e+001 37356 97324,97480,97376
 2.8000e+000 97624 -1.7328e+001 -1.8062e+002  7.5389e+001 37356 97324,97506,97480
 2.8000e+000 97601 -5.9030e+001 -9.7827e+001  4.0431e+001 37356 97376,97480,97454
 2.8000e+000 97578 -6.7717e+001 -1.6184e+002  1.2759e+001 37356 97324,97376,97350
 2.8000e+000 97555 -5.3401e+001 -1.0328e+002  2.4904e+001 37356 97376,97454,97402
 2.8000e+000 97532 -6.6175e+001 -7.5706e+001  2.4896e+001 37356 97402,97454,97428
 2.8000e+000 98232 -7.8613e+000 -3.1456e+001 -8.5041e+000 36902 97935,98065,98013
 2.8000e+000 98209  1.6325e+001 -2.8323e+001 -1.3199e+001 36902 97935,98091,98065
 2.8000e+000 98186  1.3597e+001 -2.9274e+001 -6.5196e+000 36902 97935,98013,97987
 2.8000e+000 98163  9.1470e+000 -8.0365e+000 -1.5305e+001 36902 97909,98091,97935
 2.8000e+000 98140  1.1964e+001  6.3896e+000  5.5576e+000 36902 97935,97987,97961
 2.8000e+000 98117 -1.3393e+001 -4.8361e+001 -5.1054e+000 36902 98013,98065,98039
 2.8000e+000 98659 -3.1436e+001 -2.0459e+002 -3.4464e+001 36604 98682,98414,98388
 2.8000e+000 98636 -1.6187e+001 -1.8838e+002  7.0689e+000 36604 98682,98388,98336
 2.8000e+000 98613 -2.4460e+001 -1.6554e+002  8.5363e+000 36604 98754,98518,98466
 2.8000e+000 98590 -1.8147e+001 -9.3962e+001 -2.0649e+001 36604 98414,98466,98440
 2.8000e+000 98567  4.0825e+001 -2.5512e+002  2.0810e+001 36604 98336,98388,98362
 2.8000e+000 98544 -6.9138e+000 -2.2077e+002  9.9574e+001 36604 98466,98518,98492
 2.8000e+000 98708 -8.0690e+000 -1.5163e+002 -3.0716e+001 36604 98466,98414,98682
 2.8000e+000 98731 -1.9036e+001 -1.6997e+002  7.3678e+000 36604 98754,98466,98682
 2.8000e+000 98780 -1.9153e+001 -1.6585e+002  9.3402e+000 36604 98336,98518,98754
 2.8000e+000 98803 -1.0235e+001 -1.6698e+002  9.8410e+000 36604 98336,98754,98682
 2.8000e+000 99309 -2.1142e+001 -8.1123e+001  1.4224e+001 36200 99332,99116,99012
 2.8000e+000 99286 -2.2622e+000 -4.9425e+000 -2.1616e+001 36200 99332,99012,98986
 2.8000e+000 99263 -3.5457e+000 -8.6630e+001 -2.0978e+000 36200 99012,99116,99064
 2.8000e+000 99240  1.9004e+001 -1.3917e+001  3.0914e+000 36200 98986,99168,99142
 2.8000e+000 99217 -1.8937e+001 -1.2303e+002  1.5571e+001 36200 99064,99116,99090
 2.8000e+000 99194 -2.7424e+001 -7.5148e+001 -2.2239e+001 36200 99012,99064,99038
 2.8000e+000 99358 -2.4072e+001 -1.3990e+002  4.9547e+001 36200 99142,99116,99332
 2.8000e+000 99381 -4.1077e+000 -8.4315e+001  6.7729e+000 36200 99142,99332,98986
 2.8000e+000 99887 -2.3059e+001 -1.0230e+002  5.1583e+000 35488 99564,99720,99590
 2.8000e+000 99864 -2.1512e+001 -9.4994e+001 -3.9918e+000 35488 99564,99746,99720
 2.8000e+000 99841 -1.2653e+001 -1.1718e+002 -1.5676e+001 35488 99642,99694,99668
 2.8000e+000 99818 -2.3260e+001 -1.4142e+002  1.6854e+001 35488 99590,99694,99642
 2.8000e+000 99795 -5.7232e+000 -1.0504e+002  9.9495e+000 35488 99590,99720,99694
 2.8000e+000 99772  3.9849e+001 -2.0569e+002  2.7518e+001 35488 99590,99642,99616
 2.8000e+000 99988  2.3993e+000 -1.3855e+001 -3.6991e+000 35198 99910,99962,99936
 2.8000e+000 100138  6.5724e+000 -1.0953e+002 -2.5497e+001 34794 100233,100161,100063
 2.8000e+000 100115 -7.7981e+001 -1.5014e+002  7.1371e+000 34794 100365,100161,100037
 2.8000e+000 100187  2.6218e+001 -1.2920e+002 -2.4183e+001 34794 100089,100063,100161
 2.8000e+000 100210 -1.0716e+000 -1.2358e+002 -1.7159e+001 34794 100089,100161,100011
 2.8000e+000 100259 -4.2821e+000 -1.4829e+002 -4.9136e+000 34794 100037,100161,100233
 2.8000e+000 100391 -3.2774e+000 -1.1839e+002 -5.4278e+000 34794 100011,100161,100365
 2.8000e+000 100927 -2.4750e+001 -1.0855e+002 -6.0550e-001 34404 100679,100809,100783
 2.8000e+000 100904 -2.8779e+000 -1.1920e+002 -1.3283e+000 34404 100653,100809,100679
 2.8000e+000 100881 -4.1571e+000 -1.0727e+002 -9.0088e-001 34404 100705,100783,100731
 2.8000e+000 100858 -1.3940e+001 -1.0499e+002  1.0413e+000 34404 100679,100783,100705
 2.8000e+000 100835 -4.6418e+001 -1.0332e+002 -5.9232e+001 34404 100731,100783,100757
 2.8000e+000 101354 -4.2070e+001 -2.1044e+002  2.5882e+001 34000 101377,101109,101057
 2.8000e+000 101331 -7.2981e+001 -2.1249e+002  3.4613e+001 34000 101449,101377,101057
 2.8000e+000 101308 -8.1825e+001 -1.7733e+002  3.6336e+001 34000 101449,101057,101031
 2.8000e+000 101285 -7.1955e+001 -1.5070e+002  3.5071e+001 34000 101031,101213,101187
 2.8000e+000 101262 -5.8953e+001 -2.2294e+002 -1.9146e+001 34000 101135,101187,101161
 2.8000e+000 101239 -7.2448e+001 -2.2090e+002  3.3251e+001 34000 101057,101109,101083
 2.8000e+000 101403 -4.4520e+001 -1.8077e+002  5.7685e+000 34000 101135,101109,101377
 2.8000e+000 101426 -8.8637e+001 -1.9882e+002  3.3723e+000 34000 101135,101377,101187
 2.8000e+000 101475 -5.0410e+001 -1.6773e+002  2.2835e+001 34000 101187,101377,101449
 2.8000e+000 101498 -7.4527e+001 -1.5188e+002  2.9353e+001 34000 101187,101449,101031
 2.8000e+000 102083  3.3975e+001 -7.4624e+001 -5.5933e+000 33472 102106,101812,101786
 2.8000e+000 102060 -1.7911e+001 -9.7077e+001 -2.2029e+000 33472 102106,101786,101916
 2.8000e+000 102037 -4.9837e+001 -9.0875e+001 -2.8557e+001 33472 101812,101864,101838
 2.8000e+000 102014 -2.1963e+001 -1.3001e+002 -1.8358e+001 33472 101864,101916,101890
 2.8000e+000 101991 -2.4823e+001 -1.2486e+002 -8.7284e+000 33472 101786,101942,101916
 2.8000e+000 101968 -3.7041e+001 -1.2596e+002  1.8323e+001 33472 101760,101942,101786
 2.8000e+000 102132  1.6042e+000 -7.3993e+001 -2.5917e+001 33472 101864,101812,102106
 2.8000e+000 102155 -1.5481e+001 -8.0272e+001 -2.6735e+001 33472 101864,102106,101916
 2.8000e+000 102612 -4.6331e+001 -1.6510e+002 -7.0464e+001 33038 102635,102468,102390
 2.8000e+000 102589 -8.3647e+001 -2.2460e+002 -9.2399e+001 33038 102635,102390,102364
 2.8000e+000 102566 -1.1669e+001 -1.4819e+002 -6.2282e+001 33038 102390,102468,102442
 2.8000e+000 102543 -2.8809e+001 -1.8219e+002 -4.1839e+001 33038 102338,102494,102364
 2.8000e+000 102520 -3.0508e+001 -1.4583e+002 -4.3629e+001 33038 102390,102442,102416
 2.8000e+000 102661 -4.5486e+001 -1.5072e+002 -3.6132e+001 33038 102494,102468,102635
 2.8000e+000 102684 -5.5454e+001 -1.8535e+002 -5.2355e+001 33038 102494,102635,102364
 2.8000e+000 103318 -1.4137e+001 -6.2732e+001  8.3191e+000 32402 102972,103128,103076
 2.8000e+000 103295 -1.6714e+001 -6.9738e+001  5.7073e+000 32402 102946,103128,102972
 2.8000e+000 103272 -6.9774e+000 -5.2411e+001  2.1401e+001 32402 103076,103128,103102
 2.8000e+000 103249 -9.1776e+000 -6.3363e+001  3.8327e+001 32402 102946,103154,103128
 2.8000e+000 103226 -2.4811e+001 -5.8120e+001  8.3771e-001 32402 102972,103076,102998
 2.8000e+000 103203 -5.6545e+000 -8.7478e+001 -2.2624e+001 32402 102998,103076,103050
 2.8000e+000 103180 -2.6165e+001 -4.1979e+001 -3.4850e+001 32402 102998,103050,103024
 2.8000e+000 103696 -7.0736e+001 -2.0198e+002 -3.9892e+000 31924 103448,103526,103500
 2.8000e+000 103673 -3.0326e+001 -1.9114e+002 -3.0775e+001 31924 103448,103578,103526
 2.8000e+000 103650 -4.9937e+001 -1.6610e+002 -1.4089e+001 31924 103448,103500,103474
 2.8000e+000 103627 -3.9680e+001 -2.2455e+002 -3.6831e+001 31924 103422,103578,103448
 2.8000e+000 103604 -5.5296e+001 -3.0891e+002 -1.1154e+000 31924 103526,103578,103552
 2.8000e+000 104281  5.9256e+000 -2.4989e+001 -2.3989e+001 31520 104304,104062,104036
 2.8000e+000 104258  1.8570e+001 -3.7593e+001 -2.5860e+001 31520 104304,104036,103984
 2.8000e+000 104235 -2.8948e+001 -7.7362e+001 -3.1407e+001 31520 104062,104114,104088
 2.8000e+000 104212  1.0069e+001 -4.4532e+001 -2.0241e+001 31520 103958,104114,103984
 2.8000e+000 104189  2.3996e+000 -7.3705e+001 -2.1006e-001 31520 103984,104036,104010
 2.8000e+000 104166 -7.1209e+000  2.2490e+001 -1.6534e+001 31520 103958,104140,104114
 2.8000e+000 104330 -1.3421e+000 -3.4150e+001 -1.9136e+001 31520 104114,104062,104304
 2.8000e+000 104353  9.7568e+000 -4.4200e+001 -2.2366e+001 31520 104114,104304,103984
 2.8000e+000 104704 -1.4067e+001 -2.0682e+001 -1.4856e+001 31066 104479,104583,104505
 2.8000e+000 104681  4.7551e+001  8.2443e+000 -2.4748e+001 31066 104479,104609,104583
 2.8000e+000 104658  6.1635e+000 -9.3879e+001 -7.0472e-002 31066 104505,104557,104531
 2.8000e+000 104635  9.9858e+000 -1.3460e+001 -1.2653e+001 31066 104505,104583,104557
 2.8000e+000 104925  6.2950e+001 -1.3050e+002 -1.4849e+001 30754 104775,104827,104801
 2.8000e+000 104902  1.6070e+001 -1.0412e+002  5.4783e+000 30754 104775,104853,104827
 2.8000e+000 104879  9.0168e+001 -7.1665e+001  1.6599e+001 30754 104749,104853,104775
 2.8000e+000 105482 -5.9898e+001 -1.2759e+002  2.2846e+001 30164 105505,105136,105110
 2.8000e+000 105459 -4.8177e+001 -1.3734e+002  2.5815e+001 30164 105649,105505,105110
 2.8000e+000 105436 -3.9593e+001 -1.4034e+002  2.0056e+001 30164 105577,105188,105136
 2.8000e+000 105413 -6.7860e+001 -1.4758e+002  3.7215e+001 30164 105649,105110,105318
 2.8000e+000 105390 -4.0146e+001 -2.4091e+002  6.1884e+001 30164 105214,105292,105240
 2.8000e+000 105367 -5.2391e+001 -2.5679e+002  7.0716e+001 30164 105240,105292,105266
 2.8000e+000 105344 -5.0071e+001 -1.3874e+002  2.0787e+001 30164 105136,105188,105162
 2.8000e+000 105531 -3.8977e+001 -1.4015e+002  1.9423e+001 30164 105577,105136,105505
 2.8000e+000 105554  1.3899e+001 -1.2819e+002  1.5415e+001 30164 105214,105505,105292
 2.8000e+000 105603 -3.9616e+001 -1.4111e+002  2.0601e+001 30164 105214,105188,105577
 2.8000e+000 105626 -3.9280e+001 -1.4109e+002  2.0000e+001 30164 105214,105577,105505
 2.8000e+000 105675 -4.1303e+001 -1.2482e+002  1.0619e+001 30164 105292,105505,105649
 2.8000e+000 105698 -4.3817e+001 -1.2115e+002  1.9971e+001 30164 105292,105649,105318
 2.8000e+000 106027  3.6121e+001 -6.6646e+001  1.6999e+001 29868 106322,106050,105880
 2.8000e+000 106004 -6.0204e+000 -6.9073e+001  3.5547e+000 29868 106250,106050,105828
 2.8000e+000 105981 -1.2785e+001 -7.6003e+001 -4.8625e+000 29868 106250,105828,105802
 2.8000e+000 105958  1.7313e+001 -4.9969e+001  3.4748e+001 29868 106322,105880,106122
 2.8000e+000 106076  9.4215e+000 -1.0070e+002 -6.0021e+000 29868 105906,105880,106050
 2.8000e+000 106099  1.0496e+000 -7.4384e+001 -1.0002e+001 29868 105906,106050,105932
 2.8000e+000 106148 -3.6785e+001 -1.0814e+002  1.8603e+001 29868 105854,105828,106122
 2.8000e+000 106276 -1.3800e+001 -7.6963e+001 -1.3800e+001 29868 105932,106050,106250
 2.8000e+000 106299 -3.7183e+001 -9.4276e+001 -2.4301e+001 29868 105932,106250,105802
 2.8000e+000 106348  1.7609e+000 -8.2775e+001  1.0666e+001 29868 105828,106050,106322
 2.8000e+000 106371 -1.3652e+001 -6.4241e+001  2.8569e+001 29868 105828,106322,106122
 2.8000e+000 106828  1.7078e+001 -5.4777e+001  9.2536e+000 29521 106580,106710,106684
 2.8000e+000 106805 -1.8728e+001 -7.6796e+001 -2.0746e+001 29521 106554,106710,106580
 2.8000e+000 106782 -1.2127e+001 -7.0134e+001  2.2108e+000 29521 106580,106684,106606
 2.8000e+000 106759 -2.3854e+001 -9.2341e+001 -2.9122e+000 29521 106606,106684,106658
 2.8000e+000 106736 -1.5469e+001 -5.4521e+001  1.1885e+001 29521 106606,106658,106632
 2.8000e+000 107027 -4.4325e+001 -1.3017e+002 -2.2659e+001 29117 106877,106929,106903
 2.8000e+000 107004  4.2204e+000 -1.0971e+002 -4.3772e+001 29117 106851,106929,106877
 2.8000e+000 106981 -2.2921e+001 -1.6968e+002 -2.8637e+001 29117 106851,106955,106929
 2.8000e+000 107456 -9.6075e+001 -2.1892e+002 -5.9828e+001 28656 107237,107315,107263
 2.8000e+000 107433 -8.3211e+000 -1.4886e+002 -2.7629e+001 28656 107133,107315,107237
 2.8000e+000 107410 -1.6003e+001 -1.2569e+002 -1.0863e+001 28656 107133,107237,107159
 2.8000e+000 107387 -8.3696e+000 -6.0577e+001 -2.5702e+001 28656 107159,107237,107185
 2.8000e+000 107364 -3.5741e+000 -4.9825e+001  3.2877e+000 28656 107185,107237,107211
 2.8000e+000 107341 -8.1693e-001 -2.3483e+001 -4.8878e+000 28656 107263,107315,107289
 2.8000e+000 107704 -5.5463e+000 -1.2009e+002 -4.8801e-001 27902 107727,107557,107531
 2.8000e+000 107681  3.4929e+000 -1.0510e+002  3.2858e+000 27902 107727,107531,107505
 2.8000e+000 107658 -2.9317e+001 -1.5203e+002 -9.8639e+000 27902 107557,107609,107583
 2.8000e+000 107635 -4.6512e+001 -9.7328e+001  9.3114e+000 27902 107479,107609,107505
 2.8000e+000 107753 -1.5777e+001 -1.0658e+002 -7.5075e+000 27902 107609,107557,107727
 2.8000e+000 107776 -8.4271e+000 -9.4555e+001 -4.4145e+000 27902 107609,107727,107505
 2.8000e+000 108333 -4.1777e+001 -2.3549e+002  1.5064e+000 27341 108356,108065,108013
 2.8000e+000 108310 -3.1309e+000 -2.0600e+002 -5.4680e+001 27341 108356,108013,108143
 2.8000e+000 108287 -8.7792e+001 -2.5751e+002 -1.1612e+001 27341 108428,108117,108091
 2.8000e+000 108264 -3.9670e+001 -2.1074e+002 -2.0259e+000 27341 108013,108065,108039
 2.8000e+000 108241 -9.1278e+001 -1.9046e+002 -6.4350e+001 27341 107987,108143,108013
 2.8000e+000 108218 -3.9263e+001 -1.6953e+002 -3.8054e+001 27341 107987,108169,108143
 2.8000e+000 108195 -4.6959e+001 -1.3035e+002 -3.1898e+001 27341 107961,108169,107987
 2.8000e+000 108382 -4.3588e+001 -2.3827e+002 -6.9841e-001 27341 108091,108065,108356
 2.8000e+000 108405 -8.4117e+001 -2.2620e+002 -1.1324e+001 27341 108428,108091,108356
 2.8000e+000 108454 -6.6594e+001 -3.6244e+002 -1.8091e+001 27341 108143,108117,108428
 2.8000e+000 108477 -4.2893e+001 -3.0159e+002 -2.5016e+001 27341 108143,108428,108356
 2.8000e+000 108725  4.5997e+001 -1.8911e+002  2.1614e+001 27029 108748,108526,108500
 2.8000e+000 108702  2.8382e+000 -1.2383e+002  4.6080e+001 27029 108748,108500,108630
 2.8000e+000 108679 -5.6694e+001 -1.4296e+002  2.5883e+001 27029 108578,108630,108604
 2.8000e+000 108656 -9.5770e+000 -1.8043e+002  4.0154e+001 27029 108526,108578,108552
 2.8000e+000 108774  6.3260e+000 -2.0058e+002  3.8321e-001 27029 108578,108526,108748
 2.8000e+000 108797 -6.0511e+001 -1.6041e+002  1.4413e+001 27029 108578,108748,108630
 2.8000e+000 109045  3.8268e+001 -1.0330e+002 -1.3983e-001 26610 108872,108924,108898
 2.8000e+000 109022 -1.8568e+001 -1.3028e+002 -1.1621e+001 26610 108872,108950,108924
 2.8000e+000 108999 -1.5416e+001 -1.2781e+002 -8.1553e+000 26610 108846,108950,108872
 2.8000e+000 108976 -1.8844e+001 -1.7678e+002 -1.7513e+001 26610 108820,108950,108846
 2.8000e+000 109366 -6.6913e+000 -2.3667e+002  1.0948e+001 26006 109144,109222,109196
 2.8000e+000 109343 -6.0891e+000 -2.5134e+002  6.0386e+000 26006 109118,109222,109144
 2.8000e+000 109320 -4.2875e+001 -2.7980e+002  2.5531e+001 26006 109092,109222,109118
 2.8000e+000 109297  3.2907e+001 -2.1604e+002 -2.3290e+001 26006 109144,109196,109170
 2.8000e+000 109274  7.6933e+000 -1.9999e+002  3.9313e+000 26006 109092,109248,109222
 2.8000e+000 109567 -4.7462e+001 -1.3106e+002 -2.9896e+001 25659 109391,109469,109443
 2.8000e+000 109544 -2.7999e+001 -1.3065e+002 -1.1077e+001 25659 109391,109495,109469
 2.8000e+000 109521 -2.3249e+001 -9.0982e+001 -4.0335e+001 25659 109391,109443,109417
 2.8000e+000 109900 -3.7645e+001 -1.2324e+002 -1.3644e+001 25255 109923,109779,109753
 2.8000e+000 109877 -3.4634e+001 -1.1605e+002 -1.3534e+001 25255 109923,109753,109701
 2.8000e+000 109854 -3.9541e+001 -9.2199e+001 -1.8746e+001 25255 109675,109805,109701
 2.8000e+000 109831 -5.9536e+001 -1.1949e+002 -1.1231e+001 25255 109701,109753,109727
 2.8000e+000 109949 -3.6508e+001 -1.3291e+002 -2.1080e+001 25255 109805,109779,109923
 2.8000e+000 109972 -3.0913e+001 -1.1985e+002 -2.1059e+001 25255 109805,109923,109701
 2.8000e+000 110220 -4.7774e+001 -1.4835e+002  1.9469e+001 24701 110243,110021,109995
 2.8000e+000 110197 -4.4068e+001 -1.4982e+002 -2.2447e+000 24701 110243,109995,110099
 2.8000e+000 110174 -2.5269e+001 -1.5787e+002 -3.1893e+000 24701 110315,110073,110047
 2.8000e+000 110151 -4.7358e+001 -1.5512e+002 -4.5875e-001 24701 109995,110125,110099
 2.8000e+000 110269 -7.0889e+000 -1.2776e+002  2.6491e+001 24701 110047,110021,110243
 2.8000e+000 110292 -5.6648e+001 -1.5451e+002  9.8780e+000 24701 110315,110047,110243
 2.8000e+000 110341  4.1330e+001 -1.3000e+002 -1.1598e+001 24701 110099,110073,110315
 2.8000e+000 110364 -6.0405e+000 -1.3353e+002 -3.0585e-001 24701 110099,110315,110243
 2.8000e+000 110661 -4.9152e+001 -2.0568e+002  1.0156e+001 24197 110684,110413,110387
 2.8000e+000 110638 -2.2177e+001 -1.7593e+002 -2.6021e+001 24197 110684,110387,110543
 2.8000e+000 110615  1.8307e+001 -2.8554e+002  1.1998e+001 24197 110756,110491,110465
 2.8000e+000 110592 -4.3651e+001 -1.5208e+002  1.3746e+001 24197 110413,110465,110439
 2.8000e+000 110569 -1.9319e+000 -4.1219e+002 -2.4115e+001 24197 110491,110543,110517
 2.8000e+000 110710 -2.9941e+000 -1.8374e+002  1.9045e+001 24197 110465,110413,110684
 2.8000e+000 110733 -3.5011e+001 -2.4495e+002 -2.6088e+000 24197 110756,110465,110684
 2.8000e+000 110782  6.3600e+001 -2.3995e+002 -1.4803e+001 24197 110543,110491,110756
 2.8000e+000 110805  2.8304e+001 -1.8154e+002 -3.3791e+001 24197 110543,110756,110684
 2.8000e+000 111315 -2.8119e+001 -1.8255e+002 -1.6182e+001 23593 111044,111148,111070
 2.8000e+000 111292 -4.8127e+001 -1.4608e+002  1.1108e+000 23593 111044,111174,111148
 2.8000e+000 111269 -5.9600e+000 -1.1649e+002 -5.2861e+000 23593 111070,111122,111096
 2.8000e+000 111246 -4.0073e+001 -1.8849e+002 -3.0630e+001 23593 111070,111148,111122
 2.8000e+000 111223 -6.4313e+001 -1.3041e+002 -2.1722e+001 23593 111018,111174,111044
 2.8000e+000 111200 -1.0933e+001 -1.5311e+002 -1.2825e+001 23593 110992,111174,111018
 2.8000e+000 111821  1.3208e+001 -2.1196e+002 -3.1982e+000 23089 111916,111844,111628
 2.8000e+000 111798 -5.1052e+001 -2.4769e+002 -4.1672e+001 23089 111844,111550,111524
 2.8000e+000 111775  1.6069e+001 -1.9169e+002 -2.2867e-001 23089 111916,111628,111602
 2.8000e+000 111752 -1.4752e+000 -3.4891e+002 -2.2593e+001 23089 111498,111680,111524
 2.8000e+000 111729  4.2296e+000 -1.4720e+002  2.4181e+001 23089 111550,111602,111576
 2.8000e+000 111706 -7.7373e-001 -1.2191e+002 -2.0064e+001 23089 111628,111680,111654
 2.8000e+000 111870  1.1277e+000 -1.9506e+002  1.4290e+001 23089 111680,111628,111844
 2.8000e+000 111893 -6.3660e+000 -2.1402e+002  1.3463e+000 23089 111680,111844,111524
 2.8000e+000 111942 -1.8111e+000 -1.8000e+002 -1.2110e+001 23089 111550,111844,111916
 2.8000e+000 111965  2.0830e-001 -1.6130e+002 -6.9343e+000 23089 111550,111916,111602
 2.8000e+000 112164  2.2847e+001 -1.0920e+002 -1.5493e+001 22626 112187,112014,111988
 2.8000e+000 112141  2.8781e-001 -1.4504e+002 -4.6557e+000 22626 112259,112187,111988
 2.8000e+000 112118 -3.7931e+000 -1.5736e+002  1.2651e+001 22626 112259,111988,112092
 2.8000e+000 112213  4.4788e+000 -5.8046e+001 -8.2192e+000 22626 112040,112014,112187
 2.8000e+000 112236 -2.1691e+001 -1.1243e+002 -2.9704e-001 22626 112040,112187,112066
 2.8000e+000 112285  2.6133e+000 -1.1683e+002 -1.1816e+001 22626 112066,112187,112259
 2.8000e+000 112308  4.3209e+000 -1.2503e+002  3.9672e+000 22626 112066,112259,112092
 2.8000e+000 112605 -2.8045e+001 -1.7358e+002 -1.1065e+000 22286 112628,112383,112357
 2.8000e+000 112582 -2.3459e+001 -1.7562e+002  3.8333e+000 22286 112772,112628,112357
 2.8000e+000 112559 -3.0568e+001 -2.0581e+002  1.3368e+001 22286 112700,112435,112409
 2.8000e+000 112536 -4.9857e+001 -1.8251e+002  5.4603e+000 22286 112772,112357,112331
 2.8000e+000 112513 -9.6569e+001 -2.0525e+002  2.4512e+001 22286 112435,112487,112461
 2.8000e+000 112654 -1.5684e+001 -1.3204e+002 -1.5463e+000 22286 112409,112383,112628
 2.8000e+000 112677 -1.9162e+001 -1.8046e+002  1.1010e+001 22286 112700,112409,112628
 2.8000e+000 112726 -2.3707e+001 -1.9053e+002 -4.3334e+000 22286 112487,112435,112700
 2.8000e+000 112749 -2.1292e+001 -1.8594e+002 -5.5045e+000 22286 112487,112700,112628
 2.8000e+000 112798 -1.2494e+001 -1.7749e+002 -7.2346e-001 22286 112487,112628,112772
 2.8000e+000 112821 -1.8093e+001 -1.7147e+002  2.0272e+000 22286 112487,112772,112331
 2.8000e+000 112924  9.0969e-001 -5.8020e-001  8.1654e-001 21974 112846,112898,112872
 2.8000e+000 113223 -8.6066e+001 -2.3669e+002  3.2964e+001 21420 112949,113053,112975
 2.8000e+000 113200 -7.2722e+001 -1.8923e+002  3.0862e+001 21420 112949,113079,113053
 2.8000e+000 113177  6.4732e+001 -1.9204e+002  6.4424e+001 21420 112975,113053,113001
 2.8000e+000 113154 -1.3214e+002 -2.7617e+002  3.7743e+001 21420 113001,113053,113027
 2.8000e+000 113131 -1.1156e+002 -1.7831e+002  1.7577e+001 21420 112949,113105,113079
 2.8000e+000 113605 -2.9728e+001 -2.4982e+002  6.5549e+001 20716 113331,113435,113357
 2.8000e+000 113582 -3.6651e+001 -1.5020e+002  7.0161e+001 20716 113331,113461,113435
 2.8000e+000 113559 -1.0653e+001 -2.4417e+002 -2.4795e+001 20716 113383,113435,113409
 2.8000e+000 113536 -6.5477e+001 -2.1721e+002 -1.6467e+001 20716 113357,113435,113383
 2.8000e+000 113513 -4.9798e+000 -3.9199e+001 -1.3546e+001 20716 113331,113487,113461
 2.8000e+000 113853  1.6545e+001 -2.0709e+002  5.8147e+000 20290 113876,113680,113654
 2.8000e+000 113830  4.0382e+001 -2.0339e+002  6.3269e+000 20290 113876,113654,113628
 2.8000e+000 113807 -8.4734e+000 -2.3931e+002 -1.1275e+001 20290 113948,113732,113680
 2.8000e+000 113784  5.0811e+001 -2.3504e+002 -2.8684e+001 20290 113680,113732,113706
 2.8000e+000 113902  1.4396e+001 -2.0546e+002  7.4873e+000 20290 113948,113680,113876
 2.8000e+000 113925  5.9421e+000 -1.7766e+002  5.2737e+000 20290 113758,113876,113628
 2.8000e+000 113974 -3.1483e+001 -2.0713e+002 -2.2212e+001 20290 113758,113732,113948
 2.8000e+000 113997 -2.8457e+001 -2.0236e+002 -8.7652e+000 20290 113758,113948,113876
 2.8000e+000 114365 -2.4319e+001 -2.1309e+002  7.0412e-001 19900 114146,114198,114172
 2.8000e+000 114342 -2.5326e+001 -2.1348e+002  1.0072e+000 19900 114042,114198,114146
 2.8000e+000 114319 -2.6811e+001 -2.0825e+002  2.5959e+000 19900 114042,114224,114198
 2.8000e+000 114296 -8.2130e+001 -2.0324e+002 -3.4450e+000 19900 114094,114146,114120
 2.8000e+000 114273 -2.7770e+001 -1.9511e+002 -1.2925e+001 19900 114042,114146,114094
 2.8000e+000 114250 -7.7515e+001 -2.0648e+002 -3.8572e+000 19900 114042,114094,114068
 2.8000e+000 114566 -6.8642e+001 -2.1618e+002 -1.3591e+000 19496 114442,114494,114468
 2.8000e+000 114543 -8.6126e+001 -1.9966e+002 -1.0233e+001 19496 114416,114494,114442
 2.8000e+000 114520 -7.4514e+001 -2.0584e+002 -1.6746e+001 19496 114390,114494,114416
 2.8000e+000 114767 -3.6483e+000 -2.1243e+002  8.1163e+000 19042 114790,114669,114643
 2.8000e+000 114744 -5.5032e+000 -2.0687e+002  1.0550e+001 19042 114790,114643,114591
 2.8000e+000 114721  1.8881e+001 -2.0814e+002  4.2205e+001 19042 114591,114643,114617
 2.8000e+000 114816 -9.2071e+000 -2.0660e+002  5.9392e+000 19042 114695,114669,114790
 2.8000e+000 114839 -6.5927e+000 -1.9593e+002  9.5186e+000 19042 114695,114790,114591
 2.8000e+000 114991 -8.9148e+001 -2.4030e+002 -4.8813e-001 18488 114864,114916,114890
 2.8000e+000 114968 -6.6294e+001 -2.4179e+002 -7.1222e+000 18488 114864,114942,114916
 2.8000e+000 115192  9.3700e+001 -1.6266e+002  1.3958e+001 18098 115215,115042,115016
 2.8000e+000 115169  4.6636e+001 -1.3684e+002 -3.8843e+000 18098 115215,115016,115120
 2.8000e+000 115146  6.6428e+001 -1.5820e+002 -2.4899e+001 18098 115287,115094,115068
 2.8000e+000 115241  5.9090e+001 -2.3667e+002 -1.9726e+000 18098 115068,115042,115215
 2.8000e+000 115264  6.4730e+001 -1.5440e+002 -8.5387e+000 18098 115287,115068,115215
 2.8000e+000 115313  4.2914e+001 -1.6651e+002 -2.2770e+001 18098 115120,115094,115287
 2.8000e+000 115336  3.3643e+001 -1.6588e+002 -7.2039e+000 18098 115120,115287,115215
 2.8000e+000 115846  4.9759e+001 -2.7948e+002 -8.0377e+001 17644 115653,115705,115679
 2.8000e+000 115823 -2.0227e+001 -2.5245e+002 -3.7426e+001 17644 115627,115705,115653
 2.8000e+000 115800  4.4466e+001 -1.7794e+002 -6.5611e-001 17644 115549,115705,115627
 2.8000e+000 115777 -3.4285e+000 -2.3845e+002  2.2517e+001 17644 115549,115627,115575
 2.8000e+000 115754  3.4575e+001 -1.6944e+002  1.6832e+001 17644 115523,115705,115549
 2.8000e+000 115731 -8.1719e+001 -2.2204e+002 -4.7181e+000 17644 115575,115627,115601
 2.8000e+000 116067 -7.5373e+001 -3.7371e+002 -1.2872e+001 17116 115891,115943,115917
 2.8000e+000 116044 -1.3875e+002 -4.2784e+002  1.0433e+001 17116 115891,115995,115943
 2.8000e+000 116021 -1.2984e+002 -3.5748e+002  9.8654e+000 17116 115943,115995,115969
 2.8000e+000 116288  2.6415e+001 -2.4332e+002  5.5455e+001 16704 116164,116216,116190
 2.8000e+000 116265 -2.8180e+001 -3.2406e+002  3.1761e+001 16704 116112,116216,116164
 2.8000e+000 116242 -1.3651e+002 -3.2834e+002 -3.5301e+000 16704 116112,116164,116138
 2.8000e+000 116489 -2.5865e+001 -2.1321e+002 -8.5494e+000 16434 116339,116417,116365
 2.8000e+000 116466 -4.5307e+001 -2.1734e+002 -1.0618e+000 16434 116313,116417,116339
 2.8000e+000 116443 -1.4294e+002 -2.7741e+002  7.5836e+001 16434 116365,116417,116391
 2.8000e+000 116592  8.0733e+000 -2.4570e+002 -2.0455e+001 15967 116514,116566,116540
 2.8000e+000 116695 -2.5270e+001 -3.7052e+002 -5.0688e+001 15552 116617,116669,116643
 2.8000e+000 116798 -2.1440e+001 -2.0046e+002  0.0000e+000 421 116720,116772,116746
 2.9000e+000 69066  1.3864e+000 -3.3516e+002 -1.9727e+001 68738 68965,69017,68991
 2.9000e+000 69043  8.4975e+001 -3.2094e+002  7.4402e+002 68738 68939,69017,68965
 2.9000e+000 69371 -8.9549e+000 -7.2203e+001 -2.5550e+001 68426 69172,69250,69198
 2.9000e+000 69348  1.5014e+000 -1.3434e+002  8.6527e+000 68426 69146,69250,69172
 2.9000e+000 69325 -3.3081e+000 -2.3304e+001  1.1087e+001 68426 69198,69250,69224
 2.9000e+000 69302 -4.1492e+001 -1.1289e+002  5.8203e+000 68426 69146,69276,69250
 2.9000e+000 69521  1.8682e+000 -6.3300e+001 -1.3155e+001 68228 69420,69472,69446
 2.9000e+000 69498 -1.1709e+001 -4.2945e+001 -3.4439e+001 68228 69394,69472,69420
 2.9000e+000 69781 -1.2220e+001  1.3774e+001  1.0295e+001 68030 69631,69683,69657
 2.9000e+000 69758  3.5573e+000 -2.8926e+001 -7.7101e+000 68030 69631,69709,69683
 2.9000e+000 69735 -6.8024e-001  8.7756e+000  2.1783e+001 68030 69605,69709,69631
 2.9000e+000 70078 -1.8993e+000  1.3180e+001 -7.3829e+000 67832 69882,69934,69908
 2.9000e+000 70055  1.1220e+000 -1.1352e+001  6.7309e+000 67832 69856,69934,69882
 2.9000e+000 70032  5.1426e+000 -1.6815e+001 -9.9677e-001 67832 69830,69934,69856
 2.9000e+000 70009  3.0995e+000 -2.1661e+001 -7.9675e+000 67832 69804,69934,69830
 2.9000e+000 69986 -1.2845e+001  2.4465e+001  1.5051e+001 67832 69804,69960,69934
 2.9000e+000 70586 -7.5493e+000 -6.0674e+001  1.4199e+001 67634 70609,70419,70341
 2.9000e+000 70563  8.9504e-002 -8.2885e+001  2.1464e+001 67634 70681,70609,70341
 2.9000e+000 70540 -3.7056e+000 -8.4388e+001  2.1160e+001 67634 70681,70341,70315
 2.9000e+000 70517 -1.9415e+001 -6.5125e+001  2.8792e+001 67634 70341,70419,70367
 2.9000e+000 70494 -1.7002e+001  1.9619e+000  1.3340e+000 67634 70263,70445,70289
 2.9000e+000 70471 -5.4822e+000 -8.5953e+000  1.5208e+001 67634 70367,70419,70393
 2.9000e+000 70635  7.0226e-001  1.3902e+000  1.2081e+001 67634 70445,70419,70609
 2.9000e+000 70658 -1.9149e+001 -6.8042e+001  2.2508e+001 67634 70445,70609,70289
 2.9000e+000 70707 -5.1554e-001 -7.9006e+001  1.2621e+001 67634 70289,70609,70681
 2.9000e+000 70730 -1.0602e+001 -8.3269e+001  1.3090e+001 67634 70289,70681,70315
 2.9000e+000 71108 -1.0755e+001 -7.6125e+001  3.5506e+001 67344 71131,70912,70886
 2.9000e+000 71085 -7.3561e+000 -6.8537e+001  3.6493e+001 67344 71131,70886,70860
 2.9000e+000 71062 -2.3838e+001 -8.6389e+001  3.1104e+001 67344 71203,70938,70912
 2.9000e+000 71039  3.2265e+001 -6.5534e+001  1.1572e+001 67344 70834,70990,70860
 2.9000e+000 71016 -1.6996e+001 -1.0623e+002  9.7904e+000 67344 70938,70990,70964
 2.9000e+000 71157 -2.3162e+001 -7.0169e+001  3.3570e+001 67344 71203,70912,71131
 2.9000e+000 71180  2.1325e+000 -5.5678e+001  1.5286e+001 67344 70990,71131,70860
 2.9000e+000 71229 -1.7779e+001 -1.1611e+002  2.4173e+001 67344 70990,70938,71203
 2.9000e+000 71252 -1.4682e+001 -9.4138e+001  2.2682e+001 67344 70990,71203,71131
 2.9000e+000 71603  3.4619e+000 -6.6713e+001  9.3308e+000 67032 71378,71482,71404
 2.9000e+000 71580  1.0805e+001 -4.6760e+001  1.5229e+001 67032 71378,71508,71482
 2.9000e+000 71557  1.9867e+000 -3.7451e+001  2.5737e+001 67032 71404,71456,71430
 2.9000e+000 71534 -2.7220e+000 -8.1006e+001  9.9747e+000 67032 71404,71482,71456
 2.9000e+000 72003  1.9284e+001 -3.4860e+001  1.6962e+001 66834 71755,71859,71781
 2.9000e+000 71980  8.1322e+000 -1.1481e+002  4.0166e+000 66834 71755,71885,71859
 2.9000e+000 71957  7.4285e+000 -1.9893e+001  9.7406e+000 66834 71781,71833,71807
 2.9000e+000 71934 -1.1852e+001 -1.2871e+002 -5.5583e+000 66834 71781,71859,71833
 2.9000e+000 71911  3.0643e+001 -4.3268e+001  5.1944e+001 66834 71729,71885,71755
 2.9000e+000 72430  2.1390e+001 -8.4208e+001 -3.7010e+000 66266 72237,72289,72263
 2.9000e+000 72407  1.4852e+001 -1.0314e+002  1.0458e+001 66266 72133,72289,72237
 2.9000e+000 72384 -3.3777e+000 -7.4828e+001  4.8779e+000 66266 72133,72237,72211
 2.9000e+000 72361 -2.6471e+001 -1.2522e+002  2.1529e+000 66266 72107,72289,72133
 2.9000e+000 72338 -2.9476e+001 -1.4500e+002  4.5850e+001 66266 72133,72211,72185
 2.9000e+000 72315 -9.1548e+000 -1.5455e+002  4.6763e+001 66266 72133,72185,72159
 2.9000e+000 72580 -2.0491e+001 -1.4716e+002  1.5645e+001 65968 72479,72531,72505
 2.9000e+000 72557  3.9925e+000 -8.0962e+001  6.9949e+000 65968 72453,72531,72479
 2.9000e+000 72960  1.1510e+001 -2.5500e+001  1.0941e+001 65621 72983,72738,72712
 2.9000e+000 72937  4.7127e+001 -8.0453e+001  9.2438e+000 65621 72983,72712,72686
 2.9000e+000 72914 -4.5629e+000 -1.4765e+002  1.1645e+001 65621 72738,72842,72764
 2.9000e+000 72891  2.0947e+000 -1.3937e+002  2.7920e+000 65621 72764,72842,72816
 2.9000e+000 72868 -1.0220e+002 -4.0182e+002  6.9784e+001 65621 72764,72816,72790
 2.9000e+000 73009  1.9674e+001 -6.7599e+001  1.9297e+001 65621 72842,72738,72983
 2.9000e+000 73032  1.8746e+001 -1.6997e+002  2.3825e+001 65621 72842,72983,72686
 2.9000e+000 73361  2.0313e+001 -2.3639e+002  2.7432e+000 65281 73456,73384,73188
 2.9000e+000 73338 -1.3239e+001 -2.1848e+002  3.6982e+001 65281 73384,73162,73136
 2.9000e+000 73315  1.5961e+001 -1.5893e+002 -2.1036e+001 65281 73188,73240,73214
 2.9000e+000 73292 -2.9949e+000 -5.2546e+001 -1.2324e+001 65281 73136,73266,73240
 2.9000e+000 73410 -2.8530e+001 -2.2900e+002  2.6043e+000 65281 73240,73188,73384
 2.9000e+000 73433 -1.7325e+001 -7.1288e+001  1.6408e+001 65281 73240,73384,73136
 2.9000e+000 73482 -8.5040e+000 -3.3598e+002 -1.9438e+001 65281 73162,73384,73456
 2.9000e+000 73711 -6.8951e+000  1.6723e+001 -4.6717e+001 64820 73734,73610,73584
 2.9000e+000 73688 -2.1659e+001 -1.8452e+001 -4.4584e+001 64820 73734,73584,73662
 2.9000e+000 73760  1.5991e+001  3.2244e+001  6.4215e-001 64820 73636,73610,73734
 2.9000e+000 73783 -4.6224e+001 -6.1355e+000 -2.2197e+001 64820 73806,73734,73662
 2.9000e+000 73832 -1.9553e+001 -3.2505e+001 -1.4588e+001 64820 73636,73734,73806
 2.9000e+000 74112  1.9015e+001 -5.3387e+001 -2.0334e+001 64622 74278,74135,73988
 2.9000e+000 74089  2.7959e+000 -8.6020e+001  3.3675e+000 64622 74135,73936,74040
 2.9000e+000 74066  2.0712e+001 -5.2050e+001 -4.3275e+001 64622 74278,73988,73962
 2.9000e+000 74161 -1.9853e+001 -7.3924e+001 -1.1919e+001 64622 74014,73988,74135
 2.9000e+000 74184 -2.2490e+000 -7.9715e+001 -7.6082e-001 64622 74207,74135,74040
 2.9000e+000 74233  5.9178e+000 -6.3439e+001 -8.0827e+000 64622 74014,74135,74207
 2.9000e+000 74304 -2.7040e-001 -9.9515e+001 -4.1348e+000 64622 73936,74135,74278
 2.9000e+000 74327  1.4621e+001 -8.6126e+001 -2.9339e+001 64622 73936,74278,73962
 2.9000e+000 74526  2.2846e+001  3.5209e+000 -3.1810e+000 64424 74621,74549,74402
 2.9000e+000 74503 -9.2998e+000 -5.1540e+001  1.0383e+001 64424 74549,74350,74454
 2.9000e+000 74480  3.1566e+001  2.0878e+001 -2.8161e+001 64424 74621,74402,74376
 2.9000e+000 74575  3.5641e+001 -4.3682e+001  1.0754e+001 64424 74428,74402,74549
 2.9000e+000 74598  8.6909e+000 -7.3119e+001  1.7024e+001 64424 74693,74549,74454
 2.9000e+000 74647  3.6005e-001 -3.6645e+001  1.6995e+001 64424 74350,74549,74621
 2.9000e+000 74670  1.0877e+001 -2.4676e+001 -8.8690e+000 64424 74350,74621,74376
 2.9000e+000 74719  9.0362e+000 -8.9722e+001 -4.9367e+000 64424 74428,74549,74693
 2.9000e+000 75123 -4.3150e+001 -2.6290e+002  4.9974e+001 64126 74875,74953,74927
 2.9000e+000 75100 -2.2079e+001 -2.4369e+002  3.0588e+001 64126 74875,74979,74953
 2.9000e+000 75077 -2.0409e+001 -1.5415e+002  1.3055e+000 64126 74875,75005,74979
 2.9000e+000 75054 -1.0590e+001 -3.2271e+002  8.4462e+001 64126 74875,74927,74901
 2.9000e+000 75031 -5.9038e+001 -7.3847e+001  3.5558e+001 64126 74849,75005,74875
 2.9000e+000 75224  1.6680e+001 -1.7760e+002  2.8703e+001 63836 75146,75198,75172
 2.9000e+000 75472 -4.4546e+000 -1.1223e+002  3.3226e+001 63375 75273,75351,75325
 2.9000e+000 75449 -2.5481e+001 -1.0924e+002  1.8452e+001 63375 75273,75377,75351
 2.9000e+000 75426 -2.9295e+001 -1.2284e+002  8.6095e+000 63375 75247,75377,75273
 2.9000e+000 75403  8.6076e+000 -6.4521e+001  3.2850e+001 63375 75273,75325,75299
 2.9000e+000 75673  2.5526e+001 -1.1054e+002  2.0897e+001 63063 75523,75575,75549
 2.9000e+000 75650  2.1291e+001 -1.5514e+002 -1.2705e+000 63063 75497,75575,75523
 2.9000e+000 75627  1.4678e+001 -1.6893e+002  2.2377e+001 63063 75497,75601,75575
 2.9000e+000 75874  3.2148e+001 -2.0536e+002 -1.3627e+001 62716 75897,75750,75724
 2.9000e+000 75851  6.7421e+000 -1.6792e+002 -4.0374e+000 62716 75897,75724,75698
 2.9000e+000 75828  9.1550e+000 -1.1802e+002 -5.2818e+001 62716 75698,75802,75776
 2.9000e+000 75923  7.0701e+001 -1.6134e+002 -3.2565e+001 62716 75776,75750,75897
 2.9000e+000 75946  1.8022e+001 -1.4926e+002 -1.0058e+001 62716 75776,75897,75698
 2.9000e+000 76328 -2.1244e+001 -1.9008e+002 -1.5112e+001 62198 76495,76351,76158
 2.9000e+000 76305 -4.4219e+001 -1.8682e+002 -8.2209e+000 62198 76351,76080,76054
 2.9000e+000 76282 -6.0773e+000 -2.5645e+002 -2.2222e+001 62198 76423,76184,76158
 2.9000e+000 76259 -2.7032e+001 -1.8995e+002 -1.2715e+001 62198 76495,76158,76106
 2.9000e+000 76236 -5.7751e+001 -2.2892e+002  5.0272e+000 62198 76106,76158,76132
 2.9000e+000 76377 -2.9499e+001 -2.0848e+002 -2.7773e+001 62198 76423,76158,76351
 2.9000e+000 76400 -4.2336e+001 -1.6460e+002 -2.7877e+001 62198 76210,76351,76054
 2.9000e+000 76449  1.9413e+001 -2.1019e+002 -3.2587e+001 62198 76210,76184,76423
 2.9000e+000 76472 -2.3083e+000 -1.6930e+002 -4.1294e+001 62198 76210,76423,76351
 2.9000e+000 76521 -3.2690e+001 -1.8251e+002 -8.6833e+000 62198 76080,76351,76495
 2.9000e+000 76544 -4.7663e+001 -1.9379e+002 -2.8719e+000 62198 76080,76495,76106
 2.9000e+000 76841 -1.0466e+001 -1.8550e+002  6.0054e+000 61751 76936,76864,76645
 2.9000e+000 76818  3.9682e+001 -1.6939e+002 -5.4011e+001 61751 76864,76567,76723
 2.9000e+000 76795  1.7939e+000 -1.3373e+002  4.0331e+000 61751 76936,76645,76593
 2.9000e+000 76772 -1.7913e+002 -3.8661e+002  6.5827e+001 61751 77008,76697,76671
 2.9000e+000 76749 -1.2370e+001 -9.4247e+001 -3.5352e+001 61751 76593,76645,76619
 2.9000e+000 76890 -2.5098e+001 -2.2345e+002  1.8690e+001 61751 76671,76645,76864
 2.9000e+000 76913 -5.8629e+001 -2.2812e+002  7.7398e+000 61751 77008,76671,76864
 2.9000e+000 76962  1.5911e+001 -2.5472e+002 -2.0173e+001 61751 76567,76864,76936
 2.9000e+000 76985  2.4463e+001 -2.1140e+002 -1.6375e+001 61751 76567,76936,76593
 2.9000e+000 77034 -3.7264e+000 -2.7633e+002 -4.7625e+001 61751 76723,76697,77008
 2.9000e+000 77057 -1.4522e+001 -2.9674e+002 -4.3067e+001 61751 76723,77008,76864
 2.9000e+000 77207 -5.8802e+000 -9.5579e+001  3.6021e+001 61418 77106,77158,77132
 2.9000e+000 77184  4.0589e+001 -1.5099e+002  4.4293e+001 61418 77080,77158,77106
 2.9000e+000 77638 -3.4264e+001 -2.0557e+002 -2.9754e+001 60814 77733,77661,77471
 2.9000e+000 77615  2.2614e+001 -1.9077e+002 -2.9603e+001 60814 77661,77393,77315
 2.9000e+000 77592 -6.8802e+001 -1.5567e+002 -5.5445e+000 60814 77733,77471,77445
 2.9000e+000 77569 -5.1217e+001 -3.1850e+002 -2.2325e+001 60814 77315,77367,77341
 2.9000e+000 77546 -3.7370e+001 -3.1034e+002 -7.2682e+000 60814 77315,77393,77367
 2.9000e+000 77523 -6.3674e+001 -1.3698e+002  1.3431e+001 60814 77393,77445,77419
 2.9000e+000 77687 -6.0165e+000 -1.9296e+002 -3.5248e+001 60814 77497,77471,77661
 2.9000e+000 77710 -2.2518e+001 -2.3109e+002 -8.2181e+000 60814 77497,77661,77315
 2.9000e+000 77759  6.1630e+000 -1.3788e+002 -4.7755e+001 60814 77393,77661,77733
 2.9000e+000 77782 -4.1905e+001 -1.0585e+002 -1.6584e+001 60814 77393,77733,77445
 2.9000e+000 78337 -1.3207e+001 -1.1297e+002  2.0308e+001 60210 78360,78017,77965
 2.9000e+000 78314 -2.1504e+000 -1.1276e+002  1.4095e+001 60210 78360,77965,78173
 2.9000e+000 78291 -1.4095e+000 -1.4267e+002 -1.8890e+001 60210 78432,78043,78017
 2.9000e+000 78268 -2.5924e+001 -1.3533e+002  1.4551e+001 60210 77965,78017,77991
 2.9000e+000 78245  7.7061e+000 -5.5508e+001 -9.5635e+000 60210 78043,78095,78069
 2.9000e+000 78222 -2.4608e+001 -1.7643e+002  3.0466e+001 60210 78095,78173,78121
 2.9000e+000 78199  4.2768e+001 -1.1837e+002 -1.5402e+001 60210 78121,78173,78147
 2.9000e+000 78386 -1.0160e+001 -1.3738e+002  1.2083e+001 60210 78432,78017,78360
 2.9000e+000 78409  9.6726e+000 -1.0425e+002  1.9663e+001 60210 78095,78360,78173
 2.9000e+000 78458  1.4731e+001 -1.0147e+002 -2.2075e+001 60210 78095,78043,78432
 2.9000e+000 78481  1.1113e+001 -8.6958e+001  7.5598e+000 60210 78095,78432,78360
 2.9000e+000 78680 -3.4543e+001 -1.4197e+002 -9.4953e-002 59848 78703,78556,78530
 2.9000e+000 78657 -3.5483e+001 -1.5824e+002 -1.6873e+001 59848 78703,78530,78504
 2.9000e+000 78634 -3.7988e+001 -1.8881e+002 -1.7604e+001 59848 78504,78608,78582
 2.9000e+000 78729 -2.8585e+001 -1.7522e+002  1.4764e+000 59848 78582,78556,78703
 2.9000e+000 78752 -2.9997e+001 -1.8094e+002 -2.1211e+001 59848 78582,78703,78504
 2.9000e+000 78951 -3.5288e+001 -1.0497e+002 -1.4739e+001 59344 78974,78801,78775
 2.9000e+000 78928 -6.1224e+001 -1.7549e+002 -3.7172e+001 59344 79046,78974,78775
 2.9000e+000 78905 -5.5126e+001 -2.3576e+002 -3.4012e+001 59344 79046,78775,78879
 2.9000e+000 79000 -1.0483e+001 -8.3109e+001  2.9142e+001 59344 78827,78801,78974
 2.9000e+000 79023 -4.4923e+001 -9.9693e+001 -7.7970e+000 59344 78827,78974,78853
 2.9000e+000 79072 -7.1525e+001 -1.0614e+002 -1.4021e+001 59344 78853,78974,79046
 2.9000e+000 79095 -4.7005e+001 -1.4437e+002 -7.5328e+000 59344 78853,79046,78879
 2.9000e+000 79296  2.6681e+001 -1.7309e+002 -9.7853e+000 58711 79319,79172,79146
 2.9000e+000 79273  3.7973e+001 -1.5540e+002 -3.1793e+000 58711 79319,79146,79120
 2.9000e+000 79250  1.0743e+001 -1.7630e+002  4.6492e+001 58711 79172,79224,79198
 2.9000e+000 79345  1.5133e+001 -1.5242e+002 -9.3478e+000 58711 79224,79172,79319
 2.9000e+000 79368  2.0962e+001 -1.3912e+002 -5.5820e+000 58711 79224,79319,79120
 2.9000e+000 79667  7.6183e+000 -1.1198e+002 -6.7296e+000 58285 79690,79471,79393
 2.9000e+000 79644  1.1001e+001 -1.4008e+002 -1.9070e+001 58285 79690,79393,79549
 2.9000e+000 79621  4.2141e+001 -1.6292e+002  2.8006e+001 58285 79393,79471,79419
 2.9000e+000 79598  9.9717e+000 -9.7390e+001 -6.4406e-001 58285 79497,79549,79523
 2.9000e+000 79575 -3.5832e+001 -3.1572e+002  6.3519e+001 58285 79419,79471,79445
 2.9000e+000 79716  1.2120e+001 -8.6349e+001  8.2926e+000 58285 79497,79471,79690
 2.9000e+000 79739  1.4479e+001 -1.2620e+002 -2.9230e-002 58285 79497,79690,79549
 2.9000e+000 80249  2.6794e+001 -3.6294e+001  5.0781e+000 57831 80272,79978,79952
 2.9000e+000 80226  6.5005e+000 -3.7017e+001 -5.5115e+000 57831 80272,79952,80108
 2.9000e+000 80203  1.3222e+001 -8.4847e+001 -2.9520e+001 57831 79926,80108,79952
 2.9000e+000 80180 -9.3805e+000 -7.0778e+001 -3.3761e+000 57831 80004,80082,80030
 2.9000e+000 80157 -1.6723e+001 -5.5919e+001 -1.4144e+001 57831 80004,80108,80082
 2.9000e+000 80134 -6.2302e+000 -7.5948e+001 -1.0335e+001 57831 80030,80082,80056
 2.9000e+000 80298  1.7644e+001 -4.8690e+001 -1.2979e+001 57831 80004,79978,80272
 2.9000e+000 80321 -7.1254e+000 -3.9616e+001 -1.8653e+001 57831 80004,80272,80108
 2.9000e+000 80618 -4.5993e+001 -1.9253e+002  2.8718e+001 57077 80344,80448,80422
 2.9000e+000 80595 -2.7521e+001 -1.7368e+002  1.0038e+001 57077 80344,80500,80448
 2.9000e+000 80572 -2.8651e+000 -1.1544e+002  3.6791e+000 57077 80344,80422,80370
 2.9000e+000 80549 -4.4817e+001 -1.2162e+002  1.6316e+001 57077 80370,80422,80396
 2.9000e+000 80526 -6.6586e+001 -2.9367e+002  3.2239e+001 57077 80448,80500,80474
 2.9000e+000 80768 -1.5429e+001 -6.0725e+001 -5.6962e+000 56787 80791,80693,80667
 2.9000e+000 80745 -2.2281e+001 -6.0245e+001 -2.2947e+000 56787 80791,80667,80641
 2.9000e+000 80817 -1.0312e+001 -5.9867e+001 -1.0320e+001 56787 80719,80693,80791
 2.9000e+000 80840 -2.6324e+001 -5.4055e+001 -1.2014e+001 56787 80719,80791,80641
 2.9000e+000 81429 -4.0691e+001 -7.0522e+001  7.6345e+000 56497 81452,81158,81132
 2.9000e+000 81406  4.9294e+000 -5.3212e+001 -7.2687e+000 56497 81452,81132,81288
 2.9000e+000 81383 -2.4677e+001 -8.5802e+001  3.5434e+000 56497 81524,81184,81158
 2.9000e+000 81360  5.5284e+000 -2.1141e+002  6.0956e+001 56497 81210,81288,81236
 2.9000e+000 81337  1.0171e+001 -1.3315e+001  4.2710e+001 56497 81106,81288,81132
 2.9000e+000 81314 -5.4952e+001 -3.5644e+001  3.9921e+001 56497 81236,81288,81262
 2.9000e+000 81478 -1.0762e+001 -7.1134e+001 -5.9450e+000 56497 81524,81158,81452
 2.9000e+000 81501  5.3938e+001 -7.6492e+001  2.2686e+000 56497 81210,81452,81288
 2.9000e+000 81550 -2.6456e+001 -1.0133e+002  2.4885e+001 56497 81210,81184,81524
 2.9000e+000 81573 -8.9902e+000 -9.1558e+001  1.5119e+001 56497 81210,81524,81452
 2.9000e+000 81870 -1.7941e+001 -9.1305e+001  9.6515e+000 55979 81893,81674,81648
 2.9000e+000 81847 -2.9221e+001 -9.6875e+001  7.1020e+000 55979 81893,81648,81752
 2.9000e+000 81824 -2.0012e+001 -1.2002e+002  1.0242e+001 55979 81596,81752,81648
 2.9000e+000 81801 -1.7823e+000 -4.0071e+001 -5.6805e+000 55979 81674,81726,81700
 2.9000e+000 81778 -6.8002e+000 -8.9495e+001  1.2555e+001 55979 81596,81648,81622
 2.9000e+000 81919 -1.1147e+001 -9.5361e+001 -3.8939e-001 55979 81726,81674,81893
 2.9000e+000 81942 -2.7299e+001 -1.0369e+002 -3.7350e+000 55979 81726,81893,81752
 2.9000e+000 82371 -6.0434e+001 -8.6578e+001 -1.7680e+001 55631 82100,82204,82152
 2.9000e+000 82348 -1.4875e+001 -1.3920e+002 -4.0756e+001 55631 82100,82230,82204
 2.9000e+000 82325 -5.7846e+001 -9.9629e+001  1.3220e+001 55631 82100,82152,82126
 2.9000e+000 82302 -6.4089e+001 -2.5261e+002 -3.5405e+001 55631 82074,82230,82100
 2.9000e+000 82279 -8.4300e+001 -1.3744e+002 -8.9439e+000 55631 82152,82204,82178
 2.9000e+000 82256 -8.2330e+000 -1.1469e+002 -9.6306e+000 55631 82048,82230,82074
 2.9000e+000 82521  4.5517e+001 -7.5052e+001 -1.3246e+000 55227 82544,82420,82394
 2.9000e+000 82498  4.3454e+001 -1.0061e+002  2.1238e+000 55227 82544,82394,82472
 2.9000e+000 82570  3.5719e+001 -5.4831e+001 -6.5725e-001 55227 82446,82420,82544
 2.9000e+000 82593  3.6424e+001 -7.4320e+001  9.5031e+000 55227 82446,82544,82472
 2.9000e+000 82875  1.9246e+001  1.5929e+001  1.2897e+001 54979 82699,82777,82725
 2.9000e+000 82852  1.8672e+001 -5.2969e+001  1.8940e+001 54979 82699,82803,82777
 2.9000e+000 82829 -1.5102e+000 -6.1949e+000  2.6074e+000 54979 82725,82777,82751
 2.9000e+000 83204 -2.4548e+001 -5.1679e+001 -2.5567e+001 54475 83005,83083,83057
 2.9000e+000 83181 -4.4974e+001 -7.5309e+001 -9.8271e+000 54475 82979,83083,83005
 2.9000e+000 83158 -2.0827e+001 -7.2002e+001 -3.0065e+001 54475 83005,83057,83031
 2.9000e+000 83135 -2.9067e+001 -3.8509e+001 -2.4267e+001 54475 82979,83109,83083
 2.9000e+000 83582 -2.7840e+001 -9.8889e+001 -5.0037e+000 54071 83605,83438,83412
 2.9000e+000 83559 -2.8891e+001 -1.0688e+002 -8.5033e+000 54071 83749,83605,83412
 2.9000e+000 83536 -5.7647e+001 -1.3923e+002  2.3508e+001 54071 83677,83360,83334
 2.9000e+000 83513 -2.6077e+001 -1.1169e+002 -8.9871e+000 54071 83749,83412,83677
 2.9000e+000 83490 -2.0728e+001 -1.0119e+002 -7.1673e+000 54071 83308,83464,83334
 2.9000e+000 83631 -2.2525e+001 -9.8481e+001 -6.4491e-001 54071 83464,83438,83605
 2.9000e+000 83654 -2.4621e+001 -9.8439e+001 -4.8192e+000 54071 83464,83605,83334
 2.9000e+000 83703 -1.3454e+001 -1.0648e+002  4.5404e+000 54071 83386,83360,83677
 2.9000e+000 83726 -1.8357e+001 -9.4150e+001 -1.8325e+001 54071 83386,83677,83412
 2.9000e+000 83775 -2.6100e+001 -9.8385e+001 -5.1302e+000 54071 83334,83605,83749
 2.9000e+000 83798 -2.3266e+001 -1.0361e+002 -5.2926e+000 54071 83334,83749,83677
 2.9000e+000 84068 -4.2946e+000 -6.3015e+000 -1.3330e+001 53524 83869,83921,83895
 2.9000e+000 84045  2.0272e+000 -6.8325e+001  3.6184e+000 53524 83869,83947,83921
 2.9000e+000 84022 -1.8310e+001 -9.3428e+001 -5.3865e+000 53524 83843,83947,83869
 2.9000e+000 83999  8.8702e+000 -9.0602e+001 -4.9259e+000 53524 83843,83973,83947
 2.9000e+000 84497 -4.4979e+001 -1.9831e+002  6.6091e+000 53184 84200,84330,84252
 2.9000e+000 84474 -2.8076e+001 -1.3311e+002  2.7054e+001 53184 84200,84356,84330
 2.9000e+000 84451  2.4241e+000 -1.6091e+002  2.8290e+001 53184 84200,84252,84226
 2.9000e+000 84428 -1.7464e+001 -1.3492e+002 -5.3126e+001 53184 84252,84330,84278
 2.9000e+000 84405 -1.9647e+001 -1.2167e+002  9.5101e+000 53184 84174,84356,84200
 2.9000e+000 84382  1.3292e+000 -1.3572e+002 -9.9892e+000 53184 84278,84330,84304
 2.9000e+000 84954  1.6594e+001 -9.3821e+001  6.1746e+001 52680 84706,84836,84784
 2.9000e+000 84931 -8.5951e+000 -6.4390e+001 -6.6744e+001 52680 84680,84836,84706
 2.9000e+000 84908 -9.8442e+000 -3.4099e+002  3.9034e+000 52680 84784,84836,84810
 2.9000e+000 84885  2.1809e+001 -3.7870e+002 -1.7974e+000 52680 84706,84784,84732
 2.9000e+000 84862  5.7088e+001 -3.2113e+002 -6.0100e+001 52680 84732,84784,84758
 2.9000e+000 85202 -2.5427e+001 -1.8247e+002 -8.8457e+000 52226 85029,85081,85055
 2.9000e+000 85179 -1.9220e+001 -1.3782e+002  3.5103e+000 52226 85225,85081,85029
 2.9000e+000 85156 -6.0533e+000 -1.0485e+002  2.5008e+001 52226 85225,85029,85003
 2.9000e+000 85133 -5.3805e+001 -1.2370e+002 -2.6577e+001 52226 84977,85107,85003
 2.9000e+000 85251 -3.5133e+001 -1.4461e+002 -3.0146e+001 52226 85107,85081,85225
 2.9000e+000 85274 -3.9969e+001 -7.8336e+001 -1.3479e+001 52226 85107,85225,85003
 2.9000e+000 85522  1.0059e+001 -1.5348e+002  1.1992e+001 51764 85297,85349,85323
 2.9000e+000 85499  4.1890e+001 -1.2961e+002  1.0074e+001 51764 85545,85297,85427
 2.9000e+000 85476  6.8474e+000 -8.6086e+001 -7.7477e+000 51764 85545,85427,85375
 2.9000e+000 85453  1.4778e+001 -8.4078e+001 -1.6307e+001 51764 85375,85427,85401
 2.9000e+000 85571  5.4731e+001 -1.0363e+002 -8.7298e+000 51764 85349,85297,85545
 2.9000e+000 85594  3.7229e+001 -4.4407e+001 -3.0208e+001 51764 85349,85545,85375
 2.9000e+000 85746 -5.9290e+001 -1.2995e+002  8.7386e+000 51374 85645,85697,85671
 2.9000e+000 85723 -7.3770e+001 -1.3697e+002 -4.9858e+000 51374 85619,85697,85645
 2.9000e+000 86256  9.0668e+000 -3.5681e+001  6.2765e+000 50970 86279,86011,85959
 2.9000e+000 86233  2.3208e+001 -9.7671e+000 -2.1058e+000 50970 86279,85959,86115
 2.9000e+000 86210 -1.1986e+001 -8.5727e+001  4.3336e+000 50970 85959,86011,85985
 2.9000e+000 86187  4.9427e+001 -4.0020e+001  3.4681e+001 50970 86037,86115,86089
 2.9000e+000 86164  5.0522e+001  8.0803e+000  4.5009e+001 50970 85933,86115,85959
 2.9000e+000 86141 -3.2521e+001 -8.1295e+001  2.1301e-001 50970 86037,86089,86063
 2.9000e+000 86305  3.1692e+001 -7.1288e+001  7.8535e+000 50970 86037,86011,86279
 2.9000e+000 86328  4.8371e+001 -4.2458e+001 -1.3924e+000 50970 86037,86279,86115
 2.9000e+000 86478 -6.7253e+001 -2.5846e+002  3.0739e+001 50451 86351,86403,86377
 2.9000e+000 86455 -1.4922e+002 -7.6525e+002 -2.0719e+000 50451 86351,86429,86403
 2.9000e+000 86907 -4.3614e+001 -1.2169e+002 -1.3989e+001 50047 86930,86714,86662
 2.9000e+000 86884 -2.4990e+001 -1.3605e+002 -1.2472e+001 50047 86930,86662,86610
 2.9000e+000 86861  9.8067e+000 -1.3269e+002 -3.7389e+001 50047 87002,86740,86714
 2.9000e+000 86838  1.6696e+001 -9.5512e+001 -1.7877e+001 50047 86662,86714,86688
 2.9000e+000 86815 -3.3623e+001 -1.4707e+002 -2.5272e+000 50047 86610,86662,86636
 2.9000e+000 86792  9.2513e+000 -1.3030e+002  1.3089e+001 50047 86584,86766,86610
 2.9000e+000 86956 -2.3694e+001 -1.2449e+002 -1.6099e+001 50047 87002,86714,86930
 2.9000e+000 86979 -5.1424e+001 -1.5872e+002 -2.8318e+000 50047 86766,86930,86610
 2.9000e+000 87028 -4.0373e+001 -1.3777e+002 -3.3524e+001 50047 86766,86740,87002
 2.9000e+000 87051 -5.4354e+001 -1.3473e+002 -1.9403e+001 50047 86766,87002,86930
 2.9000e+000 87250 -1.8200e+000 -1.6563e+002 -3.0281e+001 49543 87273,87126,87100
 2.9000e+000 87227 -6.2703e+000 -1.3462e+002 -7.3862e+000 49543 87273,87100,87074
 2.9000e+000 87204 -1.2102e+001 -1.1999e+002 -4.4342e+001 49543 87126,87178,87152
 2.9000e+000 87299  1.6449e+001 -1.1865e+002 -3.3099e+001 49543 87178,87126,87273
 2.9000e+000 87322 -5.9054e-001 -1.1453e+002 -5.3473e+000 49543 87178,87273,87074
 2.9000e+000 87570 -5.2363e+001 -1.2115e+002  2.1046e+001 49146 87593,87449,87397
 2.9000e+000 87547 -4.5566e+001 -9.9129e+001  3.3082e+001 49146 87593,87397,87371
 2.9000e+000 87524 -6.0138e+001 -4.1960e+001  3.5023e+001 49146 87345,87475,87371
 2.9000e+000 87501 -1.7704e+001 -1.1923e+002  2.4498e+001 49146 87397,87449,87423
 2.9000e+000 87619 -6.7481e+001 -1.1644e+002  4.5347e+000 49146 87475,87449,87593
 2.9000e+000 87642 -5.7832e+001 -1.0240e+002  1.6309e+001 49146 87475,87593,87371
 2.9000e+000 88073  2.7417e+001 -5.8785e+001 -1.2921e+001 48706 87854,87932,87880
 2.9000e+000 88050  6.1871e+000 -5.8258e+001  6.8770e+000 48706 87828,87932,87854
 2.9000e+000 88027  1.1012e+001 -6.0475e+001  9.8636e+000 48706 87750,87932,87828
 2.9000e+000 88004 -8.4764e+000 -8.8899e+001 -6.0566e+001 48706 87750,87802,87776
 2.9000e+000 87981  2.1542e+001 -1.2138e+002 -3.5069e+001 48706 87750,87828,87802
 2.9000e+000 87958 -8.8476e+000 -7.5563e+001 -8.7888e+000 48706 87880,87932,87906
 2.9000e+000 88402 -3.8150e+001 -1.8940e+002 -9.0550e+000 48145 88203,88281,88255
 2.9000e+000 88379 -6.0733e+001 -1.9320e+002  1.1651e+001 48145 88203,88307,88281
 2.9000e+000 88356 -3.8597e+001 -1.6050e+002 -1.3601e+001 48145 88203,88255,88229
 2.9000e+000 88333 -4.5693e+001 -2.0585e+002  3.6856e+001 48145 88177,88307,88203
 2.9000e+000 88601  3.5295e+001 -1.4935e+002  4.4525e+001 47805 88696,88624,88477
 2.9000e+000 88578 -3.3096e+001 -1.5030e+002  8.0708e+000 47805 88826,88624,88451
 2.9000e+000 88555 -4.1191e+001 -1.5260e+002  9.9405e+000 47805 88826,88451,88425
 2.9000e+000 88650  1.2284e+001 -1.9814e+002  1.9373e+001 47805 88503,88477,88624
 2.9000e+000 88673  4.3605e+000 -1.7674e+002  1.4198e+000 47805 88503,88624,88529
 2.9000e+000 88722 -7.4175e+001 -1.8634e+002  2.4745e+001 47805 88451,88624,88696
 2.9000e+000 88852 -2.8493e+001 -1.4941e+002 -1.3811e+000 47805 88529,88624,88826
 2.9000e+000 88875 -3.7345e+001 -1.5232e+002  5.8028e-001 47805 88529,88826,88425
 2.9000e+000 89172 -7.7543e+000 -8.7752e+001 -1.4987e+001 47401 89195,88976,88898
 2.9000e+000 89149 -1.8701e+001 -9.1192e+001 -2.3890e+001 47401 89195,88898,89054
 2.9000e+000 89126 -1.6070e+001 -7.4617e+001 -1.7959e+001 47401 88898,88976,88950
 2.9000e+000 89103 -2.0754e+001 -1.1955e+002 -3.7042e+001 47401 88976,89028,89002
 2.9000e+000 89080 -1.5911e+001 -7.3468e+001 -1.6878e+001 47401 88898,88950,88924
 2.9000e+000 89221 -3.5082e+000 -9.3384e+001 -2.9329e+001 47401 89028,88976,89195
 2.9000e+000 89244 -2.7816e+001 -1.0067e+002 -3.8227e+001 47401 89028,89195,89054
 2.9000e+000 89575 -1.6426e+000 -2.3046e+002  2.3181e+001 47111 89350,89454,89376
 2.9000e+000 89552  3.0787e+001 -2.0459e+002  1.1583e+001 47111 89350,89480,89454
 2.9000e+000 89529  2.3994e+001 -2.6049e+002 -1.1377e+001 47111 89376,89454,89402
 2.9000e+000 89506  7.9742e+001 -1.4759e+002  1.1982e+001 47111 89402,89454,89428
 2.9000e+000 89904  1.9786e+001 -6.0647e+001 -1.0564e+001 46707 89705,89757,89731
 2.9000e+000 89881 -2.7156e+000 -9.3211e+001  6.4640e+000 46707 89705,89783,89757
 2.9000e+000 89858 -3.7544e+001 -1.0231e+002  2.1380e+001 46707 89679,89783,89705
 2.9000e+000 89835 -1.6946e+000 -1.0634e+002  1.9234e+000 46707 89679,89809,89783
 2.9000e+000 90233  1.3328e+001 -8.2669e+001 -1.7905e+001 46360 90034,90112,90086
 2.9000e+000 90210 -2.2728e+001 -8.1241e+001 -7.1913e+000 46360 90034,90138,90112
 2.9000e+000 90187 -1.0238e+001 -7.4600e+001 -1.6507e+001 46360 90034,90086,90060
 2.9000e+000 90164 -2.2653e+001 -1.0482e+002  4.8962e+000 46360 90008,90138,90034
 2.9000e+000 90530  1.6446e+001 -1.1291e+002 -9.5174e-001 45662 90256,90360,90308
 2.9000e+000 90507 -1.3424e+001 -1.3035e+002  6.2028e+000 45662 90256,90412,90360
 2.9000e+000 90484  1.2274e+001 -1.2945e+002 -2.6058e-001 45662 90256,90308,90282
 2.9000e+000 90461  1.3370e+001 -6.1057e+001  6.8637e+000 45662 90360,90412,90386
 2.9000e+000 90438 -3.6129e+001 -1.1941e+002 -8.6680e-001 45662 90308,90360,90334
 2.9000e+000 90910 -2.3558e+001 -7.7122e+001 -1.1080e+001 45108 90688,90766,90714
 2.9000e+000 90887  1.0536e+001 -1.0361e+002  2.0686e+001 45108 90662,90766,90688
 2.9000e+000 90864 -5.8828e+001 -9.8570e+001  2.5673e+001 45108 90636,90766,90662
 2.9000e+000 90841  2.6848e+001 -1.2572e+002 -4.9645e+001 45108 90714,90766,90740
 2.9000e+000 90818 -4.8214e+001 -1.2652e+002  3.9512e+001 45108 90636,90792,90766
 2.9000e+000 91158 -3.4511e+001 -1.3028e+002 -1.1924e+001 44604 91181,91011,90959
 2.9000e+000 91135 -4.2982e+001 -1.4491e+002 -2.3106e+001 44604 91181,90959,90933
 2.9000e+000 91112 -4.5137e+001 -1.6247e+002  6.5013e+000 44604 90959,91011,90985
 2.9000e+000 91089 -4.8018e-001 -1.7916e+002 -2.0137e+001 44604 90933,91063,91037
 2.9000e+000 91207 -1.8000e+001 -1.5286e+002 -2.5323e+001 44604 91037,91011,91181
 2.9000e+000 91230 -4.0621e+001 -1.8980e+002 -3.7701e+001 44604 91037,91181,90933
 2.9000e+000 91429  8.1655e-002 -1.8396e+002 -9.9681e+000 44264 91452,91279,91253
 2.9000e+000 91406 -5.1802e+000 -1.8451e+002 -7.7791e+000 44264 91452,91253,91357
 2.9000e+000 91383 -3.5899e+001 -1.5547e+002  2.9745e+001 44264 91279,91331,91305
 2.9000e+000 91478 -4.9652e+000 -1.7914e+002 -1.1433e+001 44264 91331,91279,91452
 2.9000e+000 91501 -1.3496e+001 -1.8190e+002 -9.7711e+000 44264 91331,91452,91357
 2.9000e+000 92060 -9.6469e+001 -2.0148e+002 -2.1707e+000 43860 92083,91740,91688
 2.9000e+000 92037 -5.3387e+001 -2.0863e+002  1.6661e+001 43860 92083,91688,91896
 2.9000e+000 92014 -8.4462e+001 -2.4286e+002  1.5643e+000 43860 91766,91870,91844
 2.9000e+000 91991 -4.9232e+001 -1.9115e+002  1.6926e+001 43860 91740,91870,91766
 2.9000e+000 91968 -4.8734e+000 -2.0947e+002  8.7495e+000 43860 91766,91844,91792
 2.9000e+000 91945 -8.5925e+001 -2.1349e+002 -1.7405e+001 43860 91688,91740,91714
 2.9000e+000 91922 -3.2227e+001 -2.3414e+002 -1.5750e+000 43860 91792,91844,91818
 2.9000e+000 92109 -6.0415e+001 -1.9318e+002  1.7437e+001 43860 91870,91740,92083
 2.9000e+000 92132 -1.4552e+001 -1.9257e+002  3.9258e+001 43860 91870,92083,91896
 2.9000e+000 92353 -1.8661e-001 -1.3355e+002 -1.2016e+001 43662 92203,92255,92229
 2.9000e+000 92330 -1.7694e+001 -1.3439e+002 -5.3735e+000 43662 92376,92203,92281
 2.9000e+000 92307  1.4930e+001 -7.0947e+001  9.0063e+000 43662 92177,92281,92203
 2.9000e+000 92402 -5.6574e+001 -1.5085e+002  3.7892e+000 43662 92255,92203,92376
 2.9000e+000 92682 -1.6219e+001 -2.5463e+002 -2.4395e+001 43464 92532,92584,92558
 2.9000e+000 92659 -1.9818e+001 -1.7789e+002  2.7508e+000 43464 92506,92584,92532
 2.9000e+000 92636 -3.5509e+001 -1.6325e+002 -2.1716e+001 43464 92506,92610,92584
 2.9000e+000 93013  1.6359e+001 -1.3214e+002 -3.8583e+001 42960 92866,92918,92892
 2.9000e+000 92990 -1.7827e+001 -1.4843e+002 -1.2715e+001 42960 93036,92918,92866
 2.9000e+000 92967  6.3776e+000 -1.7133e+002  1.4929e+000 42960 93036,92866,92840
 2.9000e+000 92944 -2.3682e+000 -1.2155e+002  4.0506e+000 42960 92788,92918,92814
 2.9000e+000 93062 -5.1264e+000 -1.4064e+002 -3.6728e+000 42960 92814,92918,93036
 2.9000e+000 93085  4.1840e+001 -1.4339e+002  1.5031e+001 42960 92814,93036,92840
 2.9000e+000 93186 -3.4669e+001 -1.8272e+002 -3.0209e+001 42556 93108,93160,93134
 2.9000e+000 93554 -2.5647e+001 -2.2052e+002  4.9134e+000 42052 93231,93387,93361
 2.9000e+000 93531 -3.2970e+001 -2.0354e+002  3.9592e+001 42052 93231,93413,93387
 2.9000e+000 93508 -1.7870e+001 -1.6487e+002 -6.4116e+000 42052 93231,93361,93257
 2.9000e+000 93485 -2.2937e+001 -1.5117e+002  2.0305e+001 42052 93283,93361,93335
 2.9000e+000 93462 -4.6811e+001 -1.6098e+002  7.4204e+000 42052 93257,93361,93283
 2.9000e+000 93439  2.5327e+000 -1.3367e+002 -1.1212e+001 42052 93283,93335,93309
 2.9000e+000 94162  1.0056e+001 -1.0951e+002  2.6450e+000 41498 93767,93975,93793
 2.9000e+000 94139  1.1914e-001 -1.1310e+002  6.5779e+000 41498 93741,93975,93767
 2.9000e+000 94116 -1.2515e+001 -9.2204e+001  5.2462e+000 41498 93793,93975,93923
 2.9000e+000 94093 -3.0830e+001 -1.3512e+002  1.8372e+001 41498 93923,93975,93949
 2.9000e+000 94070 -7.6479e+000 -5.0712e+001 -5.1622e+000 41498 93871,93923,93897
 2.9000e+000 94047 -4.4995e+000 -7.7362e+001 -7.3446e+000 41498 93793,93923,93871
 2.9000e+000 94024 -2.9029e+000 -5.2566e+001 -1.1744e+001 41498 93819,93871,93845
 2.9000e+000 94001 -9.8171e+000 -6.1856e+001 -1.9281e+000 41498 93793,93871,93819
 2.9000e+000 94619 -3.5071e+001 -1.5196e+002 -4.1574e+001 40930 94642,94423,94371
 2.9000e+000 94596 -1.6902e+000 -1.5207e+002 -2.8158e+000 40930 94642,94371,94345
 2.9000e+000 94573  1.1765e+001 -5.1808e+001  8.4736e+000 40930 94345,94501,94475
 2.9000e+000 94550  1.7681e+001 -1.8946e+002 -5.4952e+001 40930 94371,94423,94397
 2.9000e+000 94527 -2.6634e+000 -8.2407e+001 -2.3394e+001 40930 94423,94475,94449
 2.9000e+000 94668 -3.0926e+000 -8.8939e+001 -2.8813e+001 40930 94475,94423,94642
 2.9000e+000 94691  9.9631e+000 -1.2841e+002  4.3531e+000 40930 94475,94642,94345
 2.9000e+000 95148 -6.5532e+001 -1.6692e+002  3.8867e+001 40362 95171,94952,94926
 2.9000e+000 95125 -5.0565e+001 -1.5696e+002  5.3594e+001 40362 95171,94926,95004
 2.9000e+000 95102 -8.2770e+001 -1.8378e+002  4.2100e+001 40362 94874,95004,94926
 2.9000e+000 95079 -2.4362e+001 -1.8367e+002  7.8878e+001 40362 94874,95030,95004
 2.9000e+000 95056 -8.7853e+001 -1.9423e+002  4.3894e+001 40362 94874,94926,94900
 2.9000e+000 95197 -5.0084e+001 -1.5463e+002  4.6913e+001 40362 94978,94952,95171
 2.9000e+000 95220 -3.7849e+001 -1.4652e+002  6.1259e+001 40362 94978,95171,95004
 2.9000e+000 95549 -4.5602e+001 -1.0594e+002  3.4194e+000 39586 95350,95402,95376
 2.9000e+000 95526 -1.2156e+001 -7.1874e+001 -1.2878e+001 39586 95324,95402,95350
 2.9000e+000 95503 -2.6741e+001 -5.1876e+001  1.9611e+001 39586 95324,95454,95402
 2.9000e+000 95480 -5.8374e+000 -1.5019e+002  3.1673e+001 39586 95402,95454,95428
 2.9000e+000 96055 -1.3045e+001 -5.6810e+001 -5.2682e+000 38968 96078,95862,95810
 2.9000e+000 96032 -3.8630e+000 -5.4915e+001 -1.6805e+000 38968 96078,95810,95758
 2.9000e+000 96009 -1.0588e+001 -1.0061e+002 -1.9685e+001 38968 96150,95732,95888
 2.9000e+000 95986  8.0394e-001 -3.3718e+001  1.7672e+001 38968 95810,95862,95836
 2.9000e+000 95963 -4.2000e+000 -9.8328e+001 -1.9450e+001 38968 95732,95914,95888
 2.9000e+000 95940 -3.2192e+001 -5.3782e+001  2.5069e+001 38968 95758,95810,95784
 2.9000e+000 96104  1.1025e+001 -6.1197e+001  3.1841e+000 38968 95888,95862,96078
 2.9000e+000 96127 -1.3280e+001 -9.2637e+001 -8.2171e+000 38968 96150,95888,96078
 2.9000e+000 96176 -1.5043e+001 -7.2949e+001 -1.3320e+001 38968 95758,95732,96150
 2.9000e+000 96199 -1.0844e+001 -5.8220e+001 -6.9557e-001 38968 95758,96150,96078
 2.9000e+000 96545  2.4321e+001 -1.3317e+002 -1.9473e+001 38507 96640,96568,96352
 2.9000e+000 96522 -4.1308e+001 -2.0943e+002  4.2746e+001 38507 96568,96300,96222
 2.9000e+000 96499  7.4810e+001 -8.5187e+001 -7.7914e+001 38507 96640,96352,96326
 2.9000e+000 96476 -3.5309e+000 -1.8633e+002 -4.8610e+001 38507 96352,96404,96378
 2.9000e+000 96453 -9.5540e+001 -2.2948e+002  8.1579e+000 38507 96222,96300,96248
 2.9000e+000 96430 -7.2100e+001 -2.7376e+002 -2.9761e+001 38507 96248,96300,96274
 2.9000e+000 96594 -4.5435e+001 -1.8305e+002  2.7768e+000 38507 96404,96352,96568
 2.9000e+000 96617 -4.0513e+000 -1.6339e+002  2.4900e+001 38507 96404,96568,96222
 2.9000e+000 96666 -1.5479e+001 -2.1482e+002  3.3351e+001 38507 96300,96568,96640
 2.9000e+000 96689 -2.5964e-001 -1.8302e+002 -1.9317e+001 38507 96300,96640,96326
 2.9000e+000 97069  1.0239e+001 -3.8114e+001  3.2803e+000 37760 97092,96873,96821
 2.9000e+000 97046  4.5766e-001 -4.2898e+001  9.4590e+000 37760 97092,96821,96795
 2.9000e+000 97023 -3.5318e+001 -2.9175e+001  6.5969e+000 37760 96821,96873,96847
 2.9000e+000 97000  2.1196e+001  1.1917e+001 -1.1832e+001 37760 96873,96925,96899
 2.9000e+000 96977  5.1310e+000 -2.9525e+001 -1.2992e+001 37760 96795,96951,96925
 2.9000e+000 97118  1.9945e+001 -2.6371e+001 -1.1794e+001 37760 96925,96873,97092
 2.9000e+000 97141 -9.4324e+000 -3.9847e+001 -4.3739e+000 37760 96925,97092,96795
 2.9000e+000 97647 -8.1415e+001 -1.7996e+002  2.2618e+001 37356 97324,97480,97376
 2.9000e+000 97624 -1.4197e+001 -1.8939e+002  8.2484e+001 37356 97324,97506,97480
 2.9000e+000 97601 -5.6768e+001 -9.8912e+001  4.3176e+001 37356 97376,97480,97454
 2.9000e+000 97578 -6.8840e+001 -1.6993e+002  1.4108e+001 37356 97324,97376,97350
 2.9000e+000 97555 -5.3232e+001 -1.0654e+002  2.4899e+001 37356 97376,97454,97402
 2.9000e+000 97532 -5.5173e+001 -8.9809e+001  2.6537e+001 37356 97402,97454,97428
 2.9000e+000 98232 -6.4684e+000 -3.1339e+001 -9.8083e+000 36902 97935,98065,98013
 2.9000e+000 98209  2.0473e+001 -2.6946e+001 -1.4126e+001 36902 97935,98091,98065
 2.9000e+000 98186  1.0273e+001 -3.0642e+001 -7.5518e+000 36902 97935,98013,97987
 2.9000e+000 98163  4.9496e+000 -4.5510e+000 -1.9471e+001 36902 97909,98091,97935
 2.9000e+000 98140  9.5005e+000  3.6196e+000  3.2543e+000 36902 97935,97987,97961
 2.9000e+000 98117 -1.1724e+001 -4.9705e+001 -4.2749e+000 36902 98013,98065,98039
 2.9000e+000 98659 -1.8738e+001 -2.1578e+002 -2.8982e+001 36604 98682,98414,98388
 2.9000e+000 98636 -3.1850e+001 -2.0899e+002  2.7131e+001 36604 98682,98388,98336
 2.9000e+000 98613 -1.6777e+001 -1.7660e+002  1.2713e+001 36604 98754,98518,98466
 2.9000e+000 98590 -3.3757e+000 -6.4144e+001 -2.4376e+001 36604 98414,98466,98440
 2.9000e+000 98567 -2.1833e+001 -2.5988e+002  2.6309e+001 36604 98336,98388,98362
 2.9000e+000 98544  2.5934e+000 -2.2171e+002  9.7416e+001 36604 98466,98518,98492
 2.9000e+000 98708  4.0156e+000 -1.4993e+002 -4.1127e+001 36604 98466,98414,98682
 2.9000e+000 98731 -1.3923e+001 -1.7709e+002  1.1894e+001 36604 98754,98466,98682
 2.9000e+000 98780 -1.3461e+001 -1.7779e+002  1.2970e+001 36604 98336,98518,98754
 2.9000e+000 98803 -9.4550e+000 -1.7741e+002  1.2804e+001 36604 98336,98754,98682
 2.9000e+000 99309 -3.6425e+001 -9.4865e+001  1.0329e+001 36200 99332,99116,99012
 2.9000e+000 99286 -1.7083e+001 -1.0718e+001 -2.9239e+001 36200 99332,99012,98986
 2.9000e+000 99263 -2.0951e+001 -9.5796e+001 -3.0601e+000 36200 99012,99116,99064
 2.9000e+000 99240  5.0510e+000 -2.1485e+001 -2.9068e+000 36200 98986,99168,99142
 2.9000e+000 99217 -4.0742e+001 -1.3841e+002  1.7510e+001 36200 99064,99116,99090
 2.9000e+000 99194 -4.5701e+001 -8.2363e+001 -2.4182e+001 36200 99012,99064,99038
 2.9000e+000 99358 -4.0046e+001 -1.5936e+002  4.8257e+001 36200 99142,99116,99332
 2.9000e+000 99381 -2.0007e+001 -9.8313e+001  9.3062e-001 36200 99142,99332,98986
 2.9000e+000 99887 -2.6225e+001 -1.0640e+002  5.2835e+000 35488 99564,99720,99590
 2.9000e+000 99864 -2.2532e+001 -9.6022e+001  1.0898e+000 35488 99564,99746,99720
 2.9000e+000 99841 -7.8722e+000 -1.1649e+002 -1.4266e+001 35488 99642,99694,99668
 2.9000e+000 99818 -2.1017e+001 -1.4119e+002  1.7522e+001 35488 99590,99694,99642
 2.9000e+000 99795 -1.1057e-002 -1.0505e+002  8.7383e+000 35488 99590,99720,99694
 2.9000e+000 99772  3.7580e+001 -2.0589e+002  2.6925e+001 35488 99590,99642,99616
 2.9000e+000 99988  1.1926e+001 -1.9684e+001 -1.3372e+000 35198 99910,99962,99936
 2.9000e+000 100138  1.9690e+000 -9.3553e+001 -2.6678e+001 34794 100233,100161,100063
 2.9000e+000 100115 -7.9935e+001 -1.3933e+002 -1.2968e+000 34794 100365,100161,100037
 2.9000e+000 100187  2.7219e+001 -1.2498e+002 -2.3593e+001 34794 100089,100063,100161
 2.9000e+000 100210  6.7215e-001 -1.2704e+002 -2.1488e+001 34794 100089,100161,100011
 2.9000e+000 100259 -3.9129e+000 -1.2258e+002 -3.1689e+000 34794 100037,100161,100233
 2.9000e+000 100391 -4.3622e+000 -1.2483e+002 -5.3193e+000 34794 100011,100161,100365
 2.9000e+000 100927 -2.2818e+001 -1.0891e+002 -8.0612e-001 34404 100679,100809,100783
 2.9000e+000 100904  6.0666e-001 -1.1802e+002 -8.7499e-001 34404 100653,100809,100679
 2.9000e+000 100881  3.0873e+000 -1.0626e+002  5.0199e-001 34404 100705,100783,100731
 2.9000e+000 100858 -1.4448e+001 -1.0668e+002  1.5359e+000 34404 100679,100783,100705
 2.9000e+000 100835 -4.6357e+001 -1.0467e+002 -6.6546e+001 34404 100731,100783,100757
 2.9000e+000 101354 -3.9486e+001 -2.1588e+002  3.0289e+001 34000 101377,101109,101057
 2.9000e+000 101331 -7.4224e+001 -2.1953e+002  3.8748e+001 34000 101449,101377,101057
 2.9000e+000 101308 -8.4726e+001 -1.8268e+002  4.0233e+001 34000 101449,101057,101031
 2.9000e+000 101285 -6.9247e+001 -1.5394e+002  3.7565e+001 34000 101031,101213,101187
 2.9000e+000 101262 -5.5903e+001 -2.3887e+002 -1.8800e+001 34000 101135,101187,101161
 2.9000e+000 101239 -7.2910e+001 -2.3231e+002  3.9590e+001 34000 101057,101109,101083
 2.9000e+000 101403 -4.3264e+001 -1.8704e+002  8.7855e+000 34000 101135,101109,101377
 2.9000e+000 101426 -8.7412e+001 -2.0506e+002  6.2664e+000 34000 101135,101377,101187
 2.9000e+000 101475 -4.8664e+001 -1.7312e+002  2.5926e+001 34000 101187,101377,101449
 2.9000e+000 101498 -7.5283e+001 -1.5658e+002  3.2737e+001 34000 101187,101449,101031
 2.9000e+000 102083  4.1200e+001 -7.5480e+001 -5.2876e+000 33472 102106,101812,101786
 2.9000e+000 102060 -1.4633e+001 -9.9250e+001 -2.3145e+000 33472 102106,101786,101916
 2.9000e+000 102037 -5.7289e+001 -9.4625e+001 -2.9236e+001 33472 101812,101864,101838
 2.9000e+000 102014 -3.1973e+001 -1.3375e+002 -1.6342e+001 33472 101864,101916,101890
 2.9000e+000 101991 -1.9941e+001 -1.2759e+002 -8.5696e+000 33472 101786,101942,101916
 2.9000e+000 101968 -3.0943e+001 -1.2520e+002  1.8835e+001 33472 101760,101942,101786
 2.9000e+000 102132  6.3676e+000 -7.5425e+001 -2.7152e+001 33472 101864,101812,102106
 2.9000e+000 102155 -1.2256e+001 -8.1962e+001 -2.8595e+001 33472 101864,102106,101916
 2.9000e+000 102612 -3.9522e+001 -1.6544e+002 -7.3923e+001 33038 102635,102468,102390
 2.9000e+000 102589 -8.2389e+001 -2.3324e+002 -9.9455e+001 33038 102635,102390,102364
 2.9000e+000 102566 -3.2723e+000 -1.4687e+002 -6.5058e+001 33038 102390,102468,102442
 2.9000e+000 102543 -2.8286e+001 -1.9735e+002 -4.5957e+001 33038 102338,102494,102364
 2.9000e+000 102520 -2.6181e+001 -1.4803e+002 -4.9949e+001 33038 102390,102442,102416
 2.9000e+000 102661 -3.8408e+001 -1.4903e+002 -3.4973e+001 33038 102494,102468,102635
 2.9000e+000 102684 -4.9480e+001 -1.8823e+002 -5.3949e+001 33038 102494,102635,102364
 2.9000e+000 103318 -1.6194e+001 -6.4396e+001  1.3896e+001 32402 102972,103128,103076
 2.9000e+000 103295 -1.3534e+001 -7.1987e+001  1.1437e+001 32402 102946,103128,102972
 2.9000e+000 103272 -9.5546e+000 -5.7481e+001  3.1364e+001 32402 103076,103128,103102
 2.9000e+000 103249 -5.4865e+000 -6.5245e+001  4.5371e+001 32402 102946,103154,103128
 2.9000e+000 103226 -2.4589e+001 -6.1524e+001  8.7008e+000 32402 102972,103076,102998
 2.9000e+000 103203 -1.0432e+001 -9.4528e+001 -1.6390e+001 32402 102998,103076,103050
 2.9000e+000 103180 -2.6049e+001 -4.1050e+001 -3.1627e+001 32402 102998,103050,103024
 2.9000e+000 103696 -6.2078e+001 -1.9689e+002 -9.3496e+000 31924 103448,103526,103500
 2.9000e+000 103673 -3.0917e+001 -1.8907e+002 -3.2277e+001 31924 103448,103578,103526
 2.9000e+000 103650 -4.8724e+001 -1.6445e+002 -1.6848e+001 31924 103448,103500,103474
 2.9000e+000 103627 -3.7428e+001 -2.2922e+002 -3.8054e+001 31924 103422,103578,103448
 2.9000e+000 103604 -5.3669e+001 -3.1642e+002 -9.3377e-001 31924 103526,103578,103552
 2.9000e+000 104281  7.3401e+000 -2.3924e+001 -2.5967e+001 31520 104304,104062,104036
 2.9000e+000 104258  2.6296e+001 -3.5575e+001 -2.6746e+001 31520 104304,104036,103984
 2.9000e+000 104235 -3.4033e+001 -7.8232e+001 -3.3616e+001 31520 104062,104114,104088
 2.9000e+000 104212  1.3552e+001 -4.1694e+001 -2.1406e+001 31520 103958,104114,103984
 2.9000e+000 104189  8.8994e+000 -7.4414e+001 -4.5006e-001 31520 103984,104036,104010
 2.9000e+000 104166 -5.9920e+000  2.7855e+001 -1.6904e+001 31520 103958,104140,104114
 2.9000e+000 104330 -1.4948e+000 -3.1092e+001 -1.8289e+001 31520 104114,104062,104304
 2.9000e+000 104353  1.2792e+001 -4.1960e+001 -2.1664e+001 31520 104114,104304,103984
 2.9000e+000 104704 -2.2004e+001 -1.9534e+001 -1.5839e+001 31066 104479,104583,104505
 2.9000e+000 104681  3.8140e+001  6.5055e+000 -2.3994e+001 31066 104479,104609,104583
 2.9000e+000 104658  9.1394e+000 -9.5247e+001  1.4604e-001 31066 104505,104557,104531
 2.9000e+000 104635  5.7343e+000 -8.0018e+000 -1.1577e+001 31066 104505,104583,104557
 2.9000e+000 104925  1.5034e+001 -1.5543e+002 -1.5845e+001 30754 104775,104827,104801
 2.9000e+000 104902  7.4690e+000 -9.3608e+001 -1.2689e+001 30754 104775,104853,104827
 2.9000e+000 104879  7.2384e-001 -9.5463e+001  2.1767e+000 30754 104749,104853,104775
 2.9000e+000 105482 -5.4654e+001 -1.3647e+002  1.4082e+001 30164 105505,105136,105110
 2.9000e+000 105459 -4.4174e+001 -1.5122e+002  1.8952e+001 30164 105649,105505,105110
 2.9000e+000 105436 -4.8288e+001 -1.5101e+002  6.3116e+000 30164 105577,105188,105136
 2.9000e+000 105413 -5.7269e+001 -1.5910e+002  3.3195e+001 30164 105649,105110,105318
 2.9000e+000 105390 -4.8027e+001 -2.5804e+002  7.1982e+001 30164 105214,105292,105240
 2.9000e+000 105367 -5.6208e+001 -2.7716e+002  8.3634e+001 30164 105240,105292,105266
 2.9000e+000 105344 -5.7370e+001 -1.4541e+002  5.7191e+000 30164 105136,105188,105162
 2.9000e+000 105531 -4.1516e+001 -1.4756e+002  1.0765e+001 30164 105577,105136,105505
 2.9000e+000 105554  1.1932e+001 -1.3423e+002  1.5243e+001 30164 105214,105505,105292
 2.9000e+000 105603 -4.2160e+001 -1.4516e+002  1.3436e+001 30164 105214,105188,105577
 2.9000e+000 105626 -3.8207e+001 -1.4258e+002  1.7747e+001 30164 105214,105577,105505
 2.9000e+000 105675 -3.5376e+001 -1.3254e+002  1.0797e+001 30164 105292,105505,105649
 2.9000e+000 105698 -3.6796e+001 -1.2727e+002  2.2500e+001 30164 105292,105649,105318
 2.9000e+000 106027 -8.6553e-001 -7.8618e+001  1.3035e+000 29868 106322,106050,105880
 2.9000e+000 106004 -4.0314e+000 -5.9168e+001  4.4499e+000 29868 106250,106050,105828
 2.9000e+000 105981 -8.8131e+000 -6.6173e+001 -5.7815e+000 29868 106250,105828,105802
 2.9000e+000 105958 -1.1034e+001 -8.7527e+001  7.2478e+000 29868 106322,105880,106122
 2.9000e+000 106076  4.9596e-001 -7.4548e+001  8.8713e-001 29868 105906,105880,106050
 2.9000e+000 106099  2.0617e+001 -7.5225e+001 -2.8401e+000 29868 105906,106050,105932
 2.9000e+000 106148 -4.7807e+001 -1.2188e+002  1.0835e+001 29868 105854,105828,106122
 2.9000e+000 106276 -1.2253e+001 -7.0207e+001 -9.2957e+000 29868 105932,106050,106250
 2.9000e+000 106299 -3.0868e+001 -8.7284e+001 -2.1588e+001 29868 105932,106250,105802
 2.9000e+000 106348 -1.9517e+001 -6.8036e+001  8.2047e+000 29868 105828,106050,106322
 2.9000e+000 106371 -2.7325e+001 -7.3864e+001  1.3393e+001 29868 105828,106322,106122
 2.9000e+000 106828  2.5357e+001 -4.6161e+001  8.6367e+000 29521 106580,106710,106684
 2.9000e+000 106805 -1.1259e+001 -7.4685e+001 -1.9809e+001 29521 106554,106710,106580
 2.9000e+000 106782 -5.1146e+000 -6.3498e+001  7.8669e-001 29521 106580,106684,106606
 2.9000e+000 106759 -1.6391e+001 -8.7213e+001 -2.4940e+000 29521 106606,106684,106658
 2.9000e+000 106736 -1.0504e+001 -4.6534e+001  1.3313e+001 29521 106606,106658,106632
 2.9000e+000 107027 -5.6448e+001 -1.3462e+002 -2.9620e+001 29117 106877,106929,106903
 2.9000e+000 107004 -1.9140e+000 -1.1149e+002 -4.4940e+001 29117 106851,106929,106877
 2.9000e+000 106981 -1.8787e+001 -1.7201e+002 -3.2574e+001 29117 106851,106955,106929
 2.9000e+000 107456 -1.1030e+002 -2.4160e+002 -6.7948e+001 28656 107237,107315,107263
 2.9000e+000 107433 -4.6237e+000 -1.6101e+002 -2.9745e+001 28656 107133,107315,107237
 2.9000e+000 107410 -1.3705e+001 -1.3428e+002 -1.0314e+001 28656 107133,107237,107159
 2.9000e+000 107387 -6.2582e+000 -5.9007e+001 -2.7276e+001 28656 107159,107237,107185
 2.9000e+000 107364 -3.5992e+000 -4.8486e+001  3.6349e+000 28656 107185,107237,107211
 2.9000e+000 107341  3.5833e+000 -6.3935e+000 -3.9026e+000 28656 107263,107315,107289
 2.9000e+000 107704  2.5638e+000 -1.0699e+002 -8.2053e-001 27902 107727,107557,107531
 2.9000e+000 107681  9.0374e+000 -9.5373e+001  1.7601e+000 27902 107727,107531,107505
 2.9000e+000 107658 -1.9347e+001 -1.4465e+002 -8.3665e+000 27902 107557,107609,107583
 2.9000e+000 107635 -4.2720e+001 -9.2971e+001  8.3074e+000 27902 107479,107609,107505
 2.9000e+000 107753 -4.7602e+000 -9.6638e+001 -6.1734e+000 27902 107609,107557,107727
 2.9000e+000 107776  4.1336e-001 -8.7268e+001 -4.0909e+000 27902 107609,107727,107505
 2.9000e+000 108333 -4.3488e+001 -2.4763e+002  9.5551e-001 27341 108356,108065,108013
 2.9000e+000 108310  2.1804e-001 -2.1450e+002 -6.1391e+001 27341 108356,108013,108143
 2.9000e+000 108287 -9.4977e+001 -2.7153e+002 -1.2882e+001 27341 108428,108117,108091
 2.9000e+000 108264 -4.2998e+001 -2.2035e+002 -2.4080e+000 27341 108013,108065,108039
 2.9000e+000 108241 -9.7042e+001 -2.0189e+002 -7.3136e+001 27341 107987,108143,108013
 2.9000e+000 108218 -4.2029e+001 -1.8001e+002 -4.0054e+001 27341 107987,108169,108143
 2.9000e+000 108195 -5.8976e+001 -1.3346e+002 -3.4379e+001 27341 107961,108169,107987
 2.9000e+000 108382 -4.5247e+001 -2.5036e+002 -1.1375e+000 27341 108091,108065,108356
 2.9000e+000 108405 -9.0488e+001 -2.3721e+002 -1.2807e+001 27341 108428,108091,108356
 2.9000e+000 108454 -7.0571e+001 -3.8779e+002 -1.9883e+001 27341 108143,108117,108428
 2.9000e+000 108477 -4.3798e+001 -3.2058e+002 -2.7885e+001 27341 108143,108428,108356
 2.9000e+000 108725  2.6844e+001 -1.7614e+002  9.2005e+000 27029 108748,108526,108500
 2.9000e+000 108702 -1.7582e+000 -1.0181e+002  2.6587e+001 27029 108748,108500,108630
 2.9000e+000 108679 -5.1169e+001 -1.4550e+002  2.2036e+001 27029 108578,108630,108604
 2.9000e+000 108656 -1.0993e+001 -1.7977e+002  4.1426e+001 27029 108526,108578,108552
 2.9000e+000 108774 -4.0372e-001 -2.0541e+002 -3.5944e+000 27029 108578,108526,108748
 2.9000e+000 108797 -4.9920e+001 -1.5534e+002  4.3497e+000 27029 108578,108748,108630
 2.9000e+000 109045  4.9138e+001 -1.0574e+002  1.9919e-001 26610 108872,108924,108898
 2.9000e+000 109022 -1.7031e+001 -1.3735e+002 -1.3274e+001 26610 108872,108950,108924
 2.9000e+000 108999 -1.1340e+001 -1.3531e+002 -5.5156e+000 26610 108846,108950,108872
 2.9000e+000 108976 -2.5471e+001 -1.8929e+002 -1.8149e+001 26610 108820,108950,108846
 2.9000e+000 109366 -4.9186e+000 -2.4847e+002  1.1833e+001 26006 109144,109222,109196
 2.9000e+000 109343 -3.5042e+000 -2.6555e+002  6.1639e+000 26006 109118,109222,109144
 2.9000e+000 109320 -4.3915e+001 -2.9694e+002  2.7730e+001 26006 109092,109222,109118
 2.9000e+000 109297  3.9548e+001 -2.2548e+002 -2.4735e+001 26006 109144,109196,109170
 2.9000e+000 109274  9.7535e+000 -2.1247e+002  4.7808e+000 26006 109092,109248,109222
 2.9000e+000 109567 -5.4265e+001 -1.3744e+002 -2.6702e+001 25659 109391,109469,109443
 2.9000e+000 109544 -3.0713e+001 -1.3465e+002 -9.6413e+000 25659 109391,109495,109469
 2.9000e+000 109521 -4.6378e+001 -9.6661e+001 -2.2753e+001 25659 109391,109443,109417
 2.9000e+000 109900 -3.7467e+001 -1.1168e+002 -1.1132e+001 25255 109923,109779,109753
 2.9000e+000 109877 -3.1722e+001 -9.8902e+001 -1.2522e+001 25255 109923,109753,109701
 2.9000e+000 109854 -3.0625e+001 -8.8594e+001 -2.5105e+001 25255 109675,109805,109701
 2.9000e+000 109831 -5.7606e+001 -1.1758e+002 -4.3456e+000 25255 109701,109753,109727
 2.9000e+000 109949 -3.3489e+001 -1.2840e+002 -2.4387e+001 25255 109805,109779,109923
 2.9000e+000 109972 -2.3690e+001 -1.0525e+002 -2.6092e+001 25255 109805,109923,109701
 2.9000e+000 110220 -4.1960e+001 -1.4551e+002  2.0983e+001 24701 110243,110021,109995
 2.9000e+000 110197 -3.8401e+001 -1.4817e+002 -2.6126e+000 24701 110243,109995,110099
 2.9000e+000 110174 -1.7397e+001 -1.5704e+002 -3.0187e+000 24701 110315,110073,110047
 2.9000e+000 110151 -4.5218e+001 -1.4844e+002 -1.4092e+000 24701 109995,110125,110099
 2.9000e+000 110269  6.9327e-001 -1.2260e+002  2.9701e+001 24701 110047,110021,110243
 2.9000e+000 110292 -5.2481e+001 -1.5332e+002  1.1587e+001 24701 110315,110047,110243
 2.9000e+000 110341  5.7173e+001 -1.2594e+002 -1.2378e+001 24701 110099,110073,110315
 2.9000e+000 110364  4.1913e+000 -1.2993e+002  2.2061e-001 24701 110099,110315,110243
 2.9000e+000 110661 -4.5435e+001 -2.0650e+002  9.4892e+000 24197 110684,110413,110387
 2.9000e+000 110638 -1.9495e+001 -1.8213e+002 -2.9655e+001 24197 110684,110387,110543
 2.9000e+000 110615  2.5599e+001 -2.9813e+002  1.5865e+001 24197 110756,110491,110465
 2.9000e+000 110592 -4.3185e+001 -1.5799e+002  2.0581e+001 24197 110413,110465,110439
 2.9000e+000 110569  6.0446e+000 -4.3240e+002 -2.3917e+001 24197 110491,110543,110517
 2.9000e+000 110710  2.5609e+000 -1.8243e+002  2.3172e+001 24197 110465,110413,110684
 2.9000e+000 110733 -3.3961e+001 -2.5302e+002 -4.5827e-001 24197 110756,110465,110684
 2.9000e+000 110782  7.6421e+001 -2.4741e+002 -1.3818e+001 24197 110543,110491,110756
 2.9000e+000 110805  3.6878e+001 -1.8260e+002 -3.5033e+001 24197 110543,110756,110684
 2.9000e+000 111315 -2.6026e+001 -1.8616e+002 -1.6703e+001 23593 111044,111148,111070
 2.9000e+000 111292 -4.8155e+001 -1.5084e+002  1.2634e-001 23593 111044,111174,111148
 2.9000e+000 111269  2.8021e+000 -1.1599e+002 -8.4004e+000 23593 111070,111122,111096
 2.9000e+000 111246 -3.7672e+001 -1.8640e+002 -3.3946e+001 23593 111070,111148,111122
 2.9000e+000 111223 -6.3286e+001 -1.3241e+002 -2.2552e+001 23593 111018,111174,111044
 2.9000e+000 111200 -9.8331e+000 -1.6580e+002 -1.5454e+001 23593 110992,111174,111018
 2.9000e+000 111821  1.9697e+001 -2.1944e+002 -3.0144e+000 23089 111916,111844,111628
 2.9000e+000 111798 -5.0630e+001 -2.5868e+002 -4.5701e+001 23089 111844,111550,111524
 2.9000e+000 111775  2.2889e+001 -1.9853e+002  1.2754e-001 23089 111916,111628,111602
 2.9000e+000 111752 -3.0004e-001 -3.6481e+002 -2.5578e+001 23089 111498,111680,111524
 2.9000e+000 111729  8.6642e+000 -1.5234e+002  2.7300e+001 23089 111550,111602,111576
 2.9000e+000 111706 -2.9776e+000 -1.1890e+002 -2.1211e+001 23089 111628,111680,111654
 2.9000e+000 111870  8.0723e+000 -1.9964e+002  1.6842e+001 23089 111680,111628,111844
 2.9000e+000 111893 -5.0865e-001 -2.2149e+002  9.0671e-001 23089 111680,111844,111524
 2.9000e+000 111942  3.6415e+000 -1.8635e+002 -1.2173e+001 23089 111550,111844,111916
 2.9000e+000 111965  6.0579e+000 -1.6700e+002 -6.7635e+000 23089 111550,111916,111602
 2.9000e+000 112164 -1.7577e+001 -1.2118e+002 -3.5091e+001 22626 112187,112014,111988
 2.9000e+000 112141 -7.9271e+000 -1.6326e+002 -3.2151e+001 22626 112259,112187,111988
 2.9000e+000 112118  1.3564e+001 -1.7277e+002 -2.4342e+000 22626 112259,111988,112092
 2.9000e+000 112213  1.4760e+000 -6.0492e+001 -1.8760e+001 22626 112040,112014,112187
 2.9000e+000 112236 -2.6452e+001 -1.3238e+002 -1.5428e+001 22626 112040,112187,112066
 2.9000e+000 112285  2.0563e+001 -1.2000e+002 -1.7975e+001 22626 112066,112187,112259
 2.9000e+000 112308  3.8180e+001 -1.2889e+002  1.0711e+001 22626 112066,112259,112092
 2.9000e+000 112605 -2.8893e+001 -1.8529e+002  2.5197e+000 22286 112628,112383,112357
 2.9000e+000 112582 -2.7832e+001 -1.9040e+002  9.7596e+000 22286 112772,112628,112357
 2.9000e+000 112559 -3.1655e+001 -2.1199e+002  1.0905e+001 22286 112700,112435,112409
 2.9000e+000 112536 -5.0161e+001 -1.9901e+002  8.4808e+000 22286 112772,112357,112331
 2.9000e+000 112513 -9.6328e+001 -2.0279e+002  2.2102e+001 22286 112435,112487,112461
 2.9000e+000 112654 -1.9102e+001 -1.3995e+002 -1.2367e+000 22286 112409,112383,112628
 2.9000e+000 112677 -2.3906e+001 -1.9087e+002  1.2147e+001 22286 112700,112409,112628
 2.9000e+000 112726 -3.0584e+001 -2.0132e+002 -3.4540e+000 22286 112487,112435,112700
 2.9000e+000 112749 -2.9743e+001 -1.9716e+002 -1.6536e+000 22286 112487,112700,112628
 2.9000e+000 112798 -1.8765e+001 -1.9633e+002  6.0465e+000 22286 112487,112628,112772
 2.9000e+000 112821 -2.2045e+001 -1.9301e+002  7.5715e+000 22286 112487,112772,112331
 2.9000e+000 112924  2.0260e+000 -1.1704e+000  1.3972e+000 21974 112846,112898,112872
 2.9000e+000 113223 -9.0770e+001 -2.5862e+002  3.3646e+001 21420 112949,113053,112975
 2.9000e+000 113200 -7.5937e+001 -2.0585e+002  3.1294e+001 21420 112949,113079,113053
 2.9000e+000 113177  5.1751e+001 -2.1619e+002  6.3022e+001 21420 112975,113053,113001
 2.9000e+000 113154 -1.3129e+002 -2.9249e+002  3.9467e+001 21420 113001,113053,113027
 2.9000e+000 113131 -1.1362e+002 -1.8914e+002  1.4278e+001 21420 112949,113105,113079
 2.9000e+000 113605 -2.9507e+001 -2.5432e+002  6.6698e+001 20716 113331,113435,113357
 2.9000e+000 113582 -3.7960e+001 -1.5379e+002  7.2014e+001 20716 113331,113461,113435
 2.9000e+000 113559 -1.0939e+001 -2.5028e+002 -2.5751e+001 20716 113383,113435,113409
 2.9000e+000 113536 -6.5496e+001 -2.2112e+002 -1.6559e+001 20716 113357,113435,113383
 2.9000e+000 113513 -4.4629e+000 -3.7193e+001 -1.5790e+001 20716 113331,113487,113461
 2.9000e+000 113853  2.3232e+001 -2.2714e+002  7.6961e+000 20290 113876,113680,113654
 2.9000e+000 113830  5.1530e+001 -2.2052e+002  9.4647e+000 20290 113876,113654,113628
 2.9000e+000 113807 -2.3429e+000 -2.5509e+002 -1.0187e+001 20290 113948,113732,113680
 2.9000e+000 113784  5.5477e+001 -2.5495e+002 -3.1501e+001 20290 113680,113732,113706
 2.9000e+000 113902  2.1075e+001 -2.2154e+002  9.9627e+000 20290 113948,113680,113876
 2.9000e+000 113925  1.2460e+001 -1.9358e+002  8.8251e+000 20290 113758,113876,113628
 2.9000e+000 113974 -2.6920e+001 -2.2348e+002 -2.0840e+001 20290 113758,113732,113948
 2.9000e+000 113997 -2.4100e+001 -2.1943e+002 -6.0741e+000 20290 113758,113948,113876
 2.9000e+000 114365 -2.4079e+001 -2.2271e+002  7.3706e-001 19900 114146,114198,114172
 2.9000e+000 114342 -2.4835e+001 -2.2300e+002  9.4795e-001 19900 114042,114198,114146
 2.9000e+000 114319 -2.6587e+001 -2.1825e+002  2.6442e+000 19900 114042,114224,114198
 2.9000e+000 114296 -8.6460e+001 -2.1166e+002 -4.0541e+000 19900 114094,114146,114120
 2.9000e+000 114273 -2.7588e+001 -2.0328e+002 -1.4206e+001 19900 114042,114146,114094
 2.9000e+000 114250 -8.2538e+001 -2.1674e+002 -5.3710e+000 19900 114042,114094,114068
 2.9000e+000 114566 -7.1235e+001 -2.2951e+002 -1.3514e+000 19496 114442,114494,114468
 2.9000e+000 114543 -9.0919e+001 -2.1175e+002 -1.1321e+001 19496 114416,114494,114442
 2.9000e+000 114520 -7.7581e+001 -2.1624e+002 -1.6924e+001 19496 114390,114494,114416
 2.9000e+000 114767 -5.3343e-001 -2.2114e+002  8.8997e+000 19042 114790,114669,114643
 2.9000e+000 114744 -1.9978e+000 -2.1470e+002  1.1713e+001 19042 114790,114643,114591
 2.9000e+000 114721  2.4806e+001 -2.1598e+002  4.6439e+001 19042 114591,114643,114617
 2.9000e+000 114816 -7.9453e+000 -2.1431e+002  6.3741e+000 19042 114695,114669,114790
 2.9000e+000 114839 -3.9522e+000 -2.0174e+002  1.0679e+001 19042 114695,114790,114591
 2.9000e+000 114991 -9.2284e+001 -2.5234e+002  1.5825e-001 18488 114864,114916,114890
 2.9000e+000 114968 -6.8528e+001 -2.5226e+002 -6.9143e+000 18488 114864,114942,114916
 2.9000e+000 115192  1.1162e+002 -1.6795e+002  1.6935e+001 18098 115215,115042,115016
 2.9000e+000 115169  5.6731e+001 -1.4247e+002 -1.3086e+000 18098 115215,115016,115120
 2.9000e+000 115146  7.9974e+001 -1.6165e+002 -2.7263e+001 18098 115287,115094,115068
 2.9000e+000 115241  7.1066e+001 -2.4979e+002 -1.5823e+000 18098 115068,115042,115215
 2.9000e+000 115264  7.7664e+001 -1.5840e+002 -8.9847e+000 18098 115287,115068,115215
 2.9000e+000 115313  5.3266e+001 -1.7040e+002 -2.3548e+001 18098 115120,115094,115287
 2.9000e+000 115336  4.2543e+001 -1.7058e+002 -6.1246e+000 18098 115120,115287,115215
 2.9000e+000 115846  5.6986e+001 -2.9211e+002 -8.4873e+001 17644 115653,115705,115679
 2.9000e+000 115823 -1.6281e+001 -2.6410e+002 -3.9919e+001 17644 115627,115705,115653
 2.9000e+000 115800  5.2623e+001 -1.8265e+002 -1.3432e+000 17644 115549,115705,115627
 2.9000e+000 115777 -1.0714e-001 -2.4948e+002  2.4144e+001 17644 115549,115627,115575
 2.9000e+000 115754  3.9413e+001 -1.7501e+002  1.6755e+001 17644 115523,115705,115549
 2.9000e+000 115731 -8.3110e+001 -2.2590e+002 -9.1398e+000 17644 115575,115627,115601
 2.9000e+000 116067 -7.8821e+001 -3.9053e+002 -1.3302e+001 17116 115891,115943,115917
 2.9000e+000 116044 -1.4581e+002 -4.4765e+002  1.1313e+001 17116 115891,115995,115943
 2.9000e+000 116021 -1.3668e+002 -3.7391e+002  1.0601e+001 17116 115943,115995,115969
 2.9000e+000 116288  2.8040e+001 -2.5644e+002  5.8764e+001 16704 116164,116216,116190
 2.9000e+000 116265 -3.0032e+001 -3.4301e+002  3.3591e+001 16704 116112,116216,116164
 2.9000e+000 116242 -1.4398e+002 -3.4785e+002 -3.2069e+000 16704 116112,116164,116138
 2.9000e+000 116489 -2.7009e+001 -2.1934e+002 -8.3074e+000 16434 116339,116417,116365
 2.9000e+000 116466 -4.4779e+001 -2.2287e+002 -9.7659e-001 16434 116313,116417,116339
 2.9000e+000 116443 -1.3694e+002 -2.7845e+002  7.1154e+001 16434 116365,116417,116391
 2.9000e+000 116592  1.3584e+001 -2.6444e+002 -2.2501e+001 15967 116514,116566,116540
 2.9000e+000 116695 -2.6525e+001 -3.8601e+002 -5.1403e+001 15552 116617,116669,116643
 2.9000e+000 116798 -2.1172e+001 -2.0952e+002  0.0000e+000 421 116720,116772,116746
 3.0000e+000 69066 -3.3628e-001 -3.4089e+002 -2.1949e+001 68738 68965,69017,68991
 3.0000e+000 69043  9.2360e+001 -3.2905e+002  7.5887e+002 68738 68939,69017,68965
 3.0000e+000 69371 -8.3823e+000 -7.3205e+001 -2.6048e+001 68426 69172,69250,69198
 3.0000e+000 69348  8.4779e-002 -1.3705e+002  8.9283e+000 68426 69146,69250,69172
 3.0000e+000 69325 -1.7277e+000 -2.4034e+001  1.0598e+001 68426 69198,69250,69224
 3.0000e+000 69302 -4.1716e+001 -1.1411e+002  6.6445e+000 68426 69146,69276,69250
 3.0000e+000 69521 -2.9333e-001 -6.7381e+001 -1.4261e+001 68228 69420,69472,69446
 3.0000e+000 69498 -1.2879e+001 -4.6996e+001 -3.5395e+001 68228 69394,69472,69420
 3.0000e+000 69781 -1.4470e+001  1.3878e+001  1.0451e+001 68030 69631,69683,69657
 3.0000e+000 69758  2.1516e+000 -3.2436e+001 -9.0618e+000 68030 69631,69709,69683
 3.0000e+000 69735 -2.2656e+000  8.8943e+000  2.2922e+001 68030 69605,69709,69631
 3.0000e+000 70078 -7.2810e+000  1.0640e+001 -1.0462e+001 67832 69882,69934,69908
 3.0000e+000 70055 -5.9881e-001 -1.3785e+001  3.9497e+000 67832 69856,69934,69882
 3.0000e+000 70032  3.4792e+000 -2.1414e+001 -4.8282e+000 67832 69830,69934,69856
 3.0000e+000 70009  8.6629e-001 -2.7623e+001 -1.0235e+001 67832 69804,69934,69830
 3.0000e+000 69986 -1.4900e+001  2.1420e+001  1.4108e+001 67832 69804,69960,69934
 3.0000e+000 70586 -1.5696e+001 -6.8443e+001  1.4553e+001 67634 70609,70419,70341
 3.0000e+000 70563 -1.0456e+001 -1.0252e+002  2.6121e+001 67634 70681,70609,70341
 3.0000e+000 70540 -1.2776e+001 -1.0601e+002  3.4635e+001 67634 70681,70341,70315
 3.0000e+000 70517 -2.8547e+001 -7.1607e+001  3.1302e+001 67634 70341,70419,70367
 3.0000e+000 70494 -1.8817e+001 -2.2788e-001  2.4088e+000 67634 70263,70445,70289
 3.0000e+000 70471 -9.6939e+000 -1.0084e+001  1.5762e+001 67634 70367,70419,70393
 3.0000e+000 70635 -6.6442e+000  3.2923e+000  1.1819e+001 67634 70445,70419,70609
 3.0000e+000 70658 -2.3969e+001 -7.3082e+001  2.1586e+001 67634 70445,70609,70289
 3.0000e+000 70707 -4.7482e+000 -8.1393e+001  1.3383e+001 67634 70289,70609,70681
 3.0000e+000 70730 -1.8014e+001 -9.2568e+001  2.3536e+001 67634 70289,70681,70315
 3.0000e+000 71108 -1.7341e+001 -7.9118e+001  4.0345e+001 67344 71131,70912,70886
 3.0000e+000 71085 -1.7195e+001 -7.7836e+001  3.8048e+001 67344 71131,70886,70860
 3.0000e+000 71062 -2.9242e+001 -9.4887e+001  3.7290e+001 67344 71203,70938,70912
 3.0000e+000 71039  2.2827e+001 -7.3098e+001  1.4332e+001 67344 70834,70990,70860
 3.0000e+000 71016 -2.6398e+001 -1.1791e+002  1.4892e+001 67344 70938,70990,70964
 3.0000e+000 71157 -2.8708e+001 -7.7498e+001  4.0094e+001 67344 71203,70912,71131
 3.0000e+000 71180 -2.5422e+000 -6.3330e+001  1.8104e+001 67344 70990,71131,70860
 3.0000e+000 71229 -2.3012e+001 -1.2661e+002  2.9816e+001 67344 70990,70938,71203
 3.0000e+000 71252 -2.0043e+001 -1.0316e+002  2.8390e+001 67344 70990,71203,71131
 3.0000e+000 71603  4.3129e+000 -6.6113e+001  8.8566e+000 67032 71378,71482,71404
 3.0000e+000 71580  7.6537e+000 -4.3264e+001  1.4786e+001 67032 71378,71508,71482
 3.0000e+000 71557  6.2299e+000 -3.2788e+001  3.0877e+001 67032 71404,71456,71430
 3.0000e+000 71534 -3.5890e+000 -8.2008e+001  1.2719e+001 67032 71404,71482,71456
 3.0000e+000 72003  2.0315e+001 -3.5836e+001  1.7958e+001 66834 71755,71859,71781
 3.0000e+000 71980  7.9255e+000 -1.1948e+002  4.1656e+000 66834 71755,71885,71859
 3.0000e+000 71957  5.4517e+000 -2.2157e+001  8.8159e+000 66834 71781,71833,71807
 3.0000e+000 71934 -1.2553e+001 -1.3532e+002 -6.4391e+000 66834 71781,71859,71833
 3.0000e+000 71911  3.2101e+001 -4.2024e+001  5.8303e+001 66834 71729,71885,71755
 3.0000e+000 72430  2.2207e+001 -8.0940e+001 -3.3202e+000 66266 72237,72289,72263
 3.0000e+000 72407  1.5297e+001 -1.0070e+002  9.8124e+000 66266 72133,72289,72237
 3.0000e+000 72384 -2.3880e+000 -7.2755e+001  4.2594e+000 66266 72133,72237,72211
 3.0000e+000 72361 -2.4843e+001 -1.2283e+002  1.2167e+000 66266 72107,72289,72133
 3.0000e+000 72338 -2.8723e+001 -1.4363e+002  4.6022e+001 66266 72133,72211,72185
 3.0000e+000 72315 -8.4816e+000 -1.5328e+002  4.6902e+001 66266 72133,72185,72159
 3.0000e+000 72580 -1.9987e+001 -1.4740e+002  1.5271e+001 65968 72479,72531,72505
 3.0000e+000 72557  5.5314e+000 -7.9928e+001  6.1519e+000 65968 72453,72531,72479
 3.0000e+000 72960  1.6079e+001 -2.4985e+001  1.0412e+001 65621 72983,72738,72712
 3.0000e+000 72937  5.5552e+001 -8.1765e+001  9.2283e+000 65621 72983,72712,72686
 3.0000e+000 72914 -1.6885e+000 -1.4847e+002  1.0062e+001 65621 72738,72842,72764
 3.0000e+000 72891 -9.8156e-001 -1.4351e+002  2.7813e+000 65621 72764,72842,72816
 3.0000e+000 72868 -1.0003e+002 -4.0630e+002  6.8586e+001 65621 72764,72816,72790
 3.0000e+000 73009  2.1803e+001 -6.7388e+001  1.9241e+001 65621 72842,72738,72983
 3.0000e+000 73032  2.3549e+001 -1.7290e+002  2.5227e+001 65621 72842,72983,72686
 3.0000e+000 73361  1.9107e+001 -2.5499e+002 -1.1861e+001 65281 73456,73384,73188
 3.0000e+000 73338 -1.3023e+001 -2.3751e+002  3.2584e+001 65281 73384,73162,73136
 3.0000e+000 73315 -2.7101e+001 -1.8646e+002 -2.3425e+001 65281 73188,73240,73214
 3.0000e+000 73292 -1.6759e+001 -6.6036e+001 -1.9584e+001 65281 73136,73266,73240
 3.0000e+000 73410 -5.8985e+001 -2.4660e+002 -1.1105e+001 65281 73240,73188,73384
 3.0000e+000 73433 -2.2308e+001 -8.2347e+001  1.1926e+001 65281 73240,73384,73136
 3.0000e+000 73482 -1.4537e+001 -3.5096e+002 -2.1345e+001 65281 73162,73384,73456
 3.0000e+000 73711 -6.3299e+000  1.6993e+001 -4.9417e+001 64820 73734,73610,73584
 3.0000e+000 73688 -2.3455e+001 -2.3535e+001 -4.7827e+001 64820 73734,73584,73662
 3.0000e+000 73760  1.8995e+001  3.4360e+001  2.8915e+000 64820 73636,73610,73734
 3.0000e+000 73783 -5.0454e+001 -8.9040e+000 -2.2208e+001 64820 73806,73734,73662
 3.0000e+000 73832 -2.0155e+001 -3.5816e+001 -1.4532e+001 64820 73636,73734,73806
 3.0000e+000 74112  2.0850e+001 -5.4239e+001 -2.0972e+001 64622 74278,74135,73988
 3.0000e+000 74089  1.6603e+000 -8.9105e+001  4.3936e+000 64622 74135,73936,74040
 3.0000e+000 74066  2.2926e+001 -5.2715e+001 -4.4643e+001 64622 74278,73988,73962
 3.0000e+000 74161 -1.9897e+001 -7.6910e+001 -1.1556e+001 64622 74014,73988,74135
 3.0000e+000 74184 -7.0410e-001 -8.1440e+001 -2.6313e-001 64622 74207,74135,74040
 3.0000e+000 74233  6.8021e+000 -6.6891e+001 -8.0355e+000 64622 74014,74135,74207
 3.0000e+000 74304  8.2300e-001 -1.0223e+002 -3.1097e+000 64622 73936,74135,74278
 3.0000e+000 74327  1.7218e+001 -8.7947e+001 -2.9167e+001 64622 73936,74278,73962
 3.0000e+000 74526  2.5934e+001  7.6019e+000 -3.5862e+000 64424 74621,74549,74402
 3.0000e+000 74503 -1.0952e+001 -5.4300e+001  1.1280e+001 64424 74549,74350,74454
 3.0000e+000 74480  3.5951e+001  2.6400e+001 -3.0280e+001 64424 74621,74402,74376
 3.0000e+000 74575  4.0089e+001 -4.5796e+001  1.2257e+001 64424 74428,74402,74549
 3.0000e+000 74598  1.0861e+001 -7.8984e+001  1.8811e+001 64424 74693,74549,74454
 3.0000e+000 74647  1.3947e+000 -3.5369e+001  1.9683e+001 64424 74350,74549,74621
 3.0000e+000 74670  1.3813e+001 -2.2087e+001 -7.9487e+000 64424 74350,74621,74376
 3.0000e+000 74719  1.0781e+001 -9.8592e+001 -5.5405e+000 64424 74428,74549,74693
 3.0000e+000 75123 -4.6487e+001 -2.7919e+002  5.4219e+001 64126 74875,74953,74927
 3.0000e+000 75100 -2.2310e+001 -2.5773e+002  3.1796e+001 64126 74875,74979,74953
 3.0000e+000 75077 -2.4590e+001 -1.6432e+002  1.4316e+000 64126 74875,75005,74979
 3.0000e+000 75054 -1.1408e+001 -3.3764e+002  9.0478e+001 64126 74875,74927,74901
 3.0000e+000 75031 -6.2641e+001 -8.6795e+001  3.4338e+001 64126 74849,75005,74875
 3.0000e+000 75224 -1.6936e+001 -1.8340e+002  2.0381e+001 63836 75146,75198,75172
 3.0000e+000 75472 -5.7272e+000 -1.1287e+002  3.2598e+001 63375 75273,75351,75325
 3.0000e+000 75449 -2.6940e+001 -1.0911e+002  1.6663e+001 63375 75273,75377,75351
 3.0000e+000 75426 -2.7616e+001 -1.2182e+002  6.8414e+000 63375 75247,75377,75273
 3.0000e+000 75403  7.1839e+000 -6.5628e+001  3.2228e+001 63375 75273,75325,75299
 3.0000e+000 75673  2.4622e+001 -1.0998e+002  2.0095e+001 63063 75523,75575,75549
 3.0000e+000 75650  2.0136e+001 -1.5483e+002 -2.1775e+000 63063 75497,75575,75523
 3.0000e+000 75627  1.3705e+001 -1.6875e+002  2.1919e+001 63063 75497,75601,75575
 3.0000e+000 75874  3.7892e+001 -2.0947e+002 -1.3587e+001 62716 75897,75750,75724
 3.0000e+000 75851  1.0387e+001 -1.6979e+002 -3.4643e+000 62716 75897,75724,75698
 3.0000e+000 75828  1.5314e+001 -1.1705e+002 -5.5003e+001 62716 75698,75802,75776
 3.0000e+000 75923  8.0382e+001 -1.6282e+002 -3.3667e+001 62716 75776,75750,75897
 3.0000e+000 75946  2.3219e+001 -1.5054e+002 -9.9072e+000 62716 75776,75897,75698
 3.0000e+000 76328 -2.3088e+001 -1.9826e+002 -1.5138e+001 62198 76495,76351,76158
 3.0000e+000 76305 -4.7511e+001 -1.9675e+002 -7.5099e+000 62198 76351,76080,76054
 3.0000e+000 76282 -6.7829e+000 -2.6817e+002 -2.2833e+001 62198 76423,76184,76158
 3.0000e+000 76259 -2.9230e+001 -1.9793e+002 -1.2596e+001 62198 76495,76158,76106
 3.0000e+000 76236 -6.1337e+001 -2.4269e+002  7.8763e+000 62198 76106,76158,76132
 3.0000e+000 76377 -3.1997e+001 -2.1811e+002 -2.8885e+001 62198 76423,76158,76351
 3.0000e+000 76400 -4.5455e+001 -1.7233e+002 -2.9133e+001 62198 76210,76351,76054
 3.0000e+000 76449  2.0468e+001 -2.2001e+002 -3.4024e+001 62198 76210,76184,76423
 3.0000e+000 76472 -2.5302e+000 -1.7702e+002 -4.3232e+001 62198 76210,76423,76351
 3.0000e+000 76521 -3.4702e+001 -1.9107e+002 -8.9203e+000 62198 76080,76351,76495
 3.0000e+000 76544 -5.0024e+001 -2.0197e+002 -3.0292e+000 62198 76080,76495,76106
 3.0000e+000 76841 -1.0631e+001 -1.9497e+002  7.7398e+000 61751 76936,76864,76645
 3.0000e+000 76818  4.4786e+001 -1.8119e+002 -5.6416e+001 61751 76864,76567,76723
 3.0000e+000 76795  2.6158e+000 -1.3844e+002  5.6634e+000 61751 76936,76645,76593
 3.0000e+000 76772 -1.9497e+002 -4.1690e+002  7.6395e+001 61751 77008,76697,76671
 3.0000e+000 76749 -1.4506e+001 -9.7149e+001 -3.6152e+001 61751 76593,76645,76619
 3.0000e+000 76890 -2.5561e+001 -2.3371e+002  2.0762e+001 61751 76671,76645,76864
 3.0000e+000 76913 -6.1801e+001 -2.4099e+002  1.1979e+001 61751 77008,76671,76864
 3.0000e+000 76962  1.7808e+001 -2.7065e+002 -2.0896e+001 61751 76567,76864,76936
 3.0000e+000 76985  2.7106e+001 -2.2323e+002 -1.6667e+001 61751 76567,76936,76593
 3.0000e+000 77034 -8.8913e-001 -2.9471e+002 -4.9755e+001 61751 76723,76697,77008
 3.0000e+000 77057 -1.3177e+001 -3.1742e+002 -4.4554e+001 61751 76723,77008,76864
 3.0000e+000 77207 -5.2464e+000 -9.2148e+001  3.1773e+001 61418 77106,77158,77132
 3.0000e+000 77184  5.0731e+001 -1.5337e+002  4.2336e+001 61418 77080,77158,77106
 3.0000e+000 77638 -3.6802e+001 -2.1306e+002 -2.1119e+001 60814 77733,77661,77471
 3.0000e+000 77615 -4.8031e+000 -1.9937e+002 -2.4472e+001 60814 77661,77393,77315
 3.0000e+000 77592 -6.2621e+001 -1.7002e+002 -2.0049e-001 60814 77733,77471,77445
 3.0000e+000 77569 -4.5699e+001 -3.1214e+002 -2.9264e+001 60814 77315,77367,77341
 3.0000e+000 77546 -3.5362e+001 -3.0463e+002 -1.8977e+001 60814 77315,77393,77367
 3.0000e+000 77523 -6.3365e+001 -1.4400e+002  9.5447e+000 60814 77393,77445,77419
 3.0000e+000 77687 -1.8691e+001 -2.0474e+002 -2.6956e+001 60814 77497,77471,77661
 3.0000e+000 77710 -2.8091e+001 -2.2649e+002 -8.6571e+000 60814 77497,77661,77315
 3.0000e+000 77759 -9.2010e+000 -1.5343e+002 -3.3755e+001 60814 77393,77661,77733
 3.0000e+000 77782 -4.4683e+001 -1.2442e+002 -6.7282e+000 60814 77393,77733,77445
 3.0000e+000 78337 -1.4340e+001 -1.2532e+002  2.0129e+001 60210 78360,78017,77965
 3.0000e+000 78314 -8.7379e-001 -1.1763e+002  1.3235e+001 60210 78360,77965,78173
 3.0000e+000 78291  3.1696e+000 -1.5086e+002 -1.3810e+001 60210 78432,78043,78017
 3.0000e+000 78268 -2.3682e+001 -1.4444e+002  1.7212e+001 60210 77965,78017,77991
 3.0000e+000 78245 -1.0135e+001 -4.8898e+001 -3.8205e+000 60210 78043,78095,78069
 3.0000e+000 78222 -3.8659e+001 -1.8364e+002  3.6534e+001 60210 78095,78173,78121
 3.0000e+000 78199 -5.3712e+000 -1.3358e+002 -1.6284e+001 60210 78121,78173,78147
 3.0000e+000 78386 -7.1443e+000 -1.4721e+002  1.3132e+001 60210 78432,78017,78360
 3.0000e+000 78409  4.7841e+000 -1.1869e+002  1.6168e+001 60210 78095,78360,78173
 3.0000e+000 78458  1.6171e+001 -1.1523e+002 -1.9623e+001 60210 78095,78043,78432
 3.0000e+000 78481  1.1300e+001 -1.0310e+002  6.1323e+000 60210 78095,78432,78360
 3.0000e+000 78680 -3.1086e+001 -1.4478e+002 -7.0848e+000 59848 78703,78556,78530
 3.0000e+000 78657 -3.1830e+001 -1.6218e+002 -2.5140e+001 59848 78703,78530,78504
 3.0000e+000 78634 -3.9811e+001 -1.9943e+002 -2.3827e+001 59848 78504,78608,78582
 3.0000e+000 78729 -2.5020e+001 -1.8056e+002 -5.2918e+000 59848 78582,78556,78703
 3.0000e+000 78752 -2.6110e+001 -1.8653e+002 -2.9715e+001 59848 78582,78703,78504
 3.0000e+000 78951 -3.8731e+001 -1.1203e+002 -1.1674e+001 59344 78974,78801,78775
 3.0000e+000 78928 -6.6225e+001 -1.8812e+002 -3.8234e+001 59344 79046,78974,78775
 3.0000e+000 78905 -5.9441e+001 -2.5385e+002 -3.4749e+001 59344 79046,78775,78879
 3.0000e+000 79000 -8.4619e+000 -8.6792e+001  3.5973e+001 59344 78827,78801,78974
 3.0000e+000 79023 -4.7616e+001 -1.0516e+002 -6.4641e+000 59344 78827,78974,78853
 3.0000e+000 79072 -7.7276e+001 -1.1257e+002 -1.3124e+001 59344 78853,78974,79046
 3.0000e+000 79095 -5.0343e+001 -1.5418e+002 -5.9882e+000 59344 78853,79046,78879
 3.0000e+000 79296  2.9006e+001 -1.7217e+002 -8.9284e+000 58711 79319,79172,79146
 3.0000e+000 79273  4.2521e+001 -1.5547e+002 -2.4113e+000 58711 79319,79146,79120
 3.0000e+000 79250  1.0110e+001 -1.8090e+002  5.0480e+001 58711 79172,79224,79198
 3.0000e+000 79345  1.6273e+001 -1.5217e+002 -8.0820e+000 58711 79224,79172,79319
 3.0000e+000 79368  2.3697e+001 -1.4032e+002 -4.2641e+000 58711 79224,79319,79120
 3.0000e+000 79667  9.5984e+000 -1.1187e+002 -7.3002e+000 58285 79690,79471,79393
 3.0000e+000 79644  1.2999e+001 -1.4027e+002 -1.9738e+001 58285 79690,79393,79549
 3.0000e+000 79621  4.5418e+001 -1.6283e+002  2.8412e+001 58285 79393,79471,79419
 3.0000e+000 79598  1.3731e+001 -1.0083e+002 -6.4381e-001 58285 79497,79549,79523
 3.0000e+000 79575 -3.8317e+001 -3.2385e+002  6.6456e+001 58285 79419,79471,79445
 3.0000e+000 79716  1.4191e+001 -8.5996e+001  7.8485e+000 58285 79497,79471,79690
 3.0000e+000 79739  1.6572e+001 -1.2624e+002 -5.3727e-001 58285 79497,79690,79549
 3.0000e+000 80249  2.7312e+001 -3.4772e+001  7.5957e+000 57831 80272,79978,79952
 3.0000e+000 80226  6.2441e+000 -3.5202e+001 -3.8844e+000 57831 80272,79952,80108
 3.0000e+000 80203  1.6525e+001 -8.0938e+001 -2.6999e+001 57831 79926,80108,79952
 3.0000e+000 80180 -8.2591e+000 -6.7600e+001 -1.6563e+000 57831 80004,80082,80030
 3.0000e+000 80157 -1.7010e+001 -5.5341e+001 -1.2967e+001 57831 80004,80108,80082
 3.0000e+000 80134 -6.0557e+000 -7.8277e+001 -1.0134e+001 57831 80030,80082,80056
 3.0000e+000 80298  1.7316e+001 -4.9158e+001 -1.0512e+001 57831 80004,79978,80272
 3.0000e+000 80321 -7.5854e+000 -3.8472e+001 -1.7004e+001 57831 80004,80272,80108
 3.0000e+000 80618 -4.3220e+001 -1.9474e+002  2.1386e+001 57077 80344,80448,80422
 3.0000e+000 80595 -1.8123e+001 -1.7833e+002  1.0733e+001 57077 80344,80500,80448
 3.0000e+000 80572  4.3627e+000 -1.1233e+002 -8.4722e+000 57077 80344,80422,80370
 3.0000e+000 80549 -4.2550e+001 -1.1510e+002  5.1395e+000 57077 80370,80422,80396
 3.0000e+000 80526 -5.8824e+001 -2.8600e+002  3.2599e+001 57077 80448,80500,80474
 3.0000e+000 80768 -1.5539e+001 -6.4838e+001 -4.6370e+000 56787 80791,80693,80667
 3.0000e+000 80745 -2.2943e+001 -6.4079e+001 -6.8597e-001 56787 80791,80667,80641
 3.0000e+000 80817 -1.0448e+001 -6.3781e+001 -9.1714e+000 56787 80719,80693,80791
 3.0000e+000 80840 -2.5989e+001 -5.5566e+001 -1.0264e+001 56787 80719,80791,80641
 3.0000e+000 81429 -4.4013e+001 -7.7951e+001  1.5579e+001 56497 81452,81158,81132
 3.0000e+000 81406 -7.5945e+000 -7.9234e+001  5.7364e+000 56497 81452,81132,81288
 3.0000e+000 81383 -4.6113e+001 -8.6662e+001 -6.3510e-001 56497 81524,81184,81158
 3.0000e+000 81360 -1.8583e+001 -2.2560e+002  2.9789e+001 56497 81210,81288,81236
 3.0000e+000 81337 -2.6755e+000 -6.5473e+001  2.1312e+001 56497 81106,81288,81132
 3.0000e+000 81314 -9.0100e+001 -6.8730e+001  1.2285e+001 56497 81236,81288,81262
 3.0000e+000 81478 -3.1128e+001 -8.4801e+001  2.1310e+000 56497 81524,81158,81452
 3.0000e+000 81501  3.9798e+001 -8.5037e+001  1.7575e+001 56497 81210,81452,81288
 3.0000e+000 81550 -4.2498e+001 -8.8814e+001  2.0181e+001 56497 81210,81184,81524
 3.0000e+000 81573 -1.8788e+001 -7.9727e+001  2.4204e+001 56497 81210,81524,81452
 3.0000e+000 81870 -1.7973e+001 -9.2531e+001  1.1792e+001 55979 81893,81674,81648
 3.0000e+000 81847 -3.1721e+001 -9.8524e+001  1.1035e+001 55979 81893,81648,81752
 3.0000e+000 81824 -2.1968e+001 -1.2605e+002  1.4294e+001 55979 81596,81752,81648
 3.0000e+000 81801  8.4284e-001 -3.3121e+001 -5.8209e+000 55979 81674,81726,81700
 3.0000e+000 81778 -5.2265e+000 -8.7334e+001  1.6928e+001 55979 81596,81648,81622
 3.0000e+000 81919 -9.6438e+000 -9.5701e+001  2.8678e-001 55979 81726,81674,81893
 3.0000e+000 81942 -2.8616e+001 -1.0417e+002 -1.3797e+000 55979 81726,81893,81752
 3.0000e+000 82371 -4.8941e+001 -8.0678e+001 -2.1622e+001 55631 82100,82204,82152
 3.0000e+000 82348 -3.1079e+000 -1.2829e+002 -4.2500e+001 55631 82100,82230,82204
 3.0000e+000 82325 -2.8067e+001 -8.6222e+001  9.1684e+000 55631 82100,82152,82126
 3.0000e+000 82302 -4.8320e+001 -2.2962e+002 -3.0774e+001 55631 82074,82230,82100
 3.0000e+000 82279 -7.0987e+001 -1.3051e+002 -1.7803e+001 55631 82152,82204,82178
 3.0000e+000 82256 -7.5189e+000 -1.2817e+002 -1.1879e+001 55631 82048,82230,82074
 3.0000e+000 82521  4.5908e+001 -8.3584e+001 -1.6398e+000 55227 82544,82420,82394
 3.0000e+000 82498  4.5292e+001 -1.1017e+002  1.5028e+000 55227 82544,82394,82472
 3.0000e+000 82570  3.7383e+001 -6.4107e+001 -7.7640e-001 55227 82446,82420,82544
 3.0000e+000 82593  4.1305e+001 -8.3218e+001  9.3801e+000 55227 82446,82544,82472
 3.0000e+000 82875  1.9259e+001  1.8114e+001  1.4007e+001 54979 82699,82777,82725
 3.0000e+000 82852  2.0211e+001 -5.2504e+001  1.9697e+001 54979 82699,82803,82777
 3.0000e+000 82829 -2.4799e+000 -5.3696e+000  3.0649e+000 54979 82725,82777,82751
 3.0000e+000 83204 -2.0651e+001 -4.4809e+001 -2.9313e+001 54475 83005,83083,83057
 3.0000e+000 83181 -4.2150e+001 -7.2896e+001 -9.7274e+000 54475 82979,83083,83005
 3.0000e+000 83158 -2.1318e+001 -6.1986e+001 -3.0806e+001 54475 83005,83057,83031
 3.0000e+000 83135 -2.1374e+001 -2.5290e+001 -3.4142e+001 54475 82979,83109,83083
 3.0000e+000 83582 -2.6941e+001 -8.9046e+001 -6.1628e+000 54071 83605,83438,83412
 3.0000e+000 83559 -3.5615e+001 -1.0927e+002 -4.9565e+000 54071 83749,83605,83412
 3.0000e+000 83536 -6.7193e+001 -1.5119e+002  3.4603e+001 54071 83677,83360,83334
 3.0000e+000 83513 -3.0503e+001 -1.1653e+002 -5.9516e+000 54071 83749,83412,83677
 3.0000e+000 83490 -3.3820e+001 -1.1357e+002  8.2390e+000 54071 83308,83464,83334
 3.0000e+000 83631 -2.3607e+001 -9.4364e+001  1.0464e+001 54071 83464,83438,83605
 3.0000e+000 83654 -3.0755e+001 -1.1091e+002  9.5346e+000 54071 83464,83605,83334
 3.0000e+000 83703 -1.3894e+001 -1.1012e+002  9.9790e+000 54071 83386,83360,83677
 3.0000e+000 83726 -1.9134e+001 -9.2705e+001 -1.8584e+001 54071 83386,83677,83412
 3.0000e+000 83775 -2.9368e+001 -9.7289e+001 -1.1930e-001 54071 83334,83605,83749
 3.0000e+000 83798 -2.3957e+001 -1.0490e+002 -7.0150e-001 54071 83334,83749,83677
 3.0000e+000 84068 -4.4957e+000 -7.9314e+000 -1.4605e+001 53524 83869,83921,83895
 3.0000e+000 84045  3.1779e+000 -7.9960e+001  4.9963e+000 53524 83869,83947,83921
 3.0000e+000 84022 -1.8948e+001 -1.0271e+002 -3.9722e+000 53524 83843,83947,83869
 3.0000e+000 83999  9.5597e+000 -9.7633e+001 -4.6363e+000 53524 83843,83973,83947
 3.0000e+000 84497 -4.5667e+001 -2.0310e+002  7.9704e+000 53184 84200,84330,84252
 3.0000e+000 84474 -2.8907e+001 -1.3659e+002  2.9847e+001 53184 84200,84356,84330
 3.0000e+000 84451  4.8260e+000 -1.6523e+002  3.1131e+001 53184 84200,84252,84226
 3.0000e+000 84428 -1.7726e+001 -1.3672e+002 -5.4900e+001 53184 84252,84330,84278
 3.0000e+000 84405 -2.2183e+001 -1.2662e+002  1.3992e+001 53184 84174,84356,84200
 3.0000e+000 84382  1.3352e+000 -1.3792e+002 -9.3324e+000 53184 84278,84330,84304
 3.0000e+000 84954  1.6377e+001 -9.3819e+001  6.3302e+001 52680 84706,84836,84784
 3.0000e+000 84931 -7.6075e+000 -6.2988e+001 -6.8612e+001 52680 84680,84836,84706
 3.0000e+000 84908 -9.8283e+000 -3.4833e+002  4.0276e+000 52680 84784,84836,84810
 3.0000e+000 84885  2.4286e+001 -3.8433e+002 -3.1031e+000 52680 84706,84784,84732
 3.0000e+000 84862  6.2697e+001 -3.2742e+002 -5.9308e+001 52680 84732,84784,84758
 3.0000e+000 85202 -2.2008e+001 -1.7768e+002 -6.3088e+000 52226 85029,85081,85055
 3.0000e+000 85179 -2.6839e+001 -1.4699e+002  8.5801e-001 52226 85225,85081,85029
 3.0000e+000 85156 -1.4260e+001 -1.1546e+002  2.1978e+001 52226 85225,85029,85003
 3.0000e+000 85133 -6.3362e+001 -1.3204e+002 -2.6836e+001 52226 84977,85107,85003
 3.0000e+000 85251 -4.2239e+001 -1.5354e+002 -3.1133e+001 52226 85107,85081,85225
 3.0000e+000 85274 -4.7979e+001 -9.0849e+001 -1.4495e+001 52226 85107,85225,85003
 3.0000e+000 85522  1.9139e+001 -1.4599e+002  1.7210e+001 51764 85297,85349,85323
 3.0000e+000 85499  4.1232e+001 -1.3677e+002  1.1501e+001 51764 85545,85297,85427
 3.0000e+000 85476  7.3516e+000 -1.0288e+002 -5.5173e+000 51764 85545,85427,85375
 3.0000e+000 85453  1.8045e+001 -9.8626e+001 -1.6398e+001 51764 85375,85427,85401
 3.0000e+000 85571  5.7125e+001 -1.1680e+002 -1.4553e+000 51764 85349,85297,85545
 3.0000e+000 85594  3.8085e+001 -7.0583e+001 -2.1990e+001 51764 85349,85545,85375
 3.0000e+000 85746 -7.0421e+001 -1.5920e+002  5.0125e+000 51374 85645,85697,85671
 3.0000e+000 85723 -8.0897e+001 -1.6092e+002 -6.2993e+000 51374 85619,85697,85645
 3.0000e+000 86256  1.6820e+001 -4.0103e+001  1.2447e+001 50970 86279,86011,85959
 3.0000e+000 86233  1.0441e+001  1.7884e+000  4.0111e+000 50970 86279,85959,86115
 3.0000e+000 86210 -1.0710e+000 -8.9581e+001 -9.5883e+000 50970 85959,86011,85985
 3.0000e+000 86187  2.6576e+000 -8.2132e+001 -3.0558e+000 50970 86037,86115,86089
 3.0000e+000 86164  2.6058e-001 -3.0020e+000  1.8742e-001 50970 85933,86115,85959
 3.0000e+000 86141 -1.7019e+001 -6.3430e+001 -1.0797e+001 50970 86037,86089,86063
 3.0000e+000 86305  2.3859e+001 -8.6228e+001  8.2913e+000 50970 86037,86011,86279
 3.0000e+000 86328  2.0515e+001 -4.0508e+001 -6.3334e-001 50970 86037,86279,86115
 3.0000e+000 86478 -7.0573e+001 -2.5662e+002  3.3392e+001 50451 86351,86403,86377
 3.0000e+000 86455 -1.5208e+002 -7.6867e+002 -7.6979e-001 50451 86351,86429,86403
 3.0000e+000 86907 -4.6806e+001 -1.2477e+002 -1.1802e+001 50047 86930,86714,86662
 3.0000e+000 86884 -2.7216e+001 -1.4102e+002 -1.0414e+001 50047 86930,86662,86610
 3.0000e+000 86861  1.2815e+001 -1.3043e+002 -3.7160e+001 50047 87002,86740,86714
 3.0000e+000 86838  1.6951e+001 -9.6908e+001 -1.7730e+001 50047 86662,86714,86688
 3.0000e+000 86815 -3.6605e+001 -1.5227e+002  1.1557e+000 50047 86610,86662,86636
 3.0000e+000 86792  1.2899e+001 -1.3876e+002  1.5874e+001 50047 86584,86766,86610
 3.0000e+000 86956 -2.4323e+001 -1.2754e+002 -1.4279e+001 50047 87002,86714,86930
 3.0000e+000 86979 -5.4982e+001 -1.7005e+002  1.2025e+000 50047 86766,86930,86610
 3.0000e+000 87028 -4.0743e+001 -1.4185e+002 -3.0734e+001 50047 86766,86740,87002
 3.0000e+000 87051 -5.5598e+001 -1.3902e+002 -1.5872e+001 50047 86766,87002,86930
 3.0000e+000 87250 -5.1313e-001 -1.7080e+002 -3.0578e+001 49543 87273,87126,87100
 3.0000e+000 87227 -6.7095e+000 -1.3760e+002 -5.8113e+000 49543 87273,87100,87074
 3.0000e+000 87204 -1.0874e+001 -1.2112e+002 -4.7436e+001 49543 87126,87178,87152
 3.0000e+000 87299  2.0601e+001 -1.2040e+002 -3.5062e+001 49543 87178,87126,87273
 3.0000e+000 87322  2.1294e-001 -1.1670e+002 -4.9435e+000 49543 87178,87273,87074
 3.0000e+000 87570 -4.8241e+001 -1.3045e+002  1.1437e+001 49146 87593,87449,87397
 3.0000e+000 87547 -4.4471e+001 -1.1392e+002  2.6778e+001 49146 87593,87397,87371
 3.0000e+000 87524 -5.2667e+001 -9.2772e+001  2.1608e+001 49146 87345,87475,87371
 3.0000e+000 87501 -1.8659e+001 -1.2979e+002  1.4069e+001 49146 87397,87449,87423
 3.0000e+000 87619 -6.7496e+001 -1.2961e+002 -1.5578e+000 49146 87475,87449,87593
 3.0000e+000 87642 -5.7975e+001 -1.1808e+002  1.3139e+001 49146 87475,87593,87371
 3.0000e+000 88073  2.7406e+001 -5.3444e+001 -1.0827e+001 48706 87854,87932,87880
 3.0000e+000 88050  5.0370e+000 -5.3431e+001  9.9236e+000 48706 87828,87932,87854
 3.0000e+000 88027  1.2496e+001 -5.0893e+001  1.3972e+001 48706 87750,87932,87828
 3.0000e+000 88004 -8.2768e+000 -7.0999e+001 -6.8393e+001 48706 87750,87802,87776
 3.0000e+000 87981  2.9120e+001 -1.0765e+002 -3.7169e+001 48706 87750,87828,87802
 3.0000e+000 87958 -7.8861e+000 -6.9875e+001 -6.6374e+000 48706 87880,87932,87906
 3.0000e+000 88402 -2.8248e+001 -1.8163e+002 -9.9706e+000 48145 88203,88281,88255
 3.0000e+000 88379 -5.1329e+001 -1.8516e+002  1.2671e+001 48145 88203,88307,88281
 3.0000e+000 88356 -3.6349e+001 -1.5133e+002 -1.2855e+001 48145 88203,88255,88229
 3.0000e+000 88333 -3.9279e+001 -1.9714e+002  3.3688e+001 48145 88177,88307,88203
 3.0000e+000 88601  3.2128e+001 -1.5028e+002  4.2250e+001 47805 88696,88624,88477
 3.0000e+000 88578 -3.2808e+001 -1.5183e+002  6.2602e+000 47805 88826,88624,88451
 3.0000e+000 88555 -3.8173e+001 -1.5086e+002  1.2332e+001 47805 88826,88451,88425
 3.0000e+000 88650  9.9058e+000 -1.9785e+002  2.0222e+001 47805 88503,88477,88624
 3.0000e+000 88673  1.3819e+000 -1.7651e+002  2.2072e+000 47805 88503,88624,88529
 3.0000e+000 88722 -7.7428e+001 -1.8742e+002  2.2403e+001 47805 88451,88624,88696
 3.0000e+000 88852 -2.7489e+001 -1.4443e+002  1.1463e+000 47805 88529,88624,88826
 3.0000e+000 88875 -3.3588e+001 -1.4457e+002  7.3619e+000 47805 88529,88826,88425
 3.0000e+000 89172 -4.8245e+000 -1.0433e+002 -7.9723e+000 47401 89195,88976,88898
 3.0000e+000 89149 -2.0844e+001 -1.0940e+002 -2.0579e+001 47401 89195,88898,89054
 3.0000e+000 89126 -7.7728e+000 -7.7097e+001 -1.5687e+001 47401 88898,88976,88950
 3.0000e+000 89103 -2.2410e+001 -1.3185e+002 -3.8216e+001 47401 88976,89028,89002
 3.0000e+000 89080 -1.4031e+001 -8.7094e+001 -6.7747e+000 47401 88898,88950,88924
 3.0000e+000 89221  1.1010e+000 -1.1293e+002 -2.8670e+001 47401 89028,88976,89195
 3.0000e+000 89244 -3.4286e+001 -1.2364e+002 -4.1317e+001 47401 89028,89195,89054
 3.0000e+000 89575  3.0019e+000 -2.2465e+002  2.8152e+001 47111 89350,89454,89376
 3.0000e+000 89552  2.7859e+001 -1.9795e+002  1.5657e+001 47111 89350,89480,89454
 3.0000e+000 89529  2.9542e+001 -2.6057e+002 -1.2163e+001 47111 89376,89454,89402
 3.0000e+000 89506  8.6344e+001 -1.4237e+002  8.1999e+000 47111 89402,89454,89428
 3.0000e+000 89904  2.1104e+001 -5.8058e+001 -8.6158e+000 46707 89705,89757,89731
 3.0000e+000 89881  2.9958e+000 -8.9988e+001  8.4725e+000 46707 89705,89783,89757
 3.0000e+000 89858 -3.5411e+001 -1.0074e+002  2.3058e+001 46707 89679,89783,89705
 3.0000e+000 89835  3.4018e+000 -1.0258e+002  2.1109e+000 46707 89679,89809,89783
 3.0000e+000 90233  1.5293e+001 -8.3309e+001 -1.9213e+001 46360 90034,90112,90086
 3.0000e+000 90210 -2.1861e+001 -8.2160e+001 -8.4220e+000 46360 90034,90138,90112
 3.0000e+000 90187 -1.0008e+001 -7.6121e+001 -1.7318e+001 46360 90034,90086,90060
 3.0000e+000 90164 -2.1289e+001 -1.0905e+002  5.9629e+000 46360 90008,90138,90034
 3.0000e+000 90530  1.4252e+001 -1.2515e+002  1.6204e+000 45662 90256,90360,90308
 3.0000e+000 90507 -5.2557e+000 -1.3517e+002  5.4226e+000 45662 90256,90412,90360
 3.0000e+000 90484  2.7644e+001 -1.3142e+002 -7.0717e+000 45662 90256,90308,90282
 3.0000e+000 90461  1.9527e+001 -5.5878e+001  1.5928e+001 45662 90360,90412,90386
 3.0000e+000 90438 -1.9845e+001 -1.2664e+002  3.1287e+000 45662 90308,90360,90334
 3.0000e+000 90910 -2.4303e+001 -7.4594e+001 -1.2340e+001 45108 90688,90766,90714
 3.0000e+000 90887  1.2370e+001 -1.0648e+002  2.2441e+001 45108 90662,90766,90688
 3.0000e+000 90864 -6.3822e+001 -1.0106e+002  2.7935e+001 45108 90636,90766,90662
 3.0000e+000 90841  2.6454e+001 -1.2731e+002 -5.1729e+001 45108 90714,90766,90740
 3.0000e+000 90818 -5.2600e+001 -1.3413e+002  4.4246e+001 45108 90636,90792,90766
 3.0000e+000 91158 -3.3092e+001 -1.2767e+002 -5.5563e+000 44604 91181,91011,90959
 3.0000e+000 91135 -3.9492e+001 -1.4332e+002 -1.8365e+001 44604 91181,90959,90933
 3.0000e+000 91112 -4.0137e+001 -1.5889e+002  1.2643e+001 44604 90959,91011,90985
 3.0000e+000 91089 -2.9011e+000 -1.8167e+002 -2.2026e+001 44604 90933,91063,91037
 3.0000e+000 91207 -1.6684e+001 -1.5173e+002 -1.9143e+001 44604 91037,91011,91181
 3.0000e+000 91230 -3.9220e+001 -1.9309e+002 -3.2551e+001 44604 91037,91181,90933
 3.0000e+000 91429 -8.6766e+000 -1.8157e+002 -1.3268e+001 44264 91452,91279,91253
 3.0000e+000 91406 -2.1378e+000 -2.0367e+002 -1.5586e+001 44264 91452,91253,91357
 3.0000e+000 91383 -3.7442e+001 -1.4497e+002  3.6136e+001 44264 91279,91331,91305
 3.0000e+000 91478 -5.3949e+000 -1.7384e+002 -1.1618e+001 44264 91331,91279,91452
 3.0000e+000 91501  1.1224e+001 -1.8514e+002 -9.5360e+000 44264 91331,91452,91357
 3.0000e+000 92060 -9.5728e+001 -2.0296e+002 -2.6403e+000 43860 92083,91740,91688
 3.0000e+000 92037 -5.2929e+001 -2.1026e+002  1.6258e+001 43860 92083,91688,91896
 3.0000e+000 92014 -8.3809e+001 -2.4335e+002 -4.3635e-002 43860 91766,91870,91844
 3.0000e+000 91991 -4.7498e+001 -1.9264e+002  1.6000e+001 43860 91740,91870,91766
 3.0000e+000 91968 -4.8636e+000 -2.0981e+002  7.4954e+000 43860 91766,91844,91792
 3.0000e+000 91945 -8.5957e+001 -2.1583e+002 -1.7369e+001 43860 91688,91740,91714
 3.0000e+000 91922 -3.2834e+001 -2.3916e+002 -4.0383e+000 43860 91792,91844,91818
 3.0000e+000 92109 -5.9935e+001 -1.9453e+002  1.6820e+001 43860 91870,91740,92083
 3.0000e+000 92132 -1.4330e+001 -1.9405e+002  3.8695e+001 43860 91870,92083,91896
 3.0000e+000 92353  2.0684e+000 -1.3163e+002 -9.7008e+000 43662 92203,92255,92229
 3.0000e+000 92330 -1.5417e+001 -1.3072e+002 -4.8267e+000 43662 92376,92203,92281
 3.0000e+000 92307  1.6026e+001 -6.4320e+001  9.0750e+000 43662 92177,92281,92203
 3.0000e+000 92402 -5.0231e+001 -1.4544e+002  4.5803e+000 43662 92255,92203,92376
 3.0000e+000 92682 -1.3942e+001 -2.6015e+002 -2.5855e+001 43464 92532,92584,92558
 3.0000e+000 92659 -1.5353e+001 -1.7342e+002  4.8942e+000 43464 92506,92584,92532
 3.0000e+000 92636 -2.7650e+001 -1.4954e+002 -2.9303e+001 43464 92506,92610,92584
 3.0000e+000 93013  2.2379e+001 -1.3218e+002 -3.9739e+001 42960 92866,92918,92892
 3.0000e+000 92990 -1.6808e+001 -1.5190e+002 -1.0318e+001 42960 93036,92918,92866
 3.0000e+000 92967  7.3593e+000 -1.7693e+002  4.9889e+000 42960 93036,92866,92840
 3.0000e+000 92944  3.1810e+000 -1.1654e+002  7.7307e+000 42960 92788,92918,92814
 3.0000e+000 93062 -4.3291e+000 -1.4105e+002 -2.3060e+000 42960 92814,92918,93036
 3.0000e+000 93085  4.1079e+001 -1.4630e+002  1.8325e+001 42960 92814,93036,92840
 3.0000e+000 93186 -2.0450e+001 -1.9125e+002 -4.3154e+001 42556 93108,93160,93134
 3.0000e+000 93554 -1.0638e+001 -1.9998e+002  3.4166e+000 42052 93231,93387,93361
 3.0000e+000 93531 -1.2354e+001 -1.8088e+002  3.7903e+001 42052 93231,93413,93387
 3.0000e+000 93508  9.9045e+000 -1.4483e+002 -1.0765e+001 42052 93231,93361,93257
 3.0000e+000 93485 -9.9195e+000 -1.3776e+002  1.1250e+001 42052 93283,93361,93335
 3.0000e+000 93462 -3.1652e+001 -1.4847e+002 -3.3051e-001 42052 93257,93361,93283
 3.0000e+000 93439 -1.9417e+001 -1.3470e+002 -2.2441e+001 42052 93283,93335,93309
 3.0000e+000 94162  6.2489e+000 -1.1089e+002  5.3019e+000 41498 93767,93975,93793
 3.0000e+000 94139 -7.7818e-001 -1.1361e+002  7.1358e+000 41498 93741,93975,93767
 3.0000e+000 94116 -1.2779e+001 -9.4140e+001  8.1615e+000 41498 93793,93975,93923
 3.0000e+000 94093 -2.9863e+001 -1.3427e+002  2.1531e+001 41498 93923,93975,93949
 3.0000e+000 94070 -8.9513e+000 -5.1495e+001 -5.1294e+000 41498 93871,93923,93897
 3.0000e+000 94047 -5.1667e+000 -7.6892e+001 -7.0186e+000 41498 93793,93923,93871
 3.0000e+000 94024 -2.6236e+000 -5.2298e+001 -1.2460e+001 41498 93819,93871,93845
 3.0000e+000 94001 -1.2918e+001 -6.4450e+001 -4.2117e-001 41498 93793,93871,93819
 3.0000e+000 94619 -3.3788e+001 -1.5323e+002 -4.3356e+001 40930 94642,94423,94371
 3.0000e+000 94596  3.4646e-001 -1.5334e+002 -3.9294e+000 40930 94642,94371,94345
 3.0000e+000 94573  2.0659e+001 -4.7751e+001  4.3279e+000 40930 94345,94501,94475
 3.0000e+000 94550  2.0168e+001 -1.9851e+002 -5.6443e+001 40930 94371,94423,94397
 3.0000e+000 94527  2.8507e-001 -8.4564e+001 -2.6822e+001 40930 94423,94475,94449
 3.0000e+000 94668 -1.2219e+000 -8.9139e+001 -3.0322e+001 40930 94475,94423,94642
 3.0000e+000 94691  1.2203e+001 -1.2931e+002  3.3929e+000 40930 94475,94642,94345
 3.0000e+000 95148 -6.1818e+001 -1.6606e+002  3.6805e+001 40362 95171,94952,94926
 3.0000e+000 95125 -4.7661e+001 -1.5578e+002  5.4322e+001 40362 95171,94926,95004
 3.0000e+000 95102 -8.2649e+001 -1.8519e+002  4.1751e+001 40362 94874,95004,94926
 3.0000e+000 95079 -2.3655e+001 -1.8680e+002  8.1666e+001 40362 94874,95030,95004
 3.0000e+000 95056 -9.0362e+001 -1.9905e+002  4.6349e+001 40362 94874,94926,94900
 3.0000e+000 95197 -4.6486e+001 -1.5091e+002  4.4432e+001 40362 94978,94952,95171
 3.0000e+000 95220 -3.4830e+001 -1.4251e+002  6.1464e+001 40362 94978,95171,95004
 3.0000e+000 95549 -3.2337e+001 -8.1276e+001 -4.4648e+000 39586 95350,95402,95376
 3.0000e+000 95526 -4.4492e+000 -5.5999e+001 -1.6290e+001 39586 95324,95402,95350
 3.0000e+000 95503 -1.4876e+001 -2.1337e+001  1.8388e+001 39586 95324,95454,95402
 3.0000e+000 95480  9.4268e+000 -1.1590e+002  3.1879e+001 39586 95402,95454,95428
 3.0000e+000 96055 -1.1164e+001 -4.8707e+001 -9.1806e+000 38968 96078,95862,95810
 3.0000e+000 96032 -2.2063e-001 -5.0457e+001 -5.0806e+000 38968 96078,95810,95758
 3.0000e+000 96009 -8.8372e+000 -9.0105e+001 -1.9212e+001 38968 96150,95732,95888
 3.0000e+000 95986  1.0894e+001 -2.9174e+001  5.4178e+000 38968 95810,95862,95836
 3.0000e+000 95963 -4.7193e+000 -8.7898e+001 -2.0152e+001 38968 95732,95914,95888
 3.0000e+000 95940 -3.1432e+001 -5.2677e+001  2.3467e+001 38968 95758,95810,95784
 3.0000e+000 96104  7.9566e+000 -5.4756e+001 -5.2340e-001 38968 95888,95862,96078
 3.0000e+000 96127 -9.9978e+000 -8.3559e+001 -1.0255e+001 38968 96150,95888,96078
 3.0000e+000 96176 -1.4561e+001 -6.7636e+001 -1.2688e+001 38968 95758,95732,96150
 3.0000e+000 96199 -9.5667e+000 -5.5416e+001 -2.6500e+000 38968 95758,96150,96078
 3.0000e+000 96545  3.2416e+001 -1.3295e+002 -2.2760e+001 38507 96640,96568,96352
 3.0000e+000 96522 -3.8549e+001 -2.1851e+002  4.6806e+001 38507 96568,96300,96222
 3.0000e+000 96499  8.9197e+001 -7.8891e+001 -8.8046e+001 38507 96640,96352,96326
 3.0000e+000 96476 -1.6756e+000 -1.8855e+002 -5.3112e+001 38507 96352,96404,96378
 3.0000e+000 96453 -9.8347e+001 -2.3940e+002  8.6420e+000 38507 96222,96300,96248
 3.0000e+000 96430 -7.3046e+001 -2.9135e+002 -3.3873e+001 38507 96248,96300,96274
 3.0000e+000 96594 -4.7883e+001 -1.8855e+002  2.2868e+000 38507 96404,96352,96568
 3.0000e+000 96617  5.9764e-001 -1.6797e+002  2.8333e+001 38507 96404,96568,96222
 3.0000e+000 96666 -1.1869e+001 -2.2426e+002  3.6857e+001 38507 96300,96568,96640
 3.0000e+000 96689  5.3131e+000 -1.8826e+002 -2.1977e+001 38507 96300,96640,96326
 3.0000e+000 97069  1.3815e+001 -3.6574e+001  2.3513e+000 37760 97092,96873,96821
 3.0000e+000 97046  3.3918e+000 -4.1677e+001  8.9002e+000 37760 97092,96821,96795
 3.0000e+000 97023 -3.4137e+001 -2.8484e+001  6.2374e+000 37760 96821,96873,96847
 3.0000e+000 97000  2.5737e+001  1.5407e+001 -1.3556e+001 37760 96873,96925,96899
 3.0000e+000 96977  5.9598e+000 -2.6349e+001 -1.3057e+001 37760 96795,96951,96925
 3.0000e+000 97118  2.4125e+001 -2.4068e+001 -1.3680e+001 37760 96925,96873,97092
 3.0000e+000 97141 -7.1358e+000 -3.8412e+001 -5.8060e+000 37760 96925,97092,96795
 3.0000e+000 97647 -8.2893e+001 -1.7954e+002  2.0129e+001 37356 97324,97480,97376
 3.0000e+000 97624 -1.4544e+001 -1.9015e+002  8.2464e+001 37356 97324,97506,97480
 3.0000e+000 97601 -5.8030e+001 -9.8107e+001  4.0850e+001 37356 97376,97480,97454
 3.0000e+000 97578 -6.9796e+001 -1.6526e+002  1.2332e+001 37356 97324,97376,97350
 3.0000e+000 97555 -5.3412e+001 -1.0544e+002  2.2199e+001 37356 97376,97454,97402
 3.0000e+000 97532 -5.7086e+001 -9.2616e+001  2.2871e+001 37356 97402,97454,97428
 3.0000e+000 98232 -4.7704e+000 -3.1708e+001 -1.1492e+001 36902 97935,98065,98013
 3.0000e+000 98209  2.2350e+001 -2.6778e+001 -1.5365e+001 36902 97935,98091,98065
 3.0000e+000 98186  1.2687e+001 -3.3170e+001 -7.6452e+000 36902 97935,98013,97987
 3.0000e+000 98163  8.1519e+000 -2.8838e+000 -2.0114e+001 36902 97909,98091,97935
 3.0000e+000 98140  1.1767e+001  4.0310e+000  4.2005e+000 36902 97935,97987,97961
 3.0000e+000 98117 -9.5232e+000 -5.0821e+001 -4.0604e+000 36902 98013,98065,98039
 3.0000e+000 98659 -1.2307e+001 -2.2608e+002 -3.3260e+001 36604 98682,98414,98388
 3.0000e+000 98636 -2.7333e+001 -2.1845e+002  3.1702e+001 36604 98682,98388,98336
 3.0000e+000 98613 -7.9297e+000 -1.8053e+002  1.5003e+001 36604 98754,98518,98466
 3.0000e+000 98590  7.2062e+000 -4.9398e+001 -2.6288e+001 36604 98414,98466,98440
 3.0000e+000 98567 -2.6641e+001 -2.6394e+002  2.8208e+001 36604 98336,98388,98362
 3.0000e+000 98544  1.0646e+001 -2.3133e+002  1.0242e+002 36604 98466,98518,98492
 3.0000e+000 98708  1.3868e+001 -1.5065e+002 -4.6594e+001 36604 98466,98414,98682
 3.0000e+000 98731 -5.3567e+000 -1.8152e+002  1.4317e+001 36604 98754,98466,98682
 3.0000e+000 98780 -5.1336e+000 -1.8141e+002  1.5248e+001 36604 98336,98518,98754
 3.0000e+000 98803 -1.3177e+000 -1.8136e+002  1.5219e+001 36604 98336,98754,98682
 3.0000e+000 99309 -2.9309e+001 -1.0664e+002  1.0307e+001 36200 99332,99116,99012
 3.0000e+000 99286 -8.3025e+000 -9.7004e-001 -3.9307e+001 36200 99332,99012,98986
 3.0000e+000 99263 -1.2505e+001 -9.9900e+001 -2.2893e+000 36200 99012,99116,99064
 3.0000e+000 99240  6.8128e+000  3.4878e+000  2.3353e+000 36200 98986,99168,99142
 3.0000e+000 99217 -3.8768e+001 -1.4794e+002  2.0669e+001 36200 99064,99116,99090
 3.0000e+000 99194 -3.9896e+001 -8.7875e+001 -2.5045e+001 36200 99012,99064,99038
 3.0000e+000 99358 -3.4881e+001 -1.8666e+002  5.5196e+001 36200 99142,99116,99332
 3.0000e+000 99381 -1.4103e+001 -1.1066e+002 -4.3841e+000 36200 99142,99332,98986
 3.0000e+000 99887 -2.5149e+001 -1.1088e+002  5.2754e+000 35488 99564,99720,99590
 3.0000e+000 99864 -1.9131e+001 -9.5535e+001  2.4081e+000 35488 99564,99746,99720
 3.0000e+000 99841 -7.7540e+000 -1.2332e+002 -1.7110e+001 35488 99642,99694,99668
 3.0000e+000 99818 -1.8356e+001 -1.4874e+002  1.7316e+001 35488 99590,99694,99642
 3.0000e+000 99795  1.9838e+000 -1.0985e+002  9.0819e+000 35488 99590,99720,99694
 3.0000e+000 99772  4.1248e+001 -2.0990e+002  2.7348e+001 35488 99590,99642,99616
 3.0000e+000 99988  5.2950e+000 -3.3309e+000 -8.4071e+000 35198 99910,99962,99936
 3.0000e+000 100138  6.9470e+000 -8.4453e+001 -3.2164e+001 34794 100233,100161,100063
 3.0000e+000 100115 -7.6675e+001 -1.3098e+002 -4.3670e+000 34794 100365,100161,100037
 3.0000e+000 100187  3.4103e+001 -1.2022e+002 -2.8372e+001 34794 100089,100063,100161
 3.0000e+000 100210  5.0339e+000 -1.2407e+002 -2.7081e+001 34794 100089,100161,100011
 3.0000e+000 100259  5.4864e+000 -1.0713e+002 -2.2699e+000 34794 100037,100161,100233
 3.0000e+000 100391 -4.5211e+000 -1.2634e+002 -3.6830e+000 34794 100011,100161,100365
 3.0000e+000 100927 -2.0805e+001 -1.1349e+002 -1.2562e+000 34404 100679,100809,100783
 3.0000e+000 100904  2.3408e+000 -1.2083e+002 -8.6750e-001 34404 100653,100809,100679
 3.0000e+000 100881  4.7321e+000 -1.1079e+002  1.7251e+000 34404 100705,100783,100731
 3.0000e+000 100858 -1.2200e+001 -1.1182e+002  2.3996e+000 34404 100679,100783,100705
 3.0000e+000 100835 -5.0940e+001 -1.1888e+002 -6.8585e+001 34404 100731,100783,100757
 3.0000e+000 101354 -3.8417e+001 -2.2186e+002  3.1832e+001 34000 101377,101109,101057
 3.0000e+000 101331 -7.5135e+001 -2.2640e+002  4.0098e+001 34000 101449,101377,101057
 3.0000e+000 101308 -8.6001e+001 -1.8547e+002  4.1996e+001 34000 101449,101057,101031
 3.0000e+000 101285 -7.5286e+001 -1.5568e+002  3.3394e+001 34000 101031,101213,101187
 3.0000e+000 101262 -5.6842e+001 -2.4331e+002 -2.1213e+001 34000 101135,101187,101161
 3.0000e+000 101239 -7.3961e+001 -2.4060e+002  4.2037e+001 34000 101057,101109,101083
 3.0000e+000 101403 -4.2581e+001 -1.9223e+002  9.3888e+000 34000 101135,101109,101377
 3.0000e+000 101426 -9.0291e+001 -2.1127e+002  4.9321e+000 34000 101135,101377,101187
 3.0000e+000 101475 -4.7967e+001 -1.7466e+002  2.6200e+001 34000 101187,101377,101449
 3.0000e+000 101498 -7.6633e+001 -1.5625e+002  3.3822e+001 34000 101187,101449,101031
 3.0000e+000 102083  5.3187e+001 -7.7268e+001 -2.3452e+000 33472 102106,101812,101786
 3.0000e+000 102060 -7.7912e+000 -1.0112e+002 -2.6073e+000 33472 102106,101786,101916
 3.0000e+000 102037 -5.1545e+001 -1.0108e+002 -2.8939e+001 33472 101812,101864,101838
 3.0000e+000 102014 -1.9581e+001 -1.3869e+002 -2.0337e+001 33472 101864,101916,101890
 3.0000e+000 101991 -1.8850e+001 -1.2898e+002 -1.0066e+001 33472 101786,101942,101916
 3.0000e+000 101968 -2.9094e+001 -1.2532e+002  1.6983e+001 33472 101760,101942,101786
 3.0000e+000 102132  1.4523e+001 -8.0267e+001 -2.6162e+001 33472 101864,101812,102106
 3.0000e+000 102155 -6.8077e+000 -8.6006e+001 -3.0799e+001 33472 101864,102106,101916
 3.0000e+000 102612 -4.0177e+001 -1.7211e+002 -7.9068e+001 33038 102635,102468,102390
 3.0000e+000 102589 -8.3594e+001 -2.4064e+002 -1.0496e+002 33038 102635,102390,102364
 3.0000e+000 102566 -4.5764e-001 -1.5232e+002 -6.9558e+001 33038 102390,102468,102442
 3.0000e+000 102543 -2.6316e+001 -2.0257e+002 -4.9862e+001 33038 102338,102494,102364
 3.0000e+000 102520 -2.6345e+001 -1.5336e+002 -5.1904e+001 33038 102390,102442,102416
 3.0000e+000 102661 -3.8941e+001 -1.5553e+002 -3.9648e+001 33038 102494,102468,102635
 3.0000e+000 102684 -5.0121e+001 -1.9510e+002 -5.8910e+001 33038 102494,102635,102364
 3.0000e+000 103318 -2.3221e+001 -7.1058e+001  1.2137e+001 32402 102972,103128,103076
 3.0000e+000 103295 -2.4776e+001 -8.0889e+001  8.6022e+000 32402 102946,103128,102972
 3.0000e+000 103272 -2.0020e+001 -7.2325e+001  2.9479e+001 32402 103076,103128,103102
 3.0000e+000 103249 -1.5786e+001 -7.4152e+001  3.9486e+001 32402 102946,103154,103128
 3.0000e+000 103226 -3.5732e+001 -7.1824e+001  9.1311e+000 32402 102972,103076,102998
 3.0000e+000 103203 -2.6930e+001 -9.9423e+001 -1.1396e+001 32402 102998,103076,103050
 3.0000e+000 103180 -5.2561e+001 -7.9573e+001 -1.5173e+001 32402 102998,103050,103024
 3.0000e+000 103696 -6.5216e+001 -2.0672e+002 -9.5586e+000 31924 103448,103526,103500
 3.0000e+000 103673 -3.2642e+001 -1.9862e+002 -3.4055e+001 31924 103448,103578,103526
 3.0000e+000 103650 -4.9903e+001 -1.7314e+002 -1.7758e+001 31924 103448,103500,103474
 3.0000e+000 103627 -3.8850e+001 -2.4230e+002 -4.0093e+001 31924 103422,103578,103448
 3.0000e+000 103604 -5.5627e+001 -3.3465e+002 -8.8299e-001 31924 103526,103578,103552
 3.0000e+000 104281  2.0278e+000 -3.1807e+001 -2.3395e+001 31520 104304,104062,104036
 3.0000e+000 104258  1.5849e+001 -4.2540e+001 -2.4607e+001 31520 104304,104036,103984
 3.0000e+000 104235 -4.3196e+001 -8.3746e+001 -3.8266e+001 31520 104062,104114,104088
 3.0000e+000 104212  1.3213e+000 -5.0276e+001 -2.0997e+001 31520 103958,104114,103984
 3.0000e+000 104189 -1.7157e+000 -8.2031e+001 -2.8560e-001 31520 103984,104036,104010
 3.0000e+000 104166 -1.5895e+001  7.7486e+000 -1.6864e+001 31520 103958,104140,104114
 3.0000e+000 104330 -5.0367e+000 -3.9061e+001 -1.7922e+001 31520 104114,104062,104304
 3.0000e+000 104353  6.1006e+000 -4.8283e+001 -2.0851e+001 31520 104114,104304,103984
 3.0000e+000 104704 -1.9792e+001 -2.6286e+001 -1.3497e+001 31066 104479,104583,104505
 3.0000e+000 104681  3.7200e+001 -1.8191e+000 -2.1088e+001 31066 104479,104609,104583
 3.0000e+000 104658  1.1364e+001 -9.4637e+001  1.3967e+000 31066 104505,104557,104531
 3.0000e+000 104635  7.5843e+000 -1.4634e+001 -9.1473e+000 31066 104505,104583,104557
 3.0000e+000 104925  2.0810e+001 -1.5805e+002 -2.0023e+001 30754 104775,104827,104801
 3.0000e+000 104902  1.3443e+001 -8.6664e+001 -1.6991e+001 30754 104775,104853,104827
 3.0000e+000 104879  5.2032e-001 -9.1011e+001 -6.9227e-003 30754 104749,104853,104775
 3.0000e+000 105482 -5.2413e+001 -1.4114e+002  1.2154e+001 30164 105505,105136,105110
 3.0000e+000 105459 -3.8645e+001 -1.5732e+002  1.7369e+001 30164 105649,105505,105110
 3.0000e+000 105436 -4.5994e+001 -1.5514e+002  5.8628e+000 30164 105577,105188,105136
 3.0000e+000 105413 -4.9773e+001 -1.6453e+002  3.2658e+001 30164 105649,105110,105318
 3.0000e+000 105390 -4.3675e+001 -2.6880e+002  7.6000e+001 30164 105214,105292,105240
 3.0000e+000 105367 -6.0005e+001 -2.9443e+002  9.0757e+001 30164 105240,105292,105266
 3.0000e+000 105344 -5.6983e+001 -1.5099e+002  5.9159e+000 30164 105136,105188,105162
 3.0000e+000 105531 -3.7318e+001 -1.5099e+002  9.3903e+000 30164 105577,105136,105505
 3.0000e+000 105554  1.9159e+001 -1.3908e+002  1.5710e+001 30164 105214,105505,105292
 3.0000e+000 105603 -3.9380e+001 -1.5048e+002  1.4791e+001 30164 105214,105188,105577
 3.0000e+000 105626 -3.4377e+001 -1.4764e+002  1.8234e+001 30164 105214,105577,105505
 3.0000e+000 105675 -2.9269e+001 -1.3678e+002  1.1346e+001 30164 105292,105505,105649
 3.0000e+000 105698 -3.0327e+001 -1.3094e+002  2.3933e+001 30164 105292,105649,105318
 3.0000e+000 106027  2.0217e+000 -7.9777e+001  1.2080e+000 29868 106322,106050,105880
 3.0000e+000 106004 -1.6893e+000 -5.9786e+001  4.3983e+000 29868 106250,106050,105828
 3.0000e+000 105981 -6.6399e+000 -6.7139e+001 -6.4174e+000 29868 106250,105828,105802
 3.0000e+000 105958 -8.4444e+000 -8.8904e+001  7.3395e+000 29868 106322,105880,106122
 3.0000e+000 106076  3.2193e+000 -7.5111e+001  1.1631e-001 29868 105906,105880,106050
 3.0000e+000 106099  2.2864e+001 -7.6180e+001 -3.4426e+000 29868 105906,106050,105932
 3.0000e+000 106148 -4.5959e+001 -1.2350e+002  1.0834e+001 29868 105854,105828,106122
 3.0000e+000 106276 -1.0335e+001 -7.1403e+001 -1.0006e+001 29868 105932,106050,106250
 3.0000e+000 106299 -2.9803e+001 -8.9358e+001 -2.2985e+001 29868 105932,106250,105802
 3.0000e+000 106348 -1.7048e+001 -6.8925e+001  8.2923e+000 29868 105828,106050,106322
 3.0000e+000 106371 -2.5093e+001 -7.4893e+001  1.3651e+001 29868 105828,106322,106122
 3.0000e+000 106828  3.0563e+001 -4.5765e+001  8.7343e+000 29521 106580,106710,106684
 3.0000e+000 106805 -7.3006e+000 -7.1292e+001 -2.2083e+001 29521 106554,106710,106580
 3.0000e+000 106782 -2.8423e+000 -6.2751e+001  9.0946e-001 29521 106580,106684,106606
 3.0000e+000 106759 -1.4869e+001 -8.8537e+001 -2.2444e+000 29521 106606,106684,106658
 3.0000e+000 106736 -1.1172e+001 -4.2403e+001  1.5575e+001 29521 106606,106658,106632
 3.0000e+000 107027 -5.5904e+001 -1.4294e+002 -3.0418e+001 29117 106877,106929,106903
 3.0000e+000 107004  3.3203e+000 -1.1780e+002 -4.7924e+001 29117 106851,106929,106877
 3.0000e+000 106981 -1.6968e+001 -1.8163e+002 -3.4218e+001 29117 106851,106955,106929
 3.0000e+000 107456 -1.1177e+002 -2.6072e+002 -6.7567e+001 28656 107237,107315,107263
 3.0000e+000 107433 -3.0633e+000 -1.7351e+002 -2.7573e+001 28656 107133,107315,107237
 3.0000e+000 107410 -8.0052e+000 -1.3964e+002 -9.8810e+000 28656 107133,107237,107159
 3.0000e+000 107387  2.0039e+000 -6.6108e+001 -2.6954e+001 28656 107159,107237,107185
 3.0000e+000 107364  1.6873e+000 -5.5958e+001  6.8886e+000 28656 107185,107237,107211
 3.0000e+000 107341  3.5135e+000 -3.3309e+001  1.5821e+001 28656 107263,107315,107289
 3.0000e+000 107704  5.3399e+000 -1.1102e+002 -6.8847e-003 27902 107727,107557,107531
 3.0000e+000 107681  1.2995e+001 -9.8355e+001  3.1925e+000 27902 107727,107531,107505
 3.0000e+000 107658 -1.7942e+001 -1.4952e+002 -8.7945e+000 27902 107557,107609,107583
 3.0000e+000 107635 -4.1153e+001 -9.5034e+001  9.6887e+000 27902 107479,107609,107505
 3.0000e+000 107753 -3.3210e+000 -9.9618e+001 -5.9199e+000 27902 107609,107557,107727
 3.0000e+000 107776  2.9053e+000 -8.9445e+001 -3.2975e+000 27902 107609,107727,107505
 3.0000e+000 108333 -5.1426e+001 -2.5461e+002  1.4933e+000 27341 108356,108065,108013
 3.0000e+000 108310 -1.1666e+001 -2.2345e+002 -5.9467e+001 27341 108356,108013,108143
 3.0000e+000 108287 -9.8765e+001 -2.7990e+002 -1.4534e+001 27341 108428,108117,108091
 3.0000e+000 108264 -5.4057e+001 -2.2971e+002 -6.8596e-001 27341 108013,108065,108039
 3.0000e+000 108241 -1.0682e+002 -2.1163e+002 -7.1069e+001 27341 107987,108143,108013
 3.0000e+000 108218 -5.0841e+001 -1.8919e+002 -4.1562e+001 27341 107987,108169,108143
 3.0000e+000 108195 -6.5640e+001 -1.4669e+002 -3.6197e+001 27341 107961,108169,107987
 3.0000e+000 108382 -5.3921e+001 -2.5856e+002 -1.3639e+000 27341 108091,108065,108356
 3.0000e+000 108405 -9.6327e+001 -2.4452e+002 -1.3270e+001 27341 108428,108091,108356
 3.0000e+000 108454 -7.8994e+001 -3.9481e+002 -2.2653e+001 27341 108143,108117,108428
 3.0000e+000 108477 -5.4853e+001 -3.2728e+002 -2.8919e+001 27341 108143,108428,108356
 3.0000e+000 108725  3.0876e+001 -1.7711e+002  1.0225e+001 27029 108748,108526,108500
 3.0000e+000 108702  1.5613e+000 -9.7726e+001  2.8216e+001 27029 108748,108500,108630
 3.0000e+000 108679 -5.0211e+001 -1.4753e+002  2.1863e+001 27029 108578,108630,108604
 3.0000e+000 108656 -1.1388e+001 -1.8496e+002  4.2455e+001 27029 108526,108578,108552
 3.0000e+000 108774  2.7503e+000 -2.0937e+002 -2.8072e+000 27029 108578,108526,108748
 3.0000e+000 108797 -4.8572e+001 -1.5562e+002  5.2381e+000 27029 108578,108748,108630
 3.0000e+000 109045  4.6793e+001 -1.1440e+002  2.2884e+000 26610 108872,108924,108898
 3.0000e+000 109022 -1.8432e+001 -1.4950e+002 -1.2781e+001 26610 108872,108950,108924
 3.0000e+000 108999 -1.3305e+001 -1.4530e+002 -7.2568e+000 26610 108846,108950,108872
 3.0000e+000 108976 -2.6634e+001 -2.0495e+002 -2.0727e+001 26610 108820,108950,108846
 3.0000e+000 109366 -1.4482e+001 -2.5603e+002  1.1580e+001 26006 109144,109222,109196
 3.0000e+000 109343 -1.0219e+001 -2.7265e+002  6.2827e+000 26006 109118,109222,109144
 3.0000e+000 109320 -5.3792e+001 -3.0489e+002  2.7397e+001 26006 109092,109222,109118
 3.0000e+000 109297  2.8384e+001 -2.3379e+002 -2.4480e+001 26006 109144,109196,109170
 3.0000e+000 109274  3.4359e+000 -2.2466e+002  1.8375e+000 26006 109092,109248,109222
 3.0000e+000 109567 -5.3525e+001 -1.4403e+002 -2.5895e+001 25659 109391,109469,109443
 3.0000e+000 109544 -2.6373e+001 -1.3946e+002 -9.6133e+000 25659 109391,109495,109469
 3.0000e+000 109521 -4.4072e+001 -1.0153e+002 -2.2840e+001 25659 109391,109443,109417
 3.0000e+000 109900 -3.6698e+001 -1.1494e+002 -1.1466e+001 25255 109923,109779,109753
 3.0000e+000 109877 -3.0410e+001 -1.0149e+002 -1.3905e+001 25255 109923,109753,109701
 3.0000e+000 109854 -2.7398e+001 -8.9607e+001 -2.7042e+001 25255 109675,109805,109701
 3.0000e+000 109831 -5.8581e+001 -1.2203e+002 -4.9224e+000 25255 109701,109753,109727
 3.0000e+000 109949 -3.1130e+001 -1.3229e+002 -2.5512e+001 25255 109805,109779,109923
 3.0000e+000 109972 -2.0882e+001 -1.0790e+002 -2.8395e+001 25255 109805,109923,109701
 3.0000e+000 110220 -4.2962e+001 -1.5297e+002  2.3189e+001 24701 110243,110021,109995
 3.0000e+000 110197 -3.9223e+001 -1.5606e+002 -2.3253e+000 24701 110243,109995,110099
 3.0000e+000 110174 -1.6360e+001 -1.6596e+002 -2.5947e+000 24701 110315,110073,110047
 3.0000e+000 110151 -4.6822e+001 -1.5617e+002 -1.0248e+000 24701 109995,110125,110099
 3.0000e+000 110269  3.4105e+000 -1.2755e+002  3.3197e+001 24701 110047,110021,110243
 3.0000e+000 110292 -5.4531e+001 -1.6189e+002  1.3340e+001 24701 110315,110047,110243
 3.0000e+000 110341  6.4442e+001 -1.3206e+002 -1.2882e+001 24701 110099,110073,110315
 3.0000e+000 110364  6.9458e+000 -1.3629e+002  9.1660e-001 24701 110099,110315,110243
 3.0000e+000 110661 -4.6193e+001 -2.1758e+002  1.2294e+001 24197 110684,110413,110387
 3.0000e+000 110638 -1.8654e+001 -1.9098e+002 -2.8647e+001 24197 110684,110387,110543
 3.0000e+000 110615  2.7997e+001 -3.1343e+002  1.8509e+001 24197 110756,110491,110465
 3.0000e+000 110592 -4.4353e+001 -1.6775e+002  2.4819e+001 24197 110413,110465,110439
 3.0000e+000 110569  6.0096e+000 -4.5640e+002 -2.5698e+001 24197 110491,110543,110517
 3.0000e+000 110710  5.0982e+000 -1.9189e+002  2.6888e+001 24197 110465,110413,110684
 3.0000e+000 110733 -3.3485e+001 -2.6628e+002  1.7511e+000 24197 110756,110465,110684
 3.0000e+000 110782  7.9731e+001 -2.6021e+002 -1.2969e+001 24197 110543,110491,110756
 3.0000e+000 110805  3.9154e+001 -1.9237e+002 -3.4707e+001 24197 110543,110756,110684
 3.0000e+000 111315 -2.2644e+001 -1.9143e+002 -1.7249e+001 23593 111044,111148,111070
 3.0000e+000 111292 -4.8051e+001 -1.5573e+002 -1.5423e-001 23593 111044,111174,111148
 3.0000e+000 111269  8.0931e+000 -1.1875e+002 -8.7229e+000 23593 111070,111122,111096
 3.0000e+000 111246 -3.6172e+001 -1.9377e+002 -3.6069e+001 23593 111070,111148,111122
 3.0000e+000 111223 -6.2286e+001 -1.3312e+002 -2.3387e+001 23593 111018,111174,111044
 3.0000e+000 111200 -9.3075e+000 -1.7283e+002 -1.7466e+001 23593 110992,111174,111018
 3.0000e+000 111821  2.5267e+001 -2.2835e+002 -1.4372e+000 23089 111916,111844,111628
 3.0000e+000 111798 -5.2846e+001 -2.7117e+002 -4.7351e+001 23089 111844,111550,111524
 3.0000e+000 111775  2.9795e+001 -2.0678e+002  2.1860e+000 23089 111916,111628,111602
 3.0000e+000 111752  2.5740e+000 -3.8289e+002 -2.5070e+001 23089 111498,111680,111524
 3.0000e+000 111729  1.2119e+001 -1.5865e+002  2.9838e+001 23089 111550,111602,111576
 3.0000e+000 111706 -2.5481e+000 -1.2563e+002 -1.8719e+001 23089 111628,111680,111654
 3.0000e+000 111870  1.1073e+001 -2.0758e+002  1.9927e+001 23089 111680,111628,111844
 3.0000e+000 111893  1.9787e+000 -2.3073e+002  3.0087e+000 23089 111680,111844,111524
 3.0000e+000 111942  5.9023e+000 -1.9356e+002 -1.0815e+001 23089 111550,111844,111916
 3.0000e+000 111965  1.0113e+001 -1.7326e+002 -4.8916e+000 23089 111550,111916,111602
 3.0000e+000 112164 -1.7576e+001 -1.2487e+002 -3.7146e+001 22626 112187,112014,111988
 3.0000e+000 112141 -6.7684e+000 -1.6861e+002 -3.4292e+001 22626 112259,112187,111988
 3.0000e+000 112118  1.6588e+001 -1.7819e+002 -3.2126e+000 22626 112259,111988,112092
 3.0000e+000 112213  3.0904e+000 -6.0814e+001 -1.9809e+001 22626 112040,112014,112187
 3.0000e+000 112236 -2.6816e+001 -1.3699e+002 -1.5938e+001 22626 112040,112187,112066
 3.0000e+000 112285  2.3686e+001 -1.2371e+002 -1.8678e+001 22626 112066,112187,112259
 3.0000e+000 112308  4.2554e+001 -1.3284e+002  1.1373e+001 22626 112066,112259,112092
 3.0000e+000 112605 -3.0204e+001 -1.9657e+002  3.7033e+000 22286 112628,112383,112357
 3.0000e+000 112582 -2.7425e+001 -2.0161e+002  1.1672e+001 22286 112772,112628,112357
 3.0000e+000 112559 -3.1438e+001 -2.2511e+002  1.3704e+001 22286 112700,112435,112409
 3.0000e+000 112536 -5.0537e+001 -2.1115e+002  9.7395e+000 22286 112772,112357,112331
 3.0000e+000 112513 -1.0006e+002 -2.1622e+002  2.5911e+001 22286 112435,112487,112461
 3.0000e+000 112654 -1.8849e+001 -1.4797e+002  4.6066e-001 22286 112409,112383,112628
 3.0000e+000 112677 -2.3126e+001 -2.0287e+002  1.4734e+001 22286 112700,112409,112628
 3.0000e+000 112726 -2.9955e+001 -2.1373e+002 -1.4082e+000 22286 112487,112435,112700
 3.0000e+000 112749 -2.8947e+001 -2.0934e+002  2.4084e-001 22286 112487,112700,112628
 3.0000e+000 112798 -1.8134e+001 -2.0885e+002  7.8768e+000 22286 112487,112628,112772
 3.0000e+000 112821 -2.1176e+001 -2.0578e+002  9.2866e+000 22286 112487,112772,112331
 3.0000e+000 112924  7.0579e-001  1.4977e-001  2.6172e+000 21974 112846,112898,112872
 3.0000e+000 113223 -9.4944e+001 -2.7336e+002  3.5843e+001 21420 112949,113053,112975
 3.0000e+000 113200 -7.9605e+001 -2.1548e+002  3.3876e+001 21420 112949,113079,113053
 3.0000e+000 113177  5.6289e+001 -2.2863e+002  6.7561e+001 21420 112975,113053,113001
 3.0000e+000 113154 -1.3901e+002 -3.0996e+002  4.2467e+001 21420 113001,113053,113027
 3.0000e+000 113131 -1.2102e+002 -1.9927e+002  1.6671e+001 21420 112949,113105,113079
 3.0000e+000 113605 -3.0108e+001 -2.6118e+002  6.8778e+001 20716 113331,113435,113357
 3.0000e+000 113582 -3.8816e+001 -1.5902e+002  7.4192e+001 20716 113331,113461,113435
 3.0000e+000 113559 -1.0879e+001 -2.5905e+002 -2.7580e+001 20716 113383,113435,113409
 3.0000e+000 113536 -6.7455e+001 -2.2696e+002 -1.7330e+001 20716 113357,113435,113383
 3.0000e+000 113513 -4.0819e+000 -3.8074e+001 -1.6930e+001 20716 113331,113487,113461
 3.0000e+000 113853  2.7189e+001 -2.4049e+002  8.5986e+000 20290 113876,113680,113654
 3.0000e+000 113830  5.8564e+001 -2.3390e+002  1.0165e+001 20290 113876,113654,113628
 3.0000e+000 113807 -6.9919e-002 -2.7038e+002 -1.0496e+001 20290 113948,113732,113680
 3.0000e+000 113784  6.1671e+001 -2.7020e+002 -3.3229e+001 20290 113680,113732,113706
 3.0000e+000 113902  2.4837e+001 -2.3479e+002  1.1009e+001 20290 113948,113680,113876
 3.0000e+000 113925  1.5994e+001 -2.0638e+002  9.9441e+000 20290 113758,113876,113628
 3.0000e+000 113974 -2.6356e+001 -2.3681e+002 -2.1799e+001 20290 113758,113732,113948
 3.0000e+000 113997 -2.3389e+001 -2.3261e+002 -6.0233e+000 20290 113758,113948,113876
 3.0000e+000 114365 -3.3440e+001 -2.2935e+002  7.6366e-001 19900 114146,114198,114172
 3.0000e+000 114342 -3.3448e+001 -2.2936e+002  7.3957e-001 19900 114042,114198,114146
 3.0000e+000 114319 -3.5810e+001 -2.2614e+002  2.6261e+000 19900 114042,114224,114198
 3.0000e+000 114296 -9.3165e+001 -2.1778e+002 -4.4826e+000 19900 114094,114146,114120
 3.0000e+000 114273 -3.6319e+001 -2.1060e+002 -1.4041e+001 19900 114042,114146,114094
 3.0000e+000 114250 -8.7147e+001 -2.2370e+002 -6.6862e+000 19900 114042,114094,114068
 3.0000e+000 114566 -7.3870e+001 -2.4196e+002 -1.1930e+000 19496 114442,114494,114468
 3.0000e+000 114543 -9.3879e+001 -2.2293e+002 -1.1360e+001 19496 114416,114494,114442
 3.0000e+000 114520 -8.1182e+001 -2.2715e+002 -1.6655e+001 19496 114390,114494,114416
 3.0000e+000 114767 -4.2779e+000 -2.2887e+002  9.9608e+000 19042 114790,114669,114643
 3.0000e+000 114744 -3.5074e+000 -2.2166e+002  1.3108e+001 19042 114790,114643,114591
 3.0000e+000 114721  2.5734e+001 -2.2448e+002  5.1630e+001 19042 114591,114643,114617
 3.0000e+000 114816 -1.6037e+001 -2.2084e+002  7.0758e+000 19042 114695,114669,114790
 3.0000e+000 114839 -8.1158e+000 -2.0595e+002  1.2488e+001 19042 114695,114790,114591
 3.0000e+000 114991 -9.6786e+001 -2.6421e+002  3.6500e-001 18488 114864,114916,114890
 3.0000e+000 114968 -7.1644e+001 -2.6431e+002 -7.0974e+000 18488 114864,114942,114916
 3.0000e+000 115192  1.2260e+002 -1.7588e+002  1.9291e+001 18098 115215,115042,115016
 3.0000e+000 115169  6.2330e+001 -1.4817e+002 -5.7240e-001 18098 115215,115016,115120
 3.0000e+000 115146  8.5689e+001 -1.6930e+002 -2.7804e+001 18098 115287,115094,115068
 3.0000e+000 115241  7.7695e+001 -2.6333e+002 -1.1121e+000 18098 115068,115042,115215
 3.0000e+000 115264  8.3464e+001 -1.6543e+002 -8.5571e+000 18098 115287,115068,115215
 3.0000e+000 115313  5.7710e+001 -1.7879e+002 -2.4502e+001 18098 115120,115094,115287
 3.0000e+000 115336  4.6599e+001 -1.7857e+002 -6.1662e+000 18098 115120,115287,115215
 3.0000e+000 115846  6.4761e+001 -3.0587e+002 -9.1493e+001 17644 115653,115705,115679
 3.0000e+000 115823 -1.4400e+001 -2.7671e+002 -4.3019e+001 17644 115627,115705,115653
 3.0000e+000 115800  5.9057e+001 -1.8837e+002 -2.3301e+000 17644 115549,115705,115627
 3.0000e+000 115777  1.9722e+000 -2.6035e+002  2.5341e+001 17644 115549,115627,115575
 3.0000e+000 115754  4.2124e+001 -1.8226e+002  1.5630e+001 17644 115523,115705,115549
 3.0000e+000 115731 -8.6235e+001 -2.3606e+002 -9.3267e+000 17644 115575,115627,115601
 3.0000e+000 116067 -8.2911e+001 -4.1273e+002 -1.4455e+001 17116 115891,115943,115917
 3.0000e+000 116044 -1.5425e+002 -4.7403e+002  1.1862e+001 17116 115891,115995,115943
 3.0000e+000 116021 -1.4441e+002 -3.9542e+002  1.1169e+001 17116 115943,115995,115969
 3.0000e+000 116288  3.2328e+001 -2.7277e+002  6.3175e+001 16704 116164,116216,116190
 3.0000e+000 116265 -2.9705e+001 -3.6429e+002  3.6246e+001 16704 116112,116216,116164
 3.0000e+000 116242 -1.5441e+002 -3.7092e+002 -2.6658e+000 16704 116112,116164,116138
 3.0000e+000 116489 -2.7517e+001 -2.2612e+002 -8.7944e+000 16434 116339,116417,116365
 3.0000e+000 116466 -4.5177e+001 -2.2937e+002 -9.7738e-001 16434 116313,116417,116339
 3.0000e+000 116443 -1.4310e+002 -2.8982e+002  7.4407e+001 16434 116365,116417,116391
 3.0000e+000 116592  1.6823e+001 -2.8012e+002 -2.4339e+001 15967 116514,116566,116540
 3.0000e+000 116695 -2.7411e+001 -4.0639e+002 -5.4483e+001 15552 116617,116669,116643
 3.0000e+000 116798 -2.9819e+001 -2.1569e+002  0.0000e+000 421 116720,116772,116746
 3.1000e+000 69066 -2.1931e+000 -2.6107e+002 -2.0805e+001 68738 68965,69017,68991
 3.1000e+000 69043  1.3195e+002 -2.8632e+002  8.7671e+002 68738 68939,69017,68965
 3.1000e+000 69371 -9.2181e+000 -7.5889e+001 -2.7013e+001 68426 69172,69250,69198
 3.1000e+000 69348  1.4069e+000 -1.3926e+002  7.8195e+000 68426 69146,69250,69172
 3.1000e+000 69325 -4.7087e+000 -2.5780e+001  1.0843e+001 68426 69198,69250,69224
 3.1000e+000 69302 -5.6527e+001 -1.1457e+002  3.0465e+000 68426 69146,69276,69250
 3.1000e+000 69521  6.0135e+000 -5.3472e+001 -1.9650e+001 68228 69420,69472,69446
 3.1000e+000 69498 -9.8770e+000 -4.2280e+001 -3.3840e+001 68228 69394,69472,69420
 3.1000e+000 69781 -1.5001e+001  2.6031e+001  1.1418e+001 68030 69631,69683,69657
 3.1000e+000 69758  6.4568e+000 -3.0840e+001 -1.2215e+001 68030 69631,69709,69683
 3.1000e+000 69735 -3.0258e+000  1.6292e+001  3.0687e+001 68030 69605,69709,69631
 3.1000e+000 70078 -1.1935e+000  2.6505e+001 -1.0151e+001 67832 69882,69934,69908
 3.1000e+000 70055 -3.9757e+000 -6.0637e+000  8.2497e+000 67832 69856,69934,69882
 3.1000e+000 70032  1.1227e+000 -1.7468e+001 -3.3455e+000 67832 69830,69934,69856
 3.1000e+000 70009  3.0178e+000 -1.3450e+001 -1.1940e+001 67832 69804,69934,69830
 3.1000e+000 69986 -9.9611e+000  3.0547e+001  9.5011e+000 67832 69804,69960,69934
 3.1000e+000 70586 -8.6599e+000 -5.9991e+001  1.4366e+001 67634 70609,70419,70341
 3.1000e+000 70563 -3.9152e+000 -9.7080e+001  2.7041e+001 67634 70681,70609,70341
 3.1000e+000 70540 -9.9363e+000 -1.0077e+002  3.0951e+001 67634 70681,70341,70315
 3.1000e+000 70517 -2.0673e+001 -5.6070e+001  3.3790e+001 67634 70341,70419,70367
 3.1000e+000 70494 -2.1919e+001  2.0104e+001 -6.9915e+000 67634 70263,70445,70289
 3.1000e+000 70471  3.9687e+000  4.5045e+000  1.7191e+001 67634 70367,70419,70393
 3.1000e+000 70635 -4.8124e-001  2.5828e+001  9.4229e+000 67634 70445,70419,70609
 3.1000e+000 70658 -2.2579e+001 -6.6842e+001  2.1768e+001 67634 70445,70609,70289
 3.1000e+000 70707 -1.7306e+000 -8.1410e+001  9.3039e+000 67634 70289,70609,70681
 3.1000e+000 70730 -2.1308e+001 -9.2483e+001  1.5021e+001 67634 70289,70681,70315
 3.1000e+000 71108 -3.4340e+000 -5.7884e+001  2.8702e+001 67344 71131,70912,70886
 3.1000e+000 71085 -8.4298e+000 -7.0366e+001  3.0432e+001 67344 71131,70886,70860
 3.1000e+000 71062 -2.0098e+001 -8.0198e+001  3.1971e+001 67344 71203,70938,70912
 3.1000e+000 71039  2.6936e+001 -5.2082e+001  2.2222e+001 67344 70834,70990,70860
 3.1000e+000 71016 -1.3278e+001 -9.2249e+001  6.3444e+000 67344 70938,70990,70964
 3.1000e+000 71157 -1.8422e+001 -6.7741e+001  3.3065e+001 67344 71203,70912,71131
 3.1000e+000 71180  4.1905e+000 -6.0080e+001  1.8590e+001 67344 70990,71131,70860
 3.1000e+000 71229 -1.2607e+001 -1.0549e+002  2.6312e+001 67344 70990,70938,71203
 3.1000e+000 71252 -7.6521e+000 -8.7219e+001  2.4086e+001 67344 70990,71203,71131
 3.1000e+000 71603  3.5380e+000 -7.9735e+001  9.2684e+000 67032 71378,71482,71404
 3.1000e+000 71580  3.9355e+000 -4.3724e+001  1.7825e+001 67032 71378,71508,71482
 3.1000e+000 71557  2.6835e+000 -4.8700e+001  2.6702e+001 67032 71404,71456,71430
 3.1000e+000 71534 -3.0692e-001 -8.5896e+001  1.3199e+001 67032 71404,71482,71456
 3.1000e+000 72003  2.2916e+001 -2.9170e+001  1.7857e+001 66834 71755,71859,71781
 3.1000e+000 71980  1.1828e+001 -1.2507e+002  2.8163e+000 66834 71755,71885,71859
 3.1000e+000 71957  7.5404e+000 -1.7438e+001  7.8474e+000 66834 71781,71833,71807
 3.1000e+000 71934 -1.3076e+001 -1.3797e+002 -8.9241e+000 66834 71781,71859,71833
 3.1000e+000 71911  3.8429e+001 -4.5785e+001  4.7753e+001 66834 71729,71885,71755
 3.1000e+000 72430  2.2698e+001 -7.7327e+001 -4.4748e+000 66266 72237,72289,72263
 3.1000e+000 72407  1.4753e+001 -9.9334e+001  7.5277e+000 66266 72133,72289,72237
 3.1000e+000 72384 -1.7358e+000 -6.6459e+001  4.4488e-001 66266 72133,72237,72211
 3.1000e+000 72361 -2.7116e+001 -1.2836e+002 -6.1358e+000 66266 72107,72289,72133
 3.1000e+000 72338 -2.6963e+001 -1.3499e+002  4.3257e+001 66266 72133,72211,72185
 3.1000e+000 72315 -8.0326e+000 -1.4935e+002  4.2779e+001 66266 72133,72185,72159
 3.1000e+000 72580 -1.2359e+001 -9.3981e+001  7.0800e+000 65968 72479,72531,72505
 3.1000e+000 72557  1.3104e+000 -4.8709e+001  2.7714e+000 65968 72453,72531,72479
 3.1000e+000 72960  1.8481e+001 -9.2980e+000  6.9642e+000 65621 72983,72738,72712
 3.1000e+000 72937  6.0393e+001 -7.1879e+001  5.1344e+000 65621 72983,72712,72686
 3.1000e+000 72914  4.0206e+000 -1.3875e+002  5.6656e+000 65621 72738,72842,72764
 3.1000e+000 72891  3.0241e+000 -1.3694e+002  2.2588e+000 65621 72764,72842,72816
 3.1000e+000 72868 -9.2916e+001 -3.7864e+002  6.3832e+001 65621 72764,72816,72790
 3.1000e+000 73009  2.6663e+001 -5.6819e+001  1.6492e+001 65621 72842,72738,72983
 3.1000e+000 73032  2.6834e+001 -1.7354e+002  2.2075e+001 65621 72842,72983,72686
 3.1000e+000 73361  1.3890e+001 -2.8619e+002 -9.0441e+000 65281 73456,73384,73188
 3.1000e+000 73338 -1.1943e+001 -2.3856e+002  2.9861e+001 65281 73384,73162,73136
 3.1000e+000 73315 -1.8883e+001 -1.3467e+002 -7.4073e+000 65281 73188,73240,73214
 3.1000e+000 73292  6.2971e+000 -3.7626e+001 -2.2704e+001 65281 73136,73266,73240
 3.1000e+000 73410 -5.6564e+001 -2.5709e+002 -1.6510e+001 65281 73240,73188,73384
 3.1000e+000 73433 -2.4569e+001 -6.2943e+001  6.3575e+000 65281 73240,73384,73136
 3.1000e+000 73482 -6.6057e+000 -3.6373e+002 -2.9136e+001 65281 73162,73384,73456
 3.1000e+000 73711 -3.5230e+000  2.0059e+001 -4.3972e+001 64820 73734,73610,73584
 3.1000e+000 73688 -2.3922e+001 -2.6492e+001 -4.8570e+001 64820 73734,73584,73662
 3.1000e+000 73760  1.8809e+001  3.6104e+001  5.0808e+000 64820 73636,73610,73734
 3.1000e+000 73783 -3.8334e+001 -4.6296e+000 -2.0269e+001 64820 73806,73734,73662
 3.1000e+000 73832 -1.8333e+001 -2.6639e+001 -1.3553e+001 64820 73636,73734,73806
 3.1000e+000 74112  1.6113e+001 -2.6583e+001 -1.8127e+001 64622 74278,74135,73988
 3.1000e+000 74089  8.9009e-002 -5.8476e+001  3.1358e+000 64622 74135,73936,74040
 3.1000e+000 74066  1.8791e+001 -2.4998e+001 -3.7463e+001 64622 74278,73988,73962
 3.1000e+000 74161 -1.8484e+001 -4.8828e+001 -8.5703e+000 64622 74014,73988,74135
 3.1000e+000 74184 -7.0522e-001 -5.3763e+001  3.2469e-001 64622 74207,74135,74040
 3.1000e+000 74233  4.8413e+000 -4.3918e+001 -7.5405e+000 64622 74014,74135,74207
 3.1000e+000 74304 -4.6439e-001 -6.6303e+001 -1.3195e+000 64622 73936,74135,74278
 3.1000e+000 74327  1.5198e+001 -5.3756e+001 -2.2682e+001 64622 73936,74278,73962
 3.1000e+000 74526  2.3467e+001  2.2452e+001  7.0725e-001 64424 74621,74549,74402
 3.1000e+000 74503 -1.4663e+001 -3.5475e+001  1.4331e+001 64424 74549,74350,74454
 3.1000e+000 74480  3.4458e+001  3.8559e+001 -2.0666e+001 64424 74621,74402,74376
 3.1000e+000 74575  4.0874e+001 -2.9717e+001  1.6000e+001 64424 74428,74402,74549
 3.1000e+000 74598  1.1159e+001 -5.9950e+001  2.1636e+001 64424 74693,74549,74454
 3.1000e+000 74647  2.2159e+000 -1.1960e+001  2.4728e+001 64424 74350,74549,74621
 3.1000e+000 74670  1.6518e+001  3.6669e-001  2.6771e+000 64424 74350,74621,74376
 3.1000e+000 74719  8.6430e+000 -8.5998e+001 -3.0668e+000 64424 74428,74549,74693
 3.1000e+000 75123 -3.3676e+001 -2.4321e+002  5.0300e+001 64126 74875,74953,74927
 3.1000e+000 75100 -1.5968e+001 -2.3619e+002  2.9571e+001 64126 74875,74979,74953
 3.1000e+000 75077 -8.2174e+000 -1.4803e+002 -2.7127e-001 64126 74875,75005,74979
 3.1000e+000 75054 -5.6400e+000 -3.2216e+002  8.5754e+001 64126 74875,74927,74901
 3.1000e+000 75031 -6.1043e+001 -7.7025e+001  2.9127e+001 64126 74849,75005,74875
 3.1000e+000 75224 -2.2025e+001 -1.7221e+002  1.4896e+001 63836 75146,75198,75172
 3.1000e+000 75472 -2.9759e+000 -9.7559e+001  2.9890e+001 63375 75273,75351,75325
 3.1000e+000 75449 -2.5305e+001 -9.5556e+001  1.5796e+001 63375 75273,75377,75351
 3.1000e+000 75426 -3.0445e+001 -1.1184e+002  4.1280e+000 63375 75247,75377,75273
 3.1000e+000 75403  6.9652e+000 -4.8656e+001  3.2092e+001 63375 75273,75325,75299
 3.1000e+000 75673  2.3453e+001 -9.6340e+001  1.8289e+001 63063 75523,75575,75549
 3.1000e+000 75650  1.7828e+001 -1.4489e+002 -5.7825e+000 63063 75497,75575,75523
 3.1000e+000 75627  1.7833e+001 -1.5704e+002  2.0141e+001 63063 75497,75601,75575
 3.1000e+000 75874  3.0821e+001 -1.4749e+002 -1.1886e+001 62716 75897,75750,75724
 3.1000e+000 75851  1.2445e+001 -1.2083e+002 -5.1125e+000 62716 75897,75724,75698
 3.1000e+000 75828  3.8297e+000 -8.8797e+001 -4.0968e+001 62716 75698,75802,75776
 3.1000e+000 75923  5.9177e+001 -1.1624e+002 -2.5360e+001 62716 75776,75750,75897
 3.1000e+000 75946  2.0951e+001 -1.0787e+002 -9.4248e+000 62716 75776,75897,75698
 3.1000e+000 76328 -2.3124e+001 -1.5501e+002 -6.3487e+000 62198 76495,76351,76158
 3.1000e+000 76305 -4.3478e+001 -1.5774e+002 -3.7339e+000 62198 76351,76080,76054
 3.1000e+000 76282 -8.9653e+000 -2.2926e+002 -1.2188e+001 62198 76423,76184,76158
 3.1000e+000 76259 -2.7151e+001 -1.5388e+002 -4.7134e+000 62198 76495,76158,76106
 3.1000e+000 76236 -5.3438e+001 -2.1742e+002  2.5163e+001 62198 76106,76158,76132
 3.1000e+000 76377 -3.4058e+001 -1.7988e+002 -1.8415e+001 62198 76423,76158,76351
 3.1000e+000 76400 -4.4145e+001 -1.4097e+002 -2.4424e+001 62198 76210,76351,76054
 3.1000e+000 76449  1.7865e+001 -1.8209e+002 -2.3241e+001 62198 76210,76184,76423
 3.1000e+000 76472 -4.9588e+000 -1.3959e+002 -3.2548e+001 62198 76210,76423,76351
 3.1000e+000 76521 -2.9787e+001 -1.5284e+002 -4.0653e+000 62198 76080,76351,76495
 3.1000e+000 76544 -3.8400e+001 -1.5670e+002 -9.6849e-001 62198 76080,76495,76106
 3.1000e+000 76841 -2.4038e-001 -1.6213e+002  1.5646e+001 61751 76936,76864,76645
 3.1000e+000 76818  5.3464e+001 -1.5026e+002 -4.8059e+001 61751 76864,76567,76723
 3.1000e+000 76795  1.1988e+001 -1.0525e+002  1.4104e+001 61751 76936,76645,76593
 3.1000e+000 76772 -1.6613e+002 -3.7387e+002  7.9521e+001 61751 77008,76697,76671
 3.1000e+000 76749 -8.8538e+000 -6.8738e+001 -2.4821e+001 61751 76593,76645,76619
 3.1000e+000 76890 -1.7145e+001 -2.0611e+002  3.1644e+001 61751 76671,76645,76864
 3.1000e+000 76913 -4.5664e+001 -2.0809e+002  1.9455e+001 61751 77008,76671,76864
 3.1000e+000 76962  2.6413e+001 -2.3820e+002 -1.2911e+001 61751 76567,76864,76936
 3.1000e+000 76985  3.5127e+001 -1.9005e+002 -8.1148e+000 61751 76567,76936,76593
 3.1000e+000 77034  1.0261e+001 -2.6204e+002 -3.9649e+001 61751 76723,76697,77008
 3.1000e+000 77057 -2.5132e+000 -2.8179e+002 -3.4121e+001 61751 76723,77008,76864
 3.1000e+000 77207 -4.3652e+000 -6.7784e+001  2.7635e+001 61418 77106,77158,77132
 3.1000e+000 77184  5.5771e+001 -1.3879e+002  3.8292e+001 61418 77080,77158,77106
 3.1000e+000 77638 -1.5150e+001 -1.8499e+002 -1.9004e+001 60814 77733,77661,77471
 3.1000e+000 77615 -4.7453e+000 -1.7476e+002 -1.9847e+001 60814 77661,77393,77315
 3.1000e+000 77592 -2.9232e+001 -1.5147e+002 -2.6244e+000 60814 77733,77471,77445
 3.1000e+000 77569 -5.4916e+001 -3.1954e+002 -4.4852e+001 60814 77315,77367,77341
 3.1000e+000 77546 -2.3523e+001 -2.7948e+002 -2.1998e+001 60814 77315,77393,77367
 3.1000e+000 77523 -3.6313e+001 -1.1724e+002 -2.6714e+000 60814 77393,77445,77419
 3.1000e+000 77687 -1.1735e+001 -1.8290e+002 -2.4888e+001 60814 77497,77471,77661
 3.1000e+000 77710 -1.6186e+001 -1.9346e+002 -8.0871e+000 60814 77497,77661,77315
 3.1000e+000 77759 -4.0538e+000 -1.3633e+002 -2.4628e+001 60814 77393,77661,77733
 3.1000e+000 77782 -2.2616e+001 -1.1166e+002 -3.3585e+000 60814 77393,77733,77445
 3.1000e+000 78337  4.3754e+000 -9.6973e+001  1.9708e+001 60210 78360,78017,77965
 3.1000e+000 78314  1.1370e+001 -7.6797e+001  1.7468e+001 60210 78360,77965,78173
 3.1000e+000 78291  1.1106e+001 -1.2293e+002 -1.2251e+001 60210 78432,78043,78017
 3.1000e+000 78268 -9.8629e+000 -1.2406e+002  1.4229e+001 60210 77965,78017,77991
 3.1000e+000 78245  2.0584e-001 -3.1623e+001 -8.8860e-001 60210 78043,78095,78069
 3.1000e+000 78222 -1.7319e+001 -1.3185e+002  2.3076e+001 60210 78095,78173,78121
 3.1000e+000 78199 -5.8753e+000 -1.0197e+002 -1.3535e+001 60210 78121,78173,78147
 3.1000e+000 78386  4.1329e+000 -1.1832e+002  1.2438e+001 60210 78432,78017,78360
 3.1000e+000 78409  4.8397e+000 -9.0175e+001  1.4829e+001 60210 78095,78360,78173
 3.1000e+000 78458  2.4156e+001 -9.0068e+001 -1.4495e+001 60210 78095,78043,78432
 3.1000e+000 78481  2.1152e+001 -7.8156e+001  9.1239e+000 60210 78095,78432,78360
 3.1000e+000 78680 -2.3468e+001 -1.0554e+002 -3.2160e+000 59848 78703,78556,78530
 3.1000e+000 78657 -2.5858e+001 -1.2988e+002 -2.8217e+001 59848 78703,78530,78504
 3.1000e+000 78634 -3.5271e+001 -1.8774e+002 -2.4457e+001 59848 78504,78608,78582
 3.1000e+000 78729 -1.2574e+001 -1.5521e+002 -1.5777e+000 59848 78582,78556,78703
 3.1000e+000 78752 -1.6681e+001 -1.6442e+002 -3.5397e+001 59848 78582,78703,78504
 3.1000e+000 78951 -1.3874e+001 -7.3691e+001 -1.5610e+001 59344 78974,78801,78775
 3.1000e+000 78928 -4.6279e+001 -1.5861e+002 -3.5394e+001 59344 79046,78974,78775
 3.1000e+000 78905 -4.2140e+001 -2.2758e+002 -3.0703e+001 59344 79046,78775,78879
 3.1000e+000 79000  4.4776e+000 -5.2223e+001  3.5755e+001 59344 78827,78801,78974
 3.1000e+000 79023 -3.0561e+001 -6.9113e+001 -2.2947e+000 59344 78827,78974,78853
 3.1000e+000 79072 -6.3574e+001 -7.7809e+001 -9.0743e+000 59344 78853,78974,79046
 3.1000e+000 79095 -3.8588e+001 -1.2148e+002 -1.0121e+000 59344 78853,79046,78879
 3.1000e+000 79296  1.9178e+001 -8.0488e+001  7.7277e+000 58711 79319,79172,79146
 3.1000e+000 79273  1.9137e+001 -9.2856e+001  3.8793e+000 58711 79319,79146,79120
 3.1000e+000 79250  8.3260e-002 -1.5499e+002  5.2528e+001 58711 79172,79224,79198
 3.1000e+000 79345  2.2328e+001 -9.3352e+001  8.5829e+000 58711 79224,79172,79319
 3.1000e+000 79368  2.3461e+001 -1.0474e+002  6.6617e+000 58711 79224,79319,79120
 3.1000e+000 79667  7.2452e+000 -9.6001e+001 -6.4889e+000 58285 79690,79471,79393
 3.1000e+000 79644  1.2564e+001 -1.2508e+002 -2.1013e+001 58285 79690,79393,79549
 3.1000e+000 79621  4.4731e+001 -1.4353e+002  2.9786e+001 58285 79393,79471,79419
 3.1000e+000 79598  1.5679e+001 -8.2129e+001 -3.1204e+000 58285 79497,79549,79523
 3.1000e+000 79575 -2.8010e+001 -2.8904e+002  6.3004e+001 58285 79419,79471,79445
 3.1000e+000 79716  1.4101e+001 -7.0547e+001  8.1575e+000 58285 79497,79471,79690
 3.1000e+000 79739  1.9983e+001 -1.1004e+002 -2.5434e+000 58285 79497,79690,79549
 3.1000e+000 80249  2.5077e+001  6.3431e+000  2.0570e+001 57831 80272,79978,79952
 3.1000e+000 80226  4.7585e+000  9.8682e+000  3.1633e+000 57831 80272,79952,80108
 3.1000e+000 80203  6.2027e+000 -3.1674e+001 -1.7197e+001 57831 79926,80108,79952
 3.1000e+000 80180 -2.3208e+000 -1.4744e+001  3.6547e+000 57831 80004,80082,80030
 3.1000e+000 80157 -1.2782e+001 -1.8873e+001 -4.7108e+000 57831 80004,80108,80082
 3.1000e+000 80134 -8.9246e+000 -4.1497e+001 -8.9229e-001 57831 80030,80082,80056
 3.1000e+000 80298  9.2582e+000 -2.5475e+001  9.1341e+000 57831 80004,79978,80272
 3.1000e+000 80321 -5.9889e+000  6.9560e-002 -4.5834e+000 57831 80004,80272,80108
 3.1000e+000 80618 -3.7290e+001 -1.7812e+002  2.0882e+001 57077 80344,80448,80422
 3.1000e+000 80595 -1.7295e+001 -1.6577e+002  1.3570e+001 57077 80344,80500,80448
 3.1000e+000 80572  7.1024e+000 -9.3833e+001 -6.5682e-001 57077 80344,80422,80370
 3.1000e+000 80549 -3.2140e+001 -1.0156e+002  1.1419e+001 57077 80370,80422,80396
 3.1000e+000 80526 -5.2565e+001 -2.5769e+002  3.2399e+001 57077 80448,80500,80474
 3.1000e+000 80768 -1.2854e+001 -5.2838e+001 -2.6901e+000 56787 80791,80693,80667
 3.1000e+000 80745 -1.9175e+001 -5.3204e+001 -4.8869e-001 56787 80791,80667,80641
 3.1000e+000 80817 -7.5618e+000 -5.2647e+001 -7.6897e+000 56787 80719,80693,80791
 3.1000e+000 80840 -2.5995e+001 -5.2676e+001 -1.1088e+001 56787 80719,80791,80641
 3.1000e+000 81429 -3.4748e+001 -6.2620e+001  1.8453e+001 56497 81452,81158,81132
 3.1000e+000 81406  2.8630e+000 -6.9550e+001  9.1340e+000 56497 81452,81132,81288
 3.1000e+000 81383 -3.2991e+001 -6.2427e+001 -3.5338e+000 56497 81524,81184,81158
 3.1000e+000 81360 -1.3865e+001 -1.9771e+002  8.4201e+000 56497 81210,81288,81236
 3.1000e+000 81337 -4.9370e+000 -7.2955e+001  8.4730e+000 56497 81106,81288,81132
 3.1000e+000 81314 -6.0325e+001 -6.2016e+001 -1.1142e+001 56497 81236,81288,81262
 3.1000e+000 81478 -2.1814e+001 -6.8809e+001  5.9024e+000 56497 81524,81158,81452
 3.1000e+000 81501  4.3126e+001 -6.7616e+001  2.0259e+001 56497 81210,81452,81288
 3.1000e+000 81550 -2.7135e+001 -5.5786e+001  1.0846e+001 56497 81210,81184,81524
 3.1000e+000 81573 -6.6042e+000 -4.9637e+001  2.2074e+001 56497 81210,81524,81452
 3.1000e+000 81870 -2.9592e-001 -7.4745e+001  1.2121e+001 55979 81893,81674,81648
 3.1000e+000 81847 -1.3955e+001 -7.8568e+001  1.7493e+001 55979 81893,81648,81752
 3.1000e+000 81824 -1.1299e+001 -8.3606e+001  1.8479e+001 55979 81596,81752,81648
 3.1000e+000 81801  2.1857e+001 -1.9345e+001  3.9623e-001 55979 81674,81726,81700
 3.1000e+000 81778  2.9425e-001 -5.6877e+001  2.1256e+001 55979 81596,81648,81622
 3.1000e+000 81919  8.4976e+000 -7.3223e+001  2.2176e+000 55979 81726,81674,81893
 3.1000e+000 81942 -8.6663e+000 -7.7265e+001  6.8266e+000 55979 81726,81893,81752
 3.1000e+000 82371 -4.6290e+001 -6.8923e+001 -2.0849e+001 55631 82100,82204,82152
 3.1000e+000 82348  1.1015e+001 -1.2614e+002 -4.6084e+001 55631 82100,82230,82204
 3.1000e+000 82325 -1.2137e+001 -7.1159e+001  1.4534e+001 55631 82100,82152,82126
 3.1000e+000 82302 -2.9557e+001 -2.1335e+002 -2.6104e+001 55631 82074,82230,82100
 3.1000e+000 82279 -6.9392e+001 -1.2230e+002 -1.8575e+001 55631 82152,82204,82178
 3.1000e+000 82256 -3.3964e+000 -1.2659e+002 -1.3348e+001 55631 82048,82230,82074
 3.1000e+000 82521  4.8461e+001 -7.3160e+001 -1.4804e+000 55227 82544,82420,82394
 3.1000e+000 82498  4.6620e+001 -9.9980e+001  2.0487e+000 55227 82544,82394,82472
 3.1000e+000 82570  3.8558e+001 -5.2374e+001 -7.6023e-001 55227 82446,82420,82544
 3.1000e+000 82593  3.9998e+001 -7.2548e+001  9.8081e+000 55227 82446,82544,82472
 3.1000e+000 82875  1.0353e+001 -6.0695e+000  5.2261e+000 54979 82699,82777,82725
 3.1000e+000 82852 -6.0461e+000  4.2190e+000  9.7567e+000 54979 82699,82803,82777
 3.1000e+000 82829 -2.8049e+000 -6.4343e+000  5.7954e+000 54979 82725,82777,82751
 3.1000e+000 83204 -9.6887e+000 -2.9710e+001 -2.1241e+001 54475 83005,83083,83057
 3.1000e+000 83181 -2.8177e+001 -5.5482e+001 -2.8495e+000 54475 82979,83083,83005
 3.1000e+000 83158 -1.2943e+001 -5.0309e+001 -2.1536e+001 54475 83005,83057,83031
 3.1000e+000 83135 -7.5314e+000 -8.3221e+000 -2.6613e+001 54475 82979,83109,83083
 3.1000e+000 83582 -9.4181e+000 -6.0381e+001 -8.1051e+000 54071 83605,83438,83412
 3.1000e+000 83559 -2.0593e+001 -8.2027e+001 -3.6838e+000 54071 83749,83605,83412
 3.1000e+000 83536 -4.8133e+001 -1.2041e+002  2.9645e+001 54071 83677,83360,83334
 3.1000e+000 83513 -1.6185e+001 -8.8188e+001 -4.5401e+000 54071 83749,83412,83677
 3.1000e+000 83490 -1.8407e+001 -9.0340e+001  1.1916e+001 54071 83308,83464,83334
 3.1000e+000 83631 -9.8794e+000 -6.8144e+001  1.0910e+001 54071 83464,83438,83605
 3.1000e+000 83654 -1.7420e+001 -8.8942e+001  1.2675e+001 54071 83464,83605,83334
 3.1000e+000 83703 -5.4522e+000 -8.3782e+001  5.7445e+000 54071 83386,83360,83677
 3.1000e+000 83726 -7.4007e+000 -6.3963e+001 -1.7672e+001 54071 83386,83677,83412
 3.1000e+000 83775 -1.5118e+001 -7.1672e+001  4.9154e-001 54071 83334,83605,83749
 3.1000e+000 83798 -1.0452e+001 -7.8141e+001 -1.2532e-002 54071 83334,83749,83677
 3.1000e+000 84068  3.3288e+000  1.0429e+000 -1.2698e+001 53524 83869,83921,83895
 3.1000e+000 84045  7.9436e+000 -6.9808e+001  6.9286e+000 53524 83869,83947,83921
 3.1000e+000 84022 -1.8075e+001 -9.2320e+001 -2.8474e+000 53524 83843,83947,83869
 3.1000e+000 83999  9.6236e+000 -8.6566e+001 -3.9397e+000 53524 83843,83973,83947
 3.1000e+000 84497 -3.4766e+001 -1.7448e+002  7.5780e+000 53184 84200,84330,84252
 3.1000e+000 84474 -2.0546e+001 -1.1456e+002  2.8852e+001 53184 84200,84356,84330
 3.1000e+000 84451  6.2146e+000 -1.4891e+002  2.6612e+001 53184 84200,84252,84226
 3.1000e+000 84428 -1.3533e+001 -1.1769e+002 -4.7685e+001 53184 84252,84330,84278
 3.1000e+000 84405 -1.6207e+001 -1.1409e+002  3.1745e+001 53184 84174,84356,84200
 3.1000e+000 84382 -3.2304e-001 -1.1996e+002 -7.9050e+000 53184 84278,84330,84304
 3.1000e+000 84954  4.6596e+000 -9.3498e+001  4.3957e+001 52680 84706,84836,84784
 3.1000e+000 84931 -8.6482e+000 -7.9587e+001 -2.1414e+001 52680 84680,84836,84706
 3.1000e+000 84908 -8.4788e-001 -2.9799e+002 -5.4665e-001 52680 84784,84836,84810
 3.1000e+000 84885 -2.9202e+001 -3.2575e+002  2.0825e+001 52680 84706,84784,84732
 3.1000e+000 84862 -8.7223e+000 -2.9225e+002 -1.2544e+001 52680 84732,84784,84758
 3.1000e+000 85202 -2.0666e+001 -1.6700e+002 -4.8023e+000 52226 85029,85081,85055
 3.1000e+000 85179 -2.0988e+001 -1.3587e+002  3.1307e+000 52226 85225,85081,85029
 3.1000e+000 85156 -7.9658e+000 -1.0325e+002  2.4791e+001 52226 85225,85029,85003
 3.1000e+000 85133 -5.9722e+001 -1.2184e+002 -2.6259e+001 52226 84977,85107,85003
 3.1000e+000 85251 -3.6828e+001 -1.4260e+002 -2.9897e+001 52226 85107,85081,85225
 3.1000e+000 85274 -4.2448e+001 -7.7686e+001 -1.2894e+001 52226 85107,85225,85003
 3.1000e+000 85522  2.4375e+001 -1.3519e+002  2.0788e+001 51764 85297,85349,85323
 3.1000e+000 85499  4.4575e+001 -1.2879e+002  1.3064e+001 51764 85545,85297,85427
 3.1000e+000 85476  1.1249e+001 -9.8428e+001 -3.5921e+000 51764 85545,85427,85375
 3.1000e+000 85453  2.4219e+001 -9.2804e+001 -1.6591e+001 51764 85375,85427,85401
 3.1000e+000 85571  6.1439e+001 -1.1103e+002  2.2361e+000 51764 85349,85297,85545
 3.1000e+000 85594  4.1933e+001 -6.9600e+001 -1.7870e+001 51764 85349,85545,85375
 3.1000e+000 85746 -6.6106e+001 -1.5716e+002  3.7779e+000 51374 85645,85697,85671
 3.1000e+000 85723 -7.4409e+001 -1.5539e+002 -6.4654e+000 51374 85619,85697,85645
 3.1000e+000 86256  2.5684e+001 -3.0886e+001  1.3007e+001 50970 86279,86011,85959
 3.1000e+000 86233  1.6616e+001  1.7830e+001  3.4241e+000 50970 86279,85959,86115
 3.1000e+000 86210  9.2661e+000 -7.8562e+001 -1.3069e+001 50970 85959,86011,85985
 3.1000e+000 86187  8.1443e+000 -7.3609e+001 -3.9262e+000 50970 86037,86115,86089
 3.1000e+000 86164 -1.6157e-001  1.0148e+001 -9.7072e-001 50970 85933,86115,85959
 3.1000e+000 86141 -1.6265e+001 -6.5016e+001 -1.3808e+001 50970 86037,86089,86063
 3.1000e+000 86305  3.2076e+001 -8.3965e+001  7.8228e+000 50970 86037,86011,86279
 3.1000e+000 86328  2.6511e+001 -3.0785e+001 -2.2776e+000 50970 86037,86279,86115
 3.1000e+000 86478 -5.1591e+001 -2.2214e+002  2.7471e+001 50451 86351,86403,86377
 3.1000e+000 86455 -1.2338e+002 -6.7741e+002 -3.5860e+000 50451 86351,86429,86403
 3.1000e+000 86907 -2.8506e+001 -9.7212e+001 -1.4129e+001 50047 86930,86714,86662
 3.1000e+000 86884 -8.1958e+000 -1.1298e+002 -1.2435e+001 50047 86930,86662,86610
 3.1000e+000 86861  2.4185e+001 -1.0243e+002 -3.6195e+001 50047 87002,86740,86714
 3.1000e+000 86838  2.7027e+001 -7.2371e+001 -2.5332e+001 50047 86662,86714,86688
 3.1000e+000 86815 -2.2254e+001 -1.3231e+002  2.2633e+000 50047 86610,86662,86636
 3.1000e+000 86792  2.4519e+001 -1.1296e+002  1.8902e+001 50047 86584,86766,86610
 3.1000e+000 86956 -8.4507e+000 -1.0009e+002 -1.6197e+001 50047 87002,86714,86930
 3.1000e+000 86979 -3.5812e+001 -1.4195e+002 -8.4436e-001 50047 86766,86930,86610
 3.1000e+000 87028 -2.2703e+001 -1.1263e+002 -3.0534e+001 50047 86766,86740,87002
 3.1000e+000 87051 -3.5758e+001 -1.1016e+002 -1.7549e+001 50047 86766,87002,86930
 3.1000e+000 87250  1.1875e+001 -1.4720e+002 -2.8303e+001 49543 87273,87126,87100
 3.1000e+000 87227  2.2653e+000 -1.1320e+002 -2.4916e+000 49543 87273,87100,87074
 3.1000e+000 87204  1.0674e+001 -9.9974e+001 -4.6318e+001 49543 87126,87178,87152
 3.1000e+000 87299  3.6707e+001 -9.5357e+001 -3.5931e+001 49543 87178,87126,87273
 3.1000e+000 87322  1.1063e+001 -9.3026e+001 -4.2705e+000 49543 87178,87273,87074
 3.1000e+000 87570 -4.4340e+001 -1.2354e+002  1.0046e+001 49146 87593,87449,87397
 3.1000e+000 87547 -4.0062e+001 -1.0536e+002  2.6198e+001 49146 87593,87397,87371
 3.1000e+000 87524 -3.7143e+001 -8.0421e+001  2.2191e+001 49146 87345,87475,87371
 3.1000e+000 87501 -1.7244e+001 -1.2459e+002  1.1920e+001 49146 87397,87449,87423
 3.1000e+000 87619 -6.4668e+001 -1.2234e+002 -4.1886e+000 49146 87475,87449,87593
 3.1000e+000 87642 -5.4469e+001 -1.0978e+002  1.1307e+001 49146 87475,87593,87371
 3.1000e+000 88073  1.6265e+001 -3.0701e+001 -9.7606e+000 48706 87854,87932,87880
 3.1000e+000 88050  1.0625e+000 -3.5224e+001  2.9047e+000 48706 87828,87932,87854
 3.1000e+000 88027 -8.3780e+000 -3.2825e+001 -2.8101e+000 48706 87750,87932,87828
 3.1000e+000 88004 -3.9271e+001 -7.6745e+001 -3.4668e+001 48706 87750,87802,87776
 3.1000e+000 87981 -1.0537e+001 -6.6693e+001 -1.6880e+001 48706 87750,87828,87802
 3.1000e+000 87958 -1.5722e+000 -3.8369e+001 -8.7335e+000 48706 87880,87932,87906
 3.1000e+000 88402 -2.2469e+001 -1.6895e+002 -7.2324e+000 48145 88203,88281,88255
 3.1000e+000 88379 -4.1933e+001 -1.7116e+002  1.4587e+001 48145 88203,88307,88281
 3.1000e+000 88356 -3.1611e+001 -1.4336e+002 -9.1335e+000 48145 88203,88255,88229
 3.1000e+000 88333 -3.1948e+001 -1.7871e+002  3.0935e+001 48145 88177,88307,88203
 3.1000e+000 88601  3.9117e+001 -1.2851e+002  4.3078e+001 47805 88696,88624,88477
 3.1000e+000 88578 -1.9304e+001 -1.2535e+002  1.1007e+001 47805 88826,88624,88451
 3.1000e+000 88555 -2.5526e+001 -1.2363e+002  1.9151e+001 47805 88826,88451,88425
 3.1000e+000 88650  1.7961e+001 -1.7480e+002  2.6236e+001 47805 88503,88477,88624
 3.1000e+000 88673  1.3985e+001 -1.4891e+002  5.5967e+000 47805 88503,88624,88529
 3.1000e+000 88722 -5.2384e+001 -1.5852e+002  2.6770e+001 47805 88451,88624,88696
 3.1000e+000 88852 -1.2589e+001 -1.1528e+002  5.2552e+000 47805 88529,88624,88826
 3.1000e+000 88875 -1.9717e+001 -1.1500e+002  1.3584e+001 47805 88529,88826,88425
 3.1000e+000 89172 -5.9218e-001 -1.0005e+002 -4.6910e+000 47401 89195,88976,88898
 3.1000e+000 89149 -1.7070e+001 -1.0526e+002 -1.7592e+001 47401 89195,88898,89054
 3.1000e+000 89126 -4.9834e+000 -7.2419e+001 -1.2354e+001 47401 88898,88976,88950
 3.1000e+000 89103 -2.1231e+001 -1.2672e+002 -3.6587e+001 47401 88976,89028,89002
 3.1000e+000 89080 -1.1987e+001 -8.6291e+001 -7.5997e+000 47401 88898,88950,88924
 3.1000e+000 89221  5.5008e+000 -1.0883e+002 -2.5940e+001 47401 89028,88976,89195
 3.1000e+000 89244 -3.0864e+001 -1.1985e+002 -3.8878e+001 47401 89028,89195,89054
 3.1000e+000 89575  6.2901e+000 -2.0478e+002  2.9403e+001 47111 89350,89454,89376
 3.1000e+000 89552  3.0465e+001 -1.7125e+002  1.3238e+001 47111 89350,89480,89454
 3.1000e+000 89529  3.4021e+001 -2.4277e+002 -1.2919e+001 47111 89376,89454,89402
 3.1000e+000 89506  8.7742e+001 -1.3223e+002  7.7520e+000 47111 89402,89454,89428
 3.1000e+000 89904  2.6636e+001 -2.7630e+001 -1.8205e+001 46707 89705,89757,89731
 3.1000e+000 89881  1.2223e+001 -5.8370e+001 -1.3843e+000 46707 89705,89783,89757
 3.1000e+000 89858 -1.9185e+001 -6.5057e+001  1.6216e+001 46707 89679,89783,89705
 3.1000e+000 89835  1.1437e+001 -6.8814e+001 -4.0592e-001 46707 89679,89809,89783
 3.1000e+000 90233  2.3326e+001 -4.8816e+001 -1.6330e+001 46360 90034,90112,90086
 3.1000e+000 90210 -1.2414e+001 -5.2681e+001 -1.0308e+001 46360 90034,90138,90112
 3.1000e+000 90187 -1.3567e+001 -2.5606e+001 -1.6846e+001 46360 90034,90086,90060
 3.1000e+000 90164 -1.4639e+001 -7.2252e+001 -3.3353e+000 46360 90008,90138,90034
 3.1000e+000 90530  2.0620e+001 -1.1950e+002  3.5668e+000 45662 90256,90360,90308
 3.1000e+000 90507  2.7181e+000 -1.2699e+002  5.9747e+000 45662 90256,90412,90360
 3.1000e+000 90484  3.6977e+001 -1.2161e+002 -6.4456e+000 45662 90256,90308,90282
 3.1000e+000 90461  2.7513e+001 -4.8407e+001  1.6003e+001 45662 90360,90412,90386
 3.1000e+000 90438 -8.6971e+000 -1.2101e+002  4.7436e+000 45662 90308,90360,90334
 3.1000e+000 90910  7.1043e-001 -3.1921e+001 -1.0450e+001 45108 90688,90766,90714
 3.1000e+000 90887  3.4277e+001 -6.7281e+001  2.2878e+001 45108 90662,90766,90688
 3.1000e+000 90864 -3.7655e+001 -6.5641e+001  2.6261e+001 45108 90636,90766,90662
 3.1000e+000 90841  4.4950e+001 -8.4919e+001 -4.5537e+001 45108 90714,90766,90740
 3.1000e+000 90818 -2.8816e+001 -1.0379e+002  4.5029e+001 45108 90636,90792,90766
 3.1000e+000 91158 -2.9030e+001 -1.1637e+002 -5.2981e+000 44604 91181,91011,90959
 3.1000e+000 91135 -3.0551e+001 -1.3099e+002 -1.8594e+001 44604 91181,90959,90933
 3.1000e+000 91112 -3.4151e+001 -1.4894e+002  1.3984e+001 44604 90959,91011,90985
 3.1000e+000 91089 -2.6270e+000 -1.7012e+002 -2.0822e+001 44604 90933,91063,91037
 3.1000e+000 91207 -1.5842e+001 -1.3866e+002 -1.6584e+001 44604 91037,91011,91181
 3.1000e+000 91230 -3.3972e+001 -1.8019e+002 -2.9288e+001 44604 91037,91181,90933
 3.1000e+000 91429 -9.3516e+000 -1.6879e+002 -1.1753e+001 44264 91452,91279,91253
 3.1000e+000 91406  5.8149e-001 -1.9070e+002 -1.5459e+001 44264 91452,91253,91357
 3.1000e+000 91383 -3.3820e+001 -1.3700e+002  3.6191e+001 44264 91279,91331,91305
 3.1000e+000 91478 -2.7089e+000 -1.6411e+002 -9.1193e+000 44264 91331,91279,91452
 3.1000e+000 91501  1.9419e+001 -1.7377e+002 -8.0652e+000 44264 91331,91452,91357
 3.1000e+000 92060 -7.6953e+001 -1.7935e+002 -9.1655e-001 43860 92083,91740,91688
 3.1000e+000 92037 -4.2855e+001 -1.8607e+002  1.5058e+001 43860 92083,91688,91896
 3.1000e+000 92014 -7.2362e+001 -2.1730e+002 -2.2969e+000 43860 91766,91870,91844
 3.1000e+000 91991 -3.6662e+001 -1.6988e+002  1.3692e+001 43860 91740,91870,91766
 3.1000e+000 91968 -4.5920e+000 -1.8734e+002  5.3349e+000 43860 91766,91844,91792
 3.1000e+000 91945 -7.2140e+001 -1.8865e+002 -9.1916e+000 43860 91688,91740,91714
 3.1000e+000 91922 -2.8160e+001 -2.2145e+002 -6.5770e+000 43860 91792,91844,91818
 3.1000e+000 92109 -4.8500e+001 -1.7157e+002  1.4531e+001 43860 91870,91740,92083
 3.1000e+000 92132 -1.1900e+001 -1.7167e+002  3.2921e+001 43860 91870,92083,91896
 3.1000e+000 92353 -1.1256e+000 -9.4116e+001 -1.0603e+001 43662 92203,92255,92229
 3.1000e+000 92330 -1.6741e+001 -8.8689e+001 -5.4459e+000 43662 92376,92203,92281
 3.1000e+000 92307 -1.2854e+001 -4.4112e+001 -3.4819e+000 43662 92177,92281,92203
 3.1000e+000 92402 -4.4742e+001 -1.0056e+002  4.2082e-001 43662 92255,92203,92376
 3.1000e+000 92682 -1.2522e+001 -2.5262e+002 -2.5189e+001 43464 92532,92584,92558
 3.1000e+000 92659 -9.3435e+000 -1.6119e+002  7.5145e+000 43464 92506,92584,92532
 3.1000e+000 92636 -2.1199e+001 -1.3402e+002 -3.0413e+001 43464 92506,92610,92584
 3.1000e+000 93013  2.1153e+001 -1.0219e+002 -4.7961e+001 42960 92866,92918,92892
 3.1000e+000 92990 -1.5193e+001 -1.1440e+002 -1.9065e+001 42960 93036,92918,92866
 3.1000e+000 92967  5.3335e+000 -1.3915e+002 -4.1426e+000 42960 93036,92866,92840
 3.1000e+000 92944 -1.4577e+001 -7.8696e+001 -5.2956e+000 42960 92788,92918,92814
 3.1000e+000 93062 -4.9517e+000 -1.0059e+002 -1.3793e+001 42960 92814,92918,93036
 3.1000e+000 93085  3.1470e+001 -1.0886e+002  6.9487e+000 42960 92814,93036,92840
 3.1000e+000 93186 -1.0034e+001 -1.8418e+002 -4.4061e+001 42556 93108,93160,93134
 3.1000e+000 93554  1.4455e+000 -1.8436e+002  3.7101e+000 42052 93231,93387,93361
 3.1000e+000 93531  1.9057e+000 -1.6488e+002  3.7375e+001 42052 93231,93413,93387
 3.1000e+000 93508  2.4750e+001 -1.2756e+002 -1.1386e+001 42052 93231,93361,93257
 3.1000e+000 93485  8.5291e-001 -1.2113e+002  9.7537e+000 42052 93283,93361,93335
 3.1000e+000 93462 -2.0164e+001 -1.3270e+002 -1.3300e+000 42052 93257,93361,93283
 3.1000e+000 93439 -1.7753e+001 -1.2244e+002 -2.1664e+001 42052 93283,93335,93309
 3.1000e+000 94162  2.6258e+000 -9.1243e+001  9.3008e+000 41498 93767,93975,93793
 3.1000e+000 94139 -5.1606e-001 -9.3258e+001  5.6271e+000 41498 93741,93975,93767
 3.1000e+000 94116 -6.2937e+000 -8.0686e+001  1.1422e+001 41498 93793,93975,93923
 3.1000e+000 94093 -2.2690e+001 -1.1917e+002  2.5663e+001 41498 93923,93975,93949
 3.1000e+000 94070 -6.4857e+000 -3.5414e+001  4.1143e-002 41498 93871,93923,93897
 3.1000e+000 94047 -3.1355e+000 -6.6137e+001 -2.5620e+000 41498 93793,93923,93871
 3.1000e+000 94024 -2.2987e+000 -3.8487e+001 -9.0731e+000 41498 93819,93871,93845
 3.1000e+000 94001 -1.1607e+001 -5.1490e+001  4.7677e+000 41498 93793,93871,93819
 3.1000e+000 94619 -2.3429e+001 -1.3647e+002 -3.8276e+001 40930 94642,94423,94371
 3.1000e+000 94596  9.8599e+000 -1.3695e+002  1.5324e+000 40930 94642,94371,94345
 3.1000e+000 94573  3.2822e+001 -2.7835e+001  7.7987e+000 40930 94345,94501,94475
 3.1000e+000 94550  2.1283e+001 -1.8711e+002 -4.7847e+001 40930 94371,94423,94397
 3.1000e+000 94527  1.5179e+001 -6.8866e+001 -2.5096e+001 40930 94423,94475,94449
 3.1000e+000 94668  8.9923e+000 -7.1743e+001 -2.5972e+001 40930 94475,94423,94642
 3.1000e+000 94691  2.1731e+001 -1.1246e+002  8.1428e+000 40930 94475,94642,94345
 3.1000e+000 95148 -4.4924e+001 -1.3901e+002  3.3738e+001 40362 95171,94952,94926
 3.1000e+000 95125 -3.0622e+001 -1.2740e+002  5.6097e+001 40362 95171,94926,95004
 3.1000e+000 95102 -6.2323e+001 -1.5656e+002  4.3906e+001 40362 94874,95004,94926
 3.1000e+000 95079 -1.7588e+001 -1.6131e+002  8.0113e+001 40362 94874,95030,95004
 3.1000e+000 95056 -7.3423e+001 -1.6514e+002  6.1023e+001 40362 94874,94926,94900
 3.1000e+000 95197 -2.8484e+001 -1.1907e+002  4.1485e+001 40362 94978,94952,95171
 3.1000e+000 95220 -1.6610e+001 -1.0954e+002  6.3189e+001 40362 94978,95171,95004
 3.1000e+000 95549 -2.2985e+001 -6.6183e+001 -4.3741e+000 39586 95350,95402,95376
 3.1000e+000 95526  8.8669e-001 -3.9898e+001 -1.7113e+001 39586 95324,95402,95350
 3.1000e+000 95503 -6.8741e+000  4.2037e-002  1.6628e+001 39586 95324,95454,95402
 3.1000e+000 95480  1.6691e+001 -9.8528e+001  2.9851e+001 39586 95402,95454,95428
 3.1000e+000 96055 -4.5920e+000 -3.5083e+001 -9.6701e+000 38968 96078,95862,95810
 3.1000e+000 96032  8.8877e+000 -3.7790e+001 -4.6299e+000 38968 96078,95810,95758
 3.1000e+000 96009 -2.1645e+000 -6.8757e+001 -1.6136e+001 38968 96150,95732,95888
 3.1000e+000 95986  7.3886e+000 -1.8160e+001  6.3045e+000 38968 95810,95862,95836
 3.1000e+000 95963 -3.9095e+000 -6.9543e+001 -1.5983e+001 38968 95732,95914,95888
 3.1000e+000 95940 -1.8282e+001 -3.5068e+001  2.1559e+001 38968 95758,95810,95784
 3.1000e+000 96104  3.8694e+000 -4.1303e+001 -3.1011e+000 38968 95888,95862,96078
 3.1000e+000 96127 -2.9744e+000 -6.3906e+001 -9.5247e+000 38968 96150,95888,96078
 3.1000e+000 96176 -6.5637e+000 -5.2020e+001 -1.1203e+001 38968 95758,95732,96150
 3.1000e+000 96199 -2.7485e+000 -4.2924e+001 -3.7736e+000 38968 95758,96150,96078
 3.1000e+000 96545  3.4456e+001 -1.0834e+002 -2.8217e+001 38507 96640,96568,96352
 3.1000e+000 96522 -3.6681e+001 -1.9155e+002  3.8385e+001 38507 96568,96300,96222
 3.1000e+000 96499  8.9340e+001 -5.6564e+001 -9.0840e+001 38507 96640,96352,96326
 3.1000e+000 96476  9.9278e+000 -1.6413e+002 -5.8635e+001 38507 96352,96404,96378
 3.1000e+000 96453 -8.9678e+001 -2.1072e+002  4.5632e+000 38507 96222,96300,96248
 3.1000e+000 96430 -5.8696e+001 -2.4420e+002 -3.7370e+001 38507 96248,96300,96274
 3.1000e+000 96594 -3.6192e+001 -1.6447e+002 -3.8781e+000 38507 96404,96352,96568
 3.1000e+000 96617  3.2350e+000 -1.5206e+002  1.7828e+001 38507 96404,96568,96222
 3.1000e+000 96666 -8.2361e+000 -1.9586e+002  2.9251e+001 38507 96300,96568,96640
 3.1000e+000 96689  8.4154e+000 -1.6152e+002 -2.7185e+001 38507 96300,96640,96326
 3.1000e+000 97069  2.2635e+001 -2.5777e+001  1.9687e+000 37760 97092,96873,96821
 3.1000e+000 97046  1.2958e+001 -3.0975e+001  1.2905e+001 37760 97092,96821,96795
 3.1000e+000 97023 -1.9291e+001 -2.0303e+001  5.7796e+000 37760 96821,96873,96847
 3.1000e+000 97000  3.1967e+001  2.7148e+001 -1.5344e+001 37760 96873,96925,96899
 3.1000e+000 96977  6.7859e+000 -2.0537e+000  1.4229e+000 37760 96795,96951,96925
 3.1000e+000 97118  3.4462e+001 -9.3445e+000 -1.3618e+001 37760 96925,96873,97092
 3.1000e+000 97141  4.6309e+000 -2.3665e+001 -9.5616e-001 37760 96925,97092,96795
 3.1000e+000 97647 -6.6978e+001 -1.5637e+002  2.0117e+001 37356 97324,97480,97376
 3.1000e+000 97624 -5.8816e+000 -1.7069e+002  8.4290e+001 37356 97324,97506,97480
 3.1000e+000 97601 -3.9722e+001 -7.3550e+001  4.1546e+001 37356 97376,97480,97454
 3.1000e+000 97578 -5.3024e+001 -1.4059e+002  1.1989e+001 37356 97324,97376,97350
 3.1000e+000 97555 -3.6299e+001 -8.3980e+001  1.7705e+001 37356 97376,97454,97402
 3.1000e+000 97532 -3.0638e+001 -6.0415e+001  2.2325e+001 37356 97402,97454,97428
 3.1000e+000 98232  1.2513e+000 -1.5910e+001 -9.4168e+000 36902 97935,98065,98013
 3.1000e+000 98209  2.2249e+001 -1.2096e+001 -1.2415e+001 36902 97935,98091,98065
 3.1000e+000 98186  1.6119e+001 -1.9061e+001 -4.8293e+000 36902 97935,98013,97987
 3.1000e+000 98163  1.7109e+001  7.5276e+000 -1.3759e+001 36902 97909,98091,97935
 3.1000e+000 98140  1.3928e+001  1.4829e+001  7.2127e+000 36902 97935,97987,97961
 3.1000e+000 98117 -1.8161e+000 -3.1298e+001 -1.6181e+000 36902 98013,98065,98039
 3.1000e+000 98659 -3.3483e+000 -1.8480e+002 -2.7784e+001 36604 98682,98414,98388
 3.1000e+000 98636 -2.5015e+001 -1.8192e+002  2.7959e+001 36604 98682,98388,98336
 3.1000e+000 98613  5.5323e+000 -1.5007e+002  9.7675e+000 36604 98754,98518,98466
 3.1000e+000 98590  1.4559e+001 -2.9618e+001 -2.3012e+001 36604 98414,98466,98440
 3.1000e+000 98567 -2.2348e+001 -2.1553e+002  2.6092e+001 36604 98336,98388,98362
 3.1000e+000 98544  1.9661e+001 -1.9765e+002  8.4919e+001 36604 98466,98518,98492
 3.1000e+000 98708  1.6928e+001 -1.2259e+002 -4.2325e+001 36604 98466,98414,98682
 3.1000e+000 98731  3.8479e+000 -1.4765e+002  1.0032e+001 36604 98754,98466,98682
 3.1000e+000 98780  4.1206e+000 -1.5061e+002  9.4119e+000 36604 98336,98518,98754
 3.1000e+000 98803  9.5252e-001 -1.4970e+002  9.0293e+000 36604 98336,98754,98682
 3.1000e+000 99309 -2.5126e+001 -9.8544e+001  1.1390e+001 36200 99332,99116,99012
 3.1000e+000 99286 -1.6222e+000  1.4511e+001 -4.1661e+001 36200 99332,99012,98986
 3.1000e+000 99263 -6.0867e+000 -8.9329e+001 -2.4688e+000 36200 99012,99116,99064
 3.1000e+000 99240  1.5991e+001  1.9481e+001  3.5096e+000 36200 98986,99168,99142
 3.1000e+000 99217 -3.9139e+001 -1.4995e+002  2.6542e+001 36200 99064,99116,99090
 3.1000e+000 99194 -3.0263e+001 -7.0257e+001 -2.4237e+001 36200 99012,99064,99038
 3.1000e+000 99358 -3.0803e+001 -1.8473e+002  6.0279e+001 36200 99142,99116,99332
 3.1000e+000 99381 -6.9210e+000 -1.0285e+002 -3.4211e+000 36200 99142,99332,98986
 3.1000e+000 99887 -1.6423e+001 -9.4965e+001  9.5906e+000 35488 99564,99720,99590
 3.1000e+000 99864 -8.1889e+000 -7.3918e+001  5.4975e+000 35488 99564,99746,99720
 3.1000e+000 99841 -5.9430e+000 -1.0922e+002 -2.0340e+001 35488 99642,99694,99668
 3.1000e+000 99818 -1.2007e+001 -1.3344e+002  1.4921e+001 35488 99590,99694,99642
 3.1000e+000 99795  6.4275e+000 -8.7498e+001  8.2051e+000 35488 99590,99720,99694
 3.1000e+000 99772  4.1705e+001 -1.8490e+002  2.4389e+001 35488 99590,99642,99616
 3.1000e+000 99988  7.2864e+000  1.1185e+001 -1.1279e+001 35198 99910,99962,99936
 3.1000e+000 100138  1.6280e+001 -6.5518e+001 -3.7069e+001 34794 100233,100161,100063
 3.1000e+000 100115 -6.3799e+001 -1.0421e+002 -3.9186e+000 34794 100365,100161,100037
 3.1000e+000 100187  3.9350e+001 -9.7397e+001 -3.3447e+001 34794 100089,100063,100161
 3.1000e+000 100210  1.1006e+001 -9.8403e+001 -3.0485e+001 34794 100089,100161,100011
 3.1000e+000 100259  2.1272e+001 -7.7245e+001 -7.0020e-002 34794 100037,100161,100233
 3.1000e+000 100391 -3.5164e+000 -1.0649e+002 -2.8504e-001 34794 100011,100161,100365
 3.1000e+000 100927 -1.7145e+001 -9.1113e+001 -1.7636e-002 34404 100679,100809,100783
 3.1000e+000 100904  5.0043e+000 -1.0214e+002 -8.1523e-001 34404 100653,100809,100679
 3.1000e+000 100881 -1.5629e+001 -8.4769e+001 -5.0285e+000 34404 100705,100783,100731
 3.1000e+000 100858 -1.2674e+000 -8.2346e+001 -4.7557e+000 34404 100679,100783,100705
 3.1000e+000 100835 -3.8329e+001 -7.6016e+001 -3.9576e+001 34404 100731,100783,100757
 3.1000e+000 101354 -3.0750e+001 -1.9957e+002  2.7472e+001 34000 101377,101109,101057
 3.1000e+000 101331 -6.6643e+001 -2.0384e+002  3.5695e+001 34000 101449,101377,101057
 3.1000e+000 101308 -7.9044e+001 -1.6393e+002  3.6997e+001 34000 101449,101057,101031
 3.1000e+000 101285 -6.3014e+001 -1.3460e+002  2.5266e+001 34000 101031,101213,101187
 3.1000e+000 101262 -3.4766e+001 -2.2705e+002 -2.4540e+001 34000 101135,101187,101161
 3.1000e+000 101239 -6.1946e+001 -2.0569e+002  3.3949e+001 34000 101057,101109,101083
 3.1000e+000 101403 -3.4062e+001 -1.7395e+002  8.4338e+000 34000 101135,101109,101377
 3.1000e+000 101426 -7.1656e+001 -1.8888e+002  4.6078e+000 34000 101135,101377,101187
 3.1000e+000 101475 -3.7253e+001 -1.5420e+002  2.1389e+001 34000 101187,101377,101449
 3.1000e+000 101498 -6.7157e+001 -1.3633e+002  2.8724e+001 34000 101187,101449,101031
 3.1000e+000 102083  7.0738e+001 -5.7341e+001 -4.8467e+000 33472 102106,101812,101786
 3.1000e+000 102060  2.0082e+000 -8.6258e+001 -1.7621e+000 33472 102106,101786,101916
 3.1000e+000 102037 -5.4244e+001 -7.4211e+001 -2.8500e+001 33472 101812,101864,101838
 3.1000e+000 102014 -2.2866e+001 -1.1857e+002 -1.9534e+001 33472 101864,101916,101890
 3.1000e+000 101991 -7.2554e+000 -1.1530e+002 -9.0204e+000 33472 101786,101942,101916
 3.1000e+000 101968 -1.6654e+001 -1.1095e+002  1.6544e+001 33472 101760,101942,101786
 3.1000e+000 102132  2.7769e+001 -5.7753e+001 -3.1779e+001 33472 101864,101812,102106
 3.1000e+000 102155  4.7027e+000 -6.5565e+001 -3.4072e+001 33472 101864,102106,101916
 3.1000e+000 102612 -2.2444e+001 -1.5142e+002 -7.8436e+001 33038 102635,102468,102390
 3.1000e+000 102589 -7.1093e+001 -2.2882e+002 -1.0709e+002 33038 102635,102390,102364
 3.1000e+000 102566  1.6879e+001 -1.3255e+002 -6.9278e+001 33038 102390,102468,102442
 3.1000e+000 102543 -1.9934e+001 -1.9679e+002 -5.0031e+001 33038 102338,102494,102364
 3.1000e+000 102520 -1.5760e+001 -1.3931e+002 -5.7298e+001 33038 102390,102442,102416
 3.1000e+000 102661 -2.1416e+001 -1.3275e+002 -3.3810e+001 33038 102494,102468,102635
 3.1000e+000 102684 -3.4220e+001 -1.7760e+002 -5.4995e+001 33038 102494,102635,102364
 3.1000e+000 103318 -2.0897e+001 -5.2121e+001  1.2013e+001 32402 102972,103128,103076
 3.1000e+000 103295 -1.4658e+001 -6.6783e+001  7.3479e+000 32402 102946,103128,102972
 3.1000e+000 103272 -2.0726e+001 -6.6631e+001  4.1839e+001 32402 103076,103128,103102
 3.1000e+000 103249 -7.5343e+000 -6.1448e+001  3.1164e+001 32402 102946,103154,103128
 3.1000e+000 103226 -2.6131e+001 -5.4672e+001  1.2829e+001 32402 102972,103076,102998
 3.1000e+000 103203 -2.2311e+001 -8.0457e+001 -5.4546e+000 32402 102998,103076,103050
 3.1000e+000 103180 -4.0033e+001 -5.5131e+001 -1.1848e+001 32402 102998,103050,103024
 3.1000e+000 103696 -4.9394e+001 -1.8323e+002 -1.0961e+001 31924 103448,103526,103500
 3.1000e+000 103673 -2.7833e+001 -1.7875e+002 -3.0994e+001 31924 103448,103578,103526
 3.1000e+000 103650 -4.0450e+001 -1.5079e+002 -1.7117e+001 31924 103448,103500,103474
 3.1000e+000 103627 -2.9734e+001 -2.2243e+002 -3.5669e+001 31924 103422,103578,103448
 3.1000e+000 103604 -4.6239e+001 -3.1086e+002  5.0787e-001 31924 103526,103578,103552
 3.1000e+000 104281  5.7831e+000 -3.1300e+001 -8.7813e+000 31520 104304,104062,104036
 3.1000e+000 104258 -1.8412e+000 -3.1331e+001 -9.7680e+000 31520 104304,104036,103984
 3.1000e+000 104235 -2.0127e+001 -7.5198e+001 -2.4906e+001 31520 104062,104114,104088
 3.1000e+000 104212  1.6315e+001 -2.2872e+001 -2.4890e+001 31520 103958,104114,103984
 3.1000e+000 104189 -6.1606e+000 -4.1730e+001 -1.3579e+001 31520 103984,104036,104010
 3.1000e+000 104166 -5.2736e+000  4.2108e+001 -1.9444e+001 31520 103958,104140,104114
 3.1000e+000 104330  7.9545e+000 -3.2679e+001 -1.2095e+001 31520 104114,104062,104304
 3.1000e+000 104353  3.7392e+000 -3.1043e+001 -1.1691e+001 31520 104114,104304,103984
 3.1000e+000 104704 -1.3510e+001 -1.0244e+001 -1.3579e+001 31066 104479,104583,104505
 3.1000e+000 104681  4.4266e+001  1.7822e+001 -2.3501e+001 31066 104479,104609,104583
 3.1000e+000 104658  1.3196e+001 -9.7889e+001  9.1747e-001 31066 104505,104557,104531
 3.1000e+000 104635  1.0339e+001 -4.0535e+000 -1.1917e+001 31066 104505,104583,104557
 3.1000e+000 104925  2.3530e+001 -1.1372e+002 -1.8422e+001 30754 104775,104827,104801
 3.1000e+000 104902  1.6626e+001 -5.4964e+001 -1.5573e+001 30754 104775,104853,104827
 3.1000e+000 104879  9.8530e-001 -6.0667e+001 -1.5395e+000 30754 104749,104853,104775
 3.1000e+000 105482 -4.0541e+001 -1.0618e+002  1.2760e+001 30164 105505,105136,105110
 3.1000e+000 105459 -2.6214e+001 -1.1491e+002  1.5223e+001 30164 105649,105505,105110
 3.1000e+000 105436 -3.3446e+001 -1.2316e+002  9.0404e+000 30164 105577,105188,105136
 3.1000e+000 105413 -3.4652e+001 -1.2033e+002  2.6443e+001 30164 105649,105110,105318
 3.1000e+000 105390 -2.7652e+001 -2.2504e+002  7.5753e+001 30164 105214,105292,105240
 3.1000e+000 105367 -4.9833e+001 -2.5222e+002  9.0625e+001 30164 105240,105292,105266
 3.1000e+000 105344 -4.1688e+001 -1.1368e+002  7.2167e+000 30164 105136,105188,105162
 3.1000e+000 105531 -2.3445e+001 -1.1889e+002  9.0761e+000 30164 105577,105136,105505
 3.1000e+000 105554  3.0667e+001 -1.0616e+002  1.3880e+001 30164 105214,105505,105292
 3.1000e+000 105603 -2.8056e+001 -1.2310e+002  1.9161e+001 30164 105214,105188,105577
 3.1000e+000 105626 -2.2480e+001 -1.2071e+002  1.9282e+001 30164 105214,105577,105505
 3.1000e+000 105675 -1.9337e+001 -9.9902e+001  1.0562e+001 30164 105292,105505,105649
 3.1000e+000 105698 -2.0176e+001 -9.5645e+001  1.9803e+001 30164 105292,105649,105318
 3.1000e+000 106027  1.1626e+001 -5.7899e+001  2.0911e+000 29868 106322,106050,105880
 3.1000e+000 106004  8.6939e+000 -3.4966e+001  8.2615e+000 29868 106250,106050,105828
 3.1000e+000 105981  2.7034e+000 -4.2011e+001 -1.1336e+000 29868 106250,105828,105802
 3.1000e+000 105958  4.1820e+000 -7.1767e+001  4.9078e+000 29868 106322,105880,106122
 3.1000e+000 106076  1.5530e+001 -4.4528e+001 -2.1666e-001 29868 105906,105880,106050
 3.1000e+000 106099  3.0925e+001 -5.0340e+001 -1.9901e+000 29868 105906,106050,105932
 3.1000e+000 106148 -2.7018e+001 -9.6074e+001  9.0837e+000 29868 105854,105828,106122
 3.1000e+000 106276  5.0536e-001 -4.4434e+001 -7.7024e+000 29868 105932,106050,106250
 3.1000e+000 106299 -2.1091e+001 -6.1883e+001 -1.9198e+001 29868 105932,106250,105802
 3.1000e+000 106348 -2.0131e+000 -4.2237e+001  1.1420e+001 29868 105828,106050,106322
 3.1000e+000 106371 -7.4853e+000 -5.2947e+001  1.3345e+001 29868 105828,106322,106122
 3.1000e+000 106828  4.7388e+001 -2.1738e+001  8.0154e+000 29521 106580,106710,106684
 3.1000e+000 106805  5.0025e+000 -5.4860e+001 -2.4814e+001 29521 106554,106710,106580
 3.1000e+000 106782  9.7496e+000 -4.6322e+001 -2.8925e+000 29521 106580,106684,106606
 3.1000e+000 106759  6.3259e+000 -5.7627e+001 -1.0561e+000 29521 106606,106684,106658
 3.1000e+000 106736 -5.7857e+000 -1.0434e+001  1.6569e+001 29521 106606,106658,106632
 3.1000e+000 107027 -5.4499e+001 -1.2727e+002 -3.1104e+001 29117 106877,106929,106903
 3.1000e+000 107004  6.3683e+000 -1.0131e+002 -4.1693e+001 29117 106851,106929,106877
 3.1000e+000 106981 -7.9738e+000 -1.6758e+002 -2.9345e+001 29117 106851,106955,106929
 3.1000e+000 107456 -1.0878e+002 -2.4670e+002 -5.7986e+001 28656 107237,107315,107263
 3.1000e+000 107433  1.8058e+001 -1.5457e+002 -1.2716e+001 28656 107133,107315,107237
 3.1000e+000 107410  2.1936e+001 -1.3213e+002 -8.7797e+000 28656 107133,107237,107159
 3.1000e+000 107387 -1.4411e+001 -5.9650e+001 -1.7207e+001 28656 107159,107237,107185
 3.1000e+000 107364 -1.4225e+001 -5.5884e+001 -5.3825e+000 28656 107185,107237,107211
 3.1000e+000 107341 -1.1876e+000 -2.7501e+001  1.1605e+001 28656 107263,107315,107289
 3.1000e+000 107704  1.8018e+001 -7.7313e+001 -3.7110e+000 27902 107727,107557,107531
 3.1000e+000 107681  2.5998e+001 -7.0467e+001  4.9464e-001 27902 107727,107531,107505
 3.1000e+000 107658 -3.4928e+000 -1.0605e+002 -7.2160e+000 27902 107557,107609,107583
 3.1000e+000 107635 -2.7720e+001 -6.9644e+001  1.0672e+001 27902 107479,107609,107505
 3.1000e+000 107753  9.0542e+000 -7.0412e+001 -7.4162e+000 27902 107609,107557,107727
 3.1000e+000 107776  1.6185e+001 -6.5213e+001 -3.7410e+000 27902 107609,107727,107505
 3.1000e+000 108333 -4.9812e+001 -2.3467e+002  7.9661e+000 27341 108356,108065,108013
 3.1000e+000 108310 -2.7763e+001 -2.1142e+002 -5.0796e+001 27341 108356,108013,108143
 3.1000e+000 108287 -1.0120e+002 -2.6469e+002 -1.9906e+001 27341 108428,108117,108091
 3.1000e+000 108264 -4.7346e+001 -2.1399e+002  4.8247e+000 27341 108013,108065,108039
 3.1000e+000 108241 -8.5740e+001 -2.0935e+002 -5.9041e+001 27341 107987,108143,108013
 3.1000e+000 108218 -3.6376e+001 -1.8779e+002 -6.5424e+001 27341 107987,108169,108143
 3.1000e+000 108195 -5.0667e+001 -1.4010e+002 -5.8518e+001 27341 107961,108169,107987
 3.1000e+000 108382 -5.5716e+001 -2.3930e+002 -5.5382e+000 27341 108091,108065,108356
 3.1000e+000 108405 -1.0215e+002 -2.2731e+002 -1.6684e+001 27341 108428,108091,108356
 3.1000e+000 108454 -8.9032e+001 -3.7816e+002 -2.9883e+001 27341 108143,108117,108428
 3.1000e+000 108477 -6.9114e+001 -3.0964e+002 -3.3334e+001 27341 108143,108428,108356
 3.1000e+000 108725  2.9971e+001 -1.4769e+002  1.1241e+001 27029 108748,108526,108500
 3.1000e+000 108702  3.3700e+000 -7.4495e+001  2.7600e+001 27029 108748,108500,108630
 3.1000e+000 108679 -4.0626e+001 -1.1349e+002  2.1399e+001 27029 108578,108630,108604
 3.1000e+000 108656 -1.2361e+001 -1.5991e+002  3.6746e+001 27029 108526,108578,108552
 3.1000e+000 108774  4.3655e+000 -1.7797e+002 -5.4559e-001 27029 108578,108526,108748
 3.1000e+000 108797 -4.2382e+001 -1.2833e+002  6.6972e+000 27029 108578,108748,108630
 3.1000e+000 109045 -6.8950e+000 -7.7879e+001 -1.1949e+001 26610 108872,108924,108898
 3.1000e+000 109022  5.6898e+000 -1.2853e+002 -3.4857e+001 26610 108872,108950,108924
 3.1000e+000 108999  1.9953e+001 -1.2120e+002 -1.6635e+001 26610 108846,108950,108872
 3.1000e+000 108976 -9.4257e+000 -1.9144e+002 -3.5508e+001 26610 108820,108950,108846
 3.1000e+000 109366  6.4822e+000 -2.3571e+002  1.1426e+001 26006 109144,109222,109196
 3.1000e+000 109343  8.1176e+000 -2.4913e+002  7.0148e+000 26006 109118,109222,109144
 3.1000e+000 109320 -3.0723e+001 -2.7927e+002  2.7712e+001 26006 109092,109222,109118
 3.1000e+000 109297  5.6348e+001 -2.1090e+002 -2.0949e+001 26006 109144,109196,109170
 3.1000e+000 109274  1.6940e+001 -1.9272e+002  8.6069e+000 26006 109092,109248,109222
 3.1000e+000 109567 -4.7734e+001 -1.0619e+002 -2.9205e+001 25659 109391,109469,109443
 3.1000e+000 109544 -1.3724e+001 -9.9908e+001 -1.0304e+001 25659 109391,109495,109469
 3.1000e+000 109521 -4.4594e+001 -8.2385e+001 -2.5595e+001 25659 109391,109443,109417
 3.1000e+000 109900 -1.7522e+001 -8.5351e+001 -1.2749e+001 25255 109923,109779,109753
 3.1000e+000 109877 -1.1893e+001 -7.2413e+001 -1.3409e+001 25255 109923,109753,109701
 3.1000e+000 109854 -1.6496e+001 -6.0372e+001 -2.6943e+001 25255 109675,109805,109701
 3.1000e+000 109831 -3.8709e+001 -9.6714e+001 -3.0416e+000 25255 109701,109753,109727
 3.1000e+000 109949 -1.4451e+001 -1.0244e+002 -2.6149e+001 25255 109805,109779,109923
 3.1000e+000 109972 -4.4716e+000 -7.8982e+001 -2.7042e+001 25255 109805,109923,109701
 3.1000e+000 110220 -2.9481e+001 -1.3139e+002  2.1251e+001 24701 110243,110021,109995
 3.1000e+000 110197 -2.5208e+001 -1.3353e+002 -5.2831e+000 24701 110243,109995,110099
 3.1000e+000 110174 -1.4813e+000 -1.4730e+002 -6.1876e+000 24701 110315,110073,110047
 3.1000e+000 110151 -3.8842e+001 -1.3382e+002 -2.9158e+000 24701 109995,110125,110099
 3.1000e+000 110269  2.3298e+001 -1.0156e+002  3.3580e+001 24701 110047,110021,110243
 3.1000e+000 110292 -4.1384e+001 -1.4252e+002  1.1051e+001 24701 110315,110047,110243
 3.1000e+000 110341  8.0498e+001 -1.1053e+002 -1.8264e+001 24701 110099,110073,110315
 3.1000e+000 110364  2.1517e+001 -1.1353e+002 -2.7319e+000 24701 110099,110315,110243
 3.1000e+000 110661  2.9513e+000 -2.0030e+002 -2.2842e+000 24197 110684,110413,110387
 3.1000e+000 110638  4.6349e+000 -2.0193e+002 -8.4011e+000 24197 110684,110387,110543
 3.1000e+000 110615  1.5392e+001 -2.8318e+002  2.7898e+001 24197 110756,110491,110465
 3.1000e+000 110592 -3.8358e+001 -1.6653e+002  3.3195e+001 24197 110413,110465,110439
 3.1000e+000 110569 -5.0862e+001 -4.6266e+002 -3.6864e+001 24197 110491,110543,110517
 3.1000e+000 110710  2.3515e+001 -1.8249e+002  3.1298e+001 24197 110465,110413,110684
 3.1000e+000 110733 -8.1835e+000 -2.5185e+002  2.2668e+001 24197 110756,110465,110684
 3.1000e+000 110782  2.0098e+001 -2.4663e+002 -1.0180e+000 24197 110543,110491,110756
 3.1000e+000 110805  1.0404e+001 -1.9857e+002 -7.0127e+000 24197 110543,110756,110684
 3.1000e+000 111315 -5.1787e+000 -1.6720e+002 -1.6824e+001 23593 111044,111148,111070
 3.1000e+000 111292 -3.6215e+001 -1.2569e+002  3.1399e+000 23593 111044,111174,111148
 3.1000e+000 111269  2.6813e+001 -8.6176e+001 -1.0143e+001 23593 111070,111122,111096
 3.1000e+000 111246 -1.4322e+001 -1.5733e+002 -3.6022e+001 23593 111070,111148,111122
 3.1000e+000 111223 -4.9454e+001 -1.0706e+002 -1.7557e+001 23593 111018,111174,111044
 3.1000e+000 111200  2.6005e+000 -1.4083e+002 -1.0912e+001 23593 110992,111174,111018
 3.1000e+000 111821  3.4542e+001 -2.1485e+002  3.0951e+000 23089 111916,111844,111628
 3.1000e+000 111798 -4.4613e+001 -2.5616e+002 -5.0401e+001 23089 111844,111550,111524
 3.1000e+000 111775  3.6979e+001 -1.9247e+002  6.1689e+000 23089 111916,111628,111602
 3.1000e+000 111752 -4.9812e+000 -3.8151e+002 -4.0477e+001 23089 111498,111680,111524
 3.1000e+000 111729  1.6769e+001 -1.4834e+002  3.1082e+001 23089 111550,111602,111576
 3.1000e+000 111706 -8.6812e-001 -1.0739e+002 -1.7951e+001 23089 111628,111680,111654
 3.1000e+000 111870  2.8396e+001 -1.9357e+002  2.2858e+001 23089 111680,111628,111844
 3.1000e+000 111893  2.1779e+001 -2.1199e+002 -3.4277e+000 23089 111680,111844,111524
 3.1000e+000 111942  1.9604e+001 -1.7992e+002 -6.7238e+000 23089 111550,111844,111916
 3.1000e+000 111965  2.0820e+001 -1.5949e+002 -1.1911e+000 23089 111550,111916,111602
 3.1000e+000 112164 -1.4183e+001 -9.7651e+001 -3.3207e+001 22626 112187,112014,111988
 3.1000e+000 112141  6.7987e+000 -1.4058e+002 -3.3284e+001 22626 112259,112187,111988
 3.1000e+000 112118  2.7706e+001 -1.4781e+002 -7.8337e+000 22626 112259,111988,112092
 3.1000e+000 112213  1.5058e+001 -2.9407e+001 -1.3304e+001 22626 112040,112014,112187
 3.1000e+000 112236 -1.3081e+001 -1.1462e+002 -1.4737e+001 22626 112040,112187,112066
 3.1000e+000 112285  3.3272e+001 -1.0411e+002 -1.8853e+001 22626 112066,112187,112259
 3.1000e+000 112308  4.9680e+001 -1.1135e+002  5.8687e+000 22626 112066,112259,112092
 3.1000e+000 112605 -2.7180e+001 -1.8405e+002  2.0783e+000 22286 112628,112383,112357
 3.1000e+000 112582 -1.7854e+001 -1.8455e+002  7.2660e+000 22286 112772,112628,112357
 3.1000e+000 112559 -2.3571e+001 -2.2089e+002  1.6507e+001 22286 112700,112435,112409
 3.1000e+000 112536 -3.9908e+001 -1.9394e+002  5.1547e+000 22286 112772,112357,112331
 3.1000e+000 112513 -8.4996e+001 -1.9185e+002  2.1767e+001 22286 112435,112487,112461
 3.1000e+000 112654 -1.1491e+001 -1.3645e+002  2.9881e+000 22286 112409,112383,112628
 3.1000e+000 112677 -1.2346e+001 -1.9228e+002  1.6887e+001 22286 112700,112409,112628
 3.1000e+000 112726 -2.0284e+001 -2.0555e+002 -3.0634e+000 22286 112487,112435,112700
 3.1000e+000 112749 -1.8638e+001 -2.0002e+002 -1.7670e+000 22286 112487,112700,112628
 3.1000e+000 112798 -9.0263e+000 -1.9195e+002  3.6451e+000 22286 112487,112628,112772
 3.1000e+000 112821 -1.1755e+001 -1.8919e+002  4.9200e+000 22286 112487,112772,112331
 3.1000e+000 112924  6.5877e-002 -2.6375e-001  4.2186e+000 21974 112846,112898,112872
 3.1000e+000 113223 -7.6614e+001 -2.5003e+002  3.5442e+001 21420 112949,113053,112975
 3.1000e+000 113200 -6.1150e+001 -1.9525e+002  3.2995e+001 21420 112949,113079,113053
 3.1000e+000 113177  8.7616e+001 -2.0385e+002  7.4490e+001 21420 112975,113053,113001
 3.1000e+000 113154 -1.2674e+002 -2.9537e+002  4.5442e+001 21420 113001,113053,113027
 3.1000e+000 113131 -1.0282e+002 -1.7520e+002  1.3249e+001 21420 112949,113105,113079
 3.1000e+000 113605 -2.4402e+001 -2.2069e+002  6.1801e+001 20716 113331,113435,113357
 3.1000e+000 113582 -3.4712e+001 -1.4630e+002  6.7591e+001 20716 113331,113461,113435
 3.1000e+000 113559 -8.4161e+000 -2.2816e+002 -2.9106e+001 20716 113383,113435,113409
 3.1000e+000 113536 -5.8772e+001 -1.8977e+002 -1.6172e+001 20716 113357,113435,113383
 3.1000e+000 113513 -2.1262e+000 -2.7321e+001 -2.2499e+001 20716 113331,113487,113461
 3.1000e+000 113853  4.5066e+001 -2.2174e+002  7.7086e+000 20290 113876,113680,113654
 3.1000e+000 113830  7.9263e+001 -2.1582e+002  8.7484e+000 20290 113876,113654,113628
 3.1000e+000 113807  1.5074e+001 -2.5666e+002 -1.0868e+001 20290 113948,113732,113680
 3.1000e+000 113784  6.1240e+001 -2.5991e+002 -3.1511e+001 20290 113680,113732,113706
 3.1000e+000 113902  4.1468e+001 -2.1756e+002  1.0727e+001 20290 113948,113680,113876
 3.1000e+000 113925  3.3713e+001 -1.8740e+002  8.8094e+000 20290 113758,113876,113628
 3.1000e+000 113974 -1.1526e+001 -2.1946e+002 -2.3477e+001 20290 113758,113732,113948
 3.1000e+000 113997 -7.9871e+000 -2.1392e+002 -8.0224e+000 20290 113758,113948,113876
 3.1000e+000 114365 -2.0784e+001 -2.1583e+002  7.1366e-001 19900 114146,114198,114172
 3.1000e+000 114342 -2.1341e+001 -2.1610e+002  5.0292e-001 19900 114042,114198,114146
 3.1000e+000 114319 -2.1821e+001 -2.1338e+002  1.1466e+000 19900 114042,114224,114198
 3.1000e+000 114296 -8.6164e+001 -2.0341e+002 -4.7161e+000 19900 114094,114146,114120
 3.1000e+000 114273 -2.3921e+001 -1.9449e+002 -1.5462e+001 19900 114042,114146,114094
 3.1000e+000 114250 -9.0757e+001 -2.1648e+002 -1.1931e+001 19900 114042,114094,114068
 3.1000e+000 114566 -6.9409e+001 -2.2941e+002 -3.4480e+000 19496 114442,114494,114468
 3.1000e+000 114543 -8.2802e+001 -2.0485e+002 -1.0597e+001 19496 114416,114494,114442
 3.1000e+000 114520 -7.6156e+001 -2.1229e+002 -1.7118e+001 19496 114390,114494,114416
 3.1000e+000 114767  1.0789e-001 -2.1519e+002  1.0740e+001 19042 114790,114669,114643
 3.1000e+000 114744  5.4111e+000 -2.0790e+002  1.3923e+001 19042 114790,114643,114591
 3.1000e+000 114721  3.3453e+001 -2.1262e+002  5.1797e+001 19042 114591,114643,114617
 3.1000e+000 114816 -1.8345e+001 -2.0633e+002  7.7096e+000 19042 114695,114669,114790
 3.1000e+000 114839 -3.8145e+000 -1.8969e+002  1.4313e+001 19042 114695,114790,114591
 3.1000e+000 114991 -9.2194e+001 -2.4863e+002 -1.2189e+000 18488 114864,114916,114890
 3.1000e+000 114968 -6.8900e+001 -2.5157e+002 -7.8246e+000 18488 114864,114942,114916
 3.1000e+000 115192  1.3466e+002 -1.6113e+002  2.6830e+001 18098 115215,115042,115016
 3.1000e+000 115169  5.4054e+001 -1.3435e+002  6.1151e+000 18098 115215,115016,115120
 3.1000e+000 115146  7.6124e+001 -1.5554e+002 -3.1573e+001 18098 115287,115094,115068
 3.1000e+000 115241  7.4069e+001 -2.4502e+002  3.2892e-001 18098 115068,115042,115215
 3.1000e+000 115264  7.5363e+001 -1.4501e+002 -5.5986e+000 18098 115287,115068,115215
 3.1000e+000 115313  4.0570e+001 -1.7123e+002 -3.4274e+001 18098 115120,115094,115287
 3.1000e+000 115336  2.7514e+001 -1.6628e+002 -9.6606e+000 18098 115120,115287,115215
 3.1000e+000 115846  7.7490e+001 -2.9210e+002 -9.5687e+001 17644 115653,115705,115679
 3.1000e+000 115823  1.3331e-001 -2.5545e+002 -4.7476e+001 17644 115627,115705,115653
 3.1000e+000 115800  8.1381e+001 -1.5570e+002 -3.0658e+000 17644 115549,115705,115627
 3.1000e+000 115777  1.8150e+001 -2.3850e+002  2.7090e+001 17644 115549,115627,115575
 3.1000e+000 115754  5.3131e+001 -1.6130e+002  4.3867e+000 17644 115523,115705,115549
 3.1000e+000 115731 -7.3742e+001 -2.0501e+002 -1.4804e+001 17644 115575,115627,115601
 3.1000e+000 116067 -8.0492e+001 -3.9928e+002 -1.5581e+001 17116 115891,115943,115917
 3.1000e+000 116044 -1.4903e+002 -4.6077e+002  1.0283e+001 17116 115891,115995,115943
 3.1000e+000 116021 -1.3925e+002 -3.8586e+002  9.8468e+000 17116 115943,115995,115969
 3.1000e+000 116288  3.7976e+001 -2.6013e+002  6.0589e+001 16704 116164,116216,116190
 3.1000e+000 116265 -2.1866e+001 -3.4613e+002  3.4512e+001 16704 116112,116216,116164
 3.1000e+000 116242 -1.4884e+002 -3.5621e+002 -1.5468e+000 16704 116112,116164,116138
 3.1000e+000 116489 -2.5394e+001 -1.9598e+002 -7.5137e+000 16434 116339,116417,116365
 3.1000e+000 116466 -3.5530e+001 -1.9662e+002 -5.9171e-001 16434 116313,116417,116339
 3.1000e+000 116443 -1.1229e+002 -2.4702e+002  5.3946e+001 16434 116365,116417,116391
 3.1000e+000 116592  3.7140e+001 -2.6489e+002 -2.5229e+001 15967 116514,116566,116540
 3.1000e+000 116695 -2.6119e+001 -3.9302e+002 -5.0778e+001 15552 116617,116669,116643
 3.1000e+000 116798 -1.8163e+001 -2.0308e+002  0.0000e+000 421 116720,116772,116746
 3.2000e+000 69066 -1.0625e+000 -3.4758e+002 -2.1120e+001 68738 68965,69017,68991
 3.2000e+000 69043  1.0302e+002 -3.4328e+002  7.8844e+002 68738 68939,69017,68965
 3.2000e+000 69371 -1.1248e+001 -7.4188e+001 -2.3968e+001 68426 69172,69250,69198
 3.2000e+000 69348  8.1385e-002 -1.3602e+002  1.0111e+001 68426 69146,69250,69172
 3.2000e+000 69325 -5.1994e+000 -2.7551e+001  1.0870e+001 68426 69198,69250,69224
 3.2000e+000 69302 -4.2352e+001 -1.1399e+002  7.5245e+000 68426 69146,69276,69250
 3.2000e+000 69521  7.3898e+000 -5.0038e+001 -1.8862e+001 68228 69420,69472,69446
 3.2000e+000 69498 -9.1676e+000 -4.0188e+001 -3.2045e+001 68228 69394,69472,69420
 3.2000e+000 69781 -1.3954e+001  2.3556e+001  1.1872e+001 68030 69631,69683,69657
 3.2000e+000 69758  6.5994e+000 -3.3838e+001 -1.1942e+001 68030 69631,69709,69683
 3.2000e+000 69735 -2.0501e+000  1.5353e+001  3.0783e+001 68030 69605,69709,69631
 3.2000e+000 70078 -4.9008e-001  2.5147e+001 -8.9376e+000 67832 69882,69934,69908
 3.2000e+000 70055 -4.9051e+000 -7.0677e+000  9.1276e+000 67832 69856,69934,69882
 3.2000e+000 70032  1.4012e+000 -1.6456e+001 -3.0352e+000 67832 69830,69934,69856
 3.2000e+000 70009  2.9527e+000 -1.3260e+001 -1.1662e+001 67832 69804,69934,69830
 3.2000e+000 69986 -9.4748e+000  2.9583e+001  9.1903e+000 67832 69804,69960,69934
 3.2000e+000 70586 -7.3259e+000 -5.5803e+001  1.4166e+001 67634 70609,70419,70341
 3.2000e+000 70563 -2.8313e+000 -9.2081e+001  2.6598e+001 67634 70681,70609,70341
 3.2000e+000 70540 -9.2936e+000 -9.5671e+001  2.9568e+001 67634 70681,70341,70315
 3.2000e+000 70517 -1.8487e+001 -5.0501e+001  3.3070e+001 67634 70341,70419,70367
 3.2000e+000 70494 -2.0604e+001  2.4158e+001 -8.3328e+000 67634 70263,70445,70289
 3.2000e+000 70471  6.3680e+000  5.1915e+000  1.7320e+001 67634 70367,70419,70393
 3.2000e+000 70635  3.4562e-001  2.8490e+001  9.0464e+000 67634 70445,70419,70609
 3.2000e+000 70658 -2.0775e+001 -6.2733e+001  2.0990e+001 67634 70445,70609,70289
 3.2000e+000 70707 -1.3606e+000 -7.7882e+001  8.3788e+000 67634 70289,70609,70681
 3.2000e+000 70730 -2.1529e+001 -8.8624e+001  1.3133e+001 67634 70289,70681,70315
 3.2000e+000 71108  3.4121e+000 -2.9899e+001  1.9207e+001 67344 71131,70912,70886
 3.2000e+000 71085 -9.3055e+000 -6.2089e+001  2.4631e+001 67344 71131,70886,70860
 3.2000e+000 71062 -2.3634e+001 -6.7295e+001  3.0534e+001 67344 71203,70938,70912
 3.2000e+000 71039  2.6471e+001 -4.4865e+001  2.0995e+001 67344 70834,70990,70860
 3.2000e+000 71016 -7.1656e+000 -8.0706e+001  7.1626e+000 67344 70938,70990,70964
 3.2000e+000 71157 -2.0178e+001 -5.5843e+001  3.0140e+001 67344 71203,70912,71131
 3.2000e+000 71180  6.8992e+000 -5.2409e+001  1.7586e+001 67344 70990,71131,70860
 3.2000e+000 71229 -1.1985e+001 -9.4540e+001  2.4965e+001 67344 70990,70938,71203
 3.2000e+000 71252 -3.1287e+000 -7.5479e+001  2.1058e+001 67344 70990,71203,71131
 3.2000e+000 71603  3.7790e+000 -7.3656e+001  9.1941e+000 67032 71378,71482,71404
 3.2000e+000 71580  3.0477e+000 -4.1219e+001  1.6692e+001 67032 71378,71508,71482
 3.2000e+000 71557  2.6430e+000 -4.4529e+001  2.6858e+001 67032 71404,71456,71430
 3.2000e+000 71534 -1.0753e+000 -8.2152e+001  1.3197e+001 67032 71404,71482,71456
 3.2000e+000 72003  2.2947e+001 -2.6854e+001  1.7740e+001 66834 71755,71859,71781
 3.2000e+000 71980  1.1754e+001 -1.2107e+002  2.9483e+000 66834 71755,71885,71859
 3.2000e+000 71957  4.4166e+000 -1.8840e+001  3.8574e+000 66834 71781,71833,71807
 3.2000e+000 71934 -1.1252e+001 -1.3294e+002 -1.0662e+001 66834 71781,71859,71833
 3.2000e+000 71911  3.9046e+001 -4.0092e+001  4.7266e+001 66834 71729,71885,71755
 3.2000e+000 72430  2.4626e+001 -6.4688e+001 -3.3083e+000 66266 72237,72289,72263
 3.2000e+000 72407  1.7176e+001 -8.4928e+001  5.5451e+000 66266 72133,72289,72237
 3.2000e+000 72384 -1.2760e+000 -5.3797e+001 -8.1568e-001 66266 72133,72237,72211
 3.2000e+000 72361 -2.0970e+001 -1.0996e+002 -5.7810e+000 66266 72107,72289,72133
 3.2000e+000 72338 -2.2331e+001 -1.1147e+002  3.7604e+001 66266 72133,72211,72185
 3.2000e+000 72315 -6.7599e+000 -1.2846e+002  3.5979e+001 66266 72133,72185,72159
 3.2000e+000 72580 -9.2899e+000 -8.4701e+001  6.5072e+000 65968 72479,72531,72505
 3.2000e+000 72557  2.0744e+000 -3.7399e+001  3.5580e+000 65968 72453,72531,72479
 3.2000e+000 72960  2.2802e+001  1.0025e+001  5.4888e+000 65621 72983,72738,72712
 3.2000e+000 72937  6.6705e+001 -5.3121e+001  4.1045e+000 65621 72983,72712,72686
 3.2000e+000 72914  9.6119e+000 -1.1572e+002  2.3498e+000 65621 72738,72842,72764
 3.2000e+000 72891  5.8920e-001 -1.1795e+002  3.6151e-001 65621 72764,72842,72816
 3.2000e+000 72868 -7.7679e+001 -3.1349e+002  5.0373e+001 65621 72764,72816,72790
 3.2000e+000 73009  2.9329e+001 -3.7194e+001  1.5284e+001 65621 72842,72738,72983
 3.2000e+000 73032  3.1156e+001 -1.5474e+002  2.1849e+001 65621 72842,72983,72686
 3.2000e+000 73361  1.2782e+001 -2.7802e+002 -7.7500e+000 65281 73456,73384,73188
 3.2000e+000 73338 -9.9961e+000 -2.2805e+002  2.8443e+001 65281 73384,73162,73136
 3.2000e+000 73315 -1.5990e+001 -1.1735e+002 -2.9591e+000 65281 73188,73240,73214
 3.2000e+000 73292  1.0403e+001 -2.9720e+001 -2.2189e+001 65281 73136,73266,73240
 3.2000e+000 73410 -5.3041e+001 -2.4699e+002 -1.6179e+001 65281 73240,73188,73384
 3.2000e+000 73433 -2.3480e+001 -5.5691e+001  5.6041e+000 65281 73240,73384,73136
 3.2000e+000 73482 -5.0632e+000 -3.5132e+002 -2.9602e+001 65281 73162,73384,73456
 3.2000e+000 73711 -2.8518e+000  2.1373e+001 -4.1048e+001 64820 73734,73610,73584
 3.2000e+000 73688 -2.2605e+001 -2.3652e+001 -4.5684e+001 64820 73734,73584,73662
 3.2000e+000 73760  1.8514e+001  3.6713e+001  6.0822e+000 64820 73636,73610,73734
 3.2000e+000 73783 -3.5827e+001 -2.3039e+000 -1.8329e+001 64820 73806,73734,73662
 3.2000e+000 73832 -1.7173e+001 -2.3500e+001 -1.1842e+001 64820 73636,73734,73806
 3.2000e+000 74112  1.4874e+001 -2.3118e+001 -1.7563e+001 64622 74278,74135,73988
 3.2000e+000 74089 -7.7673e-001 -5.3999e+001  2.6902e+000 64622 74135,73936,74040
 3.2000e+000 74066  1.7500e+001 -2.1576e+001 -3.5954e+001 64622 74278,73988,73962
 3.2000e+000 74161 -1.8035e+001 -4.4314e+001 -8.4533e+000 64622 74014,73988,74135
 3.2000e+000 74184 -1.5327e+000 -5.0168e+001  3.9317e-001 64622 74207,74135,74040
 3.2000e+000 74233  4.4863e+000 -3.9108e+001 -7.2095e+000 64622 74014,74135,74207
 3.2000e+000 74304 -9.7445e-001 -6.1100e+001 -1.3802e+000 64622 73936,74135,74278
 3.2000e+000 74327  1.4113e+001 -4.9087e+001 -2.1713e+001 64622 73936,74278,73962
 3.2000e+000 74526  2.1919e+001  2.2845e+001  1.0717e+000 64424 74621,74549,74402
 3.2000e+000 74503 -1.3131e+001 -3.2361e+001  1.3611e+001 64424 74549,74350,74454
 3.2000e+000 74480  3.2523e+001  3.7728e+001 -1.8372e+001 64424 74621,74402,74376
 3.2000e+000 74575  3.8647e+001 -2.6995e+001  1.5672e+001 64424 74428,74402,74549
 3.2000e+000 74598  1.0737e+001 -5.7107e+001  2.1128e+001 64424 74693,74549,74454
 3.2000e+000 74647  2.2102e+000 -8.4973e+000  2.4176e+001 64424 74350,74549,74621
 3.2000e+000 74670  1.6138e+001  3.0821e+000  4.1297e+000 64424 74350,74621,74376
 3.2000e+000 74719  8.4764e+000 -8.1842e+001 -2.7285e+000 64424 74428,74549,74693
 3.2000e+000 75123 -2.9693e+001 -2.2900e+002  4.8335e+001 64126 74875,74953,74927
 3.2000e+000 75100 -1.4249e+001 -2.2492e+002  2.9185e+001 64126 74875,74979,74953
 3.2000e+000 75077 -4.9089e+000 -1.3900e+002 -3.5369e-002 64126 74875,75005,74979
 3.2000e+000 75054 -3.3241e+000 -3.0793e+002  8.2570e+001 64126 74875,74927,74901
 3.2000e+000 75031 -5.7492e+001 -7.0116e+001  2.8479e+001 64126 74849,75005,74875
 3.2000e+000 75224 -1.7198e+001 -1.5279e+002  1.4588e+001 63836 75146,75198,75172
 3.2000e+000 75472  2.8492e+000 -8.2105e+001  2.8429e+001 63375 75273,75351,75325
 3.2000e+000 75449 -2.0717e+001 -8.1032e+001  1.4924e+001 63375 75273,75377,75351
 3.2000e+000 75426 -3.2052e+001 -9.7583e+001  4.4187e+000 63375 75247,75377,75273
 3.2000e+000 75403  1.3595e+001 -4.1900e+001  2.8285e+001 63375 75273,75325,75299
 3.2000e+000 75673  2.4685e+001 -8.1795e+001  1.6797e+001 63063 75523,75575,75549
 3.2000e+000 75650  1.8975e+001 -1.2716e+002 -5.6565e+000 63063 75497,75575,75523
 3.2000e+000 75627  1.9760e+001 -1.3810e+002  1.8399e+001 63063 75497,75601,75575
 3.2000e+000 75874  2.9616e+001 -1.3680e+002 -1.0835e+001 62716 75897,75750,75724
 3.2000e+000 75851  1.3107e+001 -1.1274e+002 -4.7172e+000 62716 75897,75724,75698
 3.2000e+000 75828  4.4530e+000 -8.2828e+001 -3.8679e+001 62716 75698,75802,75776
 3.2000e+000 75923  5.5051e+001 -1.0866e+002 -2.2975e+001 62716 75776,75750,75897
 3.2000e+000 75946  2.0696e+001 -1.0105e+002 -8.5915e+000 62716 75776,75897,75698
 3.2000e+000 76328 -2.2483e+001 -1.4383e+002 -4.1712e+000 62198 76495,76351,76158
 3.2000e+000 76305 -4.1263e+001 -1.4645e+002 -1.9172e+000 62198 76351,76080,76054
 3.2000e+000 76282 -8.6297e+000 -2.1316e+002 -9.5915e+000 62198 76423,76184,76158
 3.2000e+000 76259 -2.5879e+001 -1.4281e+002 -2.7952e+000 62198 76495,76158,76106
 3.2000e+000 76236 -4.9333e+001 -2.0385e+002  2.5990e+001 62198 76106,76158,76132
 3.2000e+000 76377 -3.2752e+001 -1.6720e+002 -1.5692e+001 62198 76423,76158,76351
 3.2000e+000 76400 -4.2628e+001 -1.3193e+002 -2.2007e+001 62198 76210,76351,76054
 3.2000e+000 76449  1.6849e+001 -1.6949e+002 -2.0184e+001 62198 76210,76184,76423
 3.2000e+000 76472 -4.7606e+000 -1.2961e+002 -2.9031e+001 62198 76210,76423,76351
 3.2000e+000 76521 -2.8350e+001 -1.4190e+002 -2.1562e+000 62198 76080,76351,76495
 3.2000e+000 76544 -3.5764e+001 -1.4527e+002  5.1182e-001 62198 76080,76495,76106
 3.2000e+000 76841  8.8025e-001 -1.5223e+002  1.6633e+001 61751 76936,76864,76645
 3.2000e+000 76818  5.3485e+001 -1.3912e+002 -4.5166e+001 61751 76864,76567,76723
 3.2000e+000 76795  1.2618e+001 -9.7707e+001  1.5131e+001 61751 76936,76645,76593
 3.2000e+000 76772 -1.5497e+002 -3.5406e+002  7.7673e+001 61751 77008,76697,76671
 3.2000e+000 76749 -8.1465e+000 -6.2626e+001 -2.2546e+001 61751 76593,76645,76619
 3.2000e+000 76890 -1.5789e+001 -1.9586e+002  3.3483e+001 61751 76671,76645,76864
 3.2000e+000 76913 -4.1192e+001 -1.9618e+002  2.0598e+001 61751 77008,76671,76864
 3.2000e+000 76962  2.6420e+001 -2.2518e+002 -1.0698e+001 61751 76567,76864,76936
 3.2000e+000 76985  3.4765e+001 -1.7903e+002 -6.1268e+000 61751 76567,76936,76593
 3.2000e+000 77034  1.1417e+001 -2.4837e+002 -3.5749e+001 61751 76723,76697,77008
 3.2000e+000 77057 -7.9233e-001 -2.6666e+002 -3.0448e+001 61751 76723,77008,76864
 3.2000e+000 77207 -5.5553e+000 -6.0271e+001  2.3073e+001 61418 77106,77158,77132
 3.2000e+000 77184  5.6363e+001 -1.3168e+002  3.4342e+001 61418 77080,77158,77106
 3.2000e+000 77638 -4.3706e+000 -1.6620e+002 -1.9222e+001 60814 77733,77661,77471
 3.2000e+000 77615 -4.3046e+000 -1.5787e+002 -1.8284e+001 60814 77661,77393,77315
 3.2000e+000 77592 -1.2320e+001 -1.3798e+002 -5.5230e+000 60814 77733,77471,77445
 3.2000e+000 77569 -5.4076e+001 -3.0976e+002 -4.5588e+001 60814 77315,77367,77341
 3.2000e+000 77546 -1.7174e+001 -2.5462e+002 -2.3131e+001 60814 77315,77393,77367
 3.2000e+000 77523 -2.1647e+001 -1.0056e+002 -9.6531e+000 60814 77393,77445,77419
 3.2000e+000 77687 -8.5336e+000 -1.6735e+002 -2.5081e+001 60814 77497,77471,77661
 3.2000e+000 77710 -1.0581e+001 -1.7230e+002 -8.7057e+000 60814 77497,77661,77315
 3.2000e+000 77759 -1.7702e+000 -1.2408e+002 -2.1250e+001 60814 77393,77661,77733
 3.2000e+000 77782 -1.1495e+001 -1.0188e+002 -3.3642e+000 60814 77393,77733,77445
 3.2000e+000 78337  9.6674e+000 -8.2974e+001  1.6456e+001 60210 78360,78017,77965
 3.2000e+000 78314  1.2928e+001 -6.1858e+001  1.6378e+001 60210 78360,77965,78173
 3.2000e+000 78291  9.9219e+000 -1.0736e+002 -1.2316e+001 60210 78432,78043,78017
 3.2000e+000 78268 -4.8462e+000 -1.1143e+002  1.1292e+001 60210 77965,78017,77991
 3.2000e+000 78245  6.8181e-001 -2.7856e+001 -4.5551e-001 60210 78043,78095,78069
 3.2000e+000 78222 -1.0274e+001 -1.0917e+002  1.6858e+001 60210 78095,78173,78121
 3.2000e+000 78199 -4.6497e+000 -8.7108e+001 -1.1759e+001 60210 78121,78173,78147
 3.2000e+000 78386  5.7600e+000 -1.0241e+002  9.5605e+000 60210 78432,78017,78360
 3.2000e+000 78409  4.3207e+000 -7.6437e+001  1.2738e+001 60210 78095,78360,78173
 3.2000e+000 78458  2.2295e+001 -7.8025e+001 -1.2026e+001 60210 78095,78043,78432
 3.2000e+000 78481  2.0910e+001 -6.6956e+001  8.9245e+000 60210 78095,78432,78360
 3.2000e+000 78680 -2.2948e+001 -8.8414e+001 -3.6818e+000 59848 78703,78556,78530
 3.2000e+000 78657 -2.4895e+001 -1.1466e+002 -3.0873e+001 59848 78703,78530,78504
 3.2000e+000 78634 -3.4178e+001 -1.8132e+002 -2.4138e+001 59848 78504,78608,78582
 3.2000e+000 78729 -1.2473e+001 -1.4230e+002 -1.4731e+000 59848 78582,78556,78703
 3.2000e+000 78752 -1.5677e+001 -1.5181e+002 -3.8249e+001 59848 78582,78703,78504
 3.2000e+000 78951 -6.7797e+000 -6.1325e+001 -1.5776e+001 59344 78974,78801,78775
 3.2000e+000 78928 -3.8370e+001 -1.4333e+002 -3.3324e+001 59344 79046,78974,78775
 3.2000e+000 78905 -3.5013e+001 -2.0920e+002 -2.8673e+001 59344 79046,78775,78879
 3.2000e+000 79000  8.5233e+000 -4.1699e+001  3.3549e+001 59344 78827,78801,78974
 3.2000e+000 79023 -2.3997e+001 -5.7337e+001 -1.7366e+000 59344 78827,78974,78853
 3.2000e+000 79072 -5.5990e+001 -6.5860e+001 -8.1284e+000 59344 78853,78974,79046
 3.2000e+000 79095 -3.2818e+001 -1.0764e+002 -3.4911e-001 59344 78853,79046,78879
 3.2000e+000 79296  1.8273e+001 -6.9775e+001  8.0307e+000 58711 79319,79172,79146
 3.2000e+000 79273  1.8968e+001 -8.3715e+001  3.7669e+000 58711 79319,79146,79120
 3.2000e+000 79250  9.7023e-001 -1.4136e+002  5.3131e+001 58711 79172,79224,79198
 3.2000e+000 79345  2.1366e+001 -8.4100e+001  9.0984e+000 58711 79224,79172,79319
 3.2000e+000 79368  2.3131e+001 -9.7137e+001  7.0002e+000 58711 79224,79319,79120
 3.2000e+000 79667  8.6296e+000 -8.4388e+001 -5.2465e+000 58285 79690,79471,79393
 3.2000e+000 79644  1.4356e+001 -1.1139e+002 -1.9470e+001 58285 79690,79393,79549
 3.2000e+000 79621  4.3496e+001 -1.2877e+002  2.8623e+001 58285 79393,79471,79419
 3.2000e+000 79598  1.9811e+001 -7.0888e+001 -3.0944e+000 58285 79497,79549,79523
 3.2000e+000 79575 -2.2646e+001 -2.5925e+002  5.8795e+001 58285 79419,79471,79445
 3.2000e+000 79716  1.5934e+001 -6.1296e+001  7.9048e+000 58285 79497,79471,79690
 3.2000e+000 79739  2.2890e+001 -9.7169e+001 -2.9249e+000 58285 79497,79690,79549
 3.2000e+000 80249  2.5379e+001  1.3082e+001  2.1324e+001 57831 80272,79978,79952
 3.2000e+000 80226  5.5767e+000  1.6564e+001  4.3306e+000 57831 80272,79952,80108
 3.2000e+000 80203  9.6466e+000 -1.9876e+001 -1.3649e+001 57831 79926,80108,79952
 3.2000e+000 80180 -1.2316e-001  2.7242e-001  4.3169e+000 57831 80004,80082,80030
 3.2000e+000 80157 -1.1623e+001 -1.1167e+001 -2.8852e+000 57831 80004,80108,80082
 3.2000e+000 80134 -1.0398e+001 -3.3876e+001  9.6993e-001 57831 80030,80082,80056
 3.2000e+000 80298  9.9057e+000 -1.8081e+001  1.0294e+001 57831 80004,79978,80272
 3.2000e+000 80321 -4.8273e+000  6.9620e+000 -3.1177e+000 57831 80004,80272,80108
 3.2000e+000 80618 -3.1435e+001 -1.5997e+002  1.5000e+001 57077 80344,80448,80422
 3.2000e+000 80595 -1.1544e+001 -1.4893e+002  9.7213e+000 57077 80344,80500,80448
 3.2000e+000 80572  1.1378e+001 -7.7932e+001 -5.0733e+000 57077 80344,80422,80370
 3.2000e+000 80549 -2.7304e+001 -8.7310e+001  7.0208e+000 57077 80370,80422,80396
 3.2000e+000 80526 -4.6483e+001 -2.3483e+002  2.8019e+001 57077 80448,80500,80474
 3.2000e+000 80768 -1.1236e+001 -4.5676e+001 -2.7369e+000 56787 80791,80693,80667
 3.2000e+000 80745 -1.6736e+001 -4.6190e+001 -1.0532e+000 56787 80791,80667,80641
 3.2000e+000 80817 -6.5288e+000 -4.5625e+001 -7.2133e+000 56787 80719,80693,80791
 3.2000e+000 80840 -2.3293e+001 -4.6862e+001 -1.0571e+001 56787 80719,80791,80641
 3.2000e+000 81429 -2.5876e+001 -5.2448e+001  1.5390e+001 56497 81452,81158,81132
 3.2000e+000 81406  6.0481e+000 -6.1744e+001  7.9088e+000 56497 81452,81132,81288
 3.2000e+000 81383 -2.7100e+001 -4.9988e+001 -7.5957e+000 56497 81524,81184,81158
 3.2000e+000 81360 -1.0036e+001 -1.6981e+002 -2.9957e-001 56497 81210,81288,81236
 3.2000e+000 81337 -4.2998e+000 -6.8416e+001  4.2338e+000 56497 81106,81288,81132
 3.2000e+000 81314 -4.3989e+001 -5.2554e+001 -1.8619e+001 56497 81236,81288,81262
 3.2000e+000 81478 -1.7433e+001 -5.9196e+001  4.0388e+000 56497 81524,81158,81452
 3.2000e+000 81501  4.0569e+001 -5.6414e+001  1.7928e+001 56497 81210,81452,81288
 3.2000e+000 81550 -2.0511e+001 -4.0391e+001  4.2891e+000 56497 81210,81184,81524
 3.2000e+000 81573 -1.3938e+000 -3.5374e+001  1.7874e+001 56497 81210,81524,81452
 3.2000e+000 81870  6.8847e+000 -6.1645e+001  1.4697e+001 55979 81893,81674,81648
 3.2000e+000 81847 -8.3285e+000 -6.6372e+001  1.9345e+001 55979 81893,81648,81752
 3.2000e+000 81824 -6.1806e+000 -6.9698e+001  2.0156e+001 55979 81596,81752,81648
 3.2000e+000 81801  2.8587e+001 -1.4282e+001  2.1907e+000 55979 81674,81726,81700
 3.2000e+000 81778  5.4624e+000 -4.3654e+001  2.7315e+001 55979 81596,81648,81622
 3.2000e+000 81919  1.6498e+001 -6.1108e+001  3.3765e+000 55979 81726,81674,81893
 3.2000e+000 81942 -2.9690e+000 -6.6560e+001  7.1375e+000 55979 81726,81893,81752
 3.2000e+000 82371 -4.1872e+001 -5.4908e+001 -2.1088e+001 55631 82100,82204,82152
 3.2000e+000 82348  1.8365e+001 -1.0835e+002 -4.4609e+001 55631 82100,82230,82204
 3.2000e+000 82325 -5.5978e+000 -5.6997e+001  1.6003e+001 55631 82100,82152,82126
 3.2000e+000 82302 -2.0534e+001 -1.9070e+002 -2.2443e+001 55631 82074,82230,82100
 3.2000e+000 82279 -6.4788e+001 -1.0954e+002 -2.1335e+001 55631 82152,82204,82178
 3.2000e+000 82256 -6.1348e-001 -1.0261e+002 -1.2191e+001 55631 82048,82230,82074
 3.2000e+000 82521  4.8882e+001 -6.5183e+001 -8.5378e-001 55227 82544,82420,82394
 3.2000e+000 82498  4.6896e+001 -8.9102e+001  2.4021e+000 55227 82544,82394,82472
 3.2000e+000 82570  3.9673e+001 -4.6296e+001 -2.6141e-001 55227 82446,82420,82544
 3.2000e+000 82593  4.0230e+001 -6.4553e+001  9.2653e+000 55227 82446,82544,82472
 3.2000e+000 82875  9.8241e+000 -6.5823e+000  5.6198e+000 54979 82699,82777,82725
 3.2000e+000 82852 -6.9566e+000  3.7139e+000  1.0277e+001 54979 82699,82803,82777
 3.2000e+000 82829 -2.6881e+000 -9.1286e+000  5.0240e+000 54979 82725,82777,82751
 3.2000e+000 83204 -6.6149e+000 -2.5316e+001 -1.8167e+001 54475 83005,83083,83057
 3.2000e+000 83181 -2.0683e+001 -4.6606e+001 -2.6451e+000 54475 82979,83083,83005
 3.2000e+000 83158 -8.6524e+000 -4.5398e+001 -1.9142e+001 54475 83005,83057,83031
 3.2000e+000 83135 -2.7258e+000 -5.4767e+000 -2.3440e+001 54475 82979,83109,83083
 3.2000e+000 83582 -8.9638e-001 -4.6337e+001 -9.0784e+000 54071 83605,83438,83412
 3.2000e+000 83559 -1.2120e+001 -6.6532e+001 -3.6294e+000 54071 83749,83605,83412
 3.2000e+000 83536 -3.8559e+001 -1.0120e+002  2.2842e+001 54071 83677,83360,83334
 3.2000e+000 83513 -9.5230e+000 -7.1083e+001 -4.0552e+000 54071 83749,83412,83677
 3.2000e+000 83490 -1.5113e+001 -7.6113e+001  1.1078e+001 54071 83308,83464,83334
 3.2000e+000 83631 -3.3625e+000 -5.4700e+001  9.3060e+000 54071 83464,83438,83605
 3.2000e+000 83654 -1.0355e+001 -7.4569e+001  1.1407e+001 54071 83464,83605,83334
 3.2000e+000 83703 -7.3287e+000 -6.9099e+001 -4.6596e-001 54071 83386,83360,83677
 3.2000e+000 83726 -5.7229e+000 -4.7474e+001 -1.7273e+001 54071 83386,83677,83412
 3.2000e+000 83775 -9.7525e+000 -5.8263e+001 -3.7277e-001 54071 83334,83605,83749
 3.2000e+000 83798 -7.1767e+000 -6.3245e+001 -4.8037e-001 54071 83334,83749,83677
 3.2000e+000 84068  6.7397e+000  5.3547e+000 -1.2515e+001 53524 83869,83921,83895
 3.2000e+000 84045  1.1025e+001 -6.1666e+001  6.0772e+000 53524 83869,83947,83921
 3.2000e+000 84022 -1.2207e+001 -8.2157e+001 -2.7228e+000 53524 83843,83947,83869
 3.2000e+000 83999  1.2447e+001 -7.7260e+001 -3.5727e+000 53524 83843,83973,83947
 3.2000e+000 84497 -3.2137e+001 -1.6551e+002  8.5383e+000 53184 84200,84330,84252
 3.2000e+000 84474 -1.8098e+001 -1.0771e+002  2.8464e+001 53184 84200,84356,84330
 3.2000e+000 84451  7.8529e+000 -1.3964e+002  2.7061e+001 53184 84200,84252,84226
 3.2000e+000 84428 -1.2729e+001 -1.1197e+002 -4.3728e+001 53184 84252,84330,84278
 3.2000e+000 84405 -2.3189e+001 -1.1217e+002  3.3755e+001 53184 84174,84356,84200
 3.2000e+000 84382  6.6152e-001 -1.1365e+002 -6.7838e+000 53184 84278,84330,84304
 3.2000e+000 84954  1.9913e+000 -8.7977e+001  4.1398e+001 52680 84706,84836,84784
 3.2000e+000 84931 -7.2067e+000 -7.2786e+001 -2.2168e+001 52680 84680,84836,84706
 3.2000e+000 84908  1.5268e-001 -2.8508e+002 -9.4802e-001 52680 84784,84836,84810
 3.2000e+000 84885 -2.3372e+001 -3.0228e+002  1.5335e+001 52680 84706,84784,84732
 3.2000e+000 84862 -5.2837e+000 -2.8701e+002  4.2480e+000 52680 84732,84784,84758
 3.2000e+000 85202 -1.6232e+001 -1.5020e+002 -4.6870e+000 52226 85029,85081,85055
 3.2000e+000 85179 -1.6775e+001 -1.2027e+002  2.9005e+000 52226 85225,85081,85029
 3.2000e+000 85156 -4.4173e+000 -8.9351e+001  2.2813e+001 52226 85225,85029,85003
 3.2000e+000 85133 -5.4820e+001 -1.1376e+002 -2.8270e+001 52226 84977,85107,85003
 3.2000e+000 85251 -3.1536e+001 -1.2657e+002 -2.8649e+001 52226 85107,85081,85225
 3.2000e+000 85274 -3.5646e+001 -6.4277e+001 -1.3337e+001 52226 85107,85225,85003
 3.2000e+000 85522  2.6600e+001 -1.1969e+002  2.1153e+001 51764 85297,85349,85323
 3.2000e+000 85499  4.5781e+001 -1.1394e+002  1.1954e+001 51764 85545,85297,85427
 3.2000e+000 85476  1.4472e+001 -8.7369e+001 -3.6567e+000 51764 85545,85427,85375
 3.2000e+000 85453  2.6448e+001 -8.1657e+001 -1.5439e+001 51764 85375,85427,85401
 3.2000e+000 85571  6.2444e+001 -9.8522e+001  3.0588e+000 51764 85349,85297,85545
 3.2000e+000 85594  4.3609e+001 -6.2243e+001 -1.5790e+001 51764 85349,85545,85375
 3.2000e+000 85746 -6.0513e+001 -1.4314e+002  3.9209e+000 51374 85645,85697,85671
 3.2000e+000 85723 -6.7856e+001 -1.4016e+002 -5.7157e+000 51374 85619,85697,85645
 3.2000e+000 86256  2.7597e+001 -1.9730e+001  7.7074e+000 50970 86279,86011,85959
 3.2000e+000 86233  1.8707e+001  2.5771e+001 -1.2115e+000 50970 86279,85959,86115
 3.2000e+000 86210  1.3102e+001 -6.1694e+001 -1.4750e+001 50970 85959,86011,85985
 3.2000e+000 86187  9.7023e+000 -6.1130e+001 -2.6184e+000 50970 86037,86115,86089
 3.2000e+000 86164  5.8253e-002  1.7838e+001 -8.3695e-001 50970 85933,86115,85959
 3.2000e+000 86141 -1.3841e+001 -5.5593e+001 -1.2211e+001 50970 86037,86089,86063
 3.2000e+000 86305  3.3209e+001 -6.9102e+001  2.8353e+000 50970 86037,86011,86279
 3.2000e+000 86328  2.7553e+001 -1.9483e+001 -6.5546e+000 50970 86037,86279,86115
 3.2000e+000 86478 -4.5819e+001 -2.0792e+002  2.5182e+001 50451 86351,86403,86377
 3.2000e+000 86455 -1.1359e+002 -6.3481e+002 -3.7546e+000 50451 86351,86429,86403
 3.2000e+000 86907 -1.6448e+001 -6.8770e+001 -1.1880e+001 50047 86930,86714,86662
 3.2000e+000 86884 -9.7276e-002 -8.9453e+001 -1.1957e+001 50047 86930,86662,86610
 3.2000e+000 86861  2.8593e+001 -8.5452e+001 -2.8056e+001 50047 87002,86740,86714
 3.2000e+000 86838  2.5077e+001 -4.9982e+001 -2.2343e+001 50047 86662,86714,86688
 3.2000e+000 86815 -1.1341e+001 -1.1076e+002 -6.0045e+000 50047 86610,86662,86636
 3.2000e+000 86792  3.2224e+001 -9.4771e+001  2.2320e+001 50047 86584,86766,86610
 3.2000e+000 86956  3.7495e+000 -7.8342e+001 -1.2220e+001 50047 87002,86714,86930
 3.2000e+000 86979 -2.2153e+001 -1.2169e+002 -8.6911e-002 50047 86766,86930,86610
 3.2000e+000 87028 -8.8388e+000 -8.8428e+001 -2.5525e+001 50047 86766,86740,87002
 3.2000e+000 87051 -1.9285e+001 -8.5919e+001 -1.4965e+001 50047 86766,87002,86930
 3.2000e+000 87250  1.0874e+001 -1.3193e+002 -2.8089e+001 49543 87273,87126,87100
 3.2000e+000 87227  6.1980e+000 -1.0150e+002 -5.6935e+000 49543 87273,87100,87074
 3.2000e+000 87204  1.0817e+001 -9.7643e+001 -3.8639e+001 49543 87126,87178,87152
 3.2000e+000 87299  2.8987e+001 -8.6152e+001 -3.1169e+001 49543 87178,87126,87273
 3.2000e+000 87322  1.1841e+001 -8.2155e+001 -3.9738e+000 49543 87178,87273,87074
 3.2000e+000 87570 -3.8416e+001 -1.1035e+002  9.2455e+000 49146 87593,87449,87397
 3.2000e+000 87547 -3.3769e+001 -9.1292e+001  2.5297e+001 49146 87593,87397,87371
 3.2000e+000 87524 -2.7580e+001 -6.4820e+001  2.1555e+001 49146 87345,87475,87371
 3.2000e+000 87501 -1.3974e+001 -1.1253e+002  1.0541e+001 49146 87397,87449,87423
 3.2000e+000 87619 -5.8623e+001 -1.0878e+002 -5.5522e+000 49146 87475,87449,87593
 3.2000e+000 87642 -4.8249e+001 -9.5696e+001  9.8820e+000 49146 87475,87593,87371
 3.2000e+000 88073  1.0966e+001 -1.8773e+001 -5.7440e+000 48706 87854,87932,87880
 3.2000e+000 88050  9.3408e-001 -1.8194e+001  3.6393e+000 48706 87828,87932,87854
 3.2000e+000 88027 -7.7243e+000 -1.8337e+001 -1.3805e+000 48706 87750,87932,87828
 3.2000e+000 88004 -3.8773e+001 -5.2971e+001 -3.0266e+001 48706 87750,87802,87776
 3.2000e+000 87981 -6.6380e+000 -3.5388e+001 -1.1374e+001 48706 87750,87828,87802
 3.2000e+000 87958 -3.9118e-001 -2.3709e+001 -5.0285e+000 48706 87880,87932,87906
 3.2000e+000 88402 -1.9036e+001 -1.5374e+002 -5.4137e+000 48145 88203,88281,88255
 3.2000e+000 88379 -3.4601e+001 -1.5413e+002  1.6921e+001 48145 88203,88307,88281
 3.2000e+000 88356 -2.7379e+001 -1.3657e+002 -6.1747e+000 48145 88203,88255,88229
 3.2000e+000 88333 -2.5713e+001 -1.5366e+002  2.8122e+001 48145 88177,88307,88203
 3.2000e+000 88601  4.2919e+001 -1.0744e+002  4.2061e+001 47805 88696,88624,88477
 3.2000e+000 88578 -9.5886e+000 -1.0210e+002  1.1354e+001 47805 88826,88624,88451
 3.2000e+000 88555 -1.6663e+001 -1.0370e+002  1.3747e+001 47805 88826,88451,88425
 3.2000e+000 88650  2.0595e+001 -1.5722e+002  2.8725e+001 47805 88503,88477,88624
 3.2000e+000 88673  2.4917e+001 -1.2633e+002  5.8898e+000 47805 88503,88624,88529
 3.2000e+000 88722 -3.3919e+001 -1.3474e+002  2.7569e+001 47805 88451,88624,88696
 3.2000e+000 88852 -5.2551e+000 -1.0040e+002  3.3455e+000 47805 88529,88624,88826
 3.2000e+000 88875 -1.3025e+001 -1.0264e+002  5.8320e+000 47805 88529,88826,88425
 3.2000e+000 89172  1.9316e+000 -8.9603e+001 -2.9418e+000 47401 89195,88976,88898
 3.2000e+000 89149 -1.4024e+001 -9.4634e+001 -1.5533e+001 47401 89195,88898,89054
 3.2000e+000 89126 -3.1030e+000 -6.4575e+001 -9.7664e+000 47401 88898,88976,88950
 3.2000e+000 89103 -1.7992e+001 -1.1625e+002 -3.3823e+001 47401 88976,89028,89002
 3.2000e+000 89080 -9.8299e+000 -7.8704e+001 -6.8049e+000 47401 88898,88950,88924
 3.2000e+000 89221  7.7733e+000 -9.8237e+001 -2.3518e+001 47401 89028,88976,89195
 3.2000e+000 89244 -2.7429e+001 -1.0886e+002 -3.6153e+001 47401 89028,89195,89054
 3.2000e+000 89575  4.9049e+000 -1.8672e+002  2.7367e+001 47111 89350,89454,89376
 3.2000e+000 89552  2.7084e+001 -1.5291e+002  1.0888e+001 47111 89350,89480,89454
 3.2000e+000 89529  2.8372e+001 -2.2530e+002 -1.4050e+001 47111 89376,89454,89402
 3.2000e+000 89506  7.7477e+001 -1.2896e+002  1.0003e+001 47111 89402,89454,89428
 3.2000e+000 89904  3.6923e+001 -1.6774e+000 -2.1333e+001 46707 89705,89757,89731
 3.2000e+000 89881  2.0388e+001 -3.2059e+001 -4.9321e+000 46707 89705,89783,89757
 3.2000e+000 89858 -9.6136e+000 -3.8004e+001  1.2998e+001 46707 89679,89783,89705
 3.2000e+000 89835  1.7936e+001 -4.7080e+001 -2.3052e+000 46707 89679,89809,89783
 3.2000e+000 90233  1.7791e+001 -2.4075e+001 -1.3413e+001 46360 90034,90112,90086
 3.2000e+000 90210 -6.5349e+000 -2.8255e+001 -1.0672e+001 46360 90034,90138,90112
 3.2000e+000 90187 -1.3782e+001  1.7764e+001 -1.9520e+001 46360 90034,90086,90060
 3.2000e+000 90164 -1.2030e+001 -4.5453e+001 -9.3231e+000 46360 90008,90138,90034
 3.2000e+000 90530  2.2348e+001 -1.0727e+002  3.4498e+000 45662 90256,90360,90308
 3.2000e+000 90507  7.5321e+000 -1.1240e+002  4.7580e+000 45662 90256,90412,90360
 3.2000e+000 90484  4.1809e+001 -1.0751e+002 -8.2072e+000 45662 90256,90308,90282
 3.2000e+000 90461  3.0114e+001 -3.6910e+001  1.6432e+001 45662 90360,90412,90386
 3.2000e+000 90438 -2.8135e+000 -1.0903e+002  4.2131e+000 45662 90308,90360,90334
 3.2000e+000 90910  8.7461e+000 -1.1513e+001 -1.0114e+001 45108 90688,90766,90714
 3.2000e+000 90887  4.1906e+001 -4.2540e+001  2.2103e+001 45108 90662,90766,90688
 3.2000e+000 90864 -2.6748e+001 -4.1703e+001  2.4910e+001 45108 90636,90766,90662
 3.2000e+000 90841  4.1617e+001 -7.3566e+001 -3.9094e+001 45108 90714,90766,90740
 3.2000e+000 90818 -7.1737e+000 -5.8704e+001  3.3796e+001 45108 90636,90792,90766
 3.2000e+000 91158 -2.4492e+001 -9.8656e+001 -4.7512e+000 44604 91181,91011,90959
 3.2000e+000 91135 -2.0499e+001 -1.1230e+002 -1.8765e+001 44604 91181,90959,90933
 3.2000e+000 91112 -2.6166e+001 -1.3103e+002  1.4855e+001 44604 90959,91011,90985
 3.2000e+000 91089 -2.4434e+000 -1.5336e+002 -1.8093e+001 44604 90933,91063,91037
 3.2000e+000 91207 -1.4756e+001 -1.1915e+002 -1.3591e+001 44604 91037,91011,91181
 3.2000e+000 91230 -2.8112e+001 -1.6138e+002 -2.5653e+001 44604 91037,91181,90933
 3.2000e+000 91429 -7.0318e+000 -1.4876e+002 -1.0803e+001 44264 91452,91279,91253
 3.2000e+000 91406  3.7291e+000 -1.6709e+002 -1.4901e+001 44264 91452,91253,91357
 3.2000e+000 91383 -2.8279e+001 -1.2166e+002  3.4478e+001 44264 91279,91331,91305
 3.2000e+000 91478  9.1661e-001 -1.4698e+002 -7.8953e+000 44264 91331,91279,91452
 3.2000e+000 91501  2.3442e+001 -1.5396e+002 -7.7276e+000 44264 91331,91452,91357
 3.2000e+000 92060 -5.9886e+001 -1.5435e+002  5.2500e-001 43860 92083,91740,91688
 3.2000e+000 92037 -3.3289e+001 -1.5877e+002  1.2283e+001 43860 92083,91688,91896
 3.2000e+000 92014 -6.1024e+001 -1.9071e+002 -4.3552e+000 43860 91766,91870,91844
 3.2000e+000 91991 -2.5476e+001 -1.4754e+002  1.1923e+001 43860 91740,91870,91766
 3.2000e+000 91968 -4.1357e+000 -1.6309e+002  4.4216e+000 43860 91766,91844,91792
 3.2000e+000 91945 -5.8943e+001 -1.5352e+002 -1.9033e-001 43860 91688,91740,91714
 3.2000e+000 91922 -2.5469e+001 -1.9489e+002 -6.5515e+000 43860 91792,91844,91818
 3.2000e+000 92109 -3.7554e+001 -1.4923e+002  1.2783e+001 43860 91870,91740,92083
 3.2000e+000 92132 -9.1486e+000 -1.4875e+002  2.6402e+001 43860 91870,92083,91896
 3.2000e+000 92353  1.7584e+000 -7.2878e+001 -1.0412e+001 43662 92203,92255,92229
 3.2000e+000 92330 -1.2629e+001 -6.5065e+001 -5.4154e+000 43662 92376,92203,92281
 3.2000e+000 92307 -1.2900e+001 -2.7214e+001 -5.2815e+000 43662 92177,92281,92203
 3.2000e+000 92402 -3.6577e+001 -7.5235e+001 -1.2970e+000 43662 92255,92203,92376
 3.2000e+000 92682 -1.0819e+001 -2.3058e+002 -2.4075e+001 43464 92532,92584,92558
 3.2000e+000 92659 -4.8111e+000 -1.4285e+002  7.4533e+000 43464 92506,92584,92532
 3.2000e+000 92636 -1.4421e+001 -1.1468e+002 -3.0729e+001 43464 92506,92610,92584
 3.2000e+000 93013  2.5161e+001 -7.9922e+001 -5.3299e+001 42960 92866,92918,92892
 3.2000e+000 92990 -1.3956e+001 -8.8017e+001 -2.0886e+001 42960 93036,92918,92866
 3.2000e+000 92967  6.0060e+000 -1.1137e+002 -6.7494e+000 42960 93036,92866,92840
 3.2000e+000 92944 -1.2247e+001 -5.1786e+001 -6.1598e+000 42960 92788,92918,92814
 3.2000e+000 93062 -3.9267e+000 -7.5563e+001 -1.5435e+001 42960 92814,92918,93036
 3.2000e+000 93085  3.1965e+001 -8.2801e+001  4.0936e+000 42960 92814,93036,92840
 3.2000e+000 93186 -4.5560e+000 -1.6829e+002 -4.3415e+001 42556 93108,93160,93134
 3.2000e+000 93554  6.9594e+000 -1.6285e+002  2.3767e+000 42052 93231,93387,93361
 3.2000e+000 93531  8.5695e+000 -1.4442e+002  3.3412e+001 42052 93231,93413,93387
 3.2000e+000 93508  2.9589e+001 -1.1325e+002 -1.1336e+001 42052 93231,93361,93257
 3.2000e+000 93485  5.4190e-001 -1.1314e+002  3.7750e+000 42052 93283,93361,93335
 3.2000e+000 93462 -1.1392e+001 -1.1840e+002 -2.6547e+000 42052 93257,93361,93283
 3.2000e+000 93439  1.1065e+001 -1.0791e+002  2.0316e-002 42052 93283,93335,93309
 3.2000e+000 94162 -2.2809e+000 -6.2382e+001  1.1684e+001 41498 93767,93975,93793
 3.2000e+000 94139 -8.8219e-002 -6.2937e+001  3.5639e+000 41498 93741,93975,93767
 3.2000e+000 94116 -2.1528e+000 -6.3345e+001  1.1416e+001 41498 93793,93975,93923
 3.2000e+000 94093 -1.9050e+001 -1.0293e+002  2.5812e+001 41498 93923,93975,93949
 3.2000e+000 94070 -7.0251e+000 -2.1656e+001  4.1404e+000 41498 93871,93923,93897
 3.2000e+000 94047 -3.0446e+000 -5.4182e+001  1.5569e+000 41498 93793,93923,93871
 3.2000e+000 94024 -1.3887e+000 -2.8258e+001 -6.6645e+000 41498 93819,93871,93845
 3.2000e+000 94001 -7.3335e+000 -3.9260e+001  6.2256e+000 41498 93793,93871,93819
 3.2000e+000 94619 -1.4698e+001 -1.1460e+002 -3.1971e+001 40930 94642,94423,94371
 3.2000e+000 94596  1.6197e+001 -1.1498e+002  5.2614e+000 40930 94642,94371,94345
 3.2000e+000 94573  3.6420e+001 -8.6375e+000  1.1872e+001 40930 94345,94501,94475
 3.2000e+000 94550  2.5350e+001 -1.6422e+002 -4.0027e+001 40930 94371,94423,94397
 3.2000e+000 94527  1.6971e+001 -5.5174e+001 -2.1968e+001 40930 94423,94475,94449
 3.2000e+000 94668  1.5558e+001 -5.3976e+001 -2.0609e+001 40930 94475,94423,94642
 3.2000e+000 94691  2.7316e+001 -9.1946e+001  1.1338e+001 40930 94475,94642,94345
 3.2000e+000 95148 -3.0327e+001 -1.1527e+002  3.1559e+001 40362 95171,94952,94926
 3.2000e+000 95125 -1.6690e+001 -1.0360e+002  5.4906e+001 40362 95171,94926,95004
 3.2000e+000 95102 -4.9091e+001 -1.3476e+002  4.2023e+001 40362 94874,95004,94926
 3.2000e+000 95079 -1.1059e+001 -1.4083e+002  7.6358e+001 40362 94874,95030,95004
 3.2000e+000 95056 -6.0797e+001 -1.3584e+002  6.7290e+001 40362 94874,94926,94900
 3.2000e+000 95197 -1.4165e+001 -9.4190e+001  3.9006e+001 40362 94978,94952,95171
 3.2000e+000 95220 -2.8110e+000 -8.4593e+001  6.1656e+001 40362 94978,95171,95004
 3.2000e+000 95549 -1.5512e+001 -5.9764e+001 -8.3104e-001 39586 95350,95402,95376
 3.2000e+000 95526  5.2750e+000 -3.0493e+001 -1.5517e+001 39586 95324,95402,95350
 3.2000e+000 95503 -2.0314e+000  8.8262e+000  1.7235e+001 39586 95324,95454,95402
 3.2000e+000 95480  2.0315e+001 -8.7885e+001  2.9849e+001 39586 95402,95454,95428
 3.2000e+000 96055 -7.7647e-001 -2.6216e+001 -4.8864e+000 38968 96078,95862,95810
 3.2000e+000 96032  9.4884e+000 -2.6829e+001 -9.8500e-001 38968 96078,95810,95758
 3.2000e+000 96009  1.4962e+000 -5.5090e+001 -1.2336e+001 38968 96150,95732,95888
 3.2000e+000 95986  5.3804e+000 -7.9823e+000  1.5470e+001 38968 95810,95862,95836
 3.2000e+000 95963 -2.9715e+000 -5.6209e+001 -1.3225e+001 38968 95732,95914,95888
 3.2000e+000 95940 -1.0426e+001 -2.0528e+001  1.9437e+001 38968 95758,95810,95784
 3.2000e+000 96104  7.7043e+000 -3.0727e+001  3.7263e-001 38968 95888,95862,96078
 3.2000e+000 96127 -1.7785e-001 -5.0411e+001 -5.5416e+000 38968 96150,95888,96078
 3.2000e+000 96176 -1.0349e+000 -3.8743e+001 -8.6393e+000 38968 95758,95732,96150
 3.2000e+000 96199  1.3609e+000 -3.0045e+001 -1.1632e+000 38968 95758,96150,96078
 3.2000e+000 96545  3.2596e+001 -9.5164e+001 -2.7881e+001 38507 96640,96568,96352
 3.2000e+000 96522 -3.3839e+001 -1.7694e+002  3.6591e+001 38507 96568,96300,96222
 3.2000e+000 96499  8.7490e+001 -4.4444e+001 -8.8697e+001 38507 96640,96352,96326
 3.2000e+000 96476  1.0231e+001 -1.4981e+002 -5.8489e+001 38507 96352,96404,96378
 3.2000e+000 96453 -8.1264e+001 -1.9456e+002  6.3543e+000 38507 96222,96300,96248
 3.2000e+000 96430 -4.9185e+001 -2.1954e+002 -3.3833e+001 38507 96248,96300,96274
 3.2000e+000 96594 -3.6303e+001 -1.5089e+002 -3.8281e+000 38507 96404,96352,96568
 3.2000e+000 96617  1.3752e+000 -1.4705e+002  1.7766e+001 38507 96404,96568,96222
 3.2000e+000 96666 -9.0110e+000 -1.7976e+002  2.9378e+001 38507 96300,96568,96640
 3.2000e+000 96689  7.7657e+000 -1.4638e+002 -2.5421e+001 38507 96300,96640,96326
 3.2000e+000 97069  2.9867e+001 -1.2686e+001  3.0110e+000 37760 97092,96873,96821
 3.2000e+000 97046  2.2011e+001 -1.7103e+001  1.4342e+001 37760 97092,96821,96795
 3.2000e+000 97023 -1.2779e+001 -4.5568e+000  6.1215e+000 37760 96821,96873,96847
 3.2000e+000 97000  3.5037e+001  4.1460e+001 -1.3283e+001 37760 96873,96925,96899
 3.2000e+000 96977  1.3887e+001  1.2490e+001  8.3212e+000 37760 96795,96951,96925
 3.2000e+000 97118  4.0651e+001  3.0848e+000 -1.0043e+001 37760 96925,96873,97092
 3.2000e+000 97141  1.5957e+001 -9.0472e+000  2.9358e+000 37760 96925,97092,96795
 3.2000e+000 97647 -5.6729e+001 -1.3680e+002  1.8977e+001 37356 97324,97480,97376
 3.2000e+000 97624 -1.0510e+001 -1.5615e+002  8.2125e+001 37356 97324,97506,97480
 3.2000e+000 97601 -3.6535e+001 -5.8492e+001  3.7994e+001 37356 97376,97480,97454
 3.2000e+000 97578 -4.4193e+001 -1.2204e+002  1.1854e+001 37356 97324,97376,97350
 3.2000e+000 97555 -2.5574e+001 -6.6496e+001  1.3089e+001 37356 97376,97454,97402
 3.2000e+000 97532 -2.1994e+001 -3.6782e+001  1.7897e+001 37356 97402,97454,97428
 3.2000e+000 98232  7.1306e+000 -1.3803e+000 -6.3541e+000 36902 97935,98065,98013
 3.2000e+000 98209  2.1441e+001 -1.1681e+000 -1.0686e+001 36902 97935,98091,98065
 3.2000e+000 98186  2.1801e+001 -3.6778e+000 -2.3540e+000 36902 97935,98013,97987
 3.2000e+000 98163  1.7990e+001  1.2480e+001 -1.1591e+001 36902 97909,98091,97935
 3.2000e+000 98140  1.6817e+001  2.9947e+001  1.2115e+001 36902 97935,97987,97961
 3.2000e+000 98117  2.7506e+000 -1.8237e+001 -1.6961e-001 36902 98013,98065,98039
 3.2000e+000 98659  2.4751e+000 -1.6145e+002 -2.4739e+001 36604 98682,98414,98388
 3.2000e+000 98636 -1.9928e+001 -1.5977e+002  2.6843e+001 36604 98682,98388,98336
 3.2000e+000 98613  1.3985e+001 -1.3137e+002  9.2483e+000 36604 98754,98518,98466
 3.2000e+000 98590  1.9974e+001 -1.5647e+001 -2.0163e+001 36604 98414,98466,98440
 3.2000e+000 98567 -1.8195e+001 -1.8945e+002  2.4990e+001 36604 98336,98388,98362
 3.2000e+000 98544  2.5799e+001 -1.7831e+002  7.8833e+001 36604 98466,98518,98492
 3.2000e+000 98708  2.0755e+001 -1.0446e+002 -3.8884e+001 36604 98466,98414,98682
 3.2000e+000 98731  1.0638e+001 -1.2691e+002  9.8115e+000 36604 98754,98466,98682
 3.2000e+000 98780  1.1069e+001 -1.3219e+002  8.5795e+000 36604 98336,98518,98754
 3.2000e+000 98803  4.9049e+000 -1.3058e+002  7.8975e+000 36604 98336,98754,98682
 3.2000e+000 99309 -1.8715e+001 -8.6992e+001  1.0799e+001 36200 99332,99116,99012
 3.2000e+000 99286  4.7773e+000  2.4007e+001 -4.1269e+001 36200 99332,99012,98986
 3.2000e+000 99263  6.9287e-001 -7.7336e+001 -3.2661e+000 36200 99012,99116,99064
 3.2000e+000 99240  2.1506e+001  3.0288e+001  4.5018e+000 36200 98986,99168,99142
 3.2000e+000 99217 -3.0066e+001 -1.3883e+002  2.6294e+001 36200 99064,99116,99090
 3.2000e+000 99194 -2.4444e+001 -5.7704e+001 -2.5857e+001 36200 99012,99064,99038
 3.2000e+000 99358 -2.4096e+001 -1.7179e+002  5.9221e+001 36200 99142,99116,99332
 3.2000e+000 99381 -4.4154e-002 -9.1255e+001 -3.2844e+000 36200 99142,99332,98986
 3.2000e+000 99887 -9.5244e+000 -7.5040e+001  1.0982e+001 35488 99564,99720,99590
 3.2000e+000 99864 -1.9612e+000 -5.5268e+001  5.9698e+000 35488 99564,99746,99720
 3.2000e+000 99841  5.6357e+000 -7.9571e+001 -2.5241e+001 35488 99642,99694,99668
 3.2000e+000 99818 -3.1767e+000 -1.0847e+002  1.6068e+001 35488 99590,99694,99642
 3.2000e+000 99795  1.6644e+001 -6.5039e+001  8.4099e+000 35488 99590,99720,99694
 3.2000e+000 99772  4.8212e+001 -1.6592e+002  2.4316e+001 35488 99590,99642,99616
 3.2000e+000 99988  3.6814e+000  3.0633e+001  4.6796e-001 35198 99910,99962,99936
 3.2000e+000 100138  2.0539e+001 -4.6972e+001 -3.6517e+001 34794 100233,100161,100063
 3.2000e+000 100115 -5.4851e+001 -8.4867e+001 -2.7252e+000 34794 100365,100161,100037
 3.2000e+000 100187  3.9636e+001 -8.0325e+001 -3.1849e+001 34794 100089,100063,100161
 3.2000e+000 100210  1.4411e+001 -8.2368e+001 -2.9948e+001 34794 100089,100161,100011
 3.2000e+000 100259  2.7719e+001 -5.5261e+001  3.5114e+000 34794 100037,100161,100233
 3.2000e+000 100391 -1.9712e+000 -9.2288e+001  3.1577e+000 34794 100011,100161,100365
 3.2000e+000 100927 -1.0774e+001 -6.6008e+001  4.0220e+000 34404 100679,100809,100783
 3.2000e+000 100904  3.6129e+000 -7.6753e+001  2.4854e+000 34404 100653,100809,100679
 3.2000e+000 100881 -1.1427e+001 -6.1643e+001  1.3281e+000 34404 100705,100783,100731
 3.2000e+000 100858 -6.5408e+000 -6.2559e+001  4.8730e-001 34404 100679,100783,100705
 3.2000e+000 100835 -2.4234e+001 -4.9732e+001 -2.1680e+001 34404 100731,100783,100757
 3.2000e+000 101354 -2.4718e+001 -1.7884e+002  2.8007e+001 34000 101377,101109,101057
 3.2000e+000 101331 -5.9560e+001 -1.8572e+002  3.3088e+001 34000 101449,101377,101057
 3.2000e+000 101308 -7.1702e+001 -1.4724e+002  3.4234e+001 34000 101449,101057,101031
 3.2000e+000 101285 -5.8233e+001 -1.2008e+002  1.8082e+001 34000 101031,101213,101187
 3.2000e+000 101262 -2.1648e+001 -2.1215e+002 -2.7462e+001 34000 101135,101187,101161
 3.2000e+000 101239 -4.9715e+001 -1.7130e+002  3.0171e+001 34000 101057,101109,101083
 3.2000e+000 101403 -2.9466e+001 -1.6040e+002  1.0741e+001 34000 101135,101109,101377
 3.2000e+000 101426 -6.2358e+001 -1.7269e+002  4.1792e+000 34000 101135,101377,101187
 3.2000e+000 101475 -3.0931e+001 -1.3794e+002  1.9202e+001 34000 101187,101377,101449
 3.2000e+000 101498 -5.9986e+001 -1.2070e+002  2.6211e+001 34000 101187,101449,101031
 3.2000e+000 102083  6.0257e+001 -4.3152e+001 -3.4778e+000 33472 102106,101812,101786
 3.2000e+000 102060  7.0696e-001 -6.8827e+001  2.2253e-001 33472 102106,101786,101916
 3.2000e+000 102037 -5.2596e+001 -5.4116e+001 -2.1163e+001 33472 101812,101864,101838
 3.2000e+000 102014 -2.9962e+001 -9.5685e+001 -1.2732e+001 33472 101864,101916,101890
 3.2000e+000 101991 -5.0522e+000 -9.3458e+001 -5.4459e+000 33472 101786,101942,101916
 3.2000e+000 101968 -1.1100e+001 -8.7129e+001  1.4067e+001 33472 101760,101942,101786
 3.2000e+000 102132  2.3242e+001 -4.2619e+001 -2.6852e+001 33472 101864,101812,102106
 3.2000e+000 102155  3.5649e+000 -4.9800e+001 -2.7924e+001 33472 101864,102106,101916
 3.2000e+000 102612 -1.5700e+001 -1.4201e+002 -7.7961e+001 33038 102635,102468,102390
 3.2000e+000 102589 -6.2481e+001 -2.1804e+002 -1.0468e+002 33038 102635,102390,102364
 3.2000e+000 102566  2.5210e+001 -1.2108e+002 -6.7955e+001 33038 102390,102468,102442
 3.2000e+000 102543 -1.5461e+001 -1.8873e+002 -4.8863e+001 33038 102338,102494,102364
 3.2000e+000 102520 -1.1674e+001 -1.3078e+002 -5.8394e+001 33038 102390,102442,102416
 3.2000e+000 102661 -1.5524e+001 -1.2377e+002 -3.3919e+001 33038 102494,102468,102635
 3.2000e+000 102684 -2.8638e+001 -1.6837e+002 -5.3395e+001 33038 102494,102635,102364
 3.2000e+000 103318 -1.1249e+001 -3.9093e+001  1.3513e+001 32402 102972,103128,103076
 3.2000e+000 103295  3.1564e+000 -4.6621e+001  1.1894e+001 32402 102946,103128,102972
 3.2000e+000 103272 -8.6407e+000 -5.0330e+001  4.8423e+001 32402 103076,103128,103102
 3.2000e+000 103249  9.2155e+000 -4.2055e+001  3.2203e+001 32402 102946,103154,103128
 3.2000e+000 103226 -7.9555e+000 -4.2939e+001  1.8129e+001 32402 102972,103076,102998
 3.2000e+000 103203 -1.4648e+001 -5.8701e+001  8.4580e+000 32402 102998,103076,103050
 3.2000e+000 103180 -2.2531e+001 -2.2939e+001 -2.2837e+000 32402 102998,103050,103024
 3.2000e+000 103696 -3.1397e+001 -1.6652e+002 -1.5790e+001 31924 103448,103526,103500
 3.2000e+000 103673 -2.5491e+001 -1.6781e+002 -3.1856e+001 31924 103448,103578,103526
 3.2000e+000 103650 -3.3918e+001 -1.4253e+002 -1.7626e+001 31924 103448,103500,103474
 3.2000e+000 103627 -2.4066e+001 -2.1384e+002 -3.5624e+001 31924 103422,103578,103448
 3.2000e+000 103604 -4.2962e+001 -2.9272e+002 -1.8848e+000 31924 103526,103578,103552
 3.2000e+000 104281  1.5124e+001 -1.9146e+001 -3.7544e+000 31520 104304,104062,104036
 3.2000e+000 104258  5.9595e+000 -1.5766e+001 -4.0082e+000 31520 104304,104036,103984
 3.2000e+000 104235 -1.8675e+000 -5.9289e+001 -1.4611e+001 31520 104062,104114,104088
 3.2000e+000 104212  3.2199e+001 -1.2358e+000 -2.6187e+001 31520 103958,104114,103984
 3.2000e+000 104189  1.0327e+001 -7.6471e+000 -2.5556e+001 31520 103984,104036,104010
 3.2000e+000 104166  6.3739e+000  6.9422e+001 -1.9378e+001 31520 103958,104140,104114
 3.2000e+000 104330  1.8717e+001 -1.7748e+001 -7.5598e+000 31520 104114,104062,104304
 3.2000e+000 104353  1.2554e+001 -1.3786e+001 -6.3942e+000 31520 104114,104304,103984
 3.2000e+000 104704 -6.8655e+000  4.7724e+000 -1.4262e+001 31066 104479,104583,104505
 3.2000e+000 104681  5.1013e+001  3.2744e+001 -2.4102e+001 31066 104479,104609,104583
 3.2000e+000 104658  1.8199e+001 -9.7535e+001  9.7683e-001 31066 104505,104557,104531
 3.2000e+000 104635  1.2875e+001  9.3658e+000 -1.3171e+001 31066 104505,104583,104557
 3.2000e+000 104925  2.5618e+001 -8.8817e+001 -1.7653e+001 30754 104775,104827,104801
 3.2000e+000 104902  1.8277e+001 -3.9432e+001 -1.4600e+001 30754 104775,104853,104827
 3.2000e+000 104879  9.4946e-001 -4.5998e+001 -2.6802e+000 30754 104749,104853,104775
 3.2000e+000 105482 -3.5392e+001 -8.8497e+001  1.3374e+001 30164 105505,105136,105110
 3.2000e+000 105459 -1.9902e+001 -9.4438e+001  1.4758e+001 30164 105649,105505,105110
 3.2000e+000 105436 -2.7084e+001 -1.0583e+002  9.3597e+000 30164 105577,105188,105136
 3.2000e+000 105413 -2.7108e+001 -9.8836e+001  2.2924e+001 30164 105649,105110,105318
 3.2000e+000 105390 -1.8292e+001 -1.9644e+002  7.0571e+001 30164 105214,105292,105240
 3.2000e+000 105367 -4.6423e+001 -2.3063e+002  8.9285e+001 30164 105240,105292,105266
 3.2000e+000 105344 -3.3818e+001 -9.5444e+001  7.0941e+000 30164 105136,105188,105162
 3.2000e+000 105531 -1.7713e+001 -1.0181e+002  9.5151e+000 30164 105577,105136,105505
 3.2000e+000 105554  3.4465e+001 -8.9330e+001  1.3841e+001 30164 105214,105505,105292
 3.2000e+000 105603 -2.2022e+001 -1.0574e+002  1.8861e+001 30164 105214,105188,105577
 3.2000e+000 105626 -1.6798e+001 -1.0347e+002  1.9095e+001 30164 105214,105577,105505
 3.2000e+000 105675 -1.4914e+001 -8.3798e+001  1.0353e+001 30164 105292,105505,105649
 3.2000e+000 105698 -1.5683e+001 -8.0764e+001  1.7080e+001 30164 105292,105649,105318
 3.2000e+000 106027  1.7310e+001 -4.5134e+001  3.2642e+000 29868 106322,106050,105880
 3.2000e+000 106004  1.2596e+001 -2.6658e+001  1.1147e+001 29868 106250,106050,105828
 3.2000e+000 105981  5.2468e+000 -3.2824e+001  4.6740e+000 29868 106250,105828,105802
 3.2000e+000 105958  1.0396e+001 -5.8832e+001  5.7085e+000 29868 106322,105880,106122
 3.2000e+000 106076  2.2279e+001 -2.4142e+001 -2.3356e+000 29868 105906,105880,106050
 3.2000e+000 106099  3.2279e+001 -3.6998e+001 -1.5933e+000 29868 105906,106050,105932
 3.2000e+000 106148 -1.9265e+001 -8.2847e+001  1.0278e+001 29868 105854,105828,106122
 3.2000e+000 106276  5.8016e+000 -3.1774e+001 -6.5712e+000 29868 105932,106050,106250
 3.2000e+000 106299 -1.8113e+001 -4.7421e+001 -1.4913e+001 29868 105932,106250,105802
 3.2000e+000 106348  4.7031e+000 -2.9756e+001  1.2363e+001 29868 105828,106050,106322
 3.2000e+000 106371 -3.5915e-001 -4.0433e+001  1.3945e+001 29868 105828,106322,106122
 3.2000e+000 106828  5.7182e+001 -7.3033e+000  1.0698e+001 29521 106580,106710,106684
 3.2000e+000 106805  1.4667e+001 -3.9935e+001 -2.2557e+001 29521 106554,106710,106580
 3.2000e+000 106782  1.8991e+001 -3.2541e+001 -4.8804e-001 29521 106580,106684,106606
 3.2000e+000 106759  1.8503e+001 -3.7482e+001  2.0872e+000 29521 106606,106684,106658
 3.2000e+000 106736  6.1204e-001  1.0973e+001  1.9874e+001 29521 106606,106658,106632
 3.2000e+000 107027 -5.3582e+001 -1.2751e+002 -3.0427e+001 29117 106877,106929,106903
 3.2000e+000 107004  2.6686e+000 -1.0367e+002 -4.7185e+001 29117 106851,106929,106877
 3.2000e+000 106981  2.7453e+000 -1.6175e+002 -3.9793e+001 29117 106851,106955,106929
 3.2000e+000 107456 -9.6656e+001 -2.1849e+002 -5.1152e+001 28656 107237,107315,107263
 3.2000e+000 107433  2.2344e+001 -1.3254e+002 -8.7435e+000 28656 107133,107315,107237
 3.2000e+000 107410  2.4350e+001 -1.2514e+002 -8.2091e+000 28656 107133,107237,107159
 3.2000e+000 107387 -1.0108e+001 -5.0028e+001 -1.7671e+001 28656 107159,107237,107185
 3.2000e+000 107364 -3.3706e+000 -4.3048e+001 -4.4780e+000 28656 107185,107237,107211
 3.2000e+000 107341  1.0005e+000 -1.6335e+001  6.1924e+000 28656 107263,107315,107289
 3.2000e+000 107704  3.0792e+001 -2.8725e+001 -9.0862e+000 27902 107727,107557,107531
 3.2000e+000 107681  3.5174e+001 -3.6843e+001 -5.1512e+000 27902 107727,107531,107505
 3.2000e+000 107658  1.3842e+001 -6.1833e+001 -3.7121e+000 27902 107557,107609,107583
 3.2000e+000 107635 -1.9171e+001 -4.5697e+001  1.4779e+001 27902 107479,107609,107505
 3.2000e+000 107753  2.6017e+001 -3.4272e+001 -6.5478e+000 27902 107609,107557,107727
 3.2000e+000 107776  3.1097e+001 -4.1559e+001 -2.7661e+000 27902 107609,107727,107505
 3.2000e+000 108333 -3.4290e+001 -2.0435e+002  1.2883e+001 27341 108356,108065,108013
 3.2000e+000 108310 -1.8937e+001 -1.8415e+002 -4.4965e+001 27341 108356,108013,108143
 3.2000e+000 108287 -9.2787e+001 -2.3468e+002 -1.9012e+001 27341 108428,108117,108091
 3.2000e+000 108264 -1.8071e+001 -1.7798e+002  5.1094e+000 27341 108013,108065,108039
 3.2000e+000 108241 -5.1429e+001 -1.8611e+002 -5.0348e+001 27341 107987,108143,108013
 3.2000e+000 108218 -1.2112e+001 -1.6746e+002 -7.4993e+001 27341 107987,108169,108143
 3.2000e+000 108195 -3.3855e+001 -1.2326e+002 -7.0033e+001 27341 107961,108169,107987
 3.2000e+000 108382 -4.1501e+001 -2.0839e+002 -5.9807e+000 27341 108091,108065,108356
 3.2000e+000 108405 -9.2976e+001 -1.9868e+002 -1.6318e+001 27341 108428,108091,108356
 3.2000e+000 108454 -7.9337e+001 -3.4546e+002 -2.8263e+001 27341 108143,108117,108428
 3.2000e+000 108477 -5.9039e+001 -2.7897e+002 -3.2252e+001 27341 108143,108428,108356
 3.2000e+000 108725  2.9767e+001 -1.3175e+002  1.1631e+001 27029 108748,108526,108500
 3.2000e+000 108702  4.8842e+000 -6.2129e+001  2.6970e+001 27029 108748,108500,108630
 3.2000e+000 108679 -3.5556e+001 -9.7639e+001  2.0583e+001 27029 108578,108630,108604
 3.2000e+000 108656 -1.2897e+001 -1.4627e+002  3.3631e+001 27029 108526,108578,108552
 3.2000e+000 108774  5.7724e+000 -1.6071e+002  6.3526e-001 27029 108578,108526,108748
 3.2000e+000 108797 -3.8144e+001 -1.1342e+002  7.3562e+000 27029 108578,108748,108630
 3.2000e+000 109045 -7.5808e+000 -6.5953e+001 -4.2177e+000 26610 108872,108924,108898
 3.2000e+000 109022 -9.9642e+000 -1.2050e+002 -2.8688e+001 26610 108872,108950,108924
 3.2000e+000 108999 -1.1931e+001 -1.2275e+002 -3.0438e+001 26610 108846,108950,108872
 3.2000e+000 108976 -5.9492e+000 -1.8723e+002 -4.0160e+001 26610 108820,108950,108846
 3.2000e+000 109366  2.2516e+001 -2.0861e+002  1.0388e+001 26006 109144,109222,109196
 3.2000e+000 109343  2.1698e+001 -2.1846e+002  7.0001e+000 26006 109118,109222,109144
 3.2000e+000 109320 -1.2024e+001 -2.4646e+002  2.7437e+001 26006 109092,109222,109118
 3.2000e+000 109297  7.2929e+001 -1.8465e+002 -1.2280e+001 26006 109144,109196,109170
 3.2000e+000 109274  2.7776e+001 -1.5110e+002  1.4042e+001 26006 109092,109248,109222
 3.2000e+000 109567 -3.0535e+001 -6.0041e+001 -3.8128e+001 25659 109391,109469,109443
 3.2000e+000 109544  1.0961e+001 -5.2387e+001 -1.4581e+001 25659 109391,109495,109469
 3.2000e+000 109521 -3.9376e+001 -4.3606e+001 -2.6103e+001 25659 109391,109443,109417
 3.2000e+000 109900 -9.0145e+000 -6.4977e+001 -1.1823e+001 25255 109923,109779,109753
 3.2000e+000 109877 -4.1697e+000 -5.4228e+001 -1.3053e+001 25255 109923,109753,109701
 3.2000e+000 109854 -1.3059e+001 -4.4075e+001 -2.5770e+001 25255 109675,109805,109701
 3.2000e+000 109831 -2.5599e+001 -7.7912e+001 -3.1321e+000 25255 109701,109753,109727
 3.2000e+000 109949 -5.6077e+000 -7.8980e+001 -2.2962e+001 25255 109805,109779,109923
 3.2000e+000 109972  2.6193e+000 -5.9525e+001 -2.4461e+001 25255 109805,109923,109701
 3.2000e+000 110220 -1.6348e+001 -1.1111e+002  1.8399e+001 24701 110243,110021,109995
 3.2000e+000 110197 -1.0850e+001 -1.1011e+002 -7.4679e+000 24701 110243,109995,110099
 3.2000e+000 110174  1.3357e+001 -1.2788e+002 -1.1371e+001 24701 110315,110073,110047
 3.2000e+000 110151 -3.1418e+001 -1.0679e+002 -4.7636e+000 24701 109995,110125,110099
 3.2000e+000 110269  3.6283e+001 -8.3323e+001  2.8669e+001 24701 110047,110021,110243
 3.2000e+000 110292 -2.7180e+001 -1.2243e+002  6.7216e+000 24701 110315,110047,110243
 3.2000e+000 110341  9.3707e+001 -8.9006e+001 -2.5132e+001 24701 110099,110073,110315
 3.2000e+000 110364  3.5104e+001 -9.0410e+001 -8.1648e+000 24701 110099,110315,110243
 3.2000e+000 110661 -3.2653e+001 -2.1088e+002  2.6557e+001 24197 110684,110413,110387
 3.2000e+000 110638 -1.0399e+001 -1.8331e+002 -9.2802e-001 24197 110684,110387,110543
 3.2000e+000 110615  1.1740e+001 -2.7196e+002  2.3890e+001 24197 110756,110491,110465
 3.2000e+000 110592 -3.5783e+001 -1.6711e+002  4.0348e+001 24197 110413,110465,110439
 3.2000e+000 110569 -3.5952e+001 -4.2723e+002 -3.4288e+001 24197 110491,110543,110517
 3.2000e+000 110710  1.4985e+001 -1.8690e+002  4.0801e+001 24197 110465,110413,110684
 3.2000e+000 110733 -1.5429e+001 -2.4258e+002  1.7219e+001 24197 110756,110465,110684
 3.2000e+000 110782  2.4877e+001 -2.3818e+002 -8.8232e-001 24197 110543,110491,110756
 3.2000e+000 110805  1.0740e+001 -1.9391e+002 -9.0428e+000 24197 110543,110756,110684
 3.2000e+000 111315  2.8627e+000 -1.5283e+002 -1.5883e+001 23593 111044,111148,111070
 3.2000e+000 111292 -2.9552e+001 -1.1000e+002  4.7334e+000 23593 111044,111174,111148
 3.2000e+000 111269  3.7123e+001 -6.7536e+001 -1.0479e+001 23593 111070,111122,111096
 3.2000e+000 111246 -4.7752e+000 -1.3736e+002 -3.6035e+001 23593 111070,111148,111122
 3.2000e+000 111223 -4.1864e+001 -9.3073e+001 -1.4358e+001 23593 111018,111174,111044
 3.2000e+000 111200  7.9189e+000 -1.2461e+002 -7.8851e+000 23593 110992,111174,111018
 3.2000e+000 111821  1.3535e+001 -2.0264e+002 -3.7671e+000 23089 111916,111844,111628
 3.2000e+000 111798 -3.0354e+001 -2.3679e+002 -5.6340e+001 23089 111844,111550,111524
 3.2000e+000 111775  1.5895e+000 -1.7324e+002 -4.3805e+000 23089 111916,111628,111602
 3.2000e+000 111752  9.1771e+000 -3.3910e+002 -4.1464e+001 23089 111498,111680,111524
 3.2000e+000 111729 -2.7122e+000 -1.3337e+002  1.9314e+001 23089 111550,111602,111576
 3.2000e+000 111706 -6.9098e+000 -8.1320e+001 -2.0884e+001 23089 111628,111680,111654
 3.2000e+000 111870  3.4982e+001 -1.6787e+002  2.0401e+001 23089 111680,111628,111844
 3.2000e+000 111893  2.3382e+001 -1.9891e+002 -1.2749e+001 23089 111680,111844,111524
 3.2000e+000 111942  2.8298e+001 -1.6488e+002 -1.7220e+001 23089 111550,111844,111916
 3.2000e+000 111965  8.8612e+000 -1.4221e+002 -1.4116e+001 23089 111550,111916,111602
 3.2000e+000 112164 -1.3108e+001 -8.1380e+001 -3.0819e+001 22626 112187,112014,111988
 3.2000e+000 112141  1.0233e+001 -1.2554e+002 -3.1387e+001 22626 112259,112187,111988
 3.2000e+000 112118  2.7362e+001 -1.3321e+002 -7.6826e+000 22626 112259,111988,112092
 3.2000e+000 112213  1.7601e+001 -1.1579e+001 -1.0301e+001 22626 112040,112014,112187
 3.2000e+000 112236 -8.0426e+000 -9.9242e+001 -1.5330e+001 22626 112040,112187,112066
 3.2000e+000 112285  3.2944e+001 -9.1133e+001 -2.0071e+001 22626 112066,112187,112259
 3.2000e+000 112308  4.7007e+001 -9.8282e+001  2.8314e+000 22626 112066,112259,112092
 3.2000e+000 112605 -2.7636e+001 -1.7909e+002  5.8625e+000 22286 112628,112383,112357
 3.2000e+000 112582 -1.3797e+001 -1.7717e+002  1.0080e+001 22286 112772,112628,112357
 3.2000e+000 112559 -2.6116e+001 -2.1868e+002  2.8117e+001 22286 112700,112435,112409
 3.2000e+000 112536 -3.1066e+001 -1.9312e+002  1.2562e-001 22286 112772,112357,112331
 3.2000e+000 112513 -8.0008e+001 -2.0331e+002  3.4944e+001 22286 112435,112487,112461
 3.2000e+000 112654 -1.1249e+001 -1.3170e+002  7.4463e+000 22286 112409,112383,112628
 3.2000e+000 112677 -1.2525e+001 -1.9220e+002  2.2563e+001 22286 112700,112409,112628
 3.2000e+000 112726 -1.4455e+001 -2.0064e+002  9.2297e+000 22286 112487,112435,112700
 3.2000e+000 112749 -1.0835e+001 -1.9621e+002  5.3210e+000 22286 112487,112700,112628
 3.2000e+000 112798 -7.6060e+000 -1.9674e+002  7.7148e+000 22286 112487,112628,112772
 3.2000e+000 112821 -5.1565e+000 -1.9999e+002  6.2236e+000 22286 112487,112772,112331
 3.2000e+000 112924  2.1698e-001  5.1889e-001  4.9814e+000 21974 112846,112898,112872
 3.2000e+000 113223 -6.4341e+001 -2.3353e+002  3.3886e+001 21420 112949,113053,112975
 3.2000e+000 113200 -4.5528e+001 -1.8176e+002  2.8857e+001 21420 112949,113079,113053
 3.2000e+000 113177  9.9536e+001 -1.8827e+002  7.4461e+001 21420 112975,113053,113001
 3.2000e+000 113154 -1.1204e+002 -2.8196e+002  4.3573e+001 21420 113001,113053,113027
 3.2000e+000 113131 -9.2990e+001 -1.6365e+002  9.4897e+000 21420 112949,113105,113079
 3.2000e+000 113605 -2.1183e+001 -1.9982e+002  5.7689e+001 20716 113331,113435,113357
 3.2000e+000 113582 -3.2116e+001 -1.3756e+002  6.3615e+001 20716 113331,113461,113435
 3.2000e+000 113559 -7.0431e+000 -2.1312e+002 -3.0053e+001 20716 113383,113435,113409
 3.2000e+000 113536 -5.3377e+001 -1.7073e+002 -1.5415e+001 20716 113357,113435,113383
 3.2000e+000 113513 -7.8637e-001 -2.2066e+001 -2.3927e+001 20716 113331,113487,113461
 3.2000e+000 113853  5.2563e+001 -2.0738e+002  7.1863e+000 20290 113876,113680,113654
 3.2000e+000 113830  8.5033e+001 -2.0234e+002  7.8692e+000 20290 113876,113654,113628
 3.2000e+000 113807  2.5617e+001 -2.3866e+002 -8.5088e+000 20290 113948,113732,113680
 3.2000e+000 113784  4.7903e+001 -2.4787e+002 -2.6674e+001 20290 113680,113732,113706
 3.2000e+000 113902  4.8875e+001 -2.0380e+002  1.0173e+001 20290 113948,113680,113876
 3.2000e+000 113925  4.3083e+001 -1.7836e+002  8.4515e+000 20290 113758,113876,113628
 3.2000e+000 113974  2.5288e+000 -2.0547e+002 -1.9787e+001 20290 113758,113732,113948
 3.2000e+000 113997  5.7474e+000 -2.0027e+002 -6.5433e+000 20290 113758,113948,113876
 3.2000e+000 114365 -3.3509e+000 -2.0302e+002  6.6579e-001 19900 114146,114198,114172
 3.2000e+000 114342 -6.4707e+000 -2.0429e+002  1.0956e+000 19900 114042,114198,114146
 3.2000e+000 114319 -4.3721e+000 -1.9683e+002  7.2024e-001 19900 114042,114224,114198
 3.2000e+000 114296 -6.0115e+001 -1.9695e+002 -2.7150e-001 19900 114094,114146,114120
 3.2000e+000 114273 -6.5089e+000 -1.8208e+002 -1.1464e+001 19900 114042,114146,114094
 3.2000e+000 114250 -8.2552e+001 -2.0692e+002 -7.2097e+000 19900 114042,114094,114068
 3.2000e+000 114566 -5.7809e+001 -2.0066e+002 -2.4611e+000 19496 114442,114494,114468
 3.2000e+000 114543 -6.7654e+001 -1.7788e+002 -7.8554e+000 19496 114416,114494,114442
 3.2000e+000 114520 -6.4641e+001 -1.8199e+002 -1.1338e+001 19496 114390,114494,114416
 3.2000e+000 114767 -8.4536e+000 -2.0997e+002  8.8775e+000 19042 114790,114669,114643
 3.2000e+000 114744 -3.5347e+000 -2.0737e+002  1.0015e+001 19042 114790,114643,114591
 3.2000e+000 114721  1.7062e+001 -2.0335e+002  3.4368e+001 19042 114591,114643,114617
 3.2000e+000 114816 -1.9443e+001 -2.0632e+002  7.7161e+000 19042 114695,114669,114790
 3.2000e+000 114839 -9.8922e+000 -1.9930e+002  1.0832e+001 19042 114695,114790,114591
 3.2000e+000 114991 -8.3972e+001 -2.3714e+002  7.8682e-002 18488 114864,114916,114890
 3.2000e+000 114968 -6.3616e+001 -2.3347e+002 -6.3805e+000 18488 114864,114942,114916
 3.2000e+000 115192  1.2909e+002 -1.3743e+002  1.8569e+001 18098 115215,115042,115016
 3.2000e+000 115169  6.1378e+001 -1.1105e+002 -1.0782e+000 18098 115215,115016,115120
 3.2000e+000 115146  9.6948e+001 -1.3193e+002 -4.3191e+001 18098 115287,115094,115068
 3.2000e+000 115241  8.1983e+001 -2.2373e+002 -2.6775e+000 18098 115068,115042,115215
 3.2000e+000 115264  9.4689e+001 -1.2271e+002 -1.2816e+001 18098 115287,115068,115215
 3.2000e+000 115313  5.4178e+001 -1.4852e+002 -4.2137e+001 18098 115120,115094,115287
 3.2000e+000 115336  3.7674e+001 -1.4548e+002 -1.3259e+001 18098 115120,115287,115215
 3.2000e+000 115846  8.3695e+001 -2.7857e+002 -9.6980e+001 17644 115653,115705,115679
 3.2000e+000 115823  6.9452e+000 -2.3909e+002 -4.8832e+001 17644 115627,115705,115653
 3.2000e+000 115800  8.9415e+001 -1.3782e+002 -3.7718e+000 17644 115549,115705,115627
 3.2000e+000 115777  2.4481e+001 -2.2162e+002  2.7412e+001 17644 115549,115627,115575
 3.2000e+000 115754  5.6181e+001 -1.4829e+002 -5.7159e-001 17644 115523,115705,115549
 3.2000e+000 115731 -6.5958e+001 -1.8561e+002 -1.5976e+001 17644 115575,115627,115601
 3.2000e+000 116067 -7.6841e+001 -3.8380e+002 -1.5531e+001 17116 115891,115943,115917
 3.2000e+000 116044 -1.4318e+002 -4.4452e+002  9.7710e+000 17116 115891,115995,115943
 3.2000e+000 116021 -1.3391e+002 -3.7314e+002  9.3244e+000 17116 115943,115995,115969
 3.2000e+000 116288  2.8447e+001 -2.3315e+002  5.2508e+001 16704 116164,116216,116190
 3.2000e+000 116265 -2.3054e+001 -3.0867e+002  3.0128e+001 16704 116112,116216,116164
 3.2000e+000 116242 -1.2887e+002 -3.1800e+002  1.1359e+000 16704 116112,116164,116138
 3.2000e+000 116489 -2.4400e+001 -1.8105e+002 -7.0738e+000 16434 116339,116417,116365
 3.2000e+000 116466 -2.9922e+001 -1.7993e+002 -3.5968e-001 16434 116313,116417,116339
 3.2000e+000 116443 -9.9216e+001 -2.2438e+002  4.5910e+001 16434 116365,116417,116391
 3.2000e+000 116592  4.5916e+001 -2.4984e+002 -2.3127e+001 15967 116514,116566,116540
 3.2000e+000 116695 -2.4459e+001 -3.7949e+002 -4.9422e+001 15552 116617,116669,116643
 3.2000e+000 116798 -2.0620e+000 -1.9120e+002  0.0000e+000 421 116720,116772,116746
 3.3000e+000 69066  1.8295e+000 -3.3285e+002 -2.0177e+001 68738 68965,69017,68991
 3.3000e+000 69043  8.9729e+001 -3.1772e+002  7.4615e+002 68738 68939,69017,68965
 3.3000e+000 69371 -1.2057e+001 -6.8886e+001 -2.2290e+001 68426 69172,69250,69198
 3.3000e+000 69348  6.1909e-002 -1.2719e+002  9.9509e+000 68426 69146,69250,69172
 3.3000e+000 69325 -5.3117e+000 -2.5115e+001  1.0177e+001 68426 69198,69250,69224
 3.3000e+000 69302 -3.7478e+001 -1.1083e+002  6.9863e+000 68426 69146,69276,69250
 3.3000e+000 69521  7.6709e+000 -4.4928e+001 -1.8388e+001 68228 69420,69472,69446
 3.3000e+000 69498 -8.6371e+000 -3.5971e+001 -3.0694e+001 68228 69394,69472,69420
 3.3000e+000 69781 -1.4014e+001  2.5616e+001  1.1279e+001 68030 69631,69683,69657
 3.3000e+000 69758  6.6270e+000 -3.0464e+001 -1.1955e+001 68030 69631,69709,69683
 3.3000e+000 69735 -2.1174e+000  1.7764e+001  3.0253e+001 68030 69605,69709,69631
 3.3000e+000 70078  6.9884e-002  2.7732e+001 -8.1886e+000 67832 69882,69934,69908
 3.3000e+000 70055 -5.9987e+000 -4.6922e+000  9.8473e+000 67832 69856,69934,69882
 3.3000e+000 70032  6.6520e-001 -1.4505e+001 -2.9483e+000 67832 69830,69934,69856
 3.3000e+000 70009  3.0823e+000 -9.2925e+000 -1.1478e+001 67832 69804,69934,69830
 3.3000e+000 69986 -8.6210e+000  3.1347e+001  8.2971e+000 67832 69804,69960,69934
 3.3000e+000 70586 -7.2397e+000 -5.2914e+001  1.3165e+001 67634 70609,70419,70341
 3.3000e+000 70563 -2.2367e+000 -8.8578e+001  2.5366e+001 67634 70681,70609,70341
 3.3000e+000 70540 -8.7020e+000 -9.2035e+001  2.7884e+001 67634 70681,70341,70315
 3.3000e+000 70517 -1.7106e+001 -4.4768e+001  3.1736e+001 67634 70341,70419,70367
 3.3000e+000 70494 -1.9981e+001  2.5062e+001 -8.9079e+000 67634 70263,70445,70289
 3.3000e+000 70471  7.3335e+000  6.0790e+000  1.6973e+001 67634 70367,70419,70393
 3.3000e+000 70635  7.0600e-001  3.0543e+001  8.2849e+000 67634 70445,70419,70609
 3.3000e+000 70658 -1.9953e+001 -6.0026e+001  2.0043e+001 67634 70445,70609,70289
 3.3000e+000 70707 -1.0628e+000 -7.5296e+001  7.4417e+000 67634 70289,70609,70681
 3.3000e+000 70730 -2.0929e+001 -8.5623e+001  1.1690e+001 67634 70289,70681,70315
 3.3000e+000 71108  8.7946e+000 -4.8112e+000  9.7572e+000 67344 71131,70912,70886
 3.3000e+000 71085 -1.0864e+001 -5.5087e+001  1.9379e+001 67344 71131,70886,70860
 3.3000e+000 71062 -2.8031e+001 -5.6026e+001  2.8544e+001 67344 71203,70938,70912
 3.3000e+000 71039  2.4798e+001 -3.9579e+001  2.0061e+001 67344 70834,70990,70860
 3.3000e+000 71016 -7.0679e+000 -7.2566e+001  8.2113e+000 67344 70938,70990,70964
 3.3000e+000 71157 -2.2956e+001 -4.5623e+001  2.6783e+001 67344 71203,70912,71131
 3.3000e+000 71180  7.6988e+000 -4.6433e+001  1.6969e+001 67344 70990,71131,70860
 3.3000e+000 71229 -1.2715e+001 -8.4742e+001  2.3123e+001 67344 70990,70938,71203
 3.3000e+000 71252 -3.6174e-001 -6.5171e+001  1.7715e+001 67344 70990,71203,71131
 3.3000e+000 71603  4.3567e+000 -6.6679e+001  9.5730e+000 67032 71378,71482,71404
 3.3000e+000 71580  1.9140e+000 -3.7828e+001  1.5928e+001 67032 71378,71508,71482
 3.3000e+000 71557  2.7153e+000 -3.8357e+001  2.7318e+001 67032 71404,71456,71430
 3.3000e+000 71534 -1.3302e+000 -7.7510e+001  1.3120e+001 67032 71404,71482,71456
 3.3000e+000 72003  2.2693e+001 -2.2197e+001  1.7475e+001 66834 71755,71859,71781
 3.3000e+000 71980  1.1880e+001 -1.1436e+002  3.0985e+000 66834 71755,71885,71859
 3.3000e+000 71957  3.3448e+000 -1.5371e+001  1.9339e+000 66834 71781,71833,71807
 3.3000e+000 71934 -9.8383e+000 -1.2478e+002 -1.1323e+001 66834 71781,71859,71833
 3.3000e+000 71911  3.9330e+001 -3.3244e+001  4.6138e+001 66834 71729,71885,71755
 3.3000e+000 72430  2.3023e+001 -5.5806e+001 -3.5751e+000 66266 72237,72289,72263
 3.3000e+000 72407  1.5724e+001 -7.5712e+001  5.3501e+000 66266 72133,72289,72237
 3.3000e+000 72384 -1.4881e+000 -4.5733e+001 -8.4992e-001 66266 72133,72237,72211
 3.3000e+000 72361 -1.9102e+001 -1.0006e+002 -6.1675e+000 66266 72107,72289,72133
 3.3000e+000 72338 -1.9249e+001 -9.5116e+001  3.5217e+001 66266 72133,72211,72185
 3.3000e+000 72315 -6.8657e+000 -1.1477e+002  3.2453e+001 66266 72133,72185,72159
 3.3000e+000 72580 -7.7453e+000 -7.7385e+001  5.5731e+000 65968 72479,72531,72505
 3.3000e+000 72557  2.9150e+000 -3.4367e+001  2.7120e+000 65968 72453,72531,72479
 3.3000e+000 72960  2.3748e+001  2.7797e+001  5.2613e+000 65621 72983,72738,72712
 3.3000e+000 72937  6.7377e+001 -3.6175e+001  3.7275e+000 65621 72983,72712,72686
 3.3000e+000 72914  1.2577e+001 -9.7820e+001  1.2158e+000 65621 72738,72842,72764
 3.3000e+000 72891 -3.6993e+000 -1.0312e+002 -3.9117e-001 65621 72764,72842,72816
 3.3000e+000 72868 -6.6170e+001 -2.6448e+002  4.0380e+001 65621 72764,72816,72790
 3.3000e+000 73009  3.1087e+001 -2.0338e+001  1.5165e+001 65621 72842,72738,72983
 3.3000e+000 73032  3.2094e+001 -1.3949e+002  2.1473e+001 65621 72842,72983,72686
 3.3000e+000 73361  1.2302e+001 -2.6660e+002 -7.5820e+000 65281 73456,73384,73188
 3.3000e+000 73338 -1.0242e+001 -2.1723e+002  2.7057e+001 65281 73384,73162,73136
 3.3000e+000 73315 -1.4120e+001 -1.0295e+002 -8.3419e-002 65281 73188,73240,73214
 3.3000e+000 73292  1.2871e+001 -2.4294e+001 -2.1019e+001 65281 73136,73266,73240
 3.3000e+000 73410 -5.0303e+001 -2.3599e+002 -1.5994e+001 65281 73240,73188,73384
 3.3000e+000 73433 -2.2650e+001 -5.0085e+001  4.8050e+000 65281 73240,73384,73136
 3.3000e+000 73482 -4.3158e+000 -3.3645e+002 -2.9183e+001 65281 73162,73384,73456
 3.3000e+000 73711 -2.8388e+000  2.1872e+001 -3.8867e+001 64820 73734,73610,73584
 3.3000e+000 73688 -2.1126e+001 -1.9890e+001 -4.2799e+001 64820 73734,73584,73662
 3.3000e+000 73760  1.7455e+001  3.6306e+001  5.6320e+000 64820 73636,73610,73734
 3.3000e+000 73783 -3.4180e+001 -3.7794e-001 -1.7355e+001 64820 73806,73734,73662
 3.3000e+000 73832 -1.6280e+001 -2.0980e+001 -1.1078e+001 64820 73636,73734,73806
 3.3000e+000 74112  1.4734e+001 -1.7347e+001 -1.6612e+001 64622 74278,74135,73988
 3.3000e+000 74089  3.5319e-002 -4.6631e+001  2.3251e+000 64622 74135,73936,74040
 3.3000e+000 74066  1.7087e+001 -1.5948e+001 -3.4145e+001 64622 74278,73988,73962
 3.3000e+000 74161 -1.6515e+001 -3.7517e+001 -7.9394e+000 64622 74014,73988,74135
 3.3000e+000 74184 -5.9347e-001 -4.2807e+001  4.3831e-002 64622 74207,74135,74040
 3.3000e+000 74233  4.8678e+000 -3.2785e+001 -6.8705e+000 64622 74014,74135,74207
 3.3000e+000 74304 -3.3749e-001 -5.3432e+001 -1.5546e+000 64622 73936,74135,74278
 3.3000e+000 74327  1.3665e+001 -4.2158e+001 -2.0920e+001 64622 73936,74278,73962
 3.3000e+000 74526  2.0182e+001  2.3815e+001  2.3232e+000 64424 74621,74549,74402
 3.3000e+000 74503 -1.3052e+001 -2.6955e+001  1.3524e+001 64424 74549,74350,74454
 3.3000e+000 74480  2.9734e+001  3.7489e+001 -1.5663e+001 64424 74621,74402,74376
 3.3000e+000 74575  3.7301e+001 -2.2474e+001  1.5720e+001 64424 74428,74402,74549
 3.3000e+000 74598  1.0293e+001 -4.9029e+001  2.0113e+001 64424 74693,74549,74454
 3.3000e+000 74647  2.0638e+000 -5.3362e+000  2.3084e+001 64424 74350,74549,74621
 3.3000e+000 74670  1.4511e+001  5.1891e+000  4.5360e+000 64424 74350,74621,74376
 3.3000e+000 74719  7.2705e+000 -7.4013e+001 -1.8282e+000 64424 74428,74549,74693
 3.3000e+000 75123 -2.7073e+001 -2.1623e+002  4.5447e+001 64126 74875,74953,74927
 3.3000e+000 75100 -1.3441e+001 -2.1362e+002  2.7970e+001 64126 74875,74979,74953
 3.3000e+000 75077 -3.0997e+000 -1.3056e+002 -3.2320e-001 64126 74875,75005,74979
 3.3000e+000 75054 -2.6952e+000 -2.9401e+002  7.7920e+001 64126 74875,74927,74901
 3.3000e+000 75031 -5.3710e+001 -6.4440e+001  2.7148e+001 64126 74849,75005,74875
 3.3000e+000 75224 -1.8027e+001 -1.4274e+002  1.4033e+001 63836 75146,75198,75172
 3.3000e+000 75472  7.9469e+000 -7.1954e+001  2.8245e+001 63375 75273,75351,75325
 3.3000e+000 75449 -1.9841e+001 -7.3124e+001  1.5622e+001 63375 75273,75377,75351
 3.3000e+000 75426 -3.5834e+001 -8.8896e+001  6.7473e+000 63375 75247,75377,75273
 3.3000e+000 75403  2.1144e+001 -3.8323e+001  2.4975e+001 63375 75273,75325,75299
 3.3000e+000 75673  2.3645e+001 -7.2116e+001  1.6007e+001 63063 75523,75575,75549
 3.3000e+000 75650  1.7909e+001 -1.1620e+002 -5.7968e+000 63063 75497,75575,75523
 3.3000e+000 75627  1.8336e+001 -1.2691e+002  1.7486e+001 63063 75497,75601,75575
 3.3000e+000 75874  2.9546e+001 -1.2562e+002 -1.0826e+001 62716 75897,75750,75724
 3.3000e+000 75851  1.4367e+001 -1.0301e+002 -5.0529e+000 62716 75897,75724,75698
 3.3000e+000 75828  4.4860e+000 -7.5977e+001 -3.5924e+001 62716 75698,75802,75776
 3.3000e+000 75923  5.2596e+001 -9.9222e+001 -2.2205e+001 62716 75776,75750,75897
 3.3000e+000 75946  2.1047e+001 -9.1802e+001 -8.6504e+000 62716 75776,75897,75698
 3.3000e+000 76328 -2.2067e+001 -1.3272e+002 -2.9843e+000 62198 76495,76351,76158
 3.3000e+000 76305 -3.9618e+001 -1.3619e+002 -1.5233e+000 62198 76351,76080,76054
 3.3000e+000 76282 -9.7435e+000 -2.0219e+002 -7.6655e+000 62198 76423,76184,76158
 3.3000e+000 76259 -2.4984e+001 -1.3164e+002 -1.8082e+000 62198 76495,76158,76106
 3.3000e+000 76236 -4.8878e+001 -1.9703e+002  2.9113e+001 62198 76106,76158,76132
 3.3000e+000 76377 -3.2605e+001 -1.5680e+002 -1.3363e+001 62198 76423,76158,76351
 3.3000e+000 76400 -4.0378e+001 -1.2178e+002 -1.9861e+001 62198 76210,76351,76054
 3.3000e+000 76449  1.4804e+001 -1.5879e+002 -1.7762e+001 62198 76210,76184,76423
 3.3000e+000 76472 -6.0672e+000 -1.1979e+002 -2.6318e+001 62198 76210,76423,76351
 3.3000e+000 76521 -2.6783e+001 -1.3171e+002 -1.7092e+000 62198 76080,76351,76495
 3.3000e+000 76544 -3.2758e+001 -1.3377e+002  3.7854e-001 62198 76080,76495,76106
 3.3000e+000 76841  2.2921e+000 -1.4231e+002  1.7148e+001 61751 76936,76864,76645
 3.3000e+000 76818  5.4983e+001 -1.2525e+002 -4.2155e+001 61751 76864,76567,76723
 3.3000e+000 76795  1.3619e+001 -9.1744e+001  1.5505e+001 61751 76936,76645,76593
 3.3000e+000 76772 -1.3950e+002 -3.3113e+002  7.5982e+001 61751 77008,76697,76671
 3.3000e+000 76749 -7.3728e+000 -5.8204e+001 -2.0840e+001 61751 76593,76645,76619
 3.3000e+000 76890 -1.3335e+001 -1.8402e+002  3.5723e+001 61751 76671,76645,76864
 3.3000e+000 76913 -3.4656e+001 -1.8263e+002  2.2637e+001 61751 77008,76671,76864
 3.3000e+000 76962  2.6805e+001 -2.0994e+002 -8.1669e+000 61751 76567,76864,76936
 3.3000e+000 76985  3.4771e+001 -1.6734e+002 -4.1790e+000 61751 76567,76936,76593
 3.3000e+000 77034  1.4147e+001 -2.3280e+002 -3.0896e+001 61751 76723,76697,77008
 3.3000e+000 77057  2.1333e+000 -2.4955e+002 -2.5645e+001 61751 76723,77008,76864
 3.3000e+000 77207 -9.3631e+000 -6.0534e+001  2.2418e+001 61418 77106,77158,77132
 3.3000e+000 77184  4.9261e+001 -1.3245e+002  3.2681e+001 61418 77080,77158,77106
 3.3000e+000 77638  3.1061e+000 -1.5068e+002 -1.9873e+001 60814 77733,77661,77471
 3.3000e+000 77615 -3.7529e+000 -1.4275e+002 -1.6601e+001 60814 77661,77393,77315
 3.3000e+000 77592  8.4756e-002 -1.2678e+002 -8.3624e+000 60814 77733,77471,77445
 3.3000e+000 77569 -5.2680e+001 -2.9938e+002 -4.6163e+001 60814 77315,77367,77341
 3.3000e+000 77546 -1.1537e+001 -2.3297e+002 -2.3836e+001 60814 77315,77393,77367
 3.3000e+000 77523 -8.8379e+000 -8.6205e+001 -1.5309e+001 60814 77393,77445,77419
 3.3000e+000 77687 -8.7693e+000 -1.5492e+002 -2.7574e+001 60814 77497,77471,77661
 3.3000e+000 77710 -7.4258e+000 -1.5201e+002 -1.0381e+001 60814 77497,77661,77315
 3.3000e+000 77759 -1.2816e+000 -1.1381e+002 -1.8938e+001 60814 77393,77661,77733
 3.3000e+000 77782 -3.8461e+000 -9.3646e+001 -3.8067e+000 60814 77393,77733,77445
 3.3000e+000 78337  1.3605e+001 -6.8963e+001  1.0419e+001 60210 78360,78017,77965
 3.3000e+000 78314  1.0877e+001 -5.0487e+001  1.3486e+001 60210 78360,77965,78173
 3.3000e+000 78291  2.0204e+000 -9.2174e+001 -1.4194e+001 60210 78432,78043,78017
 3.3000e+000 78268 -9.3968e-001 -1.0167e+002  7.3315e+000 60210 77965,78017,77991
 3.3000e+000 78245 -2.7928e+000 -3.2264e+001 -5.5481e-001 60210 78043,78095,78069
 3.3000e+000 78222 -6.4582e+000 -8.8261e+001  1.2428e+001 60210 78095,78173,78121
 3.3000e+000 78199 -3.9879e+000 -7.1601e+001 -1.0097e+001 60210 78121,78173,78147
 3.3000e+000 78386  3.4273e+000 -8.6069e+001  3.8453e+000 60210 78432,78017,78360
 3.3000e+000 78409  3.5768e+000 -6.2622e+001  1.0385e+001 60210 78095,78360,78173
 3.3000e+000 78458  1.4104e+001 -6.7573e+001 -8.5540e+000 60210 78095,78043,78432
 3.3000e+000 78481  1.6064e+001 -5.7223e+001  8.7684e+000 60210 78095,78432,78360
 3.3000e+000 78680 -2.7784e+001 -7.8616e+001 -2.7244e+000 59848 78703,78556,78530
 3.3000e+000 78657 -2.8927e+001 -1.0542e+002 -3.0836e+001 59848 78703,78530,78504
 3.3000e+000 78634 -3.4354e+001 -1.7859e+002 -2.0544e+001 59848 78504,78608,78582
 3.3000e+000 78729 -1.8818e+001 -1.3413e+002  8.9773e-002 59848 78582,78556,78703
 3.3000e+000 78752 -2.0424e+001 -1.4317e+002 -3.7899e+001 59848 78582,78703,78504
 3.3000e+000 78951 -5.6845e-001 -4.8884e+001 -1.6068e+001 59344 78974,78801,78775
 3.3000e+000 78928 -3.1824e+001 -1.2794e+002 -2.8908e+001 59344 79046,78974,78775
 3.3000e+000 78905 -2.7546e+001 -1.9125e+002 -2.4858e+001 59344 79046,78775,78879
 3.3000e+000 79000  8.1050e+000 -3.2944e+001  3.0305e+001 59344 78827,78801,78974
 3.3000e+000 79023 -1.9125e+001 -4.7011e+001  1.3890e+000 59344 78827,78974,78853
 3.3000e+000 79072 -4.6650e+001 -5.4005e+001 -4.5816e+000 59344 78853,78974,79046
 3.3000e+000 79095 -2.3235e+001 -9.4176e+001  2.6389e+000 59344 78853,79046,78879
 3.3000e+000 79296  1.8558e+001 -5.2469e+001  9.3388e+000 58711 79319,79172,79146
 3.3000e+000 79273  1.9521e+001 -7.0375e+001  3.8706e+000 58711 79319,79146,79120
 3.3000e+000 79250  8.6435e-001 -1.3034e+002  5.2699e+001 58711 79172,79224,79198
 3.3000e+000 79345  2.2526e+001 -7.0738e+001  1.0702e+001 58711 79224,79172,79319
 3.3000e+000 79368  2.4818e+001 -8.7534e+001  8.0101e+000 58711 79224,79319,79120
 3.3000e+000 79667  7.6015e+000 -7.6288e+001 -4.4532e+000 58285 79690,79471,79393
 3.3000e+000 79644  1.3580e+001 -1.0227e+002 -1.8582e+001 58285 79690,79393,79549
 3.3000e+000 79621  4.0396e+001 -1.1922e+002  2.7679e+001 58285 79393,79471,79419
 3.3000e+000 79598  1.9454e+001 -6.3991e+001 -3.2759e+000 58285 79497,79549,79523
 3.3000e+000 79575 -1.7726e+001 -2.3032e+002  5.4082e+001 58285 79419,79471,79445
 3.3000e+000 79716  1.5125e+001 -5.4357e+001  7.9650e+000 58285 79497,79471,79690
 3.3000e+000 79739  2.2682e+001 -8.8451e+001 -2.9782e+000 58285 79497,79690,79549
 3.3000e+000 80249  2.3109e+001  2.0776e+001  2.1027e+001 57831 80272,79978,79952
 3.3000e+000 80226  5.4350e+000  2.4013e+001  5.6935e+000 57831 80272,79952,80108
 3.3000e+000 80203  5.9490e+000 -1.8135e+000 -6.9500e+000 57831 79926,80108,79952
 3.3000e+000 80180  2.3458e+000  1.8601e+001  6.1862e+000 57831 80004,80082,80030
 3.3000e+000 80157 -9.4379e+000  2.0290e+000  2.0478e-001 57831 80004,80108,80082
 3.3000e+000 80134 -7.6938e+000 -1.5415e+001  2.5820e+000 57831 80030,80082,80056
 3.3000e+000 80298  9.1225e+000 -7.4984e+000  1.1345e+001 57831 80004,79978,80272
 3.3000e+000 80321 -3.7714e+000  1.5294e+001 -8.1247e-001 57831 80004,80272,80108
 3.3000e+000 80618 -2.4927e+001 -1.4536e+002  1.0263e+001 57077 80344,80448,80422
 3.3000e+000 80595 -7.1214e+000 -1.3631e+002  6.8804e+000 57077 80344,80500,80448
 3.3000e+000 80572  9.8369e+000 -7.4806e+001 -2.6532e+000 57077 80344,80422,80370
 3.3000e+000 80549 -1.8602e+001 -6.6369e+001  4.4072e+000 57077 80370,80422,80396
 3.3000e+000 80526 -4.5905e+001 -2.2768e+002  2.6892e+001 57077 80448,80500,80474
 3.3000e+000 80768 -1.2345e+001 -3.8517e+001 -2.3433e+000 56787 80791,80693,80667
 3.3000e+000 80745 -1.6164e+001 -3.9759e+001 -2.1998e+000 56787 80791,80667,80641
 3.3000e+000 80817 -8.2824e+000 -3.9057e+001 -6.3883e+000 56787 80719,80693,80791
 3.3000e+000 80840 -2.4270e+001 -4.5957e+001 -1.0821e+001 56787 80719,80791,80641
 3.3000e+000 81429 -1.8028e+001 -4.4480e+001  1.1806e+001 56497 81452,81158,81132
 3.3000e+000 81406  8.6576e+000 -5.2959e+001  5.5911e+000 56497 81452,81132,81288
 3.3000e+000 81383 -1.9576e+001 -3.9164e+001 -1.2087e+001 56497 81524,81184,81158
 3.3000e+000 81360 -6.1323e+000 -1.3758e+002 -7.1220e+000 56497 81210,81288,81236
 3.3000e+000 81337 -4.2052e+000 -6.0397e+001  2.1224e+000 56497 81106,81288,81132
 3.3000e+000 81314 -2.8028e+001 -4.1944e+001 -2.3177e+001 56497 81236,81288,81262
 3.3000e+000 81478 -1.2255e+001 -5.1250e+001  1.4831e+000 56497 81524,81158,81452
 3.3000e+000 81501  3.5404e+001 -4.6243e+001  1.3669e+001 56497 81210,81452,81288
 3.3000e+000 81550 -1.2484e+001 -2.6614e+001 -3.8578e+000 56497 81210,81184,81524
 3.3000e+000 81573  3.8725e+000 -2.3262e+001  1.1746e+001 56497 81210,81524,81452
 3.3000e+000 81870  1.2794e+001 -4.7996e+001  1.6306e+001 55979 81893,81674,81648
 3.3000e+000 81847 -4.0286e+000 -5.2770e+001  2.2821e+001 55979 81893,81648,81752
 3.3000e+000 81824 -5.2968e+000 -4.7635e+001  2.2419e+001 55979 81596,81752,81648
 3.3000e+000 81801  3.5572e+001 -6.9691e+000  4.5718e+000 55979 81674,81726,81700
 3.3000e+000 81778 -7.3178e-002 -3.6869e+001  3.0991e+001 55979 81596,81648,81622
 3.3000e+000 81919  2.3610e+001 -4.6199e+001  4.0301e+000 55979 81726,81674,81893
 3.3000e+000 81942  2.4305e+000 -5.1282e+001  9.6013e+000 55979 81726,81893,81752
 3.3000e+000 82371 -3.9947e+001 -6.6647e+001 -1.6495e+001 55631 82100,82204,82152
 3.3000e+000 82348  8.4466e+000 -9.9402e+001 -3.0952e+001 55631 82100,82230,82204
 3.3000e+000 82325  2.2951e+001 -4.5319e+001 -7.2319e+000 55631 82100,82152,82126
 3.3000e+000 82302 -2.0796e+001 -1.6306e+002 -1.8836e+001 55631 82074,82230,82100
 3.3000e+000 82279 -4.9583e+001 -9.5487e+001 -2.5437e+001 55631 82152,82204,82178
 3.3000e+000 82256 -7.3448e-001 -7.7048e+001 -8.6810e+000 55631 82048,82230,82074
 3.3000e+000 82521  4.6040e+001 -5.8704e+001 -1.3244e+000 55227 82544,82420,82394
 3.3000e+000 82498  4.4024e+001 -8.1952e+001  1.8667e+000 55227 82544,82394,82472
 3.3000e+000 82570  3.7006e+001 -4.0284e+001 -7.6163e-001 55227 82446,82420,82544
 3.3000e+000 82593  3.7374e+001 -5.8090e+001  8.5199e+000 55227 82446,82544,82472
 3.3000e+000 82875  1.0647e+001 -6.3972e+000  5.4346e+000 54979 82699,82777,82725
 3.3000e+000 82852 -7.0492e+000  5.9824e+000  1.0221e+001 54979 82699,82803,82777
 3.3000e+000 82829 -2.9621e+000 -8.4625e+000  5.1496e+000 54979 82725,82777,82751
 3.3000e+000 83204 -5.1410e+000 -1.9621e+001 -1.4225e+001 54475 83005,83083,83057
 3.3000e+000 83181 -9.6273e+000 -3.1281e+001 -4.8326e+000 54475 82979,83083,83005
 3.3000e+000 83158 -7.8864e+000 -3.2320e+001 -1.3988e+001 54475 83005,83057,83031
 3.3000e+000 83135  1.5332e+000 -5.5172e+000 -1.7987e+001 54475 82979,83109,83083
 3.3000e+000 83582  6.3114e+000 -3.3569e+001 -9.6736e+000 54071 83605,83438,83412
 3.3000e+000 83559 -4.8621e+000 -5.0007e+001 -1.8213e+000 54071 83749,83605,83412
 3.3000e+000 83536 -2.7437e+001 -8.0112e+001  1.6827e+001 54071 83677,83360,83334
 3.3000e+000 83513 -3.6460e+000 -5.2735e+001 -1.9739e+000 54071 83749,83412,83677
 3.3000e+000 83490 -1.6263e+001 -6.0032e+001  1.0122e+001 54071 83308,83464,83334
 3.3000e+000 83631 -1.7784e+000 -4.2802e+001  4.9252e+000 54071 83464,83438,83605
 3.3000e+000 83654 -5.5794e+000 -5.8233e+001  9.7732e+000 54071 83464,83605,83334
 3.3000e+000 83703 -9.1614e+000 -5.3504e+001 -5.3305e+000 54071 83386,83360,83677
 3.3000e+000 83726 -3.5197e+000 -2.8623e+001 -1.5748e+001 54071 83386,83677,83412
 3.3000e+000 83775 -4.3199e+000 -4.4741e+001  2.2311e-001 54071 83334,83605,83749
 3.3000e+000 83798 -3.2269e+000 -4.7836e+001  2.9120e-001 54071 83334,83749,83677
 3.3000e+000 84068  6.9678e+000  5.9945e+000 -1.1704e+001 53524 83869,83921,83895
 3.3000e+000 84045  1.1128e+001 -5.3793e+001  4.8652e+000 53524 83869,83947,83921
 3.3000e+000 84022 -8.7803e+000 -7.3506e+001 -3.0669e+000 53524 83843,83947,83869
 3.3000e+000 83999  1.3179e+001 -7.0112e+001 -3.2989e+000 53524 83843,83973,83947
 3.3000e+000 84497 -3.2107e+001 -1.5940e+002  7.3180e+000 53184 84200,84330,84252
 3.3000e+000 84474 -1.4987e+001 -9.6012e+001  2.5706e+001 53184 84200,84356,84330
 3.3000e+000 84451  5.8036e+000 -1.2475e+002  2.4509e+001 53184 84200,84252,84226
 3.3000e+000 84428 -1.3855e+001 -1.0766e+002 -4.3179e+001 53184 84252,84330,84278
 3.3000e+000 84405 -2.5274e+001 -1.0542e+002  3.7231e+001 53184 84174,84356,84200
 3.3000e+000 84382 -2.9472e-001 -1.0915e+002 -7.4427e+000 53184 84278,84330,84304
 3.3000e+000 84954  1.6358e-001 -7.9015e+001  3.7855e+001 52680 84706,84836,84784
 3.3000e+000 84931 -5.6377e+000 -6.4035e+001 -1.9870e+001 52680 84680,84836,84706
 3.3000e+000 84908  2.7369e+000 -2.6756e+002 -2.0136e+000 52680 84784,84836,84810
 3.3000e+000 84885 -2.0163e+001 -2.7942e+002  1.0586e+001 52680 84706,84784,84732
 3.3000e+000 84862 -1.2942e+000 -2.7801e+002  1.7705e+001 52680 84732,84784,84758
 3.3000e+000 85202 -1.7743e+001 -1.3497e+002 -3.9577e+000 52226 85029,85081,85055
 3.3000e+000 85179 -1.5979e+001 -1.0554e+002  3.8426e+000 52226 85225,85081,85029
 3.3000e+000 85156 -3.9301e+000 -7.5525e+001  2.2124e+001 52226 85225,85029,85003
 3.3000e+000 85133 -5.0777e+001 -1.0611e+002 -3.0134e+001 52226 84977,85107,85003
 3.3000e+000 85251 -2.9817e+001 -1.1142e+002 -2.7112e+001 52226 85107,85081,85225
 3.3000e+000 85274 -3.1712e+001 -4.9740e+001 -1.3568e+001 52226 85107,85225,85003
 3.3000e+000 85522  2.6240e+001 -1.0318e+002  1.9860e+001 51764 85297,85349,85323
 3.3000e+000 85499  4.3064e+001 -9.8569e+001  1.0914e+001 51764 85545,85297,85427
 3.3000e+000 85476  1.3880e+001 -7.4720e+001 -3.6194e+000 51764 85545,85427,85375
 3.3000e+000 85453  2.4243e+001 -7.1134e+001 -1.4398e+001 51764 85375,85427,85401
 3.3000e+000 85571  5.9048e+001 -8.4790e+001  3.2407e+000 51764 85349,85297,85545
 3.3000e+000 85594  4.1245e+001 -5.2226e+001 -1.4314e+001 51764 85349,85545,85375
 3.3000e+000 85746 -5.3723e+001 -1.2401e+002  3.6193e+000 51374 85645,85697,85671
 3.3000e+000 85723 -6.0828e+001 -1.2334e+002 -4.8009e+000 51374 85619,85697,85645
 3.3000e+000 86256  2.2535e+001 -1.5780e+001  1.1450e+001 50970 86279,86011,85959
 3.3000e+000 86233  8.5480e+000  1.1183e+001  7.6225e+000 50970 86279,85959,86115
 3.3000e+000 86210  1.1227e+001 -4.8500e+001 -5.9637e+000 50970 85959,86011,85985
 3.3000e+000 86187  1.0605e+001  1.4940e+000 -1.0169e+001 50970 86037,86115,86089
 3.3000e+000 86164 -1.2380e-001  6.5400e+000 -1.3282e-001 50970 85933,86115,85959
 3.3000e+000 86141 -1.7948e+001 -8.1910e+001 -2.3263e+001 50970 86037,86089,86063
 3.3000e+000 86305  1.7016e+001 -4.1502e+001  6.6220e+000 50970 86037,86011,86279
 3.3000e+000 86328  4.4519e+000 -1.2576e+001  2.7894e+000 50970 86037,86279,86115
 3.3000e+000 86478 -3.9998e+001 -1.9341e+002  2.2279e+001 50451 86351,86403,86377
 3.3000e+000 86455 -1.0307e+002 -5.9147e+002 -4.8879e+000 50451 86351,86429,86403
 3.3000e+000 86907 -7.7820e+000 -4.0900e+001 -1.0434e+001 50047 86930,86714,86662
 3.3000e+000 86884  6.3640e+000 -6.8895e+001 -1.2366e+001 50047 86930,86662,86610
 3.3000e+000 86861  3.0102e+001 -7.7965e+001 -2.0771e+001 50047 87002,86740,86714
 3.3000e+000 86838  2.1815e+001 -2.7390e+001 -1.8844e+001 50047 86662,86714,86688
 3.3000e+000 86815 -3.3042e+000 -9.0327e+001 -1.0328e+001 50047 86610,86662,86636
 3.3000e+000 86792  3.3186e+001 -8.1709e+001  2.2617e+001 50047 86584,86766,86610
 3.3000e+000 86956  1.3429e+001 -5.9588e+001 -8.5686e+000 50047 87002,86714,86930
 3.3000e+000 86979 -1.2233e+001 -1.0476e+002  1.0933e-001 50047 86766,86930,86610
 3.3000e+000 87028  6.2130e-001 -6.7531e+001 -2.3679e+001 50047 86766,86740,87002
 3.3000e+000 87051 -7.7522e+000 -6.4402e+001 -1.4836e+001 50047 86766,87002,86930
 3.3000e+000 87250  7.0019e+000 -1.2605e+002 -2.8953e+001 49543 87273,87126,87100
 3.3000e+000 87227  3.5094e+000 -9.4868e+001 -6.1346e+000 49543 87273,87100,87074
 3.3000e+000 87204  1.1173e+001 -9.8527e+001 -3.6591e+001 49543 87126,87178,87152
 3.3000e+000 87299  2.4287e+001 -7.9249e+001 -3.0885e+001 49543 87178,87126,87273
 3.3000e+000 87322  8.5998e+000 -7.4611e+001 -3.3001e+000 49543 87178,87273,87074
 3.3000e+000 87570 -3.6196e+001 -9.5291e+001  1.0668e+001 49146 87593,87449,87397
 3.3000e+000 87547 -3.1898e+001 -7.5785e+001  2.9311e+001 49146 87593,87397,87371
 3.3000e+000 87524 -4.7204e+000 -2.1901e+001  3.5791e+001 49146 87345,87475,87371
 3.3000e+000 87501 -1.3640e+001 -9.8372e+001  1.1511e+001 49146 87397,87449,87423
 3.3000e+000 87619 -5.9592e+001 -9.4565e+001 -4.7326e+000 49146 87475,87449,87593
 3.3000e+000 87642 -4.8161e+001 -8.0842e+001  1.3126e+001 49146 87475,87593,87371
 3.3000e+000 88073  3.4999e+000 -4.4493e+000 -1.0903e-001 48706 87854,87932,87880
 3.3000e+000 88050  9.3021e-002 -3.2309e+000  3.3808e+000 48706 87828,87932,87854
 3.3000e+000 88027 -6.8700e+000 -6.9861e-001 -9.1359e-001 48706 87750,87932,87828
 3.3000e+000 88004 -3.3629e+001 -1.5823e+001 -2.6083e+001 48706 87750,87802,87776
 3.3000e+000 87981 -4.0324e+000 -6.5287e+000 -7.6459e+000 48706 87750,87828,87802
 3.3000e+000 87958 -5.3599e-001 -5.3482e+000 -1.3141e+000 48706 87880,87932,87906
 3.3000e+000 88402 -1.8357e+001 -1.4621e+002 -3.3537e+000 48145 88203,88281,88255
 3.3000e+000 88379 -2.5618e+001 -1.4323e+002  1.8505e+001 48145 88203,88307,88281
 3.3000e+000 88356 -2.2148e+001 -1.3825e+002 -3.7335e+000 48145 88203,88255,88229
 3.3000e+000 88333 -1.7396e+001 -1.2864e+002  2.2159e+001 48145 88177,88307,88203
 3.3000e+000 88601  3.7064e+001 -9.5248e+001  4.3444e+001 47805 88696,88624,88477
 3.3000e+000 88578 -7.7810e+000 -8.2557e+001  1.5419e+001 47805 88826,88624,88451
 3.3000e+000 88555 -1.5085e+001 -8.7936e+001  1.0710e+001 47805 88826,88451,88425
 3.3000e+000 88650  1.5914e+001 -1.4282e+002  3.2637e+001 47805 88503,88477,88624
 3.3000e+000 88673  2.0851e+001 -1.1031e+002  8.6196e+000 47805 88503,88624,88529
 3.3000e+000 88722 -1.9554e+001 -1.1530e+002  3.2758e+001 47805 88451,88624,88696
 3.3000e+000 88852 -6.7038e+000 -9.0945e+001  5.5322e+000 47805 88529,88624,88826
 3.3000e+000 88875 -1.4402e+001 -9.5973e+001  7.9077e-001 47805 88529,88826,88425
 3.3000e+000 89172  6.7082e-001 -7.7327e+001 -2.4579e+000 47401 89195,88976,88898
 3.3000e+000 89149 -1.3947e+001 -8.1867e+001 -1.4403e+001 47401 89195,88898,89054
 3.3000e+000 89126 -3.3259e+000 -5.5243e+001 -8.5220e+000 47401 88898,88976,88950
 3.3000e+000 89103 -1.5082e+001 -9.8373e+001 -2.9419e+001 47401 88976,89028,89002
 3.3000e+000 89080 -9.2317e+000 -6.7199e+001 -5.0902e+000 47401 88898,88950,88924
 3.3000e+000 89221  5.7473e+000 -8.5733e+001 -2.1211e+001 47401 89028,88976,89195
 3.3000e+000 89244 -2.6367e+001 -9.5247e+001 -3.3225e+001 47401 89028,89195,89054
 3.3000e+000 89575  1.4623e+000 -1.7172e+002  2.4029e+001 47111 89350,89454,89376
 3.3000e+000 89552  2.2379e+001 -1.3431e+002  5.5063e+000 47111 89350,89480,89454
 3.3000e+000 89529  2.2680e+001 -2.1078e+002 -1.6939e+001 47111 89376,89454,89402
 3.3000e+000 89506  6.6011e+001 -1.2927e+002  8.2646e+000 47111 89402,89454,89428
 3.3000e+000 89904  3.7398e+001  9.7715e+000 -2.0755e+001 46707 89705,89757,89731
 3.3000e+000 89881  1.2322e+001 -1.4788e+001 -8.7817e+000 46707 89705,89783,89757
 3.3000e+000 89858 -1.7419e+000 -1.3341e+001  1.1398e+001 46707 89679,89783,89705
 3.3000e+000 89835  1.8265e+001 -2.4087e+001 -3.6875e-002 46707 89679,89809,89783
 3.3000e+000 90233  2.1457e+001 -1.2380e+000 -7.7885e+000 46360 90034,90112,90086
 3.3000e+000 90210 -5.0989e+000 -9.3297e+000 -7.8197e+000 46360 90034,90138,90112
 3.3000e+000 90187 -1.0448e+001  5.2601e+001 -1.6812e+001 46360 90034,90086,90060
 3.3000e+000 90164 -9.8560e+000 -2.2429e+001 -7.5727e+000 46360 90008,90138,90034
 3.3000e+000 90530  1.9714e+001 -9.2617e+001  2.8217e+000 45662 90256,90360,90308
 3.3000e+000 90507  7.5951e+000 -9.6751e+001  3.8557e+000 45662 90256,90412,90360
 3.3000e+000 90484  4.1232e+001 -9.0556e+001 -9.8186e+000 45662 90256,90308,90282
 3.3000e+000 90461  2.7829e+001 -2.9442e+001  1.4088e+001 45662 90360,90412,90386
 3.3000e+000 90438 -1.1068e+000 -9.3829e+001  3.5866e+000 45662 90308,90360,90334
 3.3000e+000 90910  1.1705e+001  1.9243e+000 -1.1165e+001 45108 90688,90766,90714
 3.3000e+000 90887  5.2004e+001 -1.6786e+001  2.3980e+001 45108 90662,90766,90688
 3.3000e+000 90864 -1.9090e+001 -2.7481e+001  2.1283e+001 45108 90636,90766,90662
 3.3000e+000 90841  3.5764e+001 -7.5209e+001 -3.6506e+001 45108 90714,90766,90740
 3.3000e+000 90818 -8.7905e-001 -2.1773e+001  1.9072e+001 45108 90636,90792,90766
 3.3000e+000 91158 -2.0936e+001 -8.0805e+001 -7.0866e+000 44604 91181,91011,90959
 3.3000e+000 91135 -1.2154e+001 -9.4460e+001 -2.2506e+001 44604 91181,90959,90933
 3.3000e+000 91112 -1.8427e+001 -1.1402e+002  1.3593e+001 44604 90959,91011,90985
 3.3000e+000 91089 -2.4203e+000 -1.4099e+002 -1.7032e+001 44604 90933,91063,91037
 3.3000e+000 91207 -1.3475e+001 -1.0113e+002 -1.4430e+001 44604 91037,91011,91181
 3.3000e+000 91230 -2.3692e+001 -1.4647e+002 -2.6663e+001 44604 91037,91181,90933
 3.3000e+000 91429 -6.6349e+000 -1.3007e+002 -1.2422e+001 44264 91452,91279,91253
 3.3000e+000 91406  2.0023e+000 -1.3906e+002 -1.5803e+001 44264 91452,91253,91357
 3.3000e+000 91383 -2.4985e+001 -1.0866e+002  2.8535e+001 44264 91279,91331,91305
 3.3000e+000 91478  5.4653e-001 -1.3214e+002 -1.0022e+001 44264 91331,91279,91452
 3.3000e+000 91501  1.7112e+001 -1.3404e+002 -1.0923e+001 44264 91331,91452,91357
 3.3000e+000 92060 -4.9664e+001 -1.3682e+002  4.7886e+000 43860 92083,91740,91688
 3.3000e+000 92037 -2.7698e+001 -1.3875e+002  1.2962e+001 43860 92083,91688,91896
 3.3000e+000 92014 -5.1251e+001 -1.6810e+002 -1.8404e+000 43860 91766,91870,91844
 3.3000e+000 91991 -1.8292e+001 -1.3364e+002  1.3749e+001 43860 91740,91870,91766
 3.3000e+000 91968 -3.6545e+000 -1.4607e+002  4.4940e+000 43860 91766,91844,91792
 3.3000e+000 91945 -5.0685e+001 -1.2112e+002  1.1287e+001 43860 91688,91740,91714
 3.3000e+000 91922 -2.3797e+001 -1.7294e+002 -5.1214e+000 43860 91792,91844,91818
 3.3000e+000 92109 -3.0997e+001 -1.3454e+002  1.5251e+001 43860 91870,91740,92083
 3.3000e+000 92132 -7.9033e+000 -1.3305e+002  2.4899e+001 43860 91870,92083,91896
 3.3000e+000 92353  4.8722e+000 -5.5901e+001 -9.3639e+000 43662 92203,92255,92229
 3.3000e+000 92330 -9.1268e+000 -4.6381e+001 -4.6764e+000 43662 92376,92203,92281
 3.3000e+000 92307 -1.2487e+001 -1.3893e+001 -5.9018e+000 43662 92177,92281,92203
 3.3000e+000 92402 -2.8549e+001 -5.4644e+001 -1.9888e+000 43662 92255,92203,92376
 3.3000e+000 92682 -9.2967e+000 -2.0185e+002 -2.1485e+001 43464 92532,92584,92558
 3.3000e+000 92659 -3.3164e+000 -1.2271e+002  6.9766e+000 43464 92506,92584,92532
 3.3000e+000 92636 -7.0674e+000 -9.5553e+001 -2.7445e+001 43464 92506,92610,92584
 3.3000e+000 93013  2.2317e+001 -6.5749e+001 -5.4051e+001 42960 92866,92918,92892
 3.3000e+000 92990 -1.5215e+001 -6.9391e+001 -2.1816e+001 42960 93036,92918,92866
 3.3000e+000 92967  5.1934e+000 -9.2949e+001 -7.5434e+000 42960 93036,92866,92840
 3.3000e+000 92944 -1.0158e+001 -2.8636e+001 -4.8287e+000 42960 92788,92918,92814
 3.3000e+000 93062 -4.9027e+000 -5.7115e+001 -1.6070e+001 42960 92814,92918,93036
 3.3000e+000 93085  3.2038e+001 -6.4140e+001  3.5848e+000 42960 92814,93036,92840
 3.3000e+000 93186 -2.9451e+000 -1.4518e+002 -3.8872e+001 42556 93108,93160,93134
 3.3000e+000 93554  6.2317e+000 -1.3939e+002  1.6184e+000 42052 93231,93387,93361
 3.3000e+000 93531  8.1658e+000 -1.2321e+002  2.8536e+001 42052 93231,93413,93387
 3.3000e+000 93508  2.7309e+001 -9.8303e+001 -1.0278e+001 42052 93231,93361,93257
 3.3000e+000 93485  1.6541e+000 -1.0814e+002  6.0302e+000 42052 93283,93361,93335
 3.3000e+000 93462 -1.1093e+001 -1.0288e+002 -1.9081e+000 42052 93257,93361,93283
 3.3000e+000 93439  2.1396e+001 -1.0003e+002  7.3362e+000 42052 93283,93335,93309
 3.3000e+000 94162 -4.3819e+000 -3.7946e+001  1.0508e+001 41498 93767,93975,93793
 3.3000e+000 94139 -1.6897e-001 -3.7744e+001  2.0721e+000 41498 93741,93975,93767
 3.3000e+000 94116  2.9115e+000 -4.6763e+001  8.7656e+000 41498 93793,93975,93923
 3.3000e+000 94093 -1.5972e+001 -9.0855e+001  1.9910e+001 41498 93923,93975,93949
 3.3000e+000 94070 -6.2024e+000 -3.3966e+000  6.8338e+000 41498 93871,93923,93897
 3.3000e+000 94047 -1.6209e+000 -4.3424e+001  3.6521e+000 41498 93793,93923,93871
 3.3000e+000 94024 -8.6049e-001 -1.6633e+001 -3.2429e+000 41498 93819,93871,93845
 3.3000e+000 94001 -3.4340e-001 -2.2312e+001  5.5627e+000 41498 93793,93871,93819
 3.3000e+000 94619 -9.2190e+000 -9.4749e+001 -2.6327e+001 40930 94642,94423,94371
 3.3000e+000 94596  1.9452e+001 -9.4767e+001  7.5944e+000 40930 94642,94371,94345
 3.3000e+000 94573  3.7180e+001  3.1110e+000  1.4489e+001 40930 94345,94501,94475
 3.3000e+000 94550  2.3038e+001 -1.4435e+002 -3.1833e+001 40930 94371,94423,94397
 3.3000e+000 94527  1.7451e+001 -4.2123e+001 -1.7414e+001 40930 94423,94475,94449
 3.3000e+000 94668  1.8573e+001 -3.9508e+001 -1.5502e+001 40930 94475,94423,94642
 3.3000e+000 94691  2.9639e+001 -7.3864e+001  1.3605e+001 40930 94475,94642,94345
 3.3000e+000 95148 -3.0180e+001 -1.0259e+002  2.8760e+001 40362 95171,94952,94926
 3.3000e+000 95125 -1.2674e+001 -8.8624e+001  5.4392e+001 40362 95171,94926,95004
 3.3000e+000 95102 -4.5276e+001 -1.2332e+002  4.0383e+001 40362 94874,95004,94926
 3.3000e+000 95079 -9.1962e+000 -1.3108e+002  7.6484e+001 40362 94874,95030,95004
 3.3000e+000 95056 -5.7313e+001 -1.1926e+002  7.0953e+001 40362 94874,94926,94900
 3.3000e+000 95197 -1.0302e+001 -7.9856e+001  3.8320e+001 40362 94978,94952,95171
 3.3000e+000 95220  4.1401e+000 -6.8411e+001  6.3206e+001 40362 94978,95171,95004
 3.3000e+000 95549 -1.2338e+001 -5.8457e+001  2.8269e+000 39586 95350,95402,95376
 3.3000e+000 95526  1.7902e+000 -2.5531e+001 -1.4523e+001 39586 95324,95402,95350
 3.3000e+000 95503 -5.0961e+000  6.7028e+000  1.3511e+001 39586 95324,95454,95402
 3.3000e+000 95480  1.7443e+001 -8.8806e+001  2.6342e+001 39586 95402,95454,95428
 3.3000e+000 96055 -5.4669e-001 -1.9130e+001 -3.7012e+000 38968 96078,95862,95810
 3.3000e+000 96032  1.2214e+001 -1.7974e+001  1.2484e+000 38968 96078,95810,95758
 3.3000e+000 96009  1.9336e+000 -4.5143e+001 -1.1523e+001 38968 96150,95732,95888
 3.3000e+000 95986 -9.8515e-001  2.6716e+000  2.4070e+001 38968 95810,95862,95836
 3.3000e+000 95963 -2.6688e+000 -4.7204e+001 -1.1106e+001 38968 95732,95914,95888
 3.3000e+000 95940 -2.1861e+000 -3.9682e+000  1.8719e+001 38968 95758,95810,95784
 3.3000e+000 96104  2.7727e+000 -2.2928e+001 -5.8135e-002 38968 95888,95862,96078
 3.3000e+000 96127 -3.3275e-001 -4.0632e+001 -4.6937e+000 38968 96150,95888,96078
 3.3000e+000 96176  6.8798e-001 -2.9226e+001 -8.7155e+000 38968 95758,95732,96150
 3.3000e+000 96199  2.0724e+000 -2.0891e+001 -1.3039e+000 38968 95758,96150,96078
 3.3000e+000 96545  2.8566e+001 -8.6045e+001 -2.8731e+001 38507 96640,96568,96352
 3.3000e+000 96522 -3.7038e+001 -1.6413e+002  3.3065e+001 38507 96568,96300,96222
 3.3000e+000 96499  8.2686e+001 -3.7594e+001 -8.5643e+001 38507 96640,96352,96326
 3.3000e+000 96476  9.6045e+000 -1.4474e+002 -5.6384e+001 38507 96352,96404,96378
 3.3000e+000 96453 -7.7811e+001 -1.7933e+002  7.0504e+000 38507 96222,96300,96248
 3.3000e+000 96430 -4.4803e+001 -1.9627e+002 -3.1422e+001 38507 96248,96300,96274
 3.3000e+000 96594 -3.2161e+001 -1.4120e+002 -5.5743e+000 38507 96404,96352,96568
 3.3000e+000 96617 -1.7281e+000 -1.4520e+002  1.2637e+001 38507 96404,96568,96222
 3.3000e+000 96666 -1.0429e+001 -1.6454e+002  2.7349e+001 38507 96300,96568,96640
 3.3000e+000 96689  6.2702e+000 -1.3306e+002 -2.3890e+001 38507 96300,96640,96326
 3.3000e+000 97069  3.2679e+001 -1.8266e+000  4.4257e+000 37760 97092,96873,96821
 3.3000e+000 97046  2.6925e+001 -5.2293e+000  1.4747e+001 37760 97092,96821,96795
 3.3000e+000 97023 -9.8479e+000  7.2187e+000  7.2262e+000 37760 96821,96873,96847
 3.3000e+000 97000  3.3956e+001  5.0527e+001 -9.7065e+000 37760 96873,96925,96899
 3.3000e+000 96977  1.9154e+001  2.0435e+001  1.2290e+001 37760 96795,96951,96925
 3.3000e+000 97118  4.1594e+001  1.1833e+001 -5.5009e+000 37760 96925,96873,97092
 3.3000e+000 97141  2.3063e+001  2.4971e+000  6.2457e+000 37760 96925,97092,96795
 3.3000e+000 97647 -4.7820e+001 -1.2140e+002  2.0447e+001 37356 97324,97480,97376
 3.3000e+000 97624 -1.5958e+001 -1.4621e+002  8.3496e+001 37356 97324,97506,97480
 3.3000e+000 97601 -3.3711e+001 -4.4707e+001  3.7819e+001 37356 97376,97480,97454
 3.3000e+000 97578 -3.2767e+001 -1.0436e+002  1.1716e+001 37356 97324,97376,97350
 3.3000e+000 97555 -2.0998e+001 -5.2776e+001  1.1511e+001 37356 97376,97454,97402
 3.3000e+000 97532 -2.4255e+001 -1.8281e+001  1.5000e+001 37356 97402,97454,97428
 3.3000e+000 98232  1.1666e+001  9.8688e+000 -4.7305e+000 36902 97935,98065,98013
 3.3000e+000 98209  1.6438e+001  7.8157e+000 -8.2177e+000 36902 97935,98091,98065
 3.3000e+000 98186  2.5334e+001  6.9843e+000 -4.7222e-001 36902 97935,98013,97987
 3.3000e+000 98163  1.4965e+001  1.3491e+001 -8.6102e+000 36902 97909,98091,97935
 3.3000e+000 98140  1.8315e+001  3.9191e+001  1.5409e+001 36902 97935,97987,97961
 3.3000e+000 98117  8.2146e+000 -1.4549e+000 -1.7792e+000 36902 98013,98065,98039
 3.3000e+000 98659  6.4237e+000 -1.4392e+002 -2.2272e+001 36604 98682,98414,98388
 3.3000e+000 98636 -1.5552e+001 -1.4284e+002  2.5775e+001 36604 98682,98388,98336
 3.3000e+000 98613  1.7184e+001 -1.1766e+002  9.2208e+000 36604 98754,98518,98466
 3.3000e+000 98590  1.8003e+001 -1.6337e-001 -1.8290e+001 36604 98414,98466,98440
 3.3000e+000 98567 -1.5503e+001 -1.6684e+002  2.3829e+001 36604 98336,98388,98362
 3.3000e+000 98544  2.6359e+001 -1.6501e+002  7.3354e+001 36604 98466,98518,98492
 3.3000e+000 98708  2.3307e+001 -9.0308e+001 -3.6420e+001 36604 98466,98414,98682
 3.3000e+000 98731  1.3750e+001 -1.1155e+002  9.6420e+000 36604 98754,98466,98682
 3.3000e+000 98780  1.4555e+001 -1.1946e+002  8.3652e+000 36604 98336,98518,98754
 3.3000e+000 98803  7.6451e+000 -1.1700e+002  7.3189e+000 36604 98336,98754,98682
 3.3000e+000 99309 -2.2271e+001 -5.7253e+001  4.2556e+000 36200 99332,99116,99012
 3.3000e+000 99286 -2.9016e-001  4.7402e+001 -4.5087e+001 36200 99332,99012,98986
 3.3000e+000 99263  1.6650e+000 -4.4561e+001 -1.2802e+001 36200 99012,99116,99064
 3.3000e+000 99240  1.5329e+001  5.4475e+001 -2.3623e+000 36200 98986,99168,99142
 3.3000e+000 99217 -2.0628e+001 -1.2215e+002  2.5556e+001 36200 99064,99116,99090
 3.3000e+000 99194 -1.9070e+001 -3.2312e+001 -3.0768e+001 36200 99012,99064,99038
 3.3000e+000 99358 -2.7681e+001 -1.3705e+002  4.9778e+001 36200 99142,99116,99332
 3.3000e+000 99381 -5.4280e+000 -6.1491e+001 -9.3660e+000 36200 99142,99332,98986
 3.3000e+000 99887 -6.4401e+000 -6.3907e+001  1.4497e+001 35488 99564,99720,99590
 3.3000e+000 99864  9.8607e-001 -4.4472e+001  9.4128e+000 35488 99564,99746,99720
 3.3000e+000 99841  9.0455e+000 -6.1571e+001 -2.3850e+001 35488 99642,99694,99668
 3.3000e+000 99818  2.7094e+000 -8.9332e+001  1.7374e+001 35488 99590,99694,99642
 3.3000e+000 99795  1.9811e+001 -5.2166e+001  1.0734e+001 35488 99590,99720,99694
 3.3000e+000 99772  5.0068e+001 -1.4726e+002  2.4506e+001 35488 99590,99642,99616
 3.3000e+000 99988  6.3876e+000  5.9939e+001  6.3385e-001 35198 99910,99962,99936
 3.3000e+000 100138  2.0775e+001 -3.4798e+001 -3.4833e+001 34794 100233,100161,100063
 3.3000e+000 100115 -4.6015e+001 -6.6843e+001 -3.8616e+000 34794 100365,100161,100037
 3.3000e+000 100187  3.9235e+001 -6.5361e+001 -3.0699e+001 34794 100089,100063,100161
 3.3000e+000 100210  1.4981e+001 -6.7775e+001 -2.9158e+001 34794 100089,100161,100011
 3.3000e+000 100259  3.0249e+001 -3.6707e+001  3.9356e+000 34794 100037,100161,100233
 3.3000e+000 100391 -2.2391e+000 -7.9438e+001  4.2187e+000 34794 100011,100161,100365
 3.3000e+000 100927 -8.1772e+000 -5.2074e+001  6.4625e+000 34404 100679,100809,100783
 3.3000e+000 100904  6.0906e+000 -6.5880e+001  4.0552e+000 34404 100653,100809,100679
 3.3000e+000 100881 -5.4322e+000 -4.1443e+001  3.3110e+000 34404 100705,100783,100731
 3.3000e+000 100858 -1.6864e+000 -4.6469e+001  3.5011e-001 34404 100679,100783,100705
 3.3000e+000 100835 -1.6596e+001 -2.3970e+001 -2.0466e+001 34404 100731,100783,100757
 3.3000e+000 101354 -1.9696e+001 -1.5812e+002  2.7475e+001 34000 101377,101109,101057
 3.3000e+000 101331 -5.3498e+001 -1.6709e+002  3.0003e+001 34000 101449,101377,101057
 3.3000e+000 101308 -6.5003e+001 -1.3155e+002  3.0940e+001 34000 101449,101057,101031
 3.3000e+000 101285 -5.3928e+001 -1.0759e+002  1.1358e+001 34000 101031,101213,101187
 3.3000e+000 101262 -1.7012e+001 -1.9204e+002 -2.6814e+001 34000 101135,101187,101161
 3.3000e+000 101239 -4.0875e+001 -1.4468e+002  2.7566e+001 34000 101057,101109,101083
 3.3000e+000 101403 -2.5999e+001 -1.4514e+002  1.0895e+001 34000 101135,101109,101377
 3.3000e+000 101426 -5.5809e+001 -1.5584e+002  3.0521e+000 34000 101135,101377,101187
 3.3000e+000 101475 -2.6521e+001 -1.2321e+002  1.7042e+001 34000 101187,101377,101449
 3.3000e+000 101498 -5.3655e+001 -1.0727e+002  2.3479e+001 34000 101187,101449,101031
 3.3000e+000 102083  6.0659e+001 -2.5726e+001 -5.1600e+000 33472 102106,101812,101786
 3.3000e+000 102060  7.0555e-001 -5.3139e+001  1.2175e+000 33472 102106,101786,101916
 3.3000e+000 102037 -5.7688e+001 -3.2598e+001 -2.0970e+001 33472 101812,101864,101838
 3.3000e+000 102014 -4.1923e+001 -7.9813e+001 -8.4241e+000 33472 101864,101916,101890
 3.3000e+000 101991 -9.4119e-001 -8.3272e+001 -4.4597e+000 33472 101786,101942,101916
 3.3000e+000 101968 -6.4052e+000 -7.6681e+001  1.3731e+001 33472 101760,101942,101786
 3.3000e+000 102132  2.3920e+001 -2.2880e+001 -2.8814e+001 33472 101864,101812,102106
 3.3000e+000 102155  4.9147e+000 -3.1132e+001 -2.7567e+001 33472 101864,102106,101916
 3.3000e+000 102612 -1.5336e+001 -1.2842e+002 -7.3304e+001 33038 102635,102468,102390
 3.3000e+000 102589 -5.7604e+001 -1.9807e+002 -9.6935e+001 33038 102635,102390,102364
 3.3000e+000 102566  2.5555e+001 -1.0981e+002 -6.4098e+001 33038 102390,102468,102442
 3.3000e+000 102543 -1.2412e+001 -1.7250e+002 -4.4381e+001 33038 102338,102494,102364
 3.3000e+000 102520 -1.3684e+001 -1.2209e+002 -5.7667e+001 33038 102390,102442,102416
 3.3000e+000 102661 -1.5623e+001 -1.1175e+002 -3.2838e+001 33038 102494,102468,102635
 3.3000e+000 102684 -2.7999e+001 -1.5299e+002 -4.9897e+001 33038 102494,102635,102364
 3.3000e+000 103318  8.7638e+000 -1.8223e+001  1.0692e+001 32402 102972,103128,103076
 3.3000e+000 103295  2.3068e+001 -2.5338e+001  9.2717e+000 32402 102946,103128,102972
 3.3000e+000 103272 -6.0950e+000 -6.1217e+001  2.7627e+001 32402 103076,103128,103102
 3.3000e+000 103249  1.5441e+001 -2.7373e+001  2.1060e+001 32402 102946,103154,103128
 3.3000e+000 103226  1.3601e+001 -2.3549e+001  1.7245e+001 32402 102972,103076,102998
 3.3000e+000 103203  8.1188e+000 -3.8923e+001  7.7247e+000 32402 102998,103076,103050
 3.3000e+000 103180  2.7085e+001  4.0847e+001 -1.9696e+001 32402 102998,103050,103024
 3.3000e+000 103696 -2.5187e+001 -1.4571e+002 -1.6319e+001 31924 103448,103526,103500
 3.3000e+000 103673 -2.2965e+001 -1.4819e+002 -3.0597e+001 31924 103448,103578,103526
 3.3000e+000 103650 -2.6088e+001 -1.1713e+002 -1.9164e+001 31924 103448,103500,103474
 3.3000e+000 103627 -1.9202e+001 -1.9668e+002 -3.3789e+001 31924 103422,103578,103448
 3.3000e+000 103604 -3.8151e+001 -2.6669e+002 -2.2982e+000 31924 103526,103578,103552
 3.3000e+000 104281  3.4392e+000  1.2096e+000  3.8801e+000 31520 104304,104062,104036
 3.3000e+000 104258  5.3273e+000  4.6212e+000  5.0510e+000 31520 104304,104036,103984
 3.3000e+000 104235  8.5548e+000  8.8663e+000  7.6805e+000 31520 104062,104114,104088
 3.3000e+000 104212  2.9728e+000  6.2031e+000  3.5975e+000 31520 103958,104114,103984
 3.3000e+000 104189  3.8724e+000  6.1265e-001  2.9266e-001 31520 103984,104036,104010
 3.3000e+000 104166  4.3297e+000  2.5179e+000  3.2858e+000 31520 103958,104140,104114
 3.3000e+000 104330  3.8705e+000  4.6419e+000  4.8578e+000 31520 104114,104062,104304
 3.3000e+000 104353  3.8274e+000  6.2101e+000  5.4255e+000 31520 104114,104304,103984
 3.3000e+000 104704 -1.6290e+001 -2.1439e+001 -1.5036e+001 31066 104479,104583,104505
 3.3000e+000 104681  3.4957e+001 -6.3888e+000 -1.7133e+001 31066 104479,104609,104583
 3.3000e+000 104658 -1.9473e+000  3.1770e+000 -4.4536e+000 31066 104505,104557,104531
 3.3000e+000 104635  8.9354e+000 -2.3383e+000 -6.5185e+000 31066 104505,104583,104557
 3.3000e+000 104925  2.8809e+001 -7.0972e+001 -1.8425e+001 30754 104775,104827,104801
 3.3000e+000 104902  2.1495e+001 -2.8399e+001 -1.5380e+001 30754 104775,104853,104827
 3.3000e+000 104879  9.1192e-001 -3.6462e+001 -5.0495e+000 30754 104749,104853,104775
 3.3000e+000 105482 -3.1093e+001 -7.6582e+001  1.2136e+001 30164 105505,105136,105110
 3.3000e+000 105459 -1.5981e+001 -8.4356e+001  1.4226e+001 30164 105649,105505,105110
 3.3000e+000 105436 -2.2009e+001 -9.0495e+001  9.7885e+000 30164 105577,105188,105136
 3.3000e+000 105413 -2.3871e+001 -8.8889e+001  2.1482e+001 30164 105649,105110,105318
 3.3000e+000 105390 -1.2757e+001 -1.7660e+002  6.4172e+001 30164 105214,105292,105240
 3.3000e+000 105367 -4.1937e+001 -2.1056e+002  8.2616e+001 30164 105240,105292,105266
 3.3000e+000 105344 -2.6666e+001 -7.9105e+001  6.9788e+000 30164 105136,105188,105162
 3.3000e+000 105531 -1.4187e+001 -8.7226e+001  9.2196e+000 30164 105577,105136,105505
 3.3000e+000 105554  3.5912e+001 -7.7823e+001  1.3141e+001 30164 105214,105505,105292
 3.3000e+000 105603 -1.8140e+001 -9.1258e+001  1.7719e+001 30164 105214,105188,105577
 3.3000e+000 105626 -1.3822e+001 -8.9525e+001  1.7243e+001 30164 105214,105577,105505
 3.3000e+000 105675 -1.1555e+001 -7.5262e+001  8.9143e+000 30164 105292,105505,105649
 3.3000e+000 105698 -1.2469e+001 -7.2651e+001  1.4887e+001 30164 105292,105649,105318
 3.3000e+000 106027  2.0073e+001 -3.5365e+001  4.3067e+000 29868 106322,106050,105880
 3.3000e+000 106004  1.5479e+001 -2.2595e+001  1.3290e+001 29868 106250,106050,105828
 3.3000e+000 105981  7.3028e+000 -2.9342e+001  6.3654e+000 29868 106250,105828,105802
 3.3000e+000 105958  1.3506e+001 -4.7570e+001  6.7986e+000 29868 106322,105880,106122
 3.3000e+000 106076  2.5951e+001 -8.1552e+000 -3.9851e+000 29868 105906,105880,106050
 3.3000e+000 106099  3.2918e+001 -2.8989e+001 -9.5848e-001 29868 105906,106050,105932
 3.3000e+000 106148 -1.4480e+001 -7.2443e+001  1.1926e+001 29868 105854,105828,106122
 3.3000e+000 106276  8.1314e+000 -2.8009e+001 -6.3542e+000 29868 105932,106050,106250
 3.3000e+000 106299 -1.8363e+001 -4.5147e+001 -1.5336e+001 29868 105932,106250,105802
 3.3000e+000 106348  8.0686e+000 -2.1562e+001  1.2484e+001 29868 105828,106050,106322
 3.3000e+000 106371  3.2386e+000 -3.0991e+001  1.4190e+001 29868 105828,106322,106122
 3.3000e+000 106828  5.5424e+001 -4.2427e-001  9.6074e+000 29521 106580,106710,106684
 3.3000e+000 106805  1.5537e+001 -2.8819e+001 -2.2509e+001 29521 106554,106710,106580
 3.3000e+000 106782  1.3833e+001 -2.6415e+001 -2.0098e+000 29521 106580,106684,106606
 3.3000e+000 106759  1.9982e+001 -2.4216e+001  7.2700e+000 29521 106606,106684,106658
 3.3000e+000 106736 -2.3573e+000  1.5840e+000  1.6229e+001 29521 106606,106658,106632
 3.3000e+000 107027 -4.6706e+001 -1.0990e+002 -2.8469e+001 29117 106877,106929,106903
 3.3000e+000 107004  2.4611e+000 -8.9096e+001 -4.3096e+001 29117 106851,106929,106877
 3.3000e+000 106981  8.0829e+000 -1.4726e+002 -3.7164e+001 29117 106851,106955,106929
 3.3000e+000 107456 -9.5906e+001 -1.9859e+002 -5.3768e+001 28656 107237,107315,107263
 3.3000e+000 107433  3.1783e+001 -1.1997e+002 -1.0276e+001 28656 107133,107315,107237
 3.3000e+000 107410  2.6755e+001 -1.1502e+002 -3.3599e+000 28656 107133,107237,107159
 3.3000e+000 107387 -1.0793e+001 -3.5325e+001 -1.3433e+001 28656 107159,107237,107185
 3.3000e+000 107364 -3.2380e+000 -3.0167e+001 -7.1612e+000 28656 107185,107237,107211
 3.3000e+000 107341  2.9034e+000  2.1743e+001 -2.6658e+001 28656 107263,107315,107289
 3.3000e+000 107704  2.5727e+001 -3.3096e+001  3.0489e+000 27902 107727,107557,107531
 3.3000e+000 107681  2.2375e+001 -2.5930e+001 -1.1301e-001 27902 107727,107531,107505
 3.3000e+000 107658  2.4400e+001 -4.7080e+001 -9.5199e-001 27902 107557,107609,107583
 3.3000e+000 107635 -7.7127e+000 -2.7951e+001  4.9038e+000 27902 107479,107609,107505
 3.3000e+000 107753  2.9384e+001 -2.8118e+001  7.4606e-001 27902 107609,107557,107727
 3.3000e+000 107776  2.5396e+001 -2.1742e+001 -2.3060e+000 27902 107609,107727,107505
 3.3000e+000 108333 -3.5950e+001 -1.8517e+002  1.1767e+001 27341 108356,108065,108013
 3.3000e+000 108310 -2.3676e+001 -1.6714e+002 -4.2634e+001 27341 108356,108013,108143
 3.3000e+000 108287 -8.9631e+001 -2.1472e+002 -1.9896e+001 27341 108428,108117,108091
 3.3000e+000 108264 -2.4594e+001 -1.6281e+002  5.8655e+000 27341 108013,108065,108039
 3.3000e+000 108241 -6.0060e+001 -1.7204e+002 -4.9359e+001 27341 107987,108143,108013
 3.3000e+000 108218 -3.5595e+001 -1.6007e+002 -7.0352e+001 27341 107987,108169,108143
 3.3000e+000 108195 -4.3651e+001 -1.4412e+002 -6.8596e+001 27341 107961,108169,107987
 3.3000e+000 108382 -4.3545e+001 -1.9053e+002 -6.5235e+000 27341 108091,108065,108356
 3.3000e+000 108405 -9.0765e+001 -1.8024e+002 -1.6812e+001 27341 108428,108091,108356
 3.3000e+000 108454 -7.9101e+001 -3.1856e+002 -2.9104e+001 27341 108143,108117,108428
 3.3000e+000 108477 -6.1216e+001 -2.5572e+002 -3.2071e+001 27341 108143,108428,108356
 3.3000e+000 108725  3.1538e+001 -1.1255e+002  1.3785e+001 27029 108748,108526,108500
 3.3000e+000 108702  7.7948e+000 -5.2267e+001  2.8155e+001 27029 108748,108500,108630
 3.3000e+000 108679 -2.8992e+001 -8.0687e+001  2.0419e+001 27029 108578,108630,108604
 3.3000e+000 108656 -1.2308e+001 -1.2717e+002  2.9263e+001 27029 108526,108578,108552
 3.3000e+000 108774  8.8354e+000 -1.3614e+002  3.0633e+000 27029 108578,108526,108748
 3.3000e+000 108797 -3.1988e+001 -9.5657e+001  9.7171e+000 27029 108578,108748,108630
 3.3000e+000 109045 -4.2390e+000 -4.8429e+001 -4.5657e+000 26610 108872,108924,108898
 3.3000e+000 109022 -3.7011e+000 -1.0702e+002 -3.0721e+001 26610 108872,108950,108924
 3.3000e+000 108999 -2.0417e+000 -1.0861e+002 -2.7011e+001 26610 108846,108950,108872
 3.3000e+000 108976 -3.1269e+000 -1.7620e+002 -3.8804e+001 26610 108820,108950,108846
 3.3000e+000 109366  2.9958e+001 -1.9068e+002  5.5427e+000 26006 109144,109222,109196
 3.3000e+000 109343  1.4617e+001 -2.0545e+002 -6.0354e-001 26006 109118,109222,109144
 3.3000e+000 109320  6.1119e+000 -2.2702e+002  2.3927e+001 26006 109092,109222,109118
 3.3000e+000 109297  6.6262e+001 -1.7318e+002 -1.3437e+001 26006 109144,109196,109170
 3.3000e+000 109274  3.7604e+001 -9.8425e+001  1.9158e+001 26006 109092,109248,109222
 3.3000e+000 109567 -2.5030e+001 -4.5537e+001 -3.7359e+001 25659 109391,109469,109443
 3.3000e+000 109544  1.1802e+001 -4.0994e+001 -1.0727e+001 25659 109391,109495,109469
 3.3000e+000 109521 -3.7687e+001 -4.3661e+001 -2.5896e+001 25659 109391,109443,109417
 3.3000e+000 109900 -6.6208e+000 -5.9002e+001 -5.7470e+000 25255 109923,109779,109753
 3.3000e+000 109877  3.0879e-002 -4.2838e+001 -5.0638e+000 25255 109923,109753,109701
 3.3000e+000 109854 -9.1201e+000 -4.0049e+001 -2.4098e+001 25255 109675,109805,109701
 3.3000e+000 109831 -1.3384e+001 -4.5720e+001 -3.4560e+000 25255 109701,109753,109727
 3.3000e+000 109949 -4.6793e+000 -8.0826e+001 -2.2320e+001 25255 109805,109779,109923
 3.3000e+000 109972  7.9123e+000 -5.1502e+001 -2.1776e+001 25255 109805,109923,109701
 3.3000e+000 110220 -7.8242e+000 -9.3174e+001 -2.7426e+000 24701 110243,110021,109995
 3.3000e+000 110197  3.5407e+000 -7.7828e+001 -2.6056e+001 24701 110243,109995,110099
 3.3000e+000 110174 -6.1991e+000 -7.7524e+001 -2.4596e+001 24701 110315,110073,110047
 3.3000e+000 110151 -3.4744e+001 -7.8278e+001 -1.9620e+001 24701 109995,110125,110099
 3.3000e+000 110269  1.2294e+002 -3.9722e+001  6.8308e+000 24701 110047,110021,110243
 3.3000e+000 110292  5.6119e+000 -7.8607e+001 -2.9191e+001 24701 110315,110047,110243
 3.3000e+000 110341 -3.2726e+001 -8.7487e+001 -2.2107e+001 24701 110099,110073,110315
 3.3000e+000 110364 -1.4166e+001 -8.5417e+001 -2.5774e+001 24701 110099,110315,110243
 3.3000e+000 110661 -2.3289e+001 -1.9844e+002  2.5935e+001 24197 110684,110413,110387
 3.3000e+000 110638 -3.3753e+000 -1.7333e+002  1.7953e+000 24197 110684,110387,110543
 3.3000e+000 110615  1.5514e+001 -2.5415e+002  2.4003e+001 24197 110756,110491,110465
 3.3000e+000 110592 -3.2602e+001 -1.5411e+002  3.8669e+001 24197 110413,110465,110439
 3.3000e+000 110569 -3.3551e+001 -4.0852e+002 -3.2499e+001 24197 110491,110543,110517
 3.3000e+000 110710  2.0013e+001 -1.7642e+002  3.9675e+001 24197 110465,110413,110684
 3.3000e+000 110733 -7.8617e+000 -2.2766e+002  1.8356e+001 24197 110756,110465,110684
 3.3000e+000 110782  2.5423e+001 -2.2363e+002  1.1270e+000 24197 110543,110491,110756
 3.3000e+000 110805  1.3825e+001 -1.8349e+002 -5.6987e+000 24197 110543,110756,110684
 3.3000e+000 111315  8.6261e+000 -1.3436e+002 -1.2649e+001 23593 111044,111148,111070
 3.3000e+000 111292 -2.5235e+001 -9.3332e+001  7.1003e+000 23593 111044,111174,111148
 3.3000e+000 111269  4.5904e+001 -5.4748e+001 -1.0760e+001 23593 111070,111122,111096
 3.3000e+000 111246  8.6724e-001 -1.1677e+002 -3.4265e+001 23593 111070,111148,111122
 3.3000e+000 111223 -3.3977e+001 -7.7966e+001 -7.6825e+000 23593 111018,111174,111044
 3.3000e+000 111200  1.1196e+001 -1.0738e+002 -1.9245e+000 23593 110992,111174,111018
 3.3000e+000 111821  1.6215e+001 -1.8784e+002 -3.5164e+000 23089 111916,111844,111628
 3.3000e+000 111798 -2.3776e+001 -2.2181e+002 -5.8369e+001 23089 111844,111550,111524
 3.3000e+000 111775  1.8584e+000 -1.5798e+002 -4.8227e+000 23089 111916,111628,111602
 3.3000e+000 111752  1.1557e+001 -3.2219e+002 -4.4683e+001 23089 111498,111680,111524
 3.3000e+000 111729 -2.4184e+000 -1.2161e+002  1.7535e+001 23089 111550,111602,111576
 3.3000e+000 111706 -6.2176e+000 -6.8922e+001 -1.6214e+001 23089 111628,111680,111654
 3.3000e+000 111870  4.4155e+001 -1.4916e+002  2.2321e+001 23089 111680,111628,111844
 3.3000e+000 111893  3.1457e+001 -1.8334e+002 -1.5062e+001 23089 111680,111844,111524
 3.3000e+000 111942  3.6220e+001 -1.5067e+002 -1.7249e+001 23089 111550,111844,111916
 3.3000e+000 111965  1.3417e+001 -1.2825e+002 -1.4707e+001 23089 111550,111916,111602
 3.3000e+000 112164 -1.8803e+001 -6.5197e+001 -2.7592e+001 22626 112187,112014,111988
 3.3000e+000 112141  5.3235e+000 -1.1131e+002 -2.8104e+001 22626 112259,112187,111988
 3.3000e+000 112118  2.1382e+001 -1.2256e+002  9.1009e-001 22626 112259,111988,112092
 3.3000e+000 112213  1.3438e+001 -4.2477e+000 -8.6437e+000 22626 112040,112014,112187
 3.3000e+000 112236 -2.8186e+000 -7.8575e+001 -1.8835e+001 22626 112040,112187,112066
 3.3000e+000 112285  2.9018e+001 -6.8255e+001 -1.8739e+001 22626 112066,112187,112259
 3.3000e+000 112308  4.3651e+001 -7.7784e+001  9.0038e+000 22626 112066,112259,112092
 3.3000e+000 112605 -2.3459e+001 -1.6550e+002  7.1022e+000 22286 112628,112383,112357
 3.3000e+000 112582 -2.4087e+000 -1.6582e+002  1.7765e+001 22286 112772,112628,112357
 3.3000e+000 112559 -6.8961e+000 -1.9762e+002  3.1881e+001 22286 112700,112435,112409
 3.3000e+000 112536 -2.7580e+001 -1.7172e+002  1.9990e+001 22286 112772,112357,112331
 3.3000e+000 112513 -6.2570e+001 -1.8062e+002  3.9582e+001 22286 112435,112487,112461
 3.3000e+000 112654  8.4157e-001 -1.1463e+002  1.4725e+001 22286 112409,112383,112628
 3.3000e+000 112677  4.7519e+000 -1.7308e+002  2.8484e+001 22286 112700,112409,112628
 3.3000e+000 112726  1.3419e+000 -1.8203e+002  1.4616e+001 22286 112487,112435,112700
 3.3000e+000 112749  4.0811e+000 -1.7771e+002  1.2500e+001 22286 112487,112700,112628
 3.3000e+000 112798  8.0832e+000 -1.6651e+002  1.3373e+001 22286 112487,112628,112772
 3.3000e+000 112821  2.3718e+000 -1.6036e+002  1.6200e+001 22286 112487,112772,112331
 3.3000e+000 112924  8.4872e-002  2.8586e-001  6.1145e+000 21974 112846,112898,112872
 3.3000e+000 113223 -4.3512e+001 -2.1621e+002  2.2725e+001 21420 112949,113053,112975
 3.3000e+000 113200 -8.0087e+000 -1.4541e+002  9.5497e+000 21420 112949,113079,113053
 3.3000e+000 113177  1.1446e+002 -1.7777e+002  7.1858e+001 21420 112975,113053,113001
 3.3000e+000 113154 -8.6811e+001 -2.7156e+002  3.9409e+001 21420 113001,113053,113027
 3.3000e+000 113131 -9.6537e+001 -1.6624e+002  9.9999e+000 21420 112949,113105,113079
 3.3000e+000 113605 -1.9868e+001 -1.8370e+002  5.3814e+001 20716 113331,113435,113357
 3.3000e+000 113582 -2.8941e+001 -1.2745e+002  5.8831e+001 20716 113331,113461,113435
 3.3000e+000 113559 -6.2392e+000 -1.9660e+002 -2.8453e+001 20716 113383,113435,113409
 3.3000e+000 113536 -4.9638e+001 -1.5630e+002 -1.4514e+001 20716 113357,113435,113383
 3.3000e+000 113513 -1.2156e+000 -2.1722e+001 -2.1580e+001 20716 113331,113487,113461
 3.3000e+000 113853  1.9716e+001 -2.1518e+002  1.0064e+001 20290 113876,113680,113654
 3.3000e+000 113830  1.1969e+002 -1.9704e+002  1.3398e+001 20290 113876,113654,113628
 3.3000e+000 113807 -2.5456e+001 -2.3787e+002 -1.6315e+001 20290 113948,113732,113680
 3.3000e+000 113784  2.3415e+001 -2.2892e+002 -2.4855e+001 20290 113680,113732,113706
 3.3000e+000 113902  1.1665e+001 -1.8954e+002  1.9312e+001 20290 113948,113680,113876
 3.3000e+000 113925  1.1340e+001 -1.7468e+002  2.5265e+001 20290 113758,113876,113628
 3.3000e+000 113974 -6.8119e+001 -1.9306e+002 -3.0873e+001 20290 113758,113732,113948
 3.3000e+000 113997 -6.4531e+001 -1.9000e+002 -3.4453e+000 20290 113758,113948,113876
 3.3000e+000 114365 -2.9282e+000 -1.8847e+002  6.1875e-001 19900 114146,114198,114172
 3.3000e+000 114342 -7.1576e+000 -1.9029e+002  4.9634e-001 19900 114042,114198,114146
 3.3000e+000 114319 -8.0626e-001 -1.8435e+002 -2.7327e+000 19900 114042,114224,114198
 3.3000e+000 114296 -5.8340e+001 -1.8271e+002 -5.5606e-001 19900 114094,114146,114120
 3.3000e+000 114273 -6.7302e+000 -1.6794e+002 -1.1456e+001 19900 114042,114146,114094
 3.3000e+000 114250 -7.9865e+001 -1.9308e+002 -8.9507e+000 19900 114042,114094,114068
 3.3000e+000 114566 -4.8491e+001 -1.8225e+002 -1.7328e+000 19496 114442,114494,114468
 3.3000e+000 114543 -5.0855e+001 -1.5742e+002 -3.6042e+000 19496 114416,114494,114442
 3.3000e+000 114520 -5.5233e+001 -1.6202e+002 -6.1130e+000 19496 114390,114494,114416
 3.3000e+000 114767 -1.1892e+001 -1.9407e+002  7.9120e+000 19042 114790,114669,114643
 3.3000e+000 114744 -7.4140e+000 -1.9130e+002  9.1176e+000 19042 114790,114643,114591
 3.3000e+000 114721  1.2234e+001 -1.8860e+002  3.2875e+001 19042 114591,114643,114617
 3.3000e+000 114816 -2.2463e+001 -1.9031e+002  6.7021e+000 19042 114695,114669,114790
 3.3000e+000 114839 -1.3404e+001 -1.8314e+002  9.8197e+000 19042 114695,114790,114591
 3.3000e+000 114991 -7.6098e+001 -2.1878e+002  5.4908e-001 18488 114864,114916,114890
 3.3000e+000 114968 -5.8184e+001 -2.1395e+002 -5.3121e+000 18488 114864,114942,114916
 3.3000e+000 115192  1.3120e+002 -1.1983e+002  1.8109e+001 18098 115215,115042,115016
 3.3000e+000 115169  6.4844e+001 -9.5135e+001 -5.2482e-001 18098 115215,115016,115120
 3.3000e+000 115146  1.0202e+002 -1.1407e+002 -4.3851e+001 18098 115287,115094,115068
 3.3000e+000 115241  8.5478e+001 -2.0458e+002 -2.5427e+000 18098 115068,115042,115215
 3.3000e+000 115264  9.9494e+001 -1.0524e+002 -1.3074e+001 18098 115287,115068,115215
 3.3000e+000 115313  5.8534e+001 -1.3055e+002 -4.2071e+001 18098 115120,115094,115287
 3.3000e+000 115336  4.1600e+001 -1.2792e+002 -1.2797e+001 18098 115120,115287,115215
 3.3000e+000 115846  8.4386e+001 -2.6067e+002 -9.2218e+001 17644 115653,115705,115679
 3.3000e+000 115823  1.1970e+001 -2.2378e+002 -4.6818e+001 17644 115627,115705,115653
 3.3000e+000 115800  9.0638e+001 -1.2458e+002 -4.5050e+000 17644 115549,115705,115627
 3.3000e+000 115777  2.6844e+001 -2.0588e+002  2.6288e+001 17644 115549,115627,115575
 3.3000e+000 115754  5.5317e+001 -1.3664e+002 -2.4733e+000 17644 115523,115705,115549
 3.3000e+000 115731 -5.9743e+001 -1.7177e+002 -1.5117e+001 17644 115575,115627,115601
 3.3000e+000 116067 -7.2923e+001 -3.6405e+002 -1.5111e+001 17116 115891,115943,115917
 3.3000e+000 116044 -1.3083e+002 -4.1631e+002  6.8093e+000 17116 115891,115995,115943
 3.3000e+000 116021 -1.2490e+002 -3.5868e+002  5.6040e+000 17116 115943,115995,115969
 3.3000e+000 116288  4.5400e+001 -2.2487e+002  5.5378e+001 16704 116164,116216,116190
 3.3000e+000 116265 -1.0533e+001 -3.0226e+002  3.0876e+001 16704 116112,116216,116164
 3.3000e+000 116242 -1.3626e+002 -3.1272e+002 -4.2384e+000 16704 116112,116164,116138
 3.3000e+000 116489 -2.1883e+001 -1.6590e+002 -6.3258e+000 16434 116339,116417,116365
 3.3000e+000 116466 -2.7494e+001 -1.6518e+002 -3.5453e-001 16434 116313,116417,116339
 3.3000e+000 116443 -8.8878e+001 -2.0763e+002  4.0278e+001 16434 116365,116417,116391
 3.3000e+000 116592  5.7744e+001 -2.3792e+002 -1.9509e+001 15967 116514,116566,116540
 3.3000e+000 116695 -2.3251e+001 -3.5725e+002 -4.5234e+001 15552 116617,116669,116643
 3.3000e+000 116798 -1.7491e+000 -1.7751e+002  0.0000e+000 421 116720,116772,116746
 3.4000e+000 69066  2.1191e+000 -3.2127e+002 -1.6656e+001 68738 68965,69017,68991
 3.4000e+000 69043  7.8794e+001 -2.9517e+002  7.0511e+002 68738 68939,69017,68965
 3.4000e+000 69371 -1.2731e+001 -6.3766e+001 -2.1031e+001 68426 69172,69250,69198
 3.4000e+000 69348  6.6542e-001 -1.1949e+002  9.9197e+000 68426 69146,69250,69172
 3.4000e+000 69325 -4.4467e+000 -2.2396e+001  9.2560e+000 68426 69198,69250,69224
 3.4000e+000 69302 -3.3540e+001 -1.0733e+002  6.6193e+000 68426 69146,69276,69250
 3.4000e+000 69521  8.3892e+000 -4.1620e+001 -1.7551e+001 68228 69420,69472,69446
 3.4000e+000 69498 -8.4687e+000 -3.2625e+001 -3.0027e+001 68228 69394,69472,69420
 3.4000e+000 69781 -1.3213e+001  2.4607e+001  1.0893e+001 68030 69631,69683,69657
 3.4000e+000 69758  6.7130e+000 -3.0579e+001 -1.1979e+001 68030 69631,69709,69683
 3.4000e+000 69735 -2.3781e+000  1.5906e+001  2.9713e+001 68030 69605,69709,69631
 3.4000e+000 70078  3.9786e-001  2.8501e+001 -7.4444e+000 67832 69882,69934,69908
 3.4000e+000 70055 -6.2205e+000 -3.7861e+000  1.0448e+001 67832 69856,69934,69882
 3.4000e+000 70032  2.0385e-001 -1.5086e+001 -2.7421e+000 67832 69830,69934,69856
 3.4000e+000 70009  3.5234e+000 -7.7565e+000 -1.1301e+001 67832 69804,69934,69830
 3.4000e+000 69986 -9.1103e+000  3.2783e+001  8.4686e+000 67832 69804,69960,69934
 3.4000e+000 70586 -6.9161e+000 -4.9848e+001  1.2246e+001 67634 70609,70419,70341
 3.4000e+000 70563 -1.7358e+000 -8.4641e+001  2.4133e+001 67634 70681,70609,70341
 3.4000e+000 70540 -8.2669e+000 -8.7981e+001  2.6163e+001 67634 70681,70341,70315
 3.4000e+000 70517 -1.5891e+001 -3.9875e+001  3.0525e+001 67634 70341,70419,70367
 3.4000e+000 70494 -1.9318e+001  2.7237e+001 -9.8432e+000 67634 70263,70445,70289
 3.4000e+000 70471  8.6827e+000  6.1426e+000  1.6639e+001 67634 70367,70419,70393
 3.4000e+000 70635  1.0013e+000  3.2053e+001  7.5226e+000 67634 70445,70419,70609
 3.4000e+000 70658 -1.9116e+001 -5.7063e+001  1.9014e+001 67634 70445,70609,70289
 3.4000e+000 70707 -9.1402e-001 -7.2364e+001  6.4914e+000 67634 70289,70609,70681
 3.4000e+000 70730 -2.0541e+001 -8.2283e+001  1.0196e+001 67634 70289,70681,70315
 3.4000e+000 71108  1.3319e+001  1.3105e+001  4.0493e+000 67344 71131,70912,70886
 3.4000e+000 71085 -1.1103e+001 -4.8664e+001  1.4294e+001 67344 71131,70886,70860
 3.4000e+000 71062 -2.4584e+001 -4.6977e+001  2.6298e+001 67344 71203,70938,70912
 3.4000e+000 71039  2.3444e+001 -3.4491e+001  1.9240e+001 67344 70834,70990,70860
 3.4000e+000 71016 -4.4874e+000 -6.5514e+001  8.6737e+000 67344 70938,70990,70964
 3.4000e+000 71157 -1.9575e+001 -3.6584e+001  2.4583e+001 67344 71203,70912,71131
 3.4000e+000 71180  9.1487e+000 -4.1194e+001  1.6246e+001 67344 70990,71131,70860
 3.4000e+000 71229 -9.4243e+000 -7.5592e+001  2.0892e+001 67344 70990,70938,71203
 3.4000e+000 71252  2.7918e+000 -5.6100e+001  1.5543e+001 67344 70990,71203,71131
 3.4000e+000 71603  4.9142e+000 -6.2259e+001  9.8076e+000 67032 71378,71482,71404
 3.4000e+000 71580  6.5945e-001 -3.6147e+001  1.5209e+001 67032 71378,71508,71482
 3.4000e+000 71557  2.8991e+000 -3.5140e+001  2.6871e+001 67032 71404,71456,71430
 3.4000e+000 71534 -1.1396e+000 -7.4554e+001  1.2599e+001 67032 71404,71482,71456
 3.4000e+000 72003  2.2680e+001 -1.7642e+001  1.6772e+001 66834 71755,71859,71781
 3.4000e+000 71980  1.1783e+001 -1.1016e+002  2.3654e+000 66834 71755,71885,71859
 3.4000e+000 71957  2.5255e+000 -1.2749e+001 -4.1373e-002 66834 71781,71833,71807
 3.4000e+000 71934 -9.1677e+000 -1.1913e+002 -1.2514e+001 66834 71781,71859,71833
 3.4000e+000 71911  3.9172e+001 -2.9606e+001  4.3880e+001 66834 71729,71885,71755
 3.4000e+000 72430  2.2989e+001 -4.6146e+001 -3.6945e+000 66266 72237,72289,72263
 3.4000e+000 72407  1.5691e+001 -6.5931e+001  4.6350e+000 66266 72133,72289,72237
 3.4000e+000 72384 -8.2418e-001 -3.6197e+001 -1.5889e+000 66266 72133,72237,72211
 3.4000e+000 72361 -1.7100e+001 -9.0110e+001 -7.2003e+000 66266 72107,72289,72133
 3.4000e+000 72338 -1.6167e+001 -7.9505e+001  3.2795e+001 66266 72133,72211,72185
 3.4000e+000 72315 -6.2521e+000 -1.0076e+002  2.9260e+001 66266 72133,72185,72159
 3.4000e+000 72580 -5.1771e+000 -6.4577e+001  3.9473e+000 65968 72479,72531,72505
 3.4000e+000 72557  1.7796e+000 -3.1175e+001  2.4181e+000 65968 72453,72531,72479
 3.4000e+000 72960  2.3325e+001  4.1174e+001  4.0390e+000 65621 72983,72738,72712
 3.4000e+000 72937  6.6463e+001 -2.3897e+001  2.2282e+000 65621 72983,72712,72686
 3.4000e+000 72914  1.4995e+001 -8.3861e+001 -8.4862e-001 65621 72738,72842,72764
 3.4000e+000 72891 -4.4033e+000 -9.1618e+001 -5.1960e-001 65621 72764,72842,72816
 3.4000e+000 72868 -5.7098e+001 -2.2617e+002  3.3634e+001 65621 72764,72816,72790
 3.4000e+000 73009  3.2040e+001 -8.3062e+000  1.4041e+001 65621 72842,72738,72983
 3.4000e+000 73032  3.1779e+001 -1.2967e+002  1.9867e+001 65621 72842,72983,72686
 3.4000e+000 73361  1.1582e+001 -2.5701e+002 -7.3620e+000 65281 73456,73384,73188
 3.4000e+000 73338 -1.0026e+001 -2.0742e+002  2.5690e+001 65281 73384,73162,73136
 3.4000e+000 73315 -1.2855e+001 -8.9991e+001  2.7491e+000 65281 73188,73240,73214
 3.4000e+000 73292  1.4343e+001 -1.8844e+001 -2.0370e+001 65281 73136,73266,73240
 3.4000e+000 73410 -4.7991e+001 -2.2615e+002 -1.5985e+001 65281 73240,73188,73384
 3.4000e+000 73433 -2.1986e+001 -4.4357e+001  4.0202e+000 65281 73240,73384,73136
 3.4000e+000 73482 -3.6103e+000 -3.2350e+002 -2.9169e+001 65281 73162,73384,73456
 3.4000e+000 73711 -3.4175e+000  2.2218e+001 -3.7700e+001 64820 73734,73610,73584
 3.4000e+000 73688 -1.9679e+001 -1.5190e+001 -4.0148e+001 64820 73734,73584,73662
 3.4000e+000 73760  1.6777e+001  3.6332e+001  5.0215e+000 64820 73636,73610,73734
 3.4000e+000 73783 -3.4627e+001  1.3648e+000 -1.7094e+001 64820 73806,73734,73662
 3.4000e+000 73832 -1.5848e+001 -2.0036e+001 -1.0613e+001 64820 73636,73734,73806
 3.4000e+000 74112  1.4339e+001 -1.1776e+001 -1.6285e+001 64622 74278,74135,73988
 3.4000e+000 74089  1.0211e-001 -3.8672e+001  2.4761e+000 64622 74135,73936,74040
 3.4000e+000 74066  1.6882e+001 -1.0339e+001 -3.2495e+001 64622 74278,73988,73962
 3.4000e+000 74161 -1.6490e+001 -3.0034e+001 -8.5892e+000 64622 74014,73988,74135
 3.4000e+000 74184 -9.5462e-001 -3.4367e+001 -1.2832e-001 64622 74207,74135,74040
 3.4000e+000 74233  4.5357e+000 -2.4237e+001 -6.9225e+000 64622 74014,74135,74207
 3.4000e+000 74304  2.8524e-001 -4.5449e+001 -1.4385e+000 64622 73936,74135,74278
 3.4000e+000 74327  1.4143e+001 -3.4648e+001 -1.9380e+001 64622 73936,74278,73962
 3.4000e+000 74526  1.8191e+001  2.2881e+001  2.1123e+000 64424 74621,74549,74402
 3.4000e+000 74503 -1.1408e+001 -2.3741e+001  1.2039e+001 64424 74549,74350,74454
 3.4000e+000 74480  2.7287e+001  3.4928e+001 -1.3268e+001 64424 74621,74402,74376
 3.4000e+000 74575  3.4190e+001 -1.9979e+001  1.4507e+001 64424 74428,74402,74549
 3.4000e+000 74598  1.0037e+001 -4.4856e+001  1.8399e+001 64424 74693,74549,74454
 3.4000e+000 74647  2.1670e+000 -2.1035e+000  2.1616e+001 64424 74350,74549,74621
 3.4000e+000 74670  1.4178e+001  7.4456e+000  5.7751e+000 64424 74350,74621,74376
 3.4000e+000 74719  6.7141e+000 -6.9418e+001 -2.1313e+000 64424 74428,74549,74693
 3.4000e+000 75123 -2.5160e+001 -2.0722e+002  4.3182e+001 64126 74875,74953,74927
 3.4000e+000 75100 -1.2533e+001 -2.0638e+002  2.6147e+001 64126 74875,74979,74953
 3.4000e+000 75077 -2.1361e+000 -1.2169e+002 -2.6549e+000 64126 74875,75005,74979
 3.4000e+000 75054 -2.5842e+000 -2.7505e+002  7.2470e+001 64126 74875,74927,74901
 3.4000e+000 75031 -4.9761e+001 -5.3369e+001  2.5839e+001 64126 74849,75005,74875
 3.4000e+000 75224 -1.5132e+001 -1.2912e+002  1.3435e+001 63836 75146,75198,75172
 3.4000e+000 75472  1.1723e+001 -6.0157e+001  2.6579e+001 63375 75273,75351,75325
 3.4000e+000 75449 -1.7972e+001 -6.2890e+001  1.5092e+001 63375 75273,75377,75351
 3.4000e+000 75426 -3.7336e+001 -7.9111e+001  6.6032e+000 63375 75247,75377,75273
 3.4000e+000 75403  2.5689e+001 -3.2516e+001  2.1561e+001 63375 75273,75325,75299
 3.4000e+000 75673  2.3458e+001 -6.0288e+001  1.5014e+001 63063 75523,75575,75549
 3.4000e+000 75650  1.7846e+001 -1.0322e+002 -6.2096e+000 63063 75497,75575,75523
 3.4000e+000 75627  1.9141e+001 -1.1325e+002  1.6400e+001 63063 75497,75601,75575
 3.4000e+000 75874  2.8734e+001 -1.0902e+002 -9.7492e+000 62716 75897,75750,75724
 3.4000e+000 75851  1.5343e+001 -8.9999e+001 -4.9563e+000 62716 75897,75724,75698
 3.4000e+000 75828  4.3599e+000 -6.7197e+001 -3.3234e+001 62716 75698,75802,75776
 3.4000e+000 75923  4.9662e+001 -8.6776e+001 -1.9356e+001 62716 75776,75750,75897
 3.4000e+000 75946  2.1756e+001 -8.1021e+001 -8.0462e+000 62716 75776,75897,75698
 3.4000e+000 76328 -2.0784e+001 -1.2172e+002 -1.4018e+000 62198 76495,76351,76158
 3.4000e+000 76305 -3.7193e+001 -1.2529e+002  9.1357e-002 62198 76351,76080,76054
 3.4000e+000 76282 -9.2184e+000 -1.8623e+002 -5.8773e+000 62198 76423,76184,76158
 3.4000e+000 76259 -2.3090e+001 -1.2088e+002 -4.7392e-001 62198 76495,76158,76106
 3.4000e+000 76236 -4.5945e+001 -1.8393e+002  2.9380e+001 62198 76106,76158,76132
 3.4000e+000 76377 -3.0567e+001 -1.4410e+002 -1.1252e+001 62198 76423,76158,76351
 3.4000e+000 76400 -3.7961e+001 -1.1174e+002 -1.7367e+001 62198 76210,76351,76054
 3.4000e+000 76449  1.3623e+001 -1.4602e+002 -1.5291e+001 62198 76210,76184,76423
 3.4000e+000 76472 -5.8157e+000 -1.0976e+002 -2.3299e+001 62198 76210,76423,76351
 3.4000e+000 76521 -2.4598e+001 -1.2073e+002 -2.6115e-001 62198 76080,76351,76495
 3.4000e+000 76544 -2.9441e+001 -1.2256e+002  1.4432e+000 62198 76080,76495,76106
 3.4000e+000 76841  4.8472e+000 -1.2959e+002  1.8392e+001 61751 76936,76864,76645
 3.4000e+000 76818  5.3700e+001 -1.1495e+002 -3.9205e+001 61751 76864,76567,76723
 3.4000e+000 76795  1.5216e+001 -7.9723e+001  1.7212e+001 61751 76936,76645,76593
 3.4000e+000 76772 -1.2937e+002 -3.0985e+002  7.2182e+001 61751 77008,76697,76671
 3.4000e+000 76749 -6.7500e+000 -4.8357e+001 -1.7540e+001 61751 76593,76645,76619
 3.4000e+000 76890 -1.1497e+001 -1.7269e+002  3.6278e+001 61751 76671,76645,76864
 3.4000e+000 76913 -3.0984e+001 -1.6971e+002  2.1893e+001 61751 77008,76671,76864
 3.4000e+000 76962  2.7555e+001 -1.9625e+002 -6.5361e+000 61751 76567,76864,76936
 3.4000e+000 76985  3.4937e+001 -1.5397e+002 -2.1696e+000 61751 76567,76936,76593
 3.4000e+000 77034  1.4833e+001 -2.1760e+002 -2.8693e+001 61751 76723,76697,77008
 3.4000e+000 77057  3.3823e+000 -2.3318e+002 -2.3678e+001 61751 76723,77008,76864
 3.4000e+000 77207 -1.1479e+001 -5.4687e+001  1.9674e+001 61418 77106,77158,77132
 3.4000e+000 77184  4.9216e+001 -1.2631e+002  3.0629e+001 61418 77080,77158,77106
 3.4000e+000 77638  9.6036e+000 -1.3795e+002 -1.9966e+001 60814 77733,77661,77471
 3.4000e+000 77615 -3.7007e+000 -1.2990e+002 -1.5233e+001 60814 77661,77393,77315
 3.4000e+000 77592  1.0438e+001 -1.1686e+002 -9.8966e+000 60814 77733,77471,77445
 3.4000e+000 77569 -5.2436e+001 -2.9369e+002 -4.6675e+001 60814 77315,77367,77341
 3.4000e+000 77546 -6.4455e+000 -2.1377e+002 -2.4869e+001 60814 77315,77393,77367
 3.4000e+000 77523 -2.4952e+000 -7.2004e+001 -2.1882e+001 60814 77393,77445,77419
 3.4000e+000 77687 -8.7182e+000 -1.4473e+002 -2.9485e+001 60814 77497,77471,77661
 3.4000e+000 77710 -4.2043e+000 -1.3450e+002 -1.1887e+001 60814 77497,77661,77315
 3.4000e+000 77759 -4.8012e-001 -1.0429e+002 -1.6626e+001 60814 77393,77661,77733
 3.4000e+000 77782  2.6168e+000 -8.5202e+001 -3.2956e+000 60814 77393,77733,77445
 3.4000e+000 78337  1.3332e+001 -5.3197e+001  6.8406e+000 60210 78360,78017,77965
 3.4000e+000 78314  8.6972e+000 -3.8627e+001  1.0643e+001 60210 78360,77965,78173
 3.4000e+000 78291 -9.0795e-001 -7.2921e+001 -1.3268e+001 60210 78432,78043,78017
 3.4000e+000 78268 -1.3531e+000 -8.4453e+001  2.8478e+000 60210 77965,78017,77991
 3.4000e+000 78245  2.2575e-001 -2.9678e+001 -1.0783e+000 60210 78043,78095,78069
 3.4000e+000 78222 -4.3780e+000 -6.7645e+001  9.3181e+000 60210 78095,78173,78121
 3.4000e+000 78199 -3.1476e+000 -5.4758e+001 -8.5284e+000 60210 78121,78173,78147
 3.4000e+000 78386  2.0950e+000 -6.7201e+001  1.2466e+000 60210 78432,78017,78360
 3.4000e+000 78409  2.9390e+000 -4.7588e+001  8.1674e+000 60210 78095,78360,78173
 3.4000e+000 78458  9.5598e+000 -5.2954e+001 -6.5712e+000 60210 78095,78043,78432
 3.4000e+000 78481  1.2325e+001 -4.4126e+001  7.3840e+000 60210 78095,78432,78360
 3.4000e+000 78680 -2.8755e+001 -6.6117e+001 -3.6579e+000 59848 78703,78556,78530
 3.4000e+000 78657 -2.8361e+001 -9.4162e+001 -3.3672e+001 59848 78703,78530,78504
 3.4000e+000 78634 -3.3411e+001 -1.7274e+002 -2.0713e+001 59848 78504,78608,78582
 3.4000e+000 78729 -2.2532e+001 -1.2504e+002  3.4506e-001 59848 78582,78556,78703
 3.4000e+000 78752 -2.1113e+001 -1.3335e+002 -4.0175e+001 59848 78582,78703,78504
 3.4000e+000 78951  6.7986e-001 -3.1392e+001 -1.4058e+001 59344 78974,78801,78775
 3.4000e+000 78928 -2.8237e+001 -1.0444e+002 -2.5480e+001 59344 79046,78974,78775
 3.4000e+000 78905 -2.1354e+001 -1.6353e+002 -2.2579e+001 59344 79046,78775,78879
 3.4000e+000 79000  9.4628e+000 -1.6025e+001  2.9513e+001 59344 78827,78801,78974
 3.4000e+000 79023 -1.5909e+001 -3.3401e+001  4.6055e+000 59344 78827,78974,78853
 3.4000e+000 79072 -3.6492e+001 -3.6744e+001 -2.8812e+000 59344 78853,78974,79046
 3.4000e+000 79095 -1.1474e+001 -7.4228e+001  3.4223e+000 59344 78853,79046,78879
 3.4000e+000 79296  1.7853e+001 -3.9101e+001  9.4482e+000 58711 79319,79172,79146
 3.4000e+000 79273  1.8866e+001 -5.8239e+001  3.6033e+000 58711 79319,79146,79120
 3.4000e+000 79250  8.7612e-001 -1.1662e+002  5.0088e+001 58711 79172,79224,79198
 3.4000e+000 79345  2.2085e+001 -5.8781e+001  1.0932e+001 58711 79224,79172,79319
 3.4000e+000 79368  2.4538e+001 -7.6707e+001  8.0638e+000 58711 79224,79319,79120
 3.4000e+000 79667  7.5498e+000 -6.5394e+001 -3.8765e+000 58285 79690,79471,79393
 3.4000e+000 79644  1.3706e+001 -9.0283e+001 -1.7811e+001 58285 79690,79393,79549
 3.4000e+000 79621  3.8772e+001 -1.0497e+002  2.6523e+001 58285 79393,79471,79419
 3.4000e+000 79598  2.0422e+001 -5.3634e+001 -3.3887e+000 58285 79497,79549,79523
 3.4000e+000 79575 -1.2033e+001 -1.9855e+002  4.9490e+001 58285 79419,79471,79445
 3.4000e+000 79716  1.5263e+001 -4.4662e+001  7.7891e+000 58285 79497,79471,79690
 3.4000e+000 79739  2.3307e+001 -7.6900e+001 -3.1759e+000 58285 79497,79690,79549
 3.4000e+000 80249  2.3588e+001  2.7230e+001  2.1053e+001 57831 80272,79978,79952
 3.4000e+000 80226  5.6003e+000  3.1691e+001  3.6828e+000 57831 80272,79952,80108
 3.4000e+000 80203  5.4862e+000  1.3167e+001 -5.3652e+000 57831 79926,80108,79952
 3.4000e+000 80180 -6.0382e+000  1.0047e+001 -2.0361e+000 57831 80004,80082,80030
 3.4000e+000 80157 -4.0634e+000  1.6432e+001 -2.0685e+000 57831 80004,80108,80082
 3.4000e+000 80134 -3.3247e+000  3.6715e+001  7.7005e+000 57831 80030,80082,80056
 3.4000e+000 80298  7.5582e+000 -6.6666e+000  1.3054e+001 57831 80004,79978,80272
 3.4000e+000 80321 -2.9456e+000  2.0953e+001 -1.4112e+000 57831 80004,80272,80108
 3.4000e+000 80618 -1.9487e+001 -1.2889e+002  6.2435e+000 57077 80344,80448,80422
 3.4000e+000 80595 -4.8386e+000 -1.2201e+002  4.3783e+000 57077 80344,80500,80448
 3.4000e+000 80572  1.3454e+001 -6.1236e+001 -5.3036e+000 57077 80344,80422,80370
 3.4000e+000 80549 -1.4520e+001 -5.3464e+001  1.7004e+000 57077 80370,80422,80396
 3.4000e+000 80526 -4.2219e+001 -2.1074e+002  2.3728e+001 57077 80448,80500,80474
 3.4000e+000 80768 -1.1758e+001 -3.0567e+001 -1.8771e+000 56787 80791,80693,80667
 3.4000e+000 80745 -1.4299e+001 -3.2281e+001 -2.8118e+000 56787 80791,80667,80641
 3.4000e+000 80817 -8.2508e+000 -3.1492e+001 -5.5106e+000 56787 80719,80693,80791
 3.4000e+000 80840 -2.3249e+001 -4.2141e+001 -1.0570e+001 56787 80719,80791,80641
 3.4000e+000 81429 -1.6223e+001 -3.4936e+001  1.1087e+001 56497 81452,81158,81132
 3.4000e+000 81406  9.4610e+000 -4.3198e+001  5.1135e+000 56497 81452,81132,81288
 3.4000e+000 81383 -1.4850e+001 -2.8153e+001 -1.0949e+001 56497 81524,81184,81158
 3.4000e+000 81360 -3.2988e+000 -1.1314e+002 -1.0578e+001 56497 81210,81288,81236
 3.4000e+000 81337 -2.5149e+000 -5.1687e+001 -1.6537e-001 56497 81106,81288,81132
 3.4000e+000 81314 -1.9045e+001 -2.8464e+001 -2.5562e+001 56497 81236,81288,81262
 3.4000e+000 81478 -9.3116e+000 -4.0198e+001  2.0477e+000 56497 81524,81158,81452
 3.4000e+000 81501  3.2332e+001 -3.6158e+001  1.2196e+001 56497 81210,81452,81288
 3.4000e+000 81550 -8.2918e+000 -1.5623e+001 -5.1434e+000 56497 81210,81184,81524
 3.4000e+000 81573  5.1705e+000 -1.3309e+001  9.7099e+000 56497 81210,81524,81452
 3.4000e+000 81870  1.4391e+001 -4.7101e+001  1.1231e+001 55979 81893,81674,81648
 3.4000e+000 81847 -2.5891e-001 -4.8369e+001  2.5123e+001 55979 81893,81648,81752
 3.4000e+000 81824 -2.2918e+000 -1.9042e+001  2.4851e+001 55979 81596,81752,81648
 3.4000e+000 81801  3.9693e+001  3.4126e+000  5.3151e+000 55979 81674,81726,81700
 3.4000e+000 81778 -2.6882e+001 -7.6564e+001  2.6301e+001 55979 81596,81648,81622
 3.4000e+000 81919  2.4299e+001 -3.9147e+001  2.7698e+000 55979 81726,81674,81893
 3.4000e+000 81942  8.1810e+000 -3.7661e+001  1.6040e+001 55979 81726,81893,81752
 3.4000e+000 82371 -3.6842e+001 -5.8561e+001 -1.6243e+001 55631 82100,82204,82152
 3.4000e+000 82348  1.1854e+001 -8.4711e+001 -2.7783e+001 55631 82100,82230,82204
 3.4000e+000 82325  3.1860e+001 -3.3356e+001 -1.0256e+001 55631 82100,82152,82126
 3.4000e+000 82302 -1.4906e+001 -1.4252e+002 -1.5700e+001 55631 82074,82230,82100
 3.4000e+000 82279 -4.4457e+001 -8.3413e+001 -2.6400e+001 55631 82152,82204,82178
 3.4000e+000 82256  7.5336e-001 -6.0730e+001 -7.4534e+000 55631 82048,82230,82074
 3.4000e+000 82521  4.4750e+001 -5.0652e+001 -1.5291e+000 55227 82544,82420,82394
 3.4000e+000 82498  4.2526e+001 -7.2626e+001  1.5840e+000 55227 82544,82394,82472
 3.4000e+000 82570  3.5860e+001 -3.2945e+001 -1.0437e+000 55227 82446,82420,82544
 3.4000e+000 82593  3.5543e+001 -5.0014e+001  7.8172e+000 55227 82446,82544,82472
 3.4000e+000 82875  1.0186e+001 -5.7067e+000  5.4699e+000 54979 82699,82777,82725
 3.4000e+000 82852 -6.8597e+000  7.9875e+000  9.9331e+000 54979 82699,82803,82777
 3.4000e+000 82829 -2.7155e+000 -8.3017e+000  4.8707e+000 54979 82725,82777,82751
 3.4000e+000 83204 -3.4570e+000 -1.3727e+001 -9.1305e+000 54475 83005,83083,83057
 3.4000e+000 83181 -4.8085e+000 -2.1460e+001 -2.4262e+000 54475 82979,83083,83005
 3.4000e+000 83158 -6.1507e+000 -1.4642e+001 -7.6197e+000 54475 83005,83057,83031
 3.4000e+000 83135  2.0656e+000 -5.5356e+000 -8.6225e+000 54475 82979,83109,83083
 3.4000e+000 83582  6.8329e+000 -2.3419e+001 -6.6217e+000 54071 83605,83438,83412
 3.4000e+000 83559 -1.2950e+000 -3.3806e+001  1.0203e-001 54071 83749,83605,83412
 3.4000e+000 83536 -1.9309e+001 -6.1406e+001  1.5194e+001 54071 83677,83360,83334
 3.4000e+000 83513 -7.4932e-004 -3.5540e+001 -1.6131e-001 54071 83749,83412,83677
 3.4000e+000 83490 -8.5116e+000 -4.2446e+001  7.1523e+000 54071 83308,83464,83334
 3.4000e+000 83631 -1.1072e+000 -3.0280e+001  2.2751e+000 54071 83464,83438,83605
 3.4000e+000 83654 -2.5249e+000 -4.0421e+001  7.6154e+000 54071 83464,83605,83334
 3.4000e+000 83703 -6.7423e+000 -3.7723e+001 -5.9840e+000 54071 83386,83360,83677
 3.4000e+000 83726  9.0464e-001 -9.4969e+000 -1.4993e+001 54071 83386,83677,83412
 3.4000e+000 83775  3.9549e-001 -3.0933e+001  1.2708e+000 54071 83334,83605,83749
 3.4000e+000 83798  1.7772e+000 -3.2742e+001  1.1015e+000 54071 83334,83749,83677
 3.4000e+000 84068  9.4941e+000  9.1807e+000 -1.0529e+001 53524 83869,83921,83895
 3.4000e+000 84045  1.2810e+001 -4.4956e+001  4.5428e+000 53524 83869,83947,83921
 3.4000e+000 84022 -4.9250e+000 -6.3542e+001 -2.7096e+000 53524 83843,83947,83869
 3.4000e+000 83999  1.4224e+001 -6.1246e+001 -2.5520e+000 53524 83843,83973,83947
 3.4000e+000 84497 -2.6575e+001 -1.4050e+002  9.5746e+000 53184 84200,84330,84252
 3.4000e+000 84474 -8.6187e+000 -7.8348e+001  2.5102e+001 53184 84200,84356,84330
 3.4000e+000 84451  6.4545e+000 -1.1026e+002  2.4552e+001 53184 84200,84252,84226
 3.4000e+000 84428 -1.2022e+001 -9.3412e+001 -3.7240e+001 53184 84252,84330,84278
 3.4000e+000 84405 -2.9879e+001 -9.7666e+001  4.8790e+001 53184 84174,84356,84200
 3.4000e+000 84382 -5.2046e-001 -9.4806e+001 -6.2877e+000 53184 84278,84330,84304
 3.4000e+000 84954 -1.5426e+000 -7.0132e+001  3.4326e+001 52680 84706,84836,84784
 3.4000e+000 84931 -2.3518e+000 -5.4638e+001 -1.7980e+001 52680 84680,84836,84706
 3.4000e+000 84908  2.6194e+000 -2.4178e+002 -1.6781e+000 52680 84784,84836,84810
 3.4000e+000 84885 -1.4708e+001 -2.4765e+002  6.1927e+000 52680 84706,84784,84732
 3.4000e+000 84862  1.5272e+000 -2.5799e+002  2.7129e+001 52680 84732,84784,84758
 3.4000e+000 85202 -1.6440e+001 -1.1874e+002 -2.0530e+000 52226 85029,85081,85055
 3.4000e+000 85179 -1.3543e+001 -8.9773e+001  5.7928e+000 52226 85225,85081,85029
 3.4000e+000 85156 -1.8448e+000 -6.0757e+001  2.2341e+001 52226 85225,85029,85003
 3.4000e+000 85133 -4.4486e+001 -9.4655e+001 -3.0296e+001 52226 84977,85107,85003
 3.4000e+000 85251 -2.6389e+001 -9.5227e+001 -2.4519e+001 52226 85107,85081,85225
 3.4000e+000 85274 -2.5961e+001 -3.4253e+001 -1.2858e+001 52226 85107,85225,85003
 3.4000e+000 85522  2.7174e+001 -8.6780e+001  1.9683e+001 51764 85297,85349,85323
 3.4000e+000 85499  4.1940e+001 -8.3264e+001  1.0221e+001 51764 85545,85297,85427
 3.4000e+000 85476  1.5339e+001 -6.3214e+001 -2.9890e+000 51764 85545,85427,85375
 3.4000e+000 85453  2.4776e+001 -6.0853e+001 -1.3196e+001 51764 85375,85427,85401
 3.4000e+000 85571  5.7245e+001 -7.1778e+001  4.3272e+000 51764 85349,85297,85545
 3.4000e+000 85594  4.0569e+001 -4.4389e+001 -1.1634e+001 51764 85349,85545,85375
 3.4000e+000 85746 -4.5631e+001 -1.0781e+002  3.0213e+000 51374 85645,85697,85671
 3.4000e+000 85723 -5.2003e+001 -1.0789e+002 -4.2493e+000 51374 85619,85697,85645
 3.4000e+000 86256  2.2390e+001 -7.8244e+000  8.9507e+000 50970 86279,86011,85959
 3.4000e+000 86233  7.5482e+000  1.5455e+001  6.0775e+000 50970 86279,85959,86115
 3.4000e+000 86210  1.4016e+001 -3.3039e+001 -6.4552e+000 50970 85959,86011,85985
 3.4000e+000 86187  1.2664e+001  2.2712e+001 -1.0488e+001 50970 86037,86115,86089
 3.4000e+000 86164  1.6854e-001  1.1473e+001 -5.8392e-001 50970 85933,86115,85959
 3.4000e+000 86141 -1.8010e+001 -8.4412e+001 -2.4760e+001 50970 86037,86089,86063
 3.4000e+000 86305  1.4820e+001 -2.8837e+001  4.1764e+000 50970 86037,86011,86279
 3.4000e+000 86328  1.0556e+000 -4.0004e+000  1.3863e+000 50970 86037,86279,86115
 3.4000e+000 86478 -3.0957e+001 -1.7219e+002  1.8344e+001 50451 86351,86403,86377
 3.4000e+000 86455 -8.7812e+001 -5.2791e+002 -5.7282e+000 50451 86351,86429,86403
 3.4000e+000 86907 -3.4566e+000 -2.3516e+001 -9.2108e+000 50047 86930,86714,86662
 3.4000e+000 86884  9.4075e+000 -5.3620e+001 -1.1786e+001 50047 86930,86662,86610
 3.4000e+000 86861  3.6359e+001 -6.0849e+001 -1.9278e+001 50047 87002,86740,86714
 3.4000e+000 86838  2.3546e+001 -1.0825e+001 -2.0554e+001 50047 86662,86714,86688
 3.4000e+000 86815 -5.5993e-001 -7.1972e+001 -5.9426e+000 50047 86610,86662,86636
 3.4000e+000 86792  3.0328e+001 -7.3676e+001  2.0679e+001 50047 86584,86766,86610
 3.4000e+000 86956  1.9410e+001 -4.3929e+001 -7.1062e+000 50047 87002,86714,86930
 3.4000e+000 86979 -7.6604e+000 -9.3033e+001  1.5357e+000 50047 86766,86930,86610
 3.4000e+000 87028  7.0182e+000 -5.1877e+001 -2.1653e+001 50047 86766,86740,87002
 3.4000e+000 87051 -1.3183e+000 -4.8851e+001 -1.2900e+001 50047 86766,87002,86930
 3.4000e+000 87250  8.1944e+000 -1.1131e+002 -2.5104e+001 49543 87273,87126,87100
 3.4000e+000 87227  1.7014e+000 -7.8351e+001 -4.8697e-001 49543 87273,87100,87074
 3.4000e+000 87204  2.2296e+001 -8.4082e+001 -3.3268e+001 49543 87126,87178,87152
 3.4000e+000 87299  2.9437e+001 -6.1153e+001 -2.9794e+001 49543 87178,87126,87273
 3.4000e+000 87322  8.7245e+000 -5.7605e+001  1.8147e-001 49543 87178,87273,87074
 3.4000e+000 87570 -3.2897e+001 -8.2204e+001  1.1537e+001 49146 87593,87449,87397
 3.4000e+000 87547 -2.8017e+001 -6.1529e+001  2.9688e+001 49146 87593,87397,87371
 3.4000e+000 87524  4.8353e+000 -5.5371e-001  3.8230e+001 49146 87345,87475,87371
 3.4000e+000 87501 -1.2114e+001 -8.7006e+001  1.1675e+001 49146 87397,87449,87423
 3.4000e+000 87619 -5.5661e+001 -8.0795e+001 -4.5771e+000 49146 87475,87449,87593
 3.4000e+000 87642 -4.4122e+001 -6.6460e+001  1.2862e+001 49146 87475,87593,87371
 3.4000e+000 88073  1.0864e+000  3.1028e+000  9.6087e-001 48706 87854,87932,87880
 3.4000e+000 88050 -5.1594e-001  2.7156e+000  2.3232e+000 48706 87828,87932,87854
 3.4000e+000 88027 -5.9747e+000  5.9075e+000 -1.1597e+000 48706 87750,87932,87828
 3.4000e+000 88004 -2.6983e+001  8.4996e+000 -2.2162e+001 48706 87750,87802,87776
 3.4000e+000 87981 -2.3569e+000  7.0578e+000 -5.4422e+000 48706 87750,87828,87802
 3.4000e+000 87958  3.8199e-001  2.8380e+000  8.7131e-001 48706 87880,87932,87906
 3.4000e+000 88402 -1.4943e+001 -1.3558e+002 -4.1940e-001 48145 88203,88281,88255
 3.4000e+000 88379 -1.9675e+001 -1.3240e+002  1.8121e+001 48145 88203,88307,88281
 3.4000e+000 88356 -1.8707e+001 -1.3168e+002 -1.5897e-001 48145 88203,88255,88229
 3.4000e+000 88333 -9.8705e+000 -1.0800e+002  1.9126e+001 48145 88177,88307,88203
 3.4000e+000 88601  3.9495e+001 -8.2313e+001  4.2306e+001 47805 88696,88624,88477
 3.4000e+000 88578 -1.2789e+000 -6.3850e+001  1.4951e+001 47805 88826,88624,88451
 3.4000e+000 88555 -8.0533e+000 -7.1036e+001  6.3923e+000 47805 88826,88451,88425
 3.4000e+000 88650  1.8669e+001 -1.2956e+002  3.3516e+001 47805 88503,88477,88624
 3.4000e+000 88673  2.4282e+001 -9.5133e+001  8.0485e+000 47805 88503,88624,88529
 3.4000e+000 88722 -7.6079e+000 -9.8129e+001  3.3678e+001 47805 88451,88624,88696
 3.4000e+000 88852 -2.2519e+000 -7.7632e+001  4.8229e+000 47805 88529,88624,88826
 3.4000e+000 88875 -9.2095e+000 -8.3906e+001 -3.8458e+000 47805 88529,88826,88425
 3.4000e+000 89172  2.8210e+000 -6.4498e+001  4.1457e-002 47401 89195,88976,88898
 3.4000e+000 89149 -1.1146e+001 -6.8810e+001 -1.1490e+001 47401 89195,88898,89054
 3.4000e+000 89126 -1.3455e+000 -4.5293e+001 -5.1506e+000 47401 88898,88976,88950
 3.4000e+000 89103 -1.2174e+001 -8.3655e+001 -2.5627e+001 47401 88976,89028,89002
 3.4000e+000 89080 -7.4480e+000 -5.8538e+001 -3.3417e+000 47401 88898,88950,88924
 3.4000e+000 89221  7.6022e+000 -7.2682e+001 -1.7899e+001 47401 89028,88976,89195
 3.4000e+000 89244 -2.3088e+001 -8.1722e+001 -2.9503e+001 47401 89028,89195,89054
 3.4000e+000 89575  4.5594e-001 -1.5757e+002  2.1909e+001 47111 89350,89454,89376
 3.4000e+000 89552  1.9032e+001 -1.1726e+002  1.6283e+000 47111 89350,89480,89454
 3.4000e+000 89529  1.8261e+001 -1.9641e+002 -1.7656e+001 47111 89376,89454,89402
 3.4000e+000 89506  5.6640e+001 -1.2803e+002  9.0958e+000 47111 89402,89454,89428
 3.4000e+000 89904  3.9567e+001  1.8963e+001 -2.2186e+001 46707 89705,89757,89731
 3.4000e+000 89881  7.9740e+000 -3.1137e+000 -1.2406e+001 46707 89705,89783,89757
 3.4000e+000 89858  4.3315e-001  1.5786e+000  9.2759e+000 46707 89679,89783,89705
 3.4000e+000 89835  1.2843e+001 -1.0417e+001  1.8073e+000 46707 89679,89809,89783
 3.4000e+000 90233  2.8291e+001  1.2535e+001 -5.0548e+000 46360 90034,90112,90086
 3.4000e+000 90210  1.9134e-001  1.2562e+000 -7.4380e+000 46360 90034,90138,90112
 3.4000e+000 90187 -7.7429e+000  7.5593e+001 -1.5785e+001 46360 90034,90086,90060
 3.4000e+000 90164 -2.6035e+000 -1.1421e+001 -4.7584e+000 46360 90008,90138,90034
 3.4000e+000 90530  2.1395e+001 -8.0721e+001  4.1292e+000 45662 90256,90360,90308
 3.4000e+000 90507  1.0743e+001 -8.1692e+001  3.3444e+000 45662 90256,90412,90360
 3.4000e+000 90484  4.1822e+001 -7.5085e+001 -7.4712e+000 45662 90256,90308,90282
 3.4000e+000 90461  2.8705e+001 -2.0584e+001  1.3304e+001 45662 90360,90412,90386
 3.4000e+000 90438  5.0738e+000 -8.3406e+001  3.8018e+000 45662 90308,90360,90334
 3.4000e+000 90910  1.5344e+001  1.4562e+001 -9.3225e+000 45108 90688,90766,90714
 3.4000e+000 90887  5.7680e+001  1.1824e+000  2.6349e+001 45108 90662,90766,90688
 3.4000e+000 90864 -1.5985e+001 -1.6081e+001  2.0522e+001 45108 90636,90766,90662
 3.4000e+000 90841  3.8273e+001 -6.1992e+001 -3.3797e+001 45108 90714,90766,90740
 3.4000e+000 90818  2.0690e+000 -2.1052e+000  1.4306e+001 45108 90636,90792,90766
 3.4000e+000 91158 -1.9198e+001 -6.7935e+001 -9.7655e+000 44604 91181,91011,90959
 3.4000e+000 91135 -4.6822e+000 -8.0649e+001 -2.5929e+001 44604 91181,90959,90933
 3.4000e+000 91112 -1.6542e+001 -1.0810e+002  1.5347e+001 44604 90959,91011,90985
 3.4000e+000 91089 -1.8428e+000 -1.2868e+002 -1.5264e+001 44604 90933,91063,91037
 3.4000e+000 91207 -1.5324e+001 -8.6511e+001 -1.4576e+001 44604 91037,91011,91181
 3.4000e+000 91230 -2.0609e+001 -1.3271e+002 -2.6133e+001 44604 91037,91181,90933
 3.4000e+000 91429 -6.9095e+000 -1.1560e+002 -1.1352e+001 44264 91452,91279,91253
 3.4000e+000 91406  2.3556e+000 -1.1628e+002 -1.5135e+001 44264 91452,91253,91357
 3.4000e+000 91383 -2.4770e+001 -1.0406e+002  2.5330e+001 44264 91279,91331,91305
 3.4000e+000 91478  2.0354e+000 -1.2327e+002 -8.6691e+000 44264 91331,91279,91452
 3.4000e+000 91501  1.7433e+001 -1.1950e+002 -1.1269e+001 44264 91331,91452,91357
 3.4000e+000 92060 -4.0266e+001 -1.2212e+002  6.9276e+000 43860 92083,91740,91688
 3.4000e+000 92037 -2.3135e+001 -1.2508e+002  1.4685e+001 43860 92083,91688,91896
 3.4000e+000 92014 -4.2782e+001 -1.4497e+002 -3.3251e+000 43860 91766,91870,91844
 3.4000e+000 91991 -1.0547e+001 -1.1822e+002  1.2560e+001 43860 91740,91870,91766
 3.4000e+000 91968 -3.2166e+000 -1.2426e+002  4.2018e+000 43860 91766,91844,91792
 3.4000e+000 91945 -4.4291e+001 -1.0267e+002  1.7792e+001 43860 91688,91740,91714
 3.4000e+000 91922 -2.1771e+001 -1.4659e+002 -4.0880e+000 43860 91792,91844,91818
 3.4000e+000 92109 -2.5887e+001 -1.1859e+002  1.4851e+001 43860 91870,91740,92083
 3.4000e+000 92132 -7.5240e+000 -1.1831e+002  2.3816e+001 43860 91870,92083,91896
 3.4000e+000 92353  4.0122e+000 -4.9498e+001 -8.6177e+000 43662 92203,92255,92229
 3.4000e+000 92330 -8.5783e+000 -3.7065e+001 -3.7798e+000 43662 92376,92203,92281
 3.4000e+000 92307 -1.1836e+001 -9.5688e+000 -4.9943e+000 43662 92177,92281,92203
 3.4000e+000 92402 -2.4846e+001 -4.4021e+001 -3.0088e+000 43662 92255,92203,92376
 3.4000e+000 92682 -8.1487e+000 -1.8459e+002 -1.8996e+001 43464 92532,92584,92558
 3.4000e+000 92659 -9.8938e-001 -1.0638e+002  9.2037e+000 43464 92506,92584,92532
 3.4000e+000 92636 -3.3531e+000 -7.9243e+001 -2.4593e+001 43464 92506,92610,92584
 3.4000e+000 93013  2.0649e+001 -5.7306e+001 -5.3682e+001 42960 92866,92918,92892
 3.4000e+000 92990 -1.6204e+001 -5.9010e+001 -2.1526e+001 42960 93036,92918,92866
 3.4000e+000 92967  3.4007e+000 -8.1054e+001 -8.1342e+000 42960 93036,92866,92840
 3.4000e+000 92944 -9.8052e+000 -1.7064e+001 -3.6658e+000 42960 92788,92918,92814
 3.4000e+000 93062 -6.1950e+000 -4.7660e+001 -1.5795e+001 42960 92814,92918,93036
 3.4000e+000 93085  2.9530e+001 -5.3854e+001  2.6008e+000 42960 92814,93036,92840
 3.4000e+000 93186  3.1182e+000 -1.3029e+002 -3.7440e+001 42556 93108,93160,93134
 3.4000e+000 93554  1.2753e+001 -1.1840e+002  9.9519e-001 42052 93231,93387,93361
 3.4000e+000 93531  1.6090e+001 -1.0316e+002  2.5293e+001 42052 93231,93413,93387
 3.4000e+000 93508  3.6466e+001 -7.9190e+001 -1.1179e+001 42052 93231,93361,93257
 3.4000e+000 93485  6.4975e+000 -9.4783e+001  4.6075e+000 42052 93283,93361,93335
 3.4000e+000 93462 -5.8995e+000 -8.5761e+001 -3.5034e+000 42052 93257,93361,93283
 3.4000e+000 93439  2.5518e+001 -8.7959e+001  1.0776e+001 42052 93283,93335,93309
 3.4000e+000 94162 -4.6728e+000 -1.8508e+001  8.2507e+000 41498 93767,93975,93793
 3.4000e+000 94139 -4.0536e-003 -1.7916e+001  1.2154e+000 41498 93741,93975,93767
 3.4000e+000 94116  9.1588e+000 -3.1056e+001  6.2335e+000 41498 93793,93975,93923
 3.4000e+000 94093 -1.0261e+001 -7.6210e+001  2.0681e+001 41498 93923,93975,93949
 3.4000e+000 94070 -1.2205e+000  1.7422e+000  5.3239e+000 41498 93871,93923,93897
 3.4000e+000 94047  3.2906e-001 -3.0267e+001  2.2075e+000 41498 93793,93923,93871
 3.4000e+000 94024 -4.5850e-001 -8.6773e+000 -1.9383e+000 41498 93819,93871,93845
 3.4000e+000 94001  2.3327e+000 -1.1063e+001  3.3692e+000 41498 93793,93871,93819
 3.4000e+000 94619 -2.4223e+000 -7.7286e+001 -2.0500e+001 40930 94642,94423,94371
 3.4000e+000 94596  2.2097e+001 -7.7923e+001  1.0803e+001 40930 94642,94371,94345
 3.4000e+000 94573  3.6532e+001  1.2098e+001  1.6619e+001 40930 94345,94501,94475
 3.4000e+000 94550  2.3049e+001 -1.2104e+002 -2.4295e+001 40930 94371,94423,94397
 3.4000e+000 94527  2.3695e+001 -2.9984e+001 -1.5396e+001 40930 94423,94475,94449
 3.4000e+000 94668  2.2510e+001 -2.6192e+001 -1.1953e+001 40930 94475,94423,94642
 3.4000e+000 94691  3.1386e+001 -5.8165e+001  1.5030e+001 40930 94475,94642,94345
 3.4000e+000 95148 -2.5247e+001 -8.7709e+001  2.5165e+001 40362 95171,94952,94926
 3.4000e+000 95125 -7.5713e+000 -7.2978e+001  5.3222e+001 40362 95171,94926,95004
 3.4000e+000 95102 -3.8398e+001 -1.0800e+002  3.9288e+001 40362 94874,95004,94926
 3.4000e+000 95079 -8.5076e+000 -1.1811e+002  7.5433e+001 40362 94874,95030,95004
 3.4000e+000 95056 -5.2557e+001 -1.0437e+002  7.4051e+001 40362 94874,94926,94900
 3.4000e+000 95197 -4.7056e+000 -6.2586e+001  3.4851e+001 40362 94978,94952,95171
 3.4000e+000 95220  9.9138e+000 -5.0494e+001  6.2076e+001 40362 94978,95171,95004
 3.4000e+000 95549 -6.9718e+000 -4.5503e+001  2.8602e+000 39586 95350,95402,95376
 3.4000e+000 95526  3.3433e+000 -1.2117e+001 -1.5114e+001 39586 95324,95402,95350
 3.4000e+000 95503 -1.3582e+000  2.0308e+001  9.7335e+000 39586 95324,95454,95402
 3.4000e+000 95480  2.4013e+001 -7.6686e+001  2.4041e+001 39586 95402,95454,95428
 3.4000e+000 96055  1.6119e+000 -1.1889e+001 -1.5658e+000 38968 96078,95862,95810
 3.4000e+000 96032  1.2749e+001 -8.6147e+000  2.8578e+000 38968 96078,95810,95758
 3.4000e+000 96009  1.8646e+000 -2.2545e+001 -5.6639e+000 38968 96150,95732,95888
 3.4000e+000 95986 -2.8120e+000  6.5997e+000  2.3732e+001 38968 95810,95862,95836
 3.4000e+000 95963 -1.3179e+000 -2.3852e+001 -5.5602e+000 38968 95732,95914,95888
 3.4000e+000 95940 -3.0845e+000 -8.4280e-001  1.9707e+001 38968 95758,95810,95784
 3.4000e+000 96104  9.1309e-001 -1.2410e+001 -1.3110e+000 38968 95888,95862,96078
 3.4000e+000 96127  1.7805e+000 -2.0506e+001 -3.0363e+000 38968 96150,95888,96078
 3.4000e+000 96176 -4.7773e-001 -1.5559e+001 -3.3276e+000 38968 95758,95732,96150
 3.4000e+000 96199  1.4934e+000 -1.1707e+001 -3.2178e-001 38968 95758,96150,96078
 3.4000e+000 96545  2.0710e+001 -7.8014e+001 -2.7473e+001 38507 96640,96568,96352
 3.4000e+000 96522 -3.9168e+001 -1.4997e+002  2.8005e+001 38507 96568,96300,96222
 3.4000e+000 96499  6.9980e+001 -3.4077e+001 -7.9264e+001 38507 96640,96352,96326
 3.4000e+000 96476  7.2981e+000 -1.3746e+002 -5.3193e+001 38507 96352,96404,96378
 3.4000e+000 96453 -7.1136e+001 -1.6355e+002  7.8506e+000 38507 96222,96300,96248
 3.4000e+000 96430 -3.8731e+001 -1.7498e+002 -2.8169e+001 38507 96248,96300,96274
 3.4000e+000 96594 -3.0172e+001 -1.3026e+002 -6.1019e+000 38507 96404,96352,96568
 3.4000e+000 96617 -7.3654e+000 -1.4150e+002  8.4449e+000 38507 96404,96568,96222
 3.4000e+000 96666 -1.4947e+001 -1.4948e+002  2.3493e+001 38507 96300,96568,96640
 3.4000e+000 96689  1.8167e-001 -1.2109e+002 -2.3124e+001 38507 96300,96640,96326
 3.4000e+000 97069  4.0612e+001  3.0091e+000  1.1292e+001 37760 97092,96873,96821
 3.4000e+000 97046  3.3879e+001  2.0647e-001  1.0419e+001 37760 97092,96821,96795
 3.4000e+000 97023 -7.6792e+000  2.0772e+001  1.2320e+001 37760 96821,96873,96847
 3.4000e+000 97000  3.4584e+001  7.0165e+001 -4.1468e+000 37760 96873,96925,96899
 3.4000e+000 96977  1.6134e+001  3.8630e+001  1.5698e+001 37760 96795,96951,96925
 3.4000e+000 97118  4.4847e+001  5.7987e+000  1.8914e+000 37760 96925,96873,97092
 3.4000e+000 97141  2.5783e+001 -2.2759e+000  1.3140e+000 37760 96925,97092,96795
 3.4000e+000 97647 -4.0389e+001 -1.0817e+002  2.1857e+001 37356 97324,97480,97376
 3.4000e+000 97624 -1.5879e+001 -1.3513e+002  8.3881e+001 37356 97324,97506,97480
 3.4000e+000 97601 -2.8305e+001 -3.4914e+001  3.8109e+001 37356 97376,97480,97454
 3.4000e+000 97578 -2.4932e+001 -9.1845e+001  1.2583e+001 37356 97324,97376,97350
 3.4000e+000 97555 -1.4956e+001 -4.3365e+001  1.0639e+001 37356 97376,97454,97402
 3.4000e+000 97532 -1.6147e+001 -9.4545e-001  1.5676e+001 37356 97402,97454,97428
 3.4000e+000 98232  1.7030e+001  7.7694e+000 -3.9817e+000 36902 97935,98065,98013
 3.4000e+000 98209  1.5488e+001  1.1533e+001  1.1126e-001 36902 97935,98091,98065
 3.4000e+000 98186  2.6048e+001  1.7509e+001 -9.2401e+000 36902 97935,98013,97987
 3.4000e+000 98163  1.1133e+001  2.6679e+001 -1.1709e+000 36902 97909,98091,97935
 3.4000e+000 98140  1.0637e+001  6.4530e+001  1.8832e+001 36902 97935,97987,97961
 3.4000e+000 98117  1.8466e+001  1.2733e+001 -5.4814e+000 36902 98013,98065,98039
 3.4000e+000 98659  6.8073e+000 -1.3118e+002 -2.0997e+001 36604 98682,98414,98388
 3.4000e+000 98636 -1.4384e+001 -1.3038e+002  2.4091e+001 36604 98682,98388,98336
 3.4000e+000 98613  1.5667e+001 -1.0591e+002  8.0554e+000 36604 98754,98518,98466
 3.4000e+000 98590  1.4622e+001  4.0933e+000 -1.8009e+001 36604 98414,98466,98440
 3.4000e+000 98567 -1.4317e+001 -1.5224e+002  2.2330e+001 36604 98336,98388,98362
 3.4000e+000 98544  2.3610e+001 -1.4949e+002  6.6051e+001 36604 98466,98518,98492
 3.4000e+000 98708  2.2486e+001 -8.1038e+001 -3.4575e+001 36604 98466,98414,98682
 3.4000e+000 98731  1.2848e+001 -1.0115e+002  8.4281e+000 36604 98754,98466,98682
 3.4000e+000 98780  1.3405e+001 -1.0720e+002  7.3818e+000 36604 98336,98518,98754
 3.4000e+000 98803  7.8369e+000 -1.0531e+002  6.5797e+000 36604 98336,98754,98682
 3.4000e+000 99309 -1.9432e+001 -4.2948e+001  3.0158e+000 36200 99332,99116,99012
 3.4000e+000 99286  3.5735e+000  5.9532e+001 -4.5364e+001 36200 99332,99012,98986
 3.4000e+000 99263  5.1920e+000 -3.2658e+001 -1.5185e+001 36200 99012,99116,99064
 3.4000e+000 99240  1.9997e+001  6.6528e+001 -2.3975e+000 36200 98986,99168,99142
 3.4000e+000 99217 -1.4419e+001 -1.1442e+002  2.5559e+001 36200 99064,99116,99090
 3.4000e+000 99194 -1.1832e+001 -1.5660e+001 -3.1369e+001 36200 99012,99064,99038
 3.4000e+000 99358 -2.4372e+001 -1.2166e+002  4.8821e+001 36200 99142,99116,99332
 3.4000e+000 99381 -4.8028e-001 -4.7224e+001 -9.0793e+000 36200 99142,99332,98986
 3.4000e+000 99887  2.1869e+000 -5.6046e+001  1.3534e+001 35488 99564,99720,99590
 3.4000e+000 99864  1.2191e+001 -3.1748e+001  1.1521e+001 35488 99564,99746,99720
 3.4000e+000 99841  1.8787e+001 -3.9005e+001 -2.6203e+001 35488 99642,99694,99668
 3.4000e+000 99818  8.5985e+000 -6.9943e+001  1.7821e+001 35488 99590,99694,99642
 3.4000e+000 99795  3.2289e+001 -3.9706e+001  7.2130e+000 35488 99590,99720,99694
 3.4000e+000 99772  5.4334e+001 -1.2987e+002  2.4305e+001 35488 99590,99642,99616
 3.4000e+000 99988  5.3836e+000  7.3392e+001  1.3819e-001 35198 99910,99962,99936
 3.4000e+000 100138  1.4878e+001 -3.1548e+001 -2.8824e+001 34794 100233,100161,100063
 3.4000e+000 100115 -4.2568e+001 -5.9576e+001 -4.2726e+000 34794 100365,100161,100037
 3.4000e+000 100187  3.3985e+001 -5.8500e+001 -2.5677e+001 34794 100089,100063,100161
 3.4000e+000 100210  1.0915e+001 -6.1130e+001 -2.4403e+001 34794 100089,100161,100011
 3.4000e+000 100259  2.2066e+001 -3.4102e+001  2.2917e+000 34794 100037,100161,100233
 3.4000e+000 100391 -3.7370e+000 -7.1712e+001  3.3682e+000 34794 100011,100161,100365
 3.4000e+000 100927 -4.9797e+000 -3.6125e+001  8.7306e+000 34404 100679,100809,100783
 3.4000e+000 100904  7.7919e+000 -5.1945e+001  5.6075e+000 34404 100653,100809,100679
 3.4000e+000 100881 -5.6007e-001 -2.4096e+001  5.0994e+000 34404 100705,100783,100731
 3.4000e+000 100858 -7.1402e+000 -3.3131e+001  7.1048e-001 34404 100679,100783,100705
 3.4000e+000 100835 -1.1286e+001 -3.0193e+000 -2.0035e+001 34404 100731,100783,100757
 3.4000e+000 101354 -2.4692e+001 -1.4375e+002  2.2098e+001 34000 101377,101109,101057
 3.4000e+000 101331 -5.2818e+001 -1.4935e+002  2.6099e+001 34000 101449,101377,101057
 3.4000e+000 101308 -6.3491e+001 -1.1820e+002  2.6734e+001 34000 101449,101057,101031
 3.4000e+000 101285 -5.0787e+001 -9.6605e+001  9.2595e+000 34000 101031,101213,101187
 3.4000e+000 101262 -1.1027e+001 -1.7490e+002 -2.5506e+001 34000 101135,101187,101161
 3.4000e+000 101239 -3.8612e+001 -1.2991e+002  2.0913e+001 34000 101057,101109,101083
 3.4000e+000 101403 -2.8210e+001 -1.3086e+002  9.6482e+000 34000 101135,101109,101377
 3.4000e+000 101426 -4.9988e+001 -1.3880e+002  4.4127e+000 34000 101135,101377,101187
 3.4000e+000 101475 -2.8166e+001 -1.1114e+002  1.4475e+001 34000 101187,101377,101449
 3.4000e+000 101498 -5.2582e+001 -9.7175e+001  2.0081e+001 34000 101187,101449,101031
 3.4000e+000 102083  5.7456e+001 -1.2780e+001 -5.5085e+000 33472 102106,101812,101786
 3.4000e+000 102060  2.3991e+000 -3.8941e+001  2.0561e+000 33472 102106,101786,101916
 3.4000e+000 102037 -4.6517e+001 -9.6944e+000 -1.5269e+001 33472 101812,101864,101838
 3.4000e+000 102014 -3.7172e+001 -6.2048e+001 -6.6528e+000 33472 101864,101916,101890
 3.4000e+000 101991  9.3093e-001 -6.7002e+001 -3.1770e+000 33472 101786,101942,101916
 3.4000e+000 101968 -5.3311e+000 -6.4537e+001  1.2842e+001 33472 101760,101942,101786
 3.4000e+000 102132  2.4088e+001 -8.6676e+000 -2.7272e+001 33472 101864,101812,102106
 3.4000e+000 102155  7.1000e+000 -1.6911e+001 -2.4623e+001 33472 101864,102106,101916
 3.4000e+000 102612 -1.1024e+001 -1.1296e+002 -6.9843e+001 33038 102635,102468,102390
 3.4000e+000 102589 -4.9621e+001 -1.8061e+002 -8.8997e+001 33038 102635,102390,102364
 3.4000e+000 102566  3.1057e+001 -9.6383e+001 -6.1266e+001 33038 102390,102468,102442
 3.4000e+000 102543 -1.3378e+001 -1.5853e+002 -3.8114e+001 33038 102338,102494,102364
 3.4000e+000 102520 -8.7761e+000 -1.1049e+002 -5.7812e+001 33038 102390,102442,102416
 3.4000e+000 102661 -1.3181e+001 -9.7172e+001 -2.9771e+001 33038 102494,102468,102635
 3.4000e+000 102684 -2.6853e+001 -1.3872e+002 -4.2789e+001 33038 102494,102635,102364
 3.4000e+000 103318  1.3962e+001 -7.3725e+000  8.2774e+000 32402 102972,103128,103076
 3.4000e+000 103295  2.8683e+001 -1.3640e+001  7.2124e+000 32402 102946,103128,102972
 3.4000e+000 103272 -2.4077e+000 -5.4869e+001  2.7661e+001 32402 103076,103128,103102
 3.4000e+000 103249  2.2796e+001 -1.5486e+001  1.3428e+001 32402 102946,103154,103128
 3.4000e+000 103226  1.6843e+001 -1.6135e+001  1.7557e+001 32402 102972,103076,102998
 3.4000e+000 103203  1.4273e+000 -1.7896e+001  1.8717e+001 32402 102998,103076,103050
 3.4000e+000 103180  6.8880e+000  1.1093e+001  8.7271e+000 32402 102998,103050,103024
 3.4000e+000 103696 -1.5340e+001 -1.2489e+002 -1.6444e+001 31924 103448,103526,103500
 3.4000e+000 103673 -1.9959e+001 -1.2992e+002 -2.9210e+001 31924 103448,103578,103526
 3.4000e+000 103650 -2.2727e+001 -9.7434e+001 -1.7241e+001 31924 103448,103500,103474
 3.4000e+000 103627 -1.4145e+001 -1.7925e+002 -3.1796e+001 31924 103422,103578,103448
 3.4000e+000 103604 -3.2258e+001 -2.4184e+002 -2.8135e+000 31924 103526,103578,103552
 3.4000e+000 104281  4.0271e+000  5.7220e+000  6.1475e+000 31520 104304,104062,104036
 3.4000e+000 104258  9.0897e+000  1.1944e+001  8.4984e+000 31520 104304,104036,103984
 3.4000e+000 104235  1.8260e+001  2.5727e+001  1.6850e+001 31520 104062,104114,104088
 3.4000e+000 104212  6.2584e+000  1.5614e+001  7.6669e+000 31520 103958,104114,103984
 3.4000e+000 104189  9.1317e+000  1.0603e+001 -1.5814e+000 31520 103984,104036,104010
 3.4000e+000 104166  9.6292e+000  5.2596e+000  6.9876e+000 31520 103958,104140,104114
 3.4000e+000 104330  4.3172e+000  1.2276e+001  8.6312e+000 31520 104114,104062,104304
 3.4000e+000 104353  5.1341e+000  1.4772e+001  9.5802e+000 31520 104114,104304,103984
 3.4000e+000 104704 -1.4144e+001 -2.1088e+001 -1.4784e+001 31066 104479,104583,104505
 3.4000e+000 104681  3.7921e+001 -5.3809e+000 -1.7198e+001 31066 104479,104609,104583
 3.4000e+000 104658  1.9371e+000  2.1103e+001 -6.7652e+000 31066 104505,104557,104531
 3.4000e+000 104635  1.2343e+001 -1.8154e+000 -6.2632e+000 31066 104505,104583,104557
 3.4000e+000 104925  3.0289e+001 -7.0083e+001 -1.9320e+001 30754 104775,104827,104801
 3.4000e+000 104902  2.1734e+001 -2.8289e+001 -1.5740e+001 30754 104775,104853,104827
 3.4000e+000 104879  1.8687e+000 -3.6046e+001 -5.4618e+000 30754 104749,104853,104775
 3.4000e+000 105482 -2.6912e+001 -7.3644e+001  7.1623e+000 30164 105505,105136,105110
 3.4000e+000 105459 -1.7745e+001 -8.3188e+001  1.0218e+001 30164 105649,105505,105110
 3.4000e+000 105436 -2.2844e+001 -8.3830e+001  7.1513e+000 30164 105577,105188,105136
 3.4000e+000 105413 -2.5107e+001 -8.7846e+001  1.9737e+001 30164 105649,105110,105318
 3.4000e+000 105390 -1.6104e+001 -1.5732e+002  5.6014e+001 30164 105214,105292,105240
 3.4000e+000 105367 -3.8344e+001 -1.8384e+002  7.0529e+001 30164 105240,105292,105266
 3.4000e+000 105344 -2.5591e+001 -7.7856e+001  5.6954e+000 30164 105136,105188,105162
 3.4000e+000 105531 -1.5237e+001 -8.0835e+001  5.2220e+000 30164 105577,105136,105505
 3.4000e+000 105554  2.5597e+001 -7.3937e+001  8.9615e+000 30164 105214,105505,105292
 3.4000e+000 105603 -1.9881e+001 -8.6342e+001  1.4749e+001 30164 105214,105188,105577
 3.4000e+000 105626 -1.5720e+001 -8.4959e+001  1.2969e+001 30164 105214,105577,105505
 3.4000e+000 105675 -1.1850e+001 -7.0391e+001  6.0702e+000 30164 105292,105505,105649
 3.4000e+000 105698 -1.2601e+001 -6.6777e+001  1.3902e+001 30164 105292,105649,105318
 3.4000e+000 106027  2.0582e+001 -3.7954e+001 -2.5701e-001 29868 106322,106050,105880
 3.4000e+000 106004  4.1740e+000 -2.2566e+001  1.3246e+000 29868 106250,106050,105828
 3.4000e+000 105981 -1.5515e-001 -2.5466e+001 -9.8216e-001 29868 106250,105828,105802
 3.4000e+000 105958  1.2957e+001 -4.4782e+001  4.1534e+000 29868 106322,105880,106122
 3.4000e+000 106076  1.9102e+001 -2.1795e+001 -1.3798e+001 29868 105906,105880,106050
 3.4000e+000 106099  3.1905e+000 -2.9696e+001 -9.1152e+000 29868 105906,106050,105932
 3.4000e+000 106148 -1.4531e+001 -6.9822e+001  6.6465e+000 29868 105854,105828,106122
 3.4000e+000 106276  1.1643e+000 -2.3667e+001 -8.5068e+000 29868 105932,106050,106250
 3.4000e+000 106299 -1.2092e+001 -3.1139e+001 -1.1700e+001 29868 105932,106250,105802
 3.4000e+000 106348  6.6438e+000 -2.9796e+001  4.9971e+000 29868 105828,106050,106322
 3.4000e+000 106371  8.0359e-001 -3.4289e+001  8.8313e+000 29868 105828,106322,106122
 3.4000e+000 106828  5.1465e+001  3.4468e+000  8.2508e+000 29521 106580,106710,106684
 3.4000e+000 106805  1.4125e+001 -2.8565e+001 -1.9788e+001 29521 106554,106710,106580
 3.4000e+000 106782  1.5154e+001 -2.4956e+001 -4.0746e+000 29521 106580,106684,106606
 3.4000e+000 106759  2.4327e+001 -1.2709e+001  3.4999e+000 29521 106606,106684,106658
 3.4000e+000 106736 -2.6306e+000 -3.8586e+000  5.8185e+000 29521 106606,106658,106632
 3.4000e+000 107027 -3.9016e+001 -9.5637e+001 -2.6475e+001 29117 106877,106929,106903
 3.4000e+000 107004  2.6011e+000 -7.8079e+001 -4.0905e+001 29117 106851,106929,106877
 3.4000e+000 106981  2.1663e+001 -1.3356e+002 -3.8978e+001 29117 106851,106955,106929
 3.4000e+000 107456 -8.3599e+001 -1.9504e+002 -5.2681e+001 28656 107237,107315,107263
 3.4000e+000 107433  3.5088e+001 -1.1593e+002 -1.1279e+001 28656 107133,107315,107237
 3.4000e+000 107410  2.5328e+001 -1.1270e+002 -1.1323e-001 28656 107133,107237,107159
 3.4000e+000 107387 -1.2807e+001 -3.1887e+001 -1.0342e+001 28656 107159,107237,107185
 3.4000e+000 107364 -5.1309e+000 -2.8459e+001 -9.6465e+000 28656 107185,107237,107211
 3.4000e+000 107341  5.6698e+000 -7.1006e+000 -4.1869e+000 28656 107263,107315,107289
 3.4000e+000 107704  1.8502e+001 -1.4108e+001  2.2710e-001 27902 107727,107557,107531
 3.4000e+000 107681  8.4028e+000 -1.4026e+001 -6.2966e+000 27902 107727,107531,107505
 3.4000e+000 107658  2.6338e+001 -3.3622e+001 -1.2876e+000 27902 107557,107609,107583
 3.4000e+000 107635 -1.0724e+001 -2.3894e+001 -1.5135e+000 27902 107479,107609,107505
 3.4000e+000 107753  2.9832e+001 -1.5938e+001  1.5464e+000 27902 107609,107557,107727
 3.4000e+000 107776  1.9998e+001 -1.5024e+001 -4.3973e+000 27902 107609,107727,107505
 3.4000e+000 108333 -3.0495e+001 -1.6912e+002  1.2081e+001 27341 108356,108065,108013
 3.4000e+000 108310 -2.0521e+001 -1.5247e+002 -4.0456e+001 27341 108356,108013,108143
 3.4000e+000 108287 -8.6065e+001 -1.9803e+002 -1.9979e+001 27341 108428,108117,108091
 3.4000e+000 108264 -1.6589e+001 -1.4558e+002  5.3074e+000 27341 108013,108065,108039
 3.4000e+000 108241 -4.9469e+001 -1.6150e+002 -4.7088e+001 27341 107987,108143,108013
 3.4000e+000 108218 -2.5769e+001 -1.4964e+002 -7.0360e+001 27341 107987,108169,108143
 3.4000e+000 108195 -3.6540e+001 -1.3232e+002 -6.8819e+001 27341 107961,108169,107987
 3.4000e+000 108382 -3.7847e+001 -1.7255e+002 -8.1280e+000 27341 108091,108065,108356
 3.4000e+000 108405 -8.6758e+001 -1.6464e+002 -1.7210e+001 27341 108428,108091,108356
 3.4000e+000 108454 -7.4889e+001 -2.9941e+002 -2.8712e+001 27341 108143,108117,108428
 3.4000e+000 108477 -5.6950e+001 -2.3827e+002 -3.1947e+001 27341 108143,108428,108356
 3.4000e+000 108725  3.1978e+001 -8.6294e+001  1.4723e+001 27029 108748,108526,108500
 3.4000e+000 108702  1.1656e+001 -3.8504e+001  2.6834e+001 27029 108748,108500,108630
 3.4000e+000 108679 -1.9570e+001 -6.2190e+001  1.8070e+001 27029 108578,108630,108604
 3.4000e+000 108656 -1.1567e+001 -1.0196e+002  2.2477e+001 27029 108526,108578,108552
 3.4000e+000 108774  1.2720e+001 -1.0368e+002  5.4092e+000 27029 108578,108526,108748
 3.4000e+000 108797 -2.1527e+001 -7.1916e+001  1.1234e+001 27029 108578,108748,108630
 3.4000e+000 109045 -1.4878e+000 -4.6226e+001 -7.1550e+000 26610 108872,108924,108898
 3.4000e+000 109022 -5.0368e+000 -1.0116e+002 -3.1587e+001 26610 108872,108950,108924
 3.4000e+000 108999 -3.1989e+000 -1.0641e+002 -2.5229e+001 26610 108846,108950,108872
 3.4000e+000 108976 -3.1386e+000 -1.7645e+002 -3.7135e+001 26610 108820,108950,108846
 3.4000e+000 109366  3.9912e+001 -1.7311e+002  4.1534e+000 26006 109144,109222,109196
 3.4000e+000 109343  1.9215e+001 -1.9050e+002 -3.2856e+000 26006 109118,109222,109144
 3.4000e+000 109320  2.1344e+001 -2.0906e+002  2.2597e+001 26006 109092,109222,109118
 3.4000e+000 109297  7.3636e+001 -1.5693e+002 -1.2833e+001 26006 109144,109196,109170
 3.4000e+000 109274  4.5451e+001 -7.2504e+001  2.3134e+001 26006 109092,109248,109222
 3.4000e+000 109567 -1.6467e+001 -2.9817e+001 -3.7178e+001 25659 109391,109469,109443
 3.4000e+000 109544  1.9495e+001 -2.7614e+001 -5.5563e+000 25659 109391,109495,109469
 3.4000e+000 109521 -3.6608e+001 -2.3121e+001 -1.7909e+001 25659 109391,109443,109417
 3.4000e+000 109900  6.3125e-001 -3.7146e+001 -1.1609e+001 25255 109923,109779,109753
 3.4000e+000 109877  2.8424e+000 -3.1761e+001 -1.1347e+001 25255 109923,109753,109701
 3.4000e+000 109854 -1.3134e+001 -2.3010e+001 -1.9538e+001 25255 109675,109805,109701
 3.4000e+000 109831 -1.1214e+001 -2.7996e+001 -1.2246e+001 25255 109701,109753,109727
 3.4000e+000 109949  1.2390e+000 -4.4372e+001 -1.7129e+001 25255 109805,109779,109923
 3.4000e+000 109972  5.4299e+000 -3.4619e+001 -1.6911e+001 25255 109805,109923,109701
 3.4000e+000 110220  7.0877e+000 -2.2829e+001 -2.1721e+001 24701 110243,110021,109995
 3.4000e+000 110197  5.4873e-001 -3.7312e+001 -1.9797e+001 24701 110243,109995,110099
 3.4000e+000 110174 -3.9723e+000 -2.6141e+001 -6.0266e+000 24701 110315,110073,110047
 3.4000e+000 110151 -2.4226e+001 -4.4247e+001 -1.4028e+001 24701 109995,110125,110099
 3.4000e+000 110269  2.8435e+000 -9.7529e+000 -6.9864e+000 24701 110047,110021,110243
 3.4000e+000 110292  1.7998e+000 -2.8378e+001 -9.9246e+000 24701 110315,110047,110243
 3.4000e+000 110341 -8.0557e+000 -3.4996e+001 -5.8160e-001 24701 110099,110073,110315
 3.4000e+000 110364 -2.8832e+000 -3.8818e+001 -5.7758e+000 24701 110099,110315,110243
 3.4000e+000 110661 -2.3017e+001 -1.8913e+002  3.4675e+001 24197 110684,110413,110387
 3.4000e+000 110638  9.7849e-001 -1.5670e+002  7.8781e+000 24197 110684,110387,110543
 3.4000e+000 110615  1.9879e+001 -2.4233e+002  2.7373e+001 24197 110756,110491,110465
 3.4000e+000 110592 -2.9100e+001 -1.5190e+002  4.7873e+001 24197 110413,110465,110439
 3.4000e+000 110569 -2.4803e+001 -3.8130e+002 -2.9207e+001 24197 110491,110543,110517
 3.4000e+000 110710  2.5948e+001 -1.6540e+002  4.5974e+001 24197 110465,110413,110684
 3.4000e+000 110733 -2.3741e+000 -2.1587e+002  2.2094e+001 24197 110756,110465,110684
 3.4000e+000 110782  2.8120e+001 -2.1177e+002  4.0600e+000 24197 110543,110491,110756
 3.4000e+000 110805  1.7609e+001 -1.7152e+002 -2.2450e+000 24197 110543,110756,110684
 3.4000e+000 111315  9.4066e+000 -1.1238e+002 -9.4994e+000 23593 111044,111148,111070
 3.4000e+000 111292 -2.1476e+001 -6.7544e+001  1.1893e+001 23593 111044,111174,111148
 3.4000e+000 111269  4.5937e+001 -4.2277e+001 -1.3046e+001 23593 111070,111122,111096
 3.4000e+000 111246  6.8270e+000 -8.3862e+001 -2.9739e+001 23593 111070,111148,111122
 3.4000e+000 111223 -2.8538e+001 -5.6549e+001  4.3909e-001 23593 111018,111174,111044
 3.4000e+000 111200  1.5574e+000 -7.5063e+001  4.5057e+000 23593 110992,111174,111018
 3.4000e+000 111821  1.7916e+001 -1.7540e+002 -3.5342e+000 23089 111916,111844,111628
 3.4000e+000 111798 -2.2417e+001 -2.0954e+002 -6.0993e+001 23089 111844,111550,111524
 3.4000e+000 111775  2.2738e+000 -1.4342e+002 -5.0002e+000 23089 111916,111628,111602
 3.4000e+000 111752  1.2576e+001 -3.0103e+002 -4.6048e+001 23089 111498,111680,111524
 3.4000e+000 111729 -2.3231e+000 -1.0651e+002  1.5104e+001 23089 111550,111602,111576
 3.4000e+000 111706 -4.8922e+000 -5.7670e+001 -1.5602e+001 23089 111628,111680,111654
 3.4000e+000 111870  4.7952e+001 -1.3630e+002  2.2157e+001 23089 111680,111628,111844
 3.4000e+000 111893  3.5632e+001 -1.6974e+002 -1.7118e+001 23089 111680,111844,111524
 3.4000e+000 111942  3.9945e+001 -1.3574e+002 -1.8240e+001 23089 111550,111844,111916
 3.4000e+000 111965  1.5154e+001 -1.1181e+002 -1.5576e+001 23089 111550,111916,111602
 3.4000e+000 112164 -9.5752e+000 -5.1121e+001 -2.0520e+001 22626 112187,112014,111988
 3.4000e+000 112141  6.0822e+000 -7.7532e+001 -2.1402e+001 22626 112259,112187,111988
 3.4000e+000 112118  2.2402e+000 -8.0747e+001 -1.8639e+001 22626 112259,111988,112092
 3.4000e+000 112213  6.4955e+000 -1.8573e+000 -7.0525e+000 22626 112040,112014,112187
 3.4000e+000 112236 -7.2392e+000 -6.6263e+001 -1.6362e+001 22626 112040,112187,112066
 3.4000e+000 112285  3.7297e+000 -7.2420e+001 -2.5503e+001 22626 112066,112187,112259
 3.4000e+000 112308  2.2995e+000 -7.4314e+001 -2.3162e+001 22626 112066,112259,112092
 3.4000e+000 112605 -1.0547e+001 -1.4145e+002  2.1851e+001 22286 112628,112383,112357
 3.4000e+000 112582 -5.1804e+000 -1.4123e+002  2.4173e+001 22286 112772,112628,112357
 3.4000e+000 112559 -3.3740e+001 -1.9256e+002  5.1526e+001 22286 112700,112435,112409
 3.4000e+000 112536 -4.0561e+001 -1.4819e+002  2.8595e+001 22286 112772,112357,112331
 3.4000e+000 112513 -5.5810e+001 -1.6951e+002  4.1238e+001 22286 112435,112487,112461
 3.4000e+000 112654  3.8242e+000 -8.8867e+001  2.0227e+001 22286 112409,112383,112628
 3.4000e+000 112677 -1.0773e+001 -1.5299e+002  3.8324e+001 22286 112700,112409,112628
 3.4000e+000 112726 -8.9976e+000 -1.6229e+002  2.2660e+001 22286 112487,112435,112700
 3.4000e+000 112749 -1.9003e+000 -1.5626e+002  1.2605e+001 22286 112487,112700,112628
 3.4000e+000 112798  9.6250e+000 -1.4001e+002  1.7934e+001 22286 112487,112628,112772
 3.4000e+000 112821  8.2832e-001 -1.3059e+002  2.2272e+001 22286 112487,112772,112331
 3.4000e+000 112924  5.0931e-001  5.7002e-001  7.0571e+000 21974 112846,112898,112872
 3.4000e+000 113223 -1.2576e+001 -1.8790e+002  5.1233e+000 21420 112949,113053,112975
 3.4000e+000 113200  3.2677e-001 -1.7502e+002 -1.4517e+000 21420 112949,113079,113053
 3.4000e+000 113177  1.2630e+002 -1.6240e+002  6.3969e+001 21420 112975,113053,113001
 3.4000e+000 113154 -7.9188e+001 -2.6734e+002  2.4826e+001 21420 113001,113053,113027
 3.4000e+000 113131  7.0266e+000 -7.7243e+001 -6.5362e+001 21420 112949,113105,113079
 3.4000e+000 113605 -1.9762e+001 -1.6689e+002  5.0648e+001 20716 113331,113435,113357
 3.4000e+000 113582 -2.4606e+001 -1.1520e+002  5.3672e+001 20716 113331,113461,113435
 3.4000e+000 113559 -4.7671e+000 -1.7800e+002 -2.6859e+001 20716 113383,113435,113409
 3.4000e+000 113536 -4.7271e+001 -1.4063e+002 -1.4028e+001 20716 113357,113435,113383
 3.4000e+000 113513 -2.0242e+000 -2.3584e+001 -1.6486e+001 20716 113331,113487,113461
 3.4000e+000 113853 -1.9484e+001 -2.0170e+002  6.6333e-001 20290 113876,113680,113654
 3.4000e+000 113830  2.5290e+001 -2.1391e+002 -8.5415e+000 20290 113876,113654,113628
 3.4000e+000 113807 -4.1533e+001 -2.3990e+002 -1.9126e+001 20290 113948,113732,113680
 3.4000e+000 113784  4.7861e+001 -2.1594e+002 -2.6571e+001 20290 113680,113732,113706
 3.4000e+000 113902 -2.0478e+001 -2.1093e+002 -5.9769e-002 20290 113948,113680,113876
 3.4000e+000 113925 -2.2339e+001 -2.2058e+002  5.6204e-001 20290 113758,113876,113628
 3.4000e+000 113974 -6.4481e+001 -2.1283e+002 -2.8148e+001 20290 113758,113732,113948
 3.4000e+000 113997 -6.2235e+001 -2.1004e+002 -1.3849e+001 20290 113758,113948,113876
 3.4000e+000 114365  3.5965e+000 -1.7305e+002  5.6404e-001 19900 114146,114198,114172
 3.4000e+000 114342 -8.8042e-001 -1.7501e+002  2.3049e-001 19900 114042,114198,114146
 3.4000e+000 114319  6.8341e+000 -1.6998e+002 -3.9671e+000 19900 114042,114224,114198
 3.4000e+000 114296 -5.0613e+001 -1.6749e+002 -4.7706e-001 19900 114094,114146,114120
 3.4000e+000 114273 -7.3012e-002 -1.5235e+002 -1.1332e+001 19900 114042,114146,114094
 3.4000e+000 114250 -7.6324e+001 -1.7969e+002 -1.0168e+001 19900 114042,114094,114068
 3.4000e+000 114566 -3.4434e+001 -1.6845e+002  1.5361e+000 19496 114442,114494,114468
 3.4000e+000 114543  9.3746e+000 -1.1469e+002  2.0887e+001 19496 114416,114494,114442
 3.4000e+000 114520 -4.2407e+001 -1.4536e+002  8.2080e+000 19496 114390,114494,114416
 3.4000e+000 114767 -8.1837e+000 -1.7801e+002  7.5008e+000 19042 114790,114669,114643
 3.4000e+000 114744 -2.3247e+000 -1.7580e+002  8.4622e+000 19042 114790,114643,114591
 3.4000e+000 114721  1.5332e+001 -1.7158e+002  2.8973e+001 19042 114591,114643,114617
 3.4000e+000 114816 -1.9925e+001 -1.7467e+002  6.4900e+000 19042 114695,114669,114790
 3.4000e+000 114839 -9.4142e+000 -1.6816e+002  9.5420e+000 19042 114695,114790,114591
 3.4000e+000 114991 -6.8994e+001 -1.9935e+002  4.2283e-002 18488 114864,114916,114890
 3.4000e+000 114968 -5.3159e+001 -1.9505e+002 -5.1439e+000 18488 114864,114942,114916
 3.4000e+000 115192  1.3697e+002 -1.0224e+002  1.9482e+001 18098 115215,115042,115016
 3.4000e+000 115169  7.1411e+001 -7.5333e+001 -3.2174e-001 18098 115215,115016,115120
 3.4000e+000 115146  1.0576e+002 -9.6858e+001 -4.0297e+001 18098 115287,115094,115068
 3.4000e+000 115241  9.1142e+001 -1.8897e+002 -1.2681e+000 18098 115068,115042,115215
 3.4000e+000 115264  1.0346e+002 -8.8365e+001 -1.1254e+001 18098 115287,115068,115215
 3.4000e+000 115313  6.4877e+001 -1.1247e+002 -3.8838e+001 18098 115120,115094,115287
 3.4000e+000 115336  4.8974e+001 -1.0985e+002 -1.1220e+001 18098 115120,115287,115215
 3.4000e+000 115846  7.9604e+001 -2.3628e+002 -8.3819e+001 17644 115653,115705,115679
 3.4000e+000 115823  1.6102e+001 -2.0385e+002 -4.3973e+001 17644 115627,115705,115653
 3.4000e+000 115800  8.8939e+001 -1.0953e+002 -5.4302e+000 17644 115549,115705,115627
 3.4000e+000 115777  2.6488e+001 -1.8504e+002  2.5376e+001 17644 115549,115627,115575
 3.4000e+000 115754  5.2188e+001 -1.2230e+002 -3.6557e+000 17644 115523,115705,115549
 3.4000e+000 115731 -5.5734e+001 -1.5441e+002 -1.2803e+001 17644 115575,115627,115601
 3.4000e+000 116067 -6.5421e+001 -3.3213e+002 -1.5730e+001 17116 115891,115943,115917
 3.4000e+000 116044 -1.0943e+002 -3.7209e+002  9.8632e-001 17116 115891,115995,115943
 3.4000e+000 116021 -1.1016e+002 -3.4068e+002 -1.8372e+000 17116 115943,115995,115969
 3.4000e+000 116288 -2.7158e+001 -2.6479e+002  3.8821e+001 16704 116164,116216,116190
 3.4000e+000 116265 -6.3919e+001 -3.2556e+002  2.3120e+001 16704 116112,116216,116164
 3.4000e+000 116242 -1.1586e+002 -3.1419e+002 -7.9440e+000 16704 116112,116164,116138
 3.4000e+000 116489 -1.9897e+001 -1.4855e+002 -6.1052e+000 16434 116339,116417,116365
 3.4000e+000 116466 -2.6105e+001 -1.4820e+002 -3.8104e-001 16434 116313,116417,116339
 3.4000e+000 116443 -8.2790e+001 -1.8931e+002  3.7199e+001 16434 116365,116417,116391
 3.4000e+000 116592  1.7118e+001 -2.2618e+002 -4.7900e+000 15967 116514,116566,116540
 3.4000e+000 116695 -2.1843e+001 -3.2972e+002 -4.2129e+001 15552 116617,116669,116643
 3.4000e+000 116798  4.2250e+000 -1.6304e+002  0.0000e+000 421 116720,116772,116746
 3.5000e+000 69066  2.2967e+000 -3.1108e+002 -1.3855e+001 68738 68965,69017,68991
 3.5000e+000 69043  7.0377e+001 -2.7747e+002  6.7257e+002 68738 68939,69017,68965
 3.5000e+000 69371 -1.3291e+001 -5.9548e+001 -2.0048e+001 68426 69172,69250,69198
 3.5000e+000 69348  9.7276e-001 -1.1327e+002  9.8884e+000 68426 69146,69250,69172
 3.5000e+000 69325 -4.0810e+000 -2.0078e+001  8.5728e+000 68426 69198,69250,69224
 3.5000e+000 69302 -3.0657e+001 -1.0457e+002  6.2786e+000 68426 69146,69276,69250
 3.5000e+000 69521  8.1992e+000 -3.8014e+001 -1.5389e+001 68228 69420,69472,69446
 3.5000e+000 69498 -8.7580e+000 -2.6546e+001 -3.0016e+001 68228 69394,69472,69420
 3.5000e+000 69781 -1.2557e+001  2.3253e+001  1.0247e+001 68030 69631,69683,69657
 3.5000e+000 69758  5.7231e+000 -2.8438e+001 -1.1223e+001 68030 69631,69709,69683
 3.5000e+000 69735 -1.6562e+000  1.6976e+001  2.7227e+001 68030 69605,69709,69631
 3.5000e+000 70078  9.0421e-001  2.7152e+001 -6.7768e+000 67832 69882,69934,69908
 3.5000e+000 70055 -6.2401e+000 -3.8381e+000  1.0285e+001 67832 69856,69934,69882
 3.5000e+000 70032 -1.6279e-002 -1.4851e+001 -2.5823e+000 67832 69830,69934,69856
 3.5000e+000 70009  2.6621e+000 -8.9665e+000 -1.1222e+001 67832 69804,69934,69830
 3.5000e+000 69986 -9.3164e+000  3.2407e+001  8.9961e+000 67832 69804,69960,69934
 3.5000e+000 70586 -6.4137e+000 -4.6619e+001  1.1803e+001 67634 70609,70419,70341
 3.5000e+000 70563 -1.9810e+000 -7.9825e+001  2.3185e+001 67634 70681,70609,70341
 3.5000e+000 70540 -8.4404e+000 -8.3052e+001  2.4932e+001 67634 70681,70341,70315
 3.5000e+000 70517 -1.4835e+001 -3.6716e+001  2.9235e+001 67634 70341,70419,70367
 3.5000e+000 70494 -1.7890e+001  2.6784e+001 -8.8636e+000 67634 70263,70445,70289
 3.5000e+000 70471  9.0769e+000  5.6348e+000  1.6175e+001 67634 70367,70419,70393
 3.5000e+000 70635  7.0995e-001  3.1337e+001  7.0486e+000 67634 70445,70419,70609
 3.5000e+000 70658 -1.8303e+001 -5.3404e+001  1.7928e+001 67634 70445,70609,70289
 3.5000e+000 70707 -1.3628e+000 -6.8231e+001  5.8876e+000 67634 70289,70609,70681
 3.5000e+000 70730 -2.0613e+001 -7.7808e+001  9.2604e+000 67634 70289,70681,70315
 3.5000e+000 71108  1.4372e+001  2.0486e+001  2.5474e+000 67344 71131,70912,70886
 3.5000e+000 71085 -1.1226e+001 -4.3966e+001  1.2612e+001 67344 71131,70886,70860
 3.5000e+000 71062 -2.1473e+001 -4.1710e+001  2.5023e+001 67344 71203,70938,70912
 3.5000e+000 71039  2.0219e+001 -3.1752e+001  1.8908e+001 67344 70834,70990,70860
 3.5000e+000 71016 -6.3157e+000 -6.2221e+001  9.3439e+000 67344 70938,70990,70964
 3.5000e+000 71157 -1.7013e+001 -3.1041e+001  2.3753e+001 67344 71203,70912,71131
 3.5000e+000 71180  8.8227e+000 -3.7370e+001  1.6405e+001 67344 70990,71131,70860
 3.5000e+000 71229 -7.6991e+000 -6.9616e+001  1.9625e+001 67344 70990,70938,71203
 3.5000e+000 71252  3.2905e+000 -5.0446e+001  1.4800e+001 67344 70990,71203,71131
 3.5000e+000 71603  4.9788e+000 -5.7806e+001  1.0069e+001 67032 71378,71482,71404
 3.5000e+000 71580 -3.1246e-001 -3.4554e+001  1.4618e+001 67032 71378,71508,71482
 3.5000e+000 71557  2.6383e+000 -3.2593e+001  2.6464e+001 67032 71404,71456,71430
 3.5000e+000 71534 -1.6892e+000 -7.2120e+001  1.2156e+001 67032 71404,71482,71456
 3.5000e+000 72003  2.2165e+001 -1.2683e+001  1.6224e+001 66834 71755,71859,71781
 3.5000e+000 71980  1.1442e+001 -1.0429e+002  2.0141e+000 66834 71755,71885,71859
 3.5000e+000 71957  2.1642e+000 -9.1348e+000 -6.3612e-001 66834 71781,71833,71807
 3.5000e+000 71934 -9.0519e+000 -1.1244e+002 -1.2672e+001 66834 71781,71859,71833
 3.5000e+000 71911  3.8155e+001 -2.5922e+001  4.1548e+001 66834 71729,71885,71755
 3.5000e+000 72430  2.2694e+001 -3.9289e+001 -3.7440e+000 66266 72237,72289,72263
 3.5000e+000 72407  1.5002e+001 -5.9984e+001  4.5281e+000 66266 72133,72289,72237
 3.5000e+000 72384 -6.8704e-001 -2.9490e+001 -2.0125e+000 66266 72133,72237,72211
 3.5000e+000 72361 -1.6239e+001 -8.3900e+001 -7.4415e+000 66266 72107,72289,72133
 3.5000e+000 72338 -1.5336e+001 -7.0850e+001  3.0955e+001 66266 72133,72211,72185
 3.5000e+000 72315 -6.1449e+000 -9.2623e+001  2.7186e+001 66266 72133,72185,72159
 3.5000e+000 72580 -5.2316e+000 -5.9976e+001  3.2013e+000 65968 72479,72531,72505
 3.5000e+000 72557  1.1262e+000 -2.9688e+001  1.7843e+000 65968 72453,72531,72479
 3.5000e+000 72960  2.1419e+001  4.5959e+001  3.6551e+000 65621 72983,72738,72712
 3.5000e+000 72937  6.2469e+001 -1.7974e+001  1.6022e+000 65621 72983,72712,72686
 3.5000e+000 72914  1.5868e+001 -7.5621e+001 -2.1035e+000 65621 72738,72842,72764
 3.5000e+000 72891 -5.2936e+000 -8.5136e+001 -9.4952e-002 65621 72764,72842,72816
 3.5000e+000 72868 -5.0819e+001 -2.0221e+002  2.9545e+001 65621 72764,72816,72790
 3.5000e+000 73009  3.1265e+001 -3.1940e+000  1.3401e+001 65621 72842,72738,72983
 3.5000e+000 73032  2.9679e+001 -1.2254e+002  1.8493e+001 65621 72842,72983,72686
 3.5000e+000 73361  1.1603e+001 -2.3974e+002 -5.7882e+000 65281 73456,73384,73188
 3.5000e+000 73338 -9.6549e+000 -1.9392e+002  2.5469e+001 65281 73384,73162,73136
 3.5000e+000 73315 -1.0797e+001 -8.0769e+001  5.4204e+000 65281 73188,73240,73214
 3.5000e+000 73292  1.4956e+001 -1.4078e+001 -1.9399e+001 65281 73136,73266,73240
 3.5000e+000 73410 -4.3720e+001 -2.1144e+002 -1.3615e+001 65281 73240,73188,73384
 3.5000e+000 73433 -2.0445e+001 -3.9222e+001  4.9187e+000 65281 73240,73384,73136
 3.5000e+000 73482 -3.3355e+000 -3.0477e+002 -2.7086e+001 65281 73162,73384,73456
 3.5000e+000 73711 -3.2683e+000  2.1172e+001 -3.6615e+001 64820 73734,73610,73584
 3.5000e+000 73688 -1.7795e+001 -1.3036e+001 -3.5858e+001 64820 73734,73584,73662
 3.5000e+000 73760  1.6431e+001  3.4869e+001  5.4522e+000 64820 73636,73610,73734
 3.5000e+000 73783 -3.8161e+001 -5.4647e-002 -1.4491e+001 64820 73806,73734,73662
 3.5000e+000 73832 -1.4801e+001 -2.0834e+001 -8.5730e+000 64820 73636,73734,73806
 3.5000e+000 74112  1.3202e+001 -1.0149e+001 -1.4319e+001 64622 74278,74135,73988
 3.5000e+000 74089 -2.5755e-001 -3.5088e+001  2.7824e+000 64622 74135,73936,74040
 3.5000e+000 74066  1.5766e+001 -8.7481e+000 -2.8786e+001 64622 74278,73988,73962
 3.5000e+000 74161 -1.4293e+001 -2.7732e+001 -6.7745e+000 64622 74014,73988,74135
 3.5000e+000 74184  1.2612e-002 -3.1098e+001  4.8911e-001 64622 74207,74135,74040
 3.5000e+000 74233  4.1596e+000 -2.4028e+001 -6.0507e+000 64622 74014,74135,74207
 3.5000e+000 74304  6.1014e-001 -4.0351e+001 -3.2436e-001 64622 73936,74135,74278
 3.5000e+000 74327  1.3705e+001 -3.0410e+001 -1.6361e+001 64622 73936,74278,73962
 3.5000e+000 74526  1.6572e+001  1.9494e+001  2.4472e+000 64424 74621,74549,74402
 3.5000e+000 74503 -1.0455e+001 -2.1265e+001  1.1692e+001 64424 74549,74350,74454
 3.5000e+000 74480  2.4700e+001  3.0264e+001 -1.1315e+001 64424 74621,74402,74376
 3.5000e+000 74575  3.1095e+001 -1.8272e+001  1.3321e+001 64424 74428,74402,74549
 3.5000e+000 74598  8.9669e+000 -3.8947e+001  1.6943e+001 64424 74693,74549,74454
 3.5000e+000 74647  2.2579e+000 -2.8327e+000  1.9836e+001 64424 74350,74549,74621
 3.5000e+000 74670  1.2963e+001  5.6804e+000  5.6666e+000 64424 74350,74621,74376
 3.5000e+000 74719  5.6281e+000 -6.1891e+001 -1.5454e+000 64424 74428,74549,74693
 3.5000e+000 75123 -2.2864e+001 -1.9494e+002  3.9848e+001 64126 74875,74953,74927
 3.5000e+000 75100 -1.2270e+001 -1.9674e+002  2.4199e+001 64126 74875,74979,74953
 3.5000e+000 75077 -2.3093e+000 -1.1003e+002 -5.1556e+000 64126 74875,75005,74979
 3.5000e+000 75054 -1.6624e+000 -2.4910e+002  6.5532e+001 64126 74875,74927,74901
 3.5000e+000 75031 -4.0318e+001 -4.6040e+001  2.1760e+001 64126 74849,75005,74875
 3.5000e+000 75224 -1.4997e+001 -1.2223e+002  1.3389e+001 63836 75146,75198,75172
 3.5000e+000 75472  1.3308e+001 -5.2100e+001  2.3901e+001 63375 75273,75351,75325
 3.5000e+000 75449 -1.7641e+001 -5.6457e+001  1.3983e+001 63375 75273,75377,75351
 3.5000e+000 75426 -3.7854e+001 -7.2150e+001  6.0922e+000 63375 75247,75377,75273
 3.5000e+000 75403  2.7198e+001 -2.8148e+001  1.8218e+001 63375 75273,75325,75299
 3.5000e+000 75673  2.1818e+001 -5.1815e+001  1.4500e+001 63063 75523,75575,75549
 3.5000e+000 75650  1.6957e+001 -9.4943e+001 -6.8525e+000 63063 75497,75575,75523
 3.5000e+000 75627  1.8237e+001 -1.0509e+002  1.5991e+001 63063 75497,75601,75575
 3.5000e+000 75874  2.5434e+001 -1.0223e+002 -9.8494e+000 62716 75897,75750,75724
 3.5000e+000 75851  1.4816e+001 -8.4725e+001 -5.2851e+000 62716 75897,75724,75698
 3.5000e+000 75828  2.0377e+000 -6.4317e+001 -2.9215e+001 62716 75698,75802,75776
 3.5000e+000 75923  4.0671e+001 -8.1870e+001 -1.8604e+001 62716 75776,75750,75897
 3.5000e+000 75946  1.8673e+001 -7.5243e+001 -7.9781e+000 62716 75776,75897,75698
 3.5000e+000 76328 -1.8742e+001 -1.0912e+002 -9.4095e-001 62198 76495,76351,76158
 3.5000e+000 76305 -3.3348e+001 -1.1431e+002  9.8351e-001 62198 76351,76080,76054
 3.5000e+000 76282 -8.0890e+000 -1.6653e+002 -4.7194e+000 62198 76423,76184,76158
 3.5000e+000 76259 -2.0568e+001 -1.0822e+002 -2.1228e-001 62198 76495,76158,76106
 3.5000e+000 76236 -4.1413e+001 -1.6425e+002  2.6302e+001 62198 76106,76158,76132
 3.5000e+000 76377 -2.7570e+001 -1.2933e+002 -9.7136e+000 62198 76423,76158,76351
 3.5000e+000 76400 -3.3262e+001 -1.0015e+002 -1.4856e+001 62198 76210,76351,76054
 3.5000e+000 76449  1.2518e+001 -1.3124e+002 -1.3293e+001 62198 76210,76184,76423
 3.5000e+000 76472 -4.9320e+000 -9.8933e+001 -2.0509e+001 62198 76210,76423,76351
 3.5000e+000 76521 -2.1548e+001 -1.0893e+002 -4.4853e-001 62198 76080,76351,76495
 3.5000e+000 76544 -2.5055e+001 -1.0961e+002  7.2430e-001 62198 76080,76495,76106
 3.5000e+000 76841  6.3241e+000 -1.1576e+002  1.7845e+001 61751 76936,76864,76645
 3.5000e+000 76818  5.0517e+001 -1.0314e+002 -3.5413e+001 61751 76864,76567,76723
 3.5000e+000 76795  1.5553e+001 -6.9280e+001  1.6988e+001 61751 76936,76645,76593
 3.5000e+000 76772 -1.1488e+002 -2.8227e+002  6.6797e+001 61751 77008,76697,76671
 3.5000e+000 76749 -5.5308e+000 -4.1049e+001 -1.4729e+001 61751 76593,76645,76619
 3.5000e+000 76890 -8.9704e+000 -1.5592e+002  3.4047e+001 61751 76671,76645,76864
 3.5000e+000 76913 -2.6428e+001 -1.5294e+002  2.0706e+001 61751 77008,76671,76864
 3.5000e+000 76962  2.6700e+001 -1.7783e+002 -5.3510e+000 61751 76567,76864,76936
 3.5000e+000 76985  3.3306e+001 -1.3829e+002 -1.0453e+000 61751 76567,76936,76593
 3.5000e+000 77034  1.5145e+001 -1.9859e+002 -2.6393e+001 61751 76723,76697,77008
 3.5000e+000 77057  4.0481e+000 -2.1221e+002 -2.1497e+001 61751 76723,77008,76864
 3.5000e+000 77207 -1.2992e+001 -5.0509e+001  1.7449e+001 61418 77106,77158,77132
 3.5000e+000 77184  4.8382e+001 -1.2026e+002  2.8801e+001 61418 77080,77158,77106
 3.5000e+000 77638  1.1911e+001 -1.2847e+002 -1.8865e+001 60814 77733,77661,77471
 3.5000e+000 77615 -2.7916e+000 -1.2044e+002 -1.2889e+001 60814 77661,77393,77315
 3.5000e+000 77592  1.4449e+001 -1.0918e+002 -9.7021e+000 60814 77733,77471,77445
 3.5000e+000 77569 -4.9351e+001 -2.7912e+002 -4.3171e+001 60814 77315,77367,77341
 3.5000e+000 77546 -4.8383e+000 -2.0101e+002 -2.2533e+001 60814 77315,77393,77367
 3.5000e+000 77523  2.6038e+000 -6.3308e+001 -2.2826e+001 60814 77393,77445,77419
 3.5000e+000 77687 -9.2752e+000 -1.3636e+002 -2.9359e+001 60814 77497,77471,77661
 3.5000e+000 77710 -3.4264e+000 -1.2306e+002 -1.1054e+001 60814 77497,77661,77315
 3.5000e+000 77759 -4.6362e-001 -9.7145e+001 -1.4541e+001 60814 77393,77661,77733
 3.5000e+000 77782  5.0881e+000 -7.9015e+001 -2.3612e+000 60814 77393,77733,77445
 3.5000e+000 78337  1.0019e+001 -4.6091e+001  4.5593e+000 60210 78360,78017,77965
 3.5000e+000 78314  4.7692e+000 -3.6304e+001  8.3199e+000 60210 78360,77965,78173
 3.5000e+000 78291 -5.7403e+000 -6.3316e+001 -1.1731e+001 60210 78432,78043,78017
 3.5000e+000 78268 -4.4184e+000 -7.5519e+001 -1.2042e-002 60210 77965,78017,77991
 3.5000e+000 78245 -1.3378e+000 -3.2566e+001 -1.5164e-001 60210 78043,78095,78069
 3.5000e+000 78222 -6.1075e+000 -6.2663e+001  1.0057e+001 60210 78095,78173,78121
 3.5000e+000 78199 -2.7311e+000 -4.9245e+001 -7.3208e+000 60210 78121,78173,78147
 3.5000e+000 78386 -1.0343e+000 -5.7830e+001 -2.5223e-001 60210 78432,78017,78360
 3.5000e+000 78409  3.0192e+000 -4.1410e+001  7.6872e+000 60210 78095,78360,78173
 3.5000e+000 78458  3.4486e+000 -4.7349e+001 -3.7979e+000 60210 78095,78043,78432
 3.5000e+000 78481  7.1365e+000 -3.9777e+001  7.2599e+000 60210 78095,78432,78360
 3.5000e+000 78680 -2.8279e+001 -6.0399e+001 -4.2777e+000 59848 78703,78556,78530
 3.5000e+000 78657 -2.7754e+001 -8.7331e+001 -3.3183e+001 59848 78703,78530,78504
 3.5000e+000 78634 -3.1686e+001 -1.6466e+002 -1.9653e+001 59848 78504,78608,78582
 3.5000e+000 78729 -2.2632e+001 -1.1712e+002 -3.4182e-001 59848 78582,78556,78703
 3.5000e+000 78752 -2.0963e+001 -1.2495e+002 -3.9349e+001 59848 78582,78703,78504
 3.5000e+000 78951  2.4083e-001 -2.7637e+001 -8.2711e+000 59344 78974,78801,78775
 3.5000e+000 78928 -2.4067e+001 -9.0460e+001 -2.1113e+001 59344 79046,78974,78775
 3.5000e+000 78905 -1.5590e+001 -1.4570e+002 -1.9065e+001 59344 79046,78775,78879
 3.5000e+000 79000  1.0587e+001 -1.3983e+001  2.6653e+001 59344 78827,78801,78974
 3.5000e+000 79023 -1.0906e+001 -2.3576e+001  3.1387e+000 59344 78827,78974,78853
 3.5000e+000 79072 -2.7818e+001 -2.8181e+001 -2.5616e-002 59344 78853,78974,79046
 3.5000e+000 79095 -2.2061e+000 -6.3229e+001  5.5184e+000 59344 78853,79046,78879
 3.5000e+000 79296  1.8044e+001 -3.9148e+001  9.3934e+000 58711 79319,79172,79146
 3.5000e+000 79273  1.6450e+001 -5.7965e+001  3.3914e+000 58711 79319,79146,79120
 3.5000e+000 79250  1.1853e+000 -1.1764e+002  3.8342e+001 58711 79172,79224,79198
 3.5000e+000 79345  2.3853e+001 -5.8882e+001  1.0456e+001 58711 79224,79172,79319
 3.5000e+000 79368  2.4528e+001 -7.5857e+001  7.3922e+000 58711 79224,79319,79120
 3.5000e+000 79667  5.2672e+000 -5.7223e+001 -3.5982e+000 58285 79690,79471,79393
 3.5000e+000 79644  1.1586e+001 -8.1991e+001 -1.7648e+001 58285 79690,79393,79549
 3.5000e+000 79621  3.4337e+001 -9.3191e+001  2.4571e+001 58285 79393,79471,79419
 3.5000e+000 79598  1.8588e+001 -4.6172e+001 -3.4973e+000 58285 79497,79549,79523
 3.5000e+000 79575 -7.6779e+000 -1.6764e+002  4.3464e+001 58285 79419,79471,79445
 3.5000e+000 79716  1.3158e+001 -3.6732e+001  7.9004e+000 58285 79497,79471,79690
 3.5000e+000 79739  2.1530e+001 -6.8618e+001 -3.2310e+000 58285 79497,79690,79549
 3.5000e+000 80249  1.3034e+001  2.1857e+001  1.9082e+001 57831 80272,79978,79952
 3.5000e+000 80226 -1.0300e+000  2.8606e+001  3.7057e-001 57831 80272,79952,80108
 3.5000e+000 80203  7.1293e-001 -1.9211e+000 -1.4561e+001 57831 79926,80108,79952
 3.5000e+000 80180 -1.2164e+000  1.1756e+000  5.8088e+000 57831 80004,80082,80030
 3.5000e+000 80157 -8.3023e+000  2.8099e+000 -1.1280e+000 57831 80004,80108,80082
 3.5000e+000 80134  2.0265e+000 -2.6652e-001  7.3358e-001 57831 80030,80082,80056
 3.5000e+000 80298 -4.6578e+000 -1.9332e+001  1.8083e+001 57831 80004,79978,80272
 3.5000e+000 80321 -5.3967e+000  1.4888e+001  7.0369e-001 57831 80004,80272,80108
 3.5000e+000 80618 -1.5168e+001 -1.1394e+002  2.1891e+000 57077 80344,80448,80422
 3.5000e+000 80595 -3.9165e+000 -1.0975e+002  2.5219e+000 57077 80344,80500,80448
 3.5000e+000 80572  1.5149e+001 -5.1067e+001 -7.9147e+000 57077 80344,80422,80370
 3.5000e+000 80549 -1.0610e+001 -4.1389e+001 -1.7597e+000 57077 80370,80422,80396
 3.5000e+000 80526 -3.9808e+001 -1.9738e+002  2.1287e+001 57077 80448,80500,80474
 3.5000e+000 80768 -1.1959e+001 -2.6083e+001 -6.8935e-001 56787 80791,80693,80667
 3.5000e+000 80745 -1.3973e+001 -2.8332e+001 -2.4666e+000 56787 80791,80667,80641
 3.5000e+000 80817 -8.4244e+000 -2.7397e+001 -4.4759e+000 56787 80719,80693,80791
 3.5000e+000 80840 -2.4587e+001 -4.1874e+001 -1.0576e+001 56787 80719,80791,80641
 3.5000e+000 81429 -1.2743e+001 -2.8205e+001  8.6212e+000 56497 81452,81158,81132
 3.5000e+000 81406  9.6835e+000 -3.7250e+001  3.6155e+000 56497 81452,81132,81288
 3.5000e+000 81383 -1.0459e+001 -2.0463e+001 -1.0802e+001 56497 81524,81184,81158
 3.5000e+000 81360 -8.7731e-001 -9.0618e+001 -1.2088e+001 56497 81210,81288,81236
 3.5000e+000 81337 -9.1710e-001 -4.4042e+001 -1.1975e-001 56497 81106,81288,81132
 3.5000e+000 81314 -1.1245e+001 -2.2169e+001 -2.4643e+001 56497 81236,81288,81262
 3.5000e+000 81478 -6.5829e+000 -3.2187e+001  1.3700e+000 56497 81524,81158,81452
 3.5000e+000 81501  2.8022e+001 -2.9178e+001  9.6139e+000 56497 81210,81452,81288
 3.5000e+000 81550 -4.5263e+000 -8.2839e+000 -7.2284e+000 56497 81210,81184,81524
 3.5000e+000 81573  6.1191e+000 -6.9389e+000  6.6036e+000 56497 81210,81524,81452
 3.5000e+000 81870  8.5438e+000 -3.1442e+001  1.3172e+001 55979 81893,81674,81648
 3.5000e+000 81847 -3.3020e+000 -3.5065e+001  1.6988e+001 55979 81893,81648,81752
 3.5000e+000 81824 -8.2774e+000 -2.9080e+001  1.5092e+001 55979 81596,81752,81648
 3.5000e+000 81801  2.5340e+001  4.2115e+000  3.6764e+000 55979 81674,81726,81700
 3.5000e+000 81778 -1.1858e+001 -3.7919e+001  1.8557e+001 55979 81596,81648,81622
 3.5000e+000 81919  1.6087e+001 -3.0799e+001  4.3528e+000 55979 81726,81674,81893
 3.5000e+000 81942  9.5480e-001 -3.4929e+001  7.4890e+000 55979 81726,81893,81752
 3.5000e+000 82371 -3.1166e+001 -4.6797e+001 -1.3722e+001 55631 82100,82204,82152
 3.5000e+000 82348  1.1136e+001 -6.8910e+001 -2.3513e+001 55631 82100,82230,82204
 3.5000e+000 82325  3.1701e+001 -2.0759e+001 -1.4688e+001 55631 82100,82152,82126
 3.5000e+000 82302 -1.1784e+001 -1.1816e+002 -1.2526e+001 55631 82074,82230,82100
 3.5000e+000 82279 -3.6736e+001 -6.8867e+001 -2.7080e+001 55631 82152,82204,82178
 3.5000e+000 82256  8.2726e-001 -4.6746e+001 -5.7415e+000 55631 82048,82230,82074
 3.5000e+000 82521  3.9753e+001 -4.5261e+001 -2.6023e+000 55227 82544,82420,82394
 3.5000e+000 82498  3.7568e+001 -6.8099e+001  5.9406e-001 55227 82544,82394,82472
 3.5000e+000 82570  3.0663e+001 -2.6980e+001 -2.0767e+000 55227 82446,82420,82544
 3.5000e+000 82593  3.0603e+001 -4.4622e+001  7.0959e+000 55227 82446,82544,82472
 3.5000e+000 82875  8.9710e+000 -2.5818e+000  5.4081e+000 54979 82699,82777,82725
 3.5000e+000 82852 -5.8915e+000  1.7736e+001  8.6059e+000 54979 82699,82803,82777
 3.5000e+000 82829 -2.4482e+000 -6.7067e+000  3.9325e+000 54979 82725,82777,82751
 3.5000e+000 83204 -4.9729e-001 -1.2872e+001 -3.6607e+000 54475 83005,83083,83057
 3.5000e+000 83181 -3.5869e+000 -1.8767e+001  8.4057e-001 54475 82979,83083,83005
 3.5000e+000 83158 -8.8200e-001 -6.1208e+000 -2.6841e+000 54475 83005,83057,83031
 3.5000e+000 83135  5.3008e-002 -1.0300e+001 -1.7029e+000 54475 82979,83109,83083
 3.5000e+000 83582  7.4250e+000 -1.5830e+001 -7.4873e+000 54071 83605,83438,83412
 3.5000e+000 83559  4.6993e-001 -2.2904e+001 -5.4459e-001 54071 83749,83605,83412
 3.5000e+000 83536 -1.2804e+001 -4.6458e+001  1.1615e+001 54071 83677,83360,83334
 3.5000e+000 83513  1.9750e+000 -2.4279e+001 -9.0817e-001 54071 83749,83412,83677
 3.5000e+000 83490 -5.3577e+000 -3.0449e+001  2.8853e+000 54071 83308,83464,83334
 3.5000e+000 83631 -2.5175e+000 -2.1949e+001 -2.4897e+000 54071 83464,83438,83605
 3.5000e+000 83654 -1.4785e+000 -2.7652e+001  4.1509e+000 54071 83464,83605,83334
 3.5000e+000 83703 -3.6279e+000 -2.6609e+001 -6.6565e+000 54071 83386,83360,83677
 3.5000e+000 83726  3.7553e+000 -2.9900e-001 -1.4474e+001 54071 83386,83677,83412
 3.5000e+000 83775  3.0680e+000 -2.1108e+001  2.4672e-001 54071 83334,83605,83749
 3.5000e+000 83798  4.7997e+000 -2.2391e+001 -8.6842e-002 54071 83334,83749,83677
 3.5000e+000 84068  8.8388e+000  8.5543e+000 -9.0556e+000 53524 83869,83921,83895
 3.5000e+000 84045  1.1642e+001 -3.7744e+001  3.8548e+000 53524 83869,83947,83921
 3.5000e+000 84022 -2.8939e+000 -5.5706e+001 -2.5847e+000 53524 83843,83947,83869
 3.5000e+000 83999  1.2698e+001 -5.5336e+001 -1.6429e+000 53524 83843,83973,83947
 3.5000e+000 84497 -1.9579e+001 -1.1940e+002  6.4069e+000 53184 84200,84330,84252
 3.5000e+000 84474  1.0778e-001 -5.8355e+001  1.7245e+001 53184 84200,84356,84330
 3.5000e+000 84451  5.0207e+000 -7.0628e+001  1.6662e+001 53184 84200,84252,84226
 3.5000e+000 84428 -9.3759e+000 -8.1624e+001 -3.1845e+001 53184 84252,84330,84278
 3.5000e+000 84405 -2.1606e+000 -6.2423e+001  2.4228e+001 53184 84174,84356,84200
 3.5000e+000 84382  4.6105e-001 -8.2862e+001 -4.8158e+000 53184 84278,84330,84304
 3.5000e+000 84954 -1.8250e+000 -5.6904e+001  2.9397e+001 52680 84706,84836,84784
 3.5000e+000 84931  7.9483e+000 -4.1481e+001 -8.3242e+000 52680 84680,84836,84706
 3.5000e+000 84908  3.0893e+000 -2.0989e+002 -2.3831e+000 52680 84784,84836,84810
 3.5000e+000 84885 -1.1015e+001 -2.1231e+002  2.8677e+000 52680 84706,84784,84732
 3.5000e+000 84862  2.4081e+000 -2.2559e+002  2.6167e+001 52680 84732,84784,84758
 3.5000e+000 85202 -1.5441e+001 -1.0274e+002 -1.4297e+000 52226 85029,85081,85055
 3.5000e+000 85179 -1.0641e+001 -7.6757e+001  5.9443e+000 52226 85225,85081,85029
 3.5000e+000 85156  4.0785e-001 -4.9317e+001  2.2834e+001 52226 85225,85029,85003
 3.5000e+000 85133 -4.2048e+001 -8.5101e+001 -2.6439e+001 52226 84977,85107,85003
 3.5000e+000 85251 -2.3324e+001 -8.2088e+001 -2.2211e+001 52226 85107,85081,85225
 3.5000e+000 85274 -2.5404e+001 -2.6012e+001 -9.5939e+000 52226 85107,85225,85003
 3.5000e+000 85522  2.3814e+001 -7.3886e+001  1.7191e+001 51764 85297,85349,85323
 3.5000e+000 85499  3.7344e+001 -7.1986e+001  9.3371e+000 51764 85545,85297,85427
 3.5000e+000 85476  1.2469e+001 -5.2205e+001 -3.0445e+000 51764 85545,85427,85375
 3.5000e+000 85453  1.9820e+001 -5.3118e+001 -1.2177e+001 51764 85375,85427,85401
 3.5000e+000 85571  5.1209e+001 -6.0623e+001  3.1779e+000 51764 85349,85297,85545
 3.5000e+000 85594  3.5890e+001 -3.3605e+001 -1.1784e+001 51764 85349,85545,85375
 3.5000e+000 85746 -3.8139e+001 -8.8253e+001  3.6975e+000 51374 85645,85697,85671
 3.5000e+000 85723 -4.6411e+001 -9.3900e+001 -3.4818e+000 51374 85619,85697,85645
 3.5000e+000 86256  1.7546e+001  1.0999e+000  8.9115e+000 50970 86279,86011,85959
 3.5000e+000 86233  1.1033e+001  1.0722e+001  7.7574e+000 50970 86279,85959,86115
 3.5000e+000 86210  1.0413e+001 -1.9414e+001 -1.3455e+000 50970 85959,86011,85985
 3.5000e+000 86187  1.3427e+001  1.4398e+001 -1.5537e+001 50970 86037,86115,86089
 3.5000e+000 86164 -1.3201e-001  4.9124e+000 -1.8340e-001 50970 85933,86115,85959
 3.5000e+000 86141  5.8867e+000 -2.6529e+001 -1.9085e+001 50970 86037,86089,86063
 3.5000e+000 86305  1.4040e+001 -7.4599e+000  6.8564e+000 50970 86037,86011,86279
 3.5000e+000 86328  7.9451e+000  2.7696e+000  5.7482e+000 50970 86037,86279,86115
 3.5000e+000 86478 -2.2519e+001 -1.4728e+002  1.4579e+001 50451 86351,86403,86377
 3.5000e+000 86455 -7.0851e+001 -4.5348e+002 -6.7451e+000 50451 86351,86429,86403
 3.5000e+000 86907 -1.4068e+000 -1.5399e+001 -8.3608e+000 50047 86930,86714,86662
 3.5000e+000 86884  1.0310e+001 -4.4087e+001 -1.0919e+001 50047 86930,86662,86610
 3.5000e+000 86861  3.9489e+001 -5.5537e+001 -1.9641e+001 50047 87002,86740,86714
 3.5000e+000 86838  2.3641e+001 -3.5064e+000 -2.0153e+001 50047 86662,86714,86688
 3.5000e+000 86815  4.7772e+000 -5.5100e+001 -8.5116e+000 50047 86610,86662,86636
 3.5000e+000 86792  1.9138e+001 -6.6065e+001  1.4148e+001 50047 86584,86766,86610
 3.5000e+000 86956  2.1304e+001 -3.5262e+001 -6.3655e+000 50047 87002,86714,86930
 3.5000e+000 86979 -6.1022e+000 -7.8982e+001  1.0370e+000 50047 86766,86930,86610
 3.5000e+000 87028  7.3380e+000 -4.3971e+001 -2.2932e+001 50047 86766,86740,87002
 3.5000e+000 87051 -1.8210e+000 -4.0503e+001 -1.3279e+001 50047 86766,87002,86930
 3.5000e+000 87250 -2.1096e+000 -9.6739e+001 -2.4159e+001 49543 87273,87126,87100
 3.5000e+000 87227  8.8088e-001 -6.9590e+001 -5.4182e+000 49543 87273,87100,87074
 3.5000e+000 87204  1.3741e+001 -8.9063e+001 -1.8068e+001 49543 87126,87178,87152
 3.5000e+000 87299  6.4339e+000 -5.7191e+001 -1.9991e+001 49543 87178,87126,87273
 3.5000e+000 87322  1.7665e+000 -5.0140e+001  2.2186e+000 49543 87178,87273,87074
 3.5000e+000 87570 -3.2104e+001 -6.7640e+001  1.4642e+001 49146 87593,87449,87397
 3.5000e+000 87547 -2.4046e+001 -3.9304e+001  3.3278e+001 49146 87593,87397,87371
 3.5000e+000 87524  5.9617e+000 -1.6431e+001  2.4606e+001 49146 87345,87475,87371
 3.5000e+000 87501 -1.2353e+001 -7.3999e+001  1.4168e+001 49146 87397,87449,87423
 3.5000e+000 87619 -5.5518e+001 -6.3031e+001 -6.7915e+000 49146 87475,87449,87593
 3.5000e+000 87642 -4.1878e+001 -4.4318e+001  1.1308e+001 49146 87475,87593,87371
 3.5000e+000 88073 -7.7600e+000  1.5550e+001  5.1660e+000 48706 87854,87932,87880
 3.5000e+000 88050 -5.7324e+000 -7.0923e+000 -3.4290e+000 48706 87828,87932,87854
 3.5000e+000 88027 -3.0037e+000  1.8295e+001 -4.2878e+000 48706 87750,87932,87828
 3.5000e+000 88004 -7.3621e+000  5.8137e+001 -2.1151e+001 48706 87750,87802,87776
 3.5000e+000 87981 -2.0262e+000  9.3197e+000 -1.0151e+001 48706 87750,87828,87802
 3.5000e+000 87958  1.2104e+000  1.9704e+001  4.0513e+000 48706 87880,87932,87906
 3.5000e+000 88402 -1.3690e+001 -1.2734e+002  2.2575e+000 48145 88203,88281,88255
 3.5000e+000 88379 -1.6037e+001 -1.2431e+002  1.6624e+001 48145 88203,88307,88281
 3.5000e+000 88356 -1.5574e+001 -1.2403e+002  2.1643e+000 48145 88203,88255,88229
 3.5000e+000 88333 -1.9619e+000 -8.3232e+001  1.5158e+001 48145 88177,88307,88203
 3.5000e+000 88601  3.8049e+001 -7.4105e+001  3.9783e+001 47805 88696,88624,88477
 3.5000e+000 88578 -2.4826e+000 -5.1193e+001  1.3109e+001 47805 88826,88624,88451
 3.5000e+000 88555 -1.0261e+001 -5.9897e+001  2.4370e+000 47805 88826,88451,88425
 3.5000e+000 88650  1.8091e+001 -1.1923e+002  2.9971e+001 47805 88503,88477,88624
 3.5000e+000 88673  1.9669e+001 -8.5286e+001  3.9358e+000 47805 88503,88624,88529
 3.5000e+000 88722 -2.5786e+000 -8.6242e+001  3.2844e+001 47805 88451,88624,88696
 3.5000e+000 88852 -3.9818e+000 -6.8256e+001  1.2674e+000 47805 88529,88624,88826
 3.5000e+000 88875 -1.1946e+001 -7.5807e+001 -9.5507e+000 47805 88529,88826,88425
 3.5000e+000 89172  3.8427e+000 -5.0951e+001  1.9101e+000 47401 89195,88976,88898
 3.5000e+000 89149 -1.0131e+001 -5.5296e+001 -9.2565e+000 47401 89195,88898,89054
 3.5000e+000 89126 -9.5619e-001 -3.3543e+001 -2.6661e+000 47401 88898,88976,88950
 3.5000e+000 89103 -8.2640e+000 -6.7274e+001 -2.2741e+001 47401 88976,89028,89002
 3.5000e+000 89080 -6.3910e+000 -4.5441e+001 -1.2975e+000 47401 88898,88950,88924
 3.5000e+000 89221  8.8138e+000 -5.8686e+001 -1.6130e+001 47401 89028,88976,89195
 3.5000e+000 89244 -2.1993e+001 -6.7880e+001 -2.7330e+001 47401 89028,89195,89054
 3.5000e+000 89575 -1.2927e+000 -1.4428e+002  1.8302e+001 47111 89350,89454,89376
 3.5000e+000 89552  2.1268e+001 -9.9629e+001 -4.0689e+000 47111 89350,89480,89454
 3.5000e+000 89529  1.7765e+001 -1.8075e+002 -1.9359e+001 47111 89376,89454,89402
 3.5000e+000 89506  5.2822e+001 -1.2170e+002  9.0130e+000 47111 89402,89454,89428
 3.5000e+000 89904  3.2053e+001 -8.9867e+000 -9.0276e+000 46707 89705,89757,89731
 3.5000e+000 89881 -6.0131e-001 -9.7749e+000 -1.2042e+001 46707 89705,89783,89757
 3.5000e+000 89858  1.1658e+001 -1.6706e+000 -3.4874e+000 46707 89679,89783,89705
 3.5000e+000 89835  6.8906e+000  2.8117e+001  1.3306e+000 46707 89679,89809,89783
 3.5000e+000 90233 -6.1075e-002  3.9611e+000 -3.4422e-001 46360 90034,90112,90086
 3.5000e+000 90210  2.4572e+000  1.2706e+001  6.4995e+000 46360 90034,90138,90112
 3.5000e+000 90187  4.5650e-001  2.0871e-001  5.5477e-001 46360 90034,90086,90060
 3.5000e+000 90164 -5.1055e-001  2.1940e+001 -2.3393e+000 46360 90008,90138,90034
 3.5000e+000 90530  1.8675e+001 -6.9292e+001  4.3965e+000 45662 90256,90360,90308
 3.5000e+000 90507  7.5088e+000 -6.9853e+001  3.2840e+000 45662 90256,90412,90360
 3.5000e+000 90484  3.5611e+001 -6.1543e+001 -4.8952e+000 45662 90256,90308,90282
 3.5000e+000 90461  2.3333e+001 -1.8681e+001  1.0318e+001 45662 90360,90412,90386
 3.5000e+000 90438  3.3869e+000 -7.3143e+001  3.3775e+000 45662 90308,90360,90334
 3.5000e+000 90910  2.1149e+001  9.3885e+000 -1.2231e+001 45108 90688,90766,90714
 3.5000e+000 90887  4.5285e+001 -2.0834e+001  1.3089e+001 45108 90662,90766,90688
 3.5000e+000 90864 -8.0579e-001 -1.5713e+001  1.7053e+001 45108 90636,90766,90662
 3.5000e+000 90841  4.0618e+001 -6.3483e+001 -3.3914e+001 45108 90714,90766,90740
 3.5000e+000 90818  1.0388e+001  1.5500e+001  2.2136e+000 45108 90636,90792,90766
 3.5000e+000 91158 -1.8508e+001 -6.0607e+001 -1.0423e+001 44604 91181,91011,90959
 3.5000e+000 91135 -2.8127e+000 -7.2439e+001 -2.6080e+001 44604 91181,90959,90933
 3.5000e+000 91112 -1.6307e+001 -1.0307e+002  1.6100e+001 44604 90959,91011,90985
 3.5000e+000 91089 -2.0896e+000 -1.1861e+002 -1.4212e+001 44604 90933,91063,91037
 3.5000e+000 91207 -1.5993e+001 -7.7749e+001 -1.4185e+001 44604 91037,91011,91181
 3.5000e+000 91230 -1.9433e+001 -1.2209e+002 -2.4985e+001 44604 91037,91181,90933
 3.5000e+000 91429 -6.4986e+000 -1.0665e+002 -1.0715e+001 44264 91452,91279,91253
 3.5000e+000 91406  1.7823e+000 -1.0288e+002 -1.4180e+001 44264 91452,91253,91357
 3.5000e+000 91383 -2.3079e+001 -9.8632e+001  2.3072e+001 44264 91279,91331,91305
 3.5000e+000 91478  2.1030e+000 -1.1617e+002 -8.2648e+000 44264 91331,91279,91452
 3.5000e+000 91501  1.4718e+001 -1.0997e+002 -1.1393e+001 44264 91331,91452,91357
 3.5000e+000 92060 -3.5446e+001 -1.1180e+002  6.3871e+000 43860 92083,91740,91688
 3.5000e+000 92037 -2.0097e+001 -1.1398e+002  1.2926e+001 43860 92083,91688,91896
 3.5000e+000 92014 -3.8580e+001 -1.3497e+002 -4.6414e+000 43860 91766,91870,91844
 3.5000e+000 91991 -7.2178e+000 -1.0947e+002  1.0888e+001 43860 91740,91870,91766
 3.5000e+000 91968 -3.1488e+000 -1.1457e+002  3.8186e+000 43860 91766,91844,91792
 3.5000e+000 91945 -3.9690e+001 -8.8852e+001  1.8637e+001 43860 91688,91740,91714
 3.5000e+000 91922 -2.0227e+001 -1.3691e+002 -4.2117e+000 43860 91792,91844,91818
 3.5000e+000 92109 -2.2502e+001 -1.0919e+002  1.3594e+001 43860 91870,91740,92083
 3.5000e+000 92132 -6.1552e+000 -1.0863e+002  2.1197e+001 43860 91870,92083,91896
 3.5000e+000 92353  4.0329e+000 -4.8039e+001 -5.5203e+000 43662 92203,92255,92229
 3.5000e+000 92330 -5.7993e+000 -3.5316e+001 -2.7027e+000 43662 92376,92203,92281
 3.5000e+000 92307 -9.5803e-001 -4.2838e+000 -4.2463e-001 43662 92177,92281,92203
 3.5000e+000 92402 -1.8640e+001 -4.0796e+001 -1.6169e+000 43662 92255,92203,92376
 3.5000e+000 92682 -8.1051e+000 -1.6990e+002 -1.6738e+001 43464 92532,92584,92558
 3.5000e+000 92659 -4.5517e-001 -9.5455e+001  1.0162e+001 43464 92506,92584,92532
 3.5000e+000 92636 -3.8846e+000 -7.0785e+001 -2.1116e+001 43464 92506,92610,92584
 3.5000e+000 93013  8.9997e+000 -6.8925e+001 -4.2628e+001 42960 92866,92918,92892
 3.5000e+000 92990 -1.5401e+001 -5.8937e+001 -1.8165e+001 42960 93036,92918,92866
 3.5000e+000 92967  4.8563e+000 -8.3860e+001 -3.2197e+000 42960 93036,92866,92840
 3.5000e+000 92944 -2.7942e+000 -6.8382e+000  1.9135e+000 42960 92788,92918,92814
 3.5000e+000 93062 -5.3638e+000 -4.4507e+001 -1.3244e+001 42960 92814,92918,93036
 3.5000e+000 93085  3.0148e+001 -5.3315e+001  7.6566e+000 42960 92814,93036,92840
 3.5000e+000 93186  1.8239e+000 -1.1401e+002 -3.1778e+001 42556 93108,93160,93134
 3.5000e+000 93554  1.0631e+001 -1.0527e+002  1.2695e+000 42052 93231,93387,93361
 3.5000e+000 93531  1.2690e+001 -9.2321e+001  2.2482e+001 42052 93231,93413,93387
 3.5000e+000 93508  3.5046e+001 -6.9747e+001 -1.0429e+001 42052 93231,93361,93257
 3.5000e+000 93485  5.5035e+000 -8.8362e+001  4.6449e+000 42052 93283,93361,93335
 3.5000e+000 93462 -6.5507e+000 -7.6810e+001 -3.5171e+000 42052 93257,93361,93283
 3.5000e+000 93439  2.4363e+001 -8.1558e+001  1.0575e+001 42052 93283,93335,93309
 3.5000e+000 94162 -4.1383e+000 -1.7014e+001  4.6987e+000 41498 93767,93975,93793
 3.5000e+000 94139 -2.5481e-001 -1.6194e+001  6.8568e-001 41498 93741,93975,93767
 3.5000e+000 94116  1.0076e+001 -3.0356e+001  2.5330e+000 41498 93793,93975,93923
 3.5000e+000 94093 -9.9334e+000 -7.6737e+001  1.8963e+001 41498 93923,93975,93949
 3.5000e+000 94070 -9.4045e-001  5.9173e-001  4.3501e+000 41498 93871,93923,93897
 3.5000e+000 94047  6.2547e-001 -3.2337e+001  1.1898e+000 41498 93793,93923,93871
 3.5000e+000 94024 -6.8501e-001 -1.0782e+001 -1.7529e+000 41498 93819,93871,93845
 3.5000e+000 94001  3.5549e+000 -1.1510e+001  1.9462e+000 41498 93793,93871,93819
 3.5000e+000 94619 -3.1773e+000 -7.2989e+001 -1.9744e+001 40930 94642,94423,94371
 3.5000e+000 94596  1.8709e+001 -7.3614e+001  8.6378e+000 40930 94642,94371,94345
 3.5000e+000 94573  3.1881e+001  8.3485e+000  1.3592e+001 40930 94345,94501,94475
 3.5000e+000 94550  2.3082e+001 -1.1342e+002 -2.4022e+001 40930 94371,94423,94397
 3.5000e+000 94527  2.1308e+001 -2.8911e+001 -1.4629e+001 40930 94423,94475,94449
 3.5000e+000 94668  1.9307e+001 -2.6619e+001 -1.2247e+001 40930 94475,94423,94642
 3.5000e+000 94691  2.7123e+001 -5.5591e+001  1.2253e+001 40930 94475,94642,94345
 3.5000e+000 95148 -2.4613e+001 -8.1599e+001  1.9023e+001 40362 95171,94952,94926
 3.5000e+000 95125 -6.7824e+000 -6.6639e+001  4.7328e+001 40362 95171,94926,95004
 3.5000e+000 95102 -3.8272e+001 -1.0274e+002  3.3005e+001 40362 94874,95004,94926
 3.5000e+000 95079 -6.3591e+000 -1.1260e+002  7.0318e+001 40362 94874,95030,95004
 3.5000e+000 95056 -5.0621e+001 -9.9708e+001  6.2894e+001 40362 94874,94926,94900
 3.5000e+000 95197 -3.8493e+000 -5.6159e+001  2.8821e+001 40362 94978,94952,95171
 3.5000e+000 95220  1.0890e+001 -4.3869e+001  5.6283e+001 40362 94978,95171,95004
 3.5000e+000 95549 -4.4848e+000 -4.2076e+001  3.7780e+000 39586 95350,95402,95376
 3.5000e+000 95526  2.2988e+000 -8.1013e+000 -1.4849e+001 39586 95324,95402,95350
 3.5000e+000 95503 -2.4597e+000  2.1234e+001  8.3390e+000 39586 95324,95454,95402
 3.5000e+000 95480  2.3495e+001 -7.2954e+001  2.2902e+001 39586 95402,95454,95428
 3.5000e+000 96055 -1.8978e-001 -1.5262e+001 -4.6956e+000 38968 96078,95862,95810
 3.5000e+000 96032  1.1298e+001 -1.0251e+001 -5.9011e-002 38968 96078,95810,95758
 3.5000e+000 96009 -3.5584e-001 -1.8077e+001 -7.7824e+000 38968 96150,95732,95888
 3.5000e+000 95986 -7.0407e+000  1.0039e-001  1.7682e+001 38968 95810,95862,95836
 3.5000e+000 95963 -1.1365e+000 -2.0170e+001 -5.1234e+000 38968 95732,95914,95888
 3.5000e+000 95940 -1.6256e+000 -3.2399e+000  1.3808e+001 38968 95758,95810,95784
 3.5000e+000 96104 -6.4780e+000 -1.4245e+001 -6.8416e+000 38968 95888,95862,96078
 3.5000e+000 96127 -4.5108e-001 -1.7072e+001 -6.4668e+000 38968 96150,95888,96078
 3.5000e+000 96176 -1.4391e+000 -1.4595e+001 -6.6781e+000 38968 95758,95732,96150
 3.5000e+000 96199 -5.3115e-001 -1.2691e+001 -5.1792e+000 38968 95758,96150,96078
 3.5000e+000 96545  2.7994e+001 -5.7253e+001 -2.6247e+001 38507 96640,96568,96352
 3.5000e+000 96522 -3.3965e+001 -1.2162e+002  2.7782e+001 38507 96568,96300,96222
 3.5000e+000 96499  7.5952e+001 -1.6563e+001 -7.2515e+001 38507 96640,96352,96326
 3.5000e+000 96476  1.9232e+001 -1.0462e+002 -5.2553e+001 38507 96352,96404,96378
 3.5000e+000 96453 -5.9099e+001 -1.3376e+002  1.2142e+001 38507 96222,96300,96248
 3.5000e+000 96430 -3.2026e+001 -1.3390e+002 -1.4866e+001 38507 96248,96300,96274
 3.5000e+000 96594 -1.9504e+001 -1.0409e+002 -6.9185e+000 38507 96404,96352,96568
 3.5000e+000 96617  2.6220e+000 -1.0544e+002  6.2703e+000 38507 96404,96568,96222
 3.5000e+000 96666 -3.9625e+000 -1.2013e+002  2.2912e+001 38507 96300,96568,96640
 3.5000e+000 96689  1.0958e+001 -9.4407e+001 -1.8682e+001 38507 96300,96640,96326
 3.5000e+000 97069  3.9212e+001  3.5877e+000  1.2164e+001 37760 97092,96873,96821
 3.5000e+000 97046  3.2276e+001  7.3323e-001  1.0839e+001 37760 97092,96821,96795
 3.5000e+000 97023 -9.6647e+000  2.2665e+001  1.2811e+001 37760 96821,96873,96847
 3.5000e+000 97000  3.4077e+001  7.0362e+001 -3.1410e+000 37760 96873,96925,96899
 3.5000e+000 96977  1.5082e+001  3.4785e+001  1.4422e+001 37760 96795,96951,96925
 3.5000e+000 97118  4.3391e+001  5.9983e+000  2.5617e+000 37760 96925,96873,97092
 3.5000e+000 97141  2.3845e+001 -2.2287e+000  1.4842e+000 37760 96925,97092,96795
 3.5000e+000 97647 -4.0548e+001 -9.8796e+001  1.6708e+001 37356 97324,97480,97376
 3.5000e+000 97624 -7.6873e+000 -1.1994e+002  7.4982e+001 37356 97324,97506,97480
 3.5000e+000 97601 -2.3195e+001 -2.8572e+001  3.3439e+001 37356 97376,97480,97454
 3.5000e+000 97578 -3.5906e+001 -7.7033e+001  1.8564e+001 37356 97324,97376,97350
 3.5000e+000 97555 -9.0559e+000 -3.5851e+001  7.8967e+000 37356 97376,97454,97402
 3.5000e+000 97532 -1.5752e+001  5.1092e+000  1.1140e+001 37356 97402,97454,97428
 3.5000e+000 98232  1.6580e+001  7.2613e+000 -4.2199e+000 36902 97935,98065,98013
 3.5000e+000 98209  1.4388e+001  1.0684e+001 -2.7469e-001 36902 97935,98091,98065
 3.5000e+000 98186  2.6133e+001  1.6940e+001 -9.3611e+000 36902 97935,98013,97987
 3.5000e+000 98163  1.0785e+001  2.4448e+001 -1.3246e+000 36902 97909,98091,97935
 3.5000e+000 98140  1.0407e+001  6.4642e+001  1.9000e+001 36902 97935,97987,97961
 3.5000e+000 98117  1.7048e+001  1.0673e+001 -6.5562e+000 36902 98013,98065,98039
 3.5000e+000 98659  7.8639e+000 -1.1638e+002 -1.8398e+001 36604 98682,98414,98388
 3.5000e+000 98636 -7.2177e+000 -1.1398e+002  2.2058e+001 36604 98682,98388,98336
 3.5000e+000 98613  9.3024e+000 -9.2372e+001  9.5363e+000 36604 98754,98518,98466
 3.5000e+000 98590  1.3705e+001  8.5657e+000 -1.5971e+001 36604 98414,98466,98440
 3.5000e+000 98567 -1.2884e+001 -1.3122e+002  1.8786e+001 36604 98336,98388,98362
 3.5000e+000 98544  1.2037e+001 -1.3023e+002  5.0698e+001 36604 98466,98518,98492
 3.5000e+000 98708  2.3129e+001 -6.8554e+001 -3.0549e+001 36604 98466,98414,98682
 3.5000e+000 98731  1.0118e+001 -8.8743e+001  8.9154e+000 36604 98754,98466,98682
 3.5000e+000 98780  1.1040e+001 -9.4917e+001  9.2075e+000 36604 98336,98518,98754
 3.5000e+000 98803  1.0778e+001 -9.2818e+001  8.3040e+000 36604 98336,98754,98682
 3.5000e+000 99309 -2.1499e+001 -3.9387e+001  5.0029e+000 36200 99332,99116,99012
 3.5000e+000 99286  2.6352e+000  6.2600e+001 -4.3186e+001 36200 99332,99012,98986
 3.5000e+000 99263  3.6343e+000 -2.8580e+001 -1.3465e+001 36200 99012,99116,99064
 3.5000e+000 99240  2.1424e+001  6.4654e+001 -1.4116e+000 36200 98986,99168,99142
 3.5000e+000 99217 -2.2537e+001 -1.1517e+002  2.9471e+001 36200 99064,99116,99090
 3.5000e+000 99194 -1.1165e+001 -6.0054e+000 -2.9132e+001 36200 99012,99064,99038
 3.5000e+000 99358 -2.6080e+001 -1.1823e+002  5.1682e+001 36200 99142,99116,99332
 3.5000e+000 99381 -4.9752e-001 -4.3729e+001 -5.9253e+000 36200 99142,99332,98986
 3.5000e+000 99887  2.1021e-001 -5.4961e+001  1.4053e+001 35488 99564,99720,99590
 3.5000e+000 99864  8.9621e+000 -3.3299e+001  1.1113e+001 35488 99564,99746,99720
 3.5000e+000 99841  1.5905e+001 -3.8135e+001 -2.3344e+001 35488 99642,99694,99668
 3.5000e+000 99818  7.4495e+000 -6.6578e+001  1.8121e+001 35488 99590,99694,99642
 3.5000e+000 99795  2.9797e+001 -3.9193e+001  8.0518e+000 35488 99590,99720,99694
 3.5000e+000 99772  5.3360e+001 -1.2593e+002  2.4917e+001 35488 99590,99642,99616
 3.5000e+000 99988  4.9667e+000  7.1180e+001  1.6324e-001 35198 99910,99962,99936
 3.5000e+000 100138  1.4241e+001 -2.4653e+001 -2.8283e+001 34794 100233,100161,100063
 3.5000e+000 100115 -3.4264e+001 -4.7492e+001 -5.9760e+000 34794 100365,100161,100037
 3.5000e+000 100187  3.5352e+001 -4.8608e+001 -2.6158e+001 34794 100089,100063,100161
 3.5000e+000 100210  8.1050e+000 -5.7129e+001 -2.8056e+001 34794 100089,100161,100011
 3.5000e+000 100259  2.3903e+001 -2.1042e+001  2.4870e+000 34794 100037,100161,100233
 3.5000e+000 100391 -5.0943e+000 -6.1885e+001  2.3705e+000 34794 100011,100161,100365
 3.5000e+000 100927 -6.3274e+000 -3.7330e+001  5.4760e+000 34404 100679,100809,100783
 3.5000e+000 100904  8.9701e+000 -5.1936e+001  3.0633e+000 34404 100653,100809,100679
 3.5000e+000 100881 -2.1838e+000 -1.9710e+001  3.2784e+000 34404 100705,100783,100731
 3.5000e+000 100858 -8.3908e-001 -3.1125e+001 -2.8777e+000 34404 100679,100783,100705
 3.5000e+000 100835 -1.3900e+001 -5.8982e+000 -1.9805e+001 34404 100731,100783,100757
 3.5000e+000 101354 -2.0163e+001 -1.2528e+002  2.1354e+001 34000 101377,101109,101057
 3.5000e+000 101331 -4.5853e+001 -1.3068e+002  2.4692e+001 34000 101449,101377,101057
 3.5000e+000 101308 -5.5082e+001 -1.0515e+002  2.5056e+001 34000 101449,101057,101031
 3.5000e+000 101285 -4.8425e+001 -8.9514e+001  1.4435e+001 34000 101031,101213,101187
 3.5000e+000 101262 -4.5498e+000 -1.5497e+002 -2.5410e+001 34000 101135,101187,101161
 3.5000e+000 101239 -3.1537e+001 -1.0877e+002  1.9091e+001 34000 101057,101109,101083
 3.5000e+000 101403 -2.4163e+001 -1.1338e+002  8.6896e+000 34000 101135,101109,101377
 3.5000e+000 101426 -4.5236e+001 -1.2144e+002  5.1338e+000 34000 101135,101377,101187
 3.5000e+000 101475 -2.4879e+001 -9.9551e+001  1.4962e+001 34000 101187,101377,101449
 3.5000e+000 101498 -4.5425e+001 -8.8119e+001  1.9520e+001 34000 101187,101449,101031
 3.5000e+000 102083  5.3089e+001 -1.4412e+001 -4.0705e+000 33472 102106,101812,101786
 3.5000e+000 102060  3.1938e+000 -3.6548e+001  4.5148e-002 33472 102106,101786,101916
 3.5000e+000 102037 -4.5053e+001 -1.0964e+001 -1.0298e+001 33472 101812,101864,101838
 3.5000e+000 102014 -3.6524e+001 -5.6764e+001 -7.3145e+000 33472 101864,101916,101890
 3.5000e+000 101991  2.9008e+000 -6.3109e+001 -4.6102e+000 33472 101786,101942,101916
 3.5000e+000 101968 -3.6839e+000 -6.1224e+001  1.1380e+001 33472 101760,101942,101786
 3.5000e+000 102132  2.2427e+001 -1.3158e+001 -2.3866e+001 33472 101864,101812,102106
 3.5000e+000 102155  6.3590e+000 -1.9586e+001 -2.3805e+001 33472 101864,102106,101916
 3.5000e+000 102612 -1.0966e+001 -1.0240e+002 -6.4262e+001 33038 102635,102468,102390
 3.5000e+000 102589 -4.3320e+001 -1.6267e+002 -7.8212e+001 33038 102635,102390,102364
 3.5000e+000 102566  3.0533e+001 -8.6283e+001 -5.5855e+001 33038 102390,102468,102442
 3.5000e+000 102543 -1.3625e+001 -1.4300e+002 -3.1496e+001 33038 102338,102494,102364
 3.5000e+000 102520 -5.0623e+000 -9.9118e+001 -5.3242e+001 33038 102390,102442,102416
 3.5000e+000 102661 -1.4444e+001 -8.8592e+001 -2.7953e+001 33038 102494,102468,102635
 3.5000e+000 102684 -2.7966e+001 -1.2685e+002 -3.6648e+001 33038 102494,102635,102364
 3.5000e+000 103318  4.9210e+000 -1.7843e+001  1.1080e+000 32402 102972,103128,103076
 3.5000e+000 103295  2.3911e+001 -1.9271e+001  2.0413e+000 32402 102946,103128,102972
 3.5000e+000 103272 -1.3142e+001 -7.0977e+001  2.4631e+001 32402 103076,103128,103102
 3.5000e+000 103249  1.5038e+001 -2.3172e+001  1.0711e+000 32402 102946,103154,103128
 3.5000e+000 103226  2.2858e+001 -2.8054e+001  1.6608e+001 32402 102972,103076,102998
 3.5000e+000 103203  4.3117e+000 -1.8676e+001  2.5549e+001 32402 102998,103076,103050
 3.5000e+000 103180  1.0693e+001  1.6765e+001  1.3232e+001 32402 102998,103050,103024
 3.5000e+000 103696 -1.0444e+001 -1.1339e+002 -1.1387e+001 31924 103448,103526,103500
 3.5000e+000 103673 -1.9147e+001 -1.2039e+002 -2.4929e+001 31924 103448,103578,103526
 3.5000e+000 103650 -2.4251e+001 -8.8126e+001 -1.0085e+001 31924 103448,103500,103474
 3.5000e+000 103627 -1.4679e+001 -1.6760e+002 -2.7681e+001 31924 103422,103578,103448
 3.5000e+000 103604 -2.8249e+001 -2.3135e+002  8.2080e-001 31924 103526,103578,103552
 3.5000e+000 104281 -2.1055e+001 -7.1831e+000 -1.3255e+001 31520 104304,104062,104036
 3.5000e+000 104258  2.6310e+000  1.0977e+001 -5.1598e+000 31520 104304,104036,103984
 3.5000e+000 104235  1.2586e+000  3.7536e+001  1.2037e+001 31520 104062,104114,104088
 3.5000e+000 104212 -3.3415e+000  2.4857e+001 -3.7179e+000 31520 103958,104114,103984
 3.5000e+000 104189  1.3573e+001  3.3014e+001 -2.5343e+001 31520 103984,104036,104010
 3.5000e+000 104166 -3.1127e+000 -1.5706e+000 -2.3027e+000 31520 103958,104140,104114
 3.5000e+000 104330 -2.2944e+001  1.3699e+001 -2.2071e+000 31520 104114,104062,104304
 3.5000e+000 104353 -1.5565e+001  1.8963e+001  1.1440e-001 31520 104114,104304,103984
 3.5000e+000 104704 -9.7914e+000 -2.0301e+001 -1.4260e+001 31066 104479,104583,104505
 3.5000e+000 104681  4.2486e+001 -3.9086e+000 -1.7107e+001 31066 104479,104609,104583
 3.5000e+000 104658  8.5099e+000  4.8596e+001 -1.0260e+001 31066 104505,104557,104531
 3.5000e+000 104635  1.8282e+001 -1.0601e+000 -5.8698e+000 31066 104505,104583,104557
 3.5000e+000 104925  2.9415e+001 -5.7179e+001 -1.8397e+001 30754 104775,104827,104801
 3.5000e+000 104902  2.0772e+001 -2.1837e+001 -1.4763e+001 30754 104775,104853,104827
 3.5000e+000 104879  9.9621e-001 -2.9659e+001 -5.9532e+000 30754 104749,104853,104775
 3.5000e+000 105482 -2.0528e+001 -6.0148e+001  5.4504e+000 30164 105505,105136,105110
 3.5000e+000 105459 -1.1869e+001 -6.9459e+001  8.4553e+000 30164 105649,105505,105110
 3.5000e+000 105436 -1.7558e+001 -6.8050e+001  6.7210e+000 30164 105577,105188,105136
 3.5000e+000 105413 -1.8090e+001 -7.3252e+001  1.5632e+001 30164 105649,105110,105318
 3.5000e+000 105390 -1.1721e+001 -1.3821e+002  5.0314e+001 30164 105214,105292,105240
 3.5000e+000 105367 -3.4099e+001 -1.6357e+002  6.4046e+001 30164 105240,105292,105266
 3.5000e+000 105344 -1.9940e+001 -6.5311e+001  6.1704e+000 30164 105136,105188,105162
 3.5000e+000 105531 -1.0509e+001 -6.5386e+001  4.1322e+000 30164 105577,105136,105505
 3.5000e+000 105554  2.6841e+001 -6.0995e+001  8.0434e+000 30164 105214,105505,105292
 3.5000e+000 105603 -1.5263e+001 -7.1403e+001  1.3720e+001 30164 105214,105188,105577
 3.5000e+000 105626 -1.1441e+001 -7.0307e+001  1.1305e+001 30164 105214,105577,105505
 3.5000e+000 105675 -7.4367e+000 -6.0002e+001  4.6975e+000 30164 105292,105505,105649
 3.5000e+000 105698 -8.1093e+000 -5.7315e+001  1.0603e+001 30164 105292,105649,105318
 3.5000e+000 106027  2.2886e+001 -2.8575e+001  5.2419e-001 29868 106322,106050,105880
 3.5000e+000 106004  5.8132e+000 -1.7143e+001  2.2234e+000 29868 106250,106050,105828
 3.5000e+000 105981  1.1968e+000 -1.9981e+001  2.8349e-001 29868 106250,105828,105802
 3.5000e+000 105958  1.5597e+001 -3.3881e+001  4.9822e+000 29868 106322,105880,106122
 3.5000e+000 106076  2.1268e+001 -1.0366e+001 -1.4751e+001 29868 105906,105880,106050
 3.5000e+000 106099  2.6823e+000 -2.1484e+001 -8.8929e+000 29868 105906,106050,105932
 3.5000e+000 106148 -9.7613e+000 -5.7658e+001  7.2466e+000 29868 105854,105828,106122
 3.5000e+000 106276  2.9274e+000 -1.7674e+001 -8.1700e+000 29868 105932,106050,106250
 3.5000e+000 106299 -1.1028e+001 -2.5088e+001 -1.0994e+001 29868 105932,106250,105802
 3.5000e+000 106348  9.5693e+000 -2.2085e+001  4.8277e+000 29868 105828,106050,106322
 3.5000e+000 106371  3.9494e+000 -2.5307e+001  8.7907e+000 29868 105828,106322,106122
 3.5000e+000 106828  4.8156e+001  7.0797e+000  8.3857e+000 29521 106580,106710,106684
 3.5000e+000 106805  1.5638e+001 -2.3453e+001 -1.5119e+001 29521 106554,106710,106580
 3.5000e+000 106782  1.3732e+001 -1.7325e+001 -2.3376e+000 29521 106580,106684,106606
 3.5000e+000 106759  2.3397e+001 -4.8680e+000  6.0005e+000 29521 106606,106684,106658
 3.5000e+000 106736 -8.4974e-001  1.4461e+000  7.4235e+000 29521 106606,106658,106632
 3.5000e+000 107027 -3.5331e+001 -7.8932e+001 -2.5187e+001 29117 106877,106929,106903
 3.5000e+000 107004  4.1917e+000 -6.2184e+001 -3.3457e+001 29117 106851,106929,106877
 3.5000e+000 106981  2.4194e+001 -1.2855e+002 -3.0213e+001 29117 106851,106955,106929
 3.5000e+000 107456 -6.6779e+001 -1.6254e+002 -3.3176e+001 28656 107237,107315,107263
 3.5000e+000 107433  3.8258e+000 -8.9941e+001 -4.5229e+000 28656 107133,107315,107237
 3.5000e+000 107410  1.5927e+001 -9.6865e+001 -1.9219e+001 28656 107133,107237,107159
 3.5000e+000 107387  1.0517e+001 -4.5614e+001 -2.9548e+001 28656 107159,107237,107185
 3.5000e+000 107364  3.1489e+001 -1.9927e+001  1.8961e+001 28656 107185,107237,107211
 3.5000e+000 107341  5.8657e+000 -5.5834e+000 -2.5579e+000 28656 107263,107315,107289
 3.5000e+000 107704  2.3202e+001 -5.7431e+000  2.5950e+000 27902 107727,107557,107531
 3.5000e+000 107681  1.1929e+001 -4.5497e+000 -4.8462e+000 27902 107727,107531,107505
 3.5000e+000 107658  3.3388e+001 -1.9034e+001  1.5664e+000 27902 107557,107609,107583
 3.5000e+000 107635 -9.1621e+000 -1.1392e+001  4.0657e+000 27902 107479,107609,107505
 3.5000e+000 107753  3.5643e+001 -6.9373e+000  3.6491e+000 27902 107609,107557,107727
 3.5000e+000 107776  2.4546e+001 -4.9899e+000 -3.1631e+000 27902 107609,107727,107505
 3.5000e+000 108333 -2.0603e+001 -1.5442e+002  6.4493e+000 27341 108356,108065,108013
 3.5000e+000 108310 -8.3181e+000 -1.3985e+002 -3.3006e+001 27341 108356,108013,108143
 3.5000e+000 108287 -5.9349e+001 -1.8051e+002 -1.7051e+001 27341 108428,108117,108091
 3.5000e+000 108264  6.8342e+000 -1.3020e+002 -4.3079e+000 27341 108013,108065,108039
 3.5000e+000 108241 -1.3698e+001 -1.4366e+002 -3.4775e+001 27341 107987,108143,108013
 3.5000e+000 108218  1.0944e+001 -1.2992e+002 -7.5519e+001 27341 107987,108169,108143
 3.5000e+000 108195 -1.0332e+001 -9.8539e+001 -7.2972e+001 27341 107961,108169,107987
 3.5000e+000 108382 -2.0234e+001 -1.4071e+002 -1.1776e+001 27341 108091,108065,108356
 3.5000e+000 108405 -6.3063e+001 -1.4618e+002 -1.2596e+001 27341 108428,108091,108356
 3.5000e+000 108454 -5.5165e+001 -2.7817e+002 -2.7280e+001 27341 108143,108117,108428
 3.5000e+000 108477 -4.1474e+001 -2.1768e+002 -2.7920e+001 27341 108143,108428,108356
 3.5000e+000 108725  3.0643e+001 -6.6385e+001  1.4839e+001 27029 108748,108526,108500
 3.5000e+000 108702  1.3421e+001 -2.9764e+001  2.4915e+001 27029 108748,108500,108630
 3.5000e+000 108679 -1.2240e+001 -4.7983e+001  1.5249e+001 27029 108578,108630,108604
 3.5000e+000 108656 -1.0755e+001 -8.0868e+001  1.7910e+001 27029 108526,108578,108552
 3.5000e+000 108774  1.4488e+001 -7.8302e+001  6.8033e+000 27029 108578,108526,108748
 3.5000e+000 108797 -1.3827e+001 -5.4301e+001  1.1874e+001 27029 108578,108748,108630
 3.5000e+000 109045 -2.0600e+000 -1.5814e+001  4.6896e+000 26610 108872,108924,108898
 3.5000e+000 109022  4.3662e+000 -9.7914e+001 -3.1337e+001 26610 108872,108950,108924
 3.5000e+000 108999  1.5217e+001 -9.0504e+001 -1.8159e+001 26610 108846,108950,108872
 3.5000e+000 108976 -1.8597e+000 -1.7322e+002 -3.5979e+001 26610 108820,108950,108846
 3.5000e+000 109366  8.8496e+000 -1.7224e+002 -9.1259e+000 26006 109144,109222,109196
 3.5000e+000 109343 -1.6380e+001 -1.8903e+002 -1.6718e+001 26006 109118,109222,109144
 3.5000e+000 109320  1.4125e+001 -1.9547e+002  7.3842e+000 26006 109092,109222,109118
 3.5000e+000 109297 -6.8747e-003 -1.7635e+002 -5.8698e+000 26006 109144,109196,109170
 3.5000e+000 109274  2.7963e+001 -5.5644e+001  1.4247e+001 26006 109092,109248,109222
 3.5000e+000 109567 -1.1880e+001 -8.0174e+000 -4.0755e+001 25659 109391,109469,109443
 3.5000e+000 109544  1.4568e+001 -1.4726e+001  3.7255e+000 25659 109391,109495,109469
 3.5000e+000 109521 -3.9453e+001 -1.5027e+001 -1.8685e+001 25659 109391,109443,109417
 3.5000e+000 109900  1.1499e+000 -2.4462e+001 -1.1539e+001 25255 109923,109779,109753
 3.5000e+000 109877  2.5007e+000 -2.2502e+001 -1.3653e+001 25255 109923,109753,109701
 3.5000e+000 109854 -1.3492e+001 -1.4656e+001 -1.9290e+001 25255 109675,109805,109701
 3.5000e+000 109831 -3.6197e+000 -1.2971e+001 -1.7096e+001 25255 109701,109753,109727
 3.5000e+000 109949  4.1494e+000 -2.6487e+001 -1.3634e+001 25255 109805,109779,109923
 3.5000e+000 109972  5.4948e+000 -2.2992e+001 -1.6002e+001 25255 109805,109923,109701
 3.5000e+000 110220  2.6167e+000 -2.1427e+001 -1.2547e+001 24701 110243,110021,109995
 3.5000e+000 110197 -1.2344e+000 -3.0381e+001 -1.2297e+001 24701 110243,109995,110099
 3.5000e+000 110174 -3.0392e+000 -2.3453e+001 -3.9143e+000 24701 110315,110073,110047
 3.5000e+000 110151 -2.1767e+001 -3.0119e+001 -8.9173e+000 24701 109995,110125,110099
 3.5000e+000 110269  8.6677e-001 -1.3275e+001 -3.6494e+000 24701 110047,110021,110243
 3.5000e+000 110292 -9.9616e-001 -2.4758e+001 -5.7871e+000 24701 110315,110047,110243
 3.5000e+000 110341 -2.1676e+000 -2.7762e+001 -8.0304e-001 24701 110099,110073,110315
 3.5000e+000 110364 -1.3718e+000 -3.0466e+001 -3.6178e+000 24701 110099,110315,110243
 3.5000e+000 110661 -2.3210e+001 -1.7659e+002  3.5436e+001 24197 110684,110413,110387
 3.5000e+000 110638  6.7717e+000 -1.2530e+002  1.3190e+001 24197 110684,110387,110543
 3.5000e+000 110615  2.2185e+001 -2.3341e+002  2.8061e+001 24197 110756,110491,110465
 3.5000e+000 110592 -2.8557e+001 -1.4173e+002  4.5011e+001 24197 110413,110465,110439
 3.5000e+000 110569 -1.1468e+001 -3.2213e+002 -2.3676e+001 24197 110491,110543,110517
 3.5000e+000 110710  2.7122e+001 -1.5345e+002  4.2502e+001 24197 110465,110413,110684
 3.5000e+000 110733  5.1978e-002 -2.0407e+002  2.3094e+001 24197 110756,110465,110684
 3.5000e+000 110782  2.6800e+001 -1.9934e+002  1.0663e+000 24197 110543,110491,110756
 3.5000e+000 110805  1.7670e+001 -1.5435e+002 -4.6435e+000 24197 110543,110756,110684
 3.5000e+000 111315  1.4415e+001 -9.6088e+001 -6.6595e+000 23593 111044,111148,111070
 3.5000e+000 111292 -1.7500e+001 -5.1979e+001  1.4347e+001 23593 111044,111174,111148
 3.5000e+000 111269  5.4722e+001 -3.1982e+001 -1.2813e+001 23593 111070,111122,111096
 3.5000e+000 111246  1.1672e+001 -6.6577e+001 -2.7806e+001 23593 111070,111148,111122
 3.5000e+000 111223 -2.1667e+001 -4.1627e+001  6.1709e+000 23593 111018,111174,111044
 3.5000e+000 111200 -2.4688e+000 -5.3245e+001  8.8246e+000 23593 110992,111174,111018
 3.5000e+000 111821  9.8910e+000 -1.5134e+002 -3.8416e+000 23089 111916,111844,111628
 3.5000e+000 111798 -2.7022e+001 -1.7508e+002 -3.7287e+001 23089 111844,111550,111524
 3.5000e+000 111775  3.6915e+000 -1.2457e+002 -2.9352e+000 23089 111916,111628,111602
 3.5000e+000 111752  3.2959e+001 -2.4809e+002 -1.6653e+001 23089 111498,111680,111524
 3.5000e+000 111729 -1.6916e+000 -8.4528e+001  1.1808e+001 23089 111550,111602,111576
 3.5000e+000 111706  2.0096e-001 -7.3136e+001 -2.2153e+001 23089 111628,111680,111654
 3.5000e+000 111870  1.1241e+001 -1.3719e+002  7.9321e+000 23089 111680,111628,111844
 3.5000e+000 111893  6.4134e+000 -1.4963e+002 -3.8772e+000 23089 111680,111844,111524
 3.5000e+000 111942  1.2830e+001 -1.1448e+002 -1.5901e+001 23089 111550,111844,111916
 3.5000e+000 111965  1.6034e+000 -9.2585e+001 -1.1763e+001 23089 111550,111916,111602
 3.5000e+000 112164 -1.6230e+001 -4.0096e+001 -1.6707e+001 22626 112187,112014,111988
 3.5000e+000 112141  5.4878e+000 -6.6999e+001 -1.9176e+001 22626 112259,112187,111988
 3.5000e+000 112118  7.7851e-001 -7.1342e+001 -1.5129e+001 22626 112259,111988,112092
 3.5000e+000 112213  5.7374e+000  4.5249e+000 -3.1119e+000 22626 112040,112014,112187
 3.5000e+000 112236 -6.9703e-001 -5.4417e+001 -1.8290e+001 22626 112040,112187,112066
 3.5000e+000 112285  2.7964e+000 -5.9735e+001 -2.4359e+001 22626 112066,112187,112259
 3.5000e+000 112308  1.2010e+000 -6.2332e+001 -2.0878e+001 22626 112066,112259,112092
 3.5000e+000 112605 -6.6255e+000 -1.2453e+002  1.9818e+001 22286 112628,112383,112357
 3.5000e+000 112582  1.8705e+000 -1.2381e+002  2.3002e+001 22286 112772,112628,112357
 3.5000e+000 112559 -2.4877e+001 -1.7723e+002  5.2060e+001 22286 112700,112435,112409
 3.5000e+000 112536 -3.4833e+001 -1.3287e+002  2.5822e+001 22286 112772,112357,112331
 3.5000e+000 112513 -4.4567e+001 -1.4792e+002  4.0671e+001 22286 112435,112487,112461
 3.5000e+000 112654  1.0292e+001 -6.9543e+001  1.9805e+001 22286 112409,112383,112628
 3.5000e+000 112677 -1.5638e+000 -1.3742e+002  3.8390e+001 22286 112700,112409,112628
 3.5000e+000 112726  3.7202e-001 -1.4662e+002  2.3008e+001 22286 112487,112435,112700
 3.5000e+000 112749  7.6672e+000 -1.4057e+002  1.2535e+001 22286 112487,112700,112628
 3.5000e+000 112798  1.7122e+001 -1.2554e+002  1.6607e+001 22286 112487,112628,112772
 3.5000e+000 112821  9.0693e+000 -1.1685e+002  2.0609e+001 22286 112487,112772,112331
 3.5000e+000 112924  2.5679e-001  8.1274e-001  7.3228e+000 21974 112846,112898,112872
 3.5000e+000 113223 -1.7852e+001 -1.7757e+002  8.6636e+000 21420 112949,113053,112975
 3.5000e+000 113200 -4.5748e+000 -1.5952e+002  2.5696e+000 21420 112949,113079,113053
 3.5000e+000 113177  1.2250e+002 -1.4944e+002  6.3646e+001 21420 112975,113053,113001
 3.5000e+000 113154 -7.9919e+001 -2.5188e+002  2.5697e+001 21420 113001,113053,113027
 3.5000e+000 113131 -2.0910e+001 -9.2508e+001 -4.4498e+001 21420 112949,113105,113079
 3.5000e+000 113605 -1.9099e+001 -1.5404e+002  4.7480e+001 20716 113331,113435,113357
 3.5000e+000 113582 -2.1113e+001 -1.0468e+002  4.9188e+001 20716 113331,113461,113435
 3.5000e+000 113559 -3.7449e+000 -1.6570e+002 -2.6150e+001 20716 113383,113435,113409
 3.5000e+000 113536 -4.4379e+001 -1.2897e+002 -1.3497e+001 20716 113357,113435,113383
 3.5000e+000 113513 -2.4158e+000 -2.4548e+001 -1.2487e+001 20716 113331,113487,113461
 3.5000e+000 113853 -1.1683e+001 -1.8781e+002  1.1486e-001 20290 113876,113680,113654
 3.5000e+000 113830  2.3552e+001 -1.9964e+002 -8.2735e+000 20290 113876,113654,113628
 3.5000e+000 113807 -3.4928e+001 -2.3129e+002 -1.9986e+001 20290 113948,113732,113680
 3.5000e+000 113784  6.7671e+001 -2.0508e+002 -2.9928e+001 20290 113680,113732,113706
 3.5000e+000 113902 -1.2568e+001 -1.9901e+002 -9.7200e-001 20290 113948,113680,113876
 3.5000e+000 113925 -1.7076e+001 -1.9844e+002 -2.2162e+000 20290 113758,113876,113628
 3.5000e+000 113974 -5.8060e+001 -2.0075e+002 -3.0299e+001 20290 113758,113732,113948
 3.5000e+000 113997 -5.5304e+001 -1.9670e+002 -1.6433e+001 20290 113758,113948,113876
 3.5000e+000 114365 -1.6931e+001 -1.5038e+002  4.9896e-001 19900 114146,114198,114172
 3.5000e+000 114342 -2.2988e+001 -1.5301e+002  1.8802e-001 19900 114042,114198,114146
 3.5000e+000 114319 -1.2040e+001 -1.4670e+002 -5.8729e+000 19900 114042,114224,114198
 3.5000e+000 114296 -4.9987e+001 -1.4755e+002 -1.8959e+000 19900 114094,114146,114120
 3.5000e+000 114273 -2.3961e+001 -1.4381e+002 -6.4012e+000 19900 114042,114146,114094
 3.5000e+000 114250 -5.2930e+001 -1.5108e+002 -1.8908e+000 19900 114042,114094,114068
 3.5000e+000 114566 -2.8351e+001 -1.5813e+002  2.0174e+000 19496 114442,114494,114468
 3.5000e+000 114543  2.6792e+001 -9.8877e+001  2.6616e+001 19496 114416,114494,114442
 3.5000e+000 114520 -3.5519e+001 -1.3376e+002  1.2817e+001 19496 114390,114494,114416
 3.5000e+000 114767  1.0308e+001 -1.5519e+002  6.5776e+000 19042 114790,114669,114643
 3.5000e+000 114744  1.2714e+001 -1.5313e+002  7.4786e+000 19042 114790,114643,114591
 3.5000e+000 114721  2.5362e+001 -1.4907e+002  2.1711e+001 19042 114591,114643,114617
 3.5000e+000 114816  3.7804e+000 -1.5255e+002  5.7011e+000 19042 114695,114669,114790
 3.5000e+000 114839  9.1894e+000 -1.4753e+002  7.7937e+000 19042 114695,114790,114591
 3.5000e+000 114991 -6.2345e+001 -1.7116e+002 -1.6490e+000 18488 114864,114916,114890
 3.5000e+000 114968 -4.7576e+001 -1.7238e+002 -5.9155e+000 18488 114864,114942,114916
 3.5000e+000 115192  1.3511e+002 -9.4632e+001  2.1974e+001 18098 115215,115042,115016
 3.5000e+000 115169  7.3372e+001 -5.8909e+001 -2.3063e+000 18098 115215,115016,115120
 3.5000e+000 115146  8.5119e+001 -9.3985e+001 -2.2792e+001 18098 115287,115094,115068
 3.5000e+000 115241  8.8055e+001 -1.7249e+002  1.0104e+000 18098 115068,115042,115215
 3.5000e+000 115264  8.5943e+001 -8.2716e+001 -3.1375e+000 18098 115287,115068,115215
 3.5000e+000 115313  5.9645e+001 -1.0757e+002 -2.9185e+001 18098 115120,115094,115287
 3.5000e+000 115336  5.1000e+001 -1.0092e+002 -1.0664e+001 18098 115120,115287,115215
 3.5000e+000 115846  8.0335e+001 -2.2510e+002 -8.0673e+001 17644 115653,115705,115679
 3.5000e+000 115823  2.0163e+001 -1.9263e+002 -4.2749e+001 17644 115627,115705,115653
 3.5000e+000 115800  8.9097e+001 -1.0049e+002 -7.0260e+000 17644 115549,115705,115627
 3.5000e+000 115777  2.7307e+001 -1.7294e+002  2.3818e+001 17644 115549,115627,115575
 3.5000e+000 115754  4.9823e+001 -1.1360e+002 -4.3703e+000 17644 115523,115705,115549
 3.5000e+000 115731 -4.9755e+001 -1.4225e+002 -1.3516e+001 17644 115575,115627,115601
 3.5000e+000 116067 -6.3355e+001 -3.1792e+002 -1.4741e+001 17116 115891,115943,115917
 3.5000e+000 116044 -1.0718e+002 -3.5826e+002  2.0282e+000 17116 115891,115995,115943
 3.5000e+000 116021 -1.0643e+002 -3.2381e+002 -2.1917e-001 17116 115943,115995,115969
 3.5000e+000 116288 -2.6038e+001 -2.6801e+002  3.8490e+001 16704 116164,116216,116190
 3.5000e+000 116265 -6.3444e+001 -3.2922e+002  2.2489e+001 16704 116112,116216,116164
 3.5000e+000 116242 -1.1777e+002 -3.1781e+002 -9.4763e+000 16704 116112,116164,116138
 3.5000e+000 116489 -1.8596e+001 -1.3837e+002 -6.0012e+000 16434 116339,116417,116365
 3.5000e+000 116466 -2.3749e+001 -1.3761e+002 -3.2790e-001 16434 116313,116417,116339
 3.5000e+000 116443 -7.3267e+001 -1.7393e+002  3.1552e+001 16434 116365,116417,116391
 3.5000e+000 116592  1.6672e+001 -2.1481e+002 -6.1700e+000 15967 116514,116566,116540
 3.5000e+000 116695 -2.0948e+001 -3.1072e+002 -3.9632e+001 15552 116617,116669,116643
 3.5000e+000 116798 -1.4927e+001 -1.4151e+002  0.0000e+000 421 116720,116772,116746
 3.6000e+000 69066  2.4452e+000 -2.9983e+002 -1.0955e+001 68738 68965,69017,68991
 3.6000e+000 69043  6.1843e+001 -2.5909e+002  6.3722e+002 68738 68939,69017,68965
 3.6000e+000 69371 -1.3742e+001 -5.5541e+001 -1.9153e+001 68426 69172,69250,69198
 3.6000e+000 69348  1.5004e+000 -1.0725e+002  9.7705e+000 68426 69146,69250,69172
 3.6000e+000 69325 -3.3034e+000 -1.8036e+001  7.6894e+000 68426 69198,69250,69224
 3.6000e+000 69302 -2.8121e+001 -1.0169e+002  5.8183e+000 68426 69146,69276,69250
 3.6000e+000 69521  8.5333e+000 -3.4456e+001 -1.2941e+001 68228 69420,69472,69446
 3.6000e+000 69498 -6.9167e+000 -2.1604e+001 -2.8334e+001 68228 69394,69472,69420
 3.6000e+000 69781 -1.1370e+001  2.1677e+001  9.7186e+000 68030 69631,69683,69657
 3.6000e+000 69758  6.1660e+000 -2.7647e+001 -1.0812e+001 68030 69631,69709,69683
 3.6000e+000 69735 -2.2506e+000  1.3726e+001  2.6902e+001 68030 69605,69709,69631
 3.6000e+000 70078  5.3731e-001  2.5934e+001 -5.3771e+000 67832 69882,69934,69908
 3.6000e+000 70055 -5.8304e+000 -3.1521e+000  1.0627e+001 67832 69856,69934,69882
 3.6000e+000 70032  9.1324e-001 -1.3849e+001 -2.8055e+000 67832 69830,69934,69856
 3.6000e+000 70009  2.7298e+000 -9.9158e+000 -1.1206e+001 67832 69804,69934,69830
 3.6000e+000 69986 -1.1006e+001  3.4110e+001  1.0402e+001 67832 69804,69960,69934
 3.6000e+000 70586 -6.7516e+000 -4.3569e+001  1.1827e+001 67634 70609,70419,70341
 3.6000e+000 70563 -2.2539e+000 -7.5086e+001  2.2605e+001 67634 70681,70609,70341
 3.6000e+000 70540 -8.8490e+000 -7.8161e+001  2.3638e+001 67634 70681,70341,70315
 3.6000e+000 70517 -1.4074e+001 -3.3220e+001  2.7933e+001 67634 70341,70419,70367
 3.6000e+000 70494 -1.6688e+001  2.6756e+001 -8.9228e+000 67634 70263,70445,70289
 3.6000e+000 70471  9.8445e+000  4.1081e+000  1.5818e+001 67634 70367,70419,70393
 3.6000e+000 70635  1.1790e-001  3.0001e+001  7.4446e+000 67634 70445,70419,70609
 3.6000e+000 70658 -1.6574e+001 -5.0168e+001  1.7228e+001 67634 70445,70609,70289
 3.6000e+000 70707 -2.1539e+000 -6.4869e+001  5.6097e+000 67634 70289,70609,70681
 3.6000e+000 70730 -2.1176e+001 -7.3903e+001  8.2016e+000 67634 70289,70681,70315
 3.6000e+000 71108  1.6228e+001  3.0096e+001 -8.5053e-002 67344 71131,70912,70886
 3.6000e+000 71085 -1.0669e+001 -3.7489e+001  1.0151e+001 67344 71131,70886,70860
 3.6000e+000 71062 -1.5362e+001 -3.5608e+001  2.1807e+001 67344 71203,70938,70912
 3.6000e+000 71039  2.0659e+001 -2.7433e+001  1.8516e+001 67344 70834,70990,70860
 3.6000e+000 71016 -4.0727e+000 -5.7963e+001  8.5408e+000 67344 70938,70990,70964
 3.6000e+000 71157 -1.2295e+001 -2.3440e+001  2.1812e+001 67344 71203,70912,71131
 3.6000e+000 71180  8.0910e+000 -3.2418e+001  1.6262e+001 67344 70990,71131,70860
 3.6000e+000 71229 -4.6040e+000 -6.3184e+001  1.6092e+001 67344 70990,70938,71203
 3.6000e+000 71252  3.4171e+000 -4.3715e+001  1.2526e+001 67344 70990,71203,71131
 3.6000e+000 71603  5.5759e+000 -5.5714e+001  1.0906e+001 67032 71378,71482,71404
 3.6000e+000 71580 -2.0965e+000 -3.5278e+001  1.4393e+001 67032 71378,71508,71482
 3.6000e+000 71557  1.3814e+000 -3.0231e+001  2.4539e+001 67032 71404,71456,71430
 3.6000e+000 71534 -4.0703e-001 -7.0684e+001  1.0089e+001 67032 71404,71482,71456
 3.6000e+000 72003  2.1563e+001 -9.2172e+000  1.5045e+001 66834 71755,71859,71781
 3.6000e+000 71980  1.1320e+001 -9.9740e+001  1.1477e+000 66834 71755,71885,71859
 3.6000e+000 71957  1.6325e+000 -7.0723e+000 -1.4454e+000 66834 71781,71833,71807
 3.6000e+000 71934 -8.8806e+000 -1.0642e+002 -1.2901e+001 66834 71781,71859,71833
 3.6000e+000 71911  3.7386e+001 -2.3779e+001  3.7906e+001 66834 71729,71885,71755
 3.6000e+000 72430  2.2535e+001 -3.1893e+001 -4.0570e+000 66266 72237,72289,72263
 3.6000e+000 72407  1.4409e+001 -5.3612e+001  4.2809e+000 66266 72133,72289,72237
 3.6000e+000 72384 -2.2349e-001 -2.2271e+001 -2.6298e+000 66266 72133,72237,72211
 3.6000e+000 72361 -1.5241e+001 -7.7238e+001 -7.8108e+000 66266 72107,72289,72133
 3.6000e+000 72338 -1.4234e+001 -6.1862e+001  2.9158e+001 66266 72133,72211,72185
 3.6000e+000 72315 -5.7182e+000 -8.4179e+001  2.5155e+001 66266 72133,72185,72159
 3.6000e+000 72580 -2.2767e+000 -4.7100e+001  1.3766e+000 65968 72479,72531,72505
 3.6000e+000 72557  8.0070e-001 -2.2203e+001  1.3451e+000 65968 72453,72531,72479
 3.6000e+000 72960  1.9188e+001  5.2118e+001  2.7142e+000 65621 72983,72738,72712
 3.6000e+000 72937  5.7876e+001 -1.1302e+001  2.4687e-001 65621 72983,72712,72686
 3.6000e+000 72914  1.6742e+001 -6.6799e+001 -3.2763e+000 65621 72738,72842,72764
 3.6000e+000 72891 -5.7716e+000 -7.7632e+001 -2.2665e-002 65621 72764,72842,72816
 3.6000e+000 72868 -4.4401e+001 -1.7838e+002  2.5353e+001 65621 72764,72816,72790
 3.6000e+000 73009  3.0938e+001  2.5286e+000  1.2254e+001 65621 72842,72738,72983
 3.6000e+000 73032  2.7318e+001 -1.1606e+002  1.6324e+001 65621 72842,72983,72686
 3.6000e+000 73361  1.0554e+001 -2.2659e+002 -4.6959e+000 65281 73456,73384,73188
 3.6000e+000 73338 -8.9322e+000 -1.8232e+002  2.4627e+001 65281 73384,73162,73136
 3.6000e+000 73315 -1.0039e+001 -7.2151e+001  7.4519e+000 65281 73188,73240,73214
 3.6000e+000 73292  1.5106e+001 -9.5937e+000 -1.8498e+001 65281 73136,73266,73240
 3.6000e+000 73410 -4.1067e+001 -1.9910e+002 -1.2344e+001 65281 73240,73188,73384
 3.6000e+000 73433 -1.9608e+001 -3.4233e+001  5.1968e+000 65281 73240,73384,73136
 3.6000e+000 73482 -3.3031e+000 -2.8874e+002 -2.5986e+001 65281 73162,73384,73456
 3.6000e+000 73711 -2.2126e+000  2.0656e+001 -3.5490e+001 64820 73734,73610,73584
 3.6000e+000 73688 -1.5007e+001 -1.0407e+001 -3.1519e+001 64820 73734,73584,73662
 3.6000e+000 73760  1.7098e+001  3.3966e+001  5.7258e+000 64820 73636,73610,73734
 3.6000e+000 73783 -4.1364e+001 -1.1000e+000 -1.1750e+001 64820 73806,73734,73662
 3.6000e+000 73832 -1.2512e+001 -2.0264e+001 -6.8097e+000 64820 73636,73734,73806
 3.6000e+000 74112  1.2204e+001 -6.1131e+000 -1.3055e+001 64622 74278,74135,73988
 3.6000e+000 74089 -9.4696e-001 -3.0207e+001  2.7800e+000 64622 74135,73936,74040
 3.6000e+000 74066  1.4781e+001 -4.7399e+000 -2.6412e+001 64622 74278,73988,73962
 3.6000e+000 74161 -1.3074e+001 -2.3022e+001 -5.7291e+000 64622 74014,73988,74135
 3.6000e+000 74184 -1.7043e-001 -2.7303e+001  1.1653e+000 64622 74207,74135,74040
 3.6000e+000 74233  4.0961e+000 -1.9905e+001 -5.2278e+000 64622 74014,74135,74207
 3.6000e+000 74304  5.2577e-001 -3.4128e+001  3.9036e-001 64622 73936,74135,74278
 3.6000e+000 74327  1.3132e+001 -2.4742e+001 -1.4433e+001 64622 73936,74278,73962
 3.6000e+000 74526  1.5211e+001  1.7789e+001  2.7433e+000 64424 74621,74549,74402
 3.6000e+000 74503 -9.8498e+000 -1.6770e+001  1.1368e+001 64424 74549,74350,74454
 3.6000e+000 74480  2.2588e+001  2.7034e+001 -8.7911e+000 64424 74621,74402,74376
 3.6000e+000 74575  2.7954e+001 -1.4718e+001  1.2075e+001 64424 74428,74402,74549
 3.6000e+000 74598  8.2879e+000 -3.1033e+001  1.5470e+001 64424 74693,74549,74454
 3.6000e+000 74647  2.9448e+000 -8.2079e-001  1.8398e+001 64424 74350,74549,74621
 3.6000e+000 74670  1.2748e+001  6.6469e+000  6.5377e+000 64424 74350,74621,74376
 3.6000e+000 74719  4.9831e+000 -5.2145e+001 -8.4914e-001 64424 74428,74549,74693
 3.6000e+000 75123 -1.9520e+001 -1.8409e+002  3.7542e+001 64126 74875,74953,74927
 3.6000e+000 75100 -1.0268e+001 -1.8851e+002  2.2328e+001 64126 74875,74979,74953
 3.6000e+000 75077 -5.3058e-001 -9.8638e+001 -7.9694e+000 64126 74875,75005,74979
 3.6000e+000 75054 -6.4472e-002 -2.2372e+002  5.9195e+001 64126 74875,74927,74901
 3.6000e+000 75031 -2.8742e+001 -3.9272e+001  1.7209e+001 64126 74849,75005,74875
 3.6000e+000 75224 -1.5558e+001 -1.1514e+002  1.3033e+001 63836 75146,75198,75172
 3.6000e+000 75472  1.5099e+001 -4.3961e+001  2.1685e+001 63375 75273,75351,75325
 3.6000e+000 75449 -1.6976e+001 -4.9536e+001  1.2845e+001 63375 75273,75377,75351
 3.6000e+000 75426 -3.7601e+001 -6.4442e+001  5.6596e+000 63375 75247,75377,75273
 3.6000e+000 75403  2.8810e+001 -2.3464e+001  1.5460e+001 63375 75273,75325,75299
 3.6000e+000 75673  2.1402e+001 -4.3417e+001  1.3895e+001 63063 75523,75575,75549
 3.6000e+000 75650  1.7105e+001 -8.6724e+001 -7.5690e+000 63063 75497,75575,75523
 3.6000e+000 75627  1.8631e+001 -9.6866e+001  1.5490e+001 63063 75497,75601,75575
 3.6000e+000 75874  2.4430e+001 -8.8591e+001 -9.2908e+000 62716 75897,75750,75724
 3.6000e+000 75851  1.5467e+001 -7.3259e+001 -5.2640e+000 62716 75897,75724,75698
 3.6000e+000 75828  2.8159e+000 -5.5720e+001 -2.6200e+001 62716 75698,75802,75776
 3.6000e+000 75923  3.7092e+001 -7.0925e+001 -1.6886e+001 62716 75776,75750,75897
 3.6000e+000 75946  1.8491e+001 -6.4900e+001 -7.5644e+000 62716 75776,75897,75698
 3.6000e+000 76328 -1.6613e+001 -9.4834e+001  1.9817e-001 62198 76495,76351,76158
 3.6000e+000 76305 -2.9005e+001 -1.0055e+002  1.4181e+000 62198 76351,76080,76054
 3.6000e+000 76282 -6.8806e+000 -1.4583e+002 -2.7279e+000 62198 76423,76184,76158
 3.6000e+000 76259 -1.8222e+001 -9.3661e+001  8.3114e-001 62198 76495,76158,76106
 3.6000e+000 76236 -3.6939e+001 -1.4614e+002  2.5721e+001 62198 76106,76158,76132
 3.6000e+000 76377 -2.4657e+001 -1.1329e+002 -7.3931e+000 62198 76423,76158,76351
 3.6000e+000 76400 -2.9293e+001 -8.8803e+001 -1.2744e+001 62198 76210,76351,76054
 3.6000e+000 76449  1.1543e+001 -1.1535e+002 -1.0482e+001 62198 76210,76184,76423
 3.6000e+000 76472 -4.0640e+000 -8.6740e+001 -1.6969e+001 62198 76210,76423,76351
 3.6000e+000 76521 -1.8802e+001 -9.5677e+001 -4.8194e-002 62198 76080,76351,76495
 3.6000e+000 76544 -2.1374e+001 -9.5007e+001  7.0245e-001 62198 76080,76495,76106
 3.6000e+000 76841  9.3264e+000 -1.0337e+002  1.8450e+001 61751 76936,76864,76645
 3.6000e+000 76818  4.8267e+001 -9.1440e+001 -3.1629e+001 61751 76864,76567,76723
 3.6000e+000 76795  1.7270e+001 -5.9551e+001  1.8066e+001 61751 76936,76645,76593
 3.6000e+000 76772 -1.0138e+002 -2.5750e+002  6.1237e+001 61751 77008,76697,76671
 3.6000e+000 76749 -4.0555e+000 -3.3164e+001 -1.2110e+001 61751 76593,76645,76619
 3.6000e+000 76890 -5.5371e+000 -1.4191e+002  3.2619e+001 61751 76671,76645,76864
 3.6000e+000 76913 -2.2220e+001 -1.3858e+002  1.9141e+001 61751 77008,76671,76864
 3.6000e+000 76962  2.7028e+001 -1.6167e+002 -3.3367e+000 61751 76567,76864,76936
 3.6000e+000 76985  3.2818e+001 -1.2412e+002  1.1251e+000 61751 76567,76936,76593
 3.6000e+000 77034  1.5302e+001 -1.8195e+002 -2.4526e+001 61751 76723,76697,77008
 3.6000e+000 77057  4.6288e+000 -1.9372e+002 -1.9788e+001 61751 76723,77008,76864
 3.6000e+000 77207 -1.4665e+001 -4.5836e+001  1.5131e+001 61418 77106,77158,77132
 3.6000e+000 77184  4.7722e+001 -1.1325e+002  2.7041e+001 61418 77080,77158,77106
 3.6000e+000 77638  1.5824e+001 -1.1820e+002 -1.8329e+001 60814 77733,77661,77471
 3.6000e+000 77615 -2.0451e+000 -1.0992e+002 -1.1809e+001 60814 77661,77393,77315
 3.6000e+000 77592  2.0260e+001 -1.0039e+002 -9.9291e+000 60814 77733,77471,77445
 3.6000e+000 77569 -4.7137e+001 -2.6499e+002 -4.1079e+001 60814 77315,77367,77341
 3.6000e+000 77546 -1.9101e+000 -1.8263e+002 -2.1802e+001 60814 77315,77393,77367
 3.6000e+000 77523  8.9110e+000 -5.3078e+001 -2.3936e+001 60814 77393,77445,77419
 3.6000e+000 77687 -8.4973e+000 -1.2731e+002 -2.9915e+001 60814 77497,77471,77661
 3.6000e+000 77710 -7.9088e-001 -1.0969e+002 -1.1731e+001 60814 77497,77661,77315
 3.6000e+000 77759  7.7308e-001 -8.8647e+001 -1.2871e+001 60814 77393,77661,77733
 3.6000e+000 77782  9.0900e+000 -7.1139e+001 -1.6526e+000 60814 77393,77733,77445
 3.6000e+000 78337  8.0319e+000 -3.4796e+001  4.7036e+000 60210 78360,78017,77965
 3.6000e+000 78314  4.0357e+000 -2.9167e+001  7.4172e+000 60210 78360,77965,78173
 3.6000e+000 78291 -2.8647e+000 -4.6920e+001 -7.5188e+000 60210 78432,78043,78017
 3.6000e+000 78268 -6.8854e+000 -6.0859e+001 -2.1666e+000 60210 77965,78017,77991
 3.6000e+000 78245 -1.6797e-001 -2.1074e+001  9.9581e-001 60210 78043,78095,78069
 3.6000e+000 78222 -5.6466e+000 -5.1121e+001  8.9116e+000 60210 78095,78173,78121
 3.6000e+000 78199 -2.4235e+000 -3.9588e+001 -5.8698e+000 60210 78121,78173,78147
 3.6000e+000 78386 -1.3289e-001 -4.3089e+001  1.2774e+000 60210 78432,78017,78360
 3.6000e+000 78409  2.7317e+000 -3.1140e+001  6.8544e+000 60210 78095,78360,78173
 3.6000e+000 78458  3.8422e+000 -3.4741e+001 -2.4242e+000 60210 78095,78043,78432
 3.6000e+000 78481  6.1144e+000 -2.9161e+001  6.0448e+000 60210 78095,78432,78360
 3.6000e+000 78680 -2.7721e+001 -5.1472e+001 -5.4030e+000 59848 78703,78556,78530
 3.6000e+000 78657 -2.5961e+001 -7.8181e+001 -3.4526e+001 59848 78703,78530,78504
 3.6000e+000 78634 -3.0226e+001 -1.5630e+002 -1.9467e+001 59848 78504,78608,78582
 3.6000e+000 78729 -2.4659e+001 -1.0837e+002 -6.5698e-001 59848 78582,78556,78703
 3.6000e+000 78752 -2.0548e+001 -1.1520e+002 -3.9920e+001 59848 78582,78703,78504
 3.6000e+000 78951  3.7839e-001 -1.9035e+001 -2.3552e+000 59344 78974,78801,78775
 3.6000e+000 78928 -1.9296e+001 -7.2000e+001 -1.7388e+001 59344 79046,78974,78775
 3.6000e+000 78905 -9.0577e+000 -1.2289e+002 -1.6246e+001 59344 79046,78775,78879
 3.6000e+000 79000  1.4439e+001 -5.6471e+000  2.5629e+001 59344 78827,78801,78974
 3.6000e+000 79023 -5.1911e+000 -1.1200e+001  2.6038e+000 59344 78827,78974,78853
 3.6000e+000 79072 -1.8033e+001 -1.5792e+001  1.9452e+000 59344 78853,78974,79046
 3.6000e+000 79095  8.2034e+000 -4.8072e+001  6.6822e+000 59344 78853,79046,78879
 3.6000e+000 79296  1.8266e+001 -2.6129e+001  1.0478e+001 58711 79319,79172,79146
 3.6000e+000 79273  1.5560e+001 -4.6894e+001  3.7611e+000 58711 79319,79146,79120
 3.6000e+000 79250  2.5118e+000 -1.0614e+002  3.4775e+001 58711 79172,79224,79198
 3.6000e+000 79345  2.5280e+001 -4.8184e+001  1.1528e+001 58711 79224,79172,79319
 3.6000e+000 79368  2.5405e+001 -6.6661e+001  8.0680e+000 58711 79224,79319,79120
 3.6000e+000 79667  4.2918e+000 -4.9069e+001 -3.4742e+000 58285 79690,79471,79393
 3.6000e+000 79644  1.0863e+001 -7.3842e+001 -1.7767e+001 58285 79690,79393,79549
 3.6000e+000 79621  3.1430e+001 -8.1342e+001  2.2603e+001 58285 79393,79471,79419
 3.6000e+000 79598  1.8523e+001 -3.8387e+001 -3.7650e+000 58285 79497,79549,79523
 3.6000e+000 79575 -3.5385e+000 -1.3885e+002  3.8173e+001 58285 79419,79471,79445
 3.6000e+000 79716  1.2464e+001 -2.8758e+001  7.8830e+000 58285 79497,79471,79690
 3.6000e+000 79739  2.1317e+001 -6.0394e+001 -3.5378e+000 58285 79497,79690,79549
 3.6000e+000 80249  9.9620e+000  2.3734e+001  1.9545e+001 57831 80272,79978,79952
 3.6000e+000 80226 -2.5282e+000  3.1623e+001 -1.2275e-003 57831 80272,79952,80108
 3.6000e+000 80203  1.6274e+000  3.2495e+000 -1.3962e+001 57831 79926,80108,79952
 3.6000e+000 80180 -6.0743e-001  1.3277e+000  7.8949e+000 57831 80004,80082,80030
 3.6000e+000 80157 -7.2610e+000  5.5770e+000  6.0618e-001 57831 80004,80108,80082
 3.6000e+000 80134  4.2682e+000  5.2149e-001  9.5499e-001 57831 80030,80082,80056
 3.6000e+000 80298 -8.7635e+000 -2.1373e+001  2.1674e+001 57831 80004,79978,80272
 3.6000e+000 80321 -5.1163e+000  1.6300e+001  2.7682e+000 57831 80004,80272,80108
 3.6000e+000 80618 -1.0943e+001 -9.8915e+001 -1.2042e+000 57077 80344,80448,80422
 3.6000e+000 80595 -3.1762e+000 -9.6674e+001  7.2880e-002 57077 80344,80500,80448
 3.6000e+000 80572  1.7586e+001 -3.9659e+001 -1.0636e+001 57077 80344,80422,80370
 3.6000e+000 80549 -7.8608e+000 -3.1205e+001 -4.4216e+000 57077 80370,80422,80396
 3.6000e+000 80526 -3.7702e+001 -1.8348e+002  1.8318e+001 57077 80448,80500,80474
 3.6000e+000 80768 -1.2001e+001 -2.0331e+001  4.6224e-002 56787 80791,80693,80667
 3.6000e+000 80745 -1.3109e+001 -2.3093e+001 -2.7074e+000 56787 80791,80667,80641
 3.6000e+000 80817 -8.7311e+000 -2.2034e+001 -3.6108e+000 56787 80719,80693,80791
 3.6000e+000 80840 -2.4998e+001 -4.0358e+001 -1.0564e+001 56787 80719,80791,80641
 3.6000e+000 81429 -1.1900e+001 -1.9016e+001  8.5297e+000 56497 81452,81158,81132
 3.6000e+000 81406  1.0121e+001 -2.8064e+001  3.6370e+000 56497 81452,81132,81288
 3.6000e+000 81383 -5.8819e+000 -9.8262e+000 -8.4407e+000 56497 81524,81184,81158
 3.6000e+000 81360  2.1008e+000 -6.6521e+001 -1.4222e+001 56497 81210,81288,81236
 3.6000e+000 81337  5.9810e-001 -3.5710e+001 -1.7481e+000 56497 81106,81288,81132
 3.6000e+000 81314 -2.0118e+000 -1.5253e+001 -2.4378e+001 56497 81236,81288,81262
 3.6000e+000 81478 -3.9114e+000 -2.1096e+001  2.7413e+000 56497 81524,81158,81452
 3.6000e+000 81501  2.4900e+001 -1.9675e+001  8.7284e+000 56497 81210,81452,81288
 3.6000e+000 81550 -6.5818e-001  1.9249e+000 -7.3132e+000 56497 81210,81184,81524
 3.6000e+000 81573  6.7612e+000  2.2042e+000  5.2923e+000 56497 81210,81524,81452
 3.6000e+000 81870  1.0016e+001 -1.9657e+001  1.3267e+001 55979 81893,81674,81648
 3.6000e+000 81847 -1.5676e+000 -2.4020e+001  1.4625e+001 55979 81893,81648,81752
 3.6000e+000 81824 -6.2648e+000 -2.2980e+001  1.2741e+001 55979 81596,81752,81648
 3.6000e+000 81801  2.5353e+001  1.3533e+001  2.5837e+000 55979 81674,81726,81700
 3.6000e+000 81778 -7.1566e+000 -2.5781e+001  1.7423e+001 55979 81596,81648,81622
 3.6000e+000 81919  1.7194e+001 -2.0965e+001  4.0299e+000 55979 81726,81674,81893
 3.6000e+000 81942  1.7297e+000 -2.6700e+001  4.6605e+000 55979 81726,81893,81752
 3.6000e+000 82371 -2.6242e+001 -3.6927e+001 -1.2385e+001 55631 82100,82204,82152
 3.6000e+000 82348  1.3119e+001 -5.3169e+001 -1.9588e+001 55631 82100,82230,82204
 3.6000e+000 82325  3.7236e+001 -9.3222e+000 -1.6178e+001 55631 82100,82152,82126
 3.6000e+000 82302 -5.4571e+000 -9.2227e+001 -8.7013e+000 55631 82074,82230,82100
 3.6000e+000 82279 -3.0576e+001 -5.6776e+001 -2.6848e+001 55631 82152,82204,82178
 3.6000e+000 82256  1.6200e+000 -3.3150e+001 -4.4527e+000 55631 82048,82230,82074
 3.6000e+000 82521  3.6817e+001 -3.9381e+001 -3.1775e+000 55227 82544,82420,82394
 3.6000e+000 82498  3.4670e+001 -6.2442e+001  3.2064e-002 55227 82544,82394,82472
 3.6000e+000 82570  2.7718e+001 -2.0982e+001 -2.6354e+000 55227 82446,82420,82544
 3.6000e+000 82593  2.7785e+001 -3.8749e+001  6.6089e+000 55227 82446,82544,82472
 3.6000e+000 82875  9.3306e+000 -1.0725e+000  5.4304e+000 54979 82699,82777,82725
 3.6000e+000 82852 -5.5572e+000  2.3086e+001  8.3212e+000 54979 82699,82803,82777
 3.6000e+000 82829 -2.1923e+000 -6.0224e+000  3.5333e+000 54979 82725,82777,82751
 3.6000e+000 83204  3.4367e+000 -5.8476e+000 -2.0181e+000 54475 83005,83083,83057
 3.6000e+000 83181 -2.8959e+000 -1.3670e+001  3.3079e+000 54475 82979,83083,83005
 3.6000e+000 83158  2.9663e+000  4.5999e+000 -5.7363e-001 54475 83005,83057,83031
 3.6000e+000 83135  1.2273e+000 -4.1041e+000 -1.7474e+000 54475 82979,83109,83083
 3.6000e+000 83582  8.4418e+000 -7.7429e+000 -7.5644e+000 54071 83605,83438,83412
 3.6000e+000 83559  2.0078e+000 -1.2537e+001 -1.5391e-002 54071 83749,83605,83412
 3.6000e+000 83536 -1.0195e+001 -3.5418e+001  1.2059e+001 54071 83677,83360,83334
 3.6000e+000 83513  3.5780e+000 -1.3102e+001 -4.7068e-001 54071 83749,83412,83677
 3.6000e+000 83490 -4.0408e+000 -2.0594e+001  3.8587e+000 54071 83308,83464,83334
 3.6000e+000 83631 -2.2031e+000 -1.3577e+001 -3.9801e+000 54071 83464,83438,83605
 3.6000e+000 83654 -6.6265e-001 -1.9661e+001  3.9777e+000 54071 83464,83605,83334
 3.6000e+000 83703 -7.1593e-001 -1.5873e+001 -5.7722e+000 54071 83386,83360,83677
 3.6000e+000 83726  7.0169e+000  1.2709e+001 -1.4947e+001 54071 83386,83677,83412
 3.6000e+000 83775  5.4548e+000 -1.2699e+001  5.8608e-002 54071 83334,83605,83749
 3.6000e+000 83798  7.4179e+000 -1.2938e+001 -4.6750e-001 54071 83334,83749,83677
 3.6000e+000 84068  1.0086e+001  1.0337e+001 -8.0129e+000 53524 83869,83921,83895
 3.6000e+000 84045  1.2176e+001 -3.0494e+001  3.4293e+000 53524 83869,83947,83921
 3.6000e+000 84022 -3.1136e-001 -4.8080e+001 -2.4940e+000 53524 83843,83947,83869
 3.6000e+000 83999  1.2779e+001 -4.9053e+001 -1.0073e+000 53524 83843,83973,83947
 3.6000e+000 84497 -1.4522e+001 -1.0231e+002  6.9907e+000 53184 84200,84330,84252
 3.6000e+000 84474  4.9176e+000 -4.5148e+001  1.5025e+001 53184 84200,84356,84330
 3.6000e+000 84451  5.4844e+000 -4.6305e+001  1.4759e+001 53184 84200,84252,84226
 3.6000e+000 84428 -8.4824e+000 -6.9272e+001 -2.7599e+001 53184 84252,84330,84278
 3.6000e+000 84405  2.6290e+000 -4.7308e+001  1.7731e+001 53184 84174,84356,84200
 3.6000e+000 84382 -3.5078e-001 -7.0500e+001 -4.3414e+000 53184 84278,84330,84304
 3.6000e+000 84954 -1.8494e+000 -4.6649e+001  2.5882e+001 52680 84706,84836,84784
 3.6000e+000 84931  1.5265e+001 -3.0867e+001 -2.6969e+000 52680 84680,84836,84706
 3.6000e+000 84908  2.5812e+000 -1.8160e+002 -2.1722e+000 52680 84784,84836,84810
 3.6000e+000 84885 -6.3270e+000 -1.8064e+002  1.0624e-001 52680 84706,84784,84732
 3.6000e+000 84862  3.8871e+000 -1.9830e+002  2.7341e+001 52680 84732,84784,84758
 3.6000e+000 85202 -1.4306e+001 -8.8219e+001  9.4374e-002 52226 85029,85081,85055
 3.6000e+000 85179 -7.4726e+000 -6.3298e+001  7.4955e+000 52226 85225,85081,85029
 3.6000e+000 85156  3.1136e+000 -3.7044e+001  2.3720e+001 52226 85225,85029,85003
 3.6000e+000 85133 -3.6896e+001 -7.3605e+001 -2.3729e+001 52226 84977,85107,85003
 3.6000e+000 85251 -1.9650e+001 -6.8391e+001 -1.9374e+001 52226 85107,85081,85225
 3.6000e+000 85274 -2.1779e+001 -1.4878e+001 -7.2094e+000 52226 85107,85225,85003
 3.6000e+000 85522  2.3286e+001 -6.0757e+001  1.6276e+001 51764 85297,85349,85323
 3.6000e+000 85499  3.5204e+001 -5.9729e+001  8.9168e+000 51764 85545,85297,85427
 3.6000e+000 85476  1.2216e+001 -4.1837e+001 -2.5161e+000 51764 85545,85427,85375
 3.6000e+000 85453  1.8601e+001 -4.4852e+001 -1.1403e+001 51764 85375,85427,85401
 3.6000e+000 85571  4.8184e+001 -4.9491e+001  3.4909e+000 51764 85349,85297,85545
 3.6000e+000 85594  3.3922e+001 -2.5052e+001 -1.0327e+001 51764 85349,85545,85375
 3.6000e+000 85746 -3.1217e+001 -7.2500e+001  4.0476e+000 51374 85645,85697,85671
 3.6000e+000 85723 -4.0238e+001 -8.0949e+001 -2.8473e+000 51374 85619,85697,85645
 3.6000e+000 86256  1.6811e+001  7.1141e+000  8.8375e+000 50970 86279,86011,85959
 3.6000e+000 86233  1.2210e+001  1.2374e+001  8.3713e+000 50970 86279,85959,86115
 3.6000e+000 86210  1.1032e+001 -1.0113e+001 -9.7468e-001 50970 85959,86011,85985
 3.6000e+000 86187  1.5795e+001  2.1645e+001 -1.7391e+001 50970 86037,86115,86089
 3.6000e+000 86164  8.8103e-002  6.0336e+000 -3.0879e-001 50970 85933,86115,85959
 3.6000e+000 86141  1.2063e+001 -1.3054e+001 -1.9217e+001 50970 86037,86089,86063
 3.6000e+000 86305  1.3848e+001  2.8188e+000  7.4718e+000 50970 86037,86011,86279
 3.6000e+000 86328  9.4275e+000  8.3686e+000  7.0626e+000 50970 86037,86279,86115
 3.6000e+000 86478 -1.1874e+001 -1.2596e+002  1.0373e+001 50451 86351,86403,86377
 3.6000e+000 86455 -5.5150e+001 -3.8969e+002 -6.9262e+000 50451 86351,86429,86403
 3.6000e+000 86907  1.3458e+000 -6.2697e+000 -8.5864e+000 50047 86930,86714,86662
 3.6000e+000 86884  1.4401e+001 -3.4329e+001 -1.0724e+001 50047 86930,86662,86610
 3.6000e+000 86861  4.1819e+001 -4.7203e+001 -2.0199e+001 50047 87002,86740,86714
 3.6000e+000 86838  2.4013e+001  4.5740e+000 -2.0183e+001 50047 86662,86714,86688
 3.6000e+000 86815  9.4508e+000 -4.3257e+001 -7.6561e+000 50047 86610,86662,86636
 3.6000e+000 86792  1.8375e+001 -5.6595e+001  1.3018e+001 50047 86584,86766,86610
 3.6000e+000 86956  2.3442e+001 -2.5478e+001 -6.6633e+000 50047 87002,86714,86930
 3.6000e+000 86979 -3.6101e+000 -6.7936e+001  1.0575e+000 50047 86766,86930,86610
 3.6000e+000 87028  9.0170e+000 -3.4422e+001 -2.3951e+001 50047 86766,86740,87002
 3.6000e+000 87051 -3.5905e-001 -3.0734e+001 -1.4036e+001 50047 86766,87002,86930
 3.6000e+000 87250  1.1403e-002 -8.1113e+001 -2.2194e+001 49543 87273,87126,87100
 3.6000e+000 87227  4.5196e+000 -5.6872e+001 -5.7907e+000 49543 87273,87100,87074
 3.6000e+000 87204  1.8790e+001 -7.9565e+001 -1.2522e+001 49543 87126,87178,87152
 3.6000e+000 87299  5.6565e+000 -4.6149e+001 -1.6689e+001 49543 87178,87126,87273
 3.6000e+000 87322  4.2413e+000 -3.8931e+001  2.6042e+000 49543 87178,87273,87074
 3.6000e+000 87570 -2.8951e+001 -5.5974e+001  1.5529e+001 49146 87593,87449,87397
 3.6000e+000 87547 -2.0025e+001 -2.5602e+001  3.4169e+001 49146 87593,87397,87371
 3.6000e+000 87524  1.1825e+001 -1.0443e+001  2.1882e+001 49146 87345,87475,87371
 3.6000e+000 87501 -1.1293e+001 -6.3175e+001  1.4603e+001 49146 87397,87449,87423
 3.6000e+000 87619 -5.2371e+001 -5.0446e+001 -7.3221e+000 49146 87475,87449,87593
 3.6000e+000 87642 -3.8225e+001 -3.0600e+001  1.0838e+001 49146 87475,87593,87371
 3.6000e+000 88073 -1.0693e+001  1.8642e+001  6.7388e+000 48706 87854,87932,87880
 3.6000e+000 88050 -6.2822e+000 -5.4664e+000 -4.5227e+000 48706 87828,87932,87854
 3.6000e+000 88027 -2.2634e+000  2.1175e+001 -4.7520e+000 48706 87750,87932,87828
 3.6000e+000 88004  2.0173e-001  7.4485e+001 -1.6889e+001 48706 87750,87802,87776
 3.6000e+000 87981 -1.4859e+000  1.4895e+001 -8.9890e+000 48706 87750,87828,87802
 3.6000e+000 87958  1.5253e+000  2.4315e+001  5.2208e+000 48706 87880,87932,87906
 3.6000e+000 88402 -1.1076e+001 -1.1719e+002  4.1853e+000 48145 88203,88281,88255
 3.6000e+000 88379 -1.1903e+001 -1.1435e+002  1.5591e+001 48145 88203,88307,88281
 3.6000e+000 88356 -1.2204e+001 -1.1458e+002  4.0233e+000 48145 88203,88255,88229
 3.6000e+000 88333  5.4068e+000 -6.1053e+001  1.2442e+001 48145 88177,88307,88203
 3.6000e+000 88601  3.7582e+001 -6.4702e+001  3.7048e+001 47805 88696,88624,88477
 3.6000e+000 88578  4.8009e-001 -3.8474e+001  1.2061e+001 47805 88826,88624,88451
 3.6000e+000 88555 -6.9007e+000 -4.7295e+001  9.0219e-001 47805 88826,88451,88425
 3.6000e+000 88650  1.8693e+001 -1.0767e+002  2.9243e+001 47805 88503,88477,88624
 3.6000e+000 88673  2.1936e+001 -7.3296e+001  3.1731e+000 47805 88503,88624,88529
 3.6000e+000 88722  2.8603e+000 -7.3065e+001  3.1800e+001 47805 88451,88624,88696
 3.6000e+000 88852 -1.4151e+000 -5.6194e+001  5.5816e-001 47805 88529,88624,88826
 3.6000e+000 88875 -8.9285e+000 -6.3777e+001 -1.0760e+001 47805 88529,88826,88425
 3.6000e+000 89172  6.5114e+000 -3.9017e+001  4.6699e+000 47401 89195,88976,88898
 3.6000e+000 89149 -7.3696e+000 -4.3370e+001 -6.0733e+000 47401 89195,88898,89054
 3.6000e+000 89126  1.0204e+000 -2.3148e+001  6.3390e-001 47401 88898,88976,88950
 3.6000e+000 89103 -4.9889e+000 -5.3463e+001 -1.9689e+001 47401 88976,89028,89002
 3.6000e+000 89080 -4.5175e+000 -3.6252e+001  9.0362e-002 47401 88898,88950,88924
 3.6000e+000 89221  1.1624e+001 -4.6301e+001 -1.3335e+001 47401 89028,88976,89195
 3.6000e+000 89244 -1.9073e+001 -5.5583e+001 -2.4077e+001 47401 89028,89195,89054
 3.6000e+000 89575 -1.5076e+000 -1.3078e+002  1.6771e+001 47111 89350,89454,89376
 3.6000e+000 89552  2.3389e+001 -8.1891e+001 -7.7441e+000 47111 89350,89480,89454
 3.6000e+000 89529  1.9469e+001 -1.6600e+002 -2.0195e+001 47111 89376,89454,89402
 3.6000e+000 89506  5.1344e+001 -1.1472e+002  8.4343e+000 47111 89402,89454,89428
 3.6000e+000 89904  3.0518e+001 -7.8976e+000 -6.2414e+000 46707 89705,89757,89731
 3.6000e+000 89881 -2.6848e+000 -5.1872e+000 -1.1418e+001 46707 89705,89783,89757
 3.6000e+000 89858  1.5538e+001  3.2215e+000 -9.0810e+000 46707 89679,89783,89705
 3.6000e+000 89835  6.2116e+000  4.3567e+001 -9.3763e-001 46707 89679,89809,89783
 3.6000e+000 90233  1.9755e-001  6.8661e+000  1.6135e+000 46360 90034,90112,90086
 3.6000e+000 90210  7.5929e+000  2.1602e+001  1.2307e+001 46360 90034,90138,90112
 3.6000e+000 90187  2.3834e+000  2.9413e+000  2.3244e+000 46360 90034,90086,90060
 3.6000e+000 90164  3.6187e+000  4.2807e+001 -4.2574e+000 46360 90008,90138,90034
 3.6000e+000 90530  1.9770e+001 -5.8361e+001  5.6417e+000 45662 90256,90360,90308
 3.6000e+000 90507  8.7437e+000 -5.7118e+001  3.4019e+000 45662 90256,90412,90360
 3.6000e+000 90484  3.4666e+001 -4.7904e+001 -2.1381e+000 45662 90256,90308,90282
 3.6000e+000 90461  2.2969e+001 -1.3283e+001  8.3135e+000 45662 90360,90412,90386
 3.6000e+000 90438  7.1141e+000 -6.3556e+001  3.7247e+000 45662 90308,90360,90334
 3.6000e+000 90910  2.6305e+001  1.5488e+001 -1.1483e+001 45108 90688,90766,90714
 3.6000e+000 90887  4.9170e+001 -1.2643e+001  1.2494e+001 45108 90662,90766,90688
 3.6000e+000 90864  8.7774e+000 -9.1123e+000  1.5463e+001 45108 90636,90766,90662
 3.6000e+000 90841  4.2645e+001 -5.3527e+001 -3.0621e+001 45108 90714,90766,90740
 3.6000e+000 90818  1.8980e+001  2.4977e+001 -8.3316e-001 45108 90636,90792,90766
 3.6000e+000 91158 -1.6796e+001 -5.1277e+001 -1.0447e+001 44604 91181,91011,90959
 3.6000e+000 91135  1.0433e+000 -6.2301e+001 -2.5961e+001 44604 91181,90959,90933
 3.6000e+000 91112 -1.4004e+001 -9.5103e+001  1.7037e+001 44604 90959,91011,90985
 3.6000e+000 91089 -1.6963e+000 -1.0751e+002 -1.3047e+001 44604 90933,91063,91037
 3.6000e+000 91207 -1.5994e+001 -6.7071e+001 -1.2954e+001 44604 91037,91011,91181
 3.6000e+000 91230 -1.7062e+001 -1.1041e+002 -2.3112e+001 44604 91037,91181,90933
 3.6000e+000 91429 -5.7945e+000 -9.5593e+001 -9.8635e+000 44264 91452,91279,91253
 3.6000e+000 91406  2.5287e+000 -8.8783e+001 -1.3405e+001 44264 91452,91253,91357
 3.6000e+000 91383 -1.9653e+001 -9.0828e+001  2.1468e+001 44264 91279,91331,91305
 3.6000e+000 91478  3.2961e+000 -1.0703e+002 -7.3553e+000 44264 91331,91279,91452
 3.6000e+000 91501  1.5185e+001 -9.8826e+001 -1.1059e+001 44264 91331,91452,91357
 3.6000e+000 92060 -3.0075e+001 -9.9524e+001  6.1908e+000 43860 92083,91740,91688
 3.6000e+000 92037 -1.7284e+001 -1.0239e+002  1.2632e+001 43860 92083,91688,91896
 3.6000e+000 92014 -3.2586e+001 -1.1767e+002 -5.2828e+000 43860 91766,91870,91844
 3.6000e+000 91991 -4.8758e+000 -9.7556e+001  8.6713e+000 43860 91740,91870,91766
 3.6000e+000 91968 -2.6978e+000 -9.8846e+001  3.3430e+000 43860 91766,91844,91792
 3.6000e+000 91945 -3.5079e+001 -7.5795e+001  1.9457e+001 43860 91688,91740,91714
 3.6000e+000 91922 -1.8168e+001 -1.1856e+002 -3.8069e+000 43860 91792,91844,91818
 3.6000e+000 92109 -1.9413e+001 -9.6144e+001  1.2021e+001 43860 91870,91740,92083
 3.6000e+000 92132 -5.5427e+000 -9.6323e+001  1.9393e+001 43860 91870,92083,91896
 3.6000e+000 92353  5.5981e+000 -3.9713e+001 -4.6366e+000 43662 92203,92255,92229
 3.6000e+000 92330 -4.6019e+000 -3.0800e+001 -2.7216e+000 43662 92376,92203,92281
 3.6000e+000 92307  3.4232e+000  3.7071e-001  9.1802e-001 43662 92177,92281,92203
 3.6000e+000 92402 -1.5054e+001 -3.5235e+001 -7.1551e-001 43662 92255,92203,92376
 3.6000e+000 92682 -7.2361e+000 -1.5487e+002 -1.4534e+001 43464 92532,92584,92558
 3.6000e+000 92659  2.4361e+000 -8.2583e+001  1.1725e+001 43464 92506,92584,92532
 3.6000e+000 92636 -2.1368e+000 -5.9263e+001 -1.8413e+001 43464 92506,92610,92584
 3.6000e+000 93013  7.5641e+000 -5.8742e+001 -4.0599e+001 42960 92866,92918,92892
 3.6000e+000 92990 -1.4772e+001 -4.6454e+001 -1.7369e+001 42960 93036,92918,92866
 3.6000e+000 92967  4.9686e+000 -6.9755e+001 -3.3176e+000 42960 93036,92866,92840
 3.6000e+000 92944  1.4181e+000  1.5581e+000  2.4038e+000 42960 92788,92918,92814
 3.6000e+000 93062 -4.8181e+000 -3.3985e+001 -1.1993e+001 42960 92814,92918,93036
 3.6000e+000 93085  3.0670e+001 -4.1319e+001  7.4343e+000 42960 92814,93036,92840
 3.6000e+000 93186  5.3695e+000 -1.0011e+002 -2.9015e+001 42556 93108,93160,93134
 3.6000e+000 93554  1.4329e+001 -8.9213e+001  1.3987e+000 42052 93231,93387,93361
 3.6000e+000 93531  1.5993e+001 -7.7834e+001  2.0154e+001 42052 93231,93413,93387
 3.6000e+000 93508  4.0870e+001 -5.6023e+001 -1.0381e+001 42052 93231,93361,93257
 3.6000e+000 93485  8.7619e+000 -7.8721e+001  3.7632e+000 42052 93283,93361,93335
 3.6000e+000 93462 -2.5655e+000 -6.4464e+001 -4.2471e+000 42052 93257,93361,93283
 3.6000e+000 93439  2.7480e+001 -7.2679e+001  1.3206e+001 42052 93283,93335,93309
 3.6000e+000 94162 -1.6666e+000 -6.4892e+000  5.3724e+000 41498 93767,93975,93793
 3.6000e+000 94139  8.9376e-003 -6.8143e+000  3.6553e-001 41498 93741,93975,93767
 3.6000e+000 94116  1.3459e+001 -2.2091e+001  2.6893e+000 41498 93793,93975,93923
 3.6000e+000 94093 -6.3967e+000 -6.8014e+001  2.0303e+001 41498 93923,93975,93949
 3.6000e+000 94070  1.6264e+000  5.6813e+000  5.8336e+000 41498 93871,93923,93897
 3.6000e+000 94047  1.5905e+000 -2.5870e+001  2.3650e+000 41498 93793,93923,93871
 3.6000e+000 94024 -7.3197e-002 -5.6104e+000 -9.0131e-001 41498 93819,93871,93845
 3.6000e+000 94001  4.7645e+000 -6.1113e+000  2.8219e+000 41498 93793,93871,93819
 3.6000e+000 94619  8.5226e-001 -6.0595e+001 -1.6324e+001 40930 94642,94423,94371
 3.6000e+000 94596  2.0017e+001 -6.1535e+001  9.8556e+000 40930 94642,94371,94345
 3.6000e+000 94573  3.1652e+001  1.4985e+001  1.3944e+001 40930 94345,94501,94475
 3.6000e+000 94550  2.3247e+001 -9.6834e+001 -1.9761e+001 40930 94371,94423,94397
 3.6000e+000 94527  2.3489e+001 -2.1218e+001 -1.3584e+001 40930 94423,94475,94449
 3.6000e+000 94668  2.1223e+001 -1.7758e+001 -1.0184e+001 40930 94475,94423,94642
 3.6000e+000 94691  2.7726e+001 -4.4667e+001  1.2476e+001 40930 94475,94642,94345
 3.6000e+000 95148 -2.0697e+001 -7.0453e+001  1.6596e+001 40362 95171,94952,94926
 3.6000e+000 95125 -3.3085e+000 -5.5813e+001  4.4121e+001 40362 95171,94926,95004
 3.6000e+000 95102 -3.2910e+001 -9.0645e+001  3.0387e+001 40362 94874,95004,94926
 3.6000e+000 95079 -4.3738e+000 -1.0052e+002  6.5663e+001 40362 94874,95030,95004
 3.6000e+000 95056 -4.4649e+001 -8.5907e+001  6.0296e+001 40362 94874,94926,94900
 3.6000e+000 95197 -4.2395e-001 -4.5734e+001  2.6187e+001 40362 94978,94952,95171
 3.6000e+000 95220  1.3936e+001 -3.3701e+001  5.2895e+001 40362 94978,95171,95004
 3.6000e+000 95549  1.8927e-001 -3.3224e+001  4.5697e+000 39586 95350,95402,95376
 3.6000e+000 95526  3.8060e+000  1.1701e+000 -1.4583e+001 39586 95324,95402,95350
 3.6000e+000 95503  1.7944e-001  2.9322e+001  6.2818e+000 39586 95324,95454,95402
 3.6000e+000 95480  2.6844e+001 -6.3799e+001  2.1199e+001 39586 95402,95454,95428
 3.6000e+000 96055  2.2681e+000 -8.5187e+000 -4.2161e+000 38968 96078,95862,95810
 3.6000e+000 96032  1.3923e+001 -2.6709e+000  5.2109e-001 38968 96078,95810,95758
 3.6000e+000 96009  1.5301e+000 -5.4205e+000 -5.9662e+000 38968 96150,95732,95888
 3.6000e+000 95986 -7.4854e+000  6.4584e+000  1.8942e+001 38968 95810,95862,95836
 3.6000e+000 95963 -6.5683e-001 -8.9574e+000 -1.9462e+000 38968 95732,95914,95888
 3.6000e+000 95940  3.8026e+000  6.3594e+000  1.2370e+001 38968 95758,95810,95784
 3.6000e+000 96104 -7.4642e+000 -6.4657e+000 -7.9195e+000 38968 95888,95862,96078
 3.6000e+000 96127  1.9401e+000 -5.3405e+000 -6.0564e+000 38968 96150,95888,96078
 3.6000e+000 96176  6.7581e-001 -5.2266e+000 -5.4125e+000 38968 95758,95732,96150
 3.6000e+000 96199  1.3404e+000 -5.0409e+000 -5.4386e+000 38968 95758,96150,96078
 3.6000e+000 96545  2.9253e+001 -4.5552e+001 -2.5797e+001 38507 96640,96568,96352
 3.6000e+000 96522 -3.1013e+001 -1.0607e+002  2.5472e+001 38507 96568,96300,96222
 3.6000e+000 96499  7.5230e+001 -7.2910e+000 -6.8823e+001 38507 96640,96352,96326
 3.6000e+000 96476  2.2910e+001 -9.3026e+001 -5.1023e+001 38507 96352,96404,96378
 3.6000e+000 96453 -5.3762e+001 -1.2103e+002  1.1975e+001 38507 96222,96300,96248
 3.6000e+000 96430 -2.4507e+001 -1.1204e+002 -1.4135e+001 38507 96248,96300,96274
 3.6000e+000 96594 -1.3391e+001 -9.0359e+001 -7.5324e+000 38507 96404,96352,96568
 3.6000e+000 96617  5.1763e+000 -9.3494e+001  3.7884e+000 38507 96404,96568,96222
 3.6000e+000 96666 -6.4314e-001 -1.0379e+002  2.1173e+001 38507 96300,96568,96640
 3.6000e+000 96689  1.3703e+001 -7.9846e+001 -1.7486e+001 38507 96300,96640,96326
 3.6000e+000 97069  3.9770e+001  7.4933e+000  1.3637e+001 37760 97092,96873,96821
 3.6000e+000 97046  3.2947e+001  4.9101e+000  9.5574e+000 37760 97092,96821,96795
 3.6000e+000 97023 -7.2319e+000  2.7200e+001  1.3797e+001 37760 96821,96873,96847
 3.6000e+000 97000  3.2517e+001  7.3080e+001 -1.6184e+000 37760 96873,96925,96899
 3.6000e+000 96977  1.4117e+001  3.8503e+001  1.4377e+001 37760 96795,96951,96925
 3.6000e+000 97118  4.2617e+001  7.0749e+000  4.5808e+000 37760 96925,96873,97092
 3.6000e+000 97141  2.3833e+001 -4.8688e-001  4.4896e-001 37760 96925,97092,96795
 3.6000e+000 97647 -3.2970e+001 -8.7020e+001  1.5605e+001 37356 97324,97480,97376
 3.6000e+000 97624 -4.8107e+000 -1.0847e+002  7.1548e+001 37356 97324,97506,97480
 3.6000e+000 97601 -1.7926e+001 -2.0263e+001  3.1139e+001 37356 97376,97480,97454
 3.6000e+000 97578 -2.8488e+001 -6.3044e+001  1.8183e+001 37356 97324,97376,97350
 3.6000e+000 97555 -3.0158e+000 -2.6102e+001  8.0039e+000 37356 97376,97454,97402
 3.6000e+000 97532 -1.3489e+001  1.2603e+001  9.8380e+000 37356 97402,97454,97428
 3.6000e+000 98232  1.7504e+001  8.1802e+000 -4.1267e+000 36902 97935,98065,98013
 3.6000e+000 98209  1.3950e+001  1.2036e+001  6.3321e-001 36902 97935,98091,98065
 3.6000e+000 98186  2.6259e+001  1.9138e+001 -1.0306e+001 36902 97935,98013,97987
 3.6000e+000 98163  9.8852e+000  2.5534e+001 -6.2895e-001 36902 97909,98091,97935
 3.6000e+000 98140  9.5900e+000  6.8283e+001  1.9242e+001 36902 97935,97987,97961
 3.6000e+000 98117  1.9357e+001  1.5043e+001 -6.5845e+000 36902 98013,98065,98039
 3.6000e+000 98659  9.1662e+000 -9.8498e+001 -1.5599e+001 36604 98682,98414,98388
 3.6000e+000 98636 -4.3818e+000 -9.6479e+001  1.9900e+001 36604 98682,98388,98336
 3.6000e+000 98613  1.1831e+001 -7.8445e+001  9.0725e+000 36604 98754,98518,98466
 3.6000e+000 98590  1.2645e+001  1.6181e+001 -1.2885e+001 36604 98414,98466,98440
 3.6000e+000 98567 -9.9918e+000 -1.1340e+002  1.6674e+001 36604 98336,98388,98362
 3.6000e+000 98544  1.2022e+001 -1.1492e+002  4.3359e+001 36604 98466,98518,98492
 3.6000e+000 98708  2.2617e+001 -5.6377e+001 -2.6357e+001 36604 98466,98414,98682
 3.6000e+000 98731  1.1906e+001 -7.3883e+001  8.5826e+000 36604 98754,98466,98682
 3.6000e+000 98780  1.2913e+001 -8.1145e+001  8.6013e+000 36604 98336,98518,98754
 3.6000e+000 98803  1.1306e+001 -7.8718e+001  7.5599e+000 36604 98336,98754,98682
 3.6000e+000 99309 -1.8924e+001 -2.9371e+001  4.3842e+000 36200 99332,99116,99012
 3.6000e+000 99286  5.2312e+000  7.0780e+001 -4.2976e+001 36200 99332,99012,98986
 3.6000e+000 99263  6.1615e+000 -2.0233e+001 -1.4438e+001 36200 99012,99116,99064
 3.6000e+000 99240  2.3886e+001  7.2822e+001 -1.5460e+000 36200 98986,99168,99142
 3.6000e+000 99217 -1.9172e+001 -1.0778e+002  2.9090e+001 36200 99064,99116,99090
 3.6000e+000 99194 -5.0922e+000  6.5536e+000 -2.8306e+001 36200 99012,99064,99038
 3.6000e+000 99358 -2.3339e+001 -1.0696e+002  5.0605e+001 36200 99142,99116,99332
 3.6000e+000 99381  2.4050e+000 -3.3702e+001 -5.9748e+000 36200 99142,99332,98986
 3.6000e+000 99887  3.5399e+000 -4.3622e+001  1.3181e+001 35488 99564,99720,99590
 3.6000e+000 99864  1.0465e+001 -2.6300e+001  1.0319e+001 35488 99564,99746,99720
 3.6000e+000 99841  1.9768e+001 -2.3856e+001 -2.3433e+001 35488 99642,99694,99668
 3.6000e+000 99818  9.4162e+000 -5.1504e+001  1.5763e+001 35488 99590,99694,99642
 3.6000e+000 99795  2.6574e+001 -3.0665e+001  8.0270e+000 35488 99590,99720,99694
 3.6000e+000 99772  5.2394e+001 -1.0795e+002  2.2167e+001 35488 99590,99642,99616
 3.6000e+000 99988  5.2787e+000  8.0396e+001  7.0755e-002 35198 99910,99962,99936
 3.6000e+000 100138  1.5592e+001 -1.3260e+001 -2.6852e+001 34794 100233,100161,100063
 3.6000e+000 100115 -2.8154e+001 -3.4523e+001 -5.1308e+000 34794 100365,100161,100037
 3.6000e+000 100187  3.4828e+001 -3.6722e+001 -2.4507e+001 34794 100089,100063,100161
 3.6000e+000 100210  8.5870e+000 -4.6617e+001 -2.7402e+001 34794 100089,100161,100011
 3.6000e+000 100259  2.5878e+001 -8.1248e+000  4.0596e+000 34794 100037,100161,100233
 3.6000e+000 100391 -4.5492e+000 -5.0489e+001  3.7791e+000 34794 100011,100161,100365
 3.6000e+000 100927 -4.5993e+000 -2.8850e+001  4.3913e+000 34404 100679,100809,100783
 3.6000e+000 100904  8.8654e+000 -4.1575e+001  2.3371e+000 34404 100653,100809,100679
 3.6000e+000 100881 -7.9954e-001 -8.8133e+000  3.5128e+000 34404 100705,100783,100731
 3.6000e+000 100858  3.9939e+000 -2.1597e+001 -3.5636e+000 34404 100679,100783,100705
 3.6000e+000 100835 -9.7156e+000  2.6904e+000 -1.4664e+001 34404 100731,100783,100757
 3.6000e+000 101354 -1.6041e+001 -1.0748e+002  1.9420e+001 34000 101377,101109,101057
 3.6000e+000 101331 -3.9132e+001 -1.1222e+002  2.2496e+001 34000 101449,101377,101057
 3.6000e+000 101308 -4.7484e+001 -8.9731e+001  2.2720e+001 34000 101449,101057,101031
 3.6000e+000 101285 -4.2872e+001 -7.6926e+001  1.1533e+001 34000 101031,101213,101187
 3.6000e+000 101262  1.6737e+000 -1.3733e+002 -2.4577e+001 34000 101135,101187,101161
 3.6000e+000 101239 -2.3617e+001 -8.6308e+001  1.5387e+001 34000 101057,101109,101083
 3.6000e+000 101403 -1.9641e+001 -9.6845e+001  7.9961e+000 34000 101135,101109,101377
 3.6000e+000 101426 -3.8062e+001 -1.0398e+002  5.2041e+000 34000 101135,101377,101187
 3.6000e+000 101475 -2.0260e+001 -8.5029e+001  1.3834e+001 34000 101187,101377,101449
 3.6000e+000 101498 -3.8593e+001 -7.4941e+001  1.7818e+001 34000 101187,101449,101031
 3.6000e+000 102083  5.2439e+001 -7.2770e+000 -3.6611e+000 33472 102106,101812,101786
 3.6000e+000 102060  5.5955e+000 -2.7862e+001 -1.5302e-001 33472 102106,101786,101916
 3.6000e+000 102037 -4.2916e+001 -2.6483e+000 -7.8505e+000 33472 101812,101864,101838
 3.6000e+000 102014 -3.7549e+001 -4.7128e+001 -5.5270e+000 33472 101864,101916,101890
 3.6000e+000 101991  7.7915e+000 -5.4785e+001 -4.2728e+000 33472 101786,101942,101916
 3.6000e+000 101968  3.5152e+000 -4.9146e+001  9.9154e+000 33472 101760,101942,101786
 3.6000e+000 102132  2.3649e+001 -6.4066e+000 -2.2271e+001 33472 101864,101812,102106
 3.6000e+000 102155  8.4834e+000 -1.2316e+001 -2.2506e+001 33472 101864,102106,101916
 3.6000e+000 102612 -8.5743e+000 -8.9639e+001 -5.7681e+001 33038 102635,102468,102390
 3.6000e+000 102589 -3.5894e+001 -1.4311e+002 -6.7921e+001 33038 102635,102390,102364
 3.6000e+000 102566  2.8673e+001 -7.5192e+001 -5.0115e+001 33038 102390,102468,102442
 3.6000e+000 102543 -1.2429e+001 -1.2553e+002 -2.5951e+001 33038 102338,102494,102364
 3.6000e+000 102520  5.1670e-001 -8.5884e+001 -4.9079e+001 33038 102390,102442,102416
 3.6000e+000 102661 -1.2753e+001 -7.7551e+001 -2.5050e+001 33038 102494,102468,102635
 3.6000e+000 102684 -2.5662e+001 -1.1232e+002 -3.0779e+001 33038 102494,102635,102364
 3.6000e+000 103318  9.2655e+000 -1.2288e+001  3.4884e-002 32402 102972,103128,103076
 3.6000e+000 103295  3.0737e+001 -1.1066e+001  2.0703e+000 32402 102946,103128,102972
 3.6000e+000 103272 -9.5696e+000 -6.7640e+001  2.4800e+001 32402 103076,103128,103102
 3.6000e+000 103249  1.8440e+001 -1.6942e+001 -3.3750e+000 32402 102946,103154,103128
 3.6000e+000 103226  3.0523e+001 -2.4015e+001  1.8134e+001 32402 102972,103076,102998
 3.6000e+000 103203  1.0036e+001 -1.0244e+001  3.0183e+001 32402 102998,103076,103050
 3.6000e+000 103180  1.4443e+001  2.3789e+001  1.8429e+001 32402 102998,103050,103024
 3.6000e+000 103696  3.9678e-001 -9.5700e+001 -1.3353e+001 31924 103448,103526,103500
 3.6000e+000 103673 -1.5547e+001 -1.0516e+002 -2.4252e+001 31924 103448,103578,103526
 3.6000e+000 103650 -2.2035e+001 -7.8548e+001 -8.6558e+000 31924 103448,103500,103474
 3.6000e+000 103627 -6.8686e+000 -1.5302e+002 -2.5616e+001 31924 103422,103578,103448
 3.6000e+000 103604 -2.3452e+001 -2.0749e+002 -4.4231e-001 31924 103526,103578,103552
 3.6000e+000 104281 -2.2398e+001 -3.6500e+000 -1.3097e+001 31520 104304,104062,104036
 3.6000e+000 104258  4.8226e+000  1.6928e+001 -3.8634e+000 31520 104304,104036,103984
 3.6000e+000 104235  6.7642e+000  5.2334e+001  1.7851e+001 31520 104062,104114,104088
 3.6000e+000 104212 -1.3850e+000  3.3032e+001 -2.2680e+000 31520 103958,104114,103984
 3.6000e+000 104189  1.8619e+001  4.4477e+001 -2.8962e+001 31520 103984,104036,104010
 3.6000e+000 104166 -7.3861e-001 -4.2123e-001 -5.5605e-001 31520 103958,104140,104114
 3.6000e+000 104330 -2.4715e+001  2.0110e+001 -4.2804e-001 31520 104114,104062,104304
 3.6000e+000 104353 -1.6137e+001  2.5965e+001  2.1778e+000 31520 104114,104304,103984
 3.6000e+000 104704 -6.9248e+000 -1.9367e+001 -1.3548e+001 31066 104479,104583,104505
 3.6000e+000 104681  4.4873e+001 -2.5003e+000 -1.6796e+001 31066 104479,104609,104583
 3.6000e+000 104658  1.3179e+001  6.6580e+001 -1.2423e+001 31066 104505,104557,104531
 3.6000e+000 104635  2.2198e+001 -4.9400e-001 -5.4304e+000 31066 104505,104583,104557
 3.6000e+000 104925  2.7850e+001 -3.4654e+001 -1.6070e+001 30754 104775,104827,104801
 3.6000e+000 104902  2.0579e+001 -9.0435e+000 -1.3003e+001 30754 104775,104853,104827
 3.6000e+000 104879  9.8588e-001 -1.6956e+001 -6.5576e+000 30754 104749,104853,104775
 3.6000e+000 105482 -1.6466e+001 -4.5114e+001  5.0530e+000 30164 105505,105136,105110
 3.6000e+000 105459 -9.5717e+000 -5.3288e+001  7.7343e+000 30164 105649,105505,105110
 3.6000e+000 105436 -1.4847e+001 -5.2036e+001  9.1334e+000 30164 105577,105188,105136
 3.6000e+000 105413 -1.5348e+001 -5.6686e+001  1.3638e+001 30164 105649,105110,105318
 3.6000e+000 105390 -5.7035e+000 -1.1275e+002  4.4969e+001 30164 105214,105292,105240
 3.6000e+000 105367 -2.8622e+001 -1.4024e+002  6.0101e+001 30164 105240,105292,105266
 3.6000e+000 105344 -1.6380e+001 -5.6324e+001  1.0565e+001 30164 105136,105188,105162
 3.6000e+000 105531 -7.4878e+000 -4.9599e+001  3.9556e+000 30164 105577,105136,105505
 3.6000e+000 105554  2.7417e+001 -4.7034e+001  7.2001e+000 30164 105214,105505,105292
 3.6000e+000 105603 -1.3889e+001 -5.8897e+001  1.6314e+001 30164 105214,105188,105577
 3.6000e+000 105626 -1.0004e+001 -5.8323e+001  1.1430e+001 30164 105214,105577,105505
 3.6000e+000 105675 -5.9696e+000 -4.5771e+001  4.0168e+000 30164 105292,105505,105649
 3.6000e+000 105698 -6.6179e+000 -4.3594e+001  8.8812e+000 30164 105292,105649,105318
 3.6000e+000 106027  2.0292e+001 -1.7099e+001  2.2296e+000 29868 106322,106050,105880
 3.6000e+000 106004  7.8106e+000 -9.0443e+000  5.1830e+000 29868 106250,106050,105828
 3.6000e+000 105981  3.5697e+000 -1.1380e+001  3.9461e+000 29868 106250,105828,105802
 3.6000e+000 105958  1.5213e+001 -2.2439e+001  4.9950e+000 29868 106322,105880,106122
 3.6000e+000 106076  2.0828e+001  3.2234e+000 -1.0792e+001 29868 105906,105880,106050
 3.6000e+000 106099  4.5615e+000 -1.0934e+001 -4.7303e+000 29868 105906,106050,105932
 3.6000e+000 106148 -4.9841e+000 -3.9812e+001  4.8204e+000 29868 105854,105828,106122
 3.6000e+000 106276  5.5190e+000 -8.8401e+000 -4.1478e+000 29868 105932,106050,106250
 3.6000e+000 106299 -7.0081e+000 -1.5019e+001 -6.1211e+000 29868 105932,106250,105802
 3.6000e+000 106348  1.1042e+001 -1.0773e+001  6.1758e+000 29868 105828,106050,106322
 3.6000e+000 106371  7.1824e+000 -1.4462e+001  8.5196e+000 29868 105828,106322,106122
 3.6000e+000 106828  4.5158e+001  1.1126e+001  8.4656e+000 29521 106580,106710,106684
 3.6000e+000 106805  1.6313e+001 -1.9727e+001 -1.1049e+001 29521 106554,106710,106580
 3.6000e+000 106782  1.3972e+001 -9.7748e+000 -7.9368e-001 29521 106580,106684,106606
 3.6000e+000 106759  2.3400e+001  1.6112e+000  7.9295e+000 29521 106606,106684,106658
 3.6000e+000 106736  1.0750e+000  7.2125e+000  9.1255e+000 29521 106606,106658,106632
 3.6000e+000 107027 -3.6733e+001 -7.0340e+001 -2.6717e+001 29117 106877,106929,106903
 3.6000e+000 107004  1.1035e+000 -5.4227e+001 -3.0632e+001 29117 106851,106929,106877
 3.6000e+000 106981  2.9296e+001 -1.1804e+002 -2.9809e+001 29117 106851,106955,106929
 3.6000e+000 107456 -6.0640e+001 -1.4979e+002 -2.8412e+001 28656 107237,107315,107263
 3.6000e+000 107433  5.0740e+000 -7.9772e+001 -1.3584e+000 28656 107133,107315,107237
 3.6000e+000 107410  1.9638e+001 -9.1038e+001 -1.9944e+001 28656 107133,107237,107159
 3.6000e+000 107387  1.5109e+001 -4.2568e+001 -2.9914e+001 28656 107159,107237,107185
 3.6000e+000 107364  3.4577e+001 -1.6661e+001  2.0201e+001 28656 107185,107237,107211
 3.6000e+000 107341  5.8359e+000 -4.8395e+000 -2.8882e+000 28656 107263,107315,107289
 3.6000e+000 107704  2.6604e+001  4.3022e+000  5.7423e+000 27902 107727,107557,107531
 3.6000e+000 107681  1.0403e+001  6.7819e+000 -5.0830e+000 27902 107727,107531,107505
 3.6000e+000 107658  4.0319e+001 -4.4126e+000  8.5994e+000 27902 107557,107609,107583
 3.6000e+000 107635 -4.3758e+000  1.2968e+000  5.0965e+000 27902 107479,107609,107505
 3.6000e+000 107753  4.4465e+001  3.1894e+000  6.9735e+000 27902 107609,107557,107727
 3.6000e+000 107776  2.8461e+001  6.6548e+000 -2.9541e+000 27902 107609,107727,107505
 3.6000e+000 108333 -1.3282e+001 -1.3652e+002  6.7323e+000 27341 108356,108065,108013
 3.6000e+000 108310 -3.6007e+000 -1.2364e+002 -3.0098e+001 27341 108356,108013,108143
 3.6000e+000 108287 -5.2074e+001 -1.6227e+002 -1.7092e+001 27341 108428,108117,108091
 3.6000e+000 108264  1.8931e+001 -1.1255e+002 -5.3762e+000 27341 108013,108065,108039
 3.6000e+000 108241  3.2297e+000 -1.3156e+002 -3.1076e+001 27341 107987,108143,108013
 3.6000e+000 108218  2.3289e+001 -1.1925e+002 -7.6590e+001 27341 107987,108169,108143
 3.6000e+000 108195 -1.1532e+000 -8.6231e+001 -7.4221e+001 27341 107961,108169,107987
 3.6000e+000 108382 -1.2274e+001 -1.1990e+002 -1.3394e+001 27341 108091,108065,108356
 3.6000e+000 108405 -5.6003e+001 -1.2841e+002 -1.2555e+001 27341 108428,108091,108356
 3.6000e+000 108454 -4.8637e+001 -2.5791e+002 -2.7292e+001 27341 108143,108117,108428
 3.6000e+000 108477 -3.5583e+001 -1.9850e+002 -2.7676e+001 27341 108143,108428,108356
 3.6000e+000 108725  2.6412e+001 -4.7914e+001  1.3963e+001 27029 108748,108526,108500
 3.6000e+000 108702  1.0943e+001 -2.8312e+001  2.2432e+001 27029 108748,108500,108630
 3.6000e+000 108679 -1.1743e+001 -3.8599e+001  1.3869e+001 27029 108578,108630,108604
 3.6000e+000 108656 -7.2083e+000 -5.4097e+001  1.0986e+001 27029 108526,108578,108552
 3.6000e+000 108774  1.2399e+001 -4.9540e+001  6.2573e+000 27029 108578,108526,108748
 3.6000e+000 108797 -1.0650e+001 -3.7931e+001  1.1322e+001 27029 108578,108748,108630
 3.6000e+000 109045 -3.9605e+000 -9.9511e+000  6.2212e+000 26610 108872,108924,108898
 3.6000e+000 109022  4.2318e+000 -9.3018e+001 -3.0016e+001 26610 108872,108950,108924
 3.6000e+000 108999  1.6636e+001 -8.5054e+001 -1.4504e+001 26610 108846,108950,108872
 3.6000e+000 108976 -1.7677e+000 -1.6822e+002 -3.2617e+001 26610 108820,108950,108846
 3.6000e+000 109366  1.1386e+001 -1.5589e+002 -1.2754e+001 26006 109144,109222,109196
 3.6000e+000 109343 -1.5271e+001 -1.7371e+002 -2.0805e+001 26006 109118,109222,109144
 3.6000e+000 109320  2.4693e+001 -1.7725e+002  4.2365e+000 26006 109092,109222,109118
 3.6000e+000 109297 -1.7071e-001 -1.6154e+002 -5.2678e+000 26006 109144,109196,109170
 3.6000e+000 109274  3.1093e+001 -3.2633e+001  1.6029e+001 26006 109092,109248,109222
 3.6000e+000 109567 -1.0386e+001  1.8812e+000 -3.9352e+001 25659 109391,109469,109443
 3.6000e+000 109544  1.6836e+001 -5.4707e+000  7.9674e+000 25659 109391,109495,109469
 3.6000e+000 109521 -3.9133e+001 -1.4245e+000 -1.5348e+001 25659 109391,109443,109417
 3.6000e+000 109900  7.4806e+000 -9.3756e+000 -1.1371e+001 25255 109923,109779,109753
 3.6000e+000 109877  7.8903e+000 -7.9817e+000 -1.0653e+001 25255 109923,109753,109701
 3.6000e+000 109854 -9.8146e+000 -2.4121e+000 -1.5290e+001 25255 109675,109805,109701
 3.6000e+000 109831  6.4431e+000  6.6059e-001 -1.3950e+001 25255 109701,109753,109727
 3.6000e+000 109949  6.8355e+000 -1.1412e+001 -1.2757e+001 25255 109805,109779,109923
 3.6000e+000 109972  7.9688e+000 -8.8787e+000 -1.1983e+001 25255 109805,109923,109701
 3.6000e+000 110220  1.9489e+000 -1.0812e+001 -7.5453e+000 24701 110243,110021,109995
 3.6000e+000 110197 -8.6235e-001 -1.7817e+001 -8.3298e+000 24701 110243,109995,110099
 3.6000e+000 110174 -1.9884e+000 -1.1118e+001 -1.7909e+000 24701 110315,110073,110047
 3.6000e+000 110151 -1.4951e+001 -1.4523e+001 -6.7532e+000 24701 109995,110125,110099
 3.6000e+000 110269  1.0827e+000 -5.3184e+000 -1.6658e+000 24701 110047,110021,110243
 3.6000e+000 110292 -1.0083e+000 -1.2300e+001 -3.2158e+000 24701 110315,110047,110243
 3.6000e+000 110341  1.3334e+000 -1.4412e+001  1.0264e+000 24701 110099,110073,110315
 3.6000e+000 110364  4.6760e-001 -1.7255e+001 -1.4082e+000 24701 110099,110315,110243
 3.6000e+000 110661 -2.1566e+001 -1.6147e+002  3.7689e+001 24197 110684,110413,110387
 3.6000e+000 110638  1.0458e+001 -1.0342e+002  1.7467e+001 24197 110684,110387,110543
 3.6000e+000 110615  2.3795e+001 -2.1166e+002  2.7400e+001 24197 110756,110491,110465
 3.6000e+000 110592 -2.5955e+001 -1.2844e+002  4.2010e+001 24197 110413,110465,110439
 3.6000e+000 110569 -2.8337e+000 -2.7916e+002 -1.9824e+001 24197 110491,110543,110517
 3.6000e+000 110710  2.7174e+001 -1.4035e+002  3.9878e+001 24197 110465,110413,110684
 3.6000e+000 110733  3.6871e+000 -1.8423e+002  2.2921e+001 24197 110756,110465,110684
 3.6000e+000 110782  2.7233e+001 -1.7988e+002  1.9462e+000 24197 110543,110491,110756
 3.6000e+000 110805  1.9281e+001 -1.3773e+002 -3.1543e+000 24197 110543,110756,110684
 3.6000e+000 111315  1.6940e+001 -8.1913e+001 -4.0468e+000 23593 111044,111148,111070
 3.6000e+000 111292 -1.4187e+001 -3.8199e+001  1.6647e+001 23593 111044,111174,111148
 3.6000e+000 111269  5.9897e+001 -2.5181e+001 -1.0072e+001 23593 111070,111122,111096
 3.6000e+000 111246  1.4853e+001 -5.3857e+001 -2.3497e+001 23593 111070,111148,111122
 3.6000e+000 111223 -1.8704e+001 -2.4559e+001  6.8416e+000 23593 111018,111174,111044
 3.6000e+000 111200 -7.2898e+000 -3.1310e+001  8.4814e+000 23593 110992,111174,111018
 3.6000e+000 111821  8.3248e+000 -1.3385e+002 -2.3672e+000 23089 111916,111844,111628
 3.6000e+000 111798 -2.2791e+001 -1.5409e+002 -3.3370e+001 23089 111844,111550,111524
 3.6000e+000 111775  1.3817e+000 -1.0823e+002 -1.7975e+000 23089 111916,111628,111602
 3.6000e+000 111752  3.5445e+001 -2.1229e+002 -1.3424e+001 23089 111498,111680,111524
 3.6000e+000 111729 -1.4279e+000 -7.1449e+001  1.0019e+001 23089 111550,111602,111576
 3.6000e+000 111706 -2.8513e+000 -5.9903e+001 -2.1445e+001 23089 111628,111680,111654
 3.6000e+000 111870  1.1677e+001 -1.2139e+002  7.4604e+000 23089 111680,111628,111844
 3.6000e+000 111893  7.9364e+000 -1.3122e+002 -4.0933e+000 23089 111680,111844,111524
 3.6000e+000 111942  1.3392e+001 -9.9112e+001 -1.3936e+001 23089 111550,111844,111916
 3.6000e+000 111965  1.2574e+000 -7.8421e+001 -1.0241e+001 23089 111550,111916,111602
 3.6000e+000 112164 -1.9117e+001 -2.9964e+001 -1.5364e+001 22626 112187,112014,111988
 3.6000e+000 112141  4.8311e+000 -5.4766e+001 -1.8672e+001 22626 112259,112187,111988
 3.6000e+000 112118  2.0995e+000 -5.7451e+001 -1.6047e+001 22626 112259,111988,112092
 3.6000e+000 112213  5.0177e+000  1.4610e+001 -1.3893e+000 22626 112040,112014,112187
 3.6000e+000 112236 -2.7355e+000 -4.5542e+001 -1.5523e+001 22626 112040,112187,112066
 3.6000e+000 112285  3.3587e+000 -5.0183e+001 -2.1726e+001 22626 112066,112187,112259
 3.6000e+000 112308  2.4816e+000 -5.1815e+001 -1.9444e+001 22626 112066,112259,112092
 3.6000e+000 112605 -3.6473e+000 -1.0958e+002  2.0711e+001 22286 112628,112383,112357
 3.6000e+000 112582  6.3918e+000 -1.0868e+002  2.4423e+001 22286 112772,112628,112357
 3.6000e+000 112559 -1.8698e+001 -1.5912e+002  5.2961e+001 22286 112700,112435,112409
 3.6000e+000 112536 -2.8868e+001 -1.1695e+002  2.7545e+001 22286 112772,112357,112331
 3.6000e+000 112513 -3.6461e+001 -1.3491e+002  4.2468e+001 22286 112435,112487,112461
 3.6000e+000 112654  1.3800e+001 -5.7113e+001  2.1837e+001 22286 112409,112383,112628
 3.6000e+000 112677  3.5283e+000 -1.2186e+002  3.9418e+001 22286 112700,112409,112628
 3.6000e+000 112726  6.0057e+000 -1.3003e+002  2.5682e+001 22286 112487,112435,112700
 3.6000e+000 112749  1.3113e+001 -1.2443e+002  1.5233e+001 22286 112487,112700,112628
 3.6000e+000 112798  2.1052e+001 -1.0968e+002  1.8279e+001 22286 112487,112628,112772
 3.6000e+000 112821  1.3060e+001 -1.0106e+002  2.2243e+001 22286 112487,112772,112331
 3.6000e+000 112924  1.1014e-001  1.4707e+000  5.0254e+000 21974 112846,112898,112872
 3.6000e+000 113223 -1.0980e+001 -1.6540e+002  9.4251e+000 21420 112949,113053,112975
 3.6000e+000 113200  4.2357e-002 -1.4934e+002  4.5155e+000 21420 112949,113079,113053
 3.6000e+000 113177  1.2166e+002 -1.3880e+002  6.1471e+001 21420 112975,113053,113001
 3.6000e+000 113154 -7.1343e+001 -2.3963e+002  2.3200e+001 21420 113001,113053,113027
 3.6000e+000 113131 -1.9901e+001 -8.5208e+001 -4.1245e+001 21420 112949,113105,113079
 3.6000e+000 113605 -2.1823e+001 -1.4931e+002  4.7366e+001 20716 113331,113435,113357
 3.6000e+000 113582 -1.7109e+001 -9.6186e+001  4.6039e+001 20716 113331,113461,113435
 3.6000e+000 113559 -2.8576e+000 -1.5704e+002 -2.5232e+001 20716 113383,113435,113409
 3.6000e+000 113536 -4.5777e+001 -1.2355e+002 -1.3919e+001 20716 113357,113435,113383
 3.6000e+000 113513 -5.2479e+000 -3.3015e+001 -3.4399e+000 20716 113331,113487,113461
 3.6000e+000 113853 -1.0517e+001 -1.7442e+002  6.3103e-001 20290 113876,113680,113654
 3.6000e+000 113830  2.1525e+001 -1.8523e+002 -7.0086e+000 20290 113876,113654,113628
 3.6000e+000 113807 -3.0914e+001 -2.1252e+002 -1.8382e+001 20290 113948,113732,113680
 3.6000e+000 113784  6.7930e+001 -1.8649e+002 -2.7092e+001 20290 113680,113732,113706
 3.6000e+000 113902 -1.0774e+001 -1.8416e+002 -6.5423e-001 20290 113948,113680,113876
 3.6000e+000 113925 -1.5338e+001 -1.8501e+002 -1.3212e+000 20290 113758,113876,113628
 3.6000e+000 113974 -5.2289e+001 -1.8587e+002 -2.7342e+001 20290 113758,113732,113948
 3.6000e+000 113997 -4.9997e+001 -1.8273e+002 -1.4206e+001 20290 113758,113948,113876
 3.6000e+000 114365 -1.4737e+001 -1.3400e+002  4.4431e-001 19900 114146,114198,114172
 3.6000e+000 114342 -1.9686e+001 -1.3617e+002  5.9146e-002 19900 114042,114198,114146
 3.6000e+000 114319 -1.0395e+001 -1.3141e+002 -5.1597e+000 19900 114042,114224,114198
 3.6000e+000 114296 -4.1846e+001 -1.3131e+002 -1.8608e+000 19900 114094,114146,114120
 3.6000e+000 114273 -2.0583e+001 -1.2878e+002 -5.4015e+000 19900 114042,114146,114094
 3.6000e+000 114250 -4.5911e+001 -1.3512e+002 -1.4271e+000 19900 114042,114094,114068
 3.6000e+000 114566 -2.2125e+001 -1.4197e+002  2.5466e+000 19496 114442,114494,114468
 3.6000e+000 114543  3.6079e+001 -8.2481e+001  2.8598e+001 19496 114416,114494,114442
 3.6000e+000 114520 -2.8742e+001 -1.1696e+002  1.5548e+001 19496 114390,114494,114416
 3.6000e+000 114767  1.6603e+001 -1.3817e+002  6.1967e+000 19042 114790,114669,114643
 3.6000e+000 114744  1.9657e+001 -1.3662e+002  6.8740e+000 19042 114790,114643,114591
 3.6000e+000 114721  2.9760e+001 -1.3093e+002  1.7102e+001 19042 114591,114643,114617
 3.6000e+000 114816  9.8912e+000 -1.3598e+002  5.5060e+000 19042 114695,114669,114790
 3.6000e+000 114839  1.5750e+001 -1.3177e+002  7.3900e+000 19042 114695,114790,114591
 3.6000e+000 114991 -5.4904e+001 -1.5282e+002 -1.3336e+000 18488 114864,114916,114890
 3.6000e+000 114968 -4.1960e+001 -1.5247e+002 -5.2296e+000 18488 114864,114942,114916
 3.6000e+000 115192  1.2866e+002 -8.1388e+001  2.0380e+001 18098 115215,115042,115016
 3.6000e+000 115169  7.2930e+001 -4.6750e+001 -2.8719e+000 18098 115215,115016,115120
 3.6000e+000 115146  8.1921e+001 -8.1476e+001 -1.9540e+001 18098 115287,115094,115068
 3.6000e+000 115241  8.5924e+001 -1.5306e+002  1.3076e+000 18098 115068,115042,115215
 3.6000e+000 115264  8.2977e+001 -7.0707e+001 -2.1462e+000 18098 115287,115068,115215
 3.6000e+000 115313  5.9736e+001 -9.3920e+001 -2.6273e+001 18098 115120,115094,115287
 3.6000e+000 115336  5.2364e+001 -8.7345e+001 -9.9067e+000 18098 115120,115287,115215
 3.6000e+000 115846  8.2080e+001 -2.1627e+002 -7.9183e+001 17644 115653,115705,115679
 3.6000e+000 115823  2.0582e+001 -1.8602e+002 -4.0735e+001 17644 115627,115705,115653
 3.6000e+000 115800  8.3979e+001 -9.6830e+001 -9.0614e+000 17644 115549,115705,115627
 3.6000e+000 115777  2.3502e+001 -1.6398e+002  2.1728e+001 17644 115549,115627,115575
 3.6000e+000 115754  4.2921e+001 -1.0741e+002 -1.8759e+000 17644 115523,115705,115549
 3.6000e+000 115731 -4.6937e+001 -1.3793e+002 -1.1075e+001 17644 115575,115627,115601
 3.6000e+000 116067 -6.1178e+001 -3.0948e+002 -1.3174e+001 17116 115891,115943,115917
 3.6000e+000 116044 -1.0453e+002 -3.4753e+002  2.9986e+000 17116 115891,115995,115943
 3.6000e+000 116021 -1.0345e+002 -3.1169e+002  8.2228e-001 17116 115943,115995,115969
 3.6000e+000 116288 -2.3939e+001 -2.5069e+002  3.5774e+001 16704 116164,116216,116190
 3.6000e+000 116265 -5.8312e+001 -3.0652e+002  2.1052e+001 16704 116112,116216,116164
 3.6000e+000 116242 -1.0931e+002 -2.9652e+002 -8.1970e+000 16704 116112,116164,116138
 3.6000e+000 116489 -1.6680e+001 -1.3106e+002 -5.8911e+000 16434 116339,116417,116365
 3.6000e+000 116466 -2.5833e+001 -1.3208e+002 -5.2282e-001 16434 116313,116417,116339
 3.6000e+000 116443 -7.1534e+001 -1.6763e+002  3.1554e+001 16434 116365,116417,116391
 3.6000e+000 116592  1.7404e+001 -1.9987e+002 -3.1284e+000 15967 116514,116566,116540
 3.6000e+000 116695 -1.9357e+001 -2.9355e+002 -3.7549e+001 15552 116617,116669,116643
 3.6000e+000 116798 -1.2979e+001 -1.2611e+002  0.0000e+000 421 116720,116772,116746
 3.7000e+000 69066  2.4584e+000 -2.8644e+002 -8.0535e+000 68738 68965,69017,68991
 3.7000e+000 69043  5.3324e+001 -2.3945e+002  6.0036e+002 68738 68939,69017,68965
 3.7000e+000 69371 -1.4141e+001 -5.0743e+001 -1.8021e+001 68426 69172,69250,69198
 3.7000e+000 69348  1.4077e+000 -9.9867e+001  9.5485e+000 68426 69146,69250,69172
 3.7000e+000 69325 -3.3233e+000 -1.6018e+001  6.5789e+000 68426 69198,69250,69224
 3.7000e+000 69302 -2.5008e+001 -9.7537e+001  5.4419e+000 68426 69146,69276,69250
 3.7000e+000 69521  9.2807e+000 -2.7551e+001 -9.2125e+000 68228 69420,69472,69446
 3.7000e+000 69498 -6.6506e+000 -1.2891e+001 -2.6210e+001 68228 69394,69472,69420
 3.7000e+000 69781 -1.0890e+001  1.8930e+001  8.9200e+000 68030 69631,69683,69657
 3.7000e+000 69758  5.3876e+000 -2.5497e+001 -9.6214e+000 68030 69631,69709,69683
 3.7000e+000 69735 -2.2466e+000  1.1802e+001  2.4510e+001 68030 69605,69709,69631
 3.7000e+000 70078  6.4310e-001  2.3913e+001 -4.8281e+000 67832 69882,69934,69908
 3.7000e+000 70055 -4.7240e+000 -3.1907e+000  1.0090e+001 67832 69856,69934,69882
 3.7000e+000 70032  9.7181e-001 -1.4722e+001 -2.4876e+000 67832 69830,69934,69856
 3.7000e+000 70009  2.7133e+000 -1.0892e+001 -1.0924e+001 67832 69804,69934,69830
 3.7000e+000 69986 -1.0455e+001  3.2984e+001  1.0697e+001 67832 69804,69960,69934
 3.7000e+000 70586 -5.3759e+000 -3.9798e+001  1.1786e+001 67634 70609,70419,70341
 3.7000e+000 70563 -2.1940e+000 -6.8327e+001  2.1600e+001 67634 70681,70609,70341
 3.7000e+000 70540 -8.8037e+000 -7.1160e+001  2.1787e+001 67634 70681,70341,70315
 3.7000e+000 70517 -1.1985e+001 -3.0643e+001  2.6204e+001 67634 70341,70419,70367
 3.7000e+000 70494 -1.5572e+001  2.5350e+001 -7.7689e+000 67634 70263,70445,70289
 3.7000e+000 70471  1.0195e+001  1.5461e+000  1.5425e+001 67634 70367,70419,70393
 3.7000e+000 70635  2.3740e-002  2.7424e+001  7.2438e+000 67634 70445,70419,70609
 3.7000e+000 70658 -1.5539e+001 -4.5854e+001  1.6291e+001 67634 70445,70609,70289
 3.7000e+000 70707 -2.6877e+000 -5.9906e+001  5.3041e+000 67634 70289,70609,70681
 3.7000e+000 70730 -2.1047e+001 -6.8124e+001  6.9406e+000 67634 70289,70681,70315
 3.7000e+000 71108  1.8945e+001  3.5893e+001 -1.9257e+000 67344 71131,70912,70886
 3.7000e+000 71085 -7.3712e+000 -3.0852e+001  9.6549e+000 67344 71131,70886,70860
 3.7000e+000 71062 -1.0940e+001 -2.9817e+001  1.9071e+001 67344 71203,70938,70912
 3.7000e+000 71039  2.0575e+001 -2.3907e+001  1.7688e+001 67344 70834,70990,70860
 3.7000e+000 71016 -3.9983e+000 -5.4382e+001  8.1168e+000 67344 70938,70990,70964
 3.7000e+000 71157 -8.5788e+000 -1.6973e+001  1.9700e+001 67344 71203,70912,71131
 3.7000e+000 71180  8.8312e+000 -2.7017e+001  1.6226e+001 67344 70990,71131,70860
 3.7000e+000 71229 -1.8546e+000 -5.6953e+001  1.3265e+001 67344 70990,70938,71203
 3.7000e+000 71252  4.6105e+000 -3.7501e+001  1.0353e+001 67344 70990,71203,71131
 3.7000e+000 71603  6.5173e+000 -5.3033e+001  1.1273e+001 67032 71378,71482,71404
 3.7000e+000 71580 -2.7610e+000 -3.6035e+001  1.3676e+001 67032 71378,71508,71482
 3.7000e+000 71557  4.7500e-001 -2.9560e+001  2.2820e+001 67032 71404,71456,71430
 3.7000e+000 71534  1.6845e-001 -7.0611e+001  8.2923e+000 67032 71404,71482,71456
 3.7000e+000 72003  2.0548e+001 -4.8027e+000  1.3834e+001 66834 71755,71859,71781
 3.7000e+000 71980  1.0738e+001 -9.4587e+001  2.1237e-001 66834 71755,71885,71859
 3.7000e+000 71957  1.6320e+000 -3.9287e+000 -1.9785e+000 66834 71781,71833,71807
 3.7000e+000 71934 -8.9991e+000 -9.9160e+001 -1.3096e+001 66834 71781,71859,71833
 3.7000e+000 71911  3.5757e+001 -2.1954e+001  3.4167e+001 66834 71729,71885,71755
 3.7000e+000 72430  2.1742e+001 -2.5812e+001 -3.6829e+000 66266 72237,72289,72263
 3.7000e+000 72407  1.3598e+001 -4.7452e+001  4.0334e+000 66266 72133,72289,72237
 3.7000e+000 72384 -4.1619e-002 -1.6460e+001 -2.9076e+000 66266 72133,72237,72211
 3.7000e+000 72361 -1.4015e+001 -7.0081e+001 -7.7206e+000 66266 72107,72289,72133
 3.7000e+000 72338 -1.2987e+001 -5.3177e+001  2.7270e+001 66266 72133,72211,72185
 3.7000e+000 72315 -5.8042e+000 -7.6186e+001  2.2896e+001 66266 72133,72185,72159
 3.7000e+000 72580  2.6307e-001 -3.5371e+001 -4.1486e-001 65968 72479,72531,72505
 3.7000e+000 72557  2.0005e-001 -1.6657e+001  8.1348e-001 65968 72453,72531,72479
 3.7000e+000 72960  1.5904e+001  5.4580e+001  1.2295e+000 65621 72983,72738,72712
 3.7000e+000 72937  5.2326e+001 -7.3235e+000 -1.4230e+000 65621 72983,72712,72686
 3.7000e+000 72914  1.5763e+001 -5.9650e+001 -4.6474e+000 65621 72738,72842,72764
 3.7000e+000 72891 -7.4389e+000 -7.1578e+001 -8.7913e-002 65621 72764,72842,72816
 3.7000e+000 72868 -3.9488e+001 -1.5585e+002  2.1079e+001 65621 72764,72816,72790
 3.7000e+000 73009  2.8699e+001  5.5974e+000  1.0483e+001 65621 72842,72738,72983
 3.7000e+000 73032  2.3815e+001 -1.1028e+002  1.3846e+001 65621 72842,72983,72686
 3.7000e+000 73361  1.0751e+001 -2.0862e+002 -4.0357e+000 65281 73456,73384,73188
 3.7000e+000 73338 -8.5195e+000 -1.6836e+002  2.3439e+001 65281 73384,73162,73136
 3.7000e+000 73315 -8.2672e+000 -6.5590e+001  8.4588e+000 65281 73188,73240,73214
 3.7000e+000 73292  1.4147e+001 -6.5659e+000 -1.8169e+001 65281 73136,73266,73240
 3.7000e+000 73410 -3.6574e+001 -1.8388e+002 -1.0818e+001 65281 73240,73188,73384
 3.7000e+000 73433 -1.7671e+001 -2.9953e+001  5.2463e+000 65281 73240,73384,73136
 3.7000e+000 73482 -2.7142e+000 -2.6822e+002 -2.4267e+001 65281 73162,73384,73456
 3.7000e+000 73711 -2.3846e+000  1.2967e+001 -2.7011e+001 64820 73734,73610,73584
 3.7000e+000 73688 -1.1205e+001 -8.1878e+000 -2.5309e+001 64820 73734,73584,73662
 3.7000e+000 73760  2.1133e+001  2.7249e+001  9.4288e+000 64820 73636,73610,73734
 3.7000e+000 73783 -3.6121e+001 -3.1309e+000 -1.0481e+001 64820 73806,73734,73662
 3.7000e+000 73832 -8.8176e+000 -2.4392e+001 -4.8256e+000 64820 73636,73734,73806
 3.7000e+000 74112  1.2411e+001 -6.3393e-001 -1.3139e+001 64622 74278,74135,73988
 3.7000e+000 74089 -7.9599e-001 -2.2700e+001  2.4229e+000 64622 74135,73936,74040
 3.7000e+000 74066  1.5228e+001  8.0268e-001 -2.5062e+001 64622 74278,73988,73962
 3.7000e+000 74161 -9.0484e+000 -1.5729e+001 -6.5313e+000 64622 74014,73988,74135
 3.7000e+000 74184  2.4923e-002 -2.0842e+001  1.4192e+000 64622 74207,74135,74040
 3.7000e+000 74233  4.7292e+000 -1.2814e+001 -5.9043e+000 64622 74014,74135,74207
 3.7000e+000 74304  1.8213e+000 -2.6086e+001  2.3564e-001 64622 73936,74135,74278
 3.7000e+000 74327  1.4402e+001 -1.7144e+001 -1.3053e+001 64622 73936,74278,73962
 3.7000e+000 74526  1.2776e+001  1.4301e+001  1.3472e+000 64424 74621,74549,74402
 3.7000e+000 74503 -1.1189e+001 -1.1847e+001  1.0114e+001 64424 74549,74350,74454
 3.7000e+000 74480  1.9799e+001  2.1535e+001 -6.7716e+000 64424 74621,74402,74376
 3.7000e+000 74575  1.9362e+001 -1.0652e+001  8.7776e+000 64424 74428,74402,74549
 3.7000e+000 74598  6.4011e+000 -1.9885e+001  1.2005e+001 64424 74693,74549,74454
 3.7000e+000 74647  3.1157e+000  1.0521e+000  1.5769e+001 64424 74350,74549,74621
 3.7000e+000 74670  1.2716e+001  7.4296e+000  7.4540e+000 64424 74350,74621,74376
 3.7000e+000 74719  3.4141e+000 -3.6942e+001 -2.8127e-001 64424 74428,74549,74693
 3.7000e+000 75123 -1.1684e+001 -1.6559e+002  3.7651e+001 64126 74875,74953,74927
 3.7000e+000 75100 -4.2207e+000 -1.7857e+002  2.0301e+001 64126 74875,74979,74953
 3.7000e+000 75077 -1.0772e+000 -8.8483e+001 -9.3839e+000 64126 74875,75005,74979
 3.7000e+000 75054  5.0694e+000 -1.8654e+002  5.3769e+001 64126 74875,74927,74901
 3.7000e+000 75031 -2.2652e+001 -3.1354e+001  1.5055e+001 64126 74849,75005,74875
 3.7000e+000 75224 -1.4474e+001 -1.0622e+002  1.2779e+001 63836 75146,75198,75172
 3.7000e+000 75472  1.5023e+001 -3.6626e+001  1.8545e+001 63375 75273,75351,75325
 3.7000e+000 75449 -1.6775e+001 -4.3119e+001  1.1087e+001 63375 75273,75377,75351
 3.7000e+000 75426 -3.7709e+001 -5.7950e+001  4.0297e+000 63375 75247,75377,75273
 3.7000e+000 75403  2.8123e+001 -1.9552e+001  1.2108e+001 63375 75273,75325,75299
 3.7000e+000 75673  1.8534e+001 -3.5547e+001  1.2958e+001 63063 75523,75575,75549
 3.7000e+000 75650  1.5303e+001 -7.7953e+001 -8.0966e+000 63063 75497,75575,75523
 3.7000e+000 75627  1.6690e+001 -8.8017e+001  1.4690e+001 63063 75497,75601,75575
 3.7000e+000 75874  2.3182e+001 -7.6305e+001 -8.8697e+000 62716 75897,75750,75724
 3.7000e+000 75851  1.5529e+001 -6.3551e+001 -5.5417e+000 62716 75897,75724,75698
 3.7000e+000 75828  9.5940e-001 -4.9879e+001 -2.3960e+001 62716 75698,75802,75776
 3.7000e+000 75923  3.4121e+001 -6.1619e+001 -1.5191e+001 62716 75776,75750,75897
 3.7000e+000 75946  1.8237e+001 -5.6746e+001 -7.4629e+000 62716 75776,75897,75698
 3.7000e+000 76328 -1.5750e+001 -8.5426e+001  1.0570e+000 62198 76495,76351,76158
 3.7000e+000 76305 -2.5668e+001 -9.0445e+001  1.6514e+000 62198 76351,76080,76054
 3.7000e+000 76282 -6.0592e+000 -1.2880e+002 -1.0039e+000 62198 76423,76184,76158
 3.7000e+000 76259 -1.6848e+001 -8.4433e+001  1.4839e+000 62198 76495,76158,76106
 3.7000e+000 76236 -3.3832e+001 -1.3214e+002  2.4129e+001 62198 76106,76158,76132
 3.7000e+000 76377 -2.2702e+001 -1.0139e+002 -5.5642e+000 62198 76423,76158,76351
 3.7000e+000 76400 -2.7210e+001 -8.2590e+001 -1.1556e+001 62198 76210,76351,76054
 3.7000e+000 76449  1.0607e+001 -1.0355e+002 -8.2047e+000 62198 76210,76184,76423
 3.7000e+000 76472 -3.3496e+000 -7.8790e+001 -1.4040e+001 62198 76210,76423,76351
 3.7000e+000 76521 -1.7128e+001 -8.6499e+001  5.5714e-001 62198 76080,76351,76495
 3.7000e+000 76544 -1.8643e+001 -8.5429e+001  9.3365e-001 62198 76080,76495,76106
 3.7000e+000 76841  8.3364e+000 -9.2069e+001  1.7616e+001 61751 76936,76864,76645
 3.7000e+000 76818  3.6237e+001 -8.8244e+001 -2.5297e+001 61751 76864,76567,76723
 3.7000e+000 76795  1.5410e+001 -5.1841e+001  1.7371e+001 61751 76936,76645,76593
 3.7000e+000 76772 -8.6031e+001 -2.2647e+002  4.9505e+001 61751 77008,76697,76671
 3.7000e+000 76749 -3.1982e+000 -2.8199e+001 -9.6155e+000 61751 76593,76645,76619
 3.7000e+000 76890 -6.0747e+000 -1.2824e+002  2.7020e+001 61751 76671,76645,76864
 3.7000e+000 76913 -2.1299e+001 -1.2463e+002  1.3856e+001 61751 77008,76671,76864
 3.7000e+000 76962  2.4236e+001 -1.4554e+002 -2.3193e+000 61751 76567,76864,76936
 3.7000e+000 76985  2.9400e+001 -1.1101e+002  1.8814e+000 61751 76567,76936,76593
 3.7000e+000 77034  9.9277e+000 -1.6368e+002 -2.4075e+001 61751 76723,76697,77008
 3.7000e+000 77057  7.7092e-002 -1.7277e+002 -1.9670e+001 61751 76723,77008,76864
 3.7000e+000 77207 -1.6711e+001 -4.0466e+001  1.2254e+001 61418 77106,77158,77132
 3.7000e+000 77184  4.5341e+001 -1.0428e+002  2.4468e+001 61418 77080,77158,77106
 3.7000e+000 77638  1.9869e+001 -1.0970e+002 -1.8230e+001 60814 77733,77661,77471
 3.7000e+000 77615 -1.6996e+000 -1.0140e+002 -1.0417e+001 60814 77661,77393,77315
 3.7000e+000 77592  2.6442e+001 -9.2733e+001 -1.0301e+001 60814 77733,77471,77445
 3.7000e+000 77569 -4.4500e+001 -2.4953e+002 -3.7185e+001 60814 77315,77367,77341
 3.7000e+000 77546 -5.4874e-001 -1.6670e+002 -2.0049e+001 60814 77315,77393,77367
 3.7000e+000 77523  1.5566e+001 -4.1999e+001 -2.5408e+001 60814 77393,77445,77419
 3.7000e+000 77687 -8.5969e+000 -1.2048e+002 -3.0820e+001 60814 77497,77471,77661
 3.7000e+000 77710  4.9768e-001 -9.9628e+001 -1.1307e+001 60814 77497,77661,77315
 3.7000e+000 77759  1.2427e+000 -8.0737e+001 -1.1321e+001 60814 77393,77661,77733
 3.7000e+000 77782  1.2794e+001 -6.3155e+001 -6.5460e-001 60814 77393,77733,77445
 3.7000e+000 78337  5.1913e+000 -2.4272e+001  4.3137e+000 60210 78360,78017,77965
 3.7000e+000 78314  2.7821e+000 -2.7847e+001  5.3608e+000 60210 78360,77965,78173
 3.7000e+000 78291  2.3828e+000 -2.6896e+001 -8.1292e-001 60210 78432,78043,78017
 3.7000e+000 78268 -4.0343e+000 -4.3788e+001  1.7460e+000 60210 77965,78017,77991
 3.7000e+000 78245 -1.9503e+000 -6.0709e+000  2.5089e+000 60210 78043,78095,78069
 3.7000e+000 78222 -5.7123e+000 -4.2148e+001  6.8311e+000 60210 78095,78173,78121
 3.7000e+000 78199 -1.8625e+000 -3.2417e+001 -5.0917e+000 60210 78121,78173,78147
 3.7000e+000 78386  1.4166e+000 -2.5995e+001  3.4505e+000 60210 78432,78017,78360
 3.7000e+000 78409  2.5198e+000 -2.2000e+001  4.9324e+000 60210 78095,78360,78173
 3.7000e+000 78458  4.7437e+000 -2.1149e+001 -9.6228e-001 60210 78095,78043,78432
 3.7000e+000 78481  4.3835e+000 -1.9025e+001  3.1255e+000 60210 78095,78432,78360
 3.7000e+000 78680 -2.7108e+001 -4.4395e+001 -7.3432e+000 59848 78703,78556,78530
 3.7000e+000 78657 -2.3629e+001 -6.9914e+001 -3.5783e+001 59848 78703,78530,78504
 3.7000e+000 78634 -2.8527e+001 -1.4602e+002 -1.9296e+001 59848 78504,78608,78582
 3.7000e+000 78729 -2.7776e+001 -9.9579e+001 -1.6056e+000 59848 78582,78556,78703
 3.7000e+000 78752 -2.0308e+001 -1.0479e+002 -3.9902e+001 59848 78582,78703,78504
 3.7000e+000 78951 -9.4596e-001 -1.2944e+001 -1.3474e+000 59344 78974,78801,78775
 3.7000e+000 78928 -1.6911e+001 -5.7902e+001 -1.7790e+001 59344 79046,78974,78775
 3.7000e+000 78905 -6.6346e+000 -1.0464e+002 -1.6983e+001 59344 79046,78775,78879
 3.7000e+000 79000  1.4998e+001 -3.3525e-001  2.0648e+001 59344 78827,78801,78974
 3.7000e+000 79023 -2.6149e+000 -8.1583e-001 -2.2137e+000 59344 78827,78974,78853
 3.7000e+000 79072 -1.4078e+001 -6.6315e+000 -7.0712e-002 59344 78853,78974,79046
 3.7000e+000 79095  1.0955e+001 -3.6294e+001  4.1698e+000 59344 78853,79046,78879
 3.7000e+000 79296  1.9118e+001 -1.7953e+001  1.0801e+001 58711 79319,79172,79146
 3.7000e+000 79273  1.5479e+001 -3.9668e+001  3.6977e+000 58711 79319,79146,79120
 3.7000e+000 79250  3.7893e+000 -9.9156e+001  3.0352e+001 58711 79172,79224,79198
 3.7000e+000 79345  2.6937e+001 -4.1333e+001  1.1813e+001 58711 79224,79172,79319
 3.7000e+000 79368  2.6544e+001 -6.0420e+001  8.1305e+000 58711 79224,79319,79120
 3.7000e+000 79667  1.2678e+000 -4.1423e+001 -3.4905e+000 58285 79690,79471,79393
 3.7000e+000 79644  7.5681e+000 -6.5219e+001 -1.7196e+001 58285 79690,79393,79549
 3.7000e+000 79621  2.5992e+001 -6.9324e+001  2.0025e+001 58285 79393,79471,79419
 3.7000e+000 79598  1.5085e+001 -3.1513e+001 -3.6873e+000 58285 79497,79549,79523
 3.7000e+000 79575 -3.2385e-001 -1.0986e+002  3.1641e+001 58285 79419,79471,79445
 3.7000e+000 79716  9.0958e+000 -2.1915e+001  7.4142e+000 58285 79497,79471,79690
 3.7000e+000 79739  1.7572e+001 -5.2315e+001 -3.5320e+000 58285 79497,79690,79549
 3.7000e+000 80249  6.8018e+000  2.4367e+001  1.8758e+001 57831 80272,79978,79952
 3.7000e+000 80226 -4.1694e+000  3.2765e+001 -6.9734e-001 57831 80272,79952,80108
 3.7000e+000 80203  5.9067e-001  3.7947e+000 -1.4957e+001 57831 79926,80108,79952
 3.7000e+000 80180 -5.4335e-001  1.7743e+000  8.0946e+000 57831 80004,80082,80030
 3.7000e+000 80157 -7.0443e+000  6.1976e+000  8.8958e-001 57831 80004,80108,80082
 3.7000e+000 80134  4.3271e+000  9.4495e-001  1.1559e+000 57831 80030,80082,80056
 3.7000e+000 80298 -1.1974e+001 -2.1847e+001  2.2989e+001 57831 80004,79978,80272
 3.7000e+000 80321 -5.4160e+000  1.6906e+001  3.6747e+000 57831 80004,80272,80108
 3.7000e+000 80618 -8.9819e+000 -8.4493e+001 -3.8552e+000 57077 80344,80448,80422
 3.7000e+000 80595 -4.1071e+000 -8.4181e+001 -1.2813e+000 57077 80344,80500,80448
 3.7000e+000 80572  1.7560e+001 -2.8194e+001 -1.1616e+001 57077 80344,80422,80370
 3.7000e+000 80549 -8.1820e+000 -2.3714e+001 -4.8423e+000 57077 80370,80422,80396
 3.7000e+000 80526 -3.4904e+001 -1.6479e+002  1.5245e+001 57077 80448,80500,80474
 3.7000e+000 80768 -1.3331e+001 -1.5601e+001  7.2043e-001 56787 80791,80693,80667
 3.7000e+000 80745 -1.3298e+001 -1.8942e+001 -3.1843e+000 56787 80791,80667,80641
 3.7000e+000 80817 -1.0431e+001 -1.7759e+001 -2.7252e+000 56787 80719,80693,80791
 3.7000e+000 80840 -2.6565e+001 -4.0510e+001 -1.0615e+001 56787 80719,80791,80641
 3.7000e+000 81429 -1.1598e+001 -1.1798e+001  8.2030e+000 56497 81452,81158,81132
 3.7000e+000 81406  9.9191e+000 -1.7451e+001  3.0366e+000 56497 81452,81132,81288
 3.7000e+000 81383 -1.5595e+000 -5.4387e-001 -8.7391e+000 56497 81524,81184,81158
 3.7000e+000 81360  5.2867e+000 -3.7424e+001 -1.6687e+001 56497 81210,81288,81236
 3.7000e+000 81337  2.9879e-001 -2.4911e+001 -2.0445e+000 56497 81106,81288,81132
 3.7000e+000 81314  8.9983e+000 -7.3396e+000 -2.3854e+001 56497 81236,81288,81262
 3.7000e+000 81478 -1.6490e+000 -1.2844e+001  2.8306e+000 56497 81524,81158,81452
 3.7000e+000 81501  1.9588e+001 -1.0402e+001  6.5827e+000 56497 81210,81452,81288
 3.7000e+000 81550  3.5001e+000  1.2325e+001 -1.0634e+001 56497 81210,81184,81524
 3.7000e+000 81573  7.9610e+000  1.1337e+001  2.2656e+000 56497 81210,81524,81452
 3.7000e+000 81870  9.7831e+000 -9.9176e+000  1.2378e+001 55979 81893,81674,81648
 3.7000e+000 81847 -6.3975e-001 -1.4751e+001  1.0958e+001 55979 81893,81648,81752
 3.7000e+000 81824 -4.3812e+000 -1.4455e+001  9.4477e+000 55979 81596,81752,81648
 3.7000e+000 81801  2.3130e+001  1.6401e+001  2.1532e+000 55979 81674,81726,81700
 3.7000e+000 81778 -4.6588e+000 -1.5256e+001  1.1087e+001 55979 81596,81648,81622
 3.7000e+000 81919  1.6107e+001 -1.3112e+001  3.3580e+000 55979 81726,81674,81893
 3.7000e+000 81942  1.4407e+000 -2.0159e+001  1.2175e+000 55979 81726,81893,81752
 3.7000e+000 82371 -2.4133e+001 -2.6683e+001 -1.0642e+001 55631 82100,82204,82152
 3.7000e+000 82348  1.3842e+001 -3.4712e+001 -1.4214e+001 55631 82100,82230,82204
 3.7000e+000 82325  3.6785e+001 -1.6258e+000 -1.1207e+001 55631 82100,82152,82126
 3.7000e+000 82302  1.2603e+000 -5.9928e+001 -4.0392e+000 55631 82074,82230,82100
 3.7000e+000 82279 -2.9547e+001 -4.8587e+001 -2.4315e+001 55631 82152,82204,82178
 3.7000e+000 82256  1.8439e+000 -2.0228e+001 -2.8870e+000 55631 82048,82230,82074
 3.7000e+000 82521  3.0803e+001 -3.4396e+001 -3.9813e+000 55227 82544,82420,82394
 3.7000e+000 82498  2.8275e+001 -5.6469e+001 -7.6690e-001 55227 82544,82394,82472
 3.7000e+000 82570  2.1587e+001 -1.6349e+001 -3.5267e+000 55227 82446,82420,82544
 3.7000e+000 82593  2.0671e+001 -3.3703e+001  5.4494e+000 55227 82446,82544,82472
 3.7000e+000 82875  9.2232e+000 -4.5538e-001  5.4398e+000 54979 82699,82777,82725
 3.7000e+000 82852 -5.6398e+000  2.5117e+001  8.2064e+000 54979 82699,82803,82777
 3.7000e+000 82829 -1.7422e+000 -5.7381e+000  3.3385e+000 54979 82725,82777,82751
 3.7000e+000 83204  4.5853e+000 -2.4587e+000 -2.4311e+000 54475 83005,83083,83057
 3.7000e+000 83181 -4.1266e+000 -1.1671e+001  3.4813e+000 54475 82979,83083,83005
 3.7000e+000 83158  3.4147e+000  9.2957e+000 -4.1914e-001 54475 83005,83057,83031
 3.7000e+000 83135  2.7360e-001 -1.5500e+000 -6.8815e+000 54475 82979,83109,83083
 3.7000e+000 83582  1.1188e+001 -2.2130e+000 -1.1407e+001 54071 83605,83438,83412
 3.7000e+000 83559  2.7964e+000 -7.0762e+000 -7.0240e-001 54071 83749,83605,83412
 3.7000e+000 83536 -1.0215e+001 -2.8177e+001  1.1630e+001 54071 83677,83360,83334
 3.7000e+000 83513  3.7563e+000 -6.5275e+000 -1.0598e+000 54071 83749,83412,83677
 3.7000e+000 83490 -5.3741e+000 -1.9966e+001  3.5557e+000 54071 83308,83464,83334
 3.7000e+000 83631 -3.8098e+000 -1.0127e+001 -7.0921e+000 54071 83464,83438,83605
 3.7000e+000 83654 -1.7151e+000 -1.8574e+001  3.9359e+000 54071 83464,83605,83334
 3.7000e+000 83703  9.6756e-001 -9.3103e+000 -4.8270e+000 54071 83386,83360,83677
 3.7000e+000 83726  8.0403e+000  1.9005e+001 -1.5324e+001 54071 83386,83677,83412
 3.7000e+000 83775  5.8224e+000 -9.2761e+000 -1.4229e+000 54071 83334,83605,83749
 3.7000e+000 83798  7.1965e+000 -8.2807e+000 -1.9335e+000 54071 83334,83749,83677
 3.7000e+000 84068  6.9486e+000  6.9272e+000 -6.1848e+000 53524 83869,83921,83895
 3.7000e+000 84045  8.8442e+000 -2.4457e+001  2.5899e+000 53524 83869,83947,83921
 3.7000e+000 84022 -1.8857e-001 -4.0603e+001 -2.3163e+000 53524 83843,83947,83869
 3.7000e+000 83999  9.6930e+000 -4.2973e+001 -3.0675e-001 53524 83843,83973,83947
 3.7000e+000 84497 -9.1673e+000 -8.5045e+001  6.4920e+000 53184 84200,84330,84252
 3.7000e+000 84474  1.0265e+001 -3.1743e+001  1.1212e+001 53184 84200,84356,84330
 3.7000e+000 84451  4.7638e+000 -2.8154e+001  1.1270e+001 53184 84200,84252,84226
 3.7000e+000 84428 -7.4553e+000 -5.8119e+001 -2.2993e+001 53184 84252,84330,84278
 3.7000e+000 84405  8.7619e+000 -3.2662e+001  1.1867e+001 53184 84174,84356,84200
 3.7000e+000 84382 -6.1633e-001 -5.9162e+001 -3.3848e+000 53184 84278,84330,84304
 3.7000e+000 84954 -1.9379e+000 -3.7364e+001  2.1631e+001 52680 84706,84836,84784
 3.7000e+000 84931  1.9684e+001 -2.2264e+001  1.6511e+000 52680 84680,84836,84706
 3.7000e+000 84908  3.4448e+000 -1.5533e+002 -2.6513e+000 52680 84784,84836,84810
 3.7000e+000 84885 -3.4154e+000 -1.5090e+002 -2.2165e+000 52680 84706,84784,84732
 3.7000e+000 84862  4.7612e+000 -1.7002e+002  2.5735e+001 52680 84732,84784,84758
 3.7000e+000 85202 -1.5298e+001 -7.6803e+001  1.4832e+000 52226 85029,85081,85055
 3.7000e+000 85179 -6.9711e+000 -5.2615e+001  8.9140e+000 52226 85225,85081,85029
 3.7000e+000 85156  3.1399e+000 -2.7611e+001  2.3803e+001 52226 85225,85029,85003
 3.7000e+000 85133 -3.3498e+001 -6.4873e+001 -2.2451e+001 52226 84977,85107,85003
 3.7000e+000 85251 -1.8320e+001 -5.7347e+001 -1.6849e+001 52226 85107,85081,85225
 3.7000e+000 85274 -1.9230e+001 -5.7379e+000 -5.9747e+000 52226 85107,85225,85003
 3.7000e+000 85522  1.9638e+001 -5.0004e+001  1.3554e+001 51764 85297,85349,85323
 3.7000e+000 85499  2.8469e+001 -4.9361e+001  7.6054e+000 51764 85545,85297,85427
 3.7000e+000 85476  7.3197e+000 -3.3266e+001 -2.9119e+000 51764 85545,85427,85375
 3.7000e+000 85453  1.1361e+001 -3.8115e+001 -9.7988e+000 51764 85375,85427,85401
 3.7000e+000 85571  4.0564e+001 -4.0184e+001  2.8587e+000 51764 85349,85297,85545
 3.7000e+000 85594  2.7346e+001 -1.8199e+001 -9.8536e+000 51764 85349,85545,85375
 3.7000e+000 85746 -2.5528e+001 -5.5358e+001  3.4318e+000 51374 85645,85697,85671
 3.7000e+000 85723 -3.4515e+001 -6.7034e+001 -2.1092e+000 51374 85619,85697,85645
 3.7000e+000 86256  1.3751e+001  8.4864e+000  7.1294e+000 50970 86279,86011,85959
 3.7000e+000 86233  1.0131e+001  1.1024e+001  7.1280e+000 50970 86279,85959,86115
 3.7000e+000 86210  8.9356e+000 -6.1959e+000 -1.6821e+000 50970 85959,86011,85985
 3.7000e+000 86187  1.2811e+001  2.0982e+001 -1.3953e+001 50970 86037,86115,86089
 3.7000e+000 86164 -3.5972e-001  5.4875e+000 -4.6746e-001 50970 85933,86115,85959
 3.7000e+000 86141  1.2417e+001 -3.5091e+000 -1.4245e+001 50970 86037,86089,86063
 3.7000e+000 86305  1.0893e+001  6.9989e+000  6.1415e+000 50970 86037,86011,86279
 3.7000e+000 86328  7.2924e+000  9.6208e+000  6.2117e+000 50970 86037,86279,86115
 3.7000e+000 86478 -5.0339e+000 -1.0434e+002  6.5760e+000 50451 86351,86403,86377
 3.7000e+000 86455 -4.0382e+001 -3.2464e+002 -8.5492e+000 50451 86351,86429,86403
 3.7000e+000 86907  2.2246e+000 -1.6278e+000 -7.7370e+000 50047 86930,86714,86662
 3.7000e+000 86884  1.5184e+001 -2.6698e+001 -9.3349e+000 50047 86930,86662,86610
 3.7000e+000 86861  4.2369e+001 -3.8503e+001 -2.0252e+001 50047 87002,86740,86714
 3.7000e+000 86838  2.4328e+001  9.0347e+000 -2.0121e+001 50047 86662,86714,86688
 3.7000e+000 86815  1.1279e+001 -3.3346e+001 -6.5354e+000 50047 86610,86662,86636
 3.7000e+000 86792  1.6543e+001 -4.6699e+001  1.1197e+001 50047 86584,86766,86610
 3.7000e+000 86956  2.3011e+001 -1.8192e+001 -6.3049e+000 50047 87002,86714,86930
 3.7000e+000 86979 -2.9431e+000 -5.6623e+001  1.4129e+000 50047 86766,86930,86610
 3.7000e+000 87028  8.6198e+000 -2.7363e+001 -2.3352e+001 50047 86766,86740,87002
 3.7000e+000 87051 -1.0077e+000 -2.3788e+001 -1.3252e+001 50047 86766,87002,86930
 3.7000e+000 87250 -1.0967e+000 -6.6535e+001 -1.8053e+001 49543 87273,87126,87100
 3.7000e+000 87227  2.7097e+000 -4.6606e+001 -4.5962e+000 49543 87273,87100,87074
 3.7000e+000 87204  1.5252e+001 -6.4714e+001 -9.5007e+000 49543 87126,87178,87152
 3.7000e+000 87299  3.4055e+000 -3.7759e+001 -1.3406e+001 49543 87178,87126,87273
 3.7000e+000 87322  2.4206e+000 -3.1740e+001  2.4232e+000 49543 87178,87273,87074
 3.7000e+000 87570 -2.9038e+001 -4.6859e+001  1.7398e+001 49146 87593,87449,87397
 3.7000e+000 87547 -1.8497e+001 -1.3509e+001  3.4326e+001 49146 87593,87397,87371
 3.7000e+000 87524  1.5377e+001 -5.3700e+000  1.8161e+001 49146 87345,87475,87371
 3.7000e+000 87501 -1.1405e+001 -5.6887e+001  1.5538e+001 49146 87397,87449,87423
 3.7000e+000 87619 -5.0270e+001 -3.9312e+001 -7.2859e+000 49146 87475,87449,87593
 3.7000e+000 87642 -3.6012e+001 -1.8037e+001  9.3722e+000 49146 87475,87593,87371
 3.7000e+000 88073 -1.1968e+001  1.9616e+001  7.5107e+000 48706 87854,87932,87880
 3.7000e+000 88050 -5.8198e+000 -4.6034e+000 -5.4198e+000 48706 87828,87932,87854
 3.7000e+000 88027 -9.0197e-001  2.2422e+001 -5.1603e+000 48706 87750,87932,87828
 3.7000e+000 88004  7.9272e+000  8.6584e+001 -1.3982e+001 48706 87750,87802,87776
 3.7000e+000 87981 -7.8095e-001  1.5169e+001 -9.0101e+000 48706 87750,87828,87802
 3.7000e+000 87958  1.3658e+000  2.6521e+001  4.7051e+000 48706 87880,87932,87906
 3.7000e+000 88402 -1.1608e+001 -1.1090e+002  7.9845e+000 48145 88203,88281,88255
 3.7000e+000 88379 -9.0368e+000 -1.0818e+002  1.3785e+001 48145 88203,88307,88281
 3.7000e+000 88356 -9.1474e+000 -1.1576e+002  8.2046e+000 48145 88203,88255,88229
 3.7000e+000 88333  1.2145e+001 -4.3644e+001  1.0212e+001 48145 88177,88307,88203
 3.7000e+000 88601  3.9926e+001 -5.5927e+001  3.4468e+001 47805 88696,88624,88477
 3.7000e+000 88578  1.0511e+000 -3.3865e+001  1.0368e+001 47805 88826,88624,88451
 3.7000e+000 88555 -7.9411e+000 -4.2390e+001  1.0574e+000 47805 88826,88451,88425
 3.7000e+000 88650  2.1732e+001 -9.6965e+001  2.3965e+001 47805 88503,88477,88624
 3.7000e+000 88673  1.9064e+001 -6.5673e+001 -1.0972e+000 47805 88503,88624,88529
 3.7000e+000 88722  7.8228e+000 -6.5580e+001  2.8927e+001 47805 88451,88624,88696
 3.7000e+000 88852  8.4139e-001 -4.9313e+001 -2.6794e+000 47805 88529,88624,88826
 3.7000e+000 88875 -8.5048e+000 -5.6935e+001 -1.2104e+001 47805 88529,88826,88425
 3.7000e+000 89172  4.9903e+000 -3.0401e+001  4.7091e+000 47401 89195,88976,88898
 3.7000e+000 89149 -7.4103e+000 -3.4199e+001 -5.4484e+000 47401 89195,88898,89054
 3.7000e+000 89126  1.3333e+000 -1.7988e+001  1.4829e+000 47401 88898,88976,88950
 3.7000e+000 89103 -3.5132e+000 -4.1717e+001 -1.6070e+001 47401 88976,89028,89002
 3.7000e+000 89080 -3.7353e+000 -3.0026e+001  8.5826e-001 47401 88898,88950,88924
 3.7000e+000 89221  9.2260e+000 -3.7568e+001 -1.1288e+001 47401 89028,88976,89195
 3.7000e+000 89244 -1.8065e+001 -4.5588e+001 -2.1487e+001 47401 89028,89195,89054
 3.7000e+000 89575 -6.2421e+000 -1.1760e+002  1.0840e+001 47111 89350,89454,89376
 3.7000e+000 89552  1.1513e+001 -6.9751e+001 -1.3695e+001 47111 89350,89480,89454
 3.7000e+000 89529  1.4880e+000 -1.5125e+002 -2.0878e+001 47111 89376,89454,89402
 3.7000e+000 89506  2.6227e+001 -1.2152e+002  1.3116e+001 47111 89402,89454,89428
 3.7000e+000 89904  3.1131e+001 -7.9178e+000 -5.9825e+000 46707 89705,89757,89731
 3.7000e+000 89881 -4.8521e+000 -4.8187e+000 -1.1689e+001 46707 89705,89783,89757
 3.7000e+000 89858  1.6982e+001  4.1996e+000 -1.1908e+001 46707 89679,89783,89705
 3.7000e+000 89835  4.6289e+000  5.0457e+001 -1.6151e+000 46707 89679,89809,89783
 3.7000e+000 90233 -1.6945e-001  7.5191e+000  2.4430e+000 46360 90034,90112,90086
 3.7000e+000 90210  8.9096e+000  2.3874e+001  1.4065e+001 46360 90034,90138,90112
 3.7000e+000 90187  2.7167e+000  3.7325e+000  3.0234e+000 46360 90034,90086,90060
 3.7000e+000 90164  4.3488e+000  4.8618e+001 -5.2570e+000 46360 90008,90138,90034
 3.7000e+000 90530  1.3796e+001 -4.8486e+001  4.2984e+000 45662 90256,90360,90308
 3.7000e+000 90507  3.3580e+000 -4.6957e+001  1.9542e+000 45662 90256,90412,90360
 3.7000e+000 90484  2.8191e+001 -3.7460e+001 -3.1202e+000 45662 90256,90308,90282
 3.7000e+000 90461  1.4435e+001 -1.2519e+001  5.9643e+000 45662 90360,90412,90386
 3.7000e+000 90438  4.8632e-001 -5.5089e+001  1.6723e+000 45662 90308,90360,90334
 3.7000e+000 90910  2.6408e+001  1.8317e+001 -1.1254e+001 45108 90688,90766,90714
 3.7000e+000 90887  4.6756e+001 -1.0900e+001  1.1054e+001 45108 90662,90766,90688
 3.7000e+000 90864  8.7765e+000 -4.1864e+000  1.5437e+001 45108 90636,90766,90662
 3.7000e+000 90841  4.1213e+001 -4.0518e+001 -2.8095e+001 45108 90714,90766,90740
 3.7000e+000 90818  1.9031e+001  2.6999e+001  5.2017e-001 45108 90636,90792,90766
 3.7000e+000 91158 -1.5744e+001 -4.4599e+001 -1.2647e+001 44604 91181,91011,90959
 3.7000e+000 91135  4.2615e+000 -5.5132e+001 -2.8246e+001 44604 91181,90959,90933
 3.7000e+000 91112 -1.2861e+001 -9.0580e+001  1.6332e+001 44604 90959,91011,90985
 3.7000e+000 91089 -1.3455e+000 -1.0056e+002 -1.2648e+001 44604 90933,91063,91037
 3.7000e+000 91207 -1.6450e+001 -5.9448e+001 -1.4064e+001 44604 91037,91011,91181
 3.7000e+000 91230 -1.5450e+001 -1.0262e+002 -2.3771e+001 44604 91037,91181,90933
 3.7000e+000 91429 -4.3909e+000 -8.8390e+001 -1.1068e+001 44264 91452,91279,91253
 3.7000e+000 91406  1.3327e+000 -7.0761e+001 -1.3769e+001 44264 91452,91253,91357
 3.7000e+000 91383 -1.7752e+001 -8.7957e+001  1.8948e+001 44264 91279,91331,91305
 3.7000e+000 91478  3.7053e+000 -1.0421e+002 -9.1525e+000 44264 91331,91279,91452
 3.7000e+000 91501  8.5075e+000 -9.0143e+001 -1.4100e+001 44264 91331,91452,91357
 3.7000e+000 92060 -2.6635e+001 -9.0040e+001  5.3927e+000 43860 92083,91740,91688
 3.7000e+000 92037 -1.5280e+001 -9.4971e+001  1.3326e+001 43860 92083,91688,91896
 3.7000e+000 92014 -2.7499e+001 -9.3908e+001 -7.8705e+000 43860 91766,91870,91844
 3.7000e+000 91991 -3.1107e+000 -8.7606e+001  5.4497e+000 43860 91740,91870,91766
 3.7000e+000 91968 -1.8293e+000 -7.1640e+001  5.1660e+000 43860 91766,91844,91792
 3.7000e+000 91945 -3.2819e+001 -6.9751e+001  1.8670e+001 43860 91688,91740,91714
 3.7000e+000 91922 -1.7878e+001 -7.6369e+001  1.2946e+000 43860 91792,91844,91818
 3.7000e+000 92109 -1.7469e+001 -8.4213e+001  1.0130e+001 43860 91870,91740,92083
 3.7000e+000 92132 -4.6011e+000 -8.5837e+001  1.8980e+001 43860 91870,92083,91896
 3.7000e+000 92353  8.0717e+000 -3.5040e+001 -3.4232e+000 43662 92203,92255,92229
 3.7000e+000 92330 -1.1862e+000 -2.5272e+001 -1.1816e+000 43662 92376,92203,92281
 3.7000e+000 92307  7.4016e+000  1.5879e+000  2.6699e+000 43662 92177,92281,92203
 3.7000e+000 92402 -9.9328e+000 -2.9004e+001 -3.7159e-001 43662 92255,92203,92376
 3.7000e+000 92682 -6.3987e+000 -1.4420e+002 -1.4280e+001 43464 92532,92584,92558
 3.7000e+000 92659 -2.1197e-001 -7.1378e+001  1.1952e+001 43464 92506,92584,92532
 3.7000e+000 92636 -5.7121e-001 -4.8395e+001 -1.5972e+001 43464 92506,92610,92584
 3.7000e+000 93013  3.6198e+000 -6.1761e+001 -3.7799e+001 42960 92866,92918,92892
 3.7000e+000 92990 -1.4157e+001 -4.3217e+001 -1.6888e+001 42960 93036,92918,92866
 3.7000e+000 92967  5.7608e+000 -6.6235e+001 -2.9788e+000 42960 93036,92866,92840
 3.7000e+000 92944  4.0368e+000  7.1176e+000  4.2860e+000 42960 92788,92918,92814
 3.7000e+000 93062 -4.0592e+000 -3.1189e+001 -1.1268e+001 42960 92814,92918,93036
 3.7000e+000 93085  3.2006e+001 -3.8080e+001  7.8985e+000 42960 92814,93036,92840
 3.7000e+000 93186 -7.7751e-001 -8.4905e+001 -2.5279e+001 42556 93108,93160,93134
 3.7000e+000 93554  3.6483e+000 -7.6567e+001 -5.3346e-001 42052 93231,93387,93361
 3.7000e+000 93531  7.7487e+000 -6.6095e+001  1.4944e+001 42052 93231,93413,93387
 3.7000e+000 93508  3.5786e+001 -4.1926e+001 -1.3839e+001 42052 93231,93361,93257
 3.7000e+000 93485 -6.2038e+000 -8.1395e+001  3.9926e+000 42052 93283,93361,93335
 3.7000e+000 93462 -1.9401e+001 -5.3079e+001 -6.5178e+000 42052 93257,93361,93283
 3.7000e+000 93439 -3.6840e-001 -7.6978e+001 -5.5479e+000 42052 93283,93335,93309
 3.7000e+000 94162  1.1501e+000  2.7616e+000  2.5783e+000 41498 93767,93975,93793
 3.7000e+000 94139  2.9780e-001  1.8405e+000  5.0644e-002 41498 93741,93975,93767
 3.7000e+000 94116  1.6010e+001 -1.3914e+001 -3.8324e-001 41498 93793,93975,93923
 3.7000e+000 94093 -3.8464e+000 -5.9551e+001  1.9834e+001 41498 93923,93975,93949
 3.7000e+000 94070 -1.8239e+000  2.6983e-001  4.2208e+000 41498 93871,93923,93897
 3.7000e+000 94047  4.0858e-001 -2.1971e+001  2.4800e+000 41498 93793,93923,93871
 3.7000e+000 94024 -6.5279e-001 -9.5801e+000 -2.0517e+000 41498 93819,93871,93845
 3.7000e+000 94001  3.7626e+000 -1.0299e+001  1.8131e+000 41498 93793,93871,93819
 3.7000e+000 94619 -8.6631e+000 -4.4843e+001 -1.4741e+001 40930 94642,94423,94371
 3.7000e+000 94596  1.3398e+001 -4.1826e+001  3.8816e+000 40930 94642,94371,94345
 3.7000e+000 94573  8.8001e+000  1.3020e+001  2.0209e+001 40930 94345,94501,94475
 3.7000e+000 94550  2.8956e+001 -5.9354e+001 -2.4860e+001 40930 94371,94423,94397
 3.7000e+000 94527  3.3665e+000 -2.2950e+001 -8.7555e+000 40930 94423,94475,94449
 3.7000e+000 94668  8.8747e+000 -1.5031e+001 -3.5811e+000 40930 94475,94423,94642
 3.7000e+000 94691  1.9289e+001 -3.1956e+001  1.2196e+001 40930 94475,94642,94345
 3.7000e+000 95148 -2.6489e+001 -5.9590e+001  5.5317e+000 40362 95171,94952,94926
 3.7000e+000 95125 -2.8140e+000 -4.0154e+001  4.1360e+001 40362 95171,94926,95004
 3.7000e+000 95102 -3.1246e+001 -7.5532e+001  2.7568e+001 40362 94874,95004,94926
 3.7000e+000 95079 -3.1074e+000 -8.5704e+001  6.3031e+001 40362 94874,95030,95004
 3.7000e+000 95056 -4.2662e+001 -7.6568e+001  5.1595e+001 40362 94874,94926,94900
 3.7000e+000 95197  7.2435e-001 -2.7456e+001  1.8522e+001 40362 94978,94952,95171
 3.7000e+000 95220  2.0214e+001 -1.1535e+001  5.3277e+001 40362 94978,95171,95004
 3.7000e+000 95549 -4.0687e+000 -2.2851e+001  3.3464e+000 39586 95350,95402,95376
 3.7000e+000 95526  1.7743e+000  4.6468e+000 -1.1757e+001 39586 95324,95402,95350
 3.7000e+000 95503  4.6226e+000  2.7574e+001 -3.3046e+000 39586 95324,95454,95402
 3.7000e+000 95480  2.6613e+001 -7.2089e+001  9.9840e+000 39586 95402,95454,95428
 3.7000e+000 96055  3.1967e+000 -1.7619e+000 -4.0934e+000 38968 96078,95862,95810
 3.7000e+000 96032  1.1634e+001  2.6246e+000 -6.5188e-001 38968 96078,95810,95758
 3.7000e+000 96009  1.5998e+000  4.6543e+000 -3.6183e+000 38968 96150,95732,95888
 3.7000e+000 95986 -1.2918e+001  3.1533e+000  9.3862e+000 38968 95810,95862,95836
 3.7000e+000 95963  3.4770e-002  1.3719e+000  4.0680e-001 38968 95732,95914,95888
 3.7000e+000 95940  6.2268e+000  5.1940e+000  4.9964e+000 38968 95758,95810,95784
 3.7000e+000 96104 -3.9211e+000  5.5798e-001 -7.4566e+000 38968 95888,95862,96078
 3.7000e+000 96127  3.3336e+000  3.8203e+000 -5.4642e+000 38968 96150,95888,96078
 3.7000e+000 96176 -6.2124e-001  1.4531e+000 -2.6332e+000 38968 95758,95732,96150
 3.7000e+000 96199  9.9515e-001  2.0701e-002 -4.4314e+000 38968 95758,96150,96078
 3.7000e+000 96545  2.6168e+001 -4.0407e+001 -2.5102e+001 38507 96640,96568,96352
 3.7000e+000 96522 -3.0636e+001 -9.5526e+001  2.2916e+001 38507 96568,96300,96222
 3.7000e+000 96499  7.0258e+001 -5.0251e+000 -6.3712e+001 38507 96640,96352,96326
 3.7000e+000 96476  2.2015e+001 -8.3315e+001 -4.9087e+001 38507 96352,96404,96378
 3.7000e+000 96453 -4.7514e+001 -1.0548e+002  1.2687e+001 38507 96222,96300,96248
 3.7000e+000 96430 -2.1993e+001 -9.6519e+001 -9.7185e+000 38507 96248,96300,96274
 3.7000e+000 96594 -1.2497e+001 -8.1816e+001 -8.2754e+000 38507 96404,96352,96568
 3.7000e+000 96617  3.8840e+000 -8.6212e+001  1.9129e+000 38507 96404,96568,96222
 3.7000e+000 96666 -7.8262e-001 -9.2038e+001  1.9649e+001 38507 96300,96568,96640
 3.7000e+000 96689  1.3087e+001 -7.0292e+001 -1.5004e+001 38507 96300,96640,96326
 3.7000e+000 97069  2.0674e+001 -6.9612e+000 -1.0207e+001 37760 97092,96873,96821
 3.7000e+000 97046  2.4082e+001 -5.7382e+000 -7.6144e+000 37760 97092,96821,96795
 3.7000e+000 97023 -2.0273e+000 -1.6895e+001 -4.6092e+000 37760 96821,96873,96847
 3.7000e+000 97000  1.3813e+001  5.8355e+000 -8.6395e+000 37760 96873,96925,96899
 3.7000e+000 96977  1.4288e+001  5.8806e+001  1.8778e+001 37760 96795,96951,96925
 3.7000e+000 97118  1.9593e+001 -6.1549e+000 -5.8023e+000 37760 96925,96873,97092
 3.7000e+000 97141  2.8801e+001 -2.5552e+000 -3.1364e+000 37760 96925,97092,96795
 3.7000e+000 97647 -2.6978e+001 -7.5318e+001  1.0351e+001 37356 97324,97480,97376
 3.7000e+000 97624 -2.2260e+000 -9.6918e+001  6.4370e+001 37356 97324,97506,97480
 3.7000e+000 97601 -1.2611e+001 -2.2324e+001  2.3199e+001 37356 97376,97480,97454
 3.7000e+000 97578 -2.5554e+001 -5.9852e+001  1.3298e+001 37356 97324,97376,97350
 3.7000e+000 97555 -9.1874e-001 -2.6873e+001  5.1319e+000 37356 97376,97454,97402
 3.7000e+000 97532 -1.4506e+000 -1.4824e+001  6.4949e+000 37356 97402,97454,97428
 3.7000e+000 98232  2.1075e+000  2.2523e+000 -9.2097e-002 36902 97935,98065,98013
 3.7000e+000 98209  2.3277e+001  1.2825e+001  3.4554e+000 36902 97935,98091,98065
 3.7000e+000 98186  1.3401e+001 -4.2881e+000  6.5967e+000 36902 97935,98013,97987
 3.7000e+000 98163  1.4031e+001  4.0637e+001  2.6767e-001 36902 97909,98091,97935
 3.7000e+000 98140  1.5903e+001  1.8292e+000  6.0453e+000 36902 97935,97987,97961
 3.7000e+000 98117  1.0399e+001  7.6051e+000  1.5750e+001 36902 98013,98065,98039
 3.7000e+000 98659  8.3510e+000 -8.6222e+001 -1.2869e+001 36604 98682,98414,98388
 3.7000e+000 98636 -1.7465e+000 -8.3818e+001  1.7522e+001 36604 98682,98388,98336
 3.7000e+000 98613  1.0039e+001 -6.9980e+001  9.3785e+000 36604 98754,98518,98466
 3.7000e+000 98590  1.1678e+001  1.3853e+001 -1.0537e+001 36604 98414,98466,98440
 3.7000e+000 98567 -6.8927e+000 -9.9091e+001  1.4586e+001 36604 98336,98388,98362
 3.7000e+000 98544  9.7445e+000 -1.0310e+002  3.9540e+001 36604 98466,98518,98492
 3.7000e+000 98708  2.0448e+001 -4.8777e+001 -2.2122e+001 36604 98466,98414,98682
 3.7000e+000 98731  1.0614e+001 -6.4323e+001  8.6233e+000 36604 98754,98466,98682
 3.7000e+000 98780  1.1944e+001 -7.3612e+001  8.8176e+000 36604 98336,98518,98754
 3.7000e+000 98803  1.0596e+001 -7.0498e+001  7.4786e+000 36604 98336,98754,98682
 3.7000e+000 99309 -2.5485e+001  1.0832e+000  8.5372e+000 36200 99332,99116,99012
 3.7000e+000 99286 -4.8784e+000  2.7273e+001 -3.4771e+000 36200 99332,99012,98986
 3.7000e+000 99263 -4.6151e+000 -1.5629e+001 -1.3019e+001 36200 99012,99116,99064
 3.7000e+000 99240  1.9419e+001  4.0348e+000  9.0592e+000 36200 98986,99168,99142
 3.7000e+000 99217 -8.6769e+000 -6.8592e+001  1.4045e+001 36200 99064,99116,99090
 3.7000e+000 99194 -6.3638e+000  8.8836e+000 -1.9338e+001 36200 99012,99064,99038
 3.7000e+000 99358 -2.2177e+001 -2.4184e+001  3.2348e+001 36200 99142,99116,99332
 3.7000e+000 99381  4.8058e+000 -3.6371e-001  1.8626e+001 36200 99142,99332,98986
 3.7000e+000 99887  2.5562e+001 -4.5029e+001  3.1879e+000 35488 99564,99720,99590
 3.7000e+000 99864  4.1977e+001 -4.8620e+000 -2.0377e+000 35488 99564,99746,99720
 3.7000e+000 99841  2.4141e+001 -1.6760e+001 -2.6098e+001 35488 99642,99694,99668
 3.7000e+000 99818  4.0296e+000 -4.4266e+001  7.0686e+000 35488 99590,99694,99642
 3.7000e+000 99795  3.3601e+001 -2.8322e+001 -7.3934e+000 35488 99590,99720,99694
 3.7000e+000 99772  3.2771e+001 -1.1083e+002  8.4667e+000 35488 99590,99642,99616
 3.7000e+000 99988 -1.7299e-009  2.0573e-011  2.8854e-012 35198 99910,99962,99936
 3.7000e+000 100138  1.6356e+001 -6.3512e+000 -2.5480e+001 34794 100233,100161,100063
 3.7000e+000 100115 -2.4260e+001 -2.7333e+001 -3.7876e+000 34794 100365,100161,100037
 3.7000e+000 100187  3.2379e+001 -2.9238e+001 -2.2735e+001 34794 100089,100063,100161
 3.7000e+000 100210  8.6571e+000 -3.8566e+001 -2.5591e+001 34794 100089,100161,100011
 3.7000e+000 100259  2.5826e+001 -2.7278e+000  4.8312e+000 34794 100037,100161,100233
 3.7000e+000 100391 -4.4433e+000 -4.3030e+001  4.8351e+000 34794 100011,100161,100365
 3.7000e+000 100927 -1.3492e+000 -2.5681e+001  9.5931e-001 34404 100679,100809,100783
 3.7000e+000 100904 -3.0055e+000 -1.9559e+001  2.4863e+000 34404 100653,100809,100679
 3.7000e+000 100881 -2.1163e-001 -1.4893e+001 -2.9240e+000 34404 100705,100783,100731
 3.7000e+000 100858 -2.5147e+000 -2.2560e+001 -6.8078e+000 34404 100679,100783,100705
 3.7000e+000 100835 -1.1239e+001 -1.0435e+001 -2.0542e+001 34404 100731,100783,100757
 3.7000e+000 101354 -1.2847e+001 -9.2546e+001  1.7386e+001 34000 101377,101109,101057
 3.7000e+000 101331 -3.4122e+001 -9.7147e+001  1.9972e+001 34000 101449,101377,101057
 3.7000e+000 101308 -4.2429e+001 -7.7555e+001  1.9853e+001 34000 101449,101057,101031
 3.7000e+000 101285 -3.6237e+001 -6.6742e+001  9.8142e+000 34000 101031,101213,101187
 3.7000e+000 101262  5.8772e+000 -1.2510e+002 -2.1210e+001 34000 101135,101187,101161
 3.7000e+000 101239 -1.7823e+001 -6.8151e+001  1.2134e+001 34000 101057,101109,101083
 3.7000e+000 101403 -1.6242e+001 -8.4725e+001  7.8404e+000 34000 101135,101109,101377
 3.7000e+000 101426 -2.9168e+001 -8.9713e+001  5.7978e+000 34000 101135,101377,101187
 3.7000e+000 101475 -1.5979e+001 -7.3986e+001  1.2007e+001 34000 101187,101377,101449
 3.7000e+000 101498 -3.3059e+001 -6.5233e+001  1.5427e+001 34000 101187,101449,101031
 3.7000e+000 102083  5.2436e+001 -4.3716e+000 -4.4903e+000 33472 102106,101812,101786
 3.7000e+000 102060  1.0123e+001 -2.3140e+001 -1.0232e+000 33472 102106,101786,101916
 3.7000e+000 102037 -3.6064e+001 -1.3186e+001 -1.7280e+001 33472 101812,101864,101838
 3.7000e+000 102014 -3.1687e+001 -2.7210e+001 -6.9491e+000 33472 101864,101916,101890
 3.7000e+000 101991  1.0526e+001 -3.5380e+001 -3.0096e+000 33472 101786,101942,101916
 3.7000e+000 101968  9.0623e+000 -2.7415e+001  6.9630e+000 33472 101760,101942,101786
 3.7000e+000 102132  2.6580e+001 -3.3327e+000 -2.1304e+001 33472 101864,101812,102106
 3.7000e+000 102155  1.2925e+001 -8.8152e+000 -2.1234e+001 33472 101864,102106,101916
 3.7000e+000 102612  8.2997e-002 -8.3498e+001 -4.2795e+001 33038 102635,102468,102390
 3.7000e+000 102589 -2.8709e+001 -1.3024e+002 -5.9461e+001 33038 102635,102390,102364
 3.7000e+000 102566  1.1453e+001 -6.5514e+001 -3.5790e+001 33038 102390,102468,102442
 3.7000e+000 102543 -5.0052e+000 -1.0896e+002 -2.7330e+001 33038 102338,102494,102364
 3.7000e+000 102520  6.6370e+000 -6.8967e+001 -3.8593e+001 33038 102390,102442,102416
 3.7000e+000 102661  2.7745e-001 -7.2066e+001 -1.5874e+001 33038 102494,102468,102635
 3.7000e+000 102684 -7.6648e+000 -9.9535e+001 -2.8103e+001 33038 102494,102635,102364
 3.7000e+000 103318  4.0379e+000 -2.0022e+000  1.8385e+000 32402 102972,103128,103076
 3.7000e+000 103295  1.1702e+001 -5.5755e+000  1.2104e+000 32402 102946,103128,102972
 3.7000e+000 103272 -4.7306e+000 -3.0114e+001  1.8713e+001 32402 103076,103128,103102
 3.7000e+000 103249  1.3582e+001 -4.7543e+000  1.3690e+000 32402 102946,103154,103128
 3.7000e+000 103226  3.8602e+000 -1.4019e+001  1.3388e+001 32402 102972,103076,102998
 3.7000e+000 103203 -5.0514e+000 -2.3955e+001  8.1168e+000 32402 102998,103076,103050
 3.7000e+000 103180 -1.7806e-001  2.7290e-002 -2.2592e-001 32402 102998,103050,103024
 3.7000e+000 103696  1.1697e+001 -7.3030e+001 -1.5648e+001 31924 103448,103526,103500
 3.7000e+000 103673 -1.3128e+001 -8.5688e+001 -2.4170e+001 31924 103448,103578,103526
 3.7000e+000 103650 -2.5712e+001 -6.4807e+001 -5.6217e+000 31924 103448,103500,103474
 3.7000e+000 103627  1.3991e-001 -1.3836e+002 -2.4338e+001 31924 103422,103578,103448
 3.7000e+000 103604 -2.3626e+001 -1.8559e+002 -2.2836e-001 31924 103526,103578,103552
 3.7000e+000 104281 -1.2904e+001 -1.1545e+001 -6.6920e+000 31520 104304,104062,104036
 3.7000e+000 104258  4.1939e+000  2.1201e+000 -7.0863e-001 31520 104304,104036,103984
 3.7000e+000 104235  1.3333e+001  1.0794e+001  2.2118e+001 31520 104062,104114,104088
 3.7000e+000 104212  5.7953e+000  1.3650e+001  7.1004e+000 31520 103958,104114,103984
 3.7000e+000 104189  4.6067e+000  1.5699e+000 -1.0667e+001 31520 103984,104036,104010
 3.7000e+000 104166  8.7086e+000  4.9198e+000  6.5152e+000 31520 103958,104140,104114
 3.7000e+000 104330 -1.4051e+001  3.9971e+000  1.3394e+000 31520 104114,104062,104304
 3.7000e+000 104353 -8.9229e+000  8.1407e+000  3.1266e+000 31520 104114,104304,103984
 3.7000e+000 104704 -2.2616e+001 -2.6194e+001 -1.8877e+001 31066 104479,104583,104505
 3.7000e+000 104681  4.2586e+001 -6.2125e+000 -2.2098e+001 31066 104479,104609,104583
 3.7000e+000 104658 -5.4416e+000 -4.2682e+000 -4.8408e+000 31066 104505,104557,104531
 3.7000e+000 104635  8.7631e+000 -3.2021e+000 -8.6977e+000 31066 104505,104583,104557
 3.7000e+000 104925  2.4541e+001 -1.5203e+001 -1.2984e+001 30754 104775,104827,104801
 3.7000e+000 104902  1.8457e+001 -9.6428e-001 -1.0397e+001 30754 104775,104853,104827
 3.7000e+000 104879  1.2939e+000 -8.0334e+000 -6.6588e+000 30754 104749,104853,104775
 3.7000e+000 105482 -1.3314e+001 -3.3340e+001  5.3254e+000 30164 105505,105136,105110
 3.7000e+000 105459 -7.8067e+000 -3.8533e+001  6.9772e+000 30164 105649,105505,105110
 3.7000e+000 105436 -1.4194e+001 -4.0050e+001  1.2385e+001 30164 105577,105188,105136
 3.7000e+000 105413 -1.1467e+001 -4.0573e+001  9.9722e+000 30164 105649,105110,105318
 3.7000e+000 105390 -2.9197e+000 -9.3427e+001  4.2700e+001 30164 105214,105292,105240
 3.7000e+000 105367 -2.4188e+001 -1.2078e+002  5.8018e+001 30164 105240,105292,105266
 3.7000e+000 105344 -1.5717e+001 -5.1953e+001  1.6084e+001 30164 105136,105188,105162
 3.7000e+000 105531 -5.5797e+000 -3.7493e+001  4.2830e+000 30164 105577,105136,105505
 3.7000e+000 105554  2.6078e+001 -3.6693e+001  7.3352e+000 30164 105214,105505,105292
 3.7000e+000 105603 -1.4356e+001 -5.0993e+001  2.0623e+001 30164 105214,105188,105577
 3.7000e+000 105626 -9.8645e+000 -5.0787e+001  1.2961e+001 30164 105214,105577,105505
 3.7000e+000 105675 -6.0107e+000 -3.4960e+001  4.4260e+000 30164 105292,105505,105649
 3.7000e+000 105698 -6.4722e+000 -3.3912e+001  6.8958e+000 30164 105292,105649,105318
 3.7000e+000 106027  1.5434e+001 -8.5425e+000  3.3072e+000 29868 106322,106050,105880
 3.7000e+000 106004  8.3008e+000 -1.0842e+000  6.7825e+000 29868 106250,106050,105828
 3.7000e+000 105981  5.3677e+000 -2.8497e+000  5.6312e+000 29868 106250,105828,105802
 3.7000e+000 105958  1.3025e+001 -1.4651e+001  3.8873e+000 29868 106322,105880,106122
 3.7000e+000 106076  1.7981e+001  1.1724e+001 -6.1911e+000 29868 105906,105880,106050
 3.7000e+000 106099  3.8832e+000 -2.6041e+000 -5.0114e-001 29868 105906,106050,105932
 3.7000e+000 106148 -1.0302e+000 -2.4152e+001  1.5379e+000 29868 105854,105828,106122
 3.7000e+000 106276  6.5279e+000 -1.3768e+000  3.1081e-001 29868 105932,106050,106250
 3.7000e+000 106299 -2.2073e+000 -5.9610e+000 -1.3876e+000 29868 105932,106250,105802
 3.7000e+000 106348  1.0994e+001 -1.7142e+000  7.2078e+000 29868 105828,106050,106322
 3.7000e+000 106371  9.2768e+000 -6.6141e+000  7.4215e+000 29868 105828,106322,106122
 3.7000e+000 106828  4.4087e+001  1.4030e+001  7.9598e+000 29521 106580,106710,106684
 3.7000e+000 106805  2.0271e+001 -1.4149e+001 -7.1697e+000 29521 106554,106710,106580
 3.7000e+000 106782  1.4705e+001 -2.5989e+000  3.9174e-001 29521 106580,106684,106606
 3.7000e+000 106759  2.3502e+001  7.3604e+000  9.0401e+000 29521 106606,106684,106658
 3.7000e+000 106736  4.5965e+000  1.6605e+001  1.1737e+001 29521 106606,106658,106632
 3.7000e+000 107027 -4.3157e+001 -5.4885e+001 -2.9189e+001 29117 106877,106929,106903
 3.7000e+000 107004 -1.7541e+001 -4.3832e+001 -2.6963e+001 29117 106851,106929,106877
 3.7000e+000 106981  3.1733e+001 -9.7449e+001 -3.2910e+001 29117 106851,106955,106929
 3.7000e+000 107456 -5.6149e+001 -1.4495e+002 -2.6431e+001 28656 107237,107315,107263
 3.7000e+000 107433  3.6948e+000 -7.6872e+001 -1.1189e+000 28656 107133,107315,107237
 3.7000e+000 107410  2.3240e+001 -7.9344e+001 -2.1735e+001 28656 107133,107237,107159
 3.7000e+000 107387  2.1519e+001 -4.2607e+001 -2.9626e+001 28656 107159,107237,107185
 3.7000e+000 107364  4.0291e+001 -1.5881e+001  2.3063e+001 28656 107185,107237,107211
 3.7000e+000 107341  7.9276e+000 -4.7901e+000 -2.7612e+000 28656 107263,107315,107289
 3.7000e+000 107704  2.5959e+001  6.7478e+000  9.4500e+000 27902 107727,107557,107531
 3.7000e+000 107681  4.5364e+000  1.2888e+001 -5.3015e+000 27902 107727,107531,107505
 3.7000e+000 107658  4.4498e+001  3.8464e+000  1.3984e+001 27902 107557,107609,107583
 3.7000e+000 107635 -2.9338e+000  9.9010e+000  4.4208e+000 27902 107479,107609,107505
 3.7000e+000 107753  4.9501e+001  7.5234e+000  9.9851e+000 27902 107609,107557,107727
 3.7000e+000 107776  2.8075e+001  1.4556e+001 -3.6094e+000 27902 107609,107727,107505
 3.7000e+000 108333 -1.8177e+001 -1.1915e+002  2.9467e+000 27341 108356,108065,108013
 3.7000e+000 108310 -1.0812e+001 -1.0906e+002 -2.6845e+001 27341 108356,108013,108143
 3.7000e+000 108287 -4.4337e+001 -1.4284e+002 -1.7756e+001 27341 108428,108117,108091
 3.7000e+000 108264  8.9238e-001 -9.8591e+001 -4.9642e+000 27341 108013,108065,108039
 3.7000e+000 108241 -1.9040e+001 -1.1783e+002 -3.0293e+001 27341 107987,108143,108013
 3.7000e+000 108218 -1.5594e+001 -1.1430e+002 -5.8904e+001 27341 107987,108169,108143
 3.7000e+000 108195 -1.6225e+001 -1.0741e+002 -5.7584e+001 27341 107961,108169,107987
 3.7000e+000 108382 -1.6438e+001 -1.0330e+002 -1.3782e+001 27341 108091,108065,108356
 3.7000e+000 108405 -5.0297e+001 -1.1131e+002 -1.2339e+001 27341 108428,108091,108356
 3.7000e+000 108454 -4.6730e+001 -2.2662e+002 -2.8125e+001 27341 108143,108117,108428
 3.7000e+000 108477 -3.8305e+001 -1.7325e+002 -2.6454e+001 27341 108143,108428,108356
 3.7000e+000 108725  2.1393e+001 -2.9091e+001  1.2738e+001 27029 108748,108526,108500
 3.7000e+000 108702  7.6819e+000 -2.7690e+001  1.9571e+001 27029 108748,108500,108630
 3.7000e+000 108679 -1.3483e+001 -3.1158e+001  1.4691e+001 27029 108578,108630,108604
 3.7000e+000 108656 -3.3708e+000 -2.4340e+001  5.9078e+000 27029 108526,108578,108552
 3.7000e+000 108774  9.5641e+000 -1.9660e+001  5.3147e+000 27029 108578,108526,108748
 3.7000e+000 108797 -7.9759e+000 -2.1271e+001  1.0438e+001 27029 108578,108748,108630
 3.7000e+000 109045 -3.0850e+000 -3.7366e+000  5.3428e+000 26610 108872,108924,108898
 3.7000e+000 109022  4.5302e+000 -8.1586e+001 -2.8431e+001 26610 108872,108950,108924
 3.7000e+000 108999  1.6431e+001 -7.9439e+001 -9.7727e+000 26610 108846,108950,108872
 3.7000e+000 108976 -2.1697e+000 -1.4845e+002 -2.5497e+001 26610 108820,108950,108846
 3.7000e+000 109366  1.0717e+001 -1.3584e+002 -1.2035e+001 26006 109144,109222,109196
 3.7000e+000 109343 -9.8399e+000 -1.4153e+002 -1.5553e+001 26006 109118,109222,109144
 3.7000e+000 109320  2.1598e+001 -1.4264e+002  1.8816e+000 26006 109092,109222,109118
 3.7000e+000 109297 -8.5455e-002 -1.4117e+002 -4.6356e+000 26006 109144,109196,109170
 3.7000e+000 109274  2.5074e+001 -2.1952e+001  1.2856e+001 26006 109092,109248,109222
 3.7000e+000 109567 -1.1960e+001  6.9515e+000 -4.1176e+001 25659 109391,109469,109443
 3.7000e+000 109544  1.4796e+001 -2.2706e+000  1.0935e+001 25659 109391,109495,109469
 3.7000e+000 109521 -4.2499e+001  1.8242e+000 -1.6180e+001 25659 109391,109443,109417
 3.7000e+000 109900  1.4095e+001  4.0837e+000 -1.1218e+001 25255 109923,109779,109753
 3.7000e+000 109877  1.3877e+001  5.2684e+000 -8.3570e+000 25255 109923,109753,109701
 3.7000e+000 109854 -5.4927e+000  4.2681e+000 -1.3258e+001 25255 109675,109805,109701
 3.7000e+000 109831  1.4096e+001  1.2538e+001 -1.1196e+001 25255 109701,109753,109727
 3.7000e+000 109949  1.0699e+001  1.8146e+000 -1.2241e+001 25255 109805,109779,109923
 3.7000e+000 109972  1.1812e+001  3.9721e+000 -9.0863e+000 25255 109805,109923,109701
 3.7000e+000 110220  9.9896e-001 -4.1661e-002 -4.9866e-001 24701 110243,110021,109995
 3.7000e+000 110197 -9.6097e-001 -5.9633e+000 -3.1622e+000 24701 110243,109995,110099
 3.7000e+000 110174 -1.3640e+000  4.3871e+000  2.2765e+000 24701 110315,110073,110047
 3.7000e+000 110151 -3.4992e+000 -4.0540e+000 -3.1939e+000 24701 109995,110125,110099
 3.7000e+000 110269  1.3416e+000  1.4807e+000  9.3588e-001 24701 110047,110021,110243
 3.7000e+000 110292 -8.9560e-001  2.6846e+000  5.1679e-001 24701 110315,110047,110243
 3.7000e+000 110341  5.4952e+000  5.8917e-002  6.3994e+000 24701 110099,110073,110315
 3.7000e+000 110364  2.6906e+000 -4.3938e+000  3.0412e+000 24701 110099,110315,110243
 3.7000e+000 110661 -2.0618e+001 -1.5009e+002  3.6057e+001 24197 110684,110413,110387
 3.7000e+000 110638  1.0753e+001 -9.1209e+001  1.8432e+001 24197 110684,110387,110543
 3.7000e+000 110615  2.2609e+001 -1.9507e+002  2.5662e+001 24197 110756,110491,110465
 3.7000e+000 110592 -2.5714e+001 -1.1755e+002  3.6285e+001 24197 110413,110465,110439
 3.7000e+000 110569  2.7964e-001 -2.5243e+002 -1.6920e+001 24197 110491,110543,110517
 3.7000e+000 110710  2.3700e+001 -1.3166e+002  3.5272e+001 24197 110465,110413,110684
 3.7000e+000 110733  3.6219e+000 -1.6966e+002  2.1363e+001 24197 110756,110465,110684
 3.7000e+000 110782  2.6420e+001 -1.6571e+002  2.2243e+000 24197 110543,110491,110756
 3.7000e+000 110805  1.8717e+001 -1.2667e+002 -2.7110e+000 24197 110543,110756,110684
 3.7000e+000 111315  1.7418e+001 -6.9669e+001 -1.8905e+000 23593 111044,111148,111070
 3.7000e+000 111292 -1.1154e+001 -2.5401e+001  1.8907e+001 23593 111044,111174,111148
 3.7000e+000 111269  6.0729e+001 -1.9154e+001 -7.5003e+000 23593 111070,111122,111096
 3.7000e+000 111246  1.7060e+001 -4.1524e+001 -1.8893e+001 23593 111070,111148,111122
 3.7000e+000 111223 -1.6828e+001 -8.2538e+000  6.5079e+000 23593 111018,111174,111044
 3.7000e+000 111200 -8.4932e+000 -7.7947e+000  8.5964e+000 23593 110992,111174,111018
 3.7000e+000 111821  8.2906e+000 -1.1870e+002 -1.7629e+000 23089 111916,111844,111628
 3.7000e+000 111798 -2.0325e+001 -1.3830e+002 -2.9121e+001 23089 111844,111550,111524
 3.7000e+000 111775  2.1060e+000 -9.4834e+001 -1.1566e+000 23089 111916,111628,111602
 3.7000e+000 111752  3.8067e+001 -1.9242e+002 -7.6548e+000 23089 111498,111680,111524
 3.7000e+000 111729 -1.1764e+000 -6.0903e+001  8.5969e+000 23089 111550,111602,111576
 3.7000e+000 111706 -3.8017e+000 -5.9729e+001 -1.3967e+001 23089 111628,111680,111654
 3.7000e+000 111870  9.9451e+000 -1.0658e+002  8.1971e+000 23089 111680,111628,111844
 3.7000e+000 111893  5.5503e+000 -1.1770e+002 -6.0205e-001 23089 111680,111844,111524
 3.7000e+000 111942  1.2400e+001 -8.6210e+001 -1.2542e+001 23089 111550,111844,111916
 3.7000e+000 111965  1.4905e+000 -6.6845e+001 -9.0338e+000 23089 111550,111916,111602
 3.7000e+000 112164 -2.0033e+001 -2.1788e+001 -1.4590e+001 22626 112187,112014,111988
 3.7000e+000 112141  6.4565e+000 -4.3935e+001 -1.8897e+001 22626 112259,112187,111988
 3.7000e+000 112118  5.4844e+000 -4.5001e+001 -1.7782e+001 22626 112259,111988,112092
 3.7000e+000 112213  6.4533e+000  2.1081e+001 -5.4550e-001 22626 112040,112014,112187
 3.7000e+000 112236 -1.3790e+000 -3.8162e+001 -1.4199e+001 22626 112040,112187,112066
 3.7000e+000 112285  5.9986e+000 -4.2004e+001 -2.0024e+001 22626 112066,112187,112259
 3.7000e+000 112308  5.7262e+000 -4.2664e+001 -1.9045e+001 22626 112066,112259,112092
 3.7000e+000 112605 -1.0604e+000 -9.5589e+001  2.1714e+001 22286 112628,112383,112357
 3.7000e+000 112582  9.6917e+000 -9.5434e+001  2.6760e+001 22286 112772,112628,112357
 3.7000e+000 112559 -1.1584e+001 -1.4042e+002  5.3573e+001 22286 112700,112435,112409
 3.7000e+000 112536 -2.7091e+001 -1.0208e+002  3.1887e+001 22286 112772,112357,112331
 3.7000e+000 112513 -2.7905e+001 -1.2041e+002  4.4602e+001 22286 112435,112487,112461
 3.7000e+000 112654  1.7010e+001 -4.6061e+001  2.4184e+001 22286 112409,112383,112628
 3.7000e+000 112677  9.0662e+000 -1.0664e+002  4.0379e+001 22286 112700,112409,112628
 3.7000e+000 112726  1.2120e+001 -1.1347e+002  2.8724e+001 22286 112487,112435,112700
 3.7000e+000 112749  1.8903e+001 -1.0849e+002  1.8457e+001 22286 112487,112700,112628
 3.7000e+000 112798  2.5167e+001 -9.3382e+001  2.0247e+001 22286 112487,112628,112772
 3.7000e+000 112821  1.5818e+001 -8.3124e+001  2.4948e+001 22286 112487,112772,112331
 3.7000e+000 112924  1.0258e-001  6.0033e-001  2.1074e+000 21974 112846,112898,112872
 3.7000e+000 113223 -7.0956e+000 -1.5591e+002  1.1387e+001 21420 112949,113053,112975
 3.7000e+000 113200  4.0688e+000 -1.3920e+002  6.4755e+000 21420 112949,113079,113053
 3.7000e+000 113177  1.2143e+002 -1.2944e+002  6.0601e+001 21420 112975,113053,113001
 3.7000e+000 113154 -6.4266e+001 -2.2976e+002  2.1594e+001 21420 113001,113053,113027
 3.7000e+000 113131 -1.7498e+001 -7.8221e+001 -3.7523e+001 21420 112949,113105,113079
 3.7000e+000 113605 -2.4409e+001 -1.4589e+002  4.8244e+001 20716 113331,113435,113357
 3.7000e+000 113582 -1.3118e+001 -8.7471e+001  4.3973e+001 20716 113331,113461,113435
 3.7000e+000 113559 -1.6195e+000 -1.4864e+002 -2.4078e+001 20716 113383,113435,113409
 3.7000e+000 113536 -4.7086e+001 -1.1891e+002 -1.4320e+001 20716 113357,113435,113383
 3.7000e+000 113513 -9.3110e+000 -4.0550e+001  5.8834e+000 20716 113331,113487,113461
 3.7000e+000 113853 -9.5776e+000 -1.6450e+002  1.5287e+000 20290 113876,113680,113654
 3.7000e+000 113830  1.8824e+001 -1.7443e+002 -5.4069e+000 20290 113876,113654,113628
 3.7000e+000 113807 -2.7300e+001 -1.9790e+002 -1.6836e+001 20290 113948,113732,113680
 3.7000e+000 113784  7.2045e+001 -1.7359e+002 -2.7578e+001 20290 113680,113732,113706
 3.7000e+000 113902 -9.0359e+000 -1.7295e+002 -9.2066e-002 20290 113948,113680,113876
 3.7000e+000 113925 -1.4064e+001 -1.7464e+002 -2.5313e-001 20290 113758,113876,113628
 3.7000e+000 113974 -4.7340e+001 -1.7474e+002 -2.4570e+001 20290 113758,113732,113948
 3.7000e+000 113997 -4.5456e+001 -1.7242e+002 -1.1942e+001 20290 113758,113948,113876
 3.7000e+000 114365 -1.2533e+001 -1.2015e+002  3.9535e-001 19900 114146,114198,114172
 3.7000e+000 114342 -1.7882e+001 -1.2244e+002  3.6785e-001 19900 114042,114198,114146
 3.7000e+000 114319 -8.9478e+000 -1.1602e+002 -4.4202e+000 19900 114042,114224,114198
 3.7000e+000 114296 -4.4022e+001 -1.1699e+002 -2.2077e+000 19900 114094,114146,114120
 3.7000e+000 114273 -1.9375e+001 -1.1478e+002 -6.1180e+000 19900 114042,114146,114094
 3.7000e+000 114250 -4.0518e+001 -1.1919e+002 -1.6775e+000 19900 114042,114094,114068
 3.7000e+000 114566 -1.5743e+001 -1.2402e+002  3.3613e+000 19496 114442,114494,114468
 3.7000e+000 114543  4.6159e+001 -6.6385e+001  3.1227e+001 19496 114416,114494,114442
 3.7000e+000 114520 -2.1613e+001 -1.0103e+002  1.8593e+001 19496 114390,114494,114416
 3.7000e+000 114767  9.0653e+000 -1.2124e+002  4.5783e+000 19042 114790,114669,114643
 3.7000e+000 114744  8.5928e+000 -1.1909e+002  5.5197e+000 19042 114790,114643,114591
 3.7000e+000 114721  1.8655e+001 -1.1706e+002  1.7415e+001 19042 114591,114643,114617
 3.7000e+000 114816  6.5726e+000 -1.1895e+002  3.7340e+000 19042 114695,114669,114790
 3.7000e+000 114839  7.9308e+000 -1.1475e+002  5.1771e+000 19042 114695,114790,114591
 3.7000e+000 114991 -4.8363e+001 -1.3329e+002 -1.1573e+000 18488 114864,114916,114890
 3.7000e+000 114968 -3.7113e+001 -1.3460e+002 -4.3666e+000 18488 114864,114942,114916
 3.7000e+000 115192  1.1566e+002 -7.0323e+001  1.7459e+001 18098 115215,115042,115016
 3.7000e+000 115169  6.8267e+001 -3.7211e+001 -4.3604e+000 18098 115215,115016,115120
 3.7000e+000 115146  7.5832e+001 -7.0755e+001 -1.6944e+001 18098 115287,115094,115068
 3.7000e+000 115241  7.9251e+001 -1.3666e+002  1.0516e+000 18098 115068,115042,115215
 3.7000e+000 115264  7.6779e+001 -6.1478e+001 -2.1934e+000 18098 115287,115068,115215
 3.7000e+000 115313  5.7098e+001 -8.1358e+001 -2.2807e+001 18098 115120,115094,115287
 3.7000e+000 115336  5.0888e+001 -7.5661e+001 -8.9376e+000 18098 115120,115287,115215
 3.7000e+000 115846  8.4050e+001 -2.0416e+002 -7.7829e+001 17644 115653,115705,115679
 3.7000e+000 115823  2.0035e+001 -1.7750e+002 -3.8309e+001 17644 115627,115705,115653
 3.7000e+000 115800  7.6603e+001 -9.4406e+001 -1.0981e+001 17644 115549,115705,115627
 3.7000e+000 115777  1.7390e+001 -1.5716e+002  1.9634e+001 17644 115549,115627,115575
 3.7000e+000 115754  3.5409e+001 -1.0184e+002  6.8528e-001 17644 115523,115705,115549
 3.7000e+000 115731 -4.5811e+001 -1.3131e+002 -1.1750e+001 17644 115575,115627,115601
 3.7000e+000 116067 -5.7857e+001 -2.9863e+002 -1.1649e+001 17116 115891,115943,115917
 3.7000e+000 116044 -1.0093e+002 -3.3484e+002  4.0610e+000 17116 115891,115995,115943
 3.7000e+000 116021 -9.9928e+001 -2.9856e+002  1.8040e+000 17116 115943,115995,115969
 3.7000e+000 116288 -2.2352e+001 -2.3707e+002  3.3164e+001 16704 116164,116216,116190
 3.7000e+000 116265 -5.4506e+001 -2.8893e+002  1.9375e+001 16704 116112,116216,116164
 3.7000e+000 116242 -1.0295e+002 -2.7943e+002 -8.3825e+000 16704 116112,116164,116138
 3.7000e+000 116489 -1.5869e+001 -1.2544e+002 -5.5020e+000 16434 116339,116417,116365
 3.7000e+000 116466 -2.8275e+001 -1.2804e+002 -6.7752e-001 16434 116313,116417,116339
 3.7000e+000 116443 -6.9660e+001 -1.5955e+002  3.1660e+001 16434 116365,116417,116391
 3.7000e+000 116592  1.6792e+001 -1.8872e+002 -1.5507e-002 15967 116514,116566,116540
 3.7000e+000 116695 -1.7870e+001 -2.7528e+002 -3.5576e+001 15552 116617,116669,116643
 3.7000e+000 116798 -1.1001e+001 -1.1307e+002  0.0000e+000 421 116720,116772,116746
 3.8000e+000 69066  2.5680e+000 -2.7011e+002 -5.1515e+000 68738 68965,69017,68991
 3.8000e+000 69043  4.3749e+001 -2.1696e+002  5.5434e+002 68738 68939,69017,68965
 3.8000e+000 69371 -1.3321e+001 -4.5502e+001 -1.6910e+001 68426 69172,69250,69198
 3.8000e+000 69348  1.3010e+000 -9.1152e+001  8.7538e+000 68426 69146,69250,69172
 3.8000e+000 69325 -3.5411e+000 -1.4003e+001  5.3878e+000 68426 69198,69250,69224
 3.8000e+000 69302 -2.1055e+001 -9.1372e+001  4.7927e+000 68426 69146,69276,69250
 3.8000e+000 69521  1.0003e+001 -2.1525e+001 -6.7932e+000 68228 69420,69472,69446
 3.8000e+000 69498 -5.4848e+000 -6.9073e+000 -2.3551e+001 68228 69394,69472,69420
 3.8000e+000 69781 -1.0545e+001  1.8138e+001  8.5345e+000 68030 69631,69683,69657
 3.8000e+000 69758  4.7279e+000 -2.2963e+001 -8.6442e+000 68030 69631,69709,69683
 3.8000e+000 69735 -1.2416e+000  1.1928e+001  2.1477e+001 68030 69605,69709,69631
 3.8000e+000 70078  9.0796e-001  2.4065e+001 -4.3749e+000 67832 69882,69934,69908
 3.8000e+000 70055 -4.5556e+000 -2.1704e+000  1.0013e+001 67832 69856,69934,69882
 3.8000e+000 70032  2.0557e-003 -1.4822e+001 -1.6924e+000 67832 69830,69934,69856
 3.8000e+000 70009  2.5057e+000 -9.1669e+000 -9.9725e+000 67832 69804,69934,69830
 3.8000e+000 69986 -1.0020e+001  3.3441e+001  1.1084e+001 67832 69804,69960,69934
 3.8000e+000 70586 -3.8504e+000 -3.6514e+001  1.2281e+001 67634 70609,70419,70341
 3.8000e+000 70563 -2.2825e+000 -6.1490e+001  2.0963e+001 67634 70681,70609,70341
 3.8000e+000 70540 -8.8785e+000 -6.4021e+001  2.0144e+001 67634 70681,70341,70315
 3.8000e+000 70517 -9.8050e+000 -2.8813e+001  2.4932e+001 67634 70341,70419,70367
 3.8000e+000 70494 -1.4101e+001  2.3437e+001 -6.3580e+000 67634 70263,70445,70289
 3.8000e+000 70471  1.1486e+001 -1.0387e+000  1.5172e+001 67634 70367,70419,70393
 3.8000e+000 70635 -2.3846e-001  2.3100e+001  7.5085e+000 67634 70445,70419,70609
 3.8000e+000 70658 -1.4145e+001 -4.1766e+001  1.5571e+001 67634 70445,70609,70289
 3.8000e+000 70707 -3.5003e+000 -5.5182e+001  5.3132e+000 67634 70289,70609,70681
 3.8000e+000 70730 -2.1173e+001 -6.2472e+001  5.8200e+000 67634 70289,70681,70315
 3.8000e+000 71108  2.0633e+001  4.0124e+001 -3.1112e+000 67344 71131,70912,70886
 3.8000e+000 71085 -4.8074e+000 -2.4764e+001  9.2020e+000 67344 71131,70886,70860
 3.8000e+000 71062 -7.9041e+000 -2.4473e+001  1.6915e+001 67344 71203,70938,70912
 3.8000e+000 71039  1.8768e+001 -2.0753e+001  1.6154e+001 67344 70834,70990,70860
 3.8000e+000 71016 -4.8365e+000 -5.0892e+001  7.6940e+000 67344 70938,70990,70964
 3.8000e+000 71157 -6.0532e+000 -1.1287e+001  1.7959e+001 67344 71203,70912,71131
 3.8000e+000 71180  9.6091e+000 -2.1594e+001  1.5667e+001 67344 70990,71131,70860
 3.8000e+000 71229  1.5329e-001 -5.1199e+001  1.1112e+001 67344 70990,70938,71203
 3.8000e+000 71252  5.5484e+000 -3.1879e+001  8.6415e+000 67344 70990,71203,71131
 3.8000e+000 71603  6.7803e+000 -5.0460e+001  1.0986e+001 67032 71378,71482,71404
 3.8000e+000 71580 -3.3288e+000 -3.7667e+001  1.2245e+001 67032 71378,71508,71482
 3.8000e+000 71557  4.0543e-001 -2.8316e+001  2.0925e+001 67032 71404,71456,71430
 3.8000e+000 71534  7.5212e-001 -6.8180e+001  6.9165e+000 67032 71404,71482,71456
 3.8000e+000 72003  1.9919e+001  2.4034e-001  1.2430e+001 66834 71755,71859,71781
 3.8000e+000 71980  1.0137e+001 -8.8512e+001 -9.7628e-001 66834 71755,71885,71859
 3.8000e+000 71957  8.4509e-001 -1.5926e+000 -2.8257e+000 66834 71781,71833,71807
 3.8000e+000 71934 -9.0170e+000 -9.1775e+001 -1.3223e+001 66834 71781,71859,71833
 3.8000e+000 71911  3.4217e+001 -1.8776e+001  3.0541e+001 66834 71729,71885,71755
 3.8000e+000 72430  2.0132e+001 -2.0781e+001 -3.4473e+000 66266 72237,72289,72263
 3.8000e+000 72407  1.2560e+001 -4.0916e+001  3.4129e+000 66266 72133,72289,72237
 3.8000e+000 72384 -3.6398e-001 -1.1958e+001 -3.0564e+000 66266 72133,72237,72211
 3.8000e+000 72361 -1.2604e+001 -6.1932e+001 -7.6078e+000 66266 72107,72289,72133
 3.8000e+000 72338 -1.1904e+001 -4.4750e+001  2.4458e+001 66266 72133,72211,72185
 3.8000e+000 72315 -5.8573e+000 -6.7648e+001  1.9945e+001 66266 72133,72185,72159
 3.8000e+000 72580 -3.6883e-001 -2.8658e+001 -8.6646e-001 65968 72479,72531,72505
 3.8000e+000 72557 -4.7277e-001 -8.5032e+000  4.7579e-001 65968 72453,72531,72479
 3.8000e+000 72960  1.3449e+001  5.6272e+001  1.2428e-001 65621 72983,72738,72712
 3.8000e+000 72937  4.7332e+001 -3.3742e+000 -2.6159e+000 65621 72983,72712,72686
 3.8000e+000 72914  1.5517e+001 -5.1965e+001 -5.8659e+000 65621 72738,72842,72764
 3.8000e+000 72891 -7.3877e+000 -6.4625e+001  3.8587e-002 65621 72764,72842,72816
 3.8000e+000 72868 -3.3589e+001 -1.3314e+002  1.7296e+001 65621 72764,72816,72790
 3.8000e+000 73009  2.6853e+001  8.6336e+000  9.0124e+000 65621 72842,72738,72983
 3.8000e+000 73032  2.0981e+001 -1.0304e+002  1.1761e+001 65621 72842,72983,72686
 3.8000e+000 73361  1.0529e+001 -1.9001e+002 -2.8844e+000 65281 73456,73384,73188
 3.8000e+000 73338 -7.8458e+000 -1.5451e+002  2.2485e+001 65281 73384,73162,73136
 3.8000e+000 73315 -7.1599e+000 -6.0697e+001  9.5057e+000 65281 73188,73240,73214
 3.8000e+000 73292  1.3643e+001 -5.2679e+000 -1.6130e+001 65281 73136,73266,73240
 3.8000e+000 73410 -3.2436e+001 -1.6841e+002 -8.6923e+000 65281 73240,73188,73384
 3.8000e+000 73433 -1.5955e+001 -2.7128e+001  5.8009e+000 65281 73240,73384,73136
 3.8000e+000 73482 -2.6118e+000 -2.4708e+002 -2.1895e+001 65281 73162,73384,73456
 3.8000e+000 73711 -2.4856e+000  8.5730e+000 -2.1896e+001 64820 73734,73610,73584
 3.8000e+000 73688 -8.6480e+000 -6.3821e+000 -2.0191e+001 64820 73734,73584,73662
 3.8000e+000 73760  2.3108e+001  2.3300e+001  1.2285e+001 64820 73636,73610,73734
 3.8000e+000 73783 -3.4578e+001 -4.6330e+000 -8.4419e+000 64820 73806,73734,73662
 3.8000e+000 73832 -6.8824e+000 -2.7666e+001 -2.3011e+000 64820 73636,73734,73806
 3.8000e+000 74112  1.1483e+001  1.9138e+000 -1.2405e+001 64622 74278,74135,73988
 3.8000e+000 74089 -1.3854e-001 -1.6862e+001  1.8837e+000 64622 74135,73936,74040
 3.8000e+000 74066  1.4263e+001  3.2952e+000 -2.2403e+001 64622 74278,73988,73962
 3.8000e+000 74161 -8.3013e+000 -1.0440e+001 -7.1333e+000 64622 74014,73988,74135
 3.8000e+000 74184 -4.4952e-001 -1.5592e+001  1.1110e+000 64622 74207,74135,74040
 3.8000e+000 74233  4.7289e+000 -6.2752e+000 -5.7880e+000 64622 74014,74135,74207
 3.8000e+000 74304  2.4880e+000 -1.9758e+001 -2.2946e-002 64622 73936,74135,74278
 3.8000e+000 74327  1.4143e+001 -1.1789e+001 -1.1209e+001 64622 73936,74278,73962
 3.8000e+000 74526  1.0307e+001  1.1495e+001  6.1810e-001 64424 74621,74549,74402
 3.8000e+000 74503 -1.0906e+001 -7.8836e+000  8.4179e+000 64424 74549,74350,74454
 3.8000e+000 74480  1.6558e+001  1.6758e+001 -4.4539e+000 64424 74621,74402,74376
 3.8000e+000 74575  1.3586e+001 -7.2180e+000  6.3237e+000 64424 74428,74402,74549
 3.8000e+000 74598  4.8242e+000 -1.3080e+001  9.3863e+000 64424 74693,74549,74454
 3.8000e+000 74647  3.2053e+000  3.0760e+000  1.3209e+001 64424 74350,74549,74621
 3.8000e+000 74670  1.1982e+001  8.2196e+000  8.0464e+000 64424 74350,74621,74376
 3.8000e+000 74719  2.8511e+000 -2.5222e+001  1.4121e-001 64424 74428,74549,74693
 3.8000e+000 75123 -7.2434e+000 -1.5159e+002  3.5635e+001 64126 74875,74953,74927
 3.8000e+000 75100 -1.3051e+000 -1.6775e+002  1.8621e+001 64126 74875,74979,74953
 3.8000e+000 75077 -1.3344e+000 -7.8588e+001 -1.0363e+001 64126 74875,75005,74979
 3.8000e+000 75054  8.5449e+000 -1.5702e+002  4.8124e+001 64126 74875,74927,74901
 3.8000e+000 75031 -1.5444e+001 -2.6463e+001  1.2114e+001 64126 74849,75005,74875
 3.8000e+000 75224 -1.3176e+001 -9.5026e+001  1.1769e+001 63836 75146,75198,75172
 3.8000e+000 75472  1.4943e+001 -2.9296e+001  1.5455e+001 63375 75273,75351,75325
 3.8000e+000 75449 -1.5722e+001 -3.6525e+001  9.5617e+000 63375 75273,75377,75351
 3.8000e+000 75426 -3.6874e+001 -5.0738e+001  3.0373e+000 63375 75247,75377,75273
 3.8000e+000 75403  2.7295e+001 -1.5918e+001  8.8575e+000 63375 75273,75325,75299
 3.8000e+000 75673  1.5755e+001 -2.8358e+001  1.1720e+001 63063 75523,75575,75549
 3.8000e+000 75650  1.2826e+001 -6.8548e+001 -8.2275e+000 63063 75497,75575,75523
 3.8000e+000 75627  1.4835e+001 -7.7784e+001  1.3356e+001 63063 75497,75601,75575
 3.8000e+000 75874  2.2202e+001 -6.6216e+001 -8.7657e+000 62716 75897,75750,75724
 3.8000e+000 75851  1.6776e+001 -5.5673e+001 -5.9342e+000 62716 75897,75724,75698
 3.8000e+000 75828 -1.9184e+000 -4.5121e+001 -2.1657e+001 62716 75698,75802,75776
 3.8000e+000 75923  2.9000e+001 -5.3997e+001 -1.4006e+001 62716 75776,75750,75897
 3.8000e+000 75946  1.7885e+001 -4.9205e+001 -7.4741e+000 62716 75776,75897,75698
 3.8000e+000 76328 -1.4310e+001 -7.5930e+001  2.1875e+000 62198 76495,76351,76158
 3.8000e+000 76305 -2.2964e+001 -8.0951e+001  1.9468e+000 62198 76351,76080,76054
 3.8000e+000 76282 -6.0095e+000 -1.1635e+002  4.2334e-001 62198 76423,76184,76158
 3.8000e+000 76259 -1.5216e+001 -7.4900e+001  2.5342e+000 62198 76495,76158,76106
 3.8000e+000 76236 -3.1325e+001 -1.2077e+002  2.4333e+001 62198 76106,76158,76132
 3.8000e+000 76377 -2.0986e+001 -9.1288e+001 -3.6731e+000 62198 76423,76158,76351
 3.8000e+000 76400 -2.4769e+001 -7.4926e+001 -9.9079e+000 62198 76210,76351,76054
 3.8000e+000 76449  9.0819e+000 -9.3183e+001 -6.0721e+000 62198 76210,76184,76423
 3.8000e+000 76472 -3.5648e+000 -7.0637e+001 -1.1372e+001 62198 76210,76423,76351
 3.8000e+000 76521 -1.5085e+001 -7.7600e+001  1.2298e+000 62198 76080,76351,76495
 3.8000e+000 76544 -1.5866e+001 -7.5758e+001  1.3015e+000 62198 76080,76495,76106
 3.8000e+000 76841  8.6705e+000 -8.0395e+001  1.7351e+001 61751 76936,76864,76645
 3.8000e+000 76818  2.8907e+001 -8.1802e+001 -2.0425e+001 61751 76864,76567,76723
 3.8000e+000 76795  1.5219e+001 -4.3104e+001  1.7122e+001 61751 76936,76645,76593
 3.8000e+000 76772 -7.2555e+001 -1.9969e+002  4.1233e+001 61751 77008,76697,76671
 3.8000e+000 76749 -2.5643e+000 -2.1732e+001 -7.5970e+000 61751 76593,76645,76619
 3.8000e+000 76890 -5.5973e+000 -1.1549e+002  2.3978e+001 61751 76671,76645,76864
 3.8000e+000 76913 -1.8955e+001 -1.1103e+002  1.0575e+001 61751 77008,76671,76864
 3.8000e+000 76962  2.3349e+001 -1.3010e+002 -1.1591e+000 61751 76567,76864,76936
 3.8000e+000 76985  2.8102e+001 -9.8134e+001  2.7337e+000 61751 76567,76936,76593
 3.8000e+000 77034  7.2470e+000 -1.4673e+002 -2.2834e+001 61751 76723,76697,77008
 3.8000e+000 77057 -1.8450e+000 -1.5360e+002 -1.8742e+001 61751 76723,77008,76864
 3.8000e+000 77207 -1.7278e+001 -3.4937e+001  9.6081e+000 61418 77106,77158,77132
 3.8000e+000 77184  4.3289e+001 -9.4920e+001  2.1830e+001 61418 77080,77158,77106
 3.8000e+000 77638  2.3238e+001 -1.0044e+002 -1.8188e+001 60814 77733,77661,77471
 3.8000e+000 77615 -1.2642e+000 -9.2846e+001 -9.1539e+000 60814 77661,77393,77315
 3.8000e+000 77592  3.1873e+001 -8.4897e+001 -1.1016e+001 60814 77733,77471,77445
 3.8000e+000 77569 -4.0889e+001 -2.2848e+002 -3.2678e+001 60814 77315,77367,77341
 3.8000e+000 77546 -3.5611e-001 -1.5090e+002 -1.7606e+001 60814 77315,77393,77367
 3.8000e+000 77523  2.1330e+001 -3.2851e+001 -2.6513e+001 60814 77393,77445,77419
 3.8000e+000 77687 -8.0842e+000 -1.1247e+002 -3.0751e+001 60814 77497,77471,77661
 3.8000e+000 77710  1.4088e+000 -9.0600e+001 -1.0307e+001 60814 77497,77661,77315
 3.8000e+000 77759  1.5360e+000 -7.3127e+001 -1.0035e+001 60814 77393,77661,77733
 3.8000e+000 77782  1.6124e+001 -5.6041e+001 -3.0916e-001 60814 77393,77733,77445
 3.8000e+000 78337  3.6928e+000 -1.5723e+001  4.9549e+000 60210 78360,78017,77965
 3.8000e+000 78314  2.2999e+000 -2.6619e+001  4.8118e+000 60210 78360,77965,78173
 3.8000e+000 78291  6.9797e+000 -1.0738e+001  5.5409e+000 60210 78432,78043,78017
 3.8000e+000 78268 -1.0157e+000 -3.0054e+001  5.7928e+000 60210 77965,78017,77991
 3.8000e+000 78245  6.9859e-001  5.2056e+000  5.0838e+000 60210 78043,78095,78069
 3.8000e+000 78222 -6.1925e+000 -3.7567e+001  6.2044e+000 60210 78095,78173,78121
 3.8000e+000 78199 -1.8231e+000 -2.8568e+001 -4.3956e+000 60210 78121,78173,78147
 3.8000e+000 78386  3.1863e+000 -1.2144e+001  6.1430e+000 60210 78432,78017,78360
 3.8000e+000 78409  2.7476e+000 -1.4530e+001  4.4302e+000 60210 78095,78360,78173
 3.8000e+000 78458  5.9040e+000 -1.0177e+001  1.3501e+000 60210 78095,78043,78432
 3.8000e+000 78481  3.4991e+000 -1.0830e+001  1.8977e+000 60210 78095,78432,78360
 3.8000e+000 78680 -2.5725e+001 -3.8045e+001 -9.3110e+000 59848 78703,78556,78530
 3.8000e+000 78657 -2.1124e+001 -6.1981e+001 -3.6410e+001 59848 78703,78530,78504
 3.8000e+000 78634 -2.6579e+001 -1.3560e+002 -1.8741e+001 59848 78504,78608,78582
 3.8000e+000 78729 -2.9068e+001 -9.0354e+001 -3.0179e+000 59848 78582,78556,78703
 3.8000e+000 78752 -1.9410e+001 -9.4270e+001 -3.9475e+001 59848 78582,78703,78504
 3.8000e+000 78951  7.0619e-001 -3.7983e+000 -2.3980e+000 59344 78974,78801,78775
 3.8000e+000 78928 -1.3549e+001 -4.3816e+001 -1.6767e+001 59344 79046,78974,78775
 3.8000e+000 78905 -6.3723e+000 -8.3635e+001 -1.5582e+001 59344 79046,78775,78879
 3.8000e+000 79000  1.4674e+001  7.5510e+000  1.7968e+001 59344 78827,78801,78974
 3.8000e+000 79023 -1.7321e+000  6.4231e+000 -2.9939e+000 59344 78827,78974,78853
 3.8000e+000 79072 -1.4129e+001  7.0945e-001 -1.5930e+000 59344 78853,78974,79046
 3.8000e+000 79095  5.4236e+000 -2.4664e+001  2.2727e+000 59344 78853,79046,78879
 3.8000e+000 79296  1.9081e+001 -9.4974e+000  1.1085e+001 58711 79319,79172,79146
 3.8000e+000 79273  1.4275e+001 -3.2834e+001  3.3648e+000 58711 79319,79146,79120
 3.8000e+000 79250  2.9316e+000 -9.5886e+001  2.5329e+001 58711 79172,79224,79198
 3.8000e+000 79345  2.8019e+001 -3.4636e+001  1.2035e+001 58711 79224,79172,79319
 3.8000e+000 79368  2.6967e+001 -5.4961e+001  7.9839e+000 58711 79224,79319,79120
 3.8000e+000 79667 -9.6141e-001 -3.3996e+001 -3.3065e+000 58285 79690,79471,79393
 3.8000e+000 79644  4.9887e+000 -5.6277e+001 -1.6174e+001 58285 79690,79393,79549
 3.8000e+000 79621  2.0854e+001 -5.7839e+001  1.7342e+001 58285 79393,79471,79419
 3.8000e+000 79598  1.2515e+001 -2.4989e+001 -3.4365e+000 58285 79497,79549,79523
 3.8000e+000 79575  2.3353e+000 -8.1971e+001  2.5352e+001 58285 79419,79471,79445
 3.8000e+000 79716  6.4171e+000 -1.5781e+001  6.8606e+000 58285 79497,79471,79690
 3.8000e+000 79739  1.4445e+001 -4.4191e+001 -3.4345e+000 58285 79497,79690,79549
 3.8000e+000 80249  5.7183e+000  2.6256e+001  1.9747e+001 57831 80272,79978,79952
 3.8000e+000 80226 -5.4425e+000  3.5351e+001 -9.8271e-001 57831 80272,79952,80108
 3.8000e+000 80203 -1.8913e+000  1.7218e+000 -1.7433e+001 57831 79926,80108,79952
 3.8000e+000 80180 -6.4338e-001  1.7652e+000  7.9932e+000 57831 80004,80082,80030
 3.8000e+000 80157 -7.9808e+000  5.0052e+000  3.4249e-001 57831 80004,80108,80082
 3.8000e+000 80134  3.8680e+000  3.1097e-001  1.2454e+000 57831 80030,80082,80056
 3.8000e+000 80298 -1.4303e+001 -2.3323e+001  2.4977e+001 57831 80004,79978,80272
 3.8000e+000 80321 -6.3099e+000  1.8329e+001  4.2241e+000 57831 80004,80272,80108
 3.8000e+000 80618 -5.4642e+000 -6.9706e+001 -6.9457e+000 57077 80344,80448,80422
 3.8000e+000 80595 -2.9027e+000 -7.1199e+001 -2.9056e+000 57077 80344,80500,80448
 3.8000e+000 80572  1.8834e+001 -1.7449e+001 -1.3424e+001 57077 80344,80422,80370
 3.8000e+000 80549 -8.1754e+000 -1.3124e+001 -6.2783e+000 57077 80370,80422,80396
 3.8000e+000 80526 -3.1707e+001 -1.4706e+002  1.2601e+001 57077 80448,80500,80474
 3.8000e+000 80768 -1.3394e+001 -9.7332e+000  8.2214e-001 56787 80791,80693,80667
 3.8000e+000 80745 -1.2232e+001 -1.3388e+001 -3.9179e+000 56787 80791,80667,80641
 3.8000e+000 80817 -1.1099e+001 -1.2180e+001 -2.1336e+000 56787 80719,80693,80791
 3.8000e+000 80840 -2.5813e+001 -3.7532e+001 -1.0329e+001 56787 80719,80791,80641
 3.8000e+000 81429 -1.2402e+001 -5.7628e+000  8.7321e+000 56497 81452,81158,81132
 3.8000e+000 81406  1.0340e+001 -9.0597e+000  2.9301e+000 56497 81452,81132,81288
 3.8000e+000 81383  3.4332e+000  8.0436e+000 -7.4437e+000 56497 81524,81184,81158
 3.8000e+000 81360  7.9743e+000 -1.4365e+001 -1.8302e+001 56497 81210,81288,81236
 3.8000e+000 81337  3.0552e-001 -1.6542e+001 -1.9744e+000 56497 81106,81288,81132
 3.8000e+000 81314  1.7344e+001 -3.9396e-001 -2.3066e+001 56497 81236,81288,81262
 3.8000e+000 81478  1.0458e+000 -4.9418e+000  4.0854e+000 56497 81524,81158,81452
 3.8000e+000 81501  1.5653e+001 -2.8410e+000  5.1951e+000 56497 81210,81452,81288
 3.8000e+000 81550  8.1222e+000  2.1647e+001 -1.2617e+001 56497 81210,81184,81524
 3.8000e+000 81573  9.1050e+000  1.9252e+001  8.7998e-002 56497 81210,81524,81452
 3.8000e+000 81870  7.0442e+000 -5.5516e+000  9.3039e+000 55979 81893,81674,81648
 3.8000e+000 81847  9.2227e-001 -9.3697e+000  5.6459e+000 55979 81893,81648,81752
 3.8000e+000 81824 -2.7339e+000 -6.3794e+000  4.2237e+000 55979 81596,81752,81648
 3.8000e+000 81801  1.6668e+001  9.7583e+000  3.6909e+000 55979 81674,81726,81700
 3.8000e+000 81778 -2.2741e+000 -4.9704e+000  3.1967e+000 55979 81596,81648,81622
 3.8000e+000 81919  1.0574e+001 -9.6425e+000  3.2820e+000 55979 81726,81674,81893
 3.8000e+000 81942  1.1740e+000 -1.5795e+001 -8.6975e-001 55979 81726,81893,81752
 3.8000e+000 82371 -1.9261e+001 -1.7625e+001 -9.7826e+000 55631 82100,82204,82152
 3.8000e+000 82348  1.5788e+001 -1.9124e+001 -1.0467e+001 55631 82100,82230,82204
 3.8000e+000 82325  4.1766e+001  7.6112e+000 -1.0627e+001 55631 82100,82152,82126
 3.8000e+000 82302  7.4971e+000 -3.4149e+001 -1.7732e-001 55631 82074,82230,82100
 3.8000e+000 82279 -2.3932e+001 -3.7309e+001 -2.2734e+001 55631 82152,82204,82178
 3.8000e+000 82256  2.0886e+000 -1.0108e+001 -1.8275e+000 55631 82048,82230,82074
 3.8000e+000 82521  2.5350e+001 -2.7914e+001 -4.4307e+000 55227 82544,82420,82394
 3.8000e+000 82498  2.2775e+001 -4.8612e+001 -1.3532e+000 55227 82544,82394,82472
 3.8000e+000 82570  1.6494e+001 -1.0800e+001 -4.0335e+000 55227 82446,82420,82544
 3.8000e+000 82593  1.5209e+001 -2.7225e+001  4.4403e+000 55227 82446,82544,82472
 3.8000e+000 82875  8.5806e+000  1.3436e+000  5.4861e+000 54979 82699,82777,82725
 3.8000e+000 82852 -4.9773e+000  2.8903e+001  7.6592e+000 54979 82699,82803,82777
 3.8000e+000 82829 -2.0828e+000 -4.7754e+000  2.9342e+000 54979 82725,82777,82751
 3.8000e+000 83204  2.6914e+000 -1.0393e+000 -5.8747e-001 54475 83005,83083,83057
 3.8000e+000 83181 -5.4604e+000 -1.0161e+001  5.4017e+000 54475 82979,83083,83005
 3.8000e+000 83158  2.5484e+000  4.1072e+000  6.4534e-002 54475 83005,83057,83031
 3.8000e+000 83135 -1.4487e+000 -9.7731e-001 -7.2249e+000 54475 82979,83109,83083
 3.8000e+000 83582  1.4647e+001  4.9283e+000 -1.3936e+001 54071 83605,83438,83412
 3.8000e+000 83559  5.6998e+000  1.1815e+000 -1.6115e+000 54071 83749,83605,83412
 3.8000e+000 83536 -7.2954e+000 -1.6128e+001  9.0406e+000 54071 83677,83360,83334
 3.8000e+000 83513  5.6796e+000  3.0794e+000 -1.7751e+000 54071 83749,83412,83677
 3.8000e+000 83490 -3.2508e+000 -1.6081e+001  1.2906e+000 54071 83308,83464,83334
 3.8000e+000 83631 -2.6018e+000 -3.8527e+000 -9.7679e+000 54071 83464,83438,83605
 3.8000e+000 83654 -1.9567e-001 -1.3262e+001  2.6863e+000 54071 83464,83605,83334
 3.8000e+000 83703  3.0918e+000  1.2859e-001 -4.8609e+000 54071 83386,83360,83677
 3.8000e+000 83726  9.5731e+000  2.6399e+001 -1.4812e+001 54071 83386,83677,83412
 3.8000e+000 83775  7.4019e+000 -3.2003e+000 -3.2187e+000 54071 83334,83605,83749
 3.8000e+000 83798  7.7259e+000 -8.0111e-001 -3.6061e+000 54071 83334,83749,83677
 3.8000e+000 84068  5.1655e+000  5.1823e+000 -4.6222e+000 53524 83869,83921,83895
 3.8000e+000 84045  6.7278e+000 -1.7406e+001  1.6801e+000 53524 83869,83947,83921
 3.8000e+000 84022  7.7413e-001 -3.2244e+001 -2.3148e+000 53524 83843,83947,83869
 3.8000e+000 83999  8.1757e+000 -3.5682e+001  9.3315e-002 53524 83843,83973,83947
 3.8000e+000 84497 -5.0965e+000 -6.2973e+001  5.2299e+000 53184 84200,84330,84252
 3.8000e+000 84474  1.3017e+001 -1.5579e+001  7.6143e+000 53184 84200,84356,84330
 3.8000e+000 84451  3.6701e+000 -3.8829e+000  7.3624e+000 53184 84200,84252,84226
 3.8000e+000 84428 -5.0275e+000 -4.2927e+001 -1.7335e+001 53184 84252,84330,84278
 3.8000e+000 84405  1.3499e+001 -1.4021e+001  4.5294e+000 53184 84174,84356,84200
 3.8000e+000 84382  5.5478e-001 -4.3278e+001 -3.6727e+000 53184 84278,84330,84304
 3.8000e+000 84954 -1.7093e+000 -2.6415e+001  1.6279e+001 52680 84706,84836,84784
 3.8000e+000 84931  2.2244e+001 -1.2861e+001  4.6482e+000 52680 84680,84836,84706
 3.8000e+000 84908  3.8305e+000 -1.2005e+002 -2.7195e+000 52680 84784,84836,84810
 3.8000e+000 84885  3.2272e-001 -1.1369e+002 -4.6576e+000 52680 84706,84784,84732
 3.8000e+000 84862  5.3947e+000 -1.3189e+002  2.0511e+001 52680 84732,84784,84758
 3.8000e+000 85202 -1.4645e+001 -6.4590e+001  1.9450e+000 52226 85029,85081,85055
 3.8000e+000 85179 -4.7670e+000 -4.0695e+001  9.5246e+000 52226 85225,85081,85029
 3.8000e+000 85156  4.8496e+000 -1.6961e+001  2.3170e+001 52226 85225,85029,85003
 3.8000e+000 85133 -2.8477e+001 -5.5572e+001 -2.1855e+001 52226 84977,85107,85003
 3.8000e+000 85251 -1.5316e+001 -4.5091e+001 -1.5057e+001 52226 85107,85081,85225
 3.8000e+000 85274 -1.5234e+001  4.4186e+000 -5.3510e+000 52226 85107,85225,85003
 3.8000e+000 85522  1.6077e+001 -4.0229e+001  1.1123e+001 51764 85297,85349,85323
 3.8000e+000 85499  2.3736e+001 -3.7906e+001  6.3789e+000 51764 85545,85297,85427
 3.8000e+000 85476  4.3647e+000 -2.2807e+001 -3.2714e+000 51764 85545,85427,85375
 3.8000e+000 85453  6.1699e+000 -2.9244e+001 -8.1801e+000 51764 85375,85427,85401
 3.8000e+000 85571  3.4662e+001 -2.9292e+001  1.8112e+000 51764 85349,85297,85545
 3.8000e+000 85594  2.2653e+001 -8.6658e+000 -9.8532e+000 51764 85349,85545,85375
 3.8000e+000 85746 -1.8379e+001 -3.6360e+001  3.2859e+000 51374 85645,85697,85671
 3.8000e+000 85723 -2.7555e+001 -5.0901e+001 -1.3064e+000 51374 85619,85697,85645
 3.8000e+000 86256  1.1987e+001  1.0821e+001  6.5094e+000 50970 86279,86011,85959
 3.8000e+000 86233  1.0136e+001  1.0780e+001  6.8225e+000 50970 86279,85959,86115
 3.8000e+000 86210  8.0006e+000 -1.7504e+000 -1.7585e+000 50970 85959,86011,85985
 3.8000e+000 86187  1.4192e+001  2.3701e+001 -1.5371e+001 50970 86037,86115,86089
 3.8000e+000 86164 -6.4665e-003  5.4373e+000 -2.9393e-001 50970 85933,86115,85959
 3.8000e+000 86141  1.5639e+001  1.3448e+000 -1.4830e+001 50970 86037,86089,86063
 3.8000e+000 86305  1.0109e+001  1.1584e+001  6.0734e+000 50970 86037,86011,86279
 3.8000e+000 86328  8.1731e+000  1.1472e+001  6.4443e+000 50970 86037,86279,86115
 3.8000e+000 86478  4.9609e+000 -7.8012e+001  2.2279e+000 50451 86351,86403,86377
 3.8000e+000 86455 -2.2205e+001 -2.4515e+002 -9.1052e+000 50451 86351,86429,86403
 3.8000e+000 86907  3.0499e+000 -7.8713e-001 -8.0032e+000 50047 86930,86714,86662
 3.8000e+000 86884  1.3863e+001 -1.8768e+001 -8.7841e+000 50047 86930,86662,86610
 3.8000e+000 86861  4.0743e+001 -3.1192e+001 -2.1889e+001 50047 87002,86740,86714
 3.8000e+000 86838  2.5085e+001  9.8792e+000 -2.0980e+001 50047 86662,86714,86688
 3.8000e+000 86815  9.1844e+000 -2.7066e+001 -5.7770e+000 50047 86610,86662,86636
 3.8000e+000 86792  1.4590e+001 -2.9141e+001  8.3539e+000 50047 86584,86766,86610
 3.8000e+000 86956  2.0419e+001 -1.1958e+001 -7.4941e+000 50047 87002,86714,86930
 3.8000e+000 86979 -2.3709e+000 -3.7992e+001 -1.3339e+000 50047 86766,86930,86610
 3.8000e+000 87028  6.0355e+000 -2.1461e+001 -2.4421e+001 50047 86766,86740,87002
 3.8000e+000 87051 -3.8511e+000 -1.7864e+001 -1.4083e+001 50047 86766,87002,86930
 3.8000e+000 87250 -5.6269e-001 -5.0832e+001 -1.4735e+001 49543 87273,87126,87100
 3.8000e+000 87227  3.9819e+000 -3.4105e+001 -3.7094e+000 49543 87273,87100,87074
 3.8000e+000 87204  8.8399e+000 -5.0712e+001 -7.3277e+000 49543 87126,87178,87152
 3.8000e+000 87299  1.6782e+000 -2.7100e+001 -9.5352e+000 49543 87178,87126,87273
 3.8000e+000 87322  2.8850e+000 -2.1341e+001  3.3285e+000 49543 87178,87273,87074
 3.8000e+000 87570 -2.4702e+001 -3.6133e+001  1.7908e+001 49146 87593,87449,87397
 3.8000e+000 87547 -1.3237e+001 -9.0407e-001  3.4156e+001 49146 87593,87397,87371
 3.8000e+000 87524  2.2560e+001  1.3369e+000  1.5127e+001 49146 87345,87475,87371
 3.8000e+000 87501 -1.0175e+001 -4.7469e+001  1.5371e+001 49146 87397,87449,87423
 3.8000e+000 87619 -4.5084e+001 -2.7503e+001 -7.9906e+000 49146 87475,87449,87593
 3.8000e+000 87642 -3.0620e+001 -5.2689e+000  8.0941e+000 49146 87475,87593,87371
 3.8000e+000 88073 -1.4723e+001  2.4060e+001  9.5132e+000 48706 87854,87932,87880
 3.8000e+000 88050 -6.3018e+000 -2.2946e+000 -6.1929e+000 48706 87828,87932,87854
 3.8000e+000 88027  1.0162e+000  2.7641e+001 -4.8216e+000 48706 87750,87932,87828
 3.8000e+000 88004  1.6513e+001  1.0162e+002 -8.5160e+000 48706 87750,87802,87776
 3.8000e+000 87981  7.1195e-001  2.2301e+001 -7.1295e+000 48706 87750,87828,87802
 3.8000e+000 87958  1.5027e+000  3.2099e+001  6.7048e+000 48706 87880,87932,87906
 3.8000e+000 88402 -8.9453e+000 -9.8547e+001  1.0872e+001 48145 88203,88281,88255
 3.8000e+000 88379 -5.4995e+000 -9.6847e+001  1.1754e+001 48145 88203,88307,88281
 3.8000e+000 88356 -6.9102e+000 -9.8134e+001  1.0323e+001 48145 88203,88255,88229
 3.8000e+000 88333  1.6741e+001 -2.1012e+001  4.0548e+000 48145 88177,88307,88203
 3.8000e+000 88601  4.3259e+001 -4.5247e+001  3.1226e+001 47805 88696,88624,88477
 3.8000e+000 88578  4.3658e+000 -2.5204e+001  9.4032e+000 47805 88826,88624,88451
 3.8000e+000 88555 -5.7717e+000 -3.3313e+001  1.7665e+000 47805 88826,88451,88425
 3.8000e+000 88650  2.7194e+001 -8.1063e+001  1.8696e+001 47805 88503,88477,88624
 3.8000e+000 88673  1.9785e+001 -5.4343e+001 -3.8648e+000 47805 88503,88624,88529
 3.8000e+000 88722  1.3900e+001 -5.3574e+001  2.6328e+001 47805 88451,88624,88696
 3.8000e+000 88852  5.4743e+000 -3.8603e+001 -4.6456e+000 47805 88529,88624,88826
 3.8000e+000 88875 -5.1862e+000 -4.6095e+001 -1.2357e+001 47805 88529,88826,88425
 3.8000e+000 89172  6.6324e+000 -2.0395e+001  6.5934e+000 47401 89195,88976,88898
 3.8000e+000 89149 -6.0587e+000 -2.4337e+001 -3.4042e+000 47401 89195,88898,89054
 3.8000e+000 89126  2.7577e+000 -1.0406e+001  4.1031e+000 47401 88898,88976,88950
 3.8000e+000 89103 -9.9314e-001 -3.2954e+001 -1.4548e+001 47401 88976,89028,89002
 3.8000e+000 89080 -2.3396e+000 -2.3333e+001  1.8479e+000 47401 88898,88950,88924
 3.8000e+000 89221  1.1194e+001 -2.7266e+001 -9.8709e+000 47401 89028,88976,89195
 3.8000e+000 89244 -1.6850e+001 -3.5663e+001 -1.9876e+001 47401 89028,89195,89054
 3.8000e+000 89575 -5.3880e+000 -9.9825e+001  8.5495e+000 47111 89350,89454,89376
 3.8000e+000 89552  1.6017e+001 -5.0407e+001 -1.6609e+001 47111 89350,89480,89454
 3.8000e+000 89529  4.5024e+000 -1.3014e+002 -2.0742e+001 47111 89376,89454,89402
 3.8000e+000 89506  2.6482e+001 -1.0656e+002  1.2911e+001 47111 89402,89454,89428
 3.8000e+000 89904  2.9886e+001 -5.7196e+000 -3.5745e+000 46707 89705,89757,89731
 3.8000e+000 89881 -4.3851e+000 -4.7183e-001 -1.0379e+001 46707 89705,89783,89757
 3.8000e+000 89858  2.1613e+001  8.5486e+000 -1.5573e+001 46707 89679,89783,89705
 3.8000e+000 89835  6.0200e+000  6.2992e+001 -2.7976e+000 46707 89679,89809,89783
 3.8000e+000 90233 -4.5153e-002  9.9607e+000  2.0833e+000 46360 90034,90112,90086
 3.8000e+000 90210  1.0134e+001  3.1405e+001  1.7704e+001 46360 90034,90138,90112
 3.8000e+000 90187  2.5695e+000  4.0184e+000  3.2764e+000 46360 90034,90086,90060
 3.8000e+000 90164  4.1449e+000  6.0102e+001 -5.9057e+000 46360 90008,90138,90034
 3.8000e+000 90530  3.7571e+000 -3.9885e+001  4.3143e+000 45662 90256,90360,90308
 3.8000e+000 90507 -8.5453e-002 -3.5220e+001  8.4447e-001 45662 90256,90412,90360
 3.8000e+000 90484  2.5542e+001 -2.8746e+001 -7.5085e+000 45662 90256,90308,90282
 3.8000e+000 90461  8.3072e+000 -1.0162e+001  3.2008e+000 45662 90360,90412,90386
 3.8000e+000 90438  2.3825e+000 -4.2746e+001  2.8780e+000 45662 90308,90360,90334
 3.8000e+000 90910  2.8773e+001  2.6997e+001 -9.6593e+000 45108 90688,90766,90714
 3.8000e+000 90887  4.2166e+001 -1.0531e+001  9.0553e+000 45108 90662,90766,90688
 3.8000e+000 90864  7.9758e+000  4.9498e+000  1.7476e+001 45108 90636,90766,90662
 3.8000e+000 90841  4.0289e+001 -2.0754e+001 -2.3012e+001 45108 90714,90766,90740
 3.8000e+000 90818  1.7565e+001  2.9473e+001  5.7516e+000 45108 90636,90792,90766
 3.8000e+000 91158 -1.2961e+001 -3.1249e+001 -1.0288e+001 44604 91181,91011,90959
 3.8000e+000 91135  1.0345e+001 -4.2103e+001 -2.7082e+001 44604 91181,90959,90933
 3.8000e+000 91112 -9.0013e+000 -7.5783e+001  1.8014e+001 44604 90959,91011,90985
 3.8000e+000 91089 -1.2578e+000 -9.1376e+001 -1.0790e+001 44604 90933,91063,91037
 3.8000e+000 91207 -1.5027e+001 -4.6352e+001 -1.0874e+001 44604 91037,91011,91181
 3.8000e+000 91230 -1.2176e+001 -9.2474e+001 -2.0898e+001 44604 91037,91181,90933
 3.8000e+000 91429  1.7246e-001 -7.6605e+001 -1.1787e+001 44264 91452,91279,91253
 3.8000e+000 91406  4.4489e+000 -5.5408e+001 -1.3989e+001 44264 91452,91253,91357
 3.8000e+000 91383 -6.9296e+000 -7.2779e+001  1.9710e+001 44264 91279,91331,91305
 3.8000e+000 91478  7.3459e+000 -9.3318e+001 -1.0222e+001 44264 91331,91279,91452
 3.8000e+000 91501  8.8420e+000 -7.7602e+001 -1.5424e+001 44264 91331,91452,91357
 3.8000e+000 92060 -2.3531e+001 -7.9015e+001  1.4721e+000 43860 92083,91740,91688
 3.8000e+000 92037 -1.2963e+001 -8.6130e+001  1.1189e+001 43860 92083,91688,91896
 3.8000e+000 92014 -2.2751e+001 -7.1527e+001 -1.2730e+001 43860 91766,91870,91844
 3.8000e+000 91991 -2.8811e+000 -7.6916e+001 -9.3508e-001 43860 91740,91870,91766
 3.8000e+000 91968 -1.5327e+000 -4.5998e+001  4.6141e+000 43860 91766,91844,91792
 3.8000e+000 91945 -2.9584e+001 -6.5677e+001  1.2229e+001 43860 91688,91740,91714
 3.8000e+000 91922 -1.5098e+001 -4.3847e+001  2.7161e+000 43860 91792,91844,91818
 3.8000e+000 92109 -1.5302e+001 -7.0636e+001  5.4232e+000 43860 91870,91740,92083
 3.8000e+000 92132 -2.7399e+000 -7.3706e+001  1.6090e+001 43860 91870,92083,91896
 3.8000e+000 92353  7.6390e+000 -2.8782e+001 -1.5881e+000 43662 92203,92255,92229
 3.8000e+000 92330  8.7042e-001 -1.8943e+001 -4.7566e-001 43662 92376,92203,92281
 3.8000e+000 92307  1.0508e+001  5.6733e+000  3.8089e+000 43662 92177,92281,92203
 3.8000e+000 92402 -5.0854e+000 -2.1486e+001  4.5540e-002 43662 92255,92203,92376
 3.8000e+000 92682 -6.5814e+000 -1.3006e+002 -1.3276e+001 43464 92532,92584,92558
 3.8000e+000 92659  3.8392e+000 -5.7461e+001  1.3064e+001 43464 92506,92584,92532
 3.8000e+000 92636  4.8613e+000 -3.3452e+001 -1.5589e+001 43464 92506,92610,92584
 3.8000e+000 93013  3.3033e+000 -5.3324e+001 -3.4435e+001 42960 92866,92918,92892
 3.8000e+000 92990 -1.2177e+001 -3.4256e+001 -1.5404e+001 42960 93036,92918,92866
 3.8000e+000 92967  6.5932e+000 -5.6497e+001 -2.0037e+000 42960 93036,92866,92840
 3.8000e+000 92944  6.6549e+000  1.6228e+001  5.2832e+000 42960 92788,92918,92814
 3.8000e+000 93062 -2.6747e+000 -2.2143e+001 -1.0328e+001 42960 92814,92918,93036
 3.8000e+000 93085  3.0994e+001 -2.9239e+001  8.2339e+000 42960 92814,93036,92840
 3.8000e+000 93186  1.6116e+000 -6.7409e+001 -1.6189e+001 42556 93108,93160,93134
 3.8000e+000 93554  9.1202e+000 -6.5896e+001  2.5865e+000 42052 93231,93387,93361
 3.8000e+000 93531  6.9663e+000 -5.9496e+001  1.5310e+001 42052 93231,93413,93387
 3.8000e+000 93508  1.3838e+001 -5.8145e+001  1.7313e-001 42052 93231,93361,93257
 3.8000e+000 93485  1.0679e+001 -2.1545e+001 -5.3783e+000 42052 93283,93361,93335
 3.8000e+000 93462 -5.1868e-001 -7.0178e+001 -7.1258e+000 42052 93257,93361,93283
 3.8000e+000 93439 -1.2081e-001 -2.6840e+001 -1.8700e+000 42052 93283,93335,93309
 3.8000e+000 94162  2.6383e+000  9.1961e+000  2.1607e+000 41498 93767,93975,93793
 3.8000e+000 94139  1.2442e-001  7.4430e+000 -9.3592e-001 41498 93741,93975,93767
 3.8000e+000 94116  1.8670e+001 -6.6083e+000 -3.7282e-001 41498 93793,93975,93923
 3.8000e+000 94093 -9.8367e-001 -5.1675e+001  1.8141e+001 41498 93923,93975,93949
 3.8000e+000 94070  3.8362e-001  3.7498e+000  5.8209e+000 41498 93871,93923,93897
 3.8000e+000 94047  1.4696e+000 -1.6583e+001  3.9609e+000 41498 93793,93923,93871
 3.8000e+000 94024 -2.8041e-001 -5.5243e+000 -1.0413e+000 41498 93819,93871,93845
 3.8000e+000 94001  4.7563e+000 -6.2081e+000  3.1714e+000 41498 93793,93871,93819
 3.8000e+000 94619 -5.9419e+000 -2.9628e+001 -1.1191e+001 40930 94642,94423,94371
 3.8000e+000 94596  1.2520e+001 -2.6592e+001  2.9995e+000 40930 94642,94371,94345
 3.8000e+000 94573  8.1914e+000  1.7033e+001  1.7291e+001 40930 94345,94501,94475
 3.8000e+000 94550  3.3799e+001 -3.0326e+001 -2.3309e+001 40930 94371,94423,94397
 3.8000e+000 94527  6.2184e+000 -1.3414e+001 -6.0719e+000 40930 94423,94475,94449
 3.8000e+000 94668  8.0055e+000 -7.0549e+000 -1.3122e+000 40930 94475,94423,94642
 3.8000e+000 94691  1.7083e+001 -1.9492e+001  1.0650e+001 40930 94475,94642,94345
 3.8000e+000 95148 -2.8623e+001 -4.3748e+001 -1.1168e+000 40362 95171,94952,94926
 3.8000e+000 95125  2.4018e+000 -1.9893e+001  4.0012e+001 40362 95171,94926,95004
 3.8000e+000 95102 -2.4754e+001 -5.5661e+001  2.6216e+001 40362 94874,95004,94926
 3.8000e+000 95079  1.1035e+000 -6.5355e+001  5.9259e+001 40362 94874,95030,95004
 3.8000e+000 95056 -3.5452e+001 -5.9007e+001  4.6646e+001 40362 94874,94926,94900
 3.8000e+000 95197  5.8288e+000 -7.4731e+000  1.5854e+001 40362 94978,94952,95171
 3.8000e+000 95220  3.1177e+001  1.1949e+001  5.5771e+001 40362 94978,95171,95004
 3.8000e+000 95549 -2.1968e+000 -7.1329e+000  5.0833e+000 39586 95350,95402,95376
 3.8000e+000 95526  3.0069e+000  8.6861e+000 -3.4687e+000 39586 95324,95402,95350
 3.8000e+000 95503 -3.2110e+000  1.3145e+001  7.7947e+000 39586 95324,95454,95402
 3.8000e+000 95480  6.6838e+000  2.7312e+000  1.2912e+001 39586 95402,95454,95428
 3.8000e+000 96055  4.3241e+000  3.9810e+000 -3.2411e+000 38968 96078,95862,95810
 3.8000e+000 96032  1.1867e+001  6.9058e+000 -1.9226e-001 38968 96078,95810,95758
 3.8000e+000 96009  2.7618e+000  8.6990e+000 -2.0938e+000 38968 96150,95732,95888
 3.8000e+000 95986 -1.1425e+001  6.5010e+000  7.0445e+000 38968 95810,95862,95836
 3.8000e+000 95963  2.4327e-001  5.5144e+000  1.2436e+000 38968 95732,95914,95888
 3.8000e+000 95940  9.2246e+000  9.3454e+000  2.8920e+000 38968 95758,95810,95784
 3.8000e+000 96104 -9.6321e-001  5.5646e+000 -5.6427e+000 38968 95888,95862,96078
 3.8000e+000 96127  4.8651e+000  7.8521e+000 -4.1144e+000 38968 96150,95888,96078
 3.8000e+000 96176 -1.2272e-001  5.4194e+000 -7.0963e-001 38968 95758,95732,96150
 3.8000e+000 96199  2.0088e+000  3.9982e+000 -2.6393e+000 38968 95758,96150,96078
 3.8000e+000 96545  2.6577e+001 -2.8360e+001 -2.5104e+001 38507 96640,96568,96352
 3.8000e+000 96522 -2.6908e+001 -8.0295e+001  2.0682e+001 38507 96568,96300,96222
 3.8000e+000 96499  6.9173e+001  5.2595e+000 -6.1288e+001 38507 96640,96352,96326
 3.8000e+000 96476  2.3161e+001 -6.4009e+001 -4.7407e+001 38507 96352,96404,96378
 3.8000e+000 96453 -4.0889e+001 -8.8163e+001  1.2134e+001 38507 96222,96300,96248
 3.8000e+000 96430 -1.5917e+001 -7.5625e+001 -8.5484e+000 38507 96248,96300,96274
 3.8000e+000 96594 -1.0916e+001 -6.7372e+001 -9.1589e+000 38507 96404,96352,96568
 3.8000e+000 96617  5.3556e+000 -7.2075e+001  1.0106e+000 38507 96404,96568,96222
 3.8000e+000 96666  1.2388e+000 -7.6473e+001  1.8018e+001 38507 96300,96568,96640
 3.8000e+000 96689  1.4669e+001 -5.6000e+001 -1.4441e+001 38507 96300,96640,96326
 3.8000e+000 97069  2.1352e+001  5.8696e-001 -1.1377e+001 37760 97092,96873,96821
 3.8000e+000 97046  2.7098e+001  3.4646e+000 -1.5769e+001 37760 97092,96821,96795
 3.8000e+000 97023  6.4323e+000 -1.2741e+001 -5.7897e+000 37760 96821,96873,96847
 3.8000e+000 97000  8.8628e+000  4.0278e+000 -5.5781e+000 37760 96873,96925,96899
 3.8000e+000 96977  1.2072e+001  7.7911e+001  2.1958e+001 37760 96795,96951,96925
 3.8000e+000 97118  1.5293e+001 -7.1435e+000 -2.4900e+000 37760 96925,96873,97092
 3.8000e+000 97141  3.2612e+001  9.3582e-001 -7.7178e+000 37760 96925,97092,96795
 3.8000e+000 97647 -2.1942e+001 -6.0205e+001  5.5640e+000 37356 97324,97480,97376
 3.8000e+000 97624  1.2336e+000 -8.0607e+001  5.6502e+001 37356 97324,97506,97480
 3.8000e+000 97601 -6.8032e+000 -1.6707e+001  1.6832e+001 37356 97376,97480,97454
 3.8000e+000 97578 -2.3619e+001 -4.6679e+001  1.0716e+001 37356 97324,97376,97350
 3.8000e+000 97555  2.0998e+000 -2.1563e+001  3.5118e-001 37356 97376,97454,97402
 3.8000e+000 97532  1.2995e+000 -1.3269e+001  1.1751e+000 37356 97402,97454,97428
 3.8000e+000 98232  1.6784e+000  3.8329e+000  8.5803e-001 36902 97935,98065,98013
 3.8000e+000 98209  2.7572e+001  1.8339e+001  6.6574e+000 36902 97935,98091,98065
 3.8000e+000 98186  1.4160e+001 -2.6219e+000  7.7544e+000 36902 97935,98013,97987
 3.8000e+000 98163  1.6514e+001  5.3900e+001  2.7828e+000 36902 97909,98091,97935
 3.8000e+000 98140  1.7207e+001  2.3721e+000  6.4152e+000 36902 97935,97987,97961
 3.8000e+000 98117  1.3393e+001  1.4830e+001  1.9764e+001 36902 98013,98065,98039
 3.8000e+000 98659  1.0729e+001 -7.2070e+001 -1.1970e+001 36604 98682,98414,98388
 3.8000e+000 98636  1.8964e+000 -6.9546e+001  1.6541e+001 36604 98682,98388,98336
 3.8000e+000 98613  1.3361e+001 -5.6695e+001  9.2630e+000 36604 98754,98518,98466
 3.8000e+000 98590  1.3952e+001  2.1255e+001 -9.4559e+000 36604 98414,98466,98440
 3.8000e+000 98567 -6.3699e+000 -8.1992e+001  1.2803e+001 36604 98336,98388,98362
 3.8000e+000 98544  1.0205e+001 -8.8215e+001  3.1475e+001 36604 98466,98518,98492
 3.8000e+000 98708  2.2284e+001 -3.6861e+001 -2.0184e+001 36604 98466,98414,98682
 3.8000e+000 98731  1.3634e+001 -5.1205e+001  8.6189e+000 36604 98754,98466,98682
 3.8000e+000 98780  1.4904e+001 -6.0108e+001  8.6949e+000 36604 98336,98518,98754
 3.8000e+000 98803  1.3208e+001 -5.7153e+001  7.4270e+000 36604 98336,98754,98682
 3.8000e+000 99309 -2.7261e+001  1.1016e+001  6.0024e-001 36200 99332,99116,99012
 3.8000e+000 99286  1.2109e+000  2.0281e+001 -2.8673e+000 36200 99332,99012,98986
 3.8000e+000 99263 -1.3214e+001 -1.2703e+001 -1.6877e+001 36200 99012,99116,99064
 3.8000e+000 99240  3.2191e+001  6.7654e+000  1.4706e+001 36200 98986,99168,99142
 3.8000e+000 99217 -8.1122e+000 -5.3345e+001  4.4096e+000 36200 99064,99116,99090
 3.8000e+000 99194 -7.3410e+000  1.3659e+001 -1.7809e+001 36200 99012,99064,99038
 3.8000e+000 99358 -1.9415e+001 -5.5998e+000  2.6594e+001 36200 99142,99116,99332
 3.8000e+000 99381  2.0572e+001  1.0344e+001  2.3449e+001 36200 99142,99332,98986
 3.8000e+000 99887  3.4800e+001 -4.4313e+001  4.2945e+000 35488 99564,99720,99590
 3.8000e+000 99864  5.2711e+001 -3.5032e-001 -2.2061e+000 35488 99564,99746,99720
 3.8000e+000 99841  2.7553e+001 -7.5756e+000 -2.6157e+001 35488 99642,99694,99668
 3.8000e+000 99818  3.6655e+000 -3.7039e+001  7.9416e+000 35488 99590,99694,99642
 3.8000e+000 99795  3.8234e+001 -2.4705e+001 -9.2841e+000 35488 99590,99720,99694
 3.8000e+000 99772  3.2724e+001 -1.0718e+002  9.1236e+000 35488 99590,99642,99616
 3.8000e+000 99988  5.5297e-029  1.7385e-030  6.7415e-030 35198 99910,99962,99936
 3.8000e+000 100138  1.6873e+001  2.3879e+000 -2.5586e+001 34794 100233,100161,100063
 3.8000e+000 100115 -1.9374e+001 -1.4578e+001 -4.3616e+000 34794 100365,100161,100037
 3.8000e+000 100187  3.3011e+001 -1.8860e+001 -2.3240e+001 34794 100089,100063,100161
 3.8000e+000 100210  8.7353e+000 -2.8610e+001 -2.6292e+001 34794 100089,100161,100011
 3.8000e+000 100259  2.8805e+001  1.1359e+001  5.5669e+000 34794 100037,100161,100233
 3.8000e+000 100391 -5.5902e+000 -3.4346e+001  6.0229e+000 34794 100011,100161,100365
 3.8000e+000 100927  1.9287e+000 -1.9345e+001  3.1411e+000 34404 100679,100809,100783
 3.8000e+000 100904 -4.4713e+000 -1.0247e+001  4.8981e+000 34404 100653,100809,100679
 3.8000e+000 100881  2.3702e+000 -8.8446e+000 -3.1138e+000 34404 100705,100783,100731
 3.8000e+000 100858 -3.8083e+000 -1.7024e+001 -7.0206e+000 34404 100679,100783,100705
 3.8000e+000 100835 -8.4475e+000 -3.4525e+000 -2.1028e+001 34404 100731,100783,100757
 3.8000e+000 101354 -8.4741e+000 -7.6948e+001  1.5795e+001 34000 101377,101109,101057
 3.8000e+000 101331 -2.7857e+001 -8.2696e+001  1.6561e+001 34000 101449,101377,101057
 3.8000e+000 101308 -3.5449e+001 -6.4127e+001  1.6518e+001 34000 101449,101057,101031
 3.8000e+000 101285 -3.1180e+001 -5.4119e+001  5.1910e+000 34000 101031,101213,101187
 3.8000e+000 101262  9.3494e+000 -1.0564e+002 -2.0433e+001 34000 101135,101187,101161
 3.8000e+000 101239 -1.0154e+001 -4.6921e+001  8.6238e+000 34000 101057,101109,101083
 3.8000e+000 101403 -1.2323e+001 -7.3146e+001  7.8542e+000 34000 101135,101109,101377
 3.8000e+000 101426 -2.2765e+001 -7.6632e+001  3.8622e+000 34000 101135,101377,101187
 3.8000e+000 101475 -1.1100e+001 -6.0428e+001  9.0954e+000 34000 101187,101377,101449
 3.8000e+000 101498 -2.7009e+001 -5.2140e+001  1.2327e+001 34000 101187,101449,101031
 3.8000e+000 102083  5.0662e+001  1.9841e+000 -4.0137e+000 33472 102106,101812,101786
 3.8000e+000 102060  1.1634e+001 -1.5744e+001 -7.6956e-002 33472 102106,101786,101916
 3.8000e+000 102037 -3.0126e+001 -5.7634e+000 -1.6202e+001 33472 101812,101864,101838
 3.8000e+000 102014 -2.7585e+001 -1.4104e+001 -6.0835e+000 33472 101864,101916,101890
 3.8000e+000 101991  1.1347e+001 -2.2821e+001 -1.3375e+000 33472 101786,101942,101916
 3.8000e+000 101968  1.1325e+001 -1.6159e+001  4.3662e+000 33472 101760,101942,101786
 3.8000e+000 102132  2.6947e+001  3.5825e+000 -1.9568e+001 33472 101864,101812,102106
 3.8000e+000 102155  1.4589e+001 -1.7402e+000 -1.8853e+001 33472 101864,102106,101916
 3.8000e+000 102612  3.6123e+000 -7.5398e+001 -3.6521e+001 33038 102635,102468,102390
 3.8000e+000 102589 -2.2113e+001 -1.1422e+002 -5.3199e+001 33038 102635,102390,102364
 3.8000e+000 102566  1.0090e+001 -5.6313e+001 -2.9475e+001 33038 102390,102468,102442
 3.8000e+000 102543  1.8603e+000 -8.9919e+001 -2.6797e+001 33038 102338,102494,102364
 3.8000e+000 102520  7.3873e+000 -5.8735e+001 -3.1931e+001 33038 102390,102442,102416
 3.8000e+000 102661  5.1821e+000 -6.5599e+001 -1.4737e+001 33038 102494,102468,102635
 3.8000e+000 102684 -2.2867e-001 -8.7375e+001 -2.7551e+001 33038 102494,102635,102364
 3.8000e+000 103318  4.4982e+000  3.7584e+000  1.6606e+000 32402 102972,103128,103076
 3.8000e+000 103295  1.2567e+001  9.8575e-001  1.3429e+000 32402 102946,103128,102972
 3.8000e+000 103272 -5.2934e-001 -1.4785e+001  1.7034e+001 32402 103076,103128,103102
 3.8000e+000 103249  1.6994e+001  2.7837e+000  5.5132e-001 32402 102946,103154,103128
 3.8000e+000 103226  4.4408e+000 -7.4394e+000  1.2487e+001 32402 102972,103076,102998
 3.8000e+000 103203 -3.4382e+000 -1.8240e+001  6.4966e+000 32402 102998,103076,103050
 3.8000e+000 103180  1.3524e-001  7.5665e-002  1.1777e-001 32402 102998,103050,103024
 3.8000e+000 103696  1.3419e+001 -6.2655e+001 -1.3266e+001 31924 103448,103526,103500
 3.8000e+000 103673 -1.1593e+001 -7.5505e+001 -2.2184e+001 31924 103448,103578,103526
 3.8000e+000 103650 -2.1945e+001 -5.2620e+001 -4.0674e+000 31924 103448,103500,103474
 3.8000e+000 103627  3.1466e+000 -1.3008e+002 -2.2013e+001 31924 103422,103578,103448
 3.8000e+000 103604 -2.0578e+001 -1.7490e+002  1.4144e+000 31924 103526,103578,103552
 3.8000e+000 104281 -1.2936e+001 -1.1474e+001 -6.1442e+000 31520 104304,104062,104036
 3.8000e+000 104258  5.0755e+000  3.1240e+000  2.1322e-001 31520 104304,104036,103984
 3.8000e+000 104235  1.8304e+001  1.3669e+001  2.6774e+001 31520 104062,104114,104088
 3.8000e+000 104212  8.4386e+000  1.5828e+001  9.7865e+000 31520 103958,104114,103984
 3.8000e+000 104189  5.2954e+000  1.9572e+000 -1.0684e+001 31520 103984,104036,104010
 3.8000e+000 104166  1.2181e+001  6.6035e+000  8.9329e+000 31520 103958,104140,104114
 3.8000e+000 104330 -1.4095e+001  5.0716e+000  2.3223e+000 31520 104114,104062,104304
 3.8000e+000 104353 -8.7537e+000  9.5556e+000  4.2445e+000 31520 104114,104304,103984
 3.8000e+000 104704 -2.5466e+001 -2.9600e+001 -2.1262e+001 31066 104479,104583,104505
 3.8000e+000 104681  4.7944e+001 -7.1525e+000 -2.4846e+001 31066 104479,104609,104583
 3.8000e+000 104658 -6.1234e+000 -4.8154e+000 -5.4345e+000 31066 104505,104557,104531
 3.8000e+000 104635  9.8653e+000 -3.6552e+000 -9.7699e+000 31066 104505,104583,104557
 3.8000e+000 104925  2.3533e+001 -5.1204e+000 -1.2136e+001 30754 104775,104827,104801
 3.8000e+000 104902  1.8102e+001  7.1273e+000 -9.8251e+000 30754 104775,104853,104827
 3.8000e+000 104879  9.8677e-001  4.0589e-002 -6.6076e+000 30754 104749,104853,104775
 3.8000e+000 105482 -7.1025e+000 -2.0163e+001  4.1560e+000 30164 105505,105136,105110
 3.8000e+000 105459 -3.3140e+000 -2.2974e+001  5.0108e+000 30164 105649,105505,105110
 3.8000e+000 105436 -1.0291e+001 -2.7413e+001  1.1769e+001 30164 105577,105188,105136
 3.8000e+000 105413 -5.8657e+000 -2.4105e+001  5.2143e+000 30164 105649,105110,105318
 3.8000e+000 105390  1.8788e+000 -7.4397e+001  3.7217e+001 30164 105214,105292,105240
 3.8000e+000 105367 -2.0931e+001 -1.0440e+002  5.4131e+001 30164 105240,105292,105266
 3.8000e+000 105344 -9.3685e+000 -3.8951e+001  1.5099e+001 30164 105136,105188,105162
 3.8000e+000 105531 -1.4142e+000 -2.4874e+001  2.7971e+000 30164 105577,105136,105505
 3.8000e+000 105554  2.7498e+001 -2.4422e+001  5.6877e+000 30164 105214,105505,105292
 3.8000e+000 105603 -1.0732e+001 -3.9344e+001  2.0258e+001 30164 105214,105188,105577
 3.8000e+000 105626 -6.1386e+000 -3.9288e+001  1.1759e+001 30164 105214,105577,105505
 3.8000e+000 105675 -3.2907e+000 -2.3495e+001  2.6742e+000 30164 105292,105505,105649
 3.8000e+000 105698 -3.6790e+000 -2.3573e+001  2.8497e+000 30164 105292,105649,105318
 3.8000e+000 106027  1.5937e+001 -1.3865e+000  3.6532e+000 29868 106322,106050,105880
 3.8000e+000 106004  9.4692e+000  3.8834e+000  6.9862e+000 29868 106250,106050,105828
 3.8000e+000 105981  7.0543e+000  2.3493e+000  5.8800e+000 29868 106250,105828,105802
 3.8000e+000 105958  1.4492e+001 -6.6346e+000  3.6784e+000 29868 106322,105880,106122
 3.8000e+000 106076  1.8655e+001  1.9838e+001 -6.2291e+000 29868 105906,105880,106050
 3.8000e+000 106099  2.0901e+000  3.8812e+000  2.7029e-001 29868 105906,106050,105932
 3.8000e+000 106148  3.4574e+000 -1.3865e+001  7.8725e-001 29868 105854,105828,106122
 3.8000e+000 106276  7.9153e+000  3.4984e+000  1.5199e+000 29868 105932,106050,106250
 3.8000e+000 106299  5.7704e-001 -4.8324e-001 -5.9350e-002 29868 105932,106250,105802
 3.8000e+000 106348  1.3285e+001  4.4055e+000  6.8875e+000 29868 105828,106050,106322
 3.8000e+000 106371  1.2302e+001  6.7000e-002  6.6203e+000 29868 105828,106322,106122
 3.8000e+000 106828  4.5673e+001  1.6552e+001  7.5235e+000 29521 106580,106710,106684
 3.8000e+000 106805  2.3819e+001 -9.3225e+000 -6.3626e+000 29521 106554,106710,106580
 3.8000e+000 106782  1.6923e+001  2.2157e+000  8.4661e-001 29521 106580,106684,106606
 3.8000e+000 106759  2.5523e+001  1.1963e+001  9.3119e+000 29521 106606,106684,106658
 3.8000e+000 106736  6.4611e+000  2.2925e+001  1.2636e+001 29521 106606,106658,106632
 3.8000e+000 107027 -3.7817e+001 -4.2910e+001 -2.7567e+001 29117 106877,106929,106903
 3.8000e+000 107004 -1.8752e+001 -3.4641e+001 -2.4781e+001 29117 106851,106929,106877
 3.8000e+000 106981  3.6017e+001 -8.7237e+001 -3.2264e+001 29117 106851,106955,106929
 3.8000e+000 107456 -4.7652e+001 -1.3057e+002 -2.4117e+001 28656 107237,107315,107263
 3.8000e+000 107433  4.0333e+000 -6.7747e+001 -1.6283e+000 28656 107133,107315,107237
 3.8000e+000 107410  2.2625e+001 -6.9325e+001 -2.0961e+001 28656 107133,107237,107159
 3.8000e+000 107387  2.2564e+001 -3.7220e+001 -2.8122e+001 28656 107159,107237,107185
 3.8000e+000 107364  4.0757e+001 -1.1300e+001  2.2846e+001 28656 107185,107237,107211
 3.8000e+000 107341  1.0129e+001 -4.1890e+000 -2.6999e+000 28656 107263,107315,107289
 3.8000e+000 107704  2.4475e+001  2.9344e+000  1.3545e+001 27902 107727,107557,107531
 3.8000e+000 107681  3.3946e+000  1.3767e+001 -1.6839e+000 27902 107727,107531,107505
 3.8000e+000 107658  4.5362e+001  6.0555e+000  1.4179e+001 27902 107557,107609,107583
 3.8000e+000 107635 -1.3618e+000  1.4526e+001  5.4359e+000 27902 107479,107609,107505
 3.8000e+000 107753  4.7657e+001  7.4440e+000  1.2240e+001 27902 107609,107557,107727
 3.8000e+000 107776  2.6082e+001  1.8434e+001 -1.9022e+000 27902 107609,107727,107505
 3.8000e+000 108333 -1.4470e+001 -1.0344e+002  1.9331e+000 27341 108356,108065,108013
 3.8000e+000 108310 -8.6830e+000 -9.4968e+001 -2.3893e+001 27341 108356,108013,108143
 3.8000e+000 108287 -3.7078e+001 -1.2528e+002 -1.7019e+001 27341 108428,108117,108091
 3.8000e+000 108264  3.5762e+000 -8.5103e+001 -5.4215e+000 27341 108013,108065,108039
 3.8000e+000 108241 -1.4221e+001 -1.0525e+002 -2.7304e+001 27341 107987,108143,108013
 3.8000e+000 108218 -1.1414e+001 -1.0221e+002 -5.3234e+001 27341 107987,108169,108143
 3.8000e+000 108195 -1.1124e+001 -9.5285e+001 -5.1735e+001 27341 107961,108169,107987
 3.8000e+000 108382 -1.2277e+001 -8.7048e+001 -1.4033e+001 27341 108091,108065,108356
 3.8000e+000 108405 -4.3079e+001 -9.6036e+001 -1.1749e+001 27341 108428,108091,108356
 3.8000e+000 108454 -4.0470e+001 -2.0178e+002 -2.6810e+001 27341 108143,108117,108428
 3.8000e+000 108477 -3.3466e+001 -1.5274e+002 -2.4836e+001 27341 108143,108428,108356
 3.8000e+000 108725  1.9875e+001 -1.5402e+001  1.2536e+001 27029 108748,108526,108500
 3.8000e+000 108702  8.6136e+000 -1.9557e+001  1.7930e+001 27029 108748,108500,108630
 3.8000e+000 108679 -8.4855e+000 -1.9789e+001  1.3753e+001 27029 108578,108630,108604
 3.8000e+000 108656 -3.1080e+000 -1.1886e+001  2.1652e+000 27029 108526,108578,108552
 3.8000e+000 108774  1.0380e+001 -3.9307e+000  6.2496e+000 27029 108578,108526,108748
 3.8000e+000 108797 -3.0557e+000 -9.1956e+000  1.0673e+001 27029 108578,108748,108630
 3.8000e+000 109045 -1.9554e+000  4.2946e+000  4.7254e+000 26610 108872,108924,108898
 3.8000e+000 109022  5.1668e+000 -7.1930e+001 -2.8256e+001 26610 108872,108950,108924
 3.8000e+000 108999  1.7646e+001 -7.2241e+001 -6.9089e+000 26610 108846,108950,108872
 3.8000e+000 108976 -2.1527e+000 -1.3995e+002 -2.2676e+001 26610 108820,108950,108846
 3.8000e+000 109366  1.2205e+001 -1.2056e+002 -1.4195e+001 26006 109144,109222,109196
 3.8000e+000 109343 -8.7391e+000 -1.2451e+002 -1.7169e+001 26006 109118,109222,109144
 3.8000e+000 109320  2.7905e+001 -1.2279e+002 -8.8544e-001 26006 109092,109222,109118
 3.8000e+000 109297 -1.1174e-001 -1.2677e+002 -4.0747e+000 26006 109144,109196,109170
 3.8000e+000 109274  2.5725e+001 -4.2492e+000  1.3218e+001 26006 109092,109248,109222
 3.8000e+000 109567 -1.0242e+001  1.2658e+001 -4.0111e+001 25659 109391,109469,109443
 3.8000e+000 109544  1.3014e+001  1.2913e+000  1.3978e+001 25659 109391,109495,109469
 3.8000e+000 109521 -4.1720e+001  9.6986e-001 -1.6053e+001 25659 109391,109443,109417
 3.8000e+000 109900  1.7544e+001  1.3670e+001 -8.5241e+000 25255 109923,109779,109753
 3.8000e+000 109877  1.7799e+001  1.5655e+001 -6.2104e+000 25255 109923,109753,109701
 3.8000e+000 109854  6.1243e-002  1.0417e+001 -1.2517e+001 25255 109675,109805,109701
 3.8000e+000 109831  1.7881e+001  1.9019e+001 -7.5443e+000 25255 109701,109753,109727
 3.8000e+000 109949  1.4974e+001  1.0429e+001 -1.0425e+001 25255 109805,109779,109923
 3.8000e+000 109972  1.6674e+001  1.4051e+001 -7.8896e+000 25255 109805,109923,109701
 3.8000e+000 110220  2.5934e+000  8.8930e+000  5.3306e+000 24701 110243,110021,109995
 3.8000e+000 110197  6.8482e-001  2.3029e+000  1.0850e+000 24701 110243,109995,110099
 3.8000e+000 110174  5.7875e-003  1.9395e+001  7.2113e+000 24701 110315,110073,110047
 3.8000e+000 110151  2.6170e-001  1.8124e+000  1.2663e+000 24701 109995,110125,110099
 3.8000e+000 110269  1.5162e+000  5.8708e+000  2.6404e+000 24701 110047,110021,110243
 3.8000e+000 110292  1.2820e+000  1.6509e+001  4.0868e+000 24701 110315,110047,110243
 3.8000e+000 110341  1.0024e+001  1.1954e+001  1.4031e+001 24701 110099,110073,110315
 3.8000e+000 110364  6.2558e+000  4.7099e+000  8.3496e+000 24701 110099,110315,110243
 3.8000e+000 110661 -1.7952e+001 -1.3495e+002  3.2434e+001 24197 110684,110413,110387
 3.8000e+000 110638  1.1161e+001 -7.8523e+001  1.7963e+001 24197 110684,110387,110543
 3.8000e+000 110615  2.0908e+001 -1.7553e+002  2.3388e+001 24197 110756,110491,110465
 3.8000e+000 110592 -2.4344e+001 -1.0544e+002  3.1286e+001 24197 110413,110465,110439
 3.8000e+000 110569  1.9715e+000 -2.2180e+002 -1.4319e+001 24197 110491,110543,110517
 3.8000e+000 110710  2.1176e+001 -1.1902e+002  3.0576e+001 24197 110465,110413,110684
 3.8000e+000 110733  3.9075e+000 -1.5239e+002  1.9548e+001 24197 110756,110465,110684
 3.8000e+000 110782  2.3898e+001 -1.4880e+002  1.8829e+000 24197 110543,110491,110756
 3.8000e+000 110805  1.7195e+001 -1.1317e+002 -2.4976e+000 24197 110543,110756,110684
 3.8000e+000 111315  2.2444e+001 -5.6945e+001  1.6790e-001 23593 111044,111148,111070
 3.8000e+000 111292 -7.1686e+000 -1.5366e+001  1.9712e+001 23593 111044,111174,111148
 3.8000e+000 111269  6.6523e+001 -1.0044e+001 -6.1063e+000 23593 111070,111122,111096
 3.8000e+000 111246  2.1148e+001 -3.0719e+001 -1.7181e+001 23593 111070,111148,111122
 3.8000e+000 111223 -1.0213e+001  2.1902e+000  9.9687e+000 23593 111018,111174,111044
 3.8000e+000 111200 -6.1417e+000  3.7433e+000  1.1207e+001 23593 110992,111174,111018
 3.8000e+000 111821  8.0957e+000 -1.0268e+002 -1.8341e+000 23089 111916,111844,111628
 3.8000e+000 111798 -1.6446e+001 -1.1974e+002 -2.6087e+001 23089 111844,111550,111524
 3.8000e+000 111775  2.1319e+000 -8.0595e+001 -1.3534e+000 23089 111916,111628,111602
 3.8000e+000 111752  3.8561e+001 -1.6718e+002 -6.1081e+000 23089 111498,111680,111524
 3.8000e+000 111729 -1.2436e+000 -5.0033e+001  6.9574e+000 23089 111550,111602,111576
 3.8000e+000 111706 -2.6183e+000 -5.0749e+001 -1.3018e+001 23089 111628,111680,111654
 3.8000e+000 111870  9.7768e+000 -9.2262e+001  6.6491e+000 23089 111680,111628,111844
 3.8000e+000 111893  6.0719e+000 -1.0164e+002 -7.8579e-001 23089 111680,111844,111524
 3.8000e+000 111942  1.2479e+001 -7.2774e+001 -1.1819e+001 23089 111550,111844,111916
 3.8000e+000 111965  2.0542e+000 -5.4915e+001 -8.6469e+000 23089 111550,111916,111602
 3.8000e+000 112164 -2.1370e+001 -1.2809e+001 -1.3514e+001 22626 112187,112014,111988
 3.8000e+000 112141  7.3821e+000 -3.4907e+001 -1.8418e+001 22626 112259,112187,111988
 3.8000e+000 112118  6.2264e+000 -3.5869e+001 -1.7589e+001 22626 112259,111988,112092
 3.8000e+000 112213  7.2525e+000  2.9625e+001  8.3834e-001 22626 112040,112014,112187
 3.8000e+000 112236  8.7697e-001 -2.9531e+001 -1.4316e+001 22626 112040,112187,112066
 3.8000e+000 112285  6.6877e+000 -3.3370e+001 -1.9654e+001 22626 112066,112187,112259
 3.8000e+000 112308  6.2542e+000 -3.3938e+001 -1.8951e+001 22626 112066,112259,112092
 3.8000e+000 112605  1.1779e+000 -8.0437e+001  2.1243e+001 22286 112628,112383,112357
 3.8000e+000 112582  1.1782e+001 -8.1882e+001  2.8342e+001 22286 112772,112628,112357
 3.8000e+000 112559 -5.1015e+000 -1.2028e+002  5.3029e+001 22286 112700,112435,112409
 3.8000e+000 112536 -3.0589e+001 -8.4965e+001  3.8559e+001 22286 112772,112357,112331
 3.8000e+000 112513 -1.7580e+001 -9.9878e+001  4.4144e+001 22286 112435,112487,112461
 3.8000e+000 112654  2.0271e+001 -3.3232e+001  2.5241e+001 22286 112409,112383,112628
 3.8000e+000 112677  1.4348e+001 -8.9269e+001  4.0018e+001 22286 112700,112409,112628
 3.8000e+000 112726  1.7969e+001 -9.4991e+001  3.0106e+001 22286 112487,112435,112700
 3.8000e+000 112749  2.4531e+001 -9.0503e+001  1.9906e+001 22286 112487,112700,112628
 3.8000e+000 112798  3.0028e+001 -7.2223e+001  2.0583e+001 22286 112487,112628,112772
 3.8000e+000 112821  1.6839e+001 -5.7594e+001  2.7254e+001 22286 112487,112772,112331
 3.8000e+000 112924 -7.9455e-002  9.6571e-001  2.6762e+000 21974 112846,112898,112872
 3.8000e+000 113223 -6.6215e+000 -1.4630e+002  1.3821e+001 21420 112949,113053,112975
 3.8000e+000 113200  7.3662e+000 -1.2521e+002  7.6916e+000 21420 112949,113079,113053
 3.8000e+000 113177  1.2043e+002 -1.1785e+002  5.8112e+001 21420 112975,113053,113001
 3.8000e+000 113154 -5.8651e+001 -2.1738e+002  1.8648e+001 21420 113001,113053,113027
 3.8000e+000 113131 -1.5149e+001 -6.9296e+001 -3.3172e+001 21420 112949,113105,113079
 3.8000e+000 113605 -2.3093e+001 -1.3524e+002  4.5276e+001 20716 113331,113435,113357
 3.8000e+000 113582 -1.1189e+001 -8.0663e+001  4.0681e+001 20716 113331,113461,113435
 3.8000e+000 113559 -7.4776e-001 -1.3852e+002 -2.3158e+001 20716 113383,113435,113409
 3.8000e+000 113536 -4.3635e+001 -1.0949e+002 -1.3574e+001 20716 113357,113435,113383
 3.8000e+000 113513 -9.0532e+000 -4.0264e+001  7.6055e+000 20716 113331,113487,113461
 3.8000e+000 113853 -9.1706e+000 -1.5252e+002  2.3387e+000 20290 113876,113680,113654
 3.8000e+000 113830  1.5953e+001 -1.6162e+002 -3.9481e+000 20290 113876,113654,113628
 3.8000e+000 113807 -2.3833e+001 -1.8033e+002 -1.5074e+001 20290 113948,113732,113680
 3.8000e+000 113784  7.4291e+001 -1.5648e+002 -2.5837e+001 20290 113680,113732,113706
 3.8000e+000 113902 -7.8684e+000 -1.5954e+002  4.2792e-001 20290 113948,113680,113876
 3.8000e+000 113925 -1.3089e+001 -1.6312e+002  9.0953e-001 20290 113758,113876,113628
 3.8000e+000 113974 -4.2214e+001 -1.6128e+002 -2.1358e+001 20290 113758,113732,113948
 3.8000e+000 113997 -4.0849e+001 -1.6003e+002 -9.4012e+000 20290 113758,113948,113876
 3.8000e+000 114365 -1.0195e+001 -1.0560e+002  3.4716e-001 19900 114146,114198,114172
 3.8000e+000 114342 -1.5057e+001 -1.0766e+002  4.3663e-001 19900 114042,114198,114146
 3.8000e+000 114319 -7.2973e+000 -1.0139e+002 -3.6355e+000 19900 114042,114224,114198
 3.8000e+000 114296 -3.9856e+001 -1.0229e+002 -2.3615e+000 19900 114094,114146,114120
 3.8000e+000 114273 -1.6791e+001 -1.0109e+002 -5.7873e+000 19900 114042,114146,114094
 3.8000e+000 114250 -3.4012e+001 -1.0393e+002 -1.1760e+000 19900 114042,114094,114068
 3.8000e+000 114566 -1.0190e+001 -1.0771e+002  3.6030e+000 19496 114442,114494,114468
 3.8000e+000 114543  5.4513e+001 -5.0734e+001  3.2821e+001 19496 114416,114494,114442
 3.8000e+000 114520 -1.5231e+001 -8.4830e+001  2.0948e+001 19496 114390,114494,114416
 3.8000e+000 114767  1.1345e+001 -1.0500e+002  3.7487e+000 19042 114790,114669,114643
 3.8000e+000 114744  9.6019e+000 -1.0289e+002  4.6744e+000 19042 114790,114643,114591
 3.8000e+000 114721  1.8054e+001 -1.0102e+002  1.4590e+001 19042 114591,114643,114617
 3.8000e+000 114816  1.0753e+001 -1.0296e+002  2.9515e+000 19042 114695,114669,114790
 3.8000e+000 114839  1.0248e+001 -9.9281e+001  4.0504e+000 19042 114695,114790,114591
 3.8000e+000 114991 -4.1773e+001 -1.1484e+002 -1.0632e+000 18488 114864,114916,114890
 3.8000e+000 114968 -3.1984e+001 -1.1659e+002 -3.7892e+000 18488 114864,114942,114916
 3.8000e+000 115192  1.0426e+002 -5.7675e+001  1.4711e+001 18098 115215,115042,115016
 3.8000e+000 115169  6.3838e+001 -2.6565e+001 -5.4946e+000 18098 115215,115016,115120
 3.8000e+000 115146  7.0098e+001 -5.8743e+001 -1.5276e+001 18098 115287,115094,115068
 3.8000e+000 115241  7.3284e+001 -1.1700e+002  6.6595e-001 18098 115068,115042,115215
 3.8000e+000 115264  7.1119e+001 -5.0089e+001 -2.2463e+000 18098 115287,115068,115215
 3.8000e+000 115313  5.3751e+001 -6.8344e+001 -2.1050e+001 18098 115120,115094,115287
 3.8000e+000 115336  4.8419e+001 -6.2912e+001 -8.8127e+000 18098 115120,115287,115215
 3.8000e+000 115846  8.8777e+001 -1.9411e+002 -7.6738e+001 17644 115653,115705,115679
 3.8000e+000 115823  2.3791e+001 -1.6895e+002 -3.6824e+001 17644 115627,115705,115653
 3.8000e+000 115800  7.7175e+001 -8.8326e+001 -1.1624e+001 17644 115549,115705,115627
 3.8000e+000 115777  1.8538e+001 -1.4795e+002  1.9095e+001 17644 115549,115627,115575
 3.8000e+000 115754  3.5130e+001 -9.5721e+001  5.2390e-001 17644 115523,115705,115549
 3.8000e+000 115731 -4.3926e+001 -1.2475e+002 -1.0246e+001 17644 115575,115627,115601
 3.8000e+000 116067 -5.6736e+001 -2.9224e+002 -1.0353e+001 17116 115891,115943,115917
 3.8000e+000 116044 -9.9267e+001 -3.2669e+002  4.8694e+000 17116 115891,115995,115943
 3.8000e+000 116021 -9.7492e+001 -2.8836e+002  2.8756e+000 17116 115943,115995,115969
 3.8000e+000 116288 -2.0107e+001 -2.2063e+002  3.0333e+001 16704 116164,116216,116190
 3.8000e+000 116265 -4.9366e+001 -2.6698e+002  1.7751e+001 16704 116112,116216,116164
 3.8000e+000 116242 -9.5670e+001 -2.5926e+002 -7.3258e+000 16704 116112,116164,116138
 3.8000e+000 116489 -1.4122e+001 -1.1562e+002 -5.2214e+000 16434 116339,116417,116365
 3.8000e+000 116466 -2.5308e+001 -1.1783e+002 -6.1406e-001 16434 116313,116417,116339
 3.8000e+000 116443 -6.7457e+001 -1.5317e+002  3.0641e+001 16434 116365,116417,116391
 3.8000e+000 116592  1.5633e+001 -1.7425e+002  1.7134e+000 15967 116514,116566,116540
 3.8000e+000 116695 -1.7276e+001 -2.6416e+002 -3.3509e+001 15552 116617,116669,116643
 3.8000e+000 116798 -8.9106e+000 -9.9385e+001  0.0000e+000 421 116720,116772,116746
 3.9000e+000 69066  2.4694e+000 -2.5584e+002 -2.5042e+000 68738 68965,69017,68991
 3.9000e+000 69043  3.7704e+001 -1.9860e+002  5.1779e+002 68738 68939,69017,68965
 3.9000e+000 69371 -1.2967e+001 -4.1166e+001 -1.5556e+001 68426 69172,69250,69198
 3.9000e+000 69348  7.3509e-001 -8.3984e+001  8.5467e+000 68426 69146,69250,69172
 3.9000e+000 69325 -3.5781e+000 -1.2229e+001  4.8210e+000 68426 69198,69250,69224
 3.9000e+000 69302 -1.7780e+001 -8.7180e+001  4.5967e+000 68426 69146,69276,69250
 3.9000e+000 69521  1.1934e+001 -1.6876e+001 -5.7079e+000 68228 69420,69472,69446
 3.9000e+000 69498 -5.3763e+000 -4.0449e+000 -2.1350e+001 68228 69394,69472,69420
 3.9000e+000 69781 -9.2344e+000  1.7147e+001  7.6378e+000 68030 69631,69683,69657
 3.9000e+000 69758  4.1555e+000 -2.0733e+001 -8.1601e+000 68030 69631,69709,69683
 3.9000e+000 69735 -8.2686e-001  1.2544e+001  1.9320e+001 68030 69605,69709,69631
 3.9000e+000 70078  5.8097e-001  2.3398e+001 -3.7546e+000 67832 69882,69934,69908
 3.9000e+000 70055 -4.8652e+000 -4.9317e-001  9.3147e+000 67832 69856,69934,69882
 3.9000e+000 70032  3.0876e-001 -1.1673e+001 -2.4798e+000 67832 69830,69934,69856
 3.9000e+000 70009  2.4222e+000 -6.9083e+000 -9.2488e+000 67832 69804,69934,69830
 3.9000e+000 69986 -1.0351e+001  3.2321e+001  1.0193e+001 67832 69804,69960,69934
 3.9000e+000 70586 -3.1468e+000 -3.2151e+001  1.1547e+001 67634 70609,70419,70341
 3.9000e+000 70563 -1.8796e+000 -5.3611e+001  1.9045e+001 67634 70681,70609,70341
 3.9000e+000 70540 -8.6392e+000 -5.5767e+001  1.6691e+001 67634 70681,70341,70315
 3.9000e+000 70517 -8.8069e+000 -2.5301e+001  2.3236e+001 67634 70341,70419,70367
 3.9000e+000 70494 -1.3570e+001  2.2380e+001 -6.5085e+000 67634 70263,70445,70289
 3.9000e+000 70471  1.2201e+001 -1.3567e+000  1.4261e+001 67634 70367,70419,70393
 3.9000e+000 70635 -3.6404e-001  2.1343e+001  6.9141e+000 67634 70445,70419,70609
 3.9000e+000 70658 -1.2997e+001 -3.7301e+001  1.4267e+001 67634 70445,70609,70289
 3.9000e+000 70707 -4.1882e+000 -5.0578e+001  4.3947e+000 67634 70289,70609,70681
 3.9000e+000 70730 -2.0980e+001 -5.6526e+001  3.1756e+000 67634 70289,70681,70315
 3.9000e+000 71108  2.2561e+001  4.3613e+001 -4.4140e+000 67344 71131,70912,70886
 3.9000e+000 71085 -2.5324e+000 -2.0662e+001  8.7274e+000 67344 71131,70886,70860
 3.9000e+000 71062 -5.1826e+000 -2.0932e+001  1.5100e+001 67344 71203,70938,70912
 3.9000e+000 71039  1.5818e+001 -1.6920e+001  1.5868e+001 67344 70834,70990,70860
 3.9000e+000 71016  2.8718e+000 -4.0910e+001 -5.1822e-001 67344 70938,70990,70964
 3.9000e+000 71157 -3.7518e+000 -7.2996e+000  1.6504e+001 67344 71203,70912,71131
 3.9000e+000 71180  1.0418e+001 -1.8104e+001  1.5288e+001 67344 70990,71131,70860
 3.9000e+000 71229  2.0002e+000 -4.7624e+001  9.2333e+000 67344 70990,70938,71203
 3.9000e+000 71252  6.5238e+000 -2.8211e+001  7.1112e+000 67344 70990,71203,71131
 3.9000e+000 71603  6.8655e+000 -4.4857e+001  1.1248e+001 67032 71378,71482,71404
 3.9000e+000 71580 -4.2045e+000 -3.5109e+001  1.1607e+001 67032 71378,71508,71482
 3.9000e+000 71557  8.7341e-002 -2.3008e+001  2.1253e+001 67032 71404,71456,71430
 3.9000e+000 71534  5.4738e-002 -6.5029e+001  6.5489e+000 67032 71404,71482,71456
 3.9000e+000 72003  1.7874e+001 -4.9541e-001  1.1270e+001 66834 71755,71859,71781
 3.9000e+000 71980  8.0333e+000 -8.0437e+001 -9.8888e-001 66834 71755,71885,71859
 3.9000e+000 71957  1.0582e+000 -1.9579e+000 -3.1731e+000 66834 71781,71833,71807
 3.9000e+000 71934 -7.6435e+000 -8.2815e+001 -1.2383e+001 66834 71781,71859,71833
 3.9000e+000 71911  3.5791e+001 -5.4463e+000  2.1351e+001 66834 71729,71885,71755
 3.9000e+000 72430  1.9386e+001 -1.6400e+001 -3.0526e+000 66266 72237,72289,72263
 3.9000e+000 72407  1.2339e+001 -3.5092e+001  2.7122e+000 66266 72133,72289,72237
 3.9000e+000 72384 -1.2134e-001 -8.0628e+000 -3.2825e+000 66266 72133,72237,72211
 3.9000e+000 72361 -1.0970e+001 -5.4751e+001 -7.6457e+000 66266 72107,72289,72133
 3.9000e+000 72338 -1.0232e+001 -3.6966e+001  2.1923e+001 66266 72133,72211,72185
 3.9000e+000 72315 -5.4251e+000 -5.9602e+001  1.7287e+001 66266 72133,72185,72159
 3.9000e+000 72580  8.1982e-001 -1.5063e+001 -5.2030e-001 65968 72479,72531,72505
 3.9000e+000 72557  2.2402e+000  3.8358e+000 -6.7085e-002 65968 72453,72531,72479
 3.9000e+000 72960  1.1675e+001  5.6327e+001 -5.6631e-001 65621 72983,72738,72712
 3.9000e+000 72937  4.1763e+001  6.7366e-001 -3.3625e+000 65621 72983,72712,72686
 3.9000e+000 72914  1.5775e+001 -4.3728e+001 -6.2931e+000 65621 72738,72842,72764
 3.9000e+000 72891 -5.8573e+000 -5.5824e+001 -4.8573e-001 65621 72764,72842,72816
 3.9000e+000 72868 -2.8707e+001 -1.1345e+002  1.4233e+001 65621 72764,72816,72790
 3.9000e+000 73009  2.5634e+001  1.1250e+001  7.6886e+000 65621 72842,72738,72983
 3.9000e+000 73032  1.8665e+001 -9.3014e+001  9.6090e+000 65621 72842,72983,72686
 3.9000e+000 73361  1.0161e+001 -1.7065e+002 -1.0555e+000 65281 73456,73384,73188
 3.9000e+000 73338 -7.7783e+000 -1.3855e+002  2.1803e+001 65281 73384,73162,73136
 3.9000e+000 73315 -4.4862e+000 -5.1173e+001  1.1751e+001 65281 73188,73240,73214
 3.9000e+000 73292  1.4299e+001 -2.9483e-001 -1.4001e+001 65281 73136,73266,73240
 3.9000e+000 73410 -2.7040e+001 -1.5137e+002 -6.3111e+000 65281 73240,73188,73384
 3.9000e+000 73433 -1.4273e+001 -2.0935e+001  6.1622e+000 65281 73240,73384,73136
 3.9000e+000 73482 -2.0805e+000 -2.2502e+002 -1.9703e+001 65281 73162,73384,73456
 3.9000e+000 73711 -2.6807e+000  8.8662e+000 -1.7710e+001 64820 73734,73610,73584
 3.9000e+000 73688 -7.5168e+000 -2.6901e+000 -1.6982e+001 64820 73734,73584,73662
 3.9000e+000 73760  2.4442e+001  2.3903e+001  1.4126e+001 64820 73636,73610,73734
 3.9000e+000 73783 -3.3577e+001 -2.5261e+000 -6.8661e+000 64820 73806,73734,73662
 3.9000e+000 73832 -5.1371e+000 -2.4266e+001 -1.2734e+000 64820 73636,73734,73806
 3.9000e+000 74112  1.0432e+001  6.6086e+000 -1.0350e+001 64622 74278,74135,73988
 3.9000e+000 74089 -1.9772e+000 -8.7991e+000  2.3450e+000 64622 74135,73936,74040
 3.9000e+000 74066  1.2495e+001  7.6837e+000 -1.9825e+001 64622 74278,73988,73962
 3.9000e+000 74161 -6.0565e+000 -3.7408e+000 -5.9278e+000 64622 74014,73988,74135
 3.9000e+000 74184  3.6429e-001 -4.8190e+000  2.5618e-001 64622 74207,74135,74040
 3.9000e+000 74233  3.2895e+000  8.6581e-002 -4.5143e+000 64622 74014,74135,74207
 3.9000e+000 74304  2.2214e+000 -1.3112e+001 -5.2219e-001 64622 73936,74135,74278
 3.9000e+000 74327  1.1550e+001 -6.3027e+000 -1.1036e+001 64622 73936,74278,73962
 3.9000e+000 74526  1.0437e+001  1.4210e+001 -7.8939e-001 64424 74621,74549,74402
 3.9000e+000 74503 -1.0669e+001 -3.3856e+000  8.8614e+000 64424 74549,74350,74454
 3.9000e+000 74480  1.7380e+001  1.9597e+001 -5.5760e+000 64424 74621,74402,74376
 3.9000e+000 74575  8.6016e+000 -2.9513e+000  4.8701e+000 64424 74428,74402,74549
 3.9000e+000 74598  4.5558e+000 -5.0257e+000  8.5687e+000 64424 74693,74549,74454
 3.9000e+000 74647  3.1739e+000  6.2104e+000  1.3045e+001 64424 74350,74549,74621
 3.9000e+000 74670  1.3004e+001  1.1716e+001  8.1899e+000 64424 74350,74621,74376
 3.9000e+000 74719  2.0533e+000 -1.7762e+001  1.1131e-001 64424 74428,74549,74693
 3.9000e+000 75123 -4.2593e+000 -1.3538e+002  3.2934e+001 64126 74875,74953,74927
 3.9000e+000 75100  1.8437e-001 -1.5455e+002  1.6389e+001 64126 74875,74979,74953
 3.9000e+000 75077 -1.5690e+000 -6.7288e+001 -1.1793e+001 64126 74875,75005,74979
 3.9000e+000 75054  1.1230e+001 -1.3640e+002  4.4380e+001 64126 74875,74927,74901
 3.9000e+000 75031 -1.0285e+001 -1.7435e+001  9.7655e+000 64126 74849,75005,74875
 3.9000e+000 75224 -1.2031e+001 -8.4414e+001  1.0594e+001 63836 75146,75198,75172
 3.9000e+000 75472  1.5203e+001 -2.2881e+001  1.3073e+001 63375 75273,75351,75325
 3.9000e+000 75449 -1.3837e+001 -3.0378e+001  8.3656e+000 63375 75273,75377,75351
 3.9000e+000 75426 -3.4528e+001 -4.3746e+001  2.4028e+000 63375 75247,75377,75273
 3.9000e+000 75403  2.6939e+001 -1.2146e+001  6.4245e+000 63375 75273,75325,75299
 3.9000e+000 75673  1.4310e+001 -2.1749e+001  1.0535e+001 63063 75523,75575,75549
 3.9000e+000 75650  1.1596e+001 -5.9497e+001 -8.1899e+000 63063 75497,75575,75523
 3.9000e+000 75627  1.4100e+001 -6.7895e+001  1.2058e+001 63063 75497,75601,75575
 3.9000e+000 75874  2.0773e+001 -5.4514e+001 -3.4098e+000 62716 75897,75750,75724
 3.9000e+000 75851  1.0610e+001 -4.2734e+001 -6.1055e-001 62716 75897,75724,75698
 3.9000e+000 75828  3.1058e+000 -3.2447e+001 -1.6633e+001 62716 75698,75802,75776
 3.9000e+000 75923  3.8149e+001 -4.0697e+001 -9.4255e+000 62716 75776,75750,75897
 3.9000e+000 75946  1.6806e+001 -3.8600e+001 -2.6681e+000 62716 75776,75897,75698
 3.9000e+000 76328 -1.1377e+001 -7.0759e+001  3.0533e+000 62198 76495,76351,76158
 3.9000e+000 76305 -1.9589e+001 -7.1008e+001  4.6710e+000 62198 76351,76080,76054
 3.9000e+000 76282 -2.2237e+000 -9.2758e+001 -1.3272e-001 62198 76423,76184,76158
 3.9000e+000 76259 -1.3838e+001 -6.9953e+001  4.0422e+000 62198 76495,76158,76106
 3.9000e+000 76236 -2.3740e+001 -9.6124e+001  1.6406e+001 62198 76106,76158,76132
 3.9000e+000 76377 -1.4315e+001 -7.7330e+001 -3.6899e+000 62198 76423,76158,76351
 3.9000e+000 76400 -2.2981e+001 -6.8738e+001 -7.2229e+000 62198 76210,76351,76054
 3.9000e+000 76449  8.8552e+000 -7.9579e+001 -5.2017e+000 62198 76210,76184,76423
 3.9000e+000 76472 -3.0524e-001 -6.4454e+001 -9.0437e+000 62198 76210,76423,76351
 3.9000e+000 76521 -1.5587e+001 -6.9445e+001  4.4459e+000 62198 76080,76351,76495
 3.9000e+000 76544 -2.0913e+001 -7.1737e+001  6.3436e+000 62198 76080,76495,76106
 3.9000e+000 76841  1.0950e+001 -6.9445e+001  1.6853e+001 61751 76936,76864,76645
 3.9000e+000 76818  2.6306e+001 -7.1906e+001 -1.8979e+001 61751 76864,76567,76723
 3.9000e+000 76795  1.5756e+001 -3.3575e+001  1.7498e+001 61751 76936,76645,76593
 3.9000e+000 76772 -6.4522e+001 -1.8196e+002  3.6227e+001 61751 77008,76697,76671
 3.9000e+000 76749 -1.8917e+000 -1.4565e+001 -5.0208e+000 61751 76593,76645,76619
 3.9000e+000 76890 -2.8184e+000 -1.0264e+002  2.0672e+001 61751 76671,76645,76864
 3.9000e+000 76913 -1.7176e+001 -9.9054e+001  7.9467e+000 61751 77008,76671,76864
 3.9000e+000 76962  2.2413e+001 -1.1709e+002 -9.8322e-001 61751 76567,76864,76936
 3.9000e+000 76985  2.6103e+001 -8.5839e+001  3.6122e+000 61751 76567,76936,76593
 3.9000e+000 77034  6.4170e+000 -1.3401e+002 -2.3854e+001 61751 76723,76697,77008
 3.9000e+000 77057 -2.7287e+000 -1.3965e+002 -1.9717e+001 61751 76723,77008,76864
 3.9000e+000 77207 -1.6517e+001 -2.9705e+001  7.2156e+000 61418 77106,77158,77132
 3.9000e+000 77184  4.1434e+001 -8.5633e+001  1.9132e+001 61418 77080,77158,77106
 3.9000e+000 77638  2.6441e+001 -9.0941e+001 -1.7118e+001 60814 77733,77661,77471
 3.9000e+000 77615 -1.0343e+000 -8.4477e+001 -6.5380e+000 60814 77661,77393,77315
 3.9000e+000 77592  3.7401e+001 -7.7393e+001 -1.0972e+001 60814 77733,77471,77445
 3.9000e+000 77569 -3.6960e+001 -2.0926e+002 -2.7411e+001 60814 77315,77367,77341
 3.9000e+000 77546 -8.0705e-001 -1.3988e+002 -1.4141e+001 60814 77315,77393,77367
 3.9000e+000 77523  2.5846e+001 -2.4338e+001 -2.7566e+001 60814 77393,77445,77419
 3.9000e+000 77687 -7.9031e+000 -1.0434e+002 -2.9331e+001 60814 77497,77471,77661
 3.9000e+000 77710  1.6801e+000 -8.2142e+001 -7.7518e+000 60814 77497,77661,77315
 3.9000e+000 77759  1.2958e+000 -6.6002e+001 -7.5673e+000 60814 77393,77661,77733
 3.9000e+000 77782  1.9314e+001 -4.9785e+001  8.7621e-001 60814 77393,77733,77445
 3.9000e+000 78337  1.6924e+000 -1.0683e+001  5.5476e+000 60210 78360,78017,77965
 3.9000e+000 78314  9.5125e-001 -2.8616e+001  4.4422e+000 60210 78360,77965,78173
 3.9000e+000 78291  8.7996e+000 -8.6701e-001  9.6608e+000 60210 78432,78043,78017
 3.9000e+000 78268  4.5171e-001 -2.1857e+001  9.3966e+000 60210 77965,78017,77991
 3.9000e+000 78245  2.2423e+000  1.1729e+001  6.8988e+000 60210 78043,78095,78069
 3.9000e+000 78222 -6.3315e+000 -3.7632e+001  6.4729e+000 60210 78095,78173,78121
 3.9000e+000 78199 -1.5246e+000 -2.8713e+001 -3.7966e+000 60210 78121,78173,78147
 3.9000e+000 78386  3.2901e+000 -3.6625e+000  8.0668e+000 60210 78432,78017,78360
 3.9000e+000 78409  3.6824e+000 -1.0154e+001  4.8969e+000 60210 78095,78360,78173
 3.9000e+000 78458  5.6380e+000 -3.4558e+000  3.0068e+000 60210 78095,78043,78432
 3.9000e+000 78481  1.9911e+000 -5.7825e+000  1.4304e+000 60210 78095,78432,78360
 3.9000e+000 78680 -2.3984e+001 -3.1350e+001 -1.0360e+001 59848 78703,78556,78530
 3.9000e+000 78657 -1.8663e+001 -5.3859e+001 -3.6130e+001 59848 78703,78530,78504
 3.9000e+000 78634 -2.4551e+001 -1.2446e+002 -1.8031e+001 59848 78504,78608,78582
 3.9000e+000 78729 -2.9093e+001 -8.0934e+001 -3.7742e+000 59848 78582,78556,78703
 3.9000e+000 78752 -1.8063e+001 -8.3926e+001 -3.8430e+001 59848 78582,78703,78504
 3.9000e+000 78951  1.4331e+000  3.4839e+000 -1.6928e+000 59344 78974,78801,78775
 3.9000e+000 78928 -1.1693e+001 -3.3697e+001 -1.5652e+001 59344 79046,78974,78775
 3.9000e+000 78905 -6.0102e+000 -7.0005e+001 -1.4299e+001 59344 79046,78775,78879
 3.9000e+000 79000  1.5376e+001  1.4598e+001  1.7833e+001 59344 78827,78801,78974
 3.9000e+000 79023 -9.4458e-001  1.3066e+001 -2.8146e+000 59344 78827,78974,78853
 3.9000e+000 79072 -1.3991e+001  7.3378e+000 -1.7930e+000 59344 78853,78974,79046
 3.9000e+000 79095  2.8782e+000 -1.5843e+001  1.8684e+000 59344 78853,79046,78879
 3.9000e+000 79296  1.2097e+001 -3.7348e+001  4.5848e+000 58711 79319,79172,79146
 3.9000e+000 79273  1.2621e+001 -4.0871e+001  3.5415e+000 58711 79319,79146,79120
 3.9000e+000 79250  1.0862e+001 -5.0694e+001  3.0703e+001 58711 79172,79224,79198
 3.9000e+000 79345  1.2645e+001 -4.0875e+001  4.9013e+000 58711 79224,79172,79319
 3.9000e+000 79368  1.3325e+001 -4.4256e+001  4.3994e+000 58711 79224,79319,79120
 3.9000e+000 79667 -1.4822e+000 -2.6953e+001 -3.0653e+000 58285 79690,79471,79393
 3.9000e+000 79644  4.1438e+000 -4.7598e+001 -1.5082e+001 58285 79690,79393,79549
 3.9000e+000 79621  1.7932e+001 -4.7243e+001  1.5172e+001 58285 79393,79471,79419
 3.9000e+000 79598  1.1781e+001 -1.8478e+001 -3.1803e+000 58285 79497,79549,79523
 3.9000e+000 79575  4.8845e+000 -5.9530e+001  2.0635e+001 58285 79419,79471,79445
 3.9000e+000 79716  5.4699e+000 -1.0145e+001  6.2938e+000 58285 79497,79471,79690
 3.9000e+000 79739  1.3109e+001 -3.6370e+001 -3.3602e+000 58285 79497,79690,79549
 3.9000e+000 80249 -1.2598e+001  5.1531e+000  2.7300e-001 57831 80272,79978,79952
 3.9000e+000 80226 -7.8658e+000  1.0616e+001 -5.4104e+000 57831 80272,79952,80108
 3.9000e+000 80203  6.3094e+000  2.0261e+001 -1.2110e+000 57831 79926,80108,79952
 3.9000e+000 80180  3.6256e+000  3.3779e+000  1.4567e+001 57831 80004,80082,80030
 3.9000e+000 80157 -7.4161e-001  1.1851e+001  8.0483e+000 57831 80004,80108,80082
 3.9000e+000 80134  1.1465e+001  1.0577e+000  3.1172e+000 57831 80030,80082,80056
 3.9000e+000 80298 -1.8809e+001 -1.5188e+001  1.2905e+001 57831 80004,79978,80272
 3.9000e+000 80321 -1.1545e+000  2.8261e+000  4.6141e+000 57831 80004,80272,80108
 3.9000e+000 80618 -2.3338e+000 -5.6632e+001 -9.3185e+000 57077 80344,80448,80422
 3.9000e+000 80595 -1.0852e+000 -5.9378e+001 -4.0644e+000 57077 80344,80500,80448
 3.9000e+000 80572  1.9965e+001 -8.6667e+000 -1.5255e+001 57077 80344,80422,80370
 3.9000e+000 80549 -8.2545e+000 -5.2591e+000 -7.6676e+000 57077 80370,80422,80396
 3.9000e+000 80526 -2.7805e+001 -1.2889e+002  1.0268e+001 57077 80448,80500,80474
 3.9000e+000 80768 -1.2956e+001 -5.0034e+000  1.0886e+000 56787 80791,80693,80667
 3.9000e+000 80745 -1.0861e+001 -8.8378e+000 -4.2458e+000 56787 80791,80667,80641
 3.9000e+000 80817 -1.1226e+001 -7.6362e+000 -1.3835e+000 56787 80719,80693,80791
 3.9000e+000 80840 -2.4385e+001 -3.4590e+001 -9.6407e+000 56787 80719,80791,80641
 3.9000e+000 81429 -1.3603e+001 -8.1272e-001  9.0363e+000 56497 81452,81158,81132
 3.9000e+000 81406  1.1117e+001 -2.7463e+000  2.5249e+000 56497 81452,81132,81288
 3.9000e+000 81383  7.5401e+000  1.5769e+001 -7.2949e+000 56497 81524,81184,81158
 3.9000e+000 81360  1.1858e+001  6.7489e+000 -2.0138e+001 56497 81210,81288,81236
 3.9000e+000 81337 -7.2889e-001 -8.7841e+000  3.9342e-001 56497 81106,81288,81132
 3.9000e+000 81314  2.5354e+001  7.1783e+000 -2.2728e+001 56497 81236,81288,81262
 3.9000e+000 81478  3.1434e+000  1.5404e+000  4.8093e+000 56497 81524,81158,81452
 3.9000e+000 81501  1.3181e+001  3.3491e+000  3.8989e+000 56497 81210,81452,81288
 3.9000e+000 81550  1.2190e+001  3.0680e+001 -1.5365e+001 56497 81210,81184,81524
 3.9000e+000 81573  1.0394e+001  2.7021e+001 -2.1530e+000 56497 81210,81524,81452
 3.9000e+000 81870  5.2532e+000 -1.9600e+000  8.7382e+000 55979 81893,81674,81648
 3.9000e+000 81847  2.5766e+000 -4.5969e+000  4.3618e+000 55979 81893,81648,81752
 3.9000e+000 81824 -3.6472e+000  4.3601e+000  2.0086e+000 55979 81596,81752,81648
 3.9000e+000 81801  1.3261e+001  8.5797e+000  7.3816e+000 55979 81674,81726,81700
 3.9000e+000 81778 -1.6409e-001  1.3149e+001 -8.9060e-001 55979 81596,81648,81622
 3.9000e+000 81919  6.5991e+000 -5.9921e+000  5.3727e+000 55979 81726,81674,81893
 3.9000e+000 81942  1.7105e+000 -1.0669e+001  7.0782e-001 55979 81726,81893,81752
 3.9000e+000 82371 -1.4916e+001 -9.8231e+000 -8.5599e+000 55631 82100,82204,82152
 3.9000e+000 82348  1.7044e+001 -6.5598e+000 -7.1389e+000 55631 82100,82230,82204
 3.9000e+000 82325  4.4767e+001  1.4550e+001 -8.7120e+000 55631 82100,82152,82126
 3.9000e+000 82302  1.3259e+001 -1.0915e+001  3.1736e+000 55631 82074,82230,82100
 3.9000e+000 82279 -1.9309e+001 -2.8069e+001 -2.0290e+001 55631 82152,82204,82178
 3.9000e+000 82256  2.2526e+000 -2.5901e+000 -1.1108e+000 55631 82048,82230,82074
 3.9000e+000 82521  2.2133e+001 -2.1942e+001 -4.4134e+000 55227 82544,82420,82394
 3.9000e+000 82498  1.9782e+001 -4.1272e+001 -1.5514e+000 55227 82544,82394,82472
 3.9000e+000 82570  1.3942e+001 -6.0233e+000 -4.0374e+000 55227 82446,82420,82544
 3.9000e+000 82593  1.2859e+001 -2.1319e+001  3.8633e+000 55227 82446,82544,82472
 3.9000e+000 82875  7.9245e+000  1.1618e+000  4.9823e+000 54979 82699,82777,82725
 3.9000e+000 82852 -5.4189e+000  3.0178e+001  6.9630e+000 54979 82699,82803,82777
 3.9000e+000 82829 -1.9696e+000 -4.3067e+000  2.7238e+000 54979 82725,82777,82751
 3.9000e+000 83204  3.8733e+000  2.0560e+000  1.7992e+000 54475 83005,83083,83057
 3.9000e+000 83181 -6.3447e+000 -8.4732e+000  8.4780e+000 54475 82979,83083,83005
 3.9000e+000 83158  4.8502e+000  4.3598e+000  1.4573e+000 54475 83005,83057,83031
 3.9000e+000 83135 -1.5808e+000  2.4220e+000 -6.6078e+000 54475 82979,83109,83083
 3.9000e+000 83582  1.7668e+001  1.0760e+001 -1.5376e+001 54071 83605,83438,83412
 3.9000e+000 83559  7.4158e+000  6.2633e+000 -1.3971e+000 54071 83749,83605,83412
 3.9000e+000 83536 -6.4267e+000 -1.1233e+001  9.7067e+000 54071 83677,83360,83334
 3.9000e+000 83513  7.2230e+000  8.4082e+000 -1.5275e+000 54071 83749,83412,83677
 3.9000e+000 83490 -2.9826e+000 -1.1262e+001  3.0337e+000 54071 83308,83464,83334
 3.9000e+000 83631 -1.9927e+000  6.9379e-001 -1.0474e+001 54071 83464,83438,83605
 3.9000e+000 83654  7.1477e-001 -9.7790e+000  3.4679e+000 54071 83464,83605,83334
 3.9000e+000 83703  4.7529e+000  5.4172e+000 -4.3208e+000 54071 83386,83360,83677
 3.9000e+000 83726  1.1188e+001  3.2107e+001 -1.4777e+001 54071 83386,83677,83412
 3.9000e+000 83775  8.9014e+000  1.4495e+000 -3.1777e+000 54071 83334,83605,83749
 3.9000e+000 83798  9.0446e+000  4.1112e+000 -3.5465e+000 54071 83334,83749,83677
 3.9000e+000 84068  5.8186e+000  6.1037e+000 -3.6793e+000 53524 83869,83921,83895
 3.9000e+000 84045  6.7585e+000 -1.1621e+001  1.3045e+000 53524 83869,83947,83921
 3.9000e+000 84022  2.3708e+000 -2.5178e+001 -2.1149e+000 53524 83843,83947,83869
 3.9000e+000 83999  7.6112e+000 -2.9213e+001  4.5934e-001 53524 83843,83973,83947
 3.9000e+000 84497 -7.0174e+000 -4.5126e+001 -1.6735e+000 53184 84200,84330,84252
 3.9000e+000 84474  7.3950e+000 -6.1178e+000  1.2574e+000 53184 84200,84356,84330
 3.9000e+000 84451 -7.4102e+000  9.2275e+000 -3.9478e+000 53184 84200,84252,84226
 3.9000e+000 84428 -4.1564e+000 -3.4179e+001 -1.3020e+001 53184 84252,84330,84278
 3.9000e+000 84405  3.2371e+001  6.0463e+000 -3.1746e+000 53184 84174,84356,84200
 3.9000e+000 84382 -3.1763e-001 -3.4583e+001 -2.4651e+000 53184 84278,84330,84304
 3.9000e+000 84954 -1.0524e+000 -9.8760e+000  7.5168e+000 52680 84706,84836,84784
 3.9000e+000 84931  2.2933e+001 -1.9539e-001  8.8062e+000 52680 84680,84836,84706
 3.9000e+000 84908  8.6844e+000 -7.4808e+001 -4.5214e+000 52680 84784,84836,84810
 3.9000e+000 84885  3.9630e+000 -6.3103e+001 -8.3270e+000 52680 84706,84784,84732
 3.9000e+000 84862  6.0675e+000 -7.8330e+001  1.1547e+001 52680 84732,84784,84758
 3.9000e+000 85202 -1.3710e+001 -5.1891e+001  2.7576e+000 52226 85029,85081,85055
 3.9000e+000 85179 -3.2337e+000 -2.9713e+001  9.9809e+000 52226 85225,85081,85029
 3.9000e+000 85156  5.6731e+000 -7.7826e+000  2.2070e+001 52226 85225,85029,85003
 3.9000e+000 85133 -2.3994e+001 -4.6759e+001 -2.0760e+001 52226 84977,85107,85003
 3.9000e+000 85251 -1.2734e+001 -3.3669e+001 -1.2870e+001 52226 85107,85081,85225
 3.9000e+000 85274 -1.1648e+001  1.2637e+001 -4.5613e+000 52226 85107,85225,85003
 3.9000e+000 85522  1.4818e+001 -2.9708e+001  9.9976e+000 51764 85297,85349,85323
 3.9000e+000 85499  2.0818e+001 -2.7801e+001  5.8065e+000 51764 85545,85297,85427
 3.9000e+000 85476  3.9629e+000 -1.5103e+001 -2.5819e+000 51764 85545,85427,85375
 3.9000e+000 85453  5.2586e+000 -2.2048e+001 -7.1035e+000 51764 85375,85427,85401
 3.9000e+000 85571  3.0542e+001 -2.0585e+001  2.1257e+000 51764 85349,85297,85545
 3.9000e+000 85594  1.9973e+001 -3.2387e+000 -8.0165e+000 51764 85349,85545,85375
 3.9000e+000 85746 -1.2935e+001 -2.4681e+001  3.0763e+000 51374 85645,85697,85671
 3.9000e+000 85723 -2.1702e+001 -3.9585e+001 -8.9907e-001 51374 85619,85697,85645
 3.9000e+000 86256  1.0853e+001  1.2160e+001  5.5262e+000 50970 86279,86011,85959
 3.9000e+000 86233  9.8212e+000  1.0233e+001  6.1527e+000 50970 86279,85959,86115
 3.9000e+000 86210  7.3943e+000  1.1380e+000 -1.8518e+000 50970 85959,86011,85985
 3.9000e+000 86187  1.4160e+001  2.5069e+001 -1.5556e+001 50970 86037,86115,86089
 3.9000e+000 86164  2.6057e-001  5.2173e+000 -2.9250e-001 50970 85933,86115,85959
 3.9000e+000 86141  1.7137e+001  5.0254e+000 -1.4325e+001 50970 86037,86089,86063
 3.9000e+000 86305  9.2333e+000  1.4795e+001  5.3897e+000 50970 86037,86011,86279
 3.9000e+000 86328  8.0166e+000  1.2665e+001  6.0789e+000 50970 86037,86279,86115
 3.9000e+000 86478  1.8020e+001 -4.2315e+001 -4.1243e+000 50451 86351,86403,86377
 3.9000e+000 86455  1.8229e+000 -1.3750e+002 -1.0149e+001 50451 86351,86429,86403
 3.9000e+000 86907  4.7006e+000  3.1706e+000 -5.6323e+000 50047 86930,86714,86662
 3.9000e+000 86884  1.4553e+001 -1.2384e+001 -6.1978e+000 50047 86930,86662,86610
 3.9000e+000 86861  4.3728e+001 -2.1857e+001 -2.0806e+001 50047 87002,86740,86714
 3.9000e+000 86838  2.6652e+001  1.4093e+001 -2.1512e+001 50047 86662,86714,86688
 3.9000e+000 86815  6.2990e+000 -2.5308e+001  7.9455e-001 50047 86610,86662,86636
 3.9000e+000 86792  1.7262e+001 -2.0144e+001  9.7977e+000 50047 86584,86766,86610
 3.9000e+000 86956  2.1675e+001 -5.6584e+000 -5.6898e+000 50047 87002,86714,86930
 3.9000e+000 86979 -8.3867e-001 -2.9409e+001  5.1888e-001 50047 86766,86930,86610
 3.9000e+000 87028  7.4875e+000 -1.5530e+001 -2.1952e+001 50047 86766,86740,87002
 3.9000e+000 87051 -2.7731e+000 -1.2167e+001 -1.1328e+001 50047 86766,87002,86930
 3.9000e+000 87250  2.1268e-002 -5.1559e+001 -7.9530e+000 49543 87273,87126,87100
 3.9000e+000 87227 -1.6044e+000 -2.9051e+001  8.2445e+000 49543 87273,87100,87074
 3.9000e+000 87204  1.1515e+001 -3.6126e+001 -8.9634e+000 49543 87126,87178,87152
 3.9000e+000 87299  1.1500e+001 -1.7966e+001 -8.5012e+000 49543 87178,87126,87273
 3.9000e+000 87322  1.5583e+000 -1.4056e+001  1.1051e+001 49543 87178,87273,87074
 3.9000e+000 87570 -2.0827e+001 -2.6521e+001  1.8024e+001 49146 87593,87449,87397
 3.9000e+000 87547 -8.6262e+000  9.8709e+000  3.3061e+001 49146 87593,87397,87371
 3.9000e+000 87524  2.8632e+001  7.2966e+000  1.1952e+001 49146 87345,87475,87371
 3.9000e+000 87501 -9.0670e+000 -4.0493e+001  1.4397e+001 49146 87397,87449,87423
 3.9000e+000 87619 -3.9681e+001 -1.6894e+001 -8.5394e+000 49146 87475,87449,87593
 3.9000e+000 87642 -2.5380e+001  5.8094e+000  6.4567e+000 49146 87475,87593,87371
 3.9000e+000 88073 -1.0521e+000  4.2794e+000  1.5051e+000 48706 87854,87932,87880
 3.9000e+000 88050 -5.3850e-001  3.7522e+000  8.7781e-001 48706 87828,87932,87854
 3.9000e+000 88027  6.7966e-001  8.6217e+000  1.1132e+000 48706 87750,87932,87828
 3.9000e+000 88004  1.6994e+001  4.4460e+001  6.8104e+000 48706 87750,87802,87776
 3.9000e+000 87981  1.4269e+000  1.1097e+001  1.3506e+000 48706 87750,87828,87802
 3.9000e+000 87958  9.5044e-001  5.4392e+000  8.0863e-001 48706 87880,87932,87906
 3.9000e+000 88402 -9.7006e+000 -8.7698e+001  1.2982e+001 48145 88203,88281,88255
 3.9000e+000 88379 -4.0829e+000 -8.6261e+001  9.7492e+000 48145 88203,88307,88281
 3.9000e+000 88356 -6.1367e+000 -8.3875e+001  1.1508e+001 48145 88203,88255,88229
 3.9000e+000 88333  1.7051e+001 -1.0619e+000 -3.9957e+000 48145 88177,88307,88203
 3.9000e+000 88601  4.2847e+001 -3.6048e+001  2.6993e+001 47805 88696,88624,88477
 3.9000e+000 88578  6.4868e+000 -1.7701e+001  8.2463e+000 47805 88826,88624,88451
 3.9000e+000 88555 -4.0322e+000 -2.5095e+001  2.2583e+000 47805 88826,88451,88425
 3.9000e+000 88650  2.9047e+001 -6.6586e+001  1.4468e+001 47805 88503,88477,88624
 3.9000e+000 88673  2.0761e+001 -4.3519e+001 -5.4367e+000 47805 88503,88624,88529
 3.9000e+000 88722  1.7620e+001 -4.2207e+001  2.3129e+001 47805 88451,88624,88696
 3.9000e+000 88852  8.5742e+000 -2.8832e+001 -5.8982e+000 47805 88529,88624,88826
 3.9000e+000 88875 -2.5689e+000 -3.5852e+001 -1.1927e+001 47805 88529,88826,88425
 3.9000e+000 89172  6.7291e+000 -1.1949e+001  7.3109e+000 47401 89195,88976,88898
 3.9000e+000 89149 -4.6776e+000 -1.5455e+001 -1.8909e+000 47401 89195,88898,89054
 3.9000e+000 89126  3.4322e+000 -4.9695e+000  5.6389e+000 47401 88898,88976,88950
 3.9000e+000 89103  3.7077e-001 -2.2480e+001 -1.1312e+001 47401 88976,89028,89002
 3.9000e+000 89080 -1.6321e+000 -1.8238e+001  2.5513e+000 47401 88898,88950,88924
 3.9000e+000 89221  1.0666e+001 -1.8402e+001 -7.4113e+000 47401 89028,88976,89195
 3.9000e+000 89244 -1.4441e+001 -2.5817e+001 -1.6636e+001 47401 89028,89195,89054
 3.9000e+000 89575 -5.1421e+000 -8.4705e+001  5.7251e+000 47111 89350,89454,89376
 3.9000e+000 89552  1.9566e+001 -3.4201e+001 -1.9813e+001 47111 89350,89480,89454
 3.9000e+000 89529  5.6504e+000 -1.1181e+002 -2.0923e+001 47111 89376,89454,89402
 3.9000e+000 89506  2.5148e+001 -9.4400e+001  1.3149e+001 47111 89402,89454,89428
 3.9000e+000 89904  1.3046e+001 -1.5055e-001 -2.8056e+000 46707 89705,89757,89731
 3.9000e+000 89881  4.0208e+000 -2.7447e+000 -2.2452e+000 46707 89705,89783,89757
 3.9000e+000 89858  2.3795e+000 -1.7355e+000  2.4214e+000 46707 89679,89783,89705
 3.9000e+000 89835  3.9622e+000  2.7342e+000  1.8712e+000 46707 89679,89809,89783
 3.9000e+000 90233  1.5047e+000  2.4861e+000 -4.7094e+000 46360 90034,90112,90086
 3.9000e+000 90210 -4.3388e+000  7.6410e+000  1.1994e+000 46360 90034,90138,90112
 3.9000e+000 90187 -2.2078e+000 -3.4108e+000 -2.6488e+000 46360 90034,90086,90060
 3.9000e+000 90164 -7.1236e+000 -4.7563e-001  1.6132e+000 46360 90008,90138,90034
 3.9000e+000 90530  3.3443e+000 -3.0795e+001  4.9339e+000 45662 90256,90360,90308
 3.9000e+000 90507  8.9037e-001 -2.4872e+001  8.4819e-001 45662 90256,90412,90360
 3.9000e+000 90484  2.3629e+001 -1.8248e+001 -5.8422e+000 45662 90256,90308,90282
 3.9000e+000 90461  7.6510e+000 -5.8545e+000  1.9836e+000 45662 90360,90412,90386
 3.9000e+000 90438  5.3937e+000 -3.3637e+001  3.2731e+000 45662 90308,90360,90334
 3.9000e+000 90910  1.9709e+001  2.5353e+001 -1.4594e+001 45108 90688,90766,90714
 3.9000e+000 90887  2.8403e+001 -1.1246e+001  1.7893e-001 45108 90662,90766,90688
 3.9000e+000 90864 -1.2150e+000  3.1725e-001  6.6210e+000 45108 90636,90766,90662
 3.9000e+000 90841  3.3975e+001 -2.4247e+001 -2.9980e+001 45108 90714,90766,90740
 3.9000e+000 90818  2.7232e+000  6.2052e+000  3.8189e+000 45108 90636,90792,90766
 3.9000e+000 91158 -9.5078e+000 -2.1302e+001 -1.1254e+001 44604 91181,91011,90959
 3.9000e+000 91135  1.7350e+001 -3.1149e+001 -2.8116e+001 44604 91181,90959,90933
 3.9000e+000 91112 -5.1279e+000 -6.5107e+001  1.6696e+001 44604 90959,91011,90985
 3.9000e+000 91089 -8.2204e-001 -8.0511e+001 -9.4713e+000 44604 90933,91063,91037
 3.9000e+000 91207 -1.4196e+001 -3.4660e+001 -9.9856e+000 44604 91037,91011,91181
 3.9000e+000 91230 -7.7894e+000 -8.0083e+001 -1.9226e+001 44604 91037,91181,90933
 3.9000e+000 91429  1.4414e+000 -6.5685e+001 -1.1215e+001 44264 91452,91279,91253
 3.9000e+000 91406  2.2496e+000 -3.8385e+001 -1.2142e+001 44264 91452,91253,91357
 3.9000e+000 91383 -5.5181e+000 -6.2506e+001  1.8271e+001 44264 91279,91331,91305
 3.9000e+000 91478  6.0698e+000 -8.3129e+001 -1.0596e+001 44264 91331,91279,91452
 3.9000e+000 91501  2.7441e-001 -6.5025e+001 -1.5929e+001 44264 91331,91452,91357
 3.9000e+000 92060 -1.9060e+001 -6.7359e+001 -4.5847e-001 43860 92083,91740,91688
 3.9000e+000 92037 -9.5476e+000 -7.5078e+001  9.4963e+000 43860 92083,91688,91896
 3.9000e+000 92014 -1.7060e+001 -5.3360e+001 -1.4924e+001 43860 91766,91870,91844
 3.9000e+000 91991 -1.7218e+000 -6.7218e+001 -4.9540e+000 43860 91740,91870,91766
 3.9000e+000 91968 -1.0591e+000 -2.7754e+001  4.0209e+000 43860 91766,91844,91792
 3.9000e+000 91945 -2.6178e+001 -5.6625e+001  1.0499e+001 43860 91688,91740,91714
 3.9000e+000 91922 -1.3163e+001 -2.2809e+001  3.0038e+000 43860 91792,91844,91818
 3.9000e+000 92109 -1.1819e+001 -5.8288e+001  2.8566e+000 43860 91870,91740,92083
 3.9000e+000 92132 -2.0481e-001 -6.1861e+001  1.3717e+001 43860 91870,92083,91896
 3.9000e+000 92353  6.8230e+000 -1.4914e+001 -1.9085e+000 43662 92203,92255,92229
 3.9000e+000 92330  3.2553e+000 -1.3632e+001 -1.2302e+000 43662 92376,92203,92281
 3.9000e+000 92307  9.1850e+000  1.4094e+000  1.4029e+000 43662 92177,92281,92203
 3.9000e+000 92402 -3.4942e+000 -1.6478e+001  7.0606e-001 43662 92255,92203,92376
 3.9000e+000 92682 -5.9812e+000 -1.1339e+002 -1.1217e+001 43464 92532,92584,92558
 3.9000e+000 92659  8.8806e+000 -4.3923e+001  1.4292e+001 43464 92506,92584,92532
 3.9000e+000 92636  6.4208e+000 -2.2222e+001 -1.3081e+001 43464 92506,92610,92584
 3.9000e+000 93013  7.9936e+000 -2.8200e+001 -1.7938e+001 42960 92866,92918,92892
 3.9000e+000 92990 -2.8072e+000 -2.3025e+001 -6.9242e+000 42960 93036,92918,92866
 3.9000e+000 92967  6.5866e+000 -3.3538e+001 -5.0986e-001 42960 93036,92866,92840
 3.9000e+000 92944  4.5084e+000 -3.6089e+000  1.5476e+000 42960 92788,92918,92814
 3.9000e+000 93062  1.9618e+000 -1.7738e+001 -4.1497e+000 42960 92814,92918,93036
 3.9000e+000 93085  1.9171e+001 -2.0605e+001  4.6413e+000 42960 92814,93036,92840
 3.9000e+000 93186  4.5783e+000 -5.3766e+001 -1.3052e+001 42556 93108,93160,93134
 3.9000e+000 93554  1.2360e+001 -5.0424e+001  2.8585e+000 42052 93231,93387,93361
 3.9000e+000 93531  9.6033e+000 -4.5702e+001  1.3067e+001 42052 93231,93413,93387
 3.9000e+000 93508  1.5537e+001 -4.8386e+001  1.7840e+000 42052 93231,93361,93257
 3.9000e+000 93485  1.4166e+001 -9.1886e+000 -7.4753e+000 42052 93283,93361,93335
 3.9000e+000 93462  5.5243e+000 -6.0864e+001 -7.4356e+000 42052 93257,93361,93283
 3.9000e+000 93439 -1.0438e-001 -1.6529e+001 -1.0676e+000 42052 93283,93335,93309
 3.9000e+000 94162  3.9100e+000  1.4606e+001  1.2807e+000 41498 93767,93975,93793
 3.9000e+000 94139  6.1003e-002  1.2399e+001 -1.2594e+000 41498 93741,93975,93767
 3.9000e+000 94116  1.9781e+001 -4.9817e-001 -1.0614e+000 41498 93793,93975,93923
 3.9000e+000 94093  1.6269e+000 -4.2060e+001  1.6292e+001 41498 93923,93975,93949
 3.9000e+000 94070  2.2408e+000  5.5983e+000  5.4401e+000 41498 93871,93923,93897
 3.9000e+000 94047  1.9493e+000 -1.0957e+001  3.5611e+000 41498 93793,93923,93871
 3.9000e+000 94024 -6.1983e-001 -2.2077e+000  1.2297e-002 41498 93819,93871,93845
 3.9000e+000 94001  4.5421e+000 -2.0549e+000  3.0209e+000 41498 93793,93871,93819
 3.9000e+000 94619 -3.5874e+000 -1.8901e+001 -8.3878e+000 40930 94642,94423,94371
 3.9000e+000 94596  1.1694e+001 -1.6156e+001  2.6723e+000 40930 94642,94371,94345
 3.9000e+000 94573  6.1673e+000  1.9017e+001  1.5711e+001 40930 94345,94501,94475
 3.9000e+000 94550  3.2654e+001 -1.4060e+001 -1.9993e+001 40930 94371,94423,94397
 3.9000e+000 94527  8.7475e+000 -7.5235e+000 -5.2233e+000 40930 94423,94475,94449
 3.9000e+000 94668  7.6007e+000 -1.3797e+000  4.2621e-002 40930 94475,94423,94642
 3.9000e+000 94691  1.5297e+001 -1.0841e+001  9.3314e+000 40930 94475,94642,94345
 3.9000e+000 95148 -2.8573e+001 -3.1610e+001 -8.2842e+000 40362 95171,94952,94926
 3.9000e+000 95125  4.6849e+000 -6.4549e+000  3.4324e+001 40362 95171,94926,95004
 3.9000e+000 95102 -2.2283e+001 -4.6024e+001  1.9355e+001 40362 94874,95004,94926
 3.9000e+000 95079  4.5451e+000 -5.7148e+001  5.5363e+001 40362 94874,95030,95004
 3.9000e+000 95056 -3.1852e+001 -4.7720e+001  3.8834e+001 40362 94874,94926,94900
 3.9000e+000 95197  8.0489e+000  5.8285e+000  9.8840e+000 40362 94978,94952,95171
 3.9000e+000 95220  3.5176e+001  2.6274e+001  5.1243e+001 40362 94978,95171,95004
 3.9000e+000 95549 -2.8359e+000  3.3877e-001  3.8146e+000 39586 95350,95402,95376
 3.9000e+000 95526  1.9366e+000  1.3174e+001 -3.0757e+000 39586 95324,95402,95350
 3.9000e+000 95503 -3.7531e+000  1.5063e+001  6.0300e+000 39586 95324,95454,95402
 3.9000e+000 95480  5.8306e+000  1.5879e+001  1.0640e+001 39586 95402,95454,95428
 3.9000e+000 96055  6.3184e+000  7.6880e+000 -2.4202e+000 38968 96078,95862,95810
 3.9000e+000 96032  1.2226e+001  1.0336e+001 -2.0193e-002 38968 96078,95810,95758
 3.9000e+000 96009  4.5472e+000  1.4575e+001 -6.0609e-001 38968 96150,95732,95888
 3.9000e+000 95986 -1.0787e+001  8.2485e+000  6.0540e+000 38968 95810,95862,95836
 3.9000e+000 95963  6.2107e-001  1.1024e+001  2.4632e+000 38968 95732,95914,95888
 3.9000e+000 95940  1.0002e+001  1.0980e+001  2.1743e+000 38968 95758,95810,95784
 3.9000e+000 96104  1.2427e+000  9.5670e+000 -5.0072e+000 38968 95888,95862,96078
 3.9000e+000 96127  6.8344e+000  1.3352e+001 -3.1788e+000 38968 96150,95888,96078
 3.9000e+000 96176  1.8140e+000  9.9345e+000  5.2183e-001 38968 95758,95732,96150
 3.9000e+000 96199  3.8075e+000  7.8084e+000 -2.0139e+000 38968 95758,96150,96078
 3.9000e+000 96545  3.1377e+001 -1.2302e+001 -2.1483e+001 38507 96640,96568,96352
 3.9000e+000 96522 -1.2766e+001 -5.6565e+001  1.7268e+001 38507 96568,96300,96222
 3.9000e+000 96499  6.6165e+001  1.6234e+001 -5.3536e+001 38507 96640,96352,96326
 3.9000e+000 96476  2.6681e+001 -3.5713e+001 -4.0975e+001 38507 96352,96404,96378
 3.9000e+000 96453 -3.0082e+001 -6.1723e+001  5.8266e+000 38507 96222,96300,96248
 3.9000e+000 96430 -1.5390e+001 -6.5944e+001 -1.0105e+001 38507 96248,96300,96274
 3.9000e+000 96594 -4.4766e+000 -4.3959e+001 -8.0960e+000 38507 96404,96352,96568
 3.9000e+000 96617  1.3661e+001 -4.1059e+001  2.3772e+000 38507 96404,96568,96222
 3.9000e+000 96666  8.9284e+000 -5.5518e+001  1.3828e+001 38507 96300,96568,96640
 3.9000e+000 96689  1.9737e+001 -3.7922e+001 -1.4954e+001 38507 96300,96640,96326
 3.9000e+000 97069  1.8596e+001  2.5691e+000 -1.1339e+001 37760 97092,96873,96821
 3.9000e+000 97046  2.4963e+001  5.8665e+000 -1.7251e+001 37760 97092,96821,96795
 3.9000e+000 97023  6.0660e+000 -8.6335e+000 -6.6444e+000 37760 96821,96873,96847
 3.9000e+000 97000  6.3629e+000  2.4040e+000 -3.6040e+000 37760 96873,96925,96899
 3.9000e+000 96977  1.0333e+001  7.6992e+001  2.1167e+001 37760 96795,96951,96925
 3.9000e+000 97118  1.1307e+001 -7.2059e+000 -1.2278e+000 37760 96925,96873,97092
 3.9000e+000 97141  3.0832e+001  2.0555e+000 -8.1976e+000 37760 96925,97092,96795
 3.9000e+000 97647 -2.0553e+001 -4.3908e+001  2.1025e+000 37356 97324,97480,97376
 3.9000e+000 97624 -3.2744e+000 -6.2087e+001  4.5122e+001 37356 97324,97506,97480
 3.9000e+000 97601 -6.7532e+000 -9.7717e+000  1.1361e+001 37356 97376,97480,97454
 3.9000e+000 97578 -2.6874e+001 -2.7856e+001  1.2045e+001 37356 97324,97376,97350
 3.9000e+000 97555  5.7051e+000 -1.2327e+001 -3.4383e+000 37356 97376,97454,97402
 3.9000e+000 97532 -4.5632e+000 -7.7543e+000 -5.7387e+000 37356 97402,97454,97428
 3.9000e+000 98232  1.4735e+000  4.7289e+000  7.9319e-001 36902 97935,98065,98013
 3.9000e+000 98209  2.5575e+001  1.9675e+001  7.5245e+000 36902 97935,98091,98065
 3.9000e+000 98186  1.2681e+001 -1.5117e+000  7.3140e+000 36902 97935,98013,97987
 3.9000e+000 98163  1.4658e+001  5.3179e+001  3.6482e+000 36902 97909,98091,97935
 3.9000e+000 98140  1.5539e+001  2.1928e+000  5.7940e+000 36902 97935,97987,97961
 3.9000e+000 98117  1.4596e+001  1.8860e+001  2.0036e+001 36902 98013,98065,98039
 3.9000e+000 98659  1.1815e+001 -5.2407e+001 -9.9501e+000 36604 98682,98414,98388
 3.9000e+000 98636  1.0494e+000 -5.1746e+001  1.3660e+001 36604 98682,98388,98336
 3.9000e+000 98613  1.5550e+001 -4.0729e+001  5.9238e+000 36604 98754,98518,98466
 3.9000e+000 98590  1.5409e+001  2.3909e+001 -8.4884e+000 36604 98414,98466,98440
 3.9000e+000 98567 -4.8083e+000 -6.1518e+001  1.0937e+001 36604 98336,98388,98362
 3.9000e+000 98544  1.1976e+001 -6.3034e+001  1.8683e+001 36604 98466,98518,98492
 3.9000e+000 98708  2.0450e+001 -2.4616e+001 -1.7796e+001 36604 98466,98414,98682
 3.9000e+000 98731  1.4477e+001 -3.5864e+001  5.7547e+000 36604 98754,98466,98682
 3.9000e+000 98780  1.5293e+001 -4.2924e+001  5.3575e+000 36604 98336,98518,98754
 3.9000e+000 98803  1.2040e+001 -4.0583e+001  4.3579e+000 36604 98336,98754,98682
 3.9000e+000 99309 -2.6501e+001  1.5870e+001 -1.6066e+000 36200 99332,99116,99012
 3.9000e+000 99286  3.0865e+000  1.8267e+001 -1.6551e+000 36200 99332,99012,98986
 3.9000e+000 99263 -1.4602e+001 -1.0418e+001 -1.7915e+001 36200 99012,99116,99064
 3.9000e+000 99240  3.5055e+001  7.3134e+000  1.6022e+001 36200 98986,99168,99142
 3.9000e+000 99217 -7.9145e+000 -4.4951e+001  2.9669e-001 36200 99064,99116,99090
 3.9000e+000 99194 -6.8423e+000  1.5899e+001 -1.7402e+001 36200 99012,99064,99038
 3.9000e+000 99358 -1.7451e+001  3.5108e+000  2.3539e+001 36200 99142,99116,99332
 3.9000e+000 99381  2.4838e+001  1.5546e+001  2.4542e+001 36200 99142,99332,98986
 3.9000e+000 99887  3.8515e+001 -4.1690e+001  4.2977e+000 35488 99564,99720,99590
 3.9000e+000 99864  5.7104e+001  3.7941e+000 -2.0420e+000 35488 99564,99746,99720
 3.9000e+000 99841  2.9786e+001 -9.6655e-001 -2.6634e+001 35488 99642,99694,99668
 3.9000e+000 99818  3.6788e+000 -3.1396e+001  7.6218e+000 35488 99590,99694,99642
 3.9000e+000 99795  3.9081e+001 -2.1595e+001 -1.0176e+001 35488 99590,99720,99694
 3.9000e+000 99772  2.9568e+001 -1.0041e+002  7.9878e+000 35488 99590,99642,99616
 3.9000e+000 99988  1.1466e-048  5.3150e-051  1.4435e-049 35198 99910,99962,99936
 3.9000e+000 100138  1.6748e+001  6.4655e+000 -2.3405e+001 34794 100233,100161,100063
 3.9000e+000 100115 -1.3471e+001 -4.8717e+000 -4.1304e+000 34794 100365,100161,100037
 3.9000e+000 100187  3.3256e+001 -1.0115e+001 -2.2231e+001 34794 100089,100063,100161
 3.9000e+000 100210  8.2733e+000 -1.8922e+001 -2.4598e+001 34794 100089,100161,100011
 3.9000e+000 100259  2.9114e+001  1.8284e+001  4.8121e+000 34794 100037,100161,100233
 3.9000e+000 100391 -5.7457e+000 -2.5235e+001  6.2940e+000 34794 100011,100161,100365
 3.9000e+000 100927  3.3643e+000 -1.5388e+001  4.0699e+000 34404 100679,100809,100783
 3.9000e+000 100904 -4.7991e+000 -5.1873e+000  5.9118e+000 34404 100653,100809,100679
 3.9000e+000 100881  3.3796e+000 -4.2499e+000 -2.7538e+000 34404 100705,100783,100731
 3.9000e+000 100858 -3.4808e+000 -1.3118e+001 -6.9791e+000 34404 100679,100783,100705
 3.9000e+000 100835 -5.8182e+000  7.8712e-001 -1.8222e+001 34404 100731,100783,100757
 3.9000e+000 101354 -3.8868e+000 -6.0971e+001  1.4542e+001 34000 101377,101109,101057
 3.9000e+000 101331 -2.1140e+001 -6.7159e+001  1.4135e+001 34000 101449,101377,101057
 3.9000e+000 101308 -2.7491e+001 -5.0274e+001  1.4256e+001 34000 101449,101057,101031
 3.9000e+000 101285 -2.9468e+001 -4.3035e+001  4.4524e+000 34000 101031,101213,101187
 3.9000e+000 101262  1.2535e+001 -8.3095e+001 -2.0078e+001 34000 101135,101187,101161
 3.9000e+000 101239 -4.8773e+000 -3.0930e+001  7.2488e+000 34000 101057,101109,101083
 3.9000e+000 101403 -8.0068e+000 -5.9134e+001  7.3171e+000 34000 101135,101109,101377
 3.9000e+000 101426 -1.8323e+001 -6.2338e+001  2.3423e+000 34000 101135,101377,101187
 3.9000e+000 101475 -6.7787e+000 -4.6659e+001  7.5620e+000 34000 101187,101377,101449
 3.9000e+000 101498 -2.0642e+001 -3.9090e+001  1.0523e+001 34000 101187,101449,101031
 3.9000e+000 102083  4.9675e+001  5.2784e+000 -4.2008e+000 33472 102106,101812,101786
 3.9000e+000 102060  1.2774e+001 -1.1708e+001 -7.7751e-002 33472 102106,101786,101916
 3.9000e+000 102037 -2.8048e+001 -2.4443e+000 -1.6013e+001 33472 101812,101864,101838
 3.9000e+000 102014 -2.6395e+001 -7.4531e+000 -5.5404e+000 33472 101864,101916,101890
 3.9000e+000 101991  1.2134e+001 -1.6889e+001 -1.0996e+000 33472 101786,101942,101916
 3.9000e+000 101968  1.2006e+001 -1.1507e+001  3.7203e+000 33472 101760,101942,101786
 3.9000e+000 102132  2.7321e+001  7.1469e+000 -1.8912e+001 33472 101864,101812,102106
 3.9000e+000 102155  1.5745e+001  1.9667e+000 -1.7888e+001 33472 101864,102106,101916
 3.9000e+000 102612  1.8375e+000 -6.8371e+001 -3.2463e+001 33038 102635,102468,102390
 3.9000e+000 102589 -1.7332e+001 -9.7165e+001 -4.4965e+001 33038 102635,102390,102364
 3.9000e+000 102566  6.0311e+000 -4.8356e+001 -2.5256e+001 33038 102390,102468,102442
 3.9000e+000 102543  5.6573e+000 -7.3846e+001 -2.3262e+001 33038 102338,102494,102364
 3.9000e+000 102520  6.0741e+000 -4.9774e+001 -2.7881e+001 33038 102390,102442,102416
 3.9000e+000 102661  3.0554e+000 -6.1109e+001 -1.6340e+001 33038 102494,102468,102635
 3.9000e+000 102684 -9.4229e-001 -7.7256e+001 -2.5976e+001 33038 102494,102635,102364
 3.9000e+000 103318  5.4556e+000  7.0983e+000  1.5296e+000 32402 102972,103128,103076
 3.9000e+000 103295  1.3333e+001  4.8045e+000  1.3576e+000 32402 102946,103128,102972
 3.9000e+000 103272  1.8980e+000 -7.7800e+000  1.6405e+001 32402 103076,103128,103102
 3.9000e+000 103249  1.8511e+001  6.8861e+000  2.5174e-001 32402 102946,103154,103128
 3.9000e+000 103226  5.1242e+000 -4.0935e+000  1.2258e+001 32402 102972,103076,102998
 3.9000e+000 103203 -2.3148e+000 -1.5185e+001  6.0078e+000 32402 102998,103076,103050
 3.9000e+000 103180  4.1864e-001  6.6924e-001  5.1440e-001 32402 102998,103050,103024
 3.9000e+000 103696  1.1041e+001 -5.4409e+001 -1.0540e+001 31924 103448,103526,103500
 3.9000e+000 103673 -1.1104e+001 -6.6180e+001 -1.9954e+001 31924 103448,103578,103526
 3.9000e+000 103650 -2.2070e+001 -4.2694e+001 -2.2052e+000 31924 103448,103500,103474
 3.9000e+000 103627  2.4759e+000 -1.1822e+002 -1.9926e+001 31924 103422,103578,103448
 3.9000e+000 103604 -1.7834e+001 -1.6072e+002  2.1763e+000 31924 103526,103578,103552
 3.9000e+000 104281 -1.2277e+001 -1.0415e+001 -5.1720e+000 31520 104304,104062,104036
 3.9000e+000 104258  5.8693e+000  4.0833e+000  1.1768e+000 31520 104304,104036,103984
 3.9000e+000 104235  2.0686e+001  1.5085e+001  2.9136e+001 31520 104062,104114,104088
 3.9000e+000 104212  9.4579e+000  1.6811e+001  1.1108e+001 31520 103958,104114,103984
 3.9000e+000 104189  5.7663e+000  2.1533e+000 -9.9406e+000 31520 103984,104036,104010
 3.9000e+000 104166  1.3689e+001  7.4729e+000  1.0079e+001 31520 103958,104140,104114
 3.9000e+000 104330 -1.3497e+001  6.0724e+000  3.3571e+000 31520 104114,104062,104304
 3.9000e+000 104353 -8.0578e+000  1.0466e+001  5.2522e+000 31520 104114,104304,103984
 3.9000e+000 104704 -2.5607e+001 -2.9517e+001 -2.1253e+001 31066 104479,104583,104505
 3.9000e+000 104681  4.8030e+001 -6.8096e+000 -2.4977e+001 31066 104479,104609,104583
 3.9000e+000 104658 -6.1502e+000 -4.8377e+000 -5.4700e+000 31066 104505,104557,104531
 3.9000e+000 104635  9.9392e+000 -3.6749e+000 -9.8319e+000 31066 104505,104583,104557
 3.9000e+000 104925  2.3521e+001  4.7454e+000 -1.2452e+001 30754 104775,104827,104801
 3.9000e+000 104902  1.6507e+001  1.2378e+001 -9.4445e+000 30754 104775,104853,104827
 3.9000e+000 104879  1.3937e+000  6.0831e+000 -7.1173e+000 30754 104749,104853,104775
 3.9000e+000 105482 -2.7228e+000 -1.1186e+001  2.5407e+000 30164 105505,105136,105110
 3.9000e+000 105459  1.5721e-001 -1.3161e+001  3.1320e+000 30164 105649,105505,105110
 3.9000e+000 105436 -7.2472e+000 -1.8088e+001  9.2594e+000 30164 105577,105188,105136
 3.9000e+000 105413 -1.2637e+000 -1.3678e+001  2.4892e+000 30164 105649,105110,105318
 3.9000e+000 105390  5.2274e+000 -5.6528e+001  3.1580e+001 30164 105214,105292,105240
 3.9000e+000 105367 -1.7145e+001 -8.2308e+001  4.5670e+001 30164 105240,105292,105266
 3.9000e+000 105344 -5.8592e+000 -2.9573e+001  1.2527e+001 30164 105136,105188,105162
 3.9000e+000 105531  1.3370e+000 -1.5554e+001  1.2133e+000 30164 105577,105136,105505
 3.9000e+000 105554  2.6643e+001 -1.5137e+001  4.3463e+000 30164 105214,105505,105292
 3.9000e+000 105603 -7.3445e+000 -2.8828e+001  1.7505e+001 30164 105214,105188,105577
 3.9000e+000 105626 -2.8787e+000 -2.8639e+001  9.8899e+000 30164 105214,105577,105505
 3.9000e+000 105675 -2.9183e-001 -1.4585e+001  1.6250e+000 30164 105292,105505,105649
 3.9000e+000 105698 -5.5185e-001 -1.4967e+001  1.0962e+000 30164 105292,105649,105318
 3.9000e+000 106027  1.8184e+001  1.8173e+000  3.7576e+000 29868 106322,106050,105880
 3.9000e+000 106004  1.0766e+001  5.5295e+000  7.0806e+000 29868 106250,106050,105828
 3.9000e+000 105981  8.2779e+000  3.7872e+000  5.6218e+000 29868 106250,105828,105802
 3.9000e+000 105958  1.6531e+001 -2.6987e+000  4.0905e+000 29868 106322,105880,106122
 3.9000e+000 106076  2.0929e+001  2.5849e+001 -8.0478e+000 29868 105906,105880,106050
 3.9000e+000 106099  7.7535e-001  6.6434e+000 -1.8498e-001 29868 105906,106050,105932
 3.9000e+000 106148  5.4866e+000 -1.0108e+001  1.0537e+000 29868 105854,105828,106122
 3.9000e+000 106276  8.9520e+000  4.6882e+000  1.3263e+000 29868 105932,106050,106250
 3.9000e+000 106299  1.2263e+000  2.1393e-001 -6.6779e-001 29868 105932,106250,105802
 3.9000e+000 106348  1.5129e+001  6.8473e+000  6.6108e+000 29868 105828,106050,106322
 3.9000e+000 106371  1.3961e+001  3.1980e+000  6.6771e+000 29868 105828,106322,106122
 3.9000e+000 106828  4.2991e+001  1.7425e+001  6.9230e+000 29521 106580,106710,106684
 3.9000e+000 106805  2.4472e+001 -2.9828e+000 -5.4105e+000 29521 106554,106710,106580
 3.9000e+000 106782  1.6981e+001  6.7933e+000  1.7647e+000 29521 106580,106684,106606
 3.9000e+000 106759  2.4049e+001  1.5423e+001  8.2881e+000 29521 106606,106684,106658
 3.9000e+000 106736  7.6517e+000  2.6498e+001  1.1761e+001 29521 106606,106658,106632
 3.9000e+000 107027 -3.2109e+001 -3.3723e+001 -2.5188e+001 29117 106877,106929,106903
 3.9000e+000 107004 -1.6679e+001 -2.7007e+001 -2.2251e+001 29117 106851,106929,106877
 3.9000e+000 106981  4.0555e+001 -7.9142e+001 -3.0447e+001 29117 106851,106955,106929
 3.9000e+000 107456 -4.4314e+001 -1.2403e+002 -2.2034e+001 28656 107237,107315,107263
 3.9000e+000 107433  4.7180e+000 -6.2504e+001 -3.9680e-001 28656 107133,107315,107237
 3.9000e+000 107410  2.4109e+001 -6.6182e+001 -2.1251e+001 28656 107133,107237,107159
 3.9000e+000 107387  2.4886e+001 -3.5671e+001 -2.8210e+001 28656 107159,107237,107185
 3.9000e+000 107364  4.3517e+001 -9.1483e+000  2.3803e+001 28656 107185,107237,107211
 3.9000e+000 107341  1.0373e+001 -4.0288e+000 -2.6432e+000 28656 107263,107315,107289
 3.9000e+000 107704  1.9332e+001  3.9260e+000  1.5052e+001 27902 107727,107557,107531
 3.9000e+000 107681 -2.9705e+000  1.5098e+001 -1.0269e+000 27902 107727,107531,107505
 3.9000e+000 107658  4.3811e+001  8.0861e+000  1.3661e+001 27902 107557,107609,107583
 3.9000e+000 107635 -5.1184e+000  1.6987e+001  6.8673e+000 27902 107479,107609,107505
 3.9000e+000 107753  4.3841e+001  8.4797e+000  1.3779e+001 27902 107609,107557,107727
 3.9000e+000 107776  2.1049e+001  1.9863e+001 -1.1463e+000 27902 107609,107727,107505
 3.9000e+000 108333 -1.2630e+001 -9.0328e+001  1.1619e+000 27341 108356,108065,108013
 3.9000e+000 108310 -8.0588e+000 -8.2918e+001 -2.2342e+001 27341 108356,108013,108143
 3.9000e+000 108287 -3.2871e+001 -1.1128e+002 -1.7009e+001 27341 108428,108117,108091
 3.9000e+000 108264  4.8404e+000 -7.3563e+001 -5.8416e+000 27341 108013,108065,108039
 3.9000e+000 108241 -1.1854e+001 -9.6234e+001 -2.6245e+001 27341 107987,108143,108013
 3.9000e+000 108218 -1.0325e+001 -9.3901e+001 -5.0051e+001 27341 107987,108169,108143
 3.9000e+000 108195 -8.7874e+000 -9.0282e+001 -4.8998e+001 27341 107961,108169,107987
 3.9000e+000 108382 -1.0244e+001 -7.3723e+001 -1.4445e+001 27341 108091,108065,108356
 3.9000e+000 108405 -3.9095e+001 -8.3195e+001 -1.1702e+001 27341 108428,108091,108356
 3.9000e+000 108454 -3.7254e+001 -1.8369e+002 -2.6606e+001 27341 108143,108117,108428
 3.9000e+000 108477 -3.1285e+001 -1.3698e+002 -2.4295e+001 27341 108143,108428,108356
 3.9000e+000 108725  2.0114e+001 -4.2611e+000  1.2562e+001 27029 108748,108526,108500
 3.9000e+000 108702  1.0211e+001 -1.1196e+001  1.7173e+001 27029 108748,108500,108630
 3.9000e+000 108679 -4.6320e+000 -1.0344e+001  1.2757e+001 27029 108578,108630,108604
 3.9000e+000 108656 -2.5643e+000 -2.3411e+000 -2.2110e-001 27029 108526,108578,108552
 3.9000e+000 108774  1.1887e+001  7.9830e+000  6.9208e+000 27029 108578,108526,108748
 3.9000e+000 108797  6.6996e-001  9.1643e-001  1.0946e+001 27029 108578,108748,108630
 3.9000e+000 109045 -2.1273e+000  7.5977e+000  5.9532e+000 26610 108872,108924,108898
 3.9000e+000 109022  4.8979e+000 -6.8780e+001 -2.7076e+001 26610 108872,108950,108924
 3.9000e+000 108999  1.8531e+001 -6.8801e+001 -3.9619e+000 26610 108846,108950,108872
 3.9000e+000 108976 -3.1980e+000 -1.3601e+002 -2.0105e+001 26610 108820,108950,108846
 3.9000e+000 109366  1.2813e+001 -1.0656e+002 -1.5115e+001 26006 109144,109222,109196
 3.9000e+000 109343 -7.4998e+000 -1.1031e+002 -1.7972e+001 26006 109118,109222,109144
 3.9000e+000 109320  3.1213e+001 -1.0731e+002 -2.3700e+000 26006 109092,109222,109118
 3.9000e+000 109297 -1.0688e-001 -1.1316e+002 -3.5835e+000 26006 109144,109196,109170
 3.9000e+000 109274  2.5736e+001  6.6361e+000  1.3204e+001 26006 109092,109248,109222
 3.9000e+000 109567 -8.5538e+000  1.5288e+001 -3.6869e+001 25659 109391,109469,109443
 3.9000e+000 109544  1.4875e+001  3.7126e+000  1.7921e+001 25659 109391,109495,109469
 3.9000e+000 109521 -3.8120e+001  3.1904e+000 -1.4566e+001 25659 109391,109443,109417
 3.9000e+000 109900  1.8839e+001  1.7814e+001 -7.0721e+000 25255 109923,109779,109753
 3.9000e+000 109877  1.8946e+001  1.9188e+001 -5.2026e+000 25255 109923,109753,109701
 3.9000e+000 109854  3.1250e+000  1.4986e+001 -1.0400e+001 25255 109675,109805,109701
 3.9000e+000 109831  1.9350e+001  2.2381e+001 -6.4839e+000 25255 109701,109753,109727
 3.9000e+000 109949  1.6715e+001  1.5510e+001 -8.3646e+000 25255 109805,109779,109923
 3.9000e+000 109972  1.7906e+001  1.8014e+001 -6.3117e+000 25255 109805,109923,109701
 3.9000e+000 110220  3.5969e+000  1.2638e+001  7.5550e+000 24701 110243,110021,109995
 3.9000e+000 110197  1.8047e+000  6.2277e+000  3.1310e+000 24701 110243,109995,110099
 3.9000e+000 110174  1.0996e+000  2.4532e+001  9.0391e+000 24701 110315,110073,110047
 3.9000e+000 110151  2.8491e+000  4.1477e+000  3.4455e+000 24701 109995,110125,110099
 3.9000e+000 110269  1.6240e+000  7.9966e+000  3.5304e+000 24701 110047,110021,110243
 3.9000e+000 110292  2.5924e+000  2.1481e+001  5.6943e+000 24701 110315,110047,110243
 3.9000e+000 110341  1.1625e+001  1.6502e+001  1.6358e+001 24701 110099,110073,110315
 3.9000e+000 110364  7.7680e+000  8.8066e+000  1.0284e+001 24701 110099,110315,110243
 3.9000e+000 110661 -1.3922e+001 -1.2199e+002  3.1784e+001 24197 110684,110413,110387
 3.9000e+000 110638  1.4296e+001 -6.6067e+001  1.9028e+001 24197 110684,110387,110543
 3.9000e+000 110615  2.1723e+001 -1.5615e+002  2.1302e+001 24197 110756,110491,110465
 3.9000e+000 110592 -2.1463e+001 -9.1381e+001  2.8085e+001 24197 110413,110465,110439
 3.9000e+000 110569  4.2182e+000 -1.9325e+002 -1.1998e+001 24197 110491,110543,110517
 3.9000e+000 110710  2.2909e+001 -1.0750e+002  2.8268e+001 24197 110465,110413,110684
 3.9000e+000 110733  8.0837e+000 -1.3584e+002  1.8351e+001 24197 110756,110465,110684
 3.9000e+000 110782  2.2227e+001 -1.3263e+002  1.8350e+000 24197 110543,110491,110756
 3.9000e+000 110805  1.7644e+001 -1.0113e+002 -1.4073e+000 24197 110543,110756,110684
 3.9000e+000 111315  2.3992e+001 -4.6937e+001  2.0311e+000 23593 111044,111148,111070
 3.9000e+000 111292 -4.7961e+000 -6.6832e+000  2.0938e+001 23593 111044,111174,111148
 3.9000e+000 111269  6.6985e+001 -3.8360e+000 -5.1108e+000 23593 111070,111122,111096
 3.9000e+000 111246  2.3774e+001 -1.9452e+001 -1.4438e+001 23593 111070,111148,111122
 3.9000e+000 111223 -6.3060e+000  1.0003e+001  1.3160e+001 23593 111018,111174,111044
 3.9000e+000 111200 -4.2112e+000  1.2792e+001  1.4121e+001 23593 110992,111174,111018
 3.9000e+000 111821  7.3773e+000 -8.8903e+001 -1.3661e+000 23089 111916,111844,111628
 3.9000e+000 111798 -1.1666e+001 -1.0269e+002 -2.2258e+001 23089 111844,111550,111524
 3.9000e+000 111775  1.3156e+000 -6.8961e+001 -1.1375e+000 23089 111916,111628,111602
 3.9000e+000 111752  4.0878e+001 -1.4279e+002 -4.2538e+000 23089 111498,111680,111524
 3.9000e+000 111729 -1.1028e+000 -4.2342e+001  5.9140e+000 23089 111550,111602,111576
 3.9000e+000 111706 -2.0513e+000 -4.1652e+001 -1.2813e+001 23089 111628,111680,111654
 3.9000e+000 111870  1.0131e+001 -8.0139e+001  5.4308e+000 23089 111680,111628,111844
 3.9000e+000 111893  7.2345e+000 -8.7528e+001 -1.0978e+000 23089 111680,111844,111524
 3.9000e+000 111942  1.2864e+001 -6.2265e+001 -1.0408e+001 23089 111550,111844,111916
 3.9000e+000 111965  2.5208e+000 -4.6308e+001 -7.7268e+000 23089 111550,111916,111602
 3.9000e+000 112164 -1.7790e+001 -4.6069e+000 -1.0534e+001 22626 112187,112014,111988
 3.9000e+000 112141  9.8858e+000 -2.7288e+001 -1.5082e+001 22626 112259,112187,111988
 3.9000e+000 112118  5.2231e+000 -2.8947e+001 -1.5362e+001 22626 112259,111988,112092
 3.9000e+000 112213  9.0724e+000  3.7616e+001  3.4434e+000 22626 112040,112014,112187
 3.9000e+000 112236  4.5180e+000 -2.0957e+001 -1.3461e+001 22626 112040,112187,112066
 3.9000e+000 112285  5.7849e+000 -2.6890e+001 -1.9395e+001 22626 112066,112187,112259
 3.9000e+000 112308  3.2670e+000 -2.7603e+001 -1.9921e+001 22626 112066,112259,112092
 3.9000e+000 112605  4.3913e+000 -6.9995e+001  1.6478e+001 22286 112628,112383,112357
 3.9000e+000 112582  6.8914e+000 -7.3264e+001  2.2021e+001 22286 112772,112628,112357
 3.9000e+000 112559 -2.2431e+001 -8.1737e+001  5.3013e+001 22286 112700,112435,112409
 3.9000e+000 112536 -2.7590e+001 -6.8441e+001  3.7292e+001 22286 112772,112357,112331
 3.9000e+000 112513 -8.8418e-003 -8.1438e+001  5.2663e+001 22286 112435,112487,112461
 3.9000e+000 112654  1.0636e+001 -5.5853e+001  1.8135e+001 22286 112409,112383,112628
 3.9000e+000 112677 -5.0781e+000 -7.5184e+001  2.5334e+001 22286 112700,112409,112628
 3.9000e+000 112726  1.8394e+001 -6.0311e+001  4.4752e+001 22286 112487,112435,112700
 3.9000e+000 112749  2.8516e+001 -6.2178e+001  2.1077e+001 22286 112487,112700,112628
 3.9000e+000 112798  2.2434e+001 -5.3775e+001  1.5262e+001 22286 112487,112628,112772
 3.9000e+000 112821  7.8663e+000 -3.7324e+001  2.2765e+001 22286 112487,112772,112331
 3.9000e+000 112924 -1.0345e-001  8.9526e-001  3.1238e+000 21974 112846,112898,112872
 3.9000e+000 113223 -6.9642e+000 -1.3384e+002  1.5741e+001 21420 112949,113053,112975
 3.9000e+000 113200  8.7563e+000 -1.1430e+002  8.2855e+000 21420 112949,113079,113053
 3.9000e+000 113177  1.1876e+002 -1.0419e+002  5.6712e+001 21420 112975,113053,113001
 3.9000e+000 113154 -5.4863e+001 -2.0154e+002  1.7889e+001 21420 113001,113053,113027
 3.9000e+000 113131 -1.4178e+001 -6.2524e+001 -2.9981e+001 21420 112949,113105,113079
 3.9000e+000 113605 -2.2419e+001 -1.2832e+002  4.2811e+001 20716 113331,113435,113357
 3.9000e+000 113582 -9.2290e+000 -7.4397e+001  3.7627e+001 20716 113331,113461,113435
 3.9000e+000 113559 -3.5541e-001 -1.3157e+002 -2.2298e+001 20716 113383,113435,113409
 3.9000e+000 113536 -4.1996e+001 -1.0381e+002 -1.3159e+001 20716 113357,113435,113383
 3.9000e+000 113513 -9.2574e+000 -3.8988e+001  8.1764e+000 20716 113331,113487,113461
 3.9000e+000 113853 -6.0182e+000 -1.3872e+002  2.5247e+000 20290 113876,113680,113654
 3.9000e+000 113830  1.3533e+001 -1.4690e+002 -2.9243e+000 20290 113876,113654,113628
 3.9000e+000 113807 -1.8817e+001 -1.6419e+002 -1.2831e+001 20290 113948,113732,113680
 3.9000e+000 113784  6.7161e+001 -1.4437e+002 -2.3394e+001 20290 113680,113732,113706
 3.9000e+000 113902 -4.7214e+000 -1.4558e+002  6.4473e-001 20290 113948,113680,113876
 3.9000e+000 113925 -9.8951e+000 -1.4698e+002  7.0106e-001 20290 113758,113876,113628
 3.9000e+000 113974 -3.4817e+001 -1.4710e+002 -1.8499e+001 20290 113758,113732,113948
 3.9000e+000 113997 -3.3552e+001 -1.4579e+002 -8.1685e+000 20290 113758,113948,113876
 3.9000e+000 114365 -9.3249e+000 -9.2721e+001  3.0466e-001 19900 114146,114198,114172
 3.9000e+000 114342 -1.3540e+001 -9.4511e+001  3.4589e-001 19900 114042,114198,114146
 3.9000e+000 114319 -6.6932e+000 -8.9214e+001 -3.2767e+000 19900 114042,114224,114198
 3.9000e+000 114296 -3.6597e+001 -8.9241e+001 -2.5173e+000 19900 114094,114146,114120
 3.9000e+000 114273 -1.5340e+001 -8.8790e+001 -5.5002e+000 19900 114042,114146,114094
 3.9000e+000 114250 -3.0093e+001 -9.1361e+001 -1.7339e+000 19900 114042,114094,114068
 3.9000e+000 114566  9.5943e+000 -1.0081e+002  9.3570e+000 19496 114442,114494,114468
 3.9000e+000 114543  3.5713e+001 -6.4822e+001  2.0780e+001 19496 114416,114494,114442
 3.9000e+000 114520 -1.0604e+000 -4.6289e+001  4.0542e+001 19496 114390,114494,114416
 3.9000e+000 114767  1.2175e+001 -9.1222e+001  3.2781e+000 19042 114790,114669,114643
 3.9000e+000 114744  1.0224e+001 -8.9058e+001  4.2292e+000 19042 114790,114643,114591
 3.9000e+000 114721  1.7160e+001 -8.6971e+001  1.2111e+001 19042 114591,114643,114617
 3.9000e+000 114816  1.1776e+001 -8.9149e+001  2.4615e+000 19042 114695,114669,114790
 3.9000e+000 114839  1.1036e+001 -8.5413e+001  3.5542e+000 19042 114695,114790,114591
 3.9000e+000 114991 -3.5335e+001 -1.0056e+002 -2.0140e-002 18488 114864,114916,114890
 3.9000e+000 114968 -2.6896e+001 -1.0006e+002 -2.5904e+000 18488 114864,114942,114916
 3.9000e+000 115192  9.8963e+001 -4.7420e+001  1.5510e+001 18098 115215,115042,115016
 3.9000e+000 115169  6.1740e+001 -1.4755e+001 -5.3393e+000 18098 115215,115016,115120
 3.9000e+000 115146  6.7780e+001 -4.9328e+001 -1.3337e+001 18098 115287,115094,115068
 3.9000e+000 115241  7.0659e+001 -1.0650e+002  2.5336e+000 18098 115068,115042,115215
 3.9000e+000 115264  6.8950e+001 -4.0397e+001 -5.1557e-001 18098 115287,115068,115215
 3.9000e+000 115313  5.1871e+001 -5.8974e+001 -1.9524e+001 18098 115120,115094,115287
 3.9000e+000 115336  4.6766e+001 -5.3264e+001 -7.4949e+000 18098 115120,115287,115215
 3.9000e+000 115846  8.7429e+001 -1.8455e+002 -7.3887e+001 17644 115653,115705,115679
 3.9000e+000 115823  2.5227e+001 -1.6116e+002 -3.5743e+001 17644 115627,115705,115653
 3.9000e+000 115800  7.6825e+001 -8.1704e+001 -1.1796e+001 17644 115549,115705,115627
 3.9000e+000 115777  1.8923e+001 -1.4027e+002  1.8577e+001 17644 115549,115627,115575
 3.9000e+000 115754  3.4101e+001 -8.9647e+001 -7.7229e-002 17644 115523,115705,115549
 3.9000e+000 115731 -3.9642e+001 -1.1783e+002 -9.5097e+000 17644 115575,115627,115601
 3.9000e+000 116067 -5.3923e+001 -2.7591e+002 -9.6391e+000 17116 115891,115943,115917
 3.9000e+000 116044 -9.5284e+001 -3.1005e+002  5.3065e+000 17116 115891,115995,115943
 3.9000e+000 116021 -9.2590e+001 -2.7086e+002  3.7468e+000 17116 115943,115995,115969
 3.9000e+000 116288 -1.8959e+001 -1.8361e+002  3.1657e+001 16704 116164,116216,116190
 3.9000e+000 116265 -4.8646e+001 -2.3582e+002  1.9096e+001 16704 116112,116216,116164
 3.9000e+000 116242 -8.2715e+001 -2.2501e+002 -4.8090e+000 16704 116112,116164,116138
 3.9000e+000 116489 -1.3097e+001 -1.0972e+002 -5.2376e+000 16434 116339,116417,116365
 3.9000e+000 116466 -2.4338e+001 -1.1195e+002 -6.1699e-001 16434 116313,116417,116339
 3.9000e+000 116443 -5.9702e+001 -1.4210e+002  2.6171e+001 16434 116365,116417,116391
 3.9000e+000 116592  1.4508e+001 -1.6034e+002  2.5493e+000 15967 116514,116566,116540
 3.9000e+000 116695 -1.6189e+001 -2.5138e+002 -3.2052e+001 15552 116617,116669,116643
 3.9000e+000 116798 -8.1698e+000 -8.7262e+001  0.0000e+000 421 116720,116772,116746
 4.0000e+000 69066  2.3621e+000 -2.4095e+002 -4.2058e-001 68738 68965,69017,68991
 4.0000e+000 69043  3.0375e+001 -1.8123e+002  4.7869e+002 68738 68939,69017,68965
 4.0000e+000 69371 -1.1570e+001 -3.6610e+001 -1.4937e+001 68426 69172,69250,69198
 4.0000e+000 69348  6.4598e-001 -7.7320e+001  7.9480e+000 68426 69146,69250,69172
 4.0000e+000 69325 -4.5351e+000 -1.0980e+001  3.3638e+000 68426 69198,69250,69224
 4.0000e+000 69302 -1.5517e+001 -8.1731e+001  4.1400e+000 68426 69146,69276,69250
 4.0000e+000 69521  1.1183e+001 -1.2196e+001 -4.8243e+000 68228 69420,69472,69446
 4.0000e+000 69498 -5.3135e+000  1.9003e-001 -1.9850e+001 68228 69394,69472,69420
 4.0000e+000 69781 -8.5694e+000  1.4424e+001  6.7538e+000 68030 69631,69683,69657
 4.0000e+000 69758  3.6905e+000 -1.9830e+001 -7.4862e+000 68030 69631,69709,69683
 4.0000e+000 69735 -5.5764e-001  1.2423e+001  1.8109e+001 68030 69605,69709,69631
 4.0000e+000 70078  1.5557e+000  2.1590e+001 -3.5838e+000 67832 69882,69934,69908
 4.0000e+000 70055 -4.1979e+000 -4.7545e-001  8.4353e+000 67832 69856,69934,69882
 4.0000e+000 70032 -3.7203e-002 -1.1676e+001 -2.0756e+000 67832 69830,69934,69856
 4.0000e+000 70009  2.3172e+000 -6.3550e+000 -8.6816e+000 67832 69804,69934,69830
 4.0000e+000 69986 -9.6540e+000  3.1633e+001  1.0127e+001 67832 69804,69960,69934
 4.0000e+000 70586 -2.1100e+000 -2.7228e+001  1.1186e+001 67634 70609,70419,70341
 4.0000e+000 70563 -1.5110e+000 -4.6096e+001  1.7838e+001 67634 70681,70609,70341
 4.0000e+000 70540 -8.6364e+000 -4.8085e+001  1.4342e+001 67634 70681,70341,70315
 4.0000e+000 70517 -7.6234e+000 -2.0991e+001  2.2264e+001 67634 70341,70419,70367
 4.0000e+000 70494 -1.2574e+001  2.2561e+001 -7.0710e+000 67634 70263,70445,70289
 4.0000e+000 70471  1.4091e+001 -1.0003e+000  1.3905e+001 67634 70367,70419,70393
 4.0000e+000 70635 -3.1647e-001  2.0736e+001  6.5375e+000 67634 70445,70419,70609
 4.0000e+000 70658 -1.1114e+001 -3.2061e+001  1.2977e+001 67634 70445,70609,70289
 4.0000e+000 70707 -4.6194e+000 -4.5253e+001  3.5190e+000 67634 70289,70609,70681
 4.0000e+000 70730 -2.1296e+001 -5.0449e+001  1.0547e+000 67634 70289,70681,70315
 4.0000e+000 71108  2.3464e+001  4.5228e+001 -4.9599e+000 67344 71131,70912,70886
 4.0000e+000 71085 -5.1276e-001 -1.6281e+001  8.1762e+000 67344 71131,70886,70860
 4.0000e+000 71062 -3.4107e+000 -1.6479e+001  1.3859e+001 67344 71203,70938,70912
 4.0000e+000 71039  1.5981e+001 -1.3072e+001  1.5177e+001 67344 70834,70990,70860
 4.0000e+000 71016  3.5959e+000 -3.4792e+001 -2.1875e+000 67344 70938,70990,70964
 4.0000e+000 71157 -2.0164e+000 -3.5641e+000  1.5145e+001 67344 71203,70912,71131
 4.0000e+000 71180  1.1278e+001 -1.4134e+001  1.4654e+001 67344 70990,71131,70860
 4.0000e+000 71229  3.4689e+000 -4.1705e+001  8.3700e+000 67344 70990,70938,71203
 4.0000e+000 71252  7.8173e+000 -2.3324e+001  6.3168e+000 67344 70990,71203,71131
 4.0000e+000 71603  6.6780e+000 -4.3815e+001  1.1071e+001 67032 71378,71482,71404
 4.0000e+000 71580 -5.6580e+000 -3.4215e+001  1.1148e+001 67032 71378,71508,71482
 4.0000e+000 71557 -8.8468e-002 -2.3028e+001  1.9811e+001 67032 71404,71456,71430
 4.0000e+000 71534  7.6568e-001 -6.1938e+001  6.3165e+000 67032 71404,71482,71456
 4.0000e+000 72003  1.6511e+001  6.7387e-001  1.0048e+001 66834 71755,71859,71781
 4.0000e+000 71980  7.0977e+000 -7.5738e+001 -1.6003e+000 66834 71755,71885,71859
 4.0000e+000 71957  4.4224e-001 -1.5501e+000 -3.8093e+000 66834 71781,71833,71807
 4.0000e+000 71934 -7.3525e+000 -7.6631e+001 -1.2219e+001 66834 71781,71859,71833
 4.0000e+000 71911  3.4201e+001 -3.2794e+000  1.7949e+001 66834 71729,71885,71755
 4.0000e+000 72430  1.7780e+001 -1.3421e+001 -2.6230e+000 66266 72237,72289,72263
 4.0000e+000 72407  1.1316e+001 -3.0496e+001  1.8219e+000 66266 72133,72289,72237
 4.0000e+000 72384 -3.2209e-001 -5.4120e+000 -3.7388e+000 66266 72133,72237,72211
 4.0000e+000 72361 -1.0247e+001 -4.8559e+001 -7.6606e+000 66266 72107,72289,72133
 4.0000e+000 72338 -9.5356e+000 -3.1888e+001  2.0148e+001 66266 72133,72211,72185
 4.0000e+000 72315 -5.9127e+000 -5.5028e+001  1.5212e+001 66266 72133,72185,72159
 4.0000e+000 72580  1.5876e+000 -5.8897e+000 -1.7797e+000 65968 72479,72531,72505
 4.0000e+000 72557  4.6432e-001  5.6298e+000 -4.5746e-001 65968 72453,72531,72479
 4.0000e+000 72960  1.0963e+001  5.6249e+001 -1.4185e+000 65621 72983,72738,72712
 4.0000e+000 72937  3.8852e+001  3.9538e+000 -4.0491e+000 65621 72983,72712,72686
 4.0000e+000 72914  1.5786e+001 -3.6940e+001 -7.0293e+000 65621 72738,72842,72764
 4.0000e+000 72891 -4.4829e+000 -4.8078e+001 -1.8901e+000 65621 72764,72842,72816
 4.0000e+000 72868 -2.5986e+001 -9.8698e+001  1.1387e+001 65621 72764,72816,72790
 4.0000e+000 73009  2.4444e+001  1.3732e+001  6.3620e+000 65621 72842,72738,72983
 4.0000e+000 73032  1.7539e+001 -8.4210e+001  8.0651e+000 65621 72842,72983,72686
 4.0000e+000 73361  9.4553e+000 -1.5386e+002 -1.8360e-001 65281 73456,73384,73188
 4.0000e+000 73338 -7.3901e+000 -1.2370e+002  2.0007e+001 65281 73384,73162,73136
 4.0000e+000 73315 -2.9195e+000 -4.2671e+001  1.3110e+001 65281 73188,73240,73214
 4.0000e+000 73292  1.5343e+001  3.3218e+000 -1.2544e+001 65281 73136,73266,73240
 4.0000e+000 73410 -2.2574e+001 -1.3585e+002 -5.2552e+000 65281 73240,73188,73384
 4.0000e+000 73433 -1.2619e+001 -1.6112e+001  5.5132e+000 65281 73240,73384,73136
 4.0000e+000 73482 -1.0421e+000 -2.0300e+002 -1.8094e+001 65281 73162,73384,73456
 4.0000e+000 73711 -3.9934e+000  6.5103e+000 -1.4801e+001 64820 73734,73610,73584
 4.0000e+000 73688 -7.3296e+000 -1.5973e+000 -1.3879e+001 64820 73734,73584,73662
 4.0000e+000 73760  2.2757e+001  2.1017e+001  1.4186e+001 64820 73636,73610,73734
 4.0000e+000 73783 -3.3236e+001 -3.1699e+000 -5.6828e+000 64820 73806,73734,73662
 4.0000e+000 73832 -5.0520e+000 -2.3704e+001 -5.3689e-001 64820 73636,73734,73806
 4.0000e+000 74112  8.9475e+000  8.9604e+000 -8.2787e+000 64622 74278,74135,73988
 4.0000e+000 74089 -2.2332e+000 -3.5919e+000  2.6196e+000 64622 74135,73936,74040
 4.0000e+000 74066  1.0674e+001  9.8566e+000 -1.6212e+001 64622 74278,73988,73962
 4.0000e+000 74161 -4.6734e+000  8.3340e-001 -4.8473e+000 64622 74014,73988,74135
 4.0000e+000 74184  7.1234e-002  1.8870e-001  6.4201e-001 64622 74207,74135,74040
 4.0000e+000 74233  2.7413e+000  4.8784e+000 -3.1856e+000 64622 74014,74135,74207
 4.0000e+000 74304  1.9740e+000 -7.7680e+000 -1.6713e-001 64622 73936,74135,74278
 4.0000e+000 74327  9.7084e+000 -2.1050e+000 -8.9763e+000 64622 73936,74278,73962
 4.0000e+000 74526  8.7327e+000  1.3586e+001 -2.5456e-001 64424 74621,74549,74402
 4.0000e+000 74503 -1.0740e+001 -8.7191e-001  8.3336e+000 64424 74549,74350,74454
 4.0000e+000 74480  1.5038e+001  1.7863e+001 -3.4811e+000 64424 74621,74402,74376
 4.0000e+000 74575  5.6013e+000 -7.2363e-001  4.6080e+000 64424 74428,74402,74549
 4.0000e+000 74598  4.2881e+000 -5.3508e-001  7.3422e+000 64424 74693,74549,74454
 4.0000e+000 74647  2.9187e+000  8.1601e+000  1.2267e+001 64424 74350,74549,74621
 4.0000e+000 74670  1.1988e+001  1.2888e+001  9.0228e+000 64424 74350,74621,74376
 4.0000e+000 74719  1.3229e+000 -1.2782e+001  8.8543e-001 64424 74428,74549,74693
 4.0000e+000 75123 -1.6530e+000 -1.2036e+002  2.9775e+001 64126 74875,74953,74927
 4.0000e+000 75100  1.6767e+000 -1.4113e+002  1.3905e+001 64126 74875,74979,74953
 4.0000e+000 75077 -9.6776e-001 -5.7575e+001 -1.2962e+001 64126 74875,75005,74979
 4.0000e+000 75054  1.1763e+001 -1.1691e+002  3.8885e+001 64126 74875,74927,74901
 4.0000e+000 75031 -6.1828e+000 -1.2304e+001  6.6633e+000 64126 74849,75005,74875
 4.0000e+000 75224 -1.1154e+001 -7.4134e+001  9.3397e+000 63836 75146,75198,75172
 4.0000e+000 75472  1.4748e+001 -1.7597e+001  1.1575e+001 63375 75273,75351,75325
 4.0000e+000 75449 -1.2328e+001 -2.4697e+001  7.3215e+000 63375 75273,75377,75351
 4.0000e+000 75426 -3.2250e+001 -3.7888e+001  1.3343e+000 63375 75247,75377,75273
 4.0000e+000 75403  2.5604e+001 -9.0349e+000  5.1626e+000 63375 75273,75325,75299
 4.0000e+000 75673  1.3142e+001 -1.6657e+001  9.1217e+000 63063 75523,75575,75549
 4.0000e+000 75650  1.0326e+001 -5.2067e+001 -8.4191e+000 63063 75497,75575,75523
 4.0000e+000 75627  1.3121e+001 -5.9741e+001  1.0560e+001 63063 75497,75601,75575
 4.0000e+000 75874  1.8379e+001 -4.3274e+001 -2.8505e+000 62716 75897,75750,75724
 4.0000e+000 75851  9.4797e+000 -3.3309e+001 -5.1249e-001 62716 75897,75724,75698
 4.0000e+000 75828  1.5556e+000 -2.6098e+001 -1.3618e+001 62716 75698,75802,75776
 4.0000e+000 75923  3.3893e+001 -3.1702e+001 -7.8988e+000 62716 75776,75750,75897
 4.0000e+000 75946  1.5125e+001 -3.0211e+001 -2.2507e+000 62716 75776,75897,75698
 4.0000e+000 76328 -1.0274e+001 -6.1070e+001  3.4810e+000 62198 76495,76351,76158
 4.0000e+000 76305 -1.7301e+001 -6.1276e+001  5.6677e+000 62198 76351,76080,76054
 4.0000e+000 76282 -1.2812e+000 -7.7164e+001  7.2285e-001 62198 76423,76184,76158
 4.0000e+000 76259 -1.2082e+001 -6.0809e+001  4.2136e+000 62198 76495,76158,76106
 4.0000e+000 76236 -2.0485e+001 -8.3088e+001  1.4741e+001 62198 76106,76158,76132
 4.0000e+000 76377 -1.2164e+001 -6.5229e+001 -2.5909e+000 62198 76423,76158,76351
 4.0000e+000 76400 -2.0370e+001 -5.9011e+001 -5.3491e+000 62198 76210,76351,76054
 4.0000e+000 76449  8.3297e+000 -6.7512e+001 -3.8122e+000 62198 76210,76184,76423
 4.0000e+000 76472  5.3943e-001 -5.5140e+001 -7.0894e+000 62198 76210,76423,76351
 4.0000e+000 76521 -1.3706e+001 -5.9404e+001  4.9936e+000 62198 76080,76351,76495
 4.0000e+000 76544 -1.8036e+001 -6.2089e+001  6.6116e+000 62198 76080,76495,76106
 4.0000e+000 76841  1.2125e+001 -5.7893e+001  1.6667e+001 61751 76936,76864,76645
 4.0000e+000 76818  2.3226e+001 -6.3791e+001 -1.5527e+001 61751 76864,76567,76723
 4.0000e+000 76795  1.6310e+001 -2.4195e+001  1.7456e+001 61751 76936,76645,76593
 4.0000e+000 76772 -5.3709e+001 -1.5898e+002  3.1502e+001 61751 77008,76697,76671
 4.0000e+000 76749 -7.7519e-001 -7.5773e+000 -2.7434e+000 61751 76593,76645,76619
 4.0000e+000 76890 -1.3225e+000 -9.0025e+001  1.9293e+001 61751 76671,76645,76864
 4.0000e+000 76913 -1.3633e+001 -8.5832e+001  6.7827e+000 61751 77008,76671,76864
 4.0000e+000 76962  2.2286e+001 -1.0265e+002 -9.3919e-002 61751 76567,76864,76936
 4.0000e+000 76985  2.5543e+001 -7.3203e+001  4.4037e+000 61751 76567,76936,76593
 4.0000e+000 77034  6.7059e+000 -1.1762e+002 -2.1651e+001 61751 76723,76697,77008
 4.0000e+000 77057 -1.8087e+000 -1.2218e+002 -1.7792e+001 61751 76723,77008,76864
 4.0000e+000 77207 -1.6334e+001 -2.5084e+001  5.3659e+000 61418 77106,77158,77132
 4.0000e+000 77184  4.0247e+001 -7.6883e+001  1.7360e+001 61418 77080,77158,77106
 4.0000e+000 77638  2.8074e+001 -8.2539e+001 -1.6149e+001 60814 77733,77661,77471
 4.0000e+000 77615 -7.0403e-001 -7.6944e+001 -4.5491e+000 60814 77661,77393,77315
 4.0000e+000 77592  4.0414e+001 -7.0379e+001 -1.0709e+001 60814 77733,77471,77445
 4.0000e+000 77569 -3.3601e+001 -1.9246e+002 -2.3733e+001 60814 77315,77367,77341
 4.0000e+000 77546 -4.0855e-001 -1.2869e+002 -1.1645e+001 60814 77315,77393,77367
 4.0000e+000 77523  2.9469e+001 -1.6001e+001 -2.9027e+001 60814 77393,77445,77419
 4.0000e+000 77687 -7.7646e+000 -9.6658e+001 -2.7948e+001 60814 77497,77471,77661
 4.0000e+000 77710  1.5834e+000 -7.4857e+001 -5.6629e+000 60814 77497,77661,77315
 4.0000e+000 77759  1.0316e+000 -5.9422e+001 -5.8491e+000 60814 77393,77661,77733
 4.0000e+000 77782  2.1044e+001 -4.3919e+001  1.6986e+000 60814 77393,77733,77445
 4.0000e+000 78337  4.6291e-001 -7.3410e+000  6.2534e+000 60210 78360,78017,77965
 4.0000e+000 78314  2.3648e-001 -2.8216e+001  4.5962e+000 60210 78360,77965,78173
 4.0000e+000 78291  9.7150e+000  5.3135e+000  1.2855e+001 60210 78432,78043,78017
 4.0000e+000 78268  6.2404e-001 -1.5970e+001  1.0682e+001 60210 77965,78017,77991
 4.0000e+000 78245  3.1672e+000  1.5823e+001  9.1762e+000 60210 78043,78095,78069
 4.0000e+000 78222 -5.5472e+000 -3.6660e+001  6.1582e+000 60210 78095,78173,78121
 4.0000e+000 78199 -1.5906e+000 -2.8355e+001 -3.6821e+000 60210 78121,78173,78147
 4.0000e+000 78386  3.4704e+000  1.6989e+000  9.5708e+000 60210 78432,78017,78360
 4.0000e+000 78409  3.9752e+000 -7.3773e+000  5.4510e+000 60210 78095,78360,78173
 4.0000e+000 78458  5.1874e+000  3.5813e-001  5.0296e+000 60210 78095,78043,78432
 4.0000e+000 78481  9.4132e-001 -3.1099e+000  1.8214e+000 60210 78095,78432,78360
 4.0000e+000 78680 -2.1892e+001 -2.4454e+001 -1.1247e+001 59848 78703,78556,78530
 4.0000e+000 78657 -1.5282e+001 -4.6164e+001 -3.6548e+001 59848 78703,78530,78504
 4.0000e+000 78634 -2.2524e+001 -1.1428e+002 -1.7924e+001 59848 78504,78608,78582
 4.0000e+000 78729 -2.9795e+001 -7.2838e+001 -3.8949e+000 59848 78582,78556,78703
 4.0000e+000 78752 -1.6239e+001 -7.4687e+001 -3.7893e+001 59848 78582,78703,78504
 4.0000e+000 78951  2.7096e+000  7.6811e+000  1.5097e-001 59344 78974,78801,78775
 4.0000e+000 78928 -8.9801e+000 -2.5677e+001 -1.2863e+001 59344 79046,78974,78775
 4.0000e+000 78905 -4.1113e+000 -5.8310e+001 -1.1583e+001 59344 79046,78775,78879
 4.0000e+000 79000  1.5830e+001  1.7891e+001  1.7638e+001 59344 78827,78801,78974
 4.0000e+000 79023  8.1706e-001  1.6856e+001 -1.5035e+000 59344 78827,78974,78853
 4.0000e+000 79072 -1.1431e+001  1.1366e+001 -3.6394e-001 59344 78853,78974,79046
 4.0000e+000 79095  3.4478e+000 -9.5058e+000  2.9544e+000 59344 78853,79046,78879
 4.0000e+000 79296  1.1665e+001 -3.1840e+001  3.9621e+000 58711 79319,79172,79146
 4.0000e+000 79273  1.2396e+001 -3.4731e+001  3.1361e+000 58711 79319,79146,79120
 4.0000e+000 79250  9.0968e+000 -4.6031e+001  2.6543e+001 58711 79172,79224,79198
 4.0000e+000 79345  1.1808e+001 -3.4853e+001  4.3207e+000 58711 79224,79172,79319
 4.0000e+000 79368  1.2571e+001 -3.7685e+001  3.9404e+000 58711 79224,79319,79120
 4.0000e+000 79667 -1.9542e+000 -2.1552e+001 -2.7391e+000 58285 79690,79471,79393
 4.0000e+000 79644  3.5689e+000 -4.0741e+001 -1.4179e+001 58285 79690,79393,79549
 4.0000e+000 79621  1.5710e+001 -3.9261e+001  1.3741e+001 58285 79393,79471,79419
 4.0000e+000 79598  1.1095e+001 -1.4111e+001 -3.4050e+000 58285 79497,79549,79523
 4.0000e+000 79575  6.1360e+000 -4.5202e+001  1.7625e+001 58285 79419,79471,79445
 4.0000e+000 79716  4.8470e+000 -6.1097e+000  5.8081e+000 58285 79497,79471,79690
 4.0000e+000 79739  1.2492e+001 -3.0209e+001 -3.4893e+000 58285 79497,79690,79549
 4.0000e+000 80249 -1.2667e+001  4.9160e+000  7.3964e-002 57831 80272,79978,79952
 4.0000e+000 80226 -7.7924e+000  1.0140e+001 -5.1191e+000 57831 80272,79952,80108
 4.0000e+000 80203  5.8833e+000  1.6685e+001 -2.3909e+000 57831 79926,80108,79952
 4.0000e+000 80180  3.1807e+000  2.6051e+000  1.2248e+001 57831 80004,80082,80030
 4.0000e+000 80157 -2.8165e-001  1.0158e+001  6.8570e+000 57831 80004,80108,80082
 4.0000e+000 80134  9.9890e+000  9.1081e-001  2.4147e+000 57831 80030,80082,80056
 4.0000e+000 80298 -1.8364e+001 -1.4193e+001  1.2413e+001 57831 80004,79978,80272
 4.0000e+000 80321 -1.1311e+000  2.7699e+000  4.6476e+000 57831 80004,80272,80108
 4.0000e+000 80618 -2.3923e-001 -4.6854e+001 -1.0293e+001 57077 80344,80448,80422
 4.0000e+000 80595  4.3650e-001 -5.0184e+001 -4.4355e+000 57077 80344,80500,80448
 4.0000e+000 80572  2.0950e+001 -1.8382e+000 -1.6410e+001 57077 80344,80422,80370
 4.0000e+000 80549 -6.5356e+000 -1.0839e+000 -8.7316e+000 57077 80370,80422,80396
 4.0000e+000 80526 -2.4506e+001 -1.1201e+002  8.7191e+000 57077 80448,80500,80474
 4.0000e+000 80768 -1.1762e+001 -1.6617e+000  1.2686e+000 56787 80791,80693,80667
 4.0000e+000 80745 -9.3972e+000 -5.4675e+000 -4.1380e+000 56787 80791,80667,80641
 4.0000e+000 80817 -1.0277e+001 -4.2886e+000 -9.6460e-001 56787 80719,80693,80791
 4.0000e+000 80840 -2.2542e+001 -3.1114e+001 -9.0263e+000 56787 80719,80791,80641
 4.0000e+000 81429 -1.0600e+001  3.9437e+000  7.8457e+000 56497 81452,81158,81132
 4.0000e+000 81406  1.3323e+001  8.5714e-001  1.6955e+000 56497 81452,81132,81288
 4.0000e+000 81383  1.2854e+001  2.3269e+001 -8.3671e+000 56497 81524,81184,81158
 4.0000e+000 81360  1.4346e+001  2.3294e+001 -2.5106e+001 56497 81210,81288,81236
 4.0000e+000 81337 -8.8248e-001 -5.7611e+000 -4.8983e-002 56497 81106,81288,81132
 4.0000e+000 81314  2.9753e+001  1.1114e+001 -2.5288e+001 56497 81236,81288,81262
 4.0000e+000 81478  6.5363e+000  7.3804e+000  4.7124e+000 56497 81524,81158,81452
 4.0000e+000 81501  1.1316e+001  8.8664e+000  2.2319e+000 56497 81210,81452,81288
 4.0000e+000 81550  1.7621e+001  3.9854e+001 -1.9284e+001 56497 81210,81184,81524
 4.0000e+000 81573  1.3339e+001  3.4936e+001 -5.1117e+000 56497 81210,81524,81452
 4.0000e+000 81870  5.0941e+000  8.4746e-001  8.3449e+000 55979 81893,81674,81648
 4.0000e+000 81847  4.1167e+000 -1.3245e+000  3.2649e+000 55979 81893,81648,81752
 4.0000e+000 81824 -2.3663e+000  6.8241e+000  7.9192e-001 55979 81596,81752,81648
 4.0000e+000 81801  1.2615e+001  7.3342e+000  9.6033e+000 55979 81674,81726,81700
 4.0000e+000 81778  1.3520e+000  1.6276e+001 -2.7458e+000 55979 81596,81648,81622
 4.0000e+000 81919  5.3604e+000 -3.3576e+000  6.1986e+000 55979 81726,81674,81893
 4.0000e+000 81942  2.6046e+000 -7.5479e+000  9.2488e-001 55979 81726,81893,81752
 4.0000e+000 82371 -1.1543e+001 -4.7488e+000 -8.0814e+000 55631 82100,82204,82152
 4.0000e+000 82348  1.8136e+001  2.7166e+000 -4.8074e+000 55631 82100,82230,82204
 4.0000e+000 82325  4.6529e+001  1.9006e+001 -8.2889e+000 55631 82100,82152,82126
 4.0000e+000 82302  1.7738e+001  5.1323e+000  2.6220e+000 55631 82074,82230,82100
 4.0000e+000 82279 -1.5442e+001 -2.1475e+001 -1.9205e+001 55631 82152,82204,82178
 4.0000e+000 82256  4.5593e+000  3.1652e+000 -2.7838e+000 55631 82048,82230,82074
 4.0000e+000 82521  2.0243e+001 -1.7831e+001 -4.0322e+000 55227 82544,82420,82394
 4.0000e+000 82498  1.8125e+001 -3.5376e+001 -1.4352e+000 55227 82544,82394,82472
 4.0000e+000 82570  1.2818e+001 -3.3808e+000 -3.6938e+000 55227 82446,82420,82544
 4.0000e+000 82593  1.1859e+001 -1.7259e+001  3.4790e+000 55227 82446,82544,82472
 4.0000e+000 82875  8.8666e+000  1.2942e+000  5.0924e+000 54979 82699,82777,82725
 4.0000e+000 82852 -4.3239e+000  2.9584e+001  7.0827e+000 54979 82699,82803,82777
 4.0000e+000 82829 -1.3119e+000 -3.9676e+000  2.9573e+000 54979 82725,82777,82751
 4.0000e+000 83204  3.8395e+000  3.3484e+000  3.7547e+000 54475 83005,83083,83057
 4.0000e+000 83181 -6.1047e+000 -7.6810e+000  1.0960e+001 54475 82979,83083,83005
 4.0000e+000 83158  6.0278e+000  2.6837e+000  2.3477e+000 54475 83005,83057,83031
 4.0000e+000 83135 -1.0858e+000  3.8301e+000 -5.7687e+000 54475 82979,83109,83083
 4.0000e+000 83582  2.2776e+001  1.7851e+001 -1.7328e+001 54071 83605,83438,83412
 4.0000e+000 83559  1.1943e+001  1.3475e+001 -2.2886e+000 54071 83749,83605,83412
 4.0000e+000 83536 -3.0765e+000 -3.4826e+000  8.0451e+000 54071 83677,83360,83334
 4.0000e+000 83513  1.1020e+001  1.6411e+001 -2.2540e+000 54071 83749,83412,83677
 4.0000e+000 83490 -3.5988e-001 -5.4645e+000  2.9866e+000 54071 83308,83464,83334
 4.0000e+000 83631  1.8444e+000  7.0419e+000 -1.1886e+001 54071 83464,83438,83605
 4.0000e+000 83654  4.4176e+000 -4.7064e+000  2.7955e+000 54071 83464,83605,83334
 4.0000e+000 83703  6.9326e+000  1.2828e+001 -6.0352e+000 54071 83386,83360,83677
 4.0000e+000 83726  1.4073e+001  4.0626e+001 -1.5865e+001 54071 83386,83677,83412
 4.0000e+000 83775  1.2394e+001  7.4680e+000 -4.5706e+000 54071 83334,83605,83749
 4.0000e+000 83798  1.1731e+001  1.0922e+001 -4.8079e+000 54071 83334,83749,83677
 4.0000e+000 84068  6.9952e+000  7.4208e+000 -3.1157e+000 53524 83869,83921,83895
 4.0000e+000 84045  7.4759e+000 -8.1316e+000  1.2996e+000 53524 83869,83947,83921
 4.0000e+000 84022  3.4780e+000 -2.0655e+001 -1.8470e+000 53524 83843,83947,83869
 4.0000e+000 83999  7.8693e+000 -2.4588e+001  6.0953e-001 53524 83843,83973,83947
 4.0000e+000 84497 -2.8902e+000 -2.9159e+001 -1.4823e+000 53184 84200,84330,84252
 4.0000e+000 84474  1.0969e+001  4.2386e+000 -2.1166e+000 53184 84200,84356,84330
 4.0000e+000 84451 -7.1523e+000  2.0563e+001 -5.4272e+000 53184 84200,84252,84226
 4.0000e+000 84428 -2.7590e+000 -2.3164e+001 -8.2952e+000 53184 84252,84330,84278
 4.0000e+000 84405  2.8096e+001  1.2506e+001 -4.9903e+000 53184 84174,84356,84200
 4.0000e+000 84382 -3.4945e-002 -2.3447e+001 -1.0423e+000 53184 84278,84330,84304
 4.0000e+000 84954 -3.1896e-001 -1.5172e+000  3.7118e+000 52680 84706,84836,84784
 4.0000e+000 84931  2.3748e+001  6.9262e+000  9.1203e+000 52680 84680,84836,84706
 4.0000e+000 84908  7.9609e+000 -4.7345e+001 -4.6032e+000 52680 84784,84836,84810
 4.0000e+000 84885  7.1717e+000 -3.4382e+001 -9.7276e+000 52680 84706,84784,84732
 4.0000e+000 84862  6.3430e+000 -4.7500e+001  5.9680e+000 52680 84732,84784,84758
 4.0000e+000 85202 -1.3236e+001 -4.2707e+001  3.4525e+000 52226 85029,85081,85055
 4.0000e+000 85179 -2.3287e+000 -2.2349e+001  1.0267e+001 52226 85225,85081,85029
 4.0000e+000 85156  5.8479e+000 -2.2975e+000  2.0378e+001 52226 85225,85029,85003
 4.0000e+000 85133 -1.9490e+001 -3.7968e+001 -1.9770e+001 52226 84977,85107,85003
 4.0000e+000 85251 -1.0639e+001 -2.5813e+001 -1.0989e+001 52226 85107,85081,85225
 4.0000e+000 85274 -7.7574e+000  1.7693e+001 -4.5945e+000 52226 85107,85225,85003
 4.0000e+000 85522  1.5159e+001 -2.1718e+001  9.6122e+000 51764 85297,85349,85323
 4.0000e+000 85499  1.9376e+001 -2.0158e+001  5.3589e+000 51764 85545,85297,85427
 4.0000e+000 85476  4.7875e+000 -1.0437e+001 -1.8689e+000 51764 85545,85427,85375
 4.0000e+000 85453  6.0034e+000 -1.7197e+001 -6.2173e+000 51764 85375,85427,85401
 4.0000e+000 85571  2.8315e+001 -1.4713e+001  2.9950e+000 51764 85349,85297,85545
 4.0000e+000 85594  1.8823e+001 -1.4339e+000 -5.7457e+000 51764 85349,85545,85375
 4.0000e+000 85746 -1.0193e+001 -1.8568e+001  2.7535e+000 51374 85645,85697,85671
 4.0000e+000 85723 -1.8040e+001 -3.2370e+001 -6.1699e-001 51374 85619,85697,85645
 4.0000e+000 86256  1.0498e+001  1.4249e+001  4.6567e+000 50970 86279,86011,85959
 4.0000e+000 86233  9.7737e+000  1.0289e+001  5.7171e+000 50970 86279,85959,86115
 4.0000e+000 86210  7.3405e+000  4.1901e+000 -2.0539e+000 50970 85959,86011,85985
 4.0000e+000 86187  1.3487e+001  2.6720e+001 -1.5612e+001 50970 86037,86115,86089
 4.0000e+000 86164  1.0087e-001  5.2372e+000 -6.1151e-001 50970 85933,86115,85959
 4.0000e+000 86141  1.9828e+001  1.0506e+001 -1.2905e+001 50970 86037,86089,86063
 4.0000e+000 86305  8.5448e+000  1.9065e+001  4.6903e+000 50970 86037,86011,86279
 4.0000e+000 86328  7.5056e+000  1.4743e+001  5.8358e+000 50970 86037,86279,86115
 4.0000e+000 86478  2.6177e+001 -2.1519e+001 -7.9734e+000 50451 86351,86403,86377
 4.0000e+000 86455  1.6754e+001 -7.4899e+001 -1.1158e+001 50451 86351,86429,86403
 4.0000e+000 86907  6.4133e+000  5.3168e+000 -8.4776e+000 50047 86930,86714,86662
 4.0000e+000 86884  1.7652e+001  1.0289e+000 -6.7423e+000 50047 86930,86662,86610
 4.0000e+000 86861  3.1487e+001  2.0254e+001 -1.9604e+001 50047 87002,86740,86714
 4.0000e+000 86838  2.6393e+001  1.5189e+001 -2.1967e+001 50047 86662,86714,86688
 4.0000e+000 86815  6.3243e+000 -1.7742e+001  1.8634e+000 50047 86610,86662,86636
 4.0000e+000 86792  1.9307e+001 -6.9984e+000  1.0641e+001 50047 86584,86766,86610
 4.0000e+000 86956  1.4525e+001  8.9349e+000 -1.0572e+001 50047 87002,86714,86930
 4.0000e+000 86979  3.3210e+000 -1.5633e+001 -2.5564e-001 50047 86766,86930,86610
 4.0000e+000 87028  1.1109e+001  3.5322e+000 -1.2381e+001 50047 86766,86740,87002
 4.0000e+000 87051  5.5787e+000  3.4616e+000 -7.1972e+000 50047 86766,87002,86930
 4.0000e+000 87250 -9.0362e-001 -3.9830e+001 -3.5510e+000 49543 87273,87126,87100
 4.0000e+000 87227 -5.1944e+000 -1.8859e+001  1.2063e+001 49543 87273,87100,87074
 4.0000e+000 87204  1.0574e+001 -2.3383e+001 -7.9838e+000 49543 87126,87178,87152
 4.0000e+000 87299  1.2773e+001 -7.9391e+000 -6.7206e+000 49543 87178,87126,87273
 4.0000e+000 87322 -6.1736e-001 -5.6758e+000  1.2338e+001 49543 87178,87273,87074
 4.0000e+000 87570 -1.8817e+001 -2.1106e+001  1.7685e+001 49146 87593,87449,87397
 4.0000e+000 87547 -6.4110e+000  1.4979e+001  3.1080e+001 49146 87593,87397,87371
 4.0000e+000 87524  3.1545e+001  1.0641e+001  9.7647e+000 49146 87345,87475,87371
 4.0000e+000 87501 -8.1267e+000 -3.6852e+001  1.3394e+001 49146 87397,87449,87423
 4.0000e+000 87619 -3.5601e+001 -1.0956e+001 -8.4875e+000 49146 87475,87449,87593
 4.0000e+000 87642 -2.1984e+001  1.1325e+001  4.9767e+000 49146 87475,87593,87371
 4.0000e+000 88073 -3.9715e-001  4.0347e+000  1.5884e+000 48706 87854,87932,87880
 4.0000e+000 88050  8.5577e-001  5.2756e+000  7.9738e-001 48706 87828,87932,87854
 4.0000e+000 88027  2.2536e+000  7.1731e+000  1.4259e+000 48706 87750,87932,87828
 4.0000e+000 88004  2.0904e+001  4.4957e+001  1.1008e+001 48706 87750,87802,87776
 4.0000e+000 87981  2.3336e+000  1.1577e+001  3.5382e+000 48706 87750,87828,87802
 4.0000e+000 87958  5.4917e-001  5.2620e+000  9.4108e-002 48706 87880,87932,87906
 4.0000e+000 88402 -1.0179e+001 -7.6466e+001  1.5606e+001 48145 88203,88281,88255
 4.0000e+000 88379  7.8252e-001 -7.3333e+001  1.0464e+001 48145 88203,88307,88281
 4.0000e+000 88356 -3.8163e+000 -7.0415e+001  1.3105e+001 48145 88203,88255,88229
 4.0000e+000 88333  1.9973e+001  1.0450e+001 -5.1787e+000 48145 88177,88307,88203
 4.0000e+000 88601  4.0925e+001 -2.5136e+001  2.2751e+001 47805 88696,88624,88477
 4.0000e+000 88578  9.2375e+000 -8.7296e+000  7.7674e+000 47805 88826,88624,88451
 4.0000e+000 88555 -1.4954e+000 -1.5578e+001  2.9678e+000 47805 88826,88451,88425
 4.0000e+000 88650  2.9200e+001 -5.1011e+001  1.1738e+001 47805 88503,88477,88624
 4.0000e+000 88673  2.2927e+001 -3.0390e+001 -5.7979e+000 47805 88503,88624,88529
 4.0000e+000 88722  2.3206e+001 -2.8688e+001  2.0309e+001 47805 88451,88624,88696
 4.0000e+000 88852  1.1972e+001 -1.8261e+001 -6.3872e+000 47805 88529,88624,88826
 4.0000e+000 88875  5.4643e-001 -2.4910e+001 -1.1204e+001 47805 88529,88826,88425
 4.0000e+000 89172  5.5021e+000 -7.6460e+000  6.9809e+000 47401 89195,88976,88898
 4.0000e+000 89149 -4.2466e+000 -1.0556e+001 -1.4543e+000 47401 89195,88898,89054
 4.0000e+000 89126  3.6008e+000 -3.2676e+000  5.9126e+000 47401 88898,88976,88950
 4.0000e+000 89103  7.2216e-001 -1.5935e+001 -8.4425e+000 47401 88976,89028,89002
 4.0000e+000 89080 -1.3257e+000 -1.6240e+001  2.7723e+000 47401 88898,88950,88924
 4.0000e+000 89221  8.5594e+000 -1.3822e+001 -5.5399e+000 47401 89028,88976,89195
 4.0000e+000 89244 -1.2792e+001 -1.9901e+001 -1.4039e+001 47401 89028,89195,89054
 4.0000e+000 89575 -5.1799e+000 -6.9440e+001  3.1555e+000 47111 89350,89454,89376
 4.0000e+000 89552  1.7638e+001 -2.2787e+001 -2.0451e+001 47111 89350,89480,89454
 4.0000e+000 89529  3.5134e+000 -9.3275e+001 -2.0028e+001 47111 89376,89454,89402
 4.0000e+000 89506  1.9932e+001 -8.2618e+001  1.3468e+001 47111 89402,89454,89428
 4.0000e+000 89904  7.8398e+000  1.5443e+000  2.2008e-001 46707 89705,89757,89731
 4.0000e+000 89881  4.3715e+000 -2.8110e-001  9.3216e-001 46707 89705,89783,89757
 4.0000e+000 89858  1.1598e+000 -1.0661e+000  2.4376e+000 46707 89679,89783,89705
 4.0000e+000 89835  3.4278e+000  2.0949e+000  1.4279e+000 46707 89679,89809,89783
 4.0000e+000 90233  3.1821e+000  2.5570e+000 -4.9773e+000 46360 90034,90112,90086
 4.0000e+000 90210 -4.2809e+000  7.4406e+000  1.1349e+000 46360 90034,90138,90112
 4.0000e+000 90187 -2.3582e+000 -3.7628e+000 -2.5484e+000 46360 90034,90086,90060
 4.0000e+000 90164 -6.9229e+000 -9.1203e-001  1.8613e+000 46360 90008,90138,90034
 4.0000e+000 90530  4.1175e+000 -2.3245e+001  4.9578e+000 45662 90256,90360,90308
 4.0000e+000 90507  3.5538e+000 -1.6835e+001  8.1225e-001 45662 90256,90412,90360
 4.0000e+000 90484  2.3927e+001 -1.0220e+001 -5.4847e+000 45662 90256,90308,90282
 4.0000e+000 90461  9.3490e+000 -8.5653e-001  1.5724e+000 45662 90360,90412,90386
 4.0000e+000 90438  9.5065e+000 -2.5059e+001  3.6181e+000 45662 90308,90360,90334
 4.0000e+000 90910  2.2419e+001  3.1985e+001 -1.5331e+001 45108 90688,90766,90714
 4.0000e+000 90887  2.4339e+001 -6.8817e+000 -5.3880e+000 45108 90662,90766,90688
 4.0000e+000 90864  3.1883e+000  6.4440e+000  1.6472e+000 45108 90636,90766,90662
 4.0000e+000 90841  3.2600e+001 -1.5023e+001 -2.7865e+001 45108 90714,90766,90740
 4.0000e+000 90818  2.9771e+000  6.7898e+000  1.4036e+000 45108 90636,90792,90766
 4.0000e+000 91158 -5.8660e+000 -1.2191e+001 -1.1586e+001 44604 91181,91011,90959
 4.0000e+000 91135  2.3144e+001 -2.0394e+001 -2.7542e+001 44604 91181,90959,90933
 4.0000e+000 91112 -1.1685e+000 -5.3972e+001  1.5154e+001 44604 90959,91011,90985
 4.0000e+000 91089 -8.2141e-001 -6.6697e+001 -8.1136e+000 44604 90933,91063,91037
 4.0000e+000 91207 -1.3102e+001 -2.2930e+001 -8.4086e+000 44604 91037,91011,91181
 4.0000e+000 91230 -3.3191e+000 -6.4937e+001 -1.6292e+001 44604 91037,91181,90933
 4.0000e+000 91429  3.0266e+000 -5.3749e+001 -1.0510e+001 44264 91452,91279,91253
 4.0000e+000 91406 -2.4716e-001 -1.9917e+001 -9.9095e+000 44264 91452,91253,91357
 4.0000e+000 91383 -3.0750e+000 -5.1255e+001  1.5874e+001 44264 91279,91331,91305
 4.0000e+000 91478  4.5912e+000 -7.1581e+001 -1.1010e+001 44264 91331,91279,91452
 4.0000e+000 91501 -9.6371e+000 -5.1097e+001 -1.6362e+001 44264 91331,91452,91357
 4.0000e+000 92060 -6.7576e+000 -5.0331e+001  2.8865e+000 43860 92083,91740,91688
 4.0000e+000 92037 -3.4121e+000 -5.6798e+001  9.8422e+000 43860 92083,91688,91896
 4.0000e+000 92014 -8.5800e+000 -3.4649e+001 -1.5669e+001 43860 91766,91870,91844
 4.0000e+000 91991  4.7535e+000 -5.4587e+001 -6.3088e+000 43860 91740,91870,91766
 4.0000e+000 91968 -1.2516e-001 -1.2108e+001  2.6724e+000 43860 91766,91844,91792
 4.0000e+000 91945 -1.4494e+001 -6.5319e+001  5.5976e+000 43860 91688,91740,91714
 4.0000e+000 91922 -4.1337e+000 -7.9480e+000  2.9101e+000 43860 91792,91844,91818
 4.0000e+000 92109 -4.6169e+000 -4.2744e+001  3.4034e+000 43860 91870,91740,92083
 4.0000e+000 92132  3.3196e-001 -4.6322e+001  1.0824e+001 43860 91870,92083,91896
 4.0000e+000 92353  6.9859e+000 -5.8617e+000 -9.0986e-001 43662 92203,92255,92229
 4.0000e+000 92330  4.6137e+000 -7.2412e+000 -7.5099e-001 43662 92376,92203,92281
 4.0000e+000 92307  1.1275e+001  1.1000e+000  2.1512e+000 43662 92177,92281,92203
 4.0000e+000 92402  2.0898e+000 -8.2901e+000  6.2173e-001 43662 92255,92203,92376
 4.0000e+000 92682 -4.6111e+000 -9.4298e+001 -9.1769e+000 43464 92532,92584,92558
 4.0000e+000 92659  1.3345e+001 -3.0627e+001  1.4477e+001 43464 92506,92584,92532
 4.0000e+000 92636  8.6713e+000 -1.1059e+001 -1.1257e+001 43464 92506,92610,92584
 4.0000e+000 93013  5.4506e+000 -1.6076e+001 -1.1561e+001 42960 92866,92918,92892
 4.0000e+000 92990 -1.5885e+000 -1.4329e+001 -4.7980e+000 42960 93036,92918,92866
 4.0000e+000 92967  5.8502e+000 -2.1910e+001 -1.1587e-001 42960 93036,92866,92840
 4.0000e+000 92944  6.7990e+000  1.0164e+000  2.5017e+000 42960 92788,92918,92814
 4.0000e+000 93062  2.2086e+000 -1.0907e+001 -2.3708e+000 42960 92814,92918,93036
 4.0000e+000 93085  1.6131e+001 -1.2452e+001  3.9656e+000 42960 92814,93036,92840
 4.0000e+000 93186  8.4757e+000 -4.1289e+001 -1.1074e+001 42556 93108,93160,93134
 4.0000e+000 93554  1.6420e+001 -3.4942e+001  2.8220e+000 42052 93231,93387,93361
 4.0000e+000 93531  1.3572e+001 -3.1516e+001  1.0825e+001 42052 93231,93413,93387
 4.0000e+000 93508  1.7533e+001 -3.7779e+001  3.0609e+000 42052 93231,93361,93257
 4.0000e+000 93485  1.8003e+001  4.0956e+000 -9.6405e+000 42052 93283,93361,93335
 4.0000e+000 93462  1.2288e+001 -5.0129e+001 -7.6456e+000 42052 93257,93361,93283
 4.0000e+000 93439 -2.1233e-001 -5.4778e+000 -3.7324e-001 42052 93283,93335,93309
 4.0000e+000 94162  4.8375e+000  1.8832e+001  7.4574e-001 41498 93767,93975,93793
 4.0000e+000 94139  7.0025e-002  1.6282e+001 -1.5766e+000 41498 93741,93975,93767
 4.0000e+000 94116  2.0555e+001  6.1488e+000 -9.3566e-001 41498 93793,93975,93923
 4.0000e+000 94093  3.7218e+000 -3.2433e+001  1.4233e+001 41498 93923,93975,93949
 4.0000e+000 94070  5.3076e+000  1.0806e+001  6.1750e+000 41498 93871,93923,93897
 4.0000e+000 94047  3.2041e+000 -4.3326e+000  3.8904e+000 41498 93793,93923,93871
 4.0000e+000 94024  1.7235e-001  3.5734e+000  1.0340e+000 41498 93819,93871,93845
 4.0000e+000 94001  5.2515e+000  3.9705e+000  3.6150e+000 41498 93793,93871,93819
 4.0000e+000 94619 -1.3595e+000 -8.6136e+000 -4.9538e+000 40930 94642,94423,94371
 4.0000e+000 94596  1.2234e+001 -5.7465e+000  3.5478e+000 40930 94642,94371,94345
 4.0000e+000 94573  4.5974e+000  2.1307e+001  1.6863e+001 40930 94345,94501,94475
 4.0000e+000 94550  3.0686e+001  1.8584e+000 -1.5864e+001 40930 94371,94423,94397
 4.0000e+000 94527  1.0123e+001 -1.0392e+000 -2.1501e+000 40930 94423,94475,94449
 4.0000e+000 94668  7.9232e+000  4.7055e+000  3.0447e+000 40930 94475,94423,94642
 4.0000e+000 94691  1.5109e+001 -2.1267e+000  1.0105e+001 40930 94475,94642,94345
 4.0000e+000 95148 -2.5558e+001 -1.8251e+001 -1.2994e+001 40362 95171,94952,94926
 4.0000e+000 95125  7.2468e+000  6.5938e+000  2.9392e+001 40362 95171,94926,95004
 4.0000e+000 95102 -1.7999e+001 -3.1280e+001  1.5109e+001 40362 94874,95004,94926
 4.0000e+000 95079  9.8214e-001 -4.4553e+001  4.9435e+001 40362 94874,95030,95004
 4.0000e+000 95056 -2.7721e+001 -3.3021e+001  3.4956e+001 40362 94874,94926,94900
 4.0000e+000 95197  1.0680e+001  1.9076e+001  4.9358e+000 40362 94978,94952,95171
 4.0000e+000 95220  3.7448e+001  3.9266e+001  4.6077e+001 40362 94978,95171,95004
 4.0000e+000 95549 -2.3754e+000  9.3777e+000  2.2495e+000 39586 95350,95402,95376
 4.0000e+000 95526  8.0758e-001  1.8359e+001 -2.5832e+000 39586 95324,95402,95350
 4.0000e+000 95503 -4.2263e+000  1.6595e+001  3.6134e+000 39586 95324,95454,95402
 4.0000e+000 95480  4.9795e+000  3.0187e+001  7.6124e+000 39586 95402,95454,95428
 4.0000e+000 96055  8.4031e+000  1.2939e+001 -2.2580e+000 38968 96078,95862,95810
 4.0000e+000 96032  1.3898e+001  1.5194e+001 -3.4200e-002 38968 96078,95810,95758
 4.0000e+000 96009  6.4589e+000  2.0945e+001  2.5425e-001 38968 96150,95732,95888
 4.0000e+000 95986 -1.0118e+001  1.2093e+001  5.1285e+000 38968 95810,95862,95836
 4.0000e+000 95963  1.0459e+000  1.6523e+001  3.7711e+000 38968 95732,95914,95888
 4.0000e+000 95940  1.2479e+001  1.5735e+001  1.4040e+000 38968 95758,95810,95784
 4.0000e+000 96104  3.1231e+000  1.4841e+001 -4.9037e+000 38968 95888,95862,96078
 4.0000e+000 96127  9.0516e+000  1.9422e+001 -2.8361e+000 38968 96150,95888,96078
 4.0000e+000 96176  3.5129e+000  1.5244e+001  1.3863e+000 38968 95758,95732,96150
 4.0000e+000 96199  5.6408e+000  1.2579e+001 -1.6865e+000 38968 95758,96150,96078
 4.0000e+000 96545  3.5264e+001  3.4899e+000 -2.1841e+001 38507 96640,96568,96352
 4.0000e+000 96522 -5.6983e+000 -3.6496e+001  1.3242e+001 38507 96568,96300,96222
 4.0000e+000 96499  6.6625e+001  2.9249e+001 -5.0907e+001 38507 96640,96352,96326
 4.0000e+000 96476  3.1025e+001 -1.3721e+001 -3.6661e+001 38507 96352,96404,96378
 4.0000e+000 96453 -2.2087e+001 -3.5089e+001  1.2614e+000 38507 96222,96300,96248
 4.0000e+000 96430 -8.5494e+000 -3.7663e+001 -1.2963e+001 38507 96248,96300,96274
 4.0000e+000 96594  3.7866e+000 -2.5317e+001 -9.7526e+000 38507 96404,96352,96568
 4.0000e+000 96617  1.9245e+001 -2.2378e+001 -8.6149e-001 38507 96404,96568,96222
 4.0000e+000 96666  1.4951e+001 -3.5536e+001  9.9601e+000 38507 96300,96568,96640
 4.0000e+000 96689  2.4666e+001 -1.9678e+001 -1.6150e+001 38507 96300,96640,96326
 4.0000e+000 97069  1.8919e+001  6.1248e+000 -1.2274e+001 37760 97092,96873,96821
 4.0000e+000 97046  2.6334e+001  1.0167e+001 -2.1069e+001 37760 97092,96821,96795
 4.0000e+000 97023  9.0365e+000 -4.8314e+000 -7.9810e+000 37760 96821,96873,96847
 4.0000e+000 97000  4.5379e+000  1.5222e+000 -2.5104e+000 37760 96873,96925,96899
 4.0000e+000 96977  9.4947e+000  8.6322e+001  2.2652e+001 37760 96795,96951,96925
 4.0000e+000 97118  9.5488e+000 -7.1355e+000 -1.2876e-001 37760 96925,96873,97092
 4.0000e+000 97141  3.2765e+001  4.1599e+000 -1.0360e+001 37760 96925,97092,96795
 4.0000e+000 97647 -1.5978e+001 -2.8804e+001 -1.2652e-001 37356 97324,97480,97376
 4.0000e+000 97624 -2.6586e+000 -4.5456e+001  3.7526e+001 37356 97324,97506,97480
 4.0000e+000 97601 -3.5221e+000 -2.9552e+000  7.3197e+000 37356 97376,97480,97454
 4.0000e+000 97578 -2.5871e+001 -1.4681e+001  1.2447e+001 37356 97324,97376,97350
 4.0000e+000 97555  8.8321e+000 -4.5401e+000 -5.5128e+000 37356 97376,97454,97402
 4.0000e+000 97532 -3.5466e+000 -5.2112e+000 -9.0531e+000 37356 97402,97454,97428
 4.0000e+000 98232  1.0030e+000  5.6458e+000  1.1919e+000 36902 97935,98065,98013
 4.0000e+000 98209  2.7083e+001  2.2429e+001  9.0417e+000 36902 97935,98091,98065
 4.0000e+000 98186  1.2777e+001 -6.0164e-001  7.8137e+000 36902 97935,98013,97987
 4.0000e+000 98163  1.5427e+001  5.8808e+001  4.9158e+000 36902 97909,98091,97935
 4.0000e+000 98140  1.5917e+001  2.1639e+000  5.7909e+000 36902 97935,97987,97961
 4.0000e+000 98117  1.6049e+001  2.3342e+001  2.1574e+001 36902 98013,98065,98039
 4.0000e+000 98659  1.4040e+001 -3.4166e+001 -7.1770e+000 36604 98682,98414,98388
 4.0000e+000 98636  3.3490e+000 -3.4612e+001  1.1197e+001 36604 98682,98388,98336
 4.0000e+000 98613  1.5719e+001 -2.6152e+001  4.1112e+000 36604 98754,98518,98466
 4.0000e+000 98590  1.6752e+001  2.7710e+001 -6.8991e+000 36604 98414,98466,98440
 4.0000e+000 98567 -2.4616e+000 -4.1509e+001  8.7243e+000 36604 98336,98388,98362
 4.0000e+000 98544  1.0686e+001 -4.1585e+001  7.1276e+000 36604 98466,98518,98492
 4.0000e+000 98708  2.0238e+001 -1.2539e+001 -1.4741e+001 36604 98466,98414,98682
 4.0000e+000 98731  1.4833e+001 -2.1716e+001  3.9284e+000 36604 98754,98466,98682
 4.0000e+000 98780  1.5620e+001 -2.8252e+001  3.5930e+000 36604 98336,98518,98754
 4.0000e+000 98803  1.2774e+001 -2.6102e+001  2.6746e+000 36604 98336,98754,98682
 4.0000e+000 99309 -2.5151e+001  2.2344e+001 -4.0227e+000 36200 99332,99116,99012
 4.0000e+000 99286  5.1460e+000  1.6488e+001  1.9026e-002 36200 99332,99012,98986
 4.0000e+000 99263 -1.5724e+001 -6.6541e+000 -1.8939e+001 36200 99012,99116,99064
 4.0000e+000 99240  3.8043e+001  7.8959e+000  1.7048e+001 36200 98986,99168,99142
 4.0000e+000 99217 -7.5692e+000 -3.3426e+001 -4.6719e+000 36200 99064,99116,99090
 4.0000e+000 99194 -5.4267e+000  1.9335e+001 -1.6426e+001 36200 99012,99064,99038
 4.0000e+000 99358 -1.4841e+001  1.5297e+001  1.9604e+001 36200 99142,99116,99332
 4.0000e+000 99381  2.9332e+001  2.2440e+001  2.5540e+001 36200 99142,99332,98986
 4.0000e+000 99887  4.4526e+001 -3.6278e+001  3.5677e+000 35488 99564,99720,99590
 4.0000e+000 99864  6.3936e+001  1.0834e+001 -1.7755e+000 35488 99564,99746,99720
 4.0000e+000 99841  3.1330e+001  9.4796e+000 -2.5615e+001 35488 99642,99694,99668
 4.0000e+000 99818  4.5131e+000 -2.0024e+001  6.5178e+000 35488 99590,99694,99642
 4.0000e+000 99795  4.1092e+001 -1.5403e+001 -1.2206e+001 35488 99590,99720,99694
 4.0000e+000 99772  2.7945e+001 -8.6030e+001  6.4307e+000 35488 99590,99642,99616
 4.0000e+000 99988 -3.2012e-068  6.2826e-070  9.7886e-070 35198 99910,99962,99936
 4.0000e+000 100138  1.7977e+001  8.6083e+000 -2.4539e+001 34794 100233,100161,100063
 4.0000e+000 100115 -6.8127e+000  3.9956e+000 -4.7489e+000 34794 100365,100161,100037
 4.0000e+000 100187  3.3239e+001 -3.0031e+000 -2.4323e+001 34794 100089,100063,100161
 4.0000e+000 100210  7.9352e+000 -1.1662e+001 -2.6556e+001 34794 100089,100161,100011
 4.0000e+000 100259  3.3297e+001  2.6974e+001  4.5166e+000 34794 100037,100161,100233
 4.0000e+000 100391 -6.2269e+000 -1.7086e+001  5.7330e+000 34794 100011,100161,100365
 4.0000e+000 100927  4.9888e+000 -9.4658e+000  3.9416e+000 34404 100679,100809,100783
 4.0000e+000 100904 -4.2554e+000  2.8105e+000  6.2313e+000 34404 100653,100809,100679
 4.0000e+000 100881  5.3219e+000  4.8346e+000 -3.2764e+000 34404 100705,100783,100731
 4.0000e+000 100858 -7.1117e-001 -6.0360e+000 -8.6004e+000 34404 100679,100783,100705
 4.0000e+000 100835 -3.5655e+000  8.5682e+000 -1.7613e+001 34404 100731,100783,100757
 4.0000e+000 101354 -2.3416e+000 -5.0479e+001  1.1175e+001 34000 101377,101109,101057
 4.0000e+000 101331 -1.5847e+001 -5.4716e+001  1.1467e+001 34000 101449,101377,101057
 4.0000e+000 101308 -2.0847e+001 -3.9888e+001  1.1738e+001 34000 101449,101057,101031
 4.0000e+000 101285 -2.4571e+001 -3.3679e+001  3.1088e+000 34000 101031,101213,101187
 4.0000e+000 101262  1.3653e+001 -6.6490e+001 -1.8622e+001 34000 101135,101187,101161
 4.0000e+000 101239 -2.3366e+000 -1.9234e+001  3.4229e+000 34000 101057,101109,101083
 4.0000e+000 101403 -4.9758e+000 -4.7571e+001  5.5532e+000 34000 101135,101109,101377
 4.0000e+000 101426 -1.4390e+001 -5.0579e+001  1.3678e+000 34000 101135,101377,101187
 4.0000e+000 101475 -4.2114e+000 -3.6433e+001  5.9340e+000 34000 101187,101377,101449
 4.0000e+000 101498 -1.5772e+001 -2.9761e+001  8.5515e+000 34000 101187,101449,101031
 4.0000e+000 102083  5.0322e+001  1.1536e+001 -4.3711e+000 33472 102106,101812,101786
 4.0000e+000 102060  1.5371e+001 -4.6775e+000 -2.4320e-001 33472 102106,101786,101916
 4.0000e+000 102037 -2.4445e+001  4.2387e+000 -1.5454e+001 33472 101812,101864,101838
 4.0000e+000 102014 -2.3839e+001  1.4366e+000 -5.1270e+000 33472 101864,101916,101890
 4.0000e+000 101991  1.5875e+001 -8.9920e+000 -8.5416e-001 33472 101786,101942,101916
 4.0000e+000 101968  1.6168e+001 -3.5687e+000  3.1195e+000 33472 101760,101942,101786
 4.0000e+000 102132  2.9168e+001  1.3483e+001 -1.8307e+001 33472 101864,101812,102106
 4.0000e+000 102155  1.8264e+001  8.4937e+000 -1.7143e+001 33472 101864,102106,101916
 4.0000e+000 102612  2.2802e+000 -5.8696e+001 -2.6737e+001 33038 102635,102468,102390
 4.0000e+000 102589 -1.3133e+001 -8.0768e+001 -3.7440e+001 33038 102635,102390,102364
 4.0000e+000 102566  5.0564e+000 -3.9860e+001 -2.0033e+001 33038 102390,102468,102442
 4.0000e+000 102543  8.1145e+000 -5.8395e+001 -2.0069e+001 33038 102338,102494,102364
 4.0000e+000 102520  7.1786e+000 -4.0700e+001 -2.3121e+001 33038 102390,102442,102416
 4.0000e+000 102661  3.8000e+000 -5.2980e+001 -1.4570e+001 33038 102494,102468,102635
 4.0000e+000 102684  1.1953e+000 -6.4948e+001 -2.3007e+001 33038 102494,102635,102364
 4.0000e+000 103318  6.8330e+000  1.2100e+001  1.1134e+000 32402 102972,103128,103076
 4.0000e+000 103295  1.4527e+001  1.0143e+001  1.0376e+000 32402 102946,103128,102972
 4.0000e+000 103272  4.6861e+000  7.5334e-001  1.5440e+001 32402 103076,103128,103102
 4.0000e+000 103249  2.0231e+001  1.2318e+001 -1.2049e+000 32402 102946,103154,103128
 4.0000e+000 103226  6.3410e+000  5.2268e-001  1.2153e+001 32402 102972,103076,102998
 4.0000e+000 103203 -1.9528e+000 -1.0133e+001  6.3154e+000 32402 102998,103076,103050
 4.0000e+000 103180  1.5713e+000  1.8897e+000  2.0261e+000 32402 102998,103050,103024
 4.0000e+000 103696  1.6484e+001 -4.2733e+001 -1.0386e+001 31924 103448,103526,103500
 4.0000e+000 103673 -8.7272e+000 -5.5457e+001 -1.8475e+001 31924 103448,103578,103526
 4.0000e+000 103650 -1.8266e+001 -3.4313e+001 -1.1937e+000 31924 103448,103500,103474
 4.0000e+000 103627  5.5669e+000 -1.0408e+002 -1.7915e+001 31924 103422,103578,103448
 4.0000e+000 103604 -1.4422e+001 -1.4045e+002  1.3446e+000 31924 103526,103578,103552
 4.0000e+000 104281 -1.1218e+001 -8.6950e+000 -3.6337e+000 31520 104304,104062,104036
 4.0000e+000 104258  6.9150e+000  5.4464e+000  2.6175e+000 31520 104304,104036,103984
 4.0000e+000 104235  2.3059e+001  1.6610e+001  3.1717e+001 31520 104062,104114,104088
 4.0000e+000 104212  1.0402e+001  1.7995e+001  1.2212e+001 31520 103958,104114,103984
 4.0000e+000 104189  6.7121e+000  3.2431e+000 -9.0056e+000 31520 103984,104036,104010
 4.0000e+000 104166  1.4998e+001  8.4438e+000  1.1054e+001 31520 103958,104140,104114
 4.0000e+000 104330 -1.2523e+001  7.4545e+000  4.8738e+000 31520 104114,104062,104304
 4.0000e+000 104353 -6.9718e+000  1.1653e+001  6.7049e+000 31520 104114,104304,103984
 4.0000e+000 104704 -2.5297e+001 -2.8701e+001 -2.0793e+001 31066 104479,104583,104505
 4.0000e+000 104681  4.7300e+001 -6.0187e+000 -2.4667e+001 31066 104479,104609,104583
 4.0000e+000 104658 -6.1169e+000 -4.8186e+000 -5.4100e+000 31066 104505,104557,104531
 4.0000e+000 104635  9.7472e+000 -3.5777e+000 -9.7242e+000 31066 104505,104583,104557
 4.0000e+000 104925  2.4813e+001  1.9547e+001 -1.2203e+001 30754 104775,104827,104801
 4.0000e+000 104902  1.7219e+001  2.0895e+001 -8.9278e+000 30754 104775,104853,104827
 4.0000e+000 104879  1.6440e+000  1.4299e+001 -7.9930e+000 30754 104749,104853,104775
 4.0000e+000 105482 -4.8237e-001  7.3762e-001  1.7653e+000 30164 105505,105136,105110
 4.0000e+000 105459  4.7978e+000  1.4454e+000  1.2447e+000 30164 105649,105505,105110
 4.0000e+000 105436 -3.1795e+000 -6.9942e+000  8.3933e+000 30164 105577,105188,105136
 4.0000e+000 105413  5.2903e+000  2.0063e+000 -1.0941e+000 30164 105649,105110,105318
 4.0000e+000 105390  1.1938e+001 -3.7861e+001  2.7723e+001 30164 105214,105292,105240
 4.0000e+000 105367 -1.2962e+001 -6.0533e+001  3.9256e+001 30164 105240,105292,105266
 4.0000e+000 105344 -2.4715e+000 -2.0794e+001  1.2431e+001 30164 105136,105188,105162
 4.0000e+000 105531  5.5227e+000 -4.4265e+000  2.7092e-001 30164 105577,105136,105505
 4.0000e+000 105554  2.9811e+001 -3.9001e+000  3.3427e+000 30164 105214,105505,105292
 4.0000e+000 105603 -3.3017e+000 -1.7943e+001  1.6768e+001 30164 105214,105188,105577
 4.0000e+000 105626  1.2201e+000 -1.7751e+001  9.0844e+000 30164 105214,105577,105505
 4.0000e+000 105675  3.2799e+000 -2.1646e+000  1.0148e+000 30164 105292,105505,105649
 4.0000e+000 105698  3.2763e+000 -3.1439e+000 -9.0458e-001 30164 105292,105649,105318
 4.0000e+000 106027  2.4945e+001  8.2142e+000  3.7985e+000 29868 106322,106050,105880
 4.0000e+000 106004  1.3875e+001  1.0522e+001  7.1863e+000 29868 106250,106050,105828
 4.0000e+000 105981  1.0974e+001  9.0999e+000  6.6932e+000 29868 106250,105828,105802
 4.0000e+000 105958  2.2624e+001  4.3352e+000  4.7659e+000 29868 106322,105880,106122
 4.0000e+000 106076  2.7526e+001  3.8151e+001 -1.2407e+001 29868 105906,105880,106050
 4.0000e+000 106099 -1.5260e+000  1.3751e+001 -1.7739e+000 29868 105906,106050,105932
 4.0000e+000 106148  1.1283e+001 -1.1684e+000  1.1465e+000 29868 105854,105828,106122
 4.0000e+000 106276  1.2538e+001  1.1096e+001  9.5342e-001 29868 105932,106050,106250
 4.0000e+000 106299  4.1677e+000  7.2814e+000  6.0555e-003 29868 105932,106250,105802
 4.0000e+000 106348  2.0707e+001  1.2657e+001  6.4155e+000 29868 105828,106050,106322
 4.0000e+000 106371  1.8991e+001  9.7050e+000  7.1228e+000 29868 105828,106322,106122
 4.0000e+000 106828  3.9169e+001  1.8994e+001  4.5538e+000 29521 106580,106710,106684
 4.0000e+000 106805  2.2720e+001  9.8268e-002 -6.1152e+000 29521 106554,106710,106580
 4.0000e+000 106782  1.0460e+001  6.8212e+000 -1.3063e+000 29521 106580,106684,106606
 4.0000e+000 106759  2.1597e+001  2.0803e+001  8.6990e+000 29521 106606,106684,106658
 4.0000e+000 106736  5.8706e+000  3.7913e+001  1.4484e+001 29521 106606,106658,106632
 4.0000e+000 107027 -2.8983e+001 -2.6975e+001 -2.4387e+001 29117 106877,106929,106903
 4.0000e+000 107004 -1.6593e+001 -2.1550e+001 -2.1071e+001 29117 106851,106929,106877
 4.0000e+000 106981  4.2959e+001 -7.3602e+001 -2.9910e+001 29117 106851,106955,106929
 4.0000e+000 107456 -3.8301e+001 -1.1302e+002 -1.8916e+001 28656 107237,107315,107263
 4.0000e+000 107433  5.0811e+000 -5.4946e+001  7.9980e-001 28656 107133,107315,107237
 4.0000e+000 107410  2.6007e+001 -5.8802e+001 -2.1688e+001 28656 107133,107237,107159
 4.0000e+000 107387  2.7746e+001 -3.2504e+001 -2.7874e+001 28656 107159,107237,107185
 4.0000e+000 107364  4.6300e+001 -5.6101e+000  2.5172e+001 28656 107185,107237,107211
 4.0000e+000 107341  1.1345e+001 -3.6027e+000 -2.4088e+000 28656 107263,107315,107289
 4.0000e+000 107704  2.3913e+001  1.8798e+001  1.4854e+001 27902 107727,107557,107531
 4.0000e+000 107681  2.6992e+000  2.6888e+001 -9.2536e-002 27902 107727,107531,107505
 4.0000e+000 107658  4.7685e+001  2.2088e+001  1.4476e+001 27902 107557,107609,107583
 4.0000e+000 107635  1.7033e-001  2.5343e+001  6.6328e+000 27902 107479,107609,107505
 4.0000e+000 107753  4.7233e+001  2.1157e+001  1.4622e+001 27902 107609,107557,107727
 4.0000e+000 107776  2.5803e+001  2.9826e+001  7.9908e-001 27902 107609,107727,107505
 4.0000e+000 108333 -9.6800e+000 -7.5987e+001  5.2684e-001 27341 108356,108065,108013
 4.0000e+000 108310 -6.6212e+000 -6.9949e+001 -1.9890e+001 27341 108356,108013,108143
 4.0000e+000 108287 -2.7100e+001 -9.5536e+001 -1.6466e+001 27341 108428,108117,108091
 4.0000e+000 108264  6.9219e+000 -6.0298e+001 -6.0998e+000 27341 108013,108065,108039
 4.0000e+000 108241 -8.0666e+000 -8.5380e+001 -2.3959e+001 27341 107987,108143,108013
 4.0000e+000 108218 -8.5769e+000 -8.4106e+001 -4.5360e+001 27341 107987,108169,108143
 4.0000e+000 108195 -5.1797e+000 -8.1115e+001 -4.4080e+001 27341 107961,108169,107987
 4.0000e+000 108382 -7.0506e+000 -5.9172e+001 -1.4555e+001 27341 108091,108065,108356
 4.0000e+000 108405 -3.3418e+001 -6.9240e+001 -1.1238e+001 27341 108428,108091,108356
 4.0000e+000 108454 -3.2422e+001 -1.6211e+002 -2.5651e+001 27341 108143,108117,108428
 4.0000e+000 108477 -2.7661e+001 -1.1884e+002 -2.3042e+001 27341 108143,108428,108356
 4.0000e+000 108725  2.0656e+001  8.8072e+000  1.3211e+001 27029 108748,108526,108500
 4.0000e+000 108702  1.1893e+001 -1.2379e+000  1.7134e+001 27029 108748,108500,108630
 4.0000e+000 108679 -4.8247e-001  2.6793e+000  1.3148e+001 27029 108578,108630,108604
 4.0000e+000 108656 -2.1556e+000  8.9413e+000 -2.8650e+000 27029 108526,108578,108552
 4.0000e+000 108774  1.3515e+001  2.2215e+001  8.0830e+000 27029 108578,108526,108748
 4.0000e+000 108797  4.3006e+000  1.3060e+001  1.1806e+001 27029 108578,108748,108630
 4.0000e+000 109045 -1.6682e+000  1.5885e+001  5.9932e+000 26610 108872,108924,108898
 4.0000e+000 109022  8.1618e+000 -6.1743e+001 -2.7548e+001 26610 108872,108950,108924
 4.0000e+000 108999  2.1925e+001 -6.0702e+001 -4.9097e+000 26610 108846,108950,108872
 4.0000e+000 108976 -2.8231e-001 -1.2792e+002 -2.1162e+001 26610 108820,108950,108846
 4.0000e+000 109366  1.3409e+001 -9.1494e+001 -1.6167e+001 26006 109144,109222,109196
 4.0000e+000 109343 -5.8685e+000 -9.3923e+001 -1.8505e+001 26006 109118,109222,109144
 4.0000e+000 109320  3.4562e+001 -8.9345e+001 -4.1550e+000 26006 109092,109222,109118
 4.0000e+000 109297 -1.3187e-001 -9.8497e+001 -3.1092e+000 26006 109144,109196,109170
 4.0000e+000 109274  2.5341e+001  1.8780e+001  1.3024e+001 26006 109092,109248,109222
 4.0000e+000 109567 -5.4318e+000  2.7092e+001 -3.4796e+001 25659 109391,109469,109443
 4.0000e+000 109544  1.7689e+001  1.6668e+001  1.6736e+001 25659 109391,109495,109469
 4.0000e+000 109521 -3.3577e+001  1.7127e+001 -1.3180e+001 25659 109391,109443,109417
 4.0000e+000 109900  2.5521e+001  3.1134e+001 -8.1243e+000 25255 109923,109779,109753
 4.0000e+000 109877  2.3937e+001  2.9219e+001 -5.0515e+000 25255 109923,109753,109701
 4.0000e+000 109854  3.9919e+000  2.4781e+001 -7.1405e+000 25255 109675,109805,109701
 4.0000e+000 109831  2.5205e+001  2.9780e+001 -5.3495e+000 25255 109701,109753,109727
 4.0000e+000 109949  2.1293e+001  3.3002e+001 -5.9251e+000 25255 109805,109779,109923
 4.0000e+000 109972  1.9997e+001  2.9516e+001 -2.4849e+000 25255 109805,109923,109701
 4.0000e+000 110220 -2.8066e+000  1.7859e+001  1.0905e+001 24701 110243,110021,109995
 4.0000e+000 110197 -3.2422e+000  1.2667e+001  2.4521e+000 24701 110243,109995,110099
 4.0000e+000 110174 -1.8263e+000  3.1117e+001  7.4655e+000 24701 110315,110073,110047
 4.0000e+000 110151 -1.1573e+000  1.3600e+001  1.8840e+000 24701 109995,110125,110099
 4.0000e+000 110269  4.6447e+000  1.5275e+001  5.7450e+000 24701 110047,110021,110243
 4.0000e+000 110292 -3.8481e+000  2.8272e+001  5.3870e+000 24701 110315,110047,110243
 4.0000e+000 110341  1.6969e+001  2.5818e+001  1.4252e+001 24701 110099,110073,110315
 4.0000e+000 110364  7.4324e+000  1.7264e+001  9.0821e+000 24701 110099,110315,110243
 4.0000e+000 110661 -8.9830e+000 -1.0866e+002  3.1444e+001 24197 110684,110413,110387
 4.0000e+000 110638  1.8198e+001 -5.3313e+001  2.0668e+001 24197 110684,110387,110543
 4.0000e+000 110615  2.3523e+001 -1.3826e+002  2.0594e+001 24197 110756,110491,110465
 4.0000e+000 110592 -1.7835e+001 -7.9067e+001  2.6434e+001 24197 110413,110465,110439
 4.0000e+000 110569  7.8431e+000 -1.6667e+002 -1.0015e+001 24197 110491,110543,110517
 4.0000e+000 110710  2.5341e+001 -9.5528e+001  2.6855e+001 24197 110465,110413,110684
 4.0000e+000 110733  1.2520e+001 -1.2009e+002  1.8351e+001 24197 110756,110465,110684
 4.0000e+000 110782  2.1926e+001 -1.1714e+002  2.5932e+000 24197 110543,110491,110756
 4.0000e+000 110805  1.9049e+001 -8.8731e+001  2.6680e-001 24197 110543,110756,110684
 4.0000e+000 111315  2.7723e+001 -3.4649e+001  2.5789e+000 23593 111044,111148,111070
 4.0000e+000 111292 -4.2981e-002  6.3955e+000  2.1840e+001 23593 111044,111174,111148
 4.0000e+000 111269  6.6981e+001  4.6201e+000 -5.6842e+000 23593 111070,111122,111096
 4.0000e+000 111246  3.0115e+001 -3.4839e+000 -1.2069e+001 23593 111070,111148,111122
 4.0000e+000 111223 -7.9184e-001  2.0672e+001  1.5776e+001 23593 111018,111174,111044
 4.0000e+000 111200 -1.9001e-001  2.9958e+001  1.7420e+001 23593 110992,111174,111018
 4.0000e+000 111821  7.2350e+000 -7.5294e+001 -8.4666e-001 23089 111916,111844,111628
 4.0000e+000 111798 -7.4070e+000 -8.6441e+001 -1.8643e+001 23089 111844,111550,111524
 4.0000e+000 111775  1.1583e+000 -5.6820e+001 -7.7575e-001 23089 111916,111628,111602
 4.0000e+000 111752  4.3187e+001 -1.2084e+002 -1.9067e+000 23089 111498,111680,111524
 4.0000e+000 111729 -6.8525e-001 -3.3100e+001  4.7474e+000 23089 111550,111602,111576
 4.0000e+000 111706 -1.5419e+000 -3.4510e+001 -1.1555e+001 23089 111628,111680,111654
 4.0000e+000 111870  1.0180e+001 -6.8221e+001  4.4523e+000 23089 111680,111628,111844
 4.0000e+000 111893  7.9868e+000 -7.3822e+001 -6.1467e-001 23089 111680,111844,111524
 4.0000e+000 111942  1.3320e+001 -5.0857e+001 -9.2383e+000 23089 111550,111844,111916
 4.0000e+000 111965  3.1055e+000 -3.6191e+001 -6.8801e+000 23089 111550,111916,111602
 4.0000e+000 112164 -9.3087e+000  3.6563e+000 -5.0056e+000 22626 112187,112014,111988
 4.0000e+000 112141  1.3592e+001 -2.0102e+001 -8.1706e+000 22626 112259,112187,111988
 4.0000e+000 112118  9.6291e-001 -2.3377e+001 -1.0880e+001 22626 112259,111988,112092
 4.0000e+000 112213  1.1303e+001  4.5292e+001  7.6845e+000 22626 112040,112014,112187
 4.0000e+000 112236  9.7157e+000 -1.1355e+001 -1.1775e+001 22626 112040,112187,112066
 4.0000e+000 112285  1.7647e+000 -2.2123e+001 -1.9481e+001 22626 112066,112187,112259
 4.0000e+000 112308 -5.4911e+000 -2.3199e+001 -2.2722e+001 22626 112066,112259,112092
 4.0000e+000 112605  6.0088e+000 -5.9116e+001  1.4520e+001 22286 112628,112383,112357
 4.0000e+000 112582  9.5458e+000 -6.1712e+001  1.9690e+001 22286 112772,112628,112357
 4.0000e+000 112559 -2.0807e+001 -6.5524e+001  5.2547e+001 22286 112700,112435,112409
 4.0000e+000 112536 -2.0596e+001 -5.7326e+001  3.3200e+001 22286 112772,112357,112331
 4.0000e+000 112513  7.8364e+000 -7.0596e+001  5.4401e+001 22286 112435,112487,112461
 4.0000e+000 112654  1.0943e+001 -5.1598e+001  1.6832e+001 22286 112409,112383,112628
 4.0000e+000 112677 -4.4507e+000 -6.4587e+001  2.2419e+001 22286 112700,112409,112628
 4.0000e+000 112726  2.2704e+001 -4.5629e+001  4.7749e+001 22286 112487,112435,112700
 4.0000e+000 112749  3.3319e+001 -4.8842e+001  2.1783e+001 22286 112487,112700,112628
 4.0000e+000 112798  2.3165e+001 -4.4387e+001  1.3764e+001 22286 112487,112628,112772
 4.0000e+000 112821  1.0339e+001 -2.9901e+001  2.0370e+001 22286 112487,112772,112331
 4.0000e+000 112924 -9.1131e-002  2.2694e+000  3.9622e+000 21974 112846,112898,112872
 4.0000e+000 113223 -5.4762e+000 -1.1988e+002  1.5450e+001 21420 112949,113053,112975
 4.0000e+000 113200  9.6537e+000 -1.0278e+002  8.0395e+000 21420 112949,113079,113053
 4.0000e+000 113177  1.2139e+002 -8.9493e+001  5.5847e+001 21420 112975,113053,113001
 4.0000e+000 113154 -5.3524e+001 -1.8693e+002  1.7156e+001 21420 113001,113053,113027
 4.0000e+000 113131 -1.2609e+001 -5.6279e+001 -2.6617e+001 21420 112949,113105,113079
 4.0000e+000 113605 -1.9599e+001 -1.1151e+002  3.8171e+001 20716 113331,113435,113357
 4.0000e+000 113582 -7.1917e+000 -6.5568e+001  3.3234e+001 20716 113331,113461,113435
 4.0000e+000 113559  4.8706e-001 -1.1937e+002 -2.2385e+001 20716 113383,113435,113409
 4.0000e+000 113536 -3.6742e+001 -8.9220e+001 -1.2152e+001 20716 113357,113435,113383
 4.0000e+000 113513 -8.5127e+000 -3.4600e+001  7.1802e+000 20716 113331,113487,113461
 4.0000e+000 113853 -3.8287e+000 -1.2330e+002  1.5560e+000 20290 113876,113680,113654
 4.0000e+000 113830  1.2477e+001 -1.3204e+002 -3.9941e+000 20290 113876,113654,113628
 4.0000e+000 113807 -1.5345e+001 -1.4837e+002 -1.2586e+001 20290 113948,113732,113680
 4.0000e+000 113784  6.3256e+001 -1.2898e+002 -2.0887e+001 20290 113680,113732,113706
 4.0000e+000 113902 -2.4737e+000 -1.3111e+002 -5.0454e-001 20290 113948,113680,113876
 4.0000e+000 113925 -7.3760e+000 -1.3268e+002 -7.8253e-001 20290 113758,113876,113628
 4.0000e+000 113974 -2.9706e+001 -1.3249e+002 -1.7873e+001 20290 113758,113732,113948
 4.0000e+000 113997 -2.8474e+001 -1.3108e+002 -8.6741e+000 20290 113758,113948,113876
 4.0000e+000 114365 -7.5930e+000 -7.9422e+001  2.5834e-001 19900 114146,114198,114172
 4.0000e+000 114342 -1.1215e+001 -8.0953e+001  3.3204e-001 19900 114042,114198,114146
 4.0000e+000 114319 -5.4666e+000 -7.6260e+001 -2.6785e+000 19900 114042,114224,114198
 4.0000e+000 114296 -3.1983e+001 -7.6094e+001 -2.5086e+000 19900 114094,114146,114120
 4.0000e+000 114273 -1.3082e+001 -7.6349e+001 -4.9850e+000 19900 114042,114146,114094
 4.0000e+000 114250 -2.4927e+001 -7.7991e+001 -1.4096e+000 19900 114042,114094,114068
 4.0000e+000 114566  1.5591e+001 -8.8871e+001  9.9357e+000 19496 114442,114494,114468
 4.0000e+000 114543  3.7554e+001 -5.6855e+001  1.9488e+001 19496 114416,114494,114442
 4.0000e+000 114520  5.8648e+000 -3.1128e+001  4.3445e+001 19496 114390,114494,114416
 4.0000e+000 114767  1.3107e+001 -7.7479e+001  2.6759e+000 19042 114790,114669,114643
 4.0000e+000 114744  1.0840e+001 -7.5494e+001  3.5492e+000 19042 114790,114643,114591
 4.0000e+000 114721  1.6518e+001 -7.3045e+001  9.6550e+000 19042 114591,114643,114617
 4.0000e+000 114816  1.3459e+001 -7.5655e+001  1.9382e+000 19042 114695,114669,114790
 4.0000e+000 114839  1.2085e+001 -7.2401e+001  2.8191e+000 19042 114695,114790,114591
 4.0000e+000 114991 -2.9237e+001 -8.5525e+001  4.6793e-001 18488 114864,114916,114890
 4.0000e+000 114968 -2.2034e+001 -8.3569e+001 -1.8934e+000 18488 114864,114942,114916
 4.0000e+000 115192  9.7168e+001 -3.7173e+001  1.5607e+001 18098 115215,115042,115016
 4.0000e+000 115169  6.1410e+001 -5.8415e+000 -4.3983e+000 18098 115215,115016,115120
 4.0000e+000 115146  6.6166e+001 -3.9198e+001 -1.1480e+001 18098 115287,115094,115068
 4.0000e+000 115241  6.9779e+001 -9.2831e+001  3.0961e+000 18098 115068,115042,115215
 4.0000e+000 115264  6.7435e+001 -3.0438e+001  4.7552e-001 18098 115287,115068,115215
 4.0000e+000 115313  5.1518e+001 -4.8422e+001 -1.7824e+001 18098 115120,115094,115287
 4.0000e+000 115336  4.6909e+001 -4.2722e+001 -6.6200e+000 18098 115120,115287,115215
 4.0000e+000 115846  8.5805e+001 -1.7311e+002 -7.0339e+001 17644 115653,115705,115679
 4.0000e+000 115823  2.9194e+001 -1.4954e+002 -3.5382e+001 17644 115627,115705,115653
 4.0000e+000 115800  7.9046e+001 -7.3119e+001 -1.2147e+001 17644 115549,115705,115627
 4.0000e+000 115777  2.1241e+001 -1.2957e+002  1.8506e+001 17644 115549,115627,115575
 4.0000e+000 115754  3.4136e+001 -8.3126e+001 -2.1693e+000 17644 115523,115705,115549
 4.0000e+000 115731 -3.5331e+001 -1.0318e+002 -1.2095e+001 17644 115575,115627,115601
 4.0000e+000 116067 -5.0684e+001 -2.5839e+002 -9.9608e+000 17116 115891,115943,115917
 4.0000e+000 116044 -8.9926e+001 -2.9264e+002  4.6350e+000 17116 115891,115995,115943
 4.0000e+000 116021 -8.6848e+001 -2.5522e+002  3.4231e+000 17116 115943,115995,115969
 4.0000e+000 116288 -1.7108e+001 -1.6527e+002  2.9151e+001 16704 116164,116216,116190
 4.0000e+000 116265 -4.4202e+001 -2.1315e+002  1.7694e+001 16704 116112,116216,116164
 4.0000e+000 116242 -7.4741e+001 -2.0335e+002 -3.8564e+000 16704 116112,116164,116138
 4.0000e+000 116489 -1.2616e+001 -9.8755e+001 -4.4840e+000 16434 116339,116417,116365
 4.0000e+000 116466 -1.9247e+001 -9.9375e+001 -3.8117e-001 16434 116313,116417,116339
 4.0000e+000 116443 -4.8221e+001 -1.2567e+002  1.8876e+001 16434 116365,116417,116391
 4.0000e+000 116592  1.5162e+001 -1.4579e+002  2.1898e+000 15967 116514,116566,116540
 4.0000e+000 116695 -1.4704e+001 -2.3861e+002 -2.9459e+001 15552 116617,116669,116643
 4.0000e+000 116798 -6.6274e+000 -7.4740e+001  0.0000e+000 421 116720,116772,116746
